
units lj                  # Use reduced LJ style units
atom_style atomic         # Uncharged point particles
atom_modify map hash      # Needed for indexing of clusters etc
                          # Used to be able to find where atoms are in relation to each other.

lattice fcc 1.0 spacing 1 1 1
Lattice spacing in x,y,z = 1.5874011 1.5874011 1.5874011
region box block 0 10 0 10 0 10 units lattice
create_box 2 box
Created orthogonal box = (0.0000000 0.0000000 0.0000000) to (15.874011 15.874011 15.874011)
  3 by 4 by 4 MPI processor grid
create_atoms 1 box
Created 4000 atoms
  using lattice units in orthogonal box = (0.0000000 0.0000000 0.0000000) to (15.874011 15.874011 15.874011)
  create_atoms CPU = 0.014 seconds
set type 1 type/fraction 2 0.09 78393
Setting atom values ...
  390 settings made for type/fraction
mass 1 1.0
mass 2 1.0
pair_style lj/cut  3.5
pair_modify tail  yes
pair_coeff 1  1  1.0  1.0   # Intearaction between 1 and 1 set with epsilon = 1 and sigma = 1
pair_coeff 1  2  1.5  0.8
pair_coeff 2  2  0.5  0.88

write_data data.0
System init for write_data ...
Neighbor list info ...
  update every 1 steps, delay 10 steps, check yes
  max neighbors/atom: 2000, page size: 100000
  master list distance cutoff = 3.8
  ghost atom cutoff = 3.8
  binsize = 1.9, bins = 9 9 9
  1 neighbor lists, perpetual/occasional/extra = 1 0 0
  (1) pair lj/cut, perpetual
      attributes: half, newton on
      pair build: half/bin/atomonly/newton
      stencil: half/bin/3d
      bin: standard
WARNING: Not all mixed pair coeffs generated from mixing. Use write_data with 'pair ij' option to store all pair coeffs. (../write_data.cpp:312)


#############################
#   M E L T   S Y S T E M   #
#############################

velocity all create 2.4 5833274 mom yes dist gaussian # Assign velocities
                                                    # Temperature 2.4, random number seed, zero linear momentum
                                                                                # Gaussian distribution

timestep 0.002   # simulation timestep
thermo 1000       # output thermodynamic data every 1000 steps bf 100

# Define a fix  in this case with index 1 applied to all
# particles in the simulation. This fix is for simulations
# in the anisotropic NPT ensemble. Note that we use the MTK
# correction.
fix 1 all npt temp 2.4 2.4 0.1 iso 5.68 5.68 0.5 mtk yes tchain 5 pchain 5 # Use NPT ensemble
                                                                         # Set temperature and pressure and damping
                                                                         # Numbers of thermostats in chain and in barostat
run 10000          # run for 10000 steps
Per MPI rank memory allocation (min/avg/max) = 3.642 | 3.644 | 3.648 Mbytes
Step Temp E_pair E_mol TotEng Press Volume 
       0          2.4   -7.7460071            0   -4.1469071   -2.9736732         4000 
    1000    2.4118254   -4.5628433            0  -0.94600963    5.7835956    4873.1384 
    2000    2.4135403   -4.5470167            0  -0.92761128    5.6030223    4903.0936 
    3000    2.3887207   -4.6332693            0    -1.051084    5.5943931     4862.323 
    4000    2.3742905   -4.6018173            0   -1.0412718    5.5504245    4872.7038 
    5000    2.4431306   -4.5679523            0  -0.90417249    5.6837399    4883.1071 
    6000    2.3671101   -4.5803941            0   -1.0306167    5.5714376    4882.5354 
    7000     2.420094   -4.5633396            0   -0.9341061    5.9177253    4858.1942 
    8000    2.3413458    -4.615137            0   -1.1039963     5.801427    4839.1893 
    9000    2.4050992   -4.5948306            0  -0.98808374    5.8195299    4857.2952 
   10000    2.4131607   -4.5526864            0  -0.93385029    5.7172145    4883.4576 
Loop time of 2.23904 on 48 procs for 10000 steps with 4000 atoms

Performance: 771760.291 tau/day, 4466.205 timesteps/s
99.6% CPU use with 48 MPI tasks x no OpenMP threads

MPI task timing breakdown:
Section |  min time  |  avg time  |  max time  |%varavg| %total
---------------------------------------------------------------
Pair    | 0.88429    | 0.96156    | 1.135      |   3.6 | 42.95
Neigh   | 0.19027    | 0.19846    | 0.22635    |   1.3 |  8.86
Comm    | 0.6479     | 0.78854    | 0.90138    |   6.1 | 35.22
Output  | 0.00024368 | 0.00024999 | 0.0003868  |   0.0 |  0.01
Modify  | 0.21475    | 0.27569    | 0.33506    |   7.3 | 12.31
Other   |            | 0.01455    |            |       |  0.65

Nlocal:        83.3333 ave          92 max          74 min
Histogram: 3 3 2 2 8 14 5 6 3 2
Nghost:        1439.77 ave        1470 max        1410 min
Histogram: 2 2 5 8 6 9 4 8 2 2
Neighs:        7791.31 ave        8792 max        6746 min
Histogram: 5 0 4 3 7 14 7 3 2 3

Total # of neighbors = 373983
Ave neighs/atom = 93.495750
Neighbor list builds = 905
Dangerous builds = 221

# Equilibrate just above the melting temperature to avoid step fn in T

fix 1 all npt temp 1.25 1.25 0.1 iso 5.68 5.68 0.5 mtk yes tchain 5 pchain 5
run 2000
Per MPI rank memory allocation (min/avg/max) = 3.642 | 3.644 | 3.648 Mbytes
Step Temp E_pair E_mol TotEng Press Volume 
   10000    2.4131607   -4.5526864            0  -0.93385029    5.7172145    4883.4576 
   11000    1.2383769   -6.1718674            0   -4.3147665    5.7976786    4008.8595 
   12000     1.249266   -6.1917054            0   -4.3182748    5.7399547    4000.6606 
Loop time of 0.47326 on 48 procs for 2000 steps with 4000 atoms

Performance: 730254.561 tau/day, 4226.010 timesteps/s
99.6% CPU use with 48 MPI tasks x no OpenMP threads

MPI task timing breakdown:
Section |  min time  |  avg time  |  max time  |%varavg| %total
---------------------------------------------------------------
Pair    | 0.2059     | 0.22552    | 0.24226    |   1.8 | 47.65
Neigh   | 0.031188   | 0.033624   | 0.03544    |   0.5 |  7.10
Comm    | 0.14234    | 0.1617     | 0.18067    |   2.2 | 34.17
Output  | 5.1785e-05 | 6.6306e-05 | 7.5052e-05 |   0.0 |  0.01
Modify  | 0.042772   | 0.047795   | 0.052412   |   1.2 | 10.10
Other   |            | 0.004559   |            |       |  0.96

Nlocal:        83.3333 ave          89 max          76 min
Histogram: 1 4 1 3 4 12 12 7 3 1
Nghost:        1644.27 ave        1664 max        1623 min
Histogram: 2 5 7 3 4 10 2 8 1 6
Neighs:        9531.46 ave       10337 max        8486 min
Histogram: 1 4 2 3 7 9 10 7 1 4

Total # of neighbors = 457510
Ave neighs/atom = 114.37750
Neighbor list builds = 143
Dangerous builds = 7

#############################
# L I N E A R  Q U E N C H  #
#############################

# Define solid atoms. This closely follows ten Wolde  Ruiz-Montero and Frenkel  Faraday Discuss  1996  104  93-110
# Compute components of the per-atom q6 vector
compute q6 all orientorder/atom degrees 1 6 components 6 nnn NULL cutoff 1.3 # compute the Q6 parameter.
                                                                             # Use all neighbours within 1.3 unit cell.

# get number of connections
compute coord_number all coord/atom orientorder q6 0.5

# An atom is solid if it has 8 or more connections (of a possible 14)
variable is_solid atom c_coord_number>=8
group solid dynamic all var is_solid    # Must be dynamic to update
dynamic group solid defined

# do clustering
compute cluster solid cluster/atom 1.3 # Create a cluster where all atoms within are solid and max 1.3 units from another member

# define chunks one chunk per cluster
compute clus_chunks solid chunk/atom c_cluster nchunk every compress yes  # Says which atoms are in which chunk

# count the size of each chunk
compute size_chunks solid property/chunk clus_chunks count


# Find the maximum entry in the vector of chunk sizes
variable max_n equal max(c_size_chunks)


# Thermo style which includes this variable
# thermo_style custom step temp pe vol v_max_n

thermo ${N}  # Print the thermo information every 100 steps
thermo 1000  

# Reset the npt fix at a lower temperature (below freezing)
fix 1  all npt temp  ${temp} ${temp}  0.1  iso  5.68  5.68  0.5  mtk yes tchain  5  pchain  5
fix 1  all npt temp  0.45 ${temp}  0.1  iso  5.68  5.68  0.5  mtk yes tchain  5  pchain  5
fix 1  all npt temp  0.45 0.45  0.1  iso  5.68  5.68  0.5  mtk yes tchain  5  pchain  5

dump dmp2 all dcd ${N} traj.dcd
dump dmp2 all dcd 1000 traj.dcd


compute msd all msd com yes
variable twopoint equal c_msd[4]/6/(step*dt+1.0e-6)
fix 9 all vector 10 c_msd[4]
variable fit equal slope(f_9)/6/(10*dt)
thermo_style custom step temp pe c_msd[4] v_twopoint v_fit v_max_n

fix 1 all npt temp 1.25 ${temp} 0.1 iso 5.68 5.68 0.5 mtk yes tchain 5 pchain 5
fix 1 all npt temp 1.25 0.45 0.1 iso 5.68 5.68 0.5 mtk yes tchain 5 pchain 5
run 2000000 # 5000000  # Run for this many steps
Neighbor list info ...
  update every 1 steps, delay 10 steps, check yes
  max neighbors/atom: 2000, page size: 100000
  master list distance cutoff = 3.8
  ghost atom cutoff = 3.8
  binsize = 1.9, bins = 9 9 9
  4 neighbor lists, perpetual/occasional/extra = 1 3 0
  (1) pair lj/cut, perpetual
      attributes: half, newton on
      pair build: half/bin/atomonly/newton
      stencil: half/bin/3d
      bin: standard
  (2) compute orientorder/atom, occasional
      attributes: full, newton on
      pair build: full/bin/atomonly
      stencil: full/bin/3d
      bin: standard
  (3) compute coord/atom, occasional
      attributes: full, newton on
      pair build: full/bin/atomonly
      stencil: full/bin/3d
      bin: standard
  (4) compute cluster/atom, occasional
      attributes: full, newton on
      pair build: full/bin/atomonly
      stencil: full/bin/3d
      bin: standard
Per MPI rank memory allocation (min/avg/max) = 9.748 | 9.754 | 9.760 Mbytes
Step Temp PotEng c_msd[4] v_twopoint v_fit v_max_n 
   12000     1.249266   -6.1917054 1.7120254e-30 1.1889065e-32 8.3333333e+20            2 
   13000    1.2646307   -6.1671761   0.58344702 0.0037400449  0.047758072            3 
   14000    1.2562298   -6.1501438    1.1162034 0.0066440675  0.046445306            2 
   15000    1.2562967   -6.1667558    1.7091089 0.0094950494  0.046638674            2 
   16000    1.2722555   -6.2485183    2.2795374   0.01187259  0.047001663            4 
   17000    1.2531704   -6.1946743    2.8010426  0.013730601  0.047078922            1 
   18000     1.250806   -6.2224367    3.3627687  0.015568373  0.046791114            2 
   19000     1.293527   -6.1596203     3.927522  0.017225973  0.046693346            3 
   20000    1.2490948   -6.1484082    4.4100021  0.018375008  0.046350199            4 
   21000    1.2342424    -6.177438    4.9429007  0.019614685  0.046075284            2 
   22000    1.2546291   -6.1858784     5.545853  0.021007018  0.045917342            3 
   23000    1.2579338   -6.1877455    6.0816959   0.02203513  0.045877116            2 
   24000     1.232798   -6.1967549      6.49998  0.022569375  0.045530107            3 
   25000    1.2129172   -6.2300104    7.0895592  0.023631864  0.045329993            2 
   26000    1.2605414   -6.2005367    7.6367643  0.024476808  0.045255471            2 
   27000    1.2296197   -6.2007872     8.178794  0.025243191  0.045130273            3 
   28000    1.2623454   -6.1948121     8.677597  0.025826181  0.045031642            2 
   29000    1.2210277   -6.1762523    9.1642184   0.02633396  0.044903886            5 
   30000    1.2391541   -6.2048546    9.7005819  0.026946061  0.044772508            3 
   31000    1.2252416   -6.1911435    10.283149  0.027642873  0.044750591            3 
   32000    1.2593655   -6.1981717    10.810392  0.028152062  0.044744173            3 
   33000    1.2414299   -6.1851018    11.414197   0.02882373  0.044781261            3 
   34000    1.2563465   -6.2269989    11.885483  0.029131086  0.044778377            3 
   35000    1.2390697   -6.2050897    12.483118  0.029721709  0.044751577            2 
   36000    1.2373466   -6.2094651    13.014089  0.030125205  0.044784283            3 
   37000    1.2302245   -6.2257518    13.506634  0.030420347  0.044771249            4 
   38000    1.2314753    -6.176598    14.072491  0.030860727  0.044763355            3 
   39000    1.2502588   -6.1961764    14.530156  0.031047341  0.044722603            5 
   40000     1.244113   -6.2050809     14.97172  0.031191082  0.044649464            3 
   41000    1.2402058   -6.2125884     15.52216  0.031549106  0.044573338            1 
   42000    1.2313495   -6.2108288    16.052021  0.031849248  0.044508314            2 
   43000     1.235288   -6.1560237    16.585913  0.032143242   0.04447562            4 
   44000    1.2550623   -6.1989003    17.016887  0.032228953  0.044401036            4 
   45000    1.2188819   -6.2079211    17.599822  0.032592263  0.044313058            4 
   46000    1.2638142   -6.2150224    17.996519   0.03260239  0.044241383            2 
   47000    1.2635292   -6.2379601    18.617651  0.033010019  0.044179907            3 
   48000    1.2113958   -6.1726462    19.204729  0.033341543  0.044142773            2 
   49000    1.2652692   -6.2024457    19.638719  0.033399182  0.044102581            3 
   50000    1.2451069   -6.1801083    20.088697  0.033481162  0.044036687            1 
   51000    1.2588231   -6.2034792    20.682322  0.033794643  0.043993265            1 
   52000    1.2330277    -6.186279    21.271764  0.034089366  0.043982945            3 
   53000    1.2654026   -6.2363948    21.773528  0.034235107  0.043971542            3 
   54000    1.2351246   -6.2445256    22.292974  0.034402737  0.043952268            4 
   55000    1.2524841   -6.1825133    22.791956  0.034533267  0.043938388            2 
   56000    1.2370925   -6.1983435    23.217125  0.034549293  0.043916473            6 
   57000    1.2541422   -6.1987909    23.780345  0.034766586  0.043881618            5 
   58000    1.2277721   -6.2236294    24.176086  0.034735755  0.043823425            2 
   59000    1.2204885   -6.2238284    24.628644   0.03478622  0.043768136            4 
   60000    1.2133637   -6.2059792    25.109738  0.034874636  0.043692825            2 
   61000     1.237653   -6.2186612     25.41402  0.034718607  0.043601958            3 
   62000    1.2531175   -6.2323024    25.865289  0.034765174  0.043504164            4 
   63000    1.2238472   -6.2143114    26.460114  0.035000151  0.043415431            3 
   64000    1.2489792   -6.2358519    26.900346  0.035026492  0.043334775            3 
   65000    1.2270693   -6.2260417    27.286974  0.034983299  0.043243898            2 
   66000    1.2354332   -6.1958312     27.80512  0.035107475  0.043150165            1 
   67000    1.2433213   -6.1757499    28.476315  0.035418302   0.04307101            2 
   68000    1.2171873   -6.2043871     28.95412   0.03548299  0.043008838            3 
   69000    1.2327358   -6.1866484    29.398122  0.035504978  0.042947047            2 
   70000    1.2332885   -6.2281352     29.84245  0.035526726  0.042888757            3 
   71000    1.2244244   -6.2266392    30.329325  0.035597799  0.042838728            2 
   72000    1.2566494   -6.1954756    30.998739   0.03587817  0.042792357            3 
   73000    1.2430302    -6.197727    31.672961  0.036156348  0.042771757            4 
   74000    1.2283735   -6.2447498    31.978856  0.036012225  0.042750112            1 
   75000    1.2298608    -6.223063     32.58907  0.036210077  0.042730784            1 
   76000    1.2302168   -6.2259357    33.010079  0.036195262  0.042698533            2 
   77000    1.2352148   -6.1996728    33.706378  0.036478764  0.042678426            3 
   78000     1.225398   -6.2511707    33.957368  0.036279239  0.042645505            3 
   79000    1.2151751   -6.2008866    34.695092  0.036598198  0.042622435            2 
   80000    1.1996388   -6.2311618    35.126075  0.036589661  0.042604608            4 
   81000    1.2271389   -6.2454892    35.435712  0.036456494  0.042587117            2 
   82000    1.2340431   -6.1899155    35.774449  0.036356147   0.04255321            1 
   83000    1.2183448   -6.1734579    36.429682  0.036575986  0.042519825            2 
   84000    1.2255834   -6.2132951    36.814543  0.036522363  0.042479502            2 
   85000    1.2151694    -6.202367    37.244755  0.036514465  0.042435401            3 
   86000    1.2187823   -6.2402406    37.685978   0.03651742   0.04239089            2 
   87000    1.2001773   -6.2228676    38.392745   0.03677466  0.042350122            2 
   88000    1.2149778   -6.2256394    38.887144  0.036824946   0.04231432            4 
   89000    1.2298757   -6.2052828      39.3469  0.036841667  0.042288677            2 
   90000    1.2143798   -6.2468257     39.70332  0.036762333  0.042263548            2 
   91000    1.2386989   -6.2131573    40.197769  0.036811143  0.042226972            3 
   92000    1.2044984   -6.1910162    40.839415  0.036992224  0.042194424            3 
   93000    1.2029359   -6.2410976     41.01332  0.036750287  0.042150835            3 
   94000    1.2117841   -6.2507052     41.45679  0.036752473  0.042102457            2 
   95000    1.2295989   -6.2162626    41.846566  0.036707514  0.042056894            2 
   96000    1.2282506   -6.2246211    42.514965  0.036905352  0.042022822            2 
   97000    1.2165567   -6.2103858    42.935015  0.036885751  0.041990217            2 
   98000    1.2034112   -6.2445226    43.761827  0.037212438  0.041961877            3 
   99000    1.1852587    -6.214141    44.220143  0.037222342  0.041939143            3 
  100000    1.2277525   -6.2311935    44.664632  0.037220526  0.041917526            1 
  101000    1.2032599   -6.2665759    45.000677  0.037129272  0.041897017            5 
  102000    1.2304579   -6.2144501    45.653339   0.03729848  0.041876414            4 
  103000    1.2201001   -6.2596287    46.028769  0.037240104  0.041858165            3 
  104000     1.226393   -6.2364811    46.553037  0.037302113  0.041836331            2 
  105000    1.2486196   -6.2176369    47.036205  0.037330322  0.041815002            2 
  106000    1.2075989   -6.2548269    47.581494  0.037406835  0.041799068            2 
  107000    1.2068139   -6.2485295    48.045323  0.037418476  0.041780752            3 
  108000    1.2087512   -6.2647333    48.545664  0.037458074  0.041761717            2 
  109000    1.2176711      -6.2445    49.060982  0.037508396  0.041745377            8 
  110000    1.2267372   -6.2842587    49.687551  0.037642084  0.041729647            2 
  111000    1.1839614   -6.2297442    50.056814   0.03758019  0.041714397            2 
  112000    1.2226752   -6.2826417    50.551297  0.037612572  0.041699256            3 
  113000    1.1853693   -6.2490518    51.223525  0.037775461  0.041691094            6 
  114000    1.2222241   -6.2570827    51.739097  0.037820977  0.041687885            2 
  115000    1.1892539   -6.2369283    52.415771  0.037982443  0.041684644            5 
  116000    1.2017605   -6.2408705    52.939681   0.03803138  0.041685729            2 
  117000    1.1887674   -6.2938693    53.275425  0.037945459   0.04168815            3 
  118000    1.1598331   -6.2780204    53.678281   0.03790839  0.041688454            2 
  119000    1.1973848    -6.226132     54.40244  0.038096947  0.041692096            1 
  120000    1.2049104   -6.1984155    54.740652  0.038014341  0.041692887            2 
  121000    1.1802296   -6.2547586    55.197099  0.038014531  0.041686375            6 
  122000    1.1920155   -6.2722767     55.62294  0.037993811  0.041674432            6 
  123000    1.2247017   -6.2637418    55.892544  0.037867577  0.041657169            6 
  124000    1.2206575   -6.2766538     56.31966  0.037849234  0.041640691            3 
  125000    1.2347023   -6.2938589    56.832266  0.037888177  0.041626673            3 
  126000    1.1820918   -6.2029856    57.580464  0.038082317  0.041616614            3 
  127000    1.1984757   -6.2618247    57.875661  0.037976155  0.041608475            4 
  128000    1.1840945   -6.2218609    58.527676  0.038103956  0.041594844            6 
  129000    1.1981751   -6.2209451    59.227749   0.03826082  0.041584916            1 
  130000    1.1920028   -6.2724017    59.555663  0.038176707  0.041576232            2 
  131000    1.2173298   -6.2731842     59.69383  0.037973174  0.041565347            1 
  132000    1.1702651   -6.2612024    60.331932   0.03808834  0.041552989            4 
  133000    1.2096503   -6.2808531    60.966903  0.038199814  0.041542881            2 
  134000     1.198704    -6.228351    61.531184  0.038265662  0.041538428            2 
  135000    1.2056121    -6.287868    61.928659  0.038227567  0.041530846            2 
  136000    1.1841433   -6.2580479    62.343215  0.038200499   0.04151876            4 
  137000    1.1929643    -6.269513    62.714288  0.038147377   0.04150444            4 
  138000    1.2251813   -6.2665639    63.313082  0.038232537  0.041492693            2 
  139000    1.2021848   -6.2827075    63.622496  0.038142983  0.041480653            3 
  140000    1.1498233   -6.2810417    64.325929  0.038289243  0.041469767            2 
  141000    1.1825954    -6.292971    64.987639   0.03840877  0.041461496            2 
  142000    1.1932946   -6.2632503    65.231739  0.038281537  0.041452466            3 
  143000    1.1824301   -6.2568256    65.373494  0.038096441  0.041437732            2 
  144000    1.1880296   -6.2618605    65.861009   0.03811401  0.041418762            4 
  145000    1.1839443   -6.2513971    66.246044  0.038072439  0.041399103            4 
  146000    1.2020825   -6.2744527    66.568925  0.037995962  0.041377947            2 
  147000    1.1910319   -6.3019846    67.150839  0.038067369  0.041354675            4 
  148000    1.1863282   -6.2683188      67.7512  0.038148198  0.041334885            3 
  149000    1.2012083   -6.2965448    68.261525  0.038177587  0.041315054            2 
  150000     1.195528   -6.2723164    68.175784  0.037875436  0.041293804            3 
  151000    1.2106164    -6.288622    68.534636  0.037822647  0.041266492            4 
  152000    1.1776411   -6.3520374    69.132613  0.037901651  0.041236673            3 
  153000    1.1918964   -6.2810957    69.670857   0.03794709  0.041206502            4 
  154000    1.1879112   -6.2905795    69.864376  0.037805398  0.041177992            2 
  155000    1.1915008   -6.2960718    70.446039  0.037874215  0.041149937            3 
  156000    1.1851801   -6.3112995    71.069258  0.037964347  0.041123349            2 
  157000    1.2113832   -6.3324115     71.80319  0.038112096  0.041100724            2 
  158000    1.2035945   -6.2923925    72.065511  0.038009236  0.041079159            5 
  159000    1.2085377   -6.2772274    73.023611  0.038272333  0.041060717            3 
  160000    1.2026748   -6.2572931    73.686438  0.038378353  0.041048805            3 
  161000    1.1856185   -6.3004318    74.114443  0.038361513   0.04103594            3 
  162000    1.1875512    -6.304696    74.184528  0.038160765   0.04102089            3 
  163000    1.1819834   -6.2918227    74.630087  0.038154441  0.041003954            2 
  164000    1.1834654    -6.245429    75.439094  0.038332873  0.040989964            2 
  165000    1.2101291   -6.2880299    75.731587  0.038248276  0.040978124            2 
  166000    1.1913382   -6.2901821    75.961756  0.038133412  0.040962156            2 
  167000     1.190557   -6.2788138    76.588873     0.038218  0.040945443            3 
  168000    1.1799855   -6.3194426    76.815712  0.038103032  0.040930291            6 
  169000    1.1890442   -6.2922258    77.650698  0.038289299  0.040913452            3 
  170000    1.1747027   -6.3139459    77.992361  0.038231549   0.04089582            3 
  171000    1.1686407   -6.2333513    78.327696  0.038171391  0.040878638            2 
  172000    1.1924155   -6.3078611    78.423201  0.037995737  0.040858927            2 
  173000    1.1883773   -6.2781128    79.192517  0.038146684  0.040836182            4 
  174000     1.158911   -6.2692922    79.639707  0.038141622   0.04081623            4 
  175000    1.1987286   -6.2979754    80.152536  0.038167874  0.040795015            2 
  176000    1.2066862   -6.2876994    80.394859  0.038065747  0.040773221            5 
  177000    1.1797497   -6.3073002    80.629759   0.03796128  0.040748429            2 
  178000     1.194921   -6.3097814    80.882292  0.037866242  0.040723704            5 
  179000    1.1536264   -6.2824611    81.661677  0.038017541  0.040700985            3 
  180000    1.1773087   -6.3176456    81.946728    0.0379383  0.040677375            3 
  181000    1.1801817   -6.3427144    82.457215  0.037963727  0.040655506            6 
  182000    1.1801664   -6.3180713    82.777167  0.037901633  0.040630921            2 
  183000    1.1737679   -6.2835809    83.255215  0.037912211  0.040606789            3 
  184000    1.1867312   -6.2875094     83.54874  0.037839103  0.040578155            1 
  185000    1.1808825   -6.3210765    84.133646  0.037898039  0.040550124            2 
  186000    1.1615559   -6.2782282    84.936078  0.038053798  0.040525292            3 
  187000    1.1784634   -6.2775604    85.326487  0.038024281   0.04050452            2 
  188000    1.1655452   -6.2875061    85.931098  0.038090025   0.04048375            3 
  189000    1.1801787    -6.304957    86.222987   0.03801719  0.040465522            2 
  190000    1.1954994   -6.3013129     86.68821  0.038021145  0.040447548            4 
  191000    1.1743331   -6.3313438    87.627965  0.038232096  0.040433446            2 
  192000     1.175474   -6.3151995    87.811848  0.038112781  0.040420567            3 
  193000    1.1598186   -6.2762125    88.348888  0.038147188  0.040403281            2 
  194000    1.1594158   -6.2982731    88.875801   0.03817689  0.040388434            2 
  195000    1.1619211   -6.2624481     89.25477  0.038143064  0.040375538            3 
  196000    1.1910764   -6.3492668    89.559078  0.038077839  0.040361094            6 
  197000     1.175853   -6.3105187    90.198083  0.038154857   0.04034709            3 
  198000    1.1787127   -6.2851588     90.91653  0.038264533  0.040333211            2 
  199000    1.1517176   -6.3325369    90.839835  0.038040132  0.040317153            2 
  200000    1.1676723   -6.3294477    91.308048   0.03804502  0.040300989            3 
  201000    1.1828771    -6.344362    91.703506  0.038019696  0.040282798            2 
  202000    1.1681487   -6.3207022    92.551569   0.03818134  0.040266083            2 
  203000    1.1684665   -6.2951818    93.099862  0.038218334  0.040253386            2 
  204000    1.1639717    -6.300588    93.431836  0.038166599  0.040238501            2 
  205000    1.1773966   -6.3054145    93.851048  0.038150832  0.040223383            3 
  206000    1.1750917   -6.3327986    94.114762  0.038072315  0.040210183            3 
  207000    1.1651971   -6.3489743    94.536338  0.038058107   0.04019523            4 
  208000    1.1811549   -6.3277692     95.06691  0.038087704  0.040179161            4 
  209000    1.1889725   -6.3298539    95.603969  0.038119605  0.040162525            2 
  210000    1.1494279   -6.3235034    96.126064  0.038145263  0.040147381            3 
  211000     1.153362    -6.276472     96.76964  0.038218657  0.040134347            3 
  212000    1.1806387   -6.3353898    97.074322  0.038158145  0.040121963            2 
  213000    1.1981501   -6.3299532    97.177205  0.038019251  0.040109484            4 
  214000    1.1728266   -6.3296428    97.779195   0.03807601  0.040095626            5 
  215000    1.1748413   -6.3261185    98.493856  0.038175913  0.040082536            3 
  216000    1.1972436   -6.3274187    98.730364  0.038090418  0.040068852            2 
  217000    1.1759118   -6.3155471    99.131776  0.038069038  0.040054745            6 
  218000    1.1915925     -6.31037    99.835154  0.038163285  0.040039006            2 
  219000    1.1784377   -6.3209123    100.12987  0.038101167  0.040023988            3 
  220000    1.1628381   -6.3611618    100.37262  0.038019931  0.040008457            6 
  221000    1.1635188   -6.3411607     100.6819  0.037964518  0.039991576            3 
  222000    1.1862818   -6.3509531     101.3917  0.038059949  0.039974838            4 
  223000    1.1524974   -6.3640729    101.58175  0.037960294  0.039957343            4 
  224000    1.1412395   -6.3221782    102.14066  0.037998757  0.039941649            3 
  225000     1.141211   -6.3447364    102.70054  0.038037237  0.039927432            3 
  226000    1.1834208    -6.292937    103.34307  0.038105853  0.039915124            2 
  227000    1.1562234   -6.3668172    103.82148  0.038113613   0.03990387            2 
  228000    1.1481269   -6.3193194    103.87198  0.037964904  0.039891378            2 
  229000    1.1797612   -6.3246525     104.3184  0.037961572  0.039875781            3 
  230000    1.1623935   -6.3070733    104.55368  0.037881769  0.039859711            4 
  231000    1.1622547    -6.305672    104.96547  0.037866333  0.039842627            4 
  232000    1.1638663   -6.3571721    105.48195  0.037888633  0.039827501            5 
  233000    1.1821613   -6.3397332    106.13662  0.037960165  0.039814127            4 
  234000    1.1692136   -6.3472852    106.78281  0.038028067  0.039799561            3 
  235000    1.1735963   -6.3384296    107.40732  0.038087702  0.039786422            5 
  236000    1.1562837   -6.3779085    107.63471  0.038006607  0.039774583            3 
  237000     1.164455   -6.3395249    108.29549  0.038078582  0.039763649            4 
  238000    1.1602842   -6.3239642    108.96023   0.03815134  0.039754823            2 
  239000     1.157294    -6.368697    108.85015   0.03795333  0.039744919            5 
  240000    1.1307005    -6.319699    109.79768  0.038124195  0.039735066            2 
  241000    1.1558089   -6.3664214    110.14822  0.038087212  0.039725228            1 
  242000    1.1462412   -6.3133184    110.32806  0.037991757   0.03971437            3 
  243000    1.1486374   -6.3606074     111.0886  0.038096226  0.039701583            5 
  244000    1.1726357   -6.3625016    111.31327  0.038016826  0.039689186            3 
  245000    1.1482582   -6.3104837    111.65559   0.03797809  0.039676042            3 
  246000    1.1281043   -6.3321655    112.08788  0.037970149  0.039662021            4 
  247000    1.1439949    -6.367992    112.41652  0.037927299  0.039648823            4 
  248000    1.1426144   -6.3253173    112.55329  0.037820324  0.039634768            1 
  249000    1.1489402   -6.4102864    113.07348   0.03784253  0.039620022            3 
  250000    1.1551691   -6.3399964    113.89769  0.037965895  0.039606934            1 
  251000    1.1455632   -6.3391727    114.10068  0.037882033  0.039595064            3 
  252000    1.1574235   -6.3169906    114.39314  0.037828418  0.039580788            4 
  253000    1.1598444   -6.3845538    114.82554  0.037821325  0.039565742            4 
  254000    1.1687719   -6.3123096    115.28492  0.037823135  0.039550696            3 
  255000    1.1232748   -6.3121232    115.66477  0.037798945  0.039536523            3 
  256000    1.1495056   -6.3426403    116.49288  0.037920859  0.039522684            2 
  257000    1.1642427   -6.3547797    117.10761  0.037972635  0.039510686            1 
  258000    1.1588793   -6.3880562    117.18932  0.037851847  0.039498176            8 
  259000    1.1587223   -6.3383105    118.45057   0.03811151  0.039487603            2 
  260000    1.1555173   -6.3479532    119.05668  0.038159191  0.039477984            4 
  261000    1.1568259   -6.3503879    119.18068   0.03805258  0.039468855            4 
  262000    1.1649382   -6.3568628    119.73229  0.038082789  0.039459725            3 
  263000     1.147389   -6.3625263    120.02729   0.03803146  0.039451718            2 
  264000    1.1321245   -6.3585146    120.80759  0.038133709  0.039442483            2 
  265000    1.1095207   -6.3469836    121.32407  0.038152223  0.039433752            3 
  266000    1.1406014   -6.3316223    121.03793  0.037919152  0.039423884            2 
  267000    1.1576621   -6.3190808    121.56878  0.037942815  0.039414609            2 
  268000    1.1470544   -6.3428879    122.01049  0.037938584  0.039405956            4 
  269000    1.1446569   -6.3453526    122.44147  0.037931062  0.039394935            4 
  270000    1.1433471   -6.3245011    123.50802  0.038119758  0.039384242            2 
  271000     1.167306    -6.340794    123.24455  0.037898077  0.039373998            3 
  272000    1.1310042   -6.3763859    124.18665   0.03804738   0.03936472            5 
  273000    1.1120831   -6.3763817    124.20857  0.037914705  0.039354753            2 
  274000    1.1374858   -6.3362405    124.70957  0.037928702  0.039345337            2 
  275000    1.1523657   -6.4033806    124.87859  0.037841997   0.03933484            5 
  276000    1.1313186   -6.3750054    126.40524  0.038165834  0.039323763            4 
  277000    1.1327893    -6.378336    126.37852  0.038020012  0.039314035            2 
  278000    1.1412822   -6.3395939    127.15836  0.038117014  0.039306287            2 
  279000    1.1465213   -6.3410432    127.47729  0.038075655  0.039296887            2 
  280000    1.1342458   -6.3589527    127.70127  0.038006331  0.039290135            4 
  281000    1.1646761   -6.3737717     128.5031  0.038108867  0.039281604            2 
  282000      1.13963   -6.3862468    128.57355  0.037994549  0.039275216            7 
  283000    1.1526802    -6.381091    129.23586  0.038055317  0.039268656            4 
  284000    1.1280486   -6.3699675    129.90811  0.038118577  0.039262662           11 
  285000    1.1410094   -6.3627184    130.58562  0.038182929  0.039256953            3 
  286000     1.147235    -6.348439    130.66029  0.038071181  0.039251529            4 
  287000    1.1360919   -6.3708793    131.47675  0.038175596  0.039245045            6 
  288000    1.1458386   -6.3426186    131.41697  0.038025743  0.039238592            1 
  289000    1.1262057   -6.3375714    132.10595  0.038092834  0.039232384            2 
  290000    1.1273059   -6.3748611    132.70729  0.038134278  0.039226953            3 
  291000    1.1472359   -6.3993778    133.13446   0.03812556  0.039222767            2 
  292000    1.1289903   -6.4441716    133.25225  0.038028609  0.039217312            7 
  293000    1.1513978   -6.3824847    133.87009  0.038074541  0.039211396            3 
  294000    1.1234984     -6.38665    133.93185  0.037962544  0.039204539            6 
  295000    1.1343203   -6.3781903    134.25529  0.037925224  0.039196938            2 
  296000    1.1357716   -6.3753434    135.25771  0.038079311  0.039190115            3 
  297000    1.1466816   -6.3905729    135.62336  0.038053692  0.039184362            1 
  298000    1.1460648   -6.3600147    136.82797  0.038262855  0.039180488            1 
  299000    1.1397148   -6.4006998    136.74908    0.0381129  0.039176198            4 
  300000     1.128504   -6.4013463    137.17497  0.038104159  0.039170337            5 
  301000    1.1356793   -6.4173766    137.50991  0.038070296  0.039165134            2 
  302000    1.1341329    -6.371334     137.9723  0.038071827   0.03916112            2 
  303000    1.1709639   -6.4025467    138.44411  0.038075939  0.039153926            4 
  304000    1.1361372   -6.3960397    139.29036  0.038182666  0.039147778            3 
  305000    1.1444407   -6.3510588    139.24694  0.038045612  0.039141618            4 
  306000    1.1121512   -6.4361078    139.53178   0.03799885  0.039135279            2 
  307000    1.1315352   -6.3467686    140.14745  0.038042196  0.039129672            3 
  308000    1.1385564   -6.4105414    140.40112  0.037987317  0.039122146            3 
  309000    1.1164226   -6.4049529    141.38053  0.038128513  0.039115454            3 
  310000    1.1211975   -6.3460715    142.33723  0.038262697  0.039111804            4 
  311000    1.1370542   -6.4314994    142.44997  0.038169875  0.039109007            6 
  312000    1.1241505   -6.4068432    142.64759  0.038100319  0.039105983            4 
  313000     1.150862   -6.3973361    144.01829  0.038343528  0.039103603            3 
  314000    1.1305737   -6.4180086    143.58484   0.03810638  0.039100701            5 
  315000     1.136015   -6.4064539    144.07615  0.038115384  0.039095944           16 
  316000    1.1404081   -6.4121602    144.32334  0.038059953   0.03909035            2 
  317000    1.1163409   -6.4297202    144.40376  0.037961031  0.039084405            3 
  318000    1.1359483   -6.3839547    145.47258  0.038121744  0.039079084            3 
  319000    1.1335387   -6.4068209    145.61645  0.038039826  0.039073376            6 
  320000     1.144476   -6.4097285    146.27806  0.038093244  0.039069109            4 
  321000    1.1078926   -6.3900641    147.40795  0.038267899  0.039067317            3 
  322000    1.1486444   -6.4150262    147.36916  0.038139015  0.039064849            4 
  323000    1.1298021    -6.356641    148.21655  0.038239564  0.039062537            3 
  324000    1.1075234   -6.4215084    148.52319   0.03820041  0.039059759            2 
  325000    1.1367587     -6.46164    148.28697  0.038022301  0.039054723            4 
  326000    1.1397858   -6.4373701    149.28474  0.038160722  0.039050323            3 
  327000    1.1351711   -6.4199103    149.46252  0.038089328  0.039045895            2 
  328000    1.1158295   -6.4115034    149.44366   0.03796841  0.039039389            6 
  329000    1.1324326   -6.3968027    150.72541  0.038177661  0.039033915            4 
  330000    1.1264249   -6.4315293    150.83175  0.038088826  0.039029648            3 
  331000    1.1171958   -6.4090763     151.7214  0.038197734  0.039024826            5 
  332000    1.1198484   -6.4091397    151.86625   0.03811904  0.039019142            4 
  333000    1.1230745   -6.4146895    151.48918  0.037910206  0.039013412            4 
  334000    1.1111983   -6.3991768    152.60328   0.03807467  0.039008441            2 
  335000    1.1427468   -6.3784478    153.34038  0.038144373  0.039004615            2 
  336000      1.12015   -6.4289971    153.67363    0.0381135  0.039000769            4 
  337000    1.1388401   -6.3974161     154.4363  0.038188996  0.038998259            4 
  338000    1.0927892   -6.3918234    154.94049  0.038200317  0.038996588            3 
  339000    1.1177115   -6.4052967    155.83028  0.038306362  0.038994797            1 
  340000    1.1359858   -6.4217924    155.86523  0.038202262  0.038992848            2 
  341000    1.1529263   -6.4279866    156.50073  0.038245535   0.03899107            3 
  342000     1.108756   -6.4013646      157.387  0.038349659  0.038989659            5 
  343000    1.1256482   -6.3888287    157.81049  0.038340741  0.038989048            3 
  344000    1.0938611   -6.3697452    158.65358  0.038433522  0.038988591            3 
  345000    1.1223538   -6.4139715    158.39765  0.038260302  0.038986525            1 
  346000    1.1080335   -6.3867477    158.62124  0.038203574   0.03898447            8 
  347000    1.1060096   -6.3760962     159.3385   0.03826573  0.038982386            5 
  348000    1.1205805   -6.4408043    159.55518  0.038207659  0.038979828            3 
  349000    1.1002334   -6.4201321     160.0373  0.038213299  0.038978228            2 
  350000     1.104692   -6.4441383    159.97779   0.03808995  0.038975458            7 
  351000    1.1068168   -6.4382353    160.64538  0.038139928  0.038973182            4 
  352000    1.1199905   -6.4453014    161.21706  0.038166918  0.038969795            5 
  353000    1.0943967    -6.440703    161.25277  0.038067225  0.038966377            2 
  354000    1.1112906   -6.4292198    162.14762  0.038170343  0.038962141            3 
  355000     1.110735   -6.4193125    161.96452   0.03801984  0.038957409            2 
  356000    1.1232226   -6.4588179    162.21774  0.037972317  0.038952136            8 
  357000    1.0779212   -6.4658263    162.69717  0.037977865  0.038946355            4 
  358000    1.1204609   -6.4277061    162.60872  0.037851192  0.038939494            5 
  359000    1.1012821   -6.4259085    163.60089  0.037976066  0.038931689            3 
  360000    1.1094132   -6.4247223    163.47682  0.037841855  0.038923926            5 
  361000    1.1112206   -6.4448937    164.33716  0.037935633  0.038915746            3 
  362000    1.0864141   -6.4587292    163.82524  0.037712992  0.038906974            3 
  363000    1.1129632    -6.423595    165.56827  0.038009245  0.038898371            2 
  364000    1.1211532   -6.4571071     165.1606  0.037811493    0.0388895            4 
  365000    1.1265628   -6.4974358    165.35967  0.037753349  0.038881107            4 
  366000    1.1076017   -6.4540104    165.89643  0.037772411  0.038871739            2 
  367000    1.1154797   -6.4165502    166.95648  0.037910191  0.038862577            2 
  368000    1.1010883   -6.4723183    166.83419  0.037779482  0.038853617            5 
  369000     1.110659   -6.4337731    167.43117  0.037811918  0.038844701            3 
  370000    1.1108788   -6.4332687    167.57935  0.037743098  0.038833721            3 
  371000    1.1268091   -6.4600038    167.45196  0.037612749  0.038821659            3 
  372000    1.1349097   -6.4700088    167.59742  0.037544224  0.038809229            3 
  373000    1.1175664   -6.4462791    168.07103   0.03754938  0.038797608            2 
  374000     1.104244   -6.4391967    169.06873  0.037671285   0.03878617            7 
  375000    1.1177767   -6.4517034    169.60181   0.03768929  0.038775863            4 
  376000    1.0912305   -6.4310852    169.87501  0.037649602  0.038765708            4 
  377000    1.1105943   -6.4057851    170.59921  0.037709817  0.038756269            3 
  378000    1.0973941   -6.4431538    170.40132  0.037566429  0.038746888            4 
  379000    1.1260011   -6.4111972    171.07722  0.037615923  0.038737302           10 
  380000    1.0749541   -6.4515831    171.41598  0.037591225  0.038728134            3 
  381000    1.1011473   -6.4185047    172.59886  0.037751282  0.038718522            4 
  382000    1.0937951   -6.4693474    171.93312  0.037507225  0.038708487            4 
  383000     1.076899   -6.4364898    172.49145  0.037530778  0.038697825            3 
  384000    1.1003626    -6.439834    172.97522  0.037538025  0.038687058            2 
  385000    1.0978038   -6.4280477     172.9174  0.037428009  0.038675767            2 
  386000    1.0809656   -6.4845054     173.8483  0.037532015  0.038664204            6 
  387000    1.0924515   -6.4656348    174.08011  0.037484951  0.038651559            3 
  388000    1.0644584   -6.4705707     173.7914  0.037326331  0.038638419            2 
  389000    1.1041571   -6.4574305    174.49229  0.037380526  0.038625467            8 
  390000    1.1216515   -6.4742046    174.38028  0.037260744  0.038611529            3 
  391000    1.1034174   -6.4626815      174.702  0.037234015  0.038596772            3 
  392000    1.1053238    -6.450997    174.76754  0.037152962  0.038581432            5 
  393000    1.1066608   -6.4468737     175.6568  0.037246988    0.0385663            4 
  394000     1.096235   -6.3970502    175.94683  0.037213797  0.038550971            4 
  395000    1.1127887   -6.4424454     175.8311  0.037095169  0.038535746            3 
  396000    1.1147295   -6.4502756    175.73506  0.036981285  0.038519258            4 
  397000    1.0983113   -6.4375437    176.14046  0.036973228  0.038502052            5 
  398000    1.0906169   -6.4445097    176.81234  0.037021009  0.038485237            3 
  399000    1.0956685   -6.4481563    177.30399  0.037030909  0.038467777            3 
  400000    1.1209238    -6.460951    177.32035   0.03694174  0.038449902            2 
  401000    1.0998498   -6.4351843    177.73188  0.036935138  0.038431297            4 
  402000    1.0899952   -6.4406888    177.37328  0.036768922  0.038412473            4 
  403000    1.0889354   -6.4301654    178.80435  0.036973603  0.038394687            3 
  404000    1.1038507   -6.4392173    178.85548  0.036892633  0.038376226            2 
  405000    1.1041669   -6.4815232    178.58429  0.036745738  0.038357721            3 
  406000    1.0884315   -6.4455572    179.58567   0.03686077  0.038339429            6 
  407000    1.0707184   -6.4592574     180.1327  0.036882207  0.038321107            2 
  408000    1.0759813   -6.4632642    180.86464  0.036941306  0.038303541            5 
  409000     1.095312   -6.4735035    181.38765   0.03695755  0.038286745            6 
  410000    1.0919702    -6.465359    181.43928  0.036877902  0.038269545            1 
  411000    1.1015574   -6.4766375    181.68446  0.036837888  0.038252505            3 
  412000    1.0900301   -6.4928445    181.55064  0.036721408  0.038234939            4 
  413000    1.0904227   -6.4798635     182.6946  0.036863316   0.03821751            3 
  414000     1.089717   -6.4843816    182.79238  0.036793957  0.038200252            1 
  415000    1.0904161   -6.4682729    182.75808   0.03669841  0.038182284            4 
  416000    1.0754185   -6.4773089    183.05695  0.036670061  0.038164258            4 
  417000    1.0863118   -6.4771093     183.6311  0.036696863   0.03814604            4 
  418000    1.1015968   -6.4489306    183.94318  0.036671288   0.03812877            3 
  419000     1.112851    -6.490651    184.81354   0.03675687  0.038110942            3 
  420000    1.0736469   -6.4477885    184.54549  0.036616169  0.038092603            2 
  421000    1.1114971   -6.4877394     185.3579  0.036690003  0.038074694            1 
  422000    1.0654737   -6.4884428    185.37937  0.036607301  0.038056657            4 
  423000    1.0778505   -6.4356141    186.31755  0.036705584  0.038038778            2 
  424000    1.1040408   -6.4713928    186.11228  0.036578671  0.038020878            2 
  425000    1.0961059   -6.4708035    186.68664  0.036605223  0.038003181            2 
  426000    1.0878321   -6.4998864    186.52938  0.036488532  0.037985349            2 
  427000    1.1068032   -6.4578695    187.22986  0.036539785  0.037967005            5 
  428000    1.0874251   -6.4704304    187.65098  0.036536406  0.037948971            4 
  429000    1.0927124   -6.4853166    187.50355    0.0364226  0.037930654            6 
  430000    1.0927872   -6.4844233    188.16934  0.036466926  0.037912154            2 
  431000    1.0460204   -6.4785703    188.30329  0.036408216   0.03789315            1 
  432000    1.0929526    -6.452647    189.18457  0.036493937  0.037874313            4 
  433000    1.0914324   -6.4528097    189.20559  0.036413701  0.037855724            6 
  434000    1.0777611   -6.4789759    189.24595  0.036337548  0.037837066            5 
  435000    1.0900894   -6.5011629    190.47931  0.036490289  0.037818854            2 
  436000    1.1077652   -6.4794281    190.91822  0.036490486  0.037801188            2 
  437000    1.0667466   -6.4742075    190.48239  0.036323873  0.037783351            9 
  438000    1.0856709   -6.4832052    191.06239  0.036351292  0.037765367            4 
  439000    1.0640358   -6.4845512    191.35353  0.036323752  0.037746867            2 
  440000    1.1003561   -6.4960802    191.54362  0.036277202  0.037727562            5 
  441000      1.08097    -6.499606    191.93707  0.036269288  0.037708731           10 
  442000    1.0764066   -6.4861708    192.70814  0.036332605  0.037690477            3 
  443000    1.0662516   -6.5114506    193.01072   0.03630751  0.037672451            3 
  444000    1.0620879   -6.4855179    193.64919  0.036345568  0.037654524            3 
  445000    1.0729374   -6.4606179    193.92721  0.036315957  0.037637079            2 
  446000    1.0769078   -6.5036321    193.82263   0.03621499  0.037618333           10 
  447000    1.0646132   -6.4777591    194.42977   0.03624716  0.037599311            5 
  448000    1.0765839   -6.5031121    194.33666  0.036148932  0.037580054            4 
  449000    1.0661702   -6.4991449    194.58687  0.036114862  0.037560367            3 
  450000    1.0793328   -6.4871647    195.07771  0.036125502  0.037541406            3 
  451000    1.0583676   -6.5113357    195.92043  0.036201114  0.037522643            2 
  452000    1.1064346   -6.4639274    195.73823  0.036087432  0.037503872            7 
  453000    1.0718126   -6.5031081    196.18999  0.036090874  0.037484728            2 
  454000    1.0332295   -6.4919269    196.78958  0.036121436  0.037465451            3 
  455000    1.0642734   -6.5135609     196.9298   0.03606773  0.037446446            2 
  456000    1.0849942   -6.4867631    198.32179  0.036243017  0.037427613            3 
  457000     1.082765   -6.4940248    197.44708  0.036004209  0.037408244            5 
  458000    1.0859474   -6.4854132    198.22211  0.036066614   0.03738927            3 
  459000    1.0743783   -6.5057037    198.35777  0.036012667  0.037370426            2 
  460000    1.0773157   -6.4661746    198.78412  0.036011615  0.037351382            3 
  461000     1.075367   -6.4696192    199.52831  0.036068024   0.03733265            2 
  462000    1.0443341   -6.4764151    199.84434  0.036046959  0.037314055            3 
  463000    1.0707241   -6.4685457    199.91674  0.035982135  0.037295089            3 
  464000    1.0641094   -6.5291593    199.54955  0.035838641  0.037276101            4 
  465000    1.0556837   -6.5063079    200.33291  0.035901954  0.037256349            8 
  466000    1.0583781   -6.5080258    199.91789  0.035750695  0.037236151            2 
  467000     1.070387   -6.5387108    200.73678  0.035820268  0.037217096            5 
  468000    1.0716439    -6.499558    201.14201  0.035815884  0.037197053           10 
  469000    1.0764008   -6.5088393    201.81352  0.035858834  0.037177335            5 
  470000    1.0477964   -6.5387732    201.75722  0.035772556  0.037157024            2 
  471000    1.0798674   -6.4988463    201.71024  0.035688294  0.037136739            5 
  472000     1.067383   -6.4830417    202.60046  0.035769855    0.0371168            3 
  473000    1.0796068   -6.4773807     203.3445  0.035825317  0.037097408            6 
  474000    1.0486469   -6.5043936    203.54683  0.035785307  0.037078419            7 
  475000    1.0660239   -6.5288581    203.50881    0.0357033  0.037058746            2 
  476000    1.0660062   -6.5468096    204.45291  0.035793577  0.037039367            3 
  477000    1.0422074   -6.5408727    204.32651  0.035696455  0.037019329            3 
  478000    1.0681504    -6.518358    203.80463  0.035530794  0.036999319            2 
  479000    1.0504251   -6.5611191    204.39027  0.035558502  0.036978667            3 
  480000    1.0958156   -6.5446331    204.67435  0.035533742  0.036958254            4 
  481000    1.0731828      -6.4623    205.65466  0.035629706  0.036938472            3 
  482000    1.0486981   -6.5364888    205.69859   0.03556338  0.036918319            8 
  483000    1.0599643   -6.5180392    207.19545  0.035748008  0.036898237            5 
  484000    1.0528322   -6.5561588    206.47762  0.035550555  0.036878646            4 
  485000    1.0144558   -6.5147833    206.50028  0.035481148  0.036859062            4 
  486000     1.058736   -6.5458841    206.73766  0.035448844  0.036838991            4 
  487000    1.0677282   -6.5188689     207.4469  0.035497417  0.036819168            3 
  488000    1.0704301   -6.5697104    208.06522  0.035530263  0.036799366            3 
  489000    1.0355833   -6.5260885    208.58749  0.035546607  0.036780179            4 
  490000    1.0655426   -6.5252712    208.80912  0.035511754  0.036760428            3 
  491000    1.0633426   -6.5154792    209.65214  0.035582508  0.036741657            2 
  492000    1.0719016   -6.5343367    209.63253  0.035506864  0.036723436            3 
  493000    1.0649152   -6.5255203    210.19748  0.035530338   0.03670527            4 
  494000    1.0620244   -6.5095642    210.77411  0.035555686  0.036686349            3 
  495000    1.0711985    -6.540972    209.50132  0.035269583  0.036667417            4 
  496000     1.048042   -6.5320191    210.23961  0.035322516  0.036648083            6 
  497000     1.058008   -6.5318266    211.00836  0.035380343  0.036628534            8 
  498000    1.0362069   -6.5567833      211.191  0.035339859    0.0366091            2 
  499000    1.0407198   -6.5530993    212.01365  0.035406421  0.036589576            2 
  500000    1.0612966   -6.5149915    212.24103  0.035373506  0.036571304            2 
  501000    1.0555441   -6.5456775    212.10147  0.035279686  0.036553054            3 
  502000    1.0389557   -6.5791565    212.46057  0.035269019  0.036534026            2 
  503000    1.0499889   -6.5382037    213.36229  0.035348292  0.036515082            3 
  504000    1.0743616   -6.5225734    213.53361  0.035306484  0.036496273            3 
  505000    1.0547074   -6.5214213     214.3044  0.035363762  0.036477252            7 
  506000    1.0653692   -6.5059358     213.3763  0.035141025  0.036458465            5 
  507000    1.0618858   -6.5320377    214.25499  0.035216139  0.036439552            5 
  508000    1.0732572   -6.5590263    213.59708  0.035038891  0.036420186            3 
  509000     1.061945   -6.5725779    214.56506   0.03512853  0.036399863            3 
  510000     1.042353   -6.5578676     213.8593   0.03494433  0.036379036            6 
  511000     1.061708   -6.5697438    214.40052  0.034964208  0.036357987            3 
  512000    1.0578002   -6.5356405    215.33655  0.035048266  0.036337058            5 
  513000    1.0798304   -6.5573288    215.46308    0.0350005  0.036315932            4 
  514000    1.0646412   -6.5390365    216.01543  0.035021956   0.03629505            5 
  515000    1.0633022   -6.5407941    216.01234  0.034953453  0.036274299            4 
  516000    1.0314872   -6.5468934    215.89098  0.034866114  0.036253027            8 
  517000    1.0292455    -6.564033    216.29452   0.03486372  0.036231967            1 
  518000    1.0584255   -6.5035027    217.13113  0.034931006  0.036211274            4 
  519000    1.0446481   -6.5543566    217.83768  0.034977149  0.036190729            2 
  520000    1.0660007   -6.5793004    217.42832  0.034844282  0.036170005            2 
  521000    1.0536407   -6.5955046    217.90729  0.034854013  0.036149176           10 
  522000    1.0710925   -6.5474133    218.06007  0.034811633  0.036128065            4 
  523000    1.0465558   -6.5204764    218.09172  0.034750115  0.036106628            4 
  524000    1.0555139   -6.5404656    218.38683   0.03473073  0.036085343            4 
  525000    1.0679765   -6.5473481    218.80361  0.034730732  0.036063374            4 
  526000    1.0705492   -6.5916798    219.01853  0.034698753  0.036041644            4 
  527000    1.0248392   -6.5491551    219.37404  0.034689127  0.036020493            5 
  528000     1.035228   -6.5346242    219.64901  0.034666826  0.035998896            9 
  529000    1.0403882   -6.5506658    220.44224  0.034726251  0.035977658            2 
  530000     1.062532   -6.5396144    220.36701  0.034648901  0.035957024            3 
  531000    1.0503566   -6.5719294    219.86814  0.034505357  0.035936224            6 
  532000    1.0734196    -6.570085     220.8837  0.034599577  0.035914607            3 
  533000    1.0390575    -6.555266    220.90195  0.034537516  0.035892772            4 
  534000    1.0490242   -6.5872379    220.54582  0.034417262  0.035870361            3 
  535000     1.040258   -6.5322457     221.1574  0.034448194  0.035848056            5 
  536000    1.0396364   -6.5651874    221.47685   0.03443359  0.035825911            3 
  537000    1.0429989   -6.5635936    221.44792  0.034364978  0.035802954            3 
  538000    1.0450262   -6.5694812    221.55446  0.034317605  0.035779734            4 
  539000    1.0552946   -6.5950895    221.46871  0.034240679  0.035756444            4 
  540000    1.0528206   -6.5444023    221.81616  0.034230889  0.035733013            8 
  541000    1.0391057   -6.5610287    222.51595  0.034275408   0.03571017            3 
  542000    1.0422643   -6.5363726     223.3892  0.034346433  0.035687123            3 
  543000    1.0305182   -6.5281576     223.4869  0.034298174  0.035663901            5 
  544000    1.0554321   -6.5377143    223.42867  0.034226205  0.035641027            3 
  545000    1.0357856   -6.5407771    224.08305  0.034263463   0.03561796            2 
  546000    1.0274739   -6.5799058    223.83963  0.034163558  0.035594644            5 
  547000    1.0464016   -6.5728728    224.27476  0.034167391  0.035571214            7 
  548000    1.0421271   -6.5869018    224.92284  0.034203595  0.035548011            5 
  549000    1.0419976   -6.5565648    224.36029  0.034055903  0.035524797            3 
  550000    1.0395785   -6.5872149      225.012  0.034092727   0.03550155            6 
  551000    1.0297879    -6.578715    225.43674   0.03409509  0.035478362            4 
  552000    1.0069628   -6.5578808    225.46061  0.034036928  0.035455557            6 
  553000    1.0352449   -6.5336401     225.9602  0.034050664  0.035432651           13 
  554000     1.044745   -6.5693263    226.15722  0.034018836  0.035409928            8 
  555000    1.0736995   -6.5845047    226.01077   0.03393555  0.035387136            5 
  556000    1.0315679    -6.588543    227.27494   0.03406399   0.03536469            3 
  557000    1.0448438   -6.5804521    226.96419  0.033956343  0.035342218            8 
  558000    1.0357532   -6.5827348    228.11346  0.034067123  0.035319835            3 
  559000     1.055903   -6.5660104    228.36832  0.034044174   0.03529833            2 
  560000    1.0197652   -6.5692884    228.52817  0.034007169   0.03527667            3 
  561000    1.0379026   -6.5769757    229.45232  0.034083827   0.03525538            3 
  562000    1.0289374   -6.5656803    229.12582  0.033974766  0.035233971            3 
  563000    1.0302902   -6.5538043    229.46525  0.033964661  0.035212451            5 
  564000    1.0333951    -6.599146    229.56191  0.033918721  0.035190522            2 
  565000    1.0270838   -6.6092456    229.66996  0.033874626    0.0351687            4 
  566000    1.0525331   -6.5543834    229.86007  0.033842767  0.035146489            2 
  567000    1.0466281   -6.6070126    230.17968  0.033830052  0.035123807            8 
  568000    1.0116628   -6.6030012    230.71676   0.03384929   0.03510158            4 
  569000    1.0289274   -6.5887661    230.94742  0.033823582  0.035079074            5 
  570000    1.0375914   -6.5994974    231.18026  0.033798284  0.035056202            5 
  571000    1.0204431   -6.5911652    230.37797  0.033622003  0.035033253            6 
  572000    1.0408458   -6.5728348    231.35688  0.033705839  0.035010519            4 
  573000    1.0000713   -6.6225276    231.32263  0.033642034  0.034988076            5 
  574000     1.020722   -6.6037204    232.50284  0.033754767  0.034965886            2 
  575000   0.99947657   -6.5811104    232.00026  0.033623226  0.034943289            6 
  576000    1.0272347   -6.5919202    232.76962   0.03367616  0.034920883            4 
  577000    1.0238881   -6.6071546    233.33645   0.03369966  0.034898391            3 
  578000    1.0174979   -6.5898813    233.26342  0.033630828  0.034876219           11 
  579000    1.0083883   -6.5769163      233.291  0.033576713   0.03485405            6 
  580000    1.0285275   -6.5987083     234.0831  0.033632629   0.03483187            3 
  581000    1.0333407   -6.6218106    233.76485  0.033529095  0.034809647            6 
  582000    0.9997652   -6.5856604    234.37595  0.033558985  0.034787897            2 
  583000    1.0302315   -6.5828638    235.20386  0.033619763  0.034766105            4 
  584000    1.0159117   -6.5921528    234.55659  0.033469832   0.03474416            4 
  585000    1.0154207   -6.5888673    234.93139   0.03346601  0.034721705            6 
  586000    1.0364429   -6.6266367    235.10255  0.033433241  0.034699428            5 
  587000    1.0292188   -6.6047769     235.4726  0.033428818  0.034677068            4 
  588000    1.0266805    -6.609059    235.27172  0.033343497  0.034654478            4 
  589000    1.0463507   -6.6137617    236.18175   0.03341564  0.034631742            9 
  590000    1.0170639   -6.6141749     235.9759  0.033329929  0.034608933            9 
  591000    1.0083549   -6.5564914    237.58588  0.033500547  0.034586756            9 
  592000    1.0229829   -6.5719381    237.07791  0.033372453  0.034564721            4 
  593000     1.039063    -6.612532    237.44038  0.033367114  0.034542635            5 
  594000    1.0212119   -6.6294321    237.12599  0.033266833  0.034520412            3 
  595000    1.0085308   -6.6229534    237.33536  0.033240246   0.03449789            5 
  596000    1.0262055   -6.6122874    237.18725  0.033163766  0.034475043            6 
  597000    1.0000873   -6.6218204     238.3975   0.03327715  0.034452182            5 
  598000    1.0279008   -6.6314437     237.3112  0.033070122  0.034429404            3 
  599000   0.98473778   -6.6156736    238.85832   0.03323015  0.034406583            2 
  600000    1.0085974   -6.6480283    239.45996  0.033258328   0.03438415            2 
  601000    1.0175748   -6.6002778    239.40997  0.033196058  0.034361759            9 
  602000    1.0145343   -6.5745436    240.40235  0.033278288  0.034339979            4 
  603000   0.99973459    -6.609871    239.36957  0.033080371  0.034317798            6 
  604000    1.0019399   -6.6187905    239.72348  0.033074431  0.034295289            2 
  605000    1.0048216   -6.5941523    240.19523  0.033084743  0.034272749            2 
  606000    1.0107669   -6.6485023    239.89652   0.03298907  0.034249947            5 
  607000    1.0183148   -6.6345554     240.0088  0.032950137   0.03422758            3 
  608000     1.013374   -6.6001081     241.0807  0.033042859  0.034205266           10 
  609000     1.018511   -6.6262765    241.55366  0.033053319  0.034183354            4 
  610000    1.0279973   -6.6333352    241.46972  0.032987667  0.034161423            3 
  611000   0.98748994    -6.631182    242.21989  0.033035991  0.034139472            2 
  612000    1.0058208   -6.6356296    242.30597  0.032993732  0.034117774            3 
  613000    1.0021729   -6.6398558    242.58735  0.032978161    0.0340961            4 
  614000    1.0272574    -6.629425    242.30388  0.032885978    0.0340743            4 
  615000    1.0170149   -6.6496048    243.61493  0.033010153  0.034052289            5 
  616000    1.0037302   -6.6247715    243.78255  0.032979241  0.034031079            4 
  617000    1.0315224   -6.6092921    243.87421   0.03293817  0.034010152            4 
  618000    1.0266568   -6.6004481    244.19313  0.032927876  0.033989144            3 
  619000   0.99688671   -6.6116562    244.47683  0.032912875  0.033967767            5 
  620000    1.0016451   -6.6547117    244.90686  0.032917589  0.033946851            3 
  621000    1.0061605   -6.6270555    245.44437  0.032936711  0.033926108            5 
  622000    1.0232027   -6.6201368    245.45202  0.032884783  0.033905176            3 
  623000   0.99827861      -6.6549    245.25638  0.032805829  0.033883838            4 
  624000   0.98720356   -6.6345959    245.79056  0.032824594  0.033862786            4 
  625000    1.0210289   -6.5882974     246.0546  0.032807279  0.033841906            4 
  626000    1.0071586   -6.5983455    247.30712  0.032921608  0.033821191            7 
  627000    1.0204696   -6.6312784    246.09065  0.032707423  0.033800331            6 
  628000   0.98570152   -6.6215939    246.84247  0.032755104  0.033779301            6 
  629000   0.98350841   -6.6011496    247.50344  0.032790599  0.033758707            3 
  630000    1.0083126   -6.6155342    247.38158  0.032722432  0.033738054            3 
  631000   0.97516852    -6.656433    247.95927  0.032746866  0.033717463            5 
  632000   0.99205699   -6.6426801     247.2759  0.032604944  0.033696684            4 
  633000   0.99869752   -6.6278462    249.13912  0.032798726   0.03367638            6 
  634000    1.0019866   -6.6474456    249.01629  0.032730848  0.033655941            5 
  635000   0.99140446     -6.66443    248.56233  0.032619728  0.033635403            6 
  636000   0.98278036   -6.6363654    249.08342  0.032636717  0.033614997            5 
  637000    1.0052986   -6.6521775    249.73004  0.032670073  0.033594237            4 
  638000   0.99995998   -6.6414318    250.22703  0.032683781  0.033573851            4 
  639000   0.98440499   -6.6816172    250.22512  0.032632385  0.033553495            4 
  640000    1.0067383   -6.6448357    249.55777  0.032494501  0.033532975            4 
  641000   0.98753573   -6.6099998    250.74031  0.032597544   0.03351215            3 
  642000   0.98800734   -6.6578652    250.50302  0.032515968  0.033491048            4 
  643000   0.99366134   -6.6294992    250.42257  0.032454973  0.033470042           10 
  644000   0.99956234   -6.6099213    251.47408  0.032540642  0.033449175            2 
  645000    1.0043079   -6.6263121    251.12338  0.032444881  0.033428381            4 
  646000    1.0092895   -6.6329702    251.82532  0.032485207  0.033407772            4 
  647000    1.0065835   -6.6438114    251.44727  0.032386304  0.033387083            2 
  648000   0.99899239   -6.6927381    251.84212  0.032387104  0.033366197            4 
  649000   0.99784468   -6.6907001    252.46589  0.032417295   0.03334524            3 
  650000   0.98202272   -6.6751928     252.3725  0.032355448  0.033324677            5 
  651000   0.99740208    -6.653461     253.3185  0.032426844  0.033304209            6 
  652000   0.98899475   -6.6424934    252.94495  0.032329365  0.033283407            4 
  653000    1.0068713   -6.6343138    253.10804  0.032300668  0.033262782            4 
  654000   0.99460374   -6.6586158    253.22095  0.032265667  0.033242086            3 
  655000   0.99524114   -6.6541686    253.13968  0.032206066  0.033220906            5 
  656000    0.9837142   -6.6679331    253.90211  0.032253825  0.033199772            4 
  657000   0.99401439   -6.6769107    253.27211  0.032124823  0.033178274            4 
  658000   0.97904739   -6.6909884    253.68981  0.032128903  0.033156611           10 
  659000   0.99268109   -6.6240033    254.29108  0.032156182   0.03313554            3 
  660000   0.99388983   -6.6548228    254.12071  0.032085948  0.033114148            5 
  661000   0.97342817   -6.6531341    255.12529  0.032164055  0.033093101            3 
  662000     1.006819   -6.6252715     255.1046  0.032112865  0.033071991            4 
  663000   0.99396251   -6.6367714    256.17631  0.032199134   0.03305104            2 
  664000   0.98266437   -6.6476297    256.08125  0.032138711  0.033030058            3 
  665000   0.98406605   -6.6674807    255.95209  0.032074196  0.033009002            4 
  666000   0.99282862   -6.6576652    255.29375  0.031943663  0.032987903            6 
  667000   0.97845368   -6.6678105    256.51823  0.032048754   0.03296684            5 
  668000   0.99206808   -6.6319763    256.15881  0.031955939  0.032945534            3 
  669000     1.010183   -6.6758832    256.30112  0.031925899  0.032924549            3 
  670000   0.98484782   -6.6499361    256.77468  0.031937149   0.03290336            5 
  671000   0.98489019   -6.6375605    257.15786  0.031937141  0.032881949            4 
  672000   0.98634154   -6.6312489    257.49599  0.031931546  0.032860639            3 
  673000    0.9932315   -6.6629738    256.95147  0.031816675  0.032839274            6 
  674000   0.97343389    -6.687013    257.02648  0.031778743  0.032817732            5 
  675000   0.97415236   -6.6944783    257.76465  0.031822796  0.032796289            2 
  676000    1.0066132   -6.6561868    258.50806  0.031867364  0.032775158            4 
  677000   0.97556833   -6.6582822    258.32631  0.031797921  0.032754173            4 
  678000    1.0092351   -6.6500478    259.74152  0.031924965  0.032733591            4 
  679000    0.9618433   -6.6571473    259.13698  0.031803753  0.032712876            8 
  680000   0.98621268   -6.6667576    258.60717  0.031692056   0.03269186            4 
  681000   0.98485223   -6.6629235     259.9034  0.031804136  0.032670907            4 
  682000   0.98249504    -6.639638    260.30323  0.031806358   0.03264998            2 
  683000    1.0131367   -6.6943388    260.31938  0.031761759  0.032629304            3 
  684000   0.98220757   -6.6879397     260.8485  0.031779788  0.032608637            5 
  685000   0.98333649   -6.6698644    261.14147  0.031769036  0.032587872            5 
  686000    0.9857691   -6.6632065    260.78121  0.031678962  0.032567264            3 
  687000   0.98708151   -6.6808288    260.78297  0.031633063  0.032547077            4 
  688000   0.97531543   -6.6848313    261.69817  0.031697938  0.032526878            7 
  689000   0.97604115   -6.6656575     261.9985  0.031688256  0.032506761            6 
  690000   0.95944767    -6.707547    262.26704  0.031674763  0.032486613            3 
  691000   0.97548375   -6.6719918    262.06134  0.031604117  0.032466125            5 
  692000   0.98268059   -6.6342602     262.6869  0.031633779  0.032445701            9 
  693000    0.9755654   -6.7093835    262.33073  0.031545301  0.032425043            4 
  694000   0.99369951   -6.6681707    262.79934  0.031556117  0.032404405            3 
  695000   0.97296049   -6.6517581    263.56233  0.031602198  0.032384126            2 
  696000   0.96742336    -6.704947    263.53741  0.031553809  0.032363577            3 
  697000   0.99523963   -6.6844413    263.67331  0.031524786  0.032342856            5 
  698000   0.98478203   -6.6841971    263.56561  0.031466763  0.032322052           11 
  699000   0.97720363   -6.6690144    263.59323  0.031425039  0.032301559            5 
  700000   0.96479001   -6.6783717    263.74581  0.031398311  0.032280943            4 
  701000   0.96587165   -6.6959294    264.66975  0.031463356  0.032260312            6 
  702000   0.98067102   -6.7031014    264.36872  0.031382801  0.032240088            4 
  703000   0.97266028    -6.690932    265.38565  0.031458706      0.03222            4 
  704000   0.96560404   -6.7226153    264.91982   0.03135888  0.032199886            3 
  705000   0.98229584   -6.6885688    265.42073  0.031373608  0.032179361            6 
  706000    0.9628576   -6.6685886    264.94584  0.031273116  0.032158567            4 
  707000   0.97142626   -6.6687264    265.71524  0.031319571  0.032138022            3 
  708000   0.96795763   -6.6775937    265.78691   0.03128377  0.032117388            4 
  709000    0.9982654   -6.6855159    266.02405  0.031267518  0.032096795            3 
  710000   0.96485324   -6.6958915     266.1816  0.031241972  0.032076141            5 
  711000   0.97934335   -6.6809231    266.85431  0.031276876  0.032055408            5 
  712000   0.98317605   -6.7104814    265.06236  0.031023217  0.032034393            4 
  713000   0.97849756   -6.6939193    266.35003  0.031130204  0.032013042            4 
  714000   0.95997345   -6.6694077      265.935  0.031038165  0.031991783            4 
  715000   0.96509321    -6.699528    266.73358   0.03108783  0.031970312            4 
  716000   0.96174366   -6.7048427    266.29834  0.030993754  0.031948827            3 
  717000   0.97166231   -6.7001305    266.52222  0.030976548  0.031927111            6 
  718000   0.97653592    -6.720284    266.57881  0.030939973  0.031905407            3 
  719000   0.94262113   -6.6998606    266.81615   0.03092445  0.031883665            7 
  720000   0.93999118   -6.6608951    267.91873  0.031009113  0.031861894            6 
  721000   0.96608726   -6.6727142    267.68681  0.030939299  0.031840334            3 
  722000   0.96358315   -6.7271708    267.61159  0.030887764  0.031818769            7 
  723000   0.95676774    -6.710673    268.22485  0.030915728  0.031796972            2 
  724000   0.94117956   -6.6868165    267.03776   0.03073639  0.031775247            3 
  725000   0.96216613   -6.7001009    268.21291   0.03082907  0.031753154            7 
  726000   0.95058755   -6.7079916    267.45052  0.030699095  0.031731231            3 
  727000   0.97427102    -6.714526    268.39696  0.030765355  0.031709261            2 
  728000   0.96137517   -6.6834154     267.8032  0.030655128  0.031687417            6 
  729000   0.95342143   -6.7139271    268.17981  0.030656128  0.031665393            4 
  730000   0.95684803   -6.6987253    269.00969  0.030708869  0.031643601            6 
  731000    0.9519504   -6.7218628    268.67176  0.030628336  0.031621514            4 
  732000   0.96980677   -6.7192879    268.77184  0.030597888  0.031599429            4 
  733000   0.95980803   -6.7037429    269.23987  0.030609353  0.031577654            7 
  734000   0.98775358    -6.712466    269.34627  0.030579731  0.031555687            3 
  735000   0.95672142   -6.7287008    269.65565  0.030573203  0.031533778            4 
  736000   0.96429185   -6.7381102    269.60902  0.030526384  0.031511542            8 
  737000   0.98438843   -6.7020719     270.2471  0.030557112  0.031489419           11 
  738000    0.9808146   -6.7417358    270.81768  0.030580135  0.031467631            6 
  739000   0.95583562   -6.7617644    270.19568  0.030468615  0.031445939            6 
  740000   0.96315831   -6.7082682    271.67759  0.030594324  0.031424155            4 
  741000   0.94354408   -6.7093264    270.83043  0.030457763  0.031402232            5 
  742000   0.96340746   -6.7232991    271.04269  0.030440553  0.031380166            6 
  743000   0.97044864     -6.69602    271.60507   0.03046266  0.031358064            7 
  744000   0.98987574   -6.6719324    271.76317  0.030439423  0.031336383            3 
  745000   0.92746004   -6.7058343    271.83827  0.030406965  0.031314604            2 
  746000   0.96641755   -6.7295046    272.09052  0.030394383  0.031292729           15 
  747000   0.96013819   -6.7232207    271.39737  0.030276369  0.031270687            7 
  748000   0.94904723   -6.7506796    272.44775  0.030352914   0.03124863            8 
  749000   0.92712372   -6.7300727    272.55073  0.030323846  0.031226535            3 
  750000   0.94679887   -6.7039697    273.34787  0.030371986  0.031204621            5 
  751000   0.94978077     -6.71097    273.94907  0.030398254   0.03118307            3 
  752000   0.97010656    -6.717272    273.15727  0.030270087  0.031161475            7 
  753000   0.95294846    -6.743513    273.28757  0.030244308  0.031139836            4 
  754000   0.93795927   -6.7275527    274.07904  0.030291671  0.031118182            5 
  755000   0.95158251   -6.7413244    274.21279  0.030266313  0.031096556            5 
  756000   0.95988202   -6.7481481    273.66925  0.030166364  0.031075028            4 
  757000   0.94925555    -6.737994    274.54785  0.030223234  0.031053299           24 
  758000   0.94772219   -6.7343583    274.44216  0.030171742  0.031031761            4 
  759000   0.95815291    -6.730378    273.39756  0.030017299  0.031010116            5 
  760000   0.96059509   -6.7149255    275.25251  0.030181196  0.030988473            5 
  761000   0.95173654   -6.7492422    274.84144  0.030096523  0.030966805            7 
  762000   0.96730344   -6.7217048    275.82432  0.030164515  0.030945359            4 
  763000   0.94687257   -6.7191646    276.04514  0.030149097  0.030924139            6 
  764000   0.95763397   -6.7363614    275.97619  0.030102115  0.030903108            3 
  765000   0.95190637   -6.7175465    275.97243  0.030062356  0.030882302            4 
  766000   0.94762756   -6.7448842    276.36048  0.030065326  0.030861414            4 
  767000   0.92494148   -6.7275467    277.12195   0.03010886  0.030840573            6 
  768000   0.95179776   -6.7333947    276.62639  0.030015885  0.030819618            5 
  769000   0.95833011   -6.7653703    276.37065  0.029949139  0.030798546            7 
  770000   0.91880849   -6.7260088    277.36462  0.030017816    0.0307775            2 
  771000   0.94493858   -6.7391625    276.98833  0.029938211  0.030756356            5 
  772000   0.93663129   -6.7272742    277.83526  0.029990852  0.030735245            9 
  773000   0.93301407   -6.7430462    277.99206  0.029968958  0.030714155            6 
  774000   0.93130637    -6.743591    277.91106  0.029921518  0.030693064            5 
  775000   0.93829656   -6.7579675    278.35496  0.029930641  0.030672033           11 
  776000    0.9455074   -6.7566189    277.66484   0.02981796  0.030651128            4 
  777000   0.93320767   -6.7625499    278.23364  0.029840588  0.030630038            3 
  778000   0.95603184   -6.7317615     278.8317  0.029866292  0.030608914            7 
  779000   0.92841156   -6.7174789    278.75009  0.029819223  0.030587712            4 
  780000   0.93996464   -6.7354224      279.038  0.029811752  0.030566703            6 
  781000   0.93842475   -6.7516371    278.56152   0.02972274  0.030545737            5 
  782000   0.95386753   -6.7444411    279.48477  0.029783117  0.030524727            3 
  783000   0.93853698   -6.7630996    278.98151  0.029691518  0.030503787            5 
  784000   0.91966504   -6.7588221    279.97289  0.029759023  0.030482607            7 
  785000   0.94361904   -6.7237634    280.22149  0.029747505  0.030461535            3 
  786000   0.94944565   -6.7578394    280.27427  0.029715254   0.03044066            6 
  787000   0.94710344   -6.7764228    279.53561  0.029599281  0.030419465            4 
  788000   0.96960774   -6.7357571    280.33678  0.029646445  0.030398151            5 
  789000   0.92173917   -6.7154362      280.793  0.029657055  0.030377098            4 
  790000   0.93936348   -6.7241515    280.36312  0.029574169  0.030356176            6 
  791000   0.96684552   -6.7663979    280.99821  0.029603688  0.030334951            5 
  792000   0.95992837   -6.7467243    280.90416  0.029556414  0.030313861            7 
  793000   0.91407533   -6.7796751    280.80055  0.029508255  0.030292786            6 
  794000   0.94009393   -6.7333662    281.12402   0.02950504  0.030271669            8 
  795000   0.95742141   -6.7502001    281.49134  0.029506429  0.030250583            3 
  796000   0.93322026   -6.7654094    281.39008  0.029458761   0.03022946            8 
  797000   0.95598994   -6.7975139    280.95147  0.029375938  0.030208251            5 
  798000   0.95025772   -6.7495728    281.27489    0.0293729  0.030186829            3 
  799000   0.95502766   -6.7956114     281.3383  0.029342751  0.030165385           10 
  800000   0.93491147   -6.7917433    281.82647  0.029356924  0.030144095            4 
  801000   0.92038469   -6.8036714    282.45461  0.029385623  0.030122656            6 
  802000   0.92199113   -6.7505963    282.38501   0.02934175   0.03010132            5 
  803000   0.93641866   -6.7743813     282.1685  0.029282742  0.030079912            6 
  804000   0.93139137   -6.7762745     282.7123  0.029302684  0.030058403            7 
  805000   0.93910918   -6.7586725    282.17493  0.029210656  0.030037121            5 
  806000    0.9300908   -6.7431938    282.64554   0.02922307  0.030015828            3 
  807000   0.91490415   -6.7818827    282.69365  0.029191827   0.02999438            4 
  808000   0.92294787   -6.7599201     282.8998   0.02917696  0.029972935            6 
  809000   0.93688967   -6.7779713    283.71287  0.029224646  0.029951872            5 
  810000   0.94753982   -6.7771313    283.56935  0.029173801  0.029930612            5 
  811000   0.92873483   -6.7861575     283.5627  0.029137145  0.029909376           13 
  812000    0.9363958   -6.7691877    284.65274   0.02921313  0.029888224            3 
  813000   0.93436871   -6.7839413     283.8178  0.029091615  0.029867238            9 
  814000   0.91883182    -6.779268    284.17648  0.029092597  0.029846393            5 
  815000   0.92919166   -6.7554086    284.70764  0.029111211  0.029825645            5 
  816000   0.94650029   -6.7756081    285.07585  0.029113139  0.029804895            6 
  817000    0.9458356   -6.7792957    285.16779  0.029086882  0.029784115            4 
  818000   0.92058909    -6.785391    285.94458  0.029130458  0.029763125            5 
  819000   0.91799625   -6.7683124    284.74528  0.028972861  0.029742113            7 
  820000   0.91876366   -6.7661689    285.11195  0.028974792  0.029720922            6 
  821000   0.95225253   -6.7749989    285.98439  0.029028054  0.029699865            5 
  822000   0.93781549   -6.8288815    285.85932  0.028980061  0.029678855            4 
  823000   0.92317793   -6.7915889    286.59154  0.029018989  0.029658009           19 
  824000   0.91849711   -6.7855557    285.47005  0.028870353  0.029637031            7 
  825000   0.92740486   -6.7791335    286.15625  0.028904672  0.029616137            8 
  826000   0.92514999   -6.7852594    286.69769  0.028924303   0.02959502            4 
  827000   0.93125157   -6.7623107    286.71919  0.028891494  0.029574087            6 
  828000   0.91534475   -6.7888827    287.49531  0.028934713  0.029553156            5 
  829000    0.9276402    -6.797988    286.62249  0.028812072  0.029532094            7 
  830000   0.90942354   -6.8036453    287.10655  0.028825959   0.02951095            3 
  831000   0.93183073   -6.7977512    287.92705  0.028873551   0.02948996            7 
  832000   0.90996006   -6.7769365    287.15304  0.028761322  0.029468977            3 
  833000   0.92467117   -6.7885305    287.09274  0.028720762  0.029447702            4 
  834000    0.9321821   -6.8067693    286.93597   0.02867066  0.029426398            4 
  835000   0.91209678   -6.8279856    286.99678  0.028642393  0.029405029            7 
  836000   0.91412332   -6.8096653    287.98777  0.028706915  0.029383915            7 
  837000   0.91853977   -6.7966462    287.67634   0.02864161  0.029362787            7 
  838000   0.91812783   -6.7621804    288.37674  0.028677082  0.029341585            6 
  839000   0.92735287   -6.7859697     288.2064  0.028625983  0.029320611            6 
  840000   0.91950143   -6.7698565    288.35901  0.028607044   0.02929982            5 
  841000   0.92745229   -6.7773263    288.27992  0.028565192  0.029279042            4 
  842000   0.90995568   -6.7964649    288.69355  0.028572204  0.029258118            4 
  843000   0.93914758   -6.7893864    289.56976  0.028624927  0.029237045            6 
  844000   0.91901034    -6.744344     288.8815  0.028523054  0.029216267           10 
  845000   0.90900906   -6.7730339    288.82488  0.028483716  0.029195437            5 
  846000   0.92615462   -6.8002764    289.37637   0.02850437  0.029174463            7 
  847000    0.9011374   -6.8256876    289.05799  0.028439393  0.029153482            4 
  848000   0.93090405   -6.7668165    290.15781  0.028513936  0.029132619            4 
  849000   0.91064646   -6.7901864     290.0426  0.028469042  0.029111965            5 
  850000   0.90742746    -6.796721    290.31867  0.028462615  0.029091497            5 
  851000   0.93309655   -6.8268993    290.46889  0.028443879  0.029070941            4 
  852000    0.9232006   -6.7994124    291.65018  0.028526035   0.02905032           10 
  853000    0.9199969     -6.82362    290.92035  0.028421292  0.029029806            7 
  854000   0.92712755   -6.8158131    291.23445  0.028418662  0.029009311            6 
  855000   0.93342677   -6.7723911    291.49636  0.028410951  0.028988779            5 
  856000   0.92655453   -6.8372789    291.16203  0.028345213  0.028968009            9 
  857000   0.90237659   -6.7890628    291.12283  0.028308327  0.028947491           15 
  858000   0.91236887   -6.7767719    292.03736  0.028364157  0.028926822            4 
  859000   0.93239946   -6.8001975    291.67795   0.02829627  0.028906242            5 
  860000   0.90228457   -6.8223612    291.70627  0.028266111  0.028885733            6 
  861000   0.92563675   -6.8293852    291.27088  0.028191142  0.028865178            7 
  862000   0.92643528   -6.8383958    292.34137  0.028261927  0.028844602            4 
  863000   0.92701131   -6.8548759    292.42243  0.028237005  0.028824141           11 
  864000    0.9081772   -6.8591539    291.84695  0.028148818  0.028803708            4 
  865000   0.89949346   -6.8236731    293.68504  0.028293356  0.028783244            8 
  866000   0.90401366   -6.8476534    293.20367  0.028214364   0.02876277           10 
  867000   0.91032798   -6.8243523    293.11335   0.02817314  0.028742335            9 
  868000   0.89701672   -6.8667249    293.23299  0.028152169   0.02872196            8 
  869000   0.91962203   -6.8246789      293.534  0.028148638  0.028701533            8 
  870000   0.93053474   -6.8451166     293.5756  0.028120268  0.028681245            7 
  871000   0.90241296   -6.8321574    293.38152  0.028069414  0.028660992            4 
  872000   0.88043558   -6.8116406    294.40433   0.02813497  0.028640795            6 
  873000    0.9159177   -6.8370741    293.58886  0.028024901   0.02862036           18 
  874000   0.91550813   -6.8295498    294.62764   0.02809188  0.028600161            3 
  875000   0.89641444    -6.813752    294.49354  0.028047004  0.028579882            5 
  876000   0.89693586   -6.8196241     293.3957   0.02791055  0.028559622            7 
  877000   0.90641919   -6.8435474    294.52944  0.027986454  0.028539348            4 
  878000   0.90236249   -6.8062677    294.71536  0.027972225   0.02851915            5 
  879000   0.92357156   -6.8182875    294.44891  0.027915141  0.028498825           11 
  880000   0.89773701   -6.8285194    294.60019  0.027897746  0.028478471            8 
  881000   0.90589741   -6.8138013    295.52719  0.027953763  0.028458519            3 
  882000    0.9121432   -6.8412821    295.74767  0.027942902   0.02843845            6 
  883000   0.89013041   -6.8126562    295.91185  0.027926751  0.028418523            7 
  884000   0.88661627   -6.8175315    296.28167  0.027930022   0.02839884            3 
  885000   0.90404384   -6.8289471    295.89216  0.027861786  0.028379056            6 
  886000    0.9065782   -6.8248921    296.77844  0.027913698   0.02835941            3 
  887000    0.9084048   -6.8556147    295.99431  0.027808559  0.028339402            5 
  888000   0.89946442   -6.8391016    296.73802  0.027847037  0.028319411           10 
  889000   0.88412452   -6.8170256     296.7698  0.027818691   0.02829926            4 
  890000   0.89995672   -6.8391221    295.96943  0.027712494  0.028279129            5 
  891000   0.91512336    -6.814753    297.42259  0.027817302  0.028259024            6 
  892000   0.88644337   -6.8295813    296.24426  0.027676033  0.028238897            6 
  893000   0.90200935   -6.8568659    296.89758  0.027706008  0.028218817           10 
  894000   0.88391539   -6.8433436    297.29403  0.027711971  0.028198837            4 
  895000   0.89834847   -6.8371712    296.84098  0.027638825  0.028179001            5 
  896000   0.90322341   -6.8616709    297.48855  0.027668206  0.028159049            4 
  897000   0.88819461   -6.8381744    298.36135  0.027718446  0.028139401            3 
  898000   0.88806748   -6.8486317    298.44268  0.027695126  0.028119553            9 
  899000   0.89995632   -6.8234635    298.41418  0.027661678  0.028099757            5 
  900000   0.91819436   -6.8561326    298.59015  0.027647236  0.028080075            5 
  901000   0.90735663     -6.83139    298.42188  0.027600988  0.028060525            5 
  902000    0.9173207   -6.8807678    298.53302  0.027580656  0.028040772            5 
  903000    0.8882734   -6.8366719    298.99632  0.027592868  0.028021111            8 
  904000   0.88800018   -6.8452875    299.24773  0.027585521  0.028001474            4 
  905000   0.88565517   -6.8290488    299.87244  0.027612564  0.027981904           11 
  906000   0.90001563   -6.8342918     298.8731  0.027490167  0.027962369            9 
  907000   0.88211029   -6.8381433    299.21766  0.027491516   0.02794299            7 
  908000   0.89668554   -6.8667336    300.51444  0.027580253  0.027923596            8 
  909000   0.89385426   -6.8359258    300.46451  0.027545335    0.0279043            5 
  910000   0.88178019   -6.8700551    300.68447  0.027535208  0.027885152            6 
  911000   0.88367239   -6.8507988    300.61873  0.027498969   0.02786598            7 
  912000   0.88329282   -6.8644486    300.90455  0.027494934  0.027846799            7 
  913000   0.88854314   -6.8693921    300.83753  0.027458701  0.027827753           16 
  914000   0.88652173    -6.815835    301.04517   0.02744759  0.027808862            7 
  915000   0.88502691   -6.8610636    301.60686  0.027468748  0.027789928            9 
  916000   0.88615565   -6.8567816    301.47644  0.027426895  0.027770979            4 
  917000   0.90857402   -6.8839103    301.12109  0.027364694  0.027751823            4 
  918000   0.88510355    -6.889342    301.29319  0.027350507  0.027732597            6 
  919000   0.87658872    -6.885113    302.62275  0.027441308  0.027713347            8 
  920000   0.89732354     -6.89667    300.65776  0.027233493  0.027693957            9 
  921000   0.88661656   -6.8569772     301.2927  0.027261374  0.027674604            7 
  922000    0.8835972   -6.8902228    302.13011  0.027307493  0.027655253            4 
  923000   0.89724658   -6.8910268    301.94017  0.027260759  0.027635938            5 
  924000   0.90064297   -6.8532017    301.80118  0.027218721  0.027616776            4 
  925000    0.8807166   -6.8683524    301.96003  0.027203606  0.027597589            9 
  926000   0.87255627   -6.8469735    302.45899  0.027219132  0.027578297            5 
  927000   0.87639978   -6.8785186    302.84736  0.027224682   0.02755913            6 
  928000   0.88424574   -6.8426615    302.58393  0.027171689  0.027540009            5 
  929000   0.90106051   -6.8704891    303.13005  0.027191429   0.02752104            9 
  930000   0.90315969   -6.8811868    302.78285   0.02713108  0.027501972            5 
  931000   0.88138394    -6.879564    303.45637  0.027162224  0.027483001            7 
  932000    0.8777516   -6.8844282    303.36331   0.02712476  0.027464097            4 
  933000   0.88617626   -6.8773795    304.44749  0.027192523  0.027445182            3 
  934000     0.877188   -6.9059243    304.05424  0.027128322  0.027426365            7 
  935000   0.87539258   -6.8592637    303.62564  0.027061108  0.027407407            5 
  936000   0.88787572   -6.8757148    303.93934  0.027060126  0.027388472            3 
  937000   0.87986269   -6.8619081    304.50796  0.027081818  0.027369585            4 
  938000    0.8867136   -6.8407683    305.21652  0.027115895  0.027350893            4 
  939000   0.87278375    -6.881477    304.65769  0.027037424  0.027332092            8 
  940000   0.88021915   -6.8607107    305.00309  0.027039281  0.027313304            5 
  941000    0.8684522   -6.8892909    305.11331  0.027020308  0.027294556            9 
  942000   0.88536188   -6.8493439    305.08298  0.026988941  0.027275831            8 
  943000    0.8780724   -6.8704735    305.21054  0.026971593  0.027257141            5 
  944000   0.87316032   -6.8612958    305.58598  0.026976163  0.027238388            5 
  945000   0.88697149    -6.885898    305.12474  0.026906944  0.027219506           12 
  946000   0.87961227   -6.8985753    305.45724  0.026907791   0.02720048            9 
  947000    0.8916118   -6.9001582    305.28407  0.026864138  0.027181604            7 
  948000   0.88349346   -6.8614684    304.78666  0.026792077  0.027162694            4 
  949000   0.88114604   -6.8702512    305.46456  0.026823372  0.027143678            6 
  950000    0.8879104   -6.8722498    305.22796  0.026774382  0.027124636           11 
  951000   0.88845295   -6.9087216    304.98642  0.026725063  0.027105372            9 
  952000   0.87262037   -6.9253734    305.37503  0.026731007  0.027086136            6 
  953000   0.86821671   -6.8829004    306.09001  0.026765478  0.027067083            5 
  954000   0.85647196   -6.9045362    305.95011  0.026725202  0.027048125            3 
  955000   0.87376356   -6.8816308     305.4805  0.026656239  0.027028994            8 
  956000   0.87849974   -6.8879163    306.71426  0.026735902  0.027010122            8 
  957000   0.86598764   -6.9020579    306.30549  0.026672369   0.02699122            7 
  958000   0.86581019   -6.8579863    306.66152  0.026675498  0.026972235            4 
  959000   0.86313102   -6.9265407    306.37368  0.026622669  0.026953326            5 
  960000   0.86418266   -6.8951848    307.47046  0.026690144  0.026934397            7 
  961000   0.89860408   -6.8876132     307.3775   0.02665431  0.026915665            5 
  962000   0.86794594   -6.9166577    307.46738  0.026634388   0.02689703           10 
  963000   0.85873646   -6.9034615    307.32487  0.026594399   0.02687842            6 
  964000   0.86013776   -6.9114067    307.81852  0.026609484  0.026859734            5 
  965000   0.88290108   -6.8653947    308.86161  0.026671987  0.026841224            6 
  966000   0.85615755    -6.899135    308.08397  0.026577292  0.026822796            6 
  967000   0.84531012   -6.9219406    309.24099  0.026649517  0.026804302            5 
  968000   0.86283434   -6.8749815    309.42054  0.026637443  0.026785997            7 
  969000     0.867386   -6.9052932    309.36073   0.02660481  0.026767661            5 
  970000   0.87670149    -6.885824    309.42489  0.026582894  0.026749392            8 
  971000   0.87357835   -6.9160608     308.8704   0.02650793  0.026731055            9 
  972000   0.86062371   -6.9095152    309.15759  0.026505281  0.026712659            4 
  973000   0.87262622   -6.9007279     309.9318  0.026544347  0.026694552            4 
  974000   0.86532407   -6.9102057    309.18356  0.026453077  0.026676184            6 
  975000   0.84587368     -6.91367    309.54146  0.026456535  0.026657681            2 
  976000   0.87250825   -6.9191302    308.47577  0.026338436  0.026639038            3 
  977000   0.88951452   -6.9190886    308.75508  0.026335302  0.026620539            5 
  978000   0.86434249   -6.8761148    309.18512  0.026345017  0.026602037            6 
  979000   0.87314381   -6.9181917    309.99262  0.026386842  0.026583645            6 
  980000   0.85707645   -6.9115621    310.24416  0.026381306  0.026565274            8 
  981000   0.85902084   -6.8821866     310.5142  0.026377353   0.02654696            9 
  982000   0.85782509   -6.9361761    310.93926  0.026386563  0.026528728           13 
  983000   0.84730347   -6.9287737     311.3994  0.026398729  0.026510416            7 
  984000   0.85176015   -6.9077064    310.76886  0.026318501   0.02649201            5 
  985000   0.84915598   -6.8783507    310.92203   0.02630474  0.026473585           11 
  986000   0.85305664   -6.9073984    310.17851  0.026215222  0.026455266            4 
  987000   0.84927007    -6.889702    310.90027    0.0262496  0.026436752            7 
  988000   0.86352568   -6.9077814    310.96993  0.026228908  0.026418323           12 
  989000   0.85628763   -6.9060075    311.21887  0.026223363  0.026399938            3 
  990000   0.86384664    -6.866076     311.3608  0.026208822  0.026381716            5 
  991000   0.84965783   -6.9190113    311.15629  0.026165177  0.026363331            5 
  992000   0.85769069   -6.9309475    311.49296  0.026167083  0.026344972            5 
  993000   0.86059865   -6.9147127    311.70025  0.026158128  0.026326705            7 
  994000   0.84781003   -6.9206456    311.56114  0.026120149  0.026308376           13 
  995000   0.87053276   -6.9182103    311.31165  0.026073002  0.026290084            7 
  996000   0.86672556   -6.8991347    311.63184  0.026073615  0.026271768            3 
  997000   0.85194393   -6.9176305    312.16444  0.026091979   0.02625351            5 
  998000   0.84183043   -6.9286676    312.19744  0.026068591  0.026235275            6 
  999000   0.86154492   -6.9378374    312.23113  0.026045306     0.026217            7 
 1000000   0.87118605   -6.9299443    311.55496  0.025962914  0.026198691            6 
 1001000   0.84244789   -6.9290515    312.34613  0.026002841   0.02618055            3 
 1002000   0.87935241   -6.9192262    313.18771  0.026046882  0.026162437            6 
 1003000   0.84932354   -6.9313799    313.20993  0.026022759  0.026144283            9 
 1004000   0.85494742   -6.9316503    312.92364  0.025973078  0.026125973            9 
 1005000    0.8600058   -6.9264697    313.75811  0.026016427  0.026107853            5 
 1006000   0.85053045   -6.9500377    313.12486  0.025938109  0.026089654            8 
 1007000   0.83982205   -6.9510758    312.93817  0.025896903  0.026071344            9 
 1008000   0.86065002   -6.9408428    313.44137  0.025912812  0.026052993           13 
 1009000    0.8335769   -6.9478038    313.24973  0.025871303  0.026034755            7 
 1010000   0.85135214   -6.9346682    313.27706  0.025847943  0.026016686            6 
 1011000   0.85228232   -6.9331946    313.68341   0.02585587  0.025998742            9 
 1012000   0.84048097   -6.9303448    314.00936   0.02585716  0.025980668            7 
 1013000   0.85095555   -6.9503201    313.97415  0.025828739  0.025962572           10 
 1014000   0.85292359   -6.9285694    313.77215  0.025786666  0.025944573            9 
 1015000   0.85128933   -6.9455243    315.30402   0.02588703  0.025926721            4 
 1016000   0.85369543   -6.9626151    313.65954  0.025726669  0.025908838            7 
 1017000    0.8481979   -6.9793248    313.81095  0.025713778  0.025890854           14 
 1018000   0.84700906   -6.9635183    314.58513  0.025751893  0.025872819           10 
 1019000   0.85140326   -6.9335541    314.64321  0.025731372  0.025854849            5 
 1020000   0.82398101   -6.9268886    315.20362   0.02575193   0.02583695            5 
 1021000    0.8417853   -6.9295231    314.80005  0.025693769  0.025819052            9 
 1022000   0.85340953    -6.939587    314.83825  0.025671743   0.02580099            7 
 1023000   0.85371072   -6.9711887    314.79711  0.025643296  0.025782982            4 
 1024000   0.83671434     -6.95289     315.2685  0.025656616  0.025764891            6 
 1025000   0.84952457   -6.9225943    315.54601  0.025654147  0.025746876            7 
 1026000   0.83777535   -6.9568674    315.15817  0.025597642  0.025728788           10 
 1027000   0.85287839   -6.9470609    314.26524  0.025500263    0.0257106           11 
 1028000   0.86851869   -6.9563584     314.8775   0.02552509  0.025692342            6 
 1029000   0.83732139   -6.9236003    316.64237  0.025643211  0.025674282            6 
 1030000    0.8640057   -6.9317159    315.21484  0.025502818  0.025656247            4 
 1031000   0.84860391   -6.9500816    315.61341  0.025510298   0.02563823            4 
 1032000   0.84638727   -6.9073541    316.45915  0.025553872   0.02562032            5 
 1033000   0.85274452   -6.9310242     315.3476  0.025439464  0.025602526            6 
 1034000   0.84571957   -6.9282088    316.55983  0.025512559  0.025584743            6 
 1035000   0.84890258   -6.9512876    316.86696  0.025512638  0.025567031            6 
 1036000   0.86860233   -6.9470539     316.7711  0.025480301  0.025549376           13 
 1037000   0.84513818   -6.9348864    316.72202  0.025451786  0.025531695            8 
 1038000   0.82403079   -6.9405187    316.98718  0.025448553  0.025514033            8 
 1039000     0.821277   -6.9627676    316.77486  0.025407031  0.025496373            9 
 1040000   0.81211112   -6.9649235     317.0017  0.025400778  0.025478667           28 
 1041000   0.84335577   -6.9457147    317.19532  0.025391877  0.025460846            5 
 1042000   0.84097204   -6.9918587    317.18487  0.025366672   0.02544302           12 
 1043000   0.83503736   -6.9617256    317.32427  0.025353489  0.025425237            6 
 1044000   0.83395536   -6.9529507    317.34969  0.025331233  0.025407403            6 
 1045000   0.82998085   -6.9898093    316.87424  0.025269078    0.0253894            8 
 1046000   0.83628642   -6.9719156    316.65938  0.025227803  0.025371481            9 
 1047000   0.82420668   -6.9793118    316.73432  0.025209672  0.025353411            6 
 1048000   0.83126743    -6.953225    317.07638  0.025212816  0.025335324            6 
 1049000   0.84005274   -6.9653052    317.11727  0.025192029  0.025317326           10 
 1050000   0.83950634   -6.9582862    317.54049  0.025201626  0.025299353            6 
 1051000   0.84253295   -6.9747341    317.45833  0.025171133  0.025281347            6 
 1052000   0.82411161   -6.9894026    317.58985  0.025157624  0.025263338            7 
 1053000   0.83115382   -6.9490511    317.30994  0.025111581  0.025245321            7 
 1054000   0.82969888   -6.9791755    317.11459  0.025072311  0.025227205           11 
 1055000   0.83584075   -6.9962542    316.74852  0.025019631  0.025209131           19 
 1056000    0.8202998   -6.9781596    317.68415  0.025069772  0.025191114           12 
 1057000   0.83023364   -6.9601206    317.48884  0.025030656  0.025173142           11 
 1058000   0.84865473   -6.9853479    317.39792  0.024999836  0.025154974            5 
 1059000    0.8307619   -6.9505975    318.13394  0.025034147  0.025136937            8 
 1060000   0.82286062   -6.9839812    317.97788  0.024998261  0.025119007            6 
 1061000   0.81999593   -6.9777175    318.43793  0.025010833  0.025100991            3 
 1062000    0.8187991   -6.9343585    318.74795  0.025011609  0.025083055            4 
 1063000   0.83920693   -6.9648448    318.57533  0.024974547   0.02506503            9 
 1064000   0.83314056   -6.9735513    317.80716  0.024890912   0.02504696            9 
 1065000   0.83429824   -6.9469769    319.28214  0.024982953  0.025028968            3 
 1066000   0.84097143   -6.9889348    318.65738  0.024910677  0.025010929            9 
 1067000   0.81548473   -6.9680112    318.82463  0.024900393  0.024992924            4 
 1068000   0.81718882    -7.000722    318.56377  0.024856724  0.024975019            3 
 1069000   0.83577429   -6.9732948    318.62066  0.024837906  0.024956992            6 
 1070000   0.81427337   -7.0043158    317.98651  0.024765305   0.02493888           12 
 1071000   0.82536184    -6.976918    318.86613  0.024810623  0.024920774            9 
 1072000   0.82862415   -7.0028805    318.96041  0.024794808   0.02490274           14 
 1073000   0.81259241   -6.9382818     319.1008  0.024782603  0.024884707            4 
 1074000   0.82165121   -6.9860764    318.85802   0.02474069   0.02486667            8 
 1075000   0.81759051   -6.9720483    318.64263  0.024700979  0.024848626           10 
 1076000   0.81847171    -6.975279    319.68145  0.024758477  0.024830543            7 
 1077000   0.82215916   -6.9676448    319.57284  0.024727085  0.024812607            9 
 1078000   0.82752121   -7.0046265    319.34191  0.024686294  0.024794603            6 
 1079000    0.8248932   -6.9728917    319.35582  0.024664491   0.02477676           17 
 1080000    0.8338143   -6.9694897    320.01896  0.024692821  0.024758922            9 
 1081000   0.82675424   -6.9853584    320.11282  0.024677214  0.024741133            9 
 1082000   0.80722563   -6.9865091    319.75576  0.024626907  0.024723372           10 
 1083000   0.82539831   -6.9803571    319.86459  0.024612541  0.024705565            7 
 1084000   0.80918573   -6.9951108    320.11582   0.02460915  0.024687815           10 
 1085000   0.80500452   -6.9866849    320.34595  0.024604143  0.024670061           10 
 1086000    0.8208381   -6.9920173    320.79189  0.024615707  0.024652287            8 
 1087000   0.82149561    -7.001026    320.63159  0.024580772  0.024634493            3 
 1088000    0.8300098   -6.9932557    321.16634  0.024599138  0.024616749            8 
 1089000   0.82143565   -6.9888385    320.57389  0.024531213  0.024598954           12 
 1090000   0.82562968   -6.9741052    320.65286  0.024514745  0.024581247            7 
 1091000   0.82368323   -6.9627547    320.79201  0.024502904  0.024563434            6 
 1092000   0.83087084   -6.9977527    321.68981  0.024548978  0.024545849           11 
 1093000   0.80737555   -6.9968795    320.95299  0.024470341  0.024528219            4 
 1094000   0.81951306   -7.0047146    321.17662  0.024465008  0.024510472            6 
 1095000   0.81515162   -6.9810718    321.17461  0.024442512   0.02449286           20 
 1096000   0.82075862   -7.0033515    321.15401  0.024418644  0.024475179            6 
 1097000    0.8259695   -7.0116951    320.78189  0.024368117  0.024457531            3 
 1098000    0.8264666   -7.0094343    321.97481  0.024436461  0.024439845            6 
 1099000   0.80557398   -7.0056897    322.23098  0.024433651    0.0244221            7 
 1100000   0.80663688   -7.0313035    321.77362  0.024376789  0.024404377            5 
 1101000   0.81757317    -6.997655    321.75363  0.024353136  0.024386667           14 
 1102000   0.82002356   -6.9947678    322.54847  0.024391142  0.024368931           18 
 1103000   0.81771401   -6.9957564     321.7042  0.024305243  0.024351326           15 
 1104000   0.80389518   -7.0307424     321.9426  0.024301223  0.024333709           12 
 1105000   0.81598448   -7.0073376    322.39134  0.024313072  0.024316086           10 
 1106000   0.80009657   -7.0125728     321.8322  0.024248961  0.024298611           11 
 1107000   0.80666216   -7.0030606    321.98855  0.024238825  0.024280932            6 
 1108000   0.81183611   -7.0086451    322.39324  0.024247386  0.024263317            9 
 1109000   0.81471765   -7.0203913    322.19741  0.024210806  0.024245741            4 
 1110000   0.80265877   -7.0100514    321.96487  0.024171537  0.024228083            9 
 1111000   0.81970602   -7.0101736    322.48208  0.024188575   0.02421046           14 
 1112000   0.79485062   -7.0104915    322.66871  0.024180809  0.024192683            5 
 1113000   0.80511393   -7.0159078    322.20373  0.024124268  0.024174927            9 
 1114000     0.814534   -7.0308182    322.34285   0.02411302  0.024157036            5 
 1115000   0.78509498   -7.0138418    322.13883  0.024076146   0.02413917            8 
 1116000   0.79847724    -7.052292    321.65302  0.024018296  0.024121257            8 
 1117000   0.83923212   -7.0688038    322.87639  0.024088062  0.024103361           15 
 1118000   0.80400979    -7.034881    322.23296  0.024018557   0.02408545            8 
 1119000   0.80557353   -7.0283007     322.6426  0.024027599  0.024067582           10 
 1120000   0.81301051   -7.0096202    322.59672  0.024002732  0.024049839            3 
 1121000   0.81554729    -7.039127    323.17738  0.024024486  0.024032088            6 
 1122000    0.8007311   -7.0477177    322.26057   0.02393498    0.0240144           18 
 1123000   0.79820775   -7.0358183    322.45199  0.023927871  0.023996712           12 
 1124000   0.78832777   -7.0027482    323.06252  0.023951848   0.02397909           11 
 1125000   0.81192102   -7.0325425    322.74382  0.023906949  0.023961511            3 
 1126000   0.81715452   -6.9882138    325.01328  0.024053677  0.023944008            9 
 1127000   0.81851352   -7.0404933    324.07812  0.023963185  0.023926592            7 
 1128000    0.7970807    -7.038478    323.59966  0.023906595  0.023909099            4 
 1129000   0.79924953   -7.0005448    323.81325  0.023901184  0.023891647            6 
 1130000   0.80237793   -7.0381831    324.71793   0.02394675  0.023874174           14 
 1131000   0.80235506   -7.0525811    324.06834  0.023877714  0.023856641            6 
 1132000    0.8088601   -7.0597362    323.07378  0.023783405  0.023839036            8 
 1133000   0.79398557   -7.0439756    323.99867  0.023830441  0.023821534            7 
 1134000   0.80841851   -6.9998721    324.81418  0.023869355  0.023804088           14 
 1135000   0.79372288   -7.0216766    323.96752  0.023786162  0.023786757           10 
 1136000   0.81250192   -7.0196946    324.08557  0.023773883  0.023769365            4 
 1137000    0.8085029   -7.0125929    324.05771  0.023750932  0.023752037           11 
 1138000   0.78865818   -7.0307109    324.06541  0.023730625  0.023734777           16 
 1139000    0.7921985   -7.0674967    324.03271  0.023707397  0.023717313           22 
 1140000   0.80046515      -7.0796    325.03083  0.023759564  0.023699839            7 
 1141000    0.7995528   -7.0317143    324.83126  0.023724165  0.023682504           13 
 1142000   0.80544339   -7.0357628     325.4954  0.023751854  0.023665213           11 
 1143000   0.79031663   -7.0563437    324.79632  0.023680105  0.023647905           12 
 1144000   0.80549238   -7.0491012    325.33683  0.023698778  0.023630721            6 
 1145000   0.80439836   -7.0354506    324.88486  0.023645186  0.023613616           10 
 1146000    0.7972207   -7.0471573    324.80709  0.023618899  0.023596466            5 
 1147000   0.79237879    -7.051969    325.59841  0.023655799  0.023579248           10 
 1148000   0.77725878   -7.0500226    325.55847  0.023632293  0.023562006           16 
 1149000   0.81112603   -7.0487214    325.97528  0.023641955   0.02354482            6 
 1150000   0.78628245   -7.0570674    324.19369  0.023492297  0.023527484           10 
 1151000   0.80378256   -7.0515896     324.2882  0.023478729  0.023510162           10 
 1152000    0.7941098   -7.0560978    324.72094  0.023489651  0.023492915           22 
 1153000   0.80087134   -7.0523937     325.7777  0.023545656   0.02347556            6 
 1154000   0.79651287   -7.0377063    326.15372  0.023552406  0.023458369           14 
 1155000   0.76568588   -7.0594443    326.13968  0.023531002  0.023441226            6 
 1156000    0.7833613   -7.0684353    325.90896  0.023494014  0.023424065            4 
 1157000   0.80351517   -7.0033298    326.36674   0.02350668  0.023407052            5 
 1158000   0.79979384   -7.0261349    326.12638  0.023469083  0.023390054            8 
 1159000   0.79445506   -7.0844596    326.22416  0.023455865  0.023372975            6 
 1160000   0.80512633    -7.077211    326.14441  0.023429914  0.023355982            8 
 1161000   0.78925755   -7.0837753    326.00839  0.023399971  0.023338951           14 
 1162000   0.77698312   -7.0870255    326.03602  0.023381815   0.02332187           15 
 1163000   0.78528476   -7.0676201    327.23862  0.023447881  0.023304797            9 
 1164000   0.78825646   -7.0515887    327.03018  0.023412813  0.023287794            6 
 1165000   0.77798192   -7.0429446     326.4286  0.023349685  0.023270889            8 
 1166000   0.78980755   -7.0616945    326.69767   0.02334889  0.023254036            8 
 1167000   0.76392337   -7.0416392    326.71148  0.023329869  0.023237231            7 
 1168000   0.80234364   -7.0580055    327.47214  0.023364165  0.023220376           10 
 1169000      0.78595    -7.042904     327.8444  0.023370716  0.023203505            9 
 1170000   0.78326226   -7.0753844    326.98856  0.023289784  0.023186731           12 
 1171000   0.76860171   -7.0466365    327.06414  0.023275273  0.023169763           15 
 1172000   0.77617447   -7.0651271    327.31225  0.023273056  0.023152893            7 
 1173000   0.80245483   -7.0714593     327.7781   0.02328631  0.023136089           12 
 1174000   0.77486071   -7.0697513    328.36835  0.023308373  0.023119375            8 
 1175000   0.77621759   -7.0909512    328.19218  0.023276041  0.023102632           26 
 1176000   0.78270998   -7.0392027     328.4548  0.023274858  0.023085886           13 
 1177000   0.78245175   -7.0696428    329.16346  0.023305258  0.023069227            4 
 1178000   0.77498565   -7.0500344    328.54596  0.023241791  0.023052567           14 
 1179000    0.7840747   -7.0891164    328.64827   0.02322931  0.023035894           10 
 1180000   0.77642936   -7.0842081    328.55127  0.023202773  0.023019174            8 
 1181000   0.77483474   -7.0696928    328.37992  0.023171036  0.023002511            7 
 1182000   0.78177129   -7.0783858    328.57062  0.023164877  0.022985954           12 
 1183000   0.76876054   -7.0487385    329.01321  0.023176473  0.022969424           16 
 1184000   0.78346417   -7.0552841    329.28065  0.023175721  0.022952949            9 
 1185000   0.77979868   -7.0769218    328.03634   0.02306866  0.022936516            5 
 1186000   0.79287861   -7.0786977    328.76538  0.023100434  0.022920002            5 
 1187000   0.76302137   -7.0700289    328.53088   0.02306451  0.022903461            8 
 1188000   0.78508036   -7.0579059    328.66837   0.02305474   0.02288685            7 
 1189000   0.76560481   -7.0749988    329.62931  0.023102699  0.022870357            9 
 1190000   0.76596883   -7.0673112     329.0986   0.02304612  0.022853919            7 
 1191000   0.77690169   -7.0467458      329.105  0.023027218  0.022837509           17 
 1192000    0.7896293   -7.0704025    329.11484  0.023008588  0.022821102           13 
 1193000   0.77386176    -7.093691    328.71862  0.022961625   0.02280463           20 
 1194000   0.77442629   -7.0705237    329.32716  0.022984866  0.022788108            4 
 1195000   0.78353704    -7.071701      329.365  0.022968271   0.02277163           10 
 1196000   0.78631642   -7.0813963    329.63477  0.022967863  0.022755183            8 
 1197000   0.76681862   -7.0812613    328.39899  0.022862642  0.022738631           13 
 1198000   0.75658239   -7.0781212    329.07705  0.022890724  0.022722138            7 
 1199000   0.78172176    -7.097001    328.72359  0.022847066  0.022705631           14 
 1200000   0.77405482   -7.0578115    329.47863   0.02288046  0.022689241            9 
 1201000   0.76896779   -7.0817721    330.02776  0.022899512  0.022672917           14 
 1202000   0.77684369   -7.0877723     329.8273  0.022866563  0.022656518           19 
 1203000   0.77887309   -7.0809344     330.1377  0.022869056  0.022640204           10 
 1204000   0.77291375    -7.076713    330.58139  0.022880772  0.022623944            5 
 1205000   0.75884628   -7.0830843    330.47676  0.022854548  0.022607694           21 
 1206000   0.78085086   -7.0773931     330.1567  0.022813481  0.022591406            9 
 1207000   0.75584706   -7.0730217    330.28163  0.022803205  0.022575175           10 
 1208000   0.76038951   -7.0950851    329.49171  0.022729836  0.022558905           15 
 1209000   0.74245906   -7.1098266       329.94  0.022741935  0.022542525           20 
 1210000   0.76694905   -7.0851011    329.87213  0.022718466  0.022526157           10 
 1211000   0.76944269     -7.12653    330.20711  0.022722757  0.022509823            8 
 1212000   0.77344179   -7.0878555    330.58701   0.02273013  0.022493507           21 
 1213000   0.76804162   -7.0860763    330.98996  0.022739074  0.022477239            9 
 1214000   0.77125136   -7.1009012    330.80535  0.022707671  0.022460975           18 
 1215000   0.76487242   -7.0982126    330.90679  0.022695939   0.02244473            8 
 1216000   0.75885937    -7.095313    330.78666  0.022669042  0.022428451           23 
 1217000   0.77367508   -7.1091922    330.77173  0.022649393  0.022412153            6 
 1218000     0.760389   -7.0874566    331.05708   0.02265032   0.02239598           15 
 1219000   0.76842888   -7.0913004    331.57816  0.022667361  0.022379886            7 
 1220000   0.76360221   -7.0947905    331.28336  0.022628645  0.022363804           16 
 1221000   0.75572959   -7.1146897    330.46798  0.022554462  0.022347642            6 
 1222000   0.77692138   -7.1208384    331.16172  0.022583314  0.022331427           28 
 1223000   0.75695232   -7.1112333    330.91058  0.022547736  0.022315181           11 
 1224000   0.76114046   -7.0676814    331.72625  0.022584848   0.02229907           17 
 1225000   0.76297902   -7.1203054    331.14121  0.022526613  0.022282836            8 
 1226000   0.75866854   -7.1342048    331.07539  0.022503765  0.022266658            7 
 1227000   0.75274352   -7.1032322    331.26379   0.02249822  0.022250459            8 
 1228000   0.76063135   -7.1163652    331.52466  0.022497602  0.022234354            6 
 1229000   0.76875773   -7.0828337     331.6805  0.022489863  0.022218216           16 
 1230000   0.77742723   -7.1097236    331.26242  0.022443254  0.022202088           14 
 1231000   0.75029791   -7.0938872    332.38681  0.022501138  0.022185961           13 
 1232000   0.75440474   -7.1171321    331.65918  0.022433657  0.022169906           13 
 1233000    0.7565878   -7.1029498    330.81458  0.022358379  0.022153731            5 
 1234000    0.7560548   -7.1349417     331.3068  0.022373501  0.022137555           18 
 1235000   0.74676315   -7.1067633    331.36334  0.022359199  0.022121368           29 
 1236000   0.75004262   -7.1234496     331.3916  0.022343015  0.022105315            9 
 1237000   0.75945894   -7.1231009    332.01858  0.022367191   0.02208934           12 
 1238000   0.75704943   -7.1332715    331.92686   0.02234295  0.022073363            6 
 1239000     0.763023   -7.1459876     331.6964  0.022309416  0.022057268            6 
 1240000   0.76745449   -7.1020801    332.45987  0.022342733  0.022041155            8 
 1241000   0.76965524   -7.1334407    332.00415  0.022294128  0.022025115            8 
 1242000   0.75088257   -7.1356492    332.18371  0.022288225  0.022009051            6 
 1243000   0.75886788     -7.12248    332.03206  0.022260127  0.021992932           17 
 1244000   0.77419069   -7.1314934    332.58701  0.022279408  0.021976806           17 
 1245000   0.77149682   -7.1259274      332.283  0.022241165  0.021960701           12 
 1246000   0.75367927   -7.1389974    331.83037  0.022193043  0.021944643            6 
 1247000   0.74552987   -7.1291932    332.44929  0.022216606  0.021928592           23 
 1248000   0.73665488   -7.0895075    332.84533  0.022225249  0.021912605           23 
 1249000   0.75384433    -7.099221    332.40048  0.022177774  0.021896656           15 
 1250000   0.77287967   -7.1417294    332.57974  0.022171982  0.021880628            9 
 1251000   0.75395766   -7.1535873    332.40701  0.022142753   0.02186465            9 
 1252000   0.76361174   -7.1390711    332.59128  0.022137332   0.02184864           13 
 1253000    0.7522323   -7.1338317    333.06846    0.0221514  0.021832757           11 
 1254000   0.76912976   -7.1248092    332.24361  0.022078921  0.021816848            5 
 1255000   0.74322611   -7.1547214    332.45562  0.022075407  0.021800875            9 
 1256000   0.74831237   -7.1402628    332.43031  0.022056151  0.021784823            9 
 1257000    0.7627939   -7.1371228    332.06079  0.022014107  0.021768746            8 
 1258000   0.74738811   -7.1583669     333.1567  0.022069204   0.02175278           10 
 1259000    0.7497756   -7.1589161    333.41308  0.022068644  0.021736866           13 
 1260000   0.74616695   -7.1736886    333.04448  0.022026751  0.021720862           22 
 1261000   0.74629812    -7.161573    333.02595  0.022008059  0.021704878           20 
 1262000   0.75362339   -7.1565572    333.06313  0.021993075  0.021688938           22 
 1263000   0.74034346   -7.1603339    333.62445  0.022012698  0.021673068            8 
 1264000    0.7481669   -7.1543241    332.57791  0.021926286   0.02165725           13 
 1265000   0.75203143   -7.1720785    333.11108  0.021944077  0.021641344            9 
 1266000   0.72685948   -7.1545707    333.68941  0.021964811  0.021625481           14 
 1267000   0.74152697   -7.1524382     332.6679  0.021880288  0.021609611            9 
 1268000   0.74541256   -7.1394299    333.46021  0.021915103  0.021593702           13 
 1269000   0.73718031   -7.1486721    333.23109  0.021882787  0.021577903           12 
 1270000   0.74285823    -7.131503    333.81684  0.021903992  0.021562085           12 
 1271000   0.74602507   -7.1307747    333.67984  0.021877776  0.021546279           14 
 1272000   0.73937193   -7.1488884    333.55672  0.021852511   0.02153047           13 
 1273000   0.74974128   -7.1528365    333.83815  0.021853767  0.021514664           11 
 1274000   0.73450676    -7.162207    333.74641  0.021830613  0.021498884           23 
 1275000    0.7450042   -7.1285973    333.29129  0.021783745  0.021483173           10 
 1276000   0.74732917    -7.135802    333.32443  0.021768837  0.021467366           21 
 1277000   0.74977033     -7.14632    334.07159  0.021800547  0.021451661           25 
 1278000   0.73844109   -7.1484923    334.82493  0.021832611  0.021435878           25 
 1279000   0.73702917   -7.1635955    333.95861  0.021759096  0.021420085           39 
 1280000   0.73891853   -7.1638061    334.06881  0.021749272  0.021404435           36 
 1281000   0.73621935   -7.1821893    334.67653  0.021771827  0.021388886           14 
 1282000   0.72762041   -7.1633538    334.68937  0.021755679  0.021373303           15 
 1283000   0.73784766   -7.1557264    335.36379  0.021782527  0.021357826           12 
 1284000   0.74578868   -7.1643573    334.38162  0.021701819  0.021342291            7 
 1285000    0.7360674   -7.1661514    335.42402   0.02175253  0.021326822           12 
 1286000   0.75287115   -7.1734345    335.18217  0.021719944  0.021311318           15 
 1287000   0.72331738   -7.1701774    334.62008  0.021666672  0.021295813            7 
 1288000   0.73999743   -7.1795665    333.97002  0.021607791  0.021280252           11 
 1289000   0.72276971   -7.1582821    335.18507   0.02166958   0.02126476           23 
 1290000    0.7563041   -7.1618672     335.8276  0.021694289  0.021249294           13 
 1291000   0.71232608   -7.1687484    334.70716  0.021605161  0.021233781           10 
 1292000   0.73636959   -7.1610267    334.53995  0.021577654  0.021218291           12 
 1293000   0.74369973   -7.1716642    334.92873  0.021586023  0.021202753            7 
 1294000   0.72490603   -7.1744159    334.82095    0.0215624  0.021187288           12 
 1295000   0.73446944   -7.1508184    334.32112  0.021513586  0.021171798            7 
 1296000   0.72492895   -7.1548326    335.07406    0.0215454  0.021156268           18 
 1297000   0.73534652   -7.1991145    334.85414  0.021514658  0.021140723            9 
 1298000   0.72312563   -7.1776682    335.18831  0.021519537  0.021125309           20 
 1299000   0.73310623   -7.1610437    335.87563  0.021547064  0.021109913           16 
 1300000   0.71612306   -7.1932984    335.53184  0.021508451  0.021094488           16 
 1301000   0.73801807   -7.2006055     335.4136  0.021484346  0.021079053           13 
 1302000   0.73273655   -7.1924502    335.47656  0.021471874  0.021063564           14 
 1303000   0.74959585   -7.1942228    335.39915  0.021450445   0.02104817           14 
 1304000   0.71796051    -7.175847    335.36946  0.021432097  0.021032776           18 
 1305000   0.72389544   -7.1529776    335.21549  0.021405842  0.021017397           14 
 1306000   0.72975614   -7.1653722    335.97592  0.021437974  0.021002017           13 
 1307000   0.73321446   -7.1691498    335.32473  0.021380051  0.020986631           15 
 1308000   0.71608679   -7.2007511    335.49092  0.021374294  0.020971289           10 
 1309000   0.73793593   -7.1804814    336.05435  0.021393834  0.020955854           21 
 1310000   0.73952993   -7.1534709    336.36214  0.021397082  0.020940499            8 
 1311000   0.73065048   -7.1817463    335.94767  0.021354416  0.020925203           13 
 1312000   0.73491248   -7.1634523     335.9782  0.021340079  0.020909929            8 
 1313000   0.73841061   -7.1996444    336.08395  0.021330537  0.020894688           11 
 1314000   0.72526721   -7.2016538    335.64831  0.021286676  0.020879492           17 
 1315000   0.72866021   -7.2079067    336.09195  0.021298602  0.020864237           14 
 1316000   0.74308804   -7.1883661    336.68957  0.021320262  0.020849026           13 
 1317000   0.72885585   -7.2101951    335.71753  0.021242567  0.020833812           12 
 1318000   0.73542297   -7.1907316    336.54121  0.021278529  0.020818605            9 
 1319000   0.72282707   -7.2088657    336.71056  0.021273095  0.020803447            6 
 1320000   0.74456712   -7.1998552    336.06564  0.021216265  0.020788259           17 
 1321000   0.73588503   -7.1723649    336.99779  0.021259008  0.020773119           35 
 1322000   0.70995607   -7.2145319    336.35426  0.021202361  0.020757948           15 
 1323000   0.73218677   -7.2039996    336.80491  0.021214721  0.020742818            9 
 1324000   0.74411866   -7.1866167    337.21235  0.021224342  0.020727681           25 
 1325000   0.71509235   -7.2371729    337.26793   0.02121182  0.020712587           22 
 1326000   0.71977577   -7.1847488     336.6856  0.021159225  0.020697499           10 
 1327000   0.72527345   -7.2168377    337.31092   0.02118255  0.020682519           12 
 1328000   0.72364384   -7.2095304    337.09817  0.021153248  0.020667544            7 
 1329000   0.72658271   -7.1940814    336.97274  0.021129467  0.020652542            9 
 1330000   0.72566627   -7.2243706    336.54483  0.021086769  0.020637498           12 
 1331000   0.72648712   -7.1933954    337.28788  0.021117448  0.020622443           22 
 1332000   0.72487151   -7.1976214    335.84015  0.021011021  0.020607402           20 
 1333000   0.72689158   -7.2121123    337.60147  0.021105368  0.020592371           19 
 1334000   0.71697584   -7.2291753    336.64209  0.021029616  0.020577324           20 
 1335000   0.75006769   -7.1924849     337.0558  0.021039688  0.020562273           17 
 1336000   0.71977894   -7.2039816    338.07698  0.021087636  0.020547298           16 
 1337000   0.70567083   -7.2306487    337.73685  0.021050664  0.020532321           25 
 1338000    0.7098366   -7.1999255    337.52684  0.021021851  0.020517386           15 
 1339000    0.7262266   -7.1846425     337.4024  0.020998407  0.020502445           16 
 1340000    0.7075504   -7.2069941    337.29666  0.020976161  0.020487471           14 
 1341000   0.72645407   -7.1922981    338.19154  0.021016129  0.020472447           13 
 1342000    0.7204927   -7.1920286     336.9245  0.020921789  0.020457459           15 
 1343000   0.72118897   -7.2003091    337.33662  0.020931783  0.020442518           11 
 1344000   0.71438786   -7.1918949     336.7482  0.020879725  0.020427546           11 
 1345000   0.70906382   -7.2294926    336.68294  0.020860157  0.020412559           15 
 1346000   0.70963724   -7.2388294    337.63109  0.020903361  0.020397605           13 
 1347000   0.71744659   -7.1882113    337.84847  0.020901291  0.020382705            8 
 1348000   0.69672688   -7.2032538    338.00949   0.02089574  0.020367837            9 
 1349000   0.73607363   -7.2040049    337.83181  0.020869274  0.020352983           23 
 1350000   0.70751231   -7.2117744    337.38767  0.020826399   0.02033813           17 
 1351000    0.7009563   -7.2299102    337.76668  0.020834362  0.020323226            9 
 1352000   0.70732936   -7.2082825    337.47445   0.02080094  0.020308332           16 
 1353000   0.71579517   -7.2196749    337.40696  0.020781409  0.020293423           14 
 1354000   0.71565819   -7.2430983    337.29371  0.020759091  0.020278546           12 
 1355000   0.71805847   -7.2274419    337.70843  0.020769276  0.020263678           13 
 1356000   0.71048739   -7.2083088    338.15465  0.020781382  0.020248856            6 
 1357000   0.70884054   -7.2434899     337.7989  0.020744221  0.020234041            8 
 1358000   0.70901223   -7.2306255    337.72955   0.02072469  0.020219241            8 
 1359000   0.72528358   -7.2376398    338.36626  0.020748483  0.020204406           24 
 1360000   0.71979732   -7.2353309    337.84866  0.020701511  0.020189571           23 
 1361000   0.71420587   -7.2289193    338.16538  0.020705693  0.020174735           24 
 1362000   0.69309987   -7.2385099    337.08584   0.02062444  0.020159878           23 
 1363000   0.71709414   -7.2134655    338.42084  0.020690929  0.020145014            8 
 1364000   0.72030004   -7.2390618    338.03408  0.020652131  0.020130177            8 
 1365000   0.69888169   -7.2327733    338.36998  0.020657508  0.020115395           11 
 1366000   0.71044257   -7.2297765    337.96686  0.020617793  0.020100617           28 
 1367000   0.71342823   -7.2382623    338.25091  0.020620026  0.020085833           28 
 1368000   0.71763046   -7.2223756    338.13652  0.020597985  0.020071073           27 
 1369000    0.7241529   -7.2056278    338.05076  0.020577719  0.020056326           17 
 1370000   0.70379623   -7.2299162    338.65507  0.020599457  0.020041552           22 
 1371000   0.68777739   -7.2260312    338.39288  0.020568495  0.020026832           34 
 1372000   0.69754503   -7.2074902    338.90041   0.02058433  0.020012127           46 
 1373000   0.70058372   -7.2040155    337.98825  0.020513975  0.019997467           21 
 1374000   0.70477884   -7.2263935    338.42516  0.020525544  0.019982823           20 
 1375000   0.71646322   -7.2299116    338.41305  0.020509882  0.019968136           14 
 1376000   0.69104027   -7.2442977    338.47596  0.020498787  0.019953488           20 
 1377000   0.70916975    -7.261024    338.48712  0.020484575  0.019938768           15 
 1378000   0.70499219   -7.2633592    338.80612  0.020489001  0.019924067           22 
 1379000   0.71625536   -7.2519093    338.64261  0.020464262  0.019909357           11 
 1380000   0.70966361   -7.2595382    338.09253  0.020416216  0.019894631           26 
 1381000   0.69820685   -7.2138825    338.35148  0.020417058  0.019879997           25 
 1382000   0.70640764   -7.2482818    338.70545  0.020423628  0.019865327           16 
 1383000   0.68003219   -7.2553584    339.31946  0.020445858  0.019850706           22 
 1384000   0.70543181   -7.2197724    339.16046  0.020421511  0.019836116           42 
 1385000    0.7119112   -7.2396101      338.692   0.02037858  0.019821509           38 
 1386000   0.69674358   -7.2268416    338.43769  0.020348586  0.019806897           24 
 1387000   0.70456678   -7.2396872    338.66545    0.0203476  0.019792226           10 
 1388000   0.70529612   -7.2503249    338.83736  0.020343261  0.019777584           11 
 1389000   0.69017953   -7.2417049    338.11829  0.020285474  0.019762892           10 
 1390000   0.69744564   -7.2650698    337.98303  0.020262771  0.019748186           29 
 1391000   0.69945007   -7.2748775    338.09273  0.020254776  0.019733473           14 
 1392000    0.6876029   -7.2623204    338.42285  0.020259988  0.019718806           20 
 1393000   0.69334502   -7.2513584    339.01575  0.020280913  0.019704134           17 
 1394000   0.69329287   -7.2888603     338.5259  0.020237081  0.019689429           10 
 1395000   0.68748065    -7.254553    338.49324  0.020220624  0.019674721           12 
 1396000   0.68790022   -7.2654096     337.9827  0.020175663  0.019660025            9 
 1397000   0.69470088   -7.2611741    338.85234  0.020213096  0.019645359           18 
 1398000   0.70896456   -7.2628543    338.43191  0.020173576  0.019630686           17 
 1399000   0.68952462   -7.2729369    337.78099  0.020120383  0.019615961           11 
 1400000   0.69118613   -7.2560986     338.5049  0.020149101  0.019601289           33 
 1401000   0.68792984   -7.2716112     338.8433  0.020154848  0.019586648           27 
 1402000   0.67850359   -7.2381267    338.07997    0.0200951  0.019572037           18 
 1403000   0.69647227   -7.2469534    338.48135  0.020104618  0.019557496           21 
 1404000    0.6841087    -7.254073    338.79939  0.020109176  0.019542997           30 
 1405000   0.69379757   -7.2595749    338.58803  0.020082327  0.019528487           11 
 1406000   0.69573596    -7.272462    339.17545   0.02010286  0.019514065            9 
 1407000   0.68413933   -7.2394254    338.84009  0.020068709  0.019499592           14 
 1408000   0.67385369   -7.2513202    338.81261   0.02005283  0.019485093           15 
 1409000   0.69525144   -7.2619363    338.95711  0.020047144    0.0194706           10 
 1410000   0.68968526   -7.2395573    339.11752  0.020042406  0.019456115           11 
 1411000   0.68146775   -7.2394996    338.89126   0.02001484  0.019441625           10 
 1412000   0.68592442   -7.2828817    338.96599  0.020005075  0.019427136            8 
 1413000   0.68645837   -7.2884885    338.62813  0.019970991  0.019412633           10 
 1414000   0.69196044   -7.2429695    338.74319  0.019963649  0.019398113           18 
 1415000   0.69353912     -7.25541    338.65888  0.019944575  0.019383604           20 
 1416000   0.69188443   -7.2546405    338.98141  0.019949471  0.019369174           19 
 1417000   0.69855269   -7.2617907    338.53731  0.019909275  0.019354712           11 
 1418000   0.69084013   -7.2685179    339.11972  0.019929462  0.019340229           19 
 1419000   0.67667701   -7.2702232    339.45367  0.019935029  0.019325723           22 
 1420000   0.68590097   -7.2870925    338.68248  0.019875732  0.019311257           37 
 1421000   0.68301682   -7.2787506    339.16224   0.01988988  0.019296817           37 
 1422000   0.68848753   -7.2643194    339.48943  0.019895068  0.019282452            7 
 1423000   0.70642585   -7.2815681    339.23603  0.019866246  0.019268111           15 
 1424000   0.69369982   -7.3073396    339.12754  0.019845947  0.019253789           11 
 1425000    0.6825881   -7.2862215    338.58393   0.01980023  0.019239448           22 
 1426000   0.68129832   -7.2878524    339.52692  0.019841452  0.019225168           20 
 1427000   0.68781675   -7.2607339    339.04127  0.019799187  0.019210888           26 
 1428000   0.68922842   -7.2783195    339.06763   0.01978686  0.019196584           14 
 1429000   0.69038234   -7.2913188     339.2794  0.019785363  0.019182229           25 
 1430000   0.68356035   -7.2891161    338.92603  0.019750934  0.019167837           22 
 1431000   0.68013956   -7.2535819    339.53697   0.01977271  0.019153498           35 
 1432000    0.6694463   -7.2854028    339.68095  0.019767281  0.019139194           13 
 1433000   0.68939846   -7.3006134    339.12011  0.019720872  0.019124901           16 
 1434000   0.68600778   -7.2719952    339.47812  0.019727924  0.019110605            8 
 1435000   0.68981885   -7.2815417    339.91752  0.019739694  0.019096343           15 
 1436000   0.69843133   -7.2840076      339.827  0.019720694  0.019082077           11 
 1437000   0.68624379   -7.2790432    339.30382  0.019676631  0.019067835           12 
 1438000   0.67266016   -7.2829481    339.38434  0.019667613  0.019053573           15 
 1439000   0.69315574   -7.2747461    339.83503  0.019680046  0.019039308           20 
 1440000   0.67538331    -7.274192    340.00698   0.01967633  0.019025048           18 
 1441000   0.66953849    -7.304115    339.93228  0.019658355  0.019010833           25 
 1442000   0.68035029    -7.267686    340.17598  0.019658806  0.018996629           18 
 1443000    0.6813998   -7.2775065    339.87831  0.019627992  0.018982517           18 
 1444000   0.67016729   -7.2733422    340.33067  0.019640505  0.018968409           12 
 1445000   0.66511953   -7.3026702    340.45922  0.019634327  0.018954327           24 
 1446000    0.6610462   -7.3052283     339.8017  0.019582855  0.018940197           16 
 1447000   0.68768295   -7.2535511    340.45303  0.019606832  0.018926079           12 
 1448000   0.67561956   -7.2898974    340.20422  0.019578972  0.018911957           14 
 1449000   0.67439114    -7.309182    339.41375      0.01952  0.018897835            7 
 1450000   0.68026597    -7.322903    339.42912  0.019507421  0.018883748           19 
 1451000   0.66064071    -7.299512    340.25077  0.019541165  0.018869609           13 
 1452000   0.67506369   -7.2892967    340.45686  0.019539535  0.018855466           30 
 1453000   0.68644006   -7.2805857    340.38025  0.019521693  0.018841355           14 
 1454000   0.65529797   -7.3125497    340.22041  0.019499106  0.018827238           15 
 1455000   0.66149794   -7.3074938    339.77628  0.019460268  0.018813127           14 
 1456000   0.66542281   -7.2950306    339.23387  0.019415858  0.018798991           11 
 1457000   0.68238665    -7.306474    340.28841  0.019462847  0.018784936            7 
 1458000   0.67892606   -7.3229613    339.90947  0.019427839  0.018770828           24 
 1459000   0.65284656   -7.3174325    340.75707  0.019462935   0.01875676           12 
 1460000   0.65689826   -7.3276643    340.71793   0.01944737   0.01874271           24 
 1461000   0.66408368   -7.2978799    339.95243  0.019390396  0.018728639           23 
 1462000   0.66899409   -7.3113591    340.26584  0.019394998  0.018714614           18 
 1463000   0.67715196   -7.3114604    339.92955  0.019362585  0.018700643           31 
 1464000    0.6717884    -7.310926    340.62663  0.019389039  0.018686639           28 
 1465000   0.67804797     -7.31626    339.92809  0.019336069  0.018672637           40 
 1466000   0.68305071   -7.3197545    340.34711  0.019346698  0.018658641           15 
 1467000   0.66038948   -7.3021592    340.20308  0.019325328  0.018644682           25 
 1468000   0.65976502   -7.3266538    339.71295  0.019284341  0.018630694           52 
 1469000   0.66190996   -7.3120693    340.29431  0.019304193   0.01861671           32 
 1470000   0.65560625   -7.3014464    340.82546  0.019321171  0.018602787           34 
 1471000   0.64941312    -7.338307    340.22305   0.01927391  0.018588821           50 
 1472000   0.64585744   -7.3365569    340.73157  0.019289604   0.01857489           68 
 1473000   0.66798575   -7.3130196    341.03292  0.019293557  0.018560978           32 
 1474000   0.67313876   -7.3177246    340.75957  0.019265014   0.01854711           27 
 1475000   0.66911065   -7.3418137    340.81183  0.019254906  0.018533254           19 
 1476000   0.68246661   -7.3297992    340.83251  0.019243028   0.01851941           12 
 1477000   0.66300961   -7.3588538    340.21677  0.019195259   0.01850554           34 
 1478000   0.65862306   -7.3323174    340.50046  0.019198267  0.018491636           41 
 1479000    0.6581976   -7.3180101    341.05682  0.019216634  0.018477739           28 
 1480000   0.66014958   -7.3067079    340.44422  0.019169157  0.018463853           39 
 1481000   0.65942548   -7.3296665    339.48562  0.019102274  0.018449966           46 
 1482000   0.66615041   -7.3562599    340.48776  0.019145735  0.018436074           43 
 1483000   0.65649199   -7.3393718    340.94424  0.019158476  0.018422222           53 
 1484000    0.6695355   -7.3433234    340.20524  0.019104068  0.018408374           29 
 1485000   0.66689284   -7.3217809    340.68523  0.019118138  0.018394554           35 
 1486000   0.65051308   -7.3404793    340.60741  0.019100909   0.01838077           41 
 1487000   0.66721909   -7.3485393    341.14595  0.019118244  0.018366977           41 
 1488000   0.65320285   -7.3575109      340.904  0.019091846  0.018353181           66 
 1489000   0.66261222   -7.3415302    340.76174  0.019071063  0.018339407           67 
 1490000    0.6594377   -7.3653117    340.75962  0.019058144  0.018325672           52 
 1491000   0.66064057   -7.3582239    340.21908  0.019015151  0.018311966           72 
 1492000   0.65885325   -7.3332669    340.97767  0.019044776  0.018298276           84 
 1493000   0.66380273   -7.3356476     340.0801  0.018981921  0.018284557           84 
 1494000   0.64502534   -7.3301953     341.0473  0.019023165  0.018270835           70 
 1495000   0.66213819   -7.3288738     340.7022  0.018991204  0.018257142           84 
 1496000   0.66331571   -7.3532089    340.99173  0.018994638  0.018243445           60 
 1497000   0.64698099   -7.3491524     341.1487  0.018990687  0.018229744           82 
 1498000   0.68150453   -7.3627636    341.29422  0.018986105  0.018216059           71 
 1499000   0.65576159   -7.3456829    340.62902  0.018936459  0.018202376          102 
 1500000   0.65390977   -7.3546935    340.64919  0.018924955  0.018188772           44 
 1501000   0.65762231   -7.3553357    341.76346   0.01897421  0.018175175           65 
 1502000   0.65346054   -7.3443251    340.99114  0.018918727  0.018161587           56 
 1503000   0.65543895   -7.3666572    341.06184   0.01891006  0.018147954           91 
 1504000   0.64299357   -7.3606483    340.69304  0.018877052  0.018134327           89 
 1505000   0.64843559   -7.3486388    341.58852  0.018914093  0.018120687           78 
 1506000   0.64227985   -7.3824724    341.08166  0.018873487   0.01810707           82 
 1507000   0.65759903   -7.3678507    341.16257  0.018865438  0.018093443           95 
 1508000   0.64501086   -7.3660461    340.71222   0.01882804  0.018079829           77 
 1509000   0.64548016   -7.3272975    340.95307  0.018828864  0.018066242           83 
 1510000   0.64869974   -7.3869145     341.4407  0.018843306  0.018052657           93 
 1511000    0.6555817   -7.3407109    341.68657  0.018844395   0.01803911           80 
 1512000    0.6499612   -7.3718524    341.37314  0.018814657  0.018025538           66 
 1513000   0.66777658   -7.3824774     340.8417  0.018772951   0.01801198           82 
 1514000   0.65553375   -7.3438662    341.04004  0.018771468  0.017998482           89 
 1515000   0.64368849   -7.3506031    341.43296  0.018780691  0.017984979           80 
 1516000   0.64936737   -7.3819313    340.85823   0.01873671  0.017971482           90 
 1517000   0.64360702   -7.3609549    341.73889  0.018772736  0.017957989           80 
 1518000    0.6539764   -7.3733741    340.95305  0.018717229  0.017944455          124 
 1519000     0.640595   -7.3854137     340.8446  0.018698957  0.017930939           70 
 1520000   0.64938087   -7.3567284    341.27321  0.018710154  0.017917435          112 
 1521000   0.65536067   -7.3680235    341.60208  0.018715871  0.017903979           76 
 1522000   0.64646909   -7.3843989     340.5504  0.018645992  0.017890479          139 
 1523000   0.64282321   -7.3866484    340.71362   0.01864268  0.017876986          151 
 1524000   0.65007726   -7.3748499    341.14031  0.018653779  0.017863498          157 
 1525000   0.63934943   -7.3715813    341.22844  0.018646363  0.017850041          122 
 1526000   0.65122475    -7.388197    341.40321  0.018643688  0.017836627           99 
 1527000   0.64842453   -7.3826189    341.35955  0.018629096  0.017823236           97 
 1528000   0.65308564   -7.3715674    341.59786  0.018629901  0.017809864          154 
 1529000   0.64851348   -7.3683841    341.08291   0.01858965  0.017796556          181 
 1530000   0.65302842   -7.3674047     341.1714   0.01858232  0.017783199          128 
 1531000   0.64726723   -7.3673581    341.14013  0.018568481  0.017769838          106 
 1532000   0.63856045   -7.3777004    341.07358  0.018552741  0.017756453          136 
 1533000    0.6460438   -7.3759448    340.66843  0.018518614  0.017743062          133 
 1534000   0.63286306   -7.3843885     341.8481  0.018570627  0.017729685          223 
 1535000   0.63887022    -7.375662    341.09989  0.018517909   0.01771635          132 
 1536000   0.65242163   -7.3927484     341.1888  0.018510677  0.017702992          171 
 1537000   0.64145554   -7.3861958    341.37018  0.018508468  0.017689626          186 
 1538000   0.64257257   -7.3666076    341.21361   0.01848795  0.017676268          195 
 1539000   0.61839175   -7.3838942    341.01464  0.018465164  0.017662899          217 
 1540000   0.63017881   -7.3880462    342.15867   0.01851508   0.01764954          190 
 1541000   0.63325947   -7.4111694    341.32999  0.018458252  0.017636152          225 
 1542000     0.629868   -7.3805191    341.47321  0.018454022  0.017622798          195 
 1543000   0.63725427   -7.3784948    341.50676  0.018443873  0.017609443          189 
 1544000   0.62678175   -7.3885192    340.22719  0.018362866  0.017596113          232 
 1545000    0.6304231    -7.387683    340.97087  0.018391094  0.017582751          301 
 1546000   0.63048537     -7.37781    340.38308  0.018347514  0.017569415          268 
 1547000   0.65301513   -7.3953709    340.76145  0.018356036   0.01755604          305 
 1548000   0.64674296   -7.4118209    340.64969  0.018338161  0.017542674          224 
 1549000   0.64138166   -7.3926721    340.64154  0.018325884  0.017529318          217 
 1550000   0.63371161   -7.4150469     340.5272  0.018307914  0.017515993          231 
 1551000   0.63319184   -7.4169608    340.80835  0.018311216  0.017502693          234 
 1552000   0.62790105   -7.3959102    340.40119  0.018277555  0.017489382          275 
 1553000   0.64933644   -7.3823445    340.70312  0.018281987  0.017476108          200 
 1554000   0.62868602   -7.4093754    340.67133  0.018268518  0.017462836          243 
 1555000   0.64568678    -7.393512    341.39888   0.01829576  0.017449553          297 
 1556000   0.63171355   -7.3920439    340.56027  0.018239089  0.017436269          289 
 1557000   0.62856677   -7.3893084    340.86583  0.018243729  0.017422967          263 
 1558000   0.63063658   -7.3951227    341.29644  0.018255051  0.017409673          321 
 1559000   0.63356721   -7.4166858     340.5221  0.018201951  0.017396397          279 
 1560000   0.64525483   -7.4020855    339.98209  0.018161436  0.017383137          307 
 1561000    0.6325805     -7.42298    340.94523  0.018201219  0.017369865          288 
 1562000    0.6260237   -7.4090036    341.32827  0.018210001  0.017356585          311 
 1563000   0.61889035   -7.4185363    340.98612  0.018180109  0.017343346          320 
 1564000   0.63459563   -7.4451473    340.31762  0.018132866  0.017330098          291 
 1565000   0.62837996      -7.4231    340.38066  0.018124636  0.017316833          188 
 1566000   0.61422459   -7.3988571    341.35933  0.018165141  0.017303576          369 
 1567000    0.6133587   -7.4253571    340.57463  0.018111818  0.017290328          295 
 1568000   0.62973429   -7.4234079    340.82202  0.018113415  0.017277071          291 
 1569000   0.62260347   -7.4477772     340.8691  0.018104371  0.017263808          291 
 1570000   0.64027582   -7.4240876    340.87352  0.018093074   0.01725059          231 
 1571000    0.6242652     -7.44593    340.16488  0.018043968  0.017237357          285 
 1572000   0.64595584   -7.4423389    340.06602  0.018027249  0.017224123          283 
 1573000   0.62208754   -7.4206633    341.10186  0.018070665  0.017210909          257 
 1574000   0.61745246   -7.4442647    340.74853  0.018040477  0.017197693          248 
 1575000   0.63789503   -7.4459644    340.26497  0.018003438  0.017184491          256 
 1576000   0.62967505   -7.4060701    341.43203  0.018053724  0.017171315          247 
 1577000   0.61499564   -7.4220884    340.89418  0.018013854  0.017158141          286 
 1578000   0.61489968   -7.4419002    340.53468  0.017983454  0.017144924          249 
 1579000   0.62051261   -7.4451779    340.84209  0.017988289   0.01713174          252 
 1580000   0.61645682   -7.4205513     339.7577   0.01791971  0.017118537          301 
 1581000   0.60515148   -7.4331326    340.63979   0.01795487   0.01710536          224 
 1582000   0.62174626     -7.44556    340.16741  0.017918637  0.017092144          256 
 1583000   0.62999842   -7.4421057    340.47755  0.017923645  0.017078962          247 
 1584000   0.62428546   -7.4493492    340.49411    0.0179132  0.017065763          209 
 1585000   0.61963043   -7.4304917    340.25383  0.017889265  0.017052606          275 
 1586000   0.62934441   -7.4396396    340.85078  0.017909351  0.017039484          239 
 1587000   0.60513323     -7.43292    340.44056  0.017876526   0.01702633          258 
 1588000   0.61650955   -7.4399548    340.28139  0.017856916  0.017013166          241 
 1589000   0.61181509   -7.4467727    340.23644  0.017843321  0.017000032          224 
 1590000   0.62267816   -7.4711075    340.24295   0.01783244  0.016986904          312 
 1591000   0.60468225   -7.4264268    340.20875   0.01781944  0.016973802          266 
 1592000   0.62328635   -7.4450072    340.09949  0.017802528  0.016960708          239 
 1593000   0.61748251   -7.4684625    339.94055  0.017783038  0.016947591          211 
 1594000   0.62043804    -7.436072    340.46181  0.017799133  0.016934478          251 
 1595000    0.6240483   -7.4424033    341.35562  0.017834672  0.016921399          225 
 1596000   0.61722318   -7.4620368    340.82669   0.01779588  0.016908324          264 
 1597000   0.61390784   -7.4584878    340.05005  0.017744211  0.016895261          257 
 1598000    0.6066015   -7.4475796    339.86591  0.017723504  0.016882195          264 
 1599000   0.63843671   -7.4707818    340.61262  0.017751335  0.016869174          272 
 1600000   0.60887395   -7.4532937    339.93885  0.017705149  0.016856118          258 
 1601000   0.62190343   -7.4504923    339.82998  0.017688423  0.016843084          268 
 1602000   0.61534075    -7.452663     340.2334  0.017698367  0.016830071          244 
 1603000   0.61622842   -7.4624462    340.75069  0.017714218  0.016817048          230 
 1604000   0.60693064   -7.4608224     341.0691  0.017719716  0.016804026          243 
 1605000    0.6003751   -7.4847716    340.63051  0.017685904  0.016791047          235 
 1606000   0.61132791   -7.4533816    340.18814  0.017651938  0.016778064          255 
 1607000   0.60940308   -7.4457464    340.20109  0.017641625  0.016765114          226 
 1608000   0.60454066     -7.44566    340.03518  0.017622056  0.016752156          211 
 1609000   0.61028375    -7.442686    340.35086  0.017627453  0.016739207          275 
 1610000   0.61392434   -7.4684269    340.11315    0.0176042  0.016726284          240 
 1611000   0.61813793    -7.436787    339.95407  0.017585044  0.016713373          240 
 1612000   0.61286896   -7.4565202    339.55513  0.017553512  0.016700458          281 
 1613000   0.62412308   -7.4634401    339.92001   0.01756148  0.016687535          292 
 1614000   0.61433534   -7.4556483     340.2496  0.017567617  0.016674616          270 
 1615000    0.6050453   -7.4503702    340.72284  0.017581158  0.016661712          258 
 1616000   0.60207283   -7.4567328     340.2283  0.017544776  0.016648808          304 
 1617000   0.60931677    -7.481617    339.97462  0.017520852   0.01663592          273 
 1618000   0.60502786    -7.463256    340.59153  0.017541797  0.016623052          280 
 1619000   0.62219429   -7.4534223    340.25823  0.017513806  0.016610205          266 
 1620000   0.61867473   -7.4821251    340.68529  0.017524963  0.016597368          270 
 1621000   0.60999997   -7.4601676    339.84927  0.017471174   0.01658453          313 
 1622000   0.61256457    -7.460666    339.90693  0.017463365  0.016571694          283 
 1623000   0.60840044   -7.4490701    339.20311  0.017416467  0.016558875          281 
 1624000   0.59238338   -7.4906356    340.32058  0.017463084  0.016546045          289 
 1625000   0.60765746   -7.4820787    339.77083  0.017424145  0.016533238          302 
 1626000   0.60052765   -7.4553413    339.62651  0.017406033  0.016520403          350 
 1627000   0.60705074   -7.4794864    339.86855  0.017407731  0.016507571          306 
 1628000   0.60052837   -7.4709018    339.21821  0.017363749  0.016494767          368 
 1629000   0.60165156   -7.4803374    340.26792  0.017406789  0.016481932          308 
 1630000   0.60762564   -7.4757653    339.88499  0.017376533  0.016469127          329 
 1631000   0.58640339   -7.4674175    339.59203  0.017350911  0.016456326          304 
 1632000   0.59931525   -7.4766929    339.58298  0.017339817  0.016443541          344 
 1633000   0.59972339   -7.5037204    339.55954  0.017328002  0.016430752          337 
 1634000    0.6072548   -7.4818087    340.47726  0.017364201  0.016417979          337 
 1635000   0.58408307   -7.4745634    340.15492  0.017337152  0.016405271          364 
 1636000   0.59279556   -7.4699511    339.98761  0.017318032  0.016392545          432 
 1637000   0.59793953   -7.4737494    339.80598  0.017298207  0.016379809          374 
 1638000   0.59776131   -7.4923047     339.6939  0.017281944  0.016367077          385 
 1639000   0.59427807    -7.486551    339.50833  0.017261965  0.016354359          349 
 1640000   0.59952208   -7.4872682    339.47903  0.017249951   0.01634166          350 
 1641000   0.60923733   -7.4652128     340.1843  0.017275254  0.016329005          344 
 1642000   0.59832287   -7.4932525    340.20642  0.017265856  0.016316339          361 
 1643000    0.6017372   -7.4881354    339.99003  0.017244372  0.016303676          406 
 1644000   0.59983745   -7.4965327    340.30644  0.017249921  0.016291021          389 
 1645000   0.58375932   -7.5006386    339.59427  0.017203357  0.016278381          405 
 1646000   0.57924136   -7.5105451    340.24919  0.017226063  0.016265741          348 
 1647000    0.5861117   -7.5056977     339.6992  0.017187776  0.016253095          401 
 1648000    0.6033369   -7.5065891    339.55856  0.017170234  0.016240454          378 
 1649000   0.59022662   -7.4965801    340.12256  0.017188324  0.016227804          318 
 1650000   0.59587008   -7.5012241    340.51629  0.017197792   0.01621518          369 
 1651000   0.59528456   -7.4856106     339.9059  0.017156567  0.016202568          309 
 1652000   0.59218327   -7.4986887    340.12736  0.017157353  0.016189988          322 
 1653000   0.59202245   -7.4975146    339.68028  0.017124435  0.016177399          389 
 1654000   0.57461934   -7.5096913    340.12012  0.017136242  0.016164822          323 
 1655000   0.60083414   -7.5025849    340.20162  0.017129991  0.016152256          353 
 1656000   0.59503781   -7.5028272    339.78452  0.017098658  0.016139698          395 
 1657000   0.58355313   -7.5168033    339.40993    0.0170695  0.016127143          356 
 1658000   0.60886308   -7.5425233    339.74122  0.017075855  0.016114586          392 
 1659000   0.58663019   -7.4769989    339.51485  0.017054192  0.016102034          331 
 1660000   0.59237902   -7.4939443     339.9087   0.01706369  0.016089496          396 
 1661000   0.59058527   -7.5132805    339.55158    0.0170355  0.016076989          376 
 1662000   0.60315469   -7.5249582    339.93161  0.017044305  0.016064495          337 
 1663000   0.58537047   -7.5297772    340.19548  0.017047278  0.016051983          310 
 1664000   0.58834326    -7.516136    339.49033  0.017001719  0.016039486          450 
 1665000   0.59528357   -7.5056822    339.88226  0.017011124   0.01602697          357 
 1666000   0.58987443   -7.5252039    339.93477   0.01700354  0.016014476          396 
 1667000   0.59054848   -7.5102229    339.59982  0.016976596   0.01600201          333 
 1668000   0.57960143   -7.5330806     339.8212  0.016977478  0.015989547          373 
 1669000   0.59248698   -7.5136815    339.03771  0.016928186  0.015977067          404 
 1670000    0.5726054   -7.5186836    339.63061  0.016947635  0.015964629          326 
 1671000   0.58717213   -7.5060033    340.02356   0.01695709  0.015952182          409 
 1672000   0.60046226   -7.5173875    339.64585  0.016928122  0.015939748          441 
 1673000   0.58343401   -7.5085661    340.06981  0.016939122  0.015927313          409 
 1674000   0.59007611   -7.5185177    339.34629  0.016892986  0.015914913          414 
 1675000   0.57508449   -7.5166626    339.42358  0.016886745  0.015902515          505 
 1676000    0.5900477   -7.5127132    339.54103  0.016882509  0.015890118          459 
 1677000   0.59423778   -7.5114581    339.83192  0.016886897  0.015877721          452 
 1678000    0.5753612   -7.5113163    338.89111  0.016830111  0.015865347          476 
 1679000    0.5750981   -7.5227834     340.0311  0.016876668  0.015852983          512 
 1680000   0.58258494   -7.5487601    339.98062  0.016864118  0.015840615          468 
 1681000   0.59129552   -7.5233536     339.5474  0.016832609  0.015828226          370 
 1682000   0.58576137   -7.5182974    339.11605  0.016801231  0.015815873          461 
 1683000   0.58678635   -7.5138695    339.83311  0.016826754  0.015803537          346 
 1684000    0.5851109   -7.5314104    339.57283  0.016803881  0.015791209          346 
 1685000   0.60362987   -7.5393797    339.85977  0.016808099   0.01577889          352 
 1686000   0.58946997   -7.5242534    339.65156  0.016787839  0.015766587          393 
 1687000   0.58250789   -7.5200911    339.73194  0.016781858  0.015754301          364 
 1688000   0.60493436   -7.5174384    340.05884  0.016788055  0.015742027          391 
 1689000   0.56810753   -7.5255598    340.08709  0.016779509  0.015729782          422 
 1690000   0.58635882   -7.5243754    339.19367  0.016725526  0.015717561          357 
 1691000   0.58518332   -7.5087256    339.32562  0.016722138  0.015705331          359 
 1692000   0.58703271   -7.5221623    340.02753  0.016746825  0.015693108          351 
 1693000   0.57438909    -7.530484    339.82306  0.016726869  0.015680878          427 
 1694000   0.57912197   -7.5313629    339.20791  0.016686733  0.015668657          367 
 1695000   0.57307176   -7.5230481    339.63988  0.016698126  0.015656455          375 
 1696000   0.56475685   -7.5194147    339.99499  0.016705728  0.015644264          437 
 1697000   0.57704507   -7.5301575    339.56908   0.01667497  0.015632099          377 
 1698000   0.57050344   -7.5354533    339.49839   0.01666168  0.015619919          367 
 1699000   0.57544035   -7.5274647    339.46951  0.016650457  0.015607744          351 
 1700000    0.5732553   -7.5367606    340.21363  0.016677139  0.015595589          353 
 1701000   0.56676476    -7.520291    339.89769  0.016651856   0.01558345          333 
 1702000    0.5785856   -7.5241022    339.42506  0.016618932  0.015571315          336 
 1703000   0.56995787    -7.552086    339.73784  0.016624479  0.015559192          364 
 1704000    0.5686967   -7.5386213    339.71366   0.01661354  0.015547081          324 
 1705000   0.57215477   -7.5430879     340.1991  0.016627522  0.015534974          380 
 1706000   0.57579812    -7.534078    339.97001  0.016606585  0.015522867          368 
 1707000   0.57024842   -7.5588358     339.8771  0.016592321  0.015510757          414 
 1708000   0.56974041   -7.5330641    339.59296  0.016568743  0.015498652          378 
 1709000   0.56486888   -7.5385196    339.62133  0.016560431  0.015486587          388 
 1710000   0.57302559   -7.5397786    339.20482  0.016530449  0.015474517          386 
 1711000   0.57262109   -7.5617603    339.63989  0.016541978  0.015462443          454 
 1712000   0.57614255   -7.5524889    339.70472  0.016535471  0.015450367          442 
 1713000   0.56909649   -7.5501084    338.94954   0.01648908  0.015438297          375 
 1714000   0.55658696   -7.5570673     339.8309  0.016522311  0.015426264          385 
 1715000   0.57513105   -7.5597426     339.2024  0.016482138  0.015414222          429 
 1716000   0.57174484   -7.5464917    339.77971  0.016500568  0.015402203          368 
 1717000   0.56683928   -7.5719261     339.3699  0.016471069  0.015390192          373 
 1718000   0.55670788   -7.5519215    339.72893  0.016478896    0.0153782          365 
 1719000   0.56484612   -7.5665394    339.38634  0.016452702   0.01536621          377 
 1720000   0.57964508   -7.5753925    339.66406  0.016456592  0.015354248          483 
 1721000   0.55275492   -7.5558729    339.68482  0.016448035  0.015342304          347 
 1722000   0.57629397    -7.551855    339.74144  0.016441224  0.015330372          394 
 1723000   0.57209635   -7.5512305    339.48389  0.016419225  0.015318426          411 
 1724000   0.56267504   -7.5523698    339.74607  0.016422374  0.015306518          381 
 1725000   0.56477048    -7.569752    339.70974  0.016411099  0.015294605          394 
 1726000   0.56869017   -7.5535623     339.9965  0.016415436  0.015282676          381 
 1727000    0.5428272   -7.5721563    339.49339  0.016381654  0.015270762          519 
 1728000   0.56253468   -7.5488835    339.92943  0.016393202  0.015258846          371 
 1729000   0.55674783    -7.554529    339.89648  0.016382132   0.01524695          381 
 1730000   0.55112967   -7.5483962    339.57796   0.01635732  0.015235063          478 
 1731000   0.55284315   -7.5676253    339.95499  0.016366021  0.015223204          480 
 1732000   0.56236876   -7.5534456     339.3868  0.016329234  0.015211345          471 
 1733000   0.55978012   -7.5632154    339.74771  0.016337166   0.01519947          511 
 1734000   0.55601802   -7.5810041     339.0654  0.016294954  0.015187619          520 
 1735000   0.56007057   -7.5745396    339.22658  0.016293304  0.015175765          569 
 1736000   0.56421884   -7.5765266    339.72478  0.016307833  0.015163913          423 
 1737000   0.56541585    -7.566636     339.8363  0.016303795  0.015152071          402 
 1738000   0.55981853   -7.5644689    339.31788  0.016269557  0.015140247          388 
 1739000   0.56342307   -7.5773139    339.56969  0.016272268  0.015128423          378 
 1740000   0.57022788    -7.582095    338.98738  0.016235028  0.015116599          482 
 1741000   0.54904341   -7.5660087     338.9467  0.016223755  0.015104795          334 
 1742000    0.5603638   -7.5841898    338.80854  0.016207833  0.015092997          346 
 1743000   0.55938132   -7.5934243    339.31774  0.016222879  0.015081204          426 
 1744000   0.54979664   -7.5799259    338.86623  0.016192003  0.015069405          454 
 1745000   0.56738283   -7.5761002    339.28508  0.016202726  0.015057616          352 
 1746000   0.55177905   -7.6051848    339.27272  0.016192856   0.01504584          459 
 1747000   0.56311664   -7.5838403    339.61902  0.016200106  0.015034069          368 
 1748000   0.54227938   -7.5832658     339.1839  0.016170094  0.015022302          357 
 1749000   0.54991705   -7.5717159    339.11494  0.016157563  0.015010538          399 
 1750000   0.55425554   -7.5744244    338.28898  0.016108999  0.014998795          449 
 1751000    0.5636766   -7.5860438    339.04009  0.016135546  0.014987046          465 
 1752000   0.54432563   -7.5830088    339.37848  0.016142431  0.014975297          415 
 1753000   0.56023903   -7.5781437    339.23702  0.016126498  0.014963573          352 
 1754000   0.54876754   -7.5805013    338.99385  0.016105751  0.014951863          344 
 1755000   0.55201119   -7.6002596    338.78375  0.016086598  0.014940157          487 
 1756000   0.55633765    -7.588693    338.60235  0.016068828   0.01492846          549 
 1757000   0.55318854   -7.5853155     338.4232  0.016051186  0.014916771          479 
 1758000   0.56655436   -7.5700778    338.98914  0.016068882  0.014905084          466 
 1759000    0.5476784   -7.5818843    338.49751  0.016036456  0.014893397          415 
 1760000   0.55242436   -7.5882466    338.70732  0.016037278  0.014881721          495 
 1761000    0.5557777   -7.6014478    338.54087  0.016020295  0.014870053          506 
 1762000   0.54553774   -7.5900592    338.41279  0.016005145  0.014858399          498 
 1763000   0.55309303   -7.6035326    338.90992  0.016019565  0.014846748          501 
 1764000   0.54417705   -7.5961391    338.61675  0.015996634  0.014835123          515 
 1765000   0.54680832   -7.6034934    338.55904  0.015984846  0.014823498          514 
 1766000   0.55229221   -7.6058862    338.74803  0.015984713   0.01481188          458 
 1767000   0.54449546   -7.6133316    338.62477  0.015969853  0.014800271          486 
 1768000   0.53049975   -7.6188418    338.63071    0.0159611   0.01478866          501 
 1769000   0.53698993   -7.6025681    338.29922  0.015936462  0.014777057          509 
 1770000   0.54600227   -7.6041885    339.07647  0.015964052  0.014765441          489 
 1771000    0.5451984   -7.6243897     338.2787  0.015917499  0.014753842          500 
 1772000   0.55282589   -7.6018247    338.00138  0.015895475  0.014742261          531 
 1773000   0.55661631   -7.5721346    339.33282  0.015949089  0.014730698          563 
 1774000   0.55516572   -7.6038307    338.11016  0.015882664  0.014719146          479 
 1775000    0.5342707    -7.589072    338.65455  0.015899274  0.014707613          489 
 1776000   0.54157441   -7.5996795    338.34724  0.015875903  0.014696084          464 
 1777000   0.53778808   -7.5896551    338.54319  0.015876158   0.01468456          439 
 1778000   0.54586518   -7.6069645     338.8208   0.01588024   0.01467303          490 
 1779000   0.53356493   -7.6309835    338.62924   0.01586234   0.01466152          477 
 1780000   0.55069704   -7.6067586    338.62924  0.015853429  0.014650015          465 
 1781000   0.53384978   -7.5988858    338.52911  0.015839842  0.014638512          485 
 1782000   0.54298327   -7.6218298    338.56035  0.015832414  0.014627005          448 
 1783000   0.52762183   -7.6263952    338.73835  0.015831854  0.014615521          503 
 1784000   0.53892037   -7.6220999    338.10774  0.015793523  0.014604044          478 
 1785000   0.53710312   -7.6022095    338.27916  0.015792678  0.014592558          511 
 1786000   0.54543442   -7.6358122    337.91762  0.015766966  0.014581082          514 
 1787000   0.54124879   -7.6168255    338.17736  0.015770255   0.01456961          529 
 1788000   0.54635027   -7.6312849    338.05145  0.015755567  0.014558166          504 
 1789000   0.53505653   -7.6249248    338.59788  0.015772214  0.014546729          509 
 1790000   0.54739217   -7.6343297    338.48899  0.015758333  0.014535315          473 
 1791000   0.52500658   -7.6102998    338.53601  0.015751722  0.014523899          471 
 1792000   0.54268935   -7.6192041    338.69191  0.015750182  0.014512475          451 
 1793000   0.53104853   -7.6280114    338.53672  0.015734185  0.014501071          476 
 1794000   0.53373504   -7.6249373    337.86343  0.015694139  0.014489666          488 
 1795000   0.53463656    -7.625928    337.95292   0.01568955  0.014478284          476 
 1796000   0.54356348   -7.6242331    338.07845  0.015686639   0.01446691          490 
 1797000    0.5452573   -7.6178314    338.02282   0.01567533  0.014455537          428 
 1798000   0.55144311   -7.6259396    338.36387  0.015682419  0.014444177          471 
 1799000   0.53000456   -7.6203848    337.87784  0.015651188  0.014432826          465 
 1800000   0.54412903    -7.622668    337.83738   0.01564062  0.014421482          486 
 1801000   0.53179632   -7.6302194    338.26992  0.015651949  0.014410157          478 
 1802000   0.53179009   -7.6115652    338.18894  0.015639518  0.014398854          459 
 1803000    0.5397203   -7.6317205    338.40786  0.015640962  0.014387553          426 
 1804000   0.53654767   -7.6254255    338.16181  0.015620926  0.014376257          483 
 1805000   0.53931191   -7.6204313    338.28417  0.015617921  0.014364973          443 
 1806000   0.52409955   -7.6222204    338.33747  0.015611733  0.014353699          461 
 1807000   0.54445949   -7.6390281    338.41324  0.015606588  0.014342438          501 
 1808000   0.52736568   -7.6234415    338.37163  0.015596038  0.014331176          478 
 1809000   0.51231757    -7.645267    338.28752  0.015583542   0.01431992          491 
 1810000   0.52834749   -7.6207345    337.86202  0.015555341  0.014308663          527 
 1811000   0.53343123   -7.6398115    337.56892  0.015533265  0.014297434          490 
 1812000    0.5440669   -7.6313194    337.91692  0.015540697  0.014286199          490 
 1813000   0.53720817   -7.6387492    337.99628  0.015535773   0.01427499          479 
 1814000   0.52722953   -7.6472525    337.89743  0.015522668  0.014263783          494 
 1815000   0.52562118   -7.6437868    338.17933  0.015527058  0.014252579          514 
 1816000   0.53245098   -7.6111385    338.10365  0.015515035  0.014241399          519 
 1817000   0.51805512   -7.6456119    338.05046  0.015504057  0.014230222          525 
 1818000   0.52445689   -7.6467377    338.52415  0.015517242  0.014219044          467 
 1819000   0.52486692   -7.6332546    337.95052  0.015482432   0.01420789          462 
 1820000   0.53814909   -7.6391803    338.77743  0.015511787   0.01419674          498 
 1821000   0.52978313     -7.63006    337.89378  0.015462831  0.014185603          514 
 1822000   0.52599507   -7.6426397    337.91294   0.01545522  0.014174475          467 
 1823000   0.51511781   -7.6290567     338.5412  0.015475462  0.014163365          485 
 1824000   0.52257758   -7.6437219    337.55216  0.015421791   0.01415226          487 
 1825000   0.53403688   -7.6364887    338.31374  0.015448116  0.014141162          462 
 1826000   0.51781732   -7.6359286    337.98625   0.01542471  0.014130082          460 
 1827000   0.52302831    -7.630513    338.20499  0.015426245  0.014118998          491 
 1828000   0.51781848   -7.6379602    338.01164  0.015408992  0.014107925          437 
 1829000   0.51958125    -7.630707    337.97465  0.015398881  0.014096887          454 
 1830000    0.5294303   -7.6479122    337.62271   0.01537444   0.01408584          458 
 1831000   0.51481557   -7.6312194     337.5026  0.015360577  0.014074794          486 
 1832000    0.5239438   -7.6307992    337.39716  0.015347396  0.014063761          466 
 1833000   0.51526799   -7.6375184    337.49994  0.015343696  0.014052735          467 
 1834000   0.51091963   -7.6424976    337.71452   0.01534508  0.014041718          444 
 1835000   0.53545341   -7.6450961    337.56546  0.015329948  0.014030721          450 
 1836000   0.50973941   -7.6390076    337.73103  0.015329113   0.01401973          471 
 1837000   0.52175585   -7.6503369    337.69484  0.015319127  0.014008753          471 
 1838000    0.5245662   -7.6418284    338.20371  0.015333864  0.013997775          456 
 1839000   0.52966761   -7.6425495    337.53165  0.015295072  0.013986823          451 
 1840000    0.5161353   -7.6442754    337.95819  0.015306078  0.013975877          517 
 1841000    0.5217339    -7.644951    338.10907  0.015304593  0.013964942          455 
 1842000   0.53544155   -7.6366549    337.74506  0.015279816  0.013954013          474 
 1843000   0.51721803   -7.6478681    337.91218  0.015279082  0.013943093          375 
 1844000   0.52557621   -7.6429792    337.39079  0.015247234  0.013932179          503 
 1845000   0.52083532   -7.6399603    337.98985  0.015266027  0.013921266          513 
 1846000   0.51974167   -7.6605796    338.13206  0.015264177  0.013910361          454 
 1847000   0.51139161   -7.6424475    337.46165  0.015225665  0.013899461          365 
 1848000   0.52513707   -7.6672298    337.83362    0.0152342  0.013888587          507 
 1849000   0.53218071   -7.6664882    337.56911   0.01521404  0.013877702          491 
 1850000   0.51592407   -7.6583558    337.47227  0.015201454  0.013866825          519 
 1851000   0.51998261   -7.6591305    337.56322  0.015197336  0.013855963          473 
 1852000    0.5099247   -7.6402355    337.81954  0.015200663  0.013845116          512 
 1853000   0.51511749   -7.6406092    337.44573  0.015175649  0.013834279          486 
 1854000   0.51644502    -7.646292    337.76183  0.015181672   0.01382346          489 
 1855000   0.51744677   -7.6676537    337.48997  0.015161274  0.013812646          467 
 1856000    0.5203621   -7.6602236    337.47782   0.01515256  0.013801848          496 
 1857000    0.5127628   -7.6722412    337.51144  0.015145909  0.013791054          530 
 1858000    0.5115365   -7.6461506    337.31996   0.01512917  0.013780258          501 
 1859000    0.5072663   -7.6649028    338.03783  0.015153211  0.013769464          520 
 1860000   0.50261144   -7.6603572    337.42719  0.015117706  0.013758689          478 
 1861000   0.52223593   -7.6474293    337.44232   0.01511026  0.013747931          534 
 1862000   0.50918346   -7.6730561    337.39338  0.015099954  0.013737179          558 
 1863000   0.52015357   -7.6866274    336.93568  0.015071376  0.013726431          559 
 1864000   0.51076661   -7.6768609    337.23267  0.015076568  0.013715694          521 
 1865000   0.50644005    -7.668541    337.68586  0.015088733  0.013704981          516 
 1866000   0.51457818   -7.6477848    337.63642   0.01507844  0.013694264          475 
 1867000   0.51999855   -7.6640907    337.30005  0.015055349  0.013683558          505 
 1868000    0.5152556   -7.6665101    337.87613  0.015072989  0.013672857          517 
 1869000   0.50783252   -7.6851294     337.7463  0.015059136  0.013662173          511 
 1870000   0.51495202   -7.6710721    337.69131  0.015048632  0.013651501          525 
 1871000   0.50814775   -7.6539616     338.1738  0.015062079  0.013640835          482 
 1872000   0.50830288   -7.6703152    337.57311  0.015027293  0.013630178          512 
 1873000   0.49363277   -7.6604078    337.40465  0.015011775   0.01361954          489 
 1874000   0.50901484   -7.6806615    337.75842  0.015019496  0.013608913          480 
 1875000   0.50134865   -7.6759823    337.67657  0.015007847  0.013598298          535 
 1876000    0.5081427   -7.6831723      337.842  0.015007196   0.01358768          495 
 1877000   0.49652477   -7.6605269    337.15621  0.014968754  0.013577075          483 
 1878000    0.4993072   -7.7031978    337.75729  0.014987455  0.013566476          520 
 1879000   0.50786155   -7.6706949    337.43105   0.01496501  0.013555889          515 
 1880000   0.49429668   -7.6693459    337.56084  0.014962803  0.013545307          506 
 1881000   0.49101199   -7.6637769    337.56331  0.014954958  0.013534739          504 
 1882000   0.50260462   -7.6705509    336.99062  0.014921653  0.013524187          482 
 1883000   0.50654069   -7.6719147    337.26917  0.014926056  0.013513634          528 
 1884000   0.49780854   -7.6943291    337.38474  0.014923246  0.013503102          481 
 1885000   0.49794694   -7.6867018    337.67429   0.01492813  0.013492574          515 
 1886000   0.49621376   -7.6763261    337.22307  0.014900277  0.013482054          507 
 1887000   0.49940359   -7.6800556      337.517  0.014905361  0.013471539          501 
 1888000   0.49412646   -7.6689485    337.31239  0.014888435  0.013461028          539 
 1889000   0.50148032   -7.6715459    337.51295  0.014889401  0.013450531          486 
 1890000   0.49091882   -7.6761212    337.19333  0.014867431  0.013440036          500 
 1891000   0.49542264   -7.6928273    337.85526  0.014888739  0.013429573          485 
 1892000   0.48881019   -7.6865378    337.81774  0.014879217  0.013419102          502 
 1893000   0.50147099   -7.6780127    337.08839  0.014839249  0.013408652          505 
 1894000   0.49261715   -7.6759434    336.60871   0.01481031  0.013398201          503 
 1895000    0.4868095   -7.6775536    337.12877  0.014825364  0.013387766          479 
 1896000   0.51905185   -7.6833976    337.16368  0.014819079  0.013377335          398 
 1897000   0.48716471   -7.6913252    337.71894  0.014835659  0.013366922          373 
 1898000   0.48406756   -7.6811341    337.49523   0.01481802  0.013356514          473 
 1899000   0.48600831   -7.6891677    337.52168  0.014811378  0.013346107          382 
 1900000   0.49416983    -7.680571    337.24888  0.014791618  0.013335724          522 
 1901000   0.48787673   -7.6787279    336.48931   0.01475054  0.013325349          505 
 1902000   0.49995606   -7.7013332    337.26911   0.01477695  0.013314972          511 
 1903000   0.48830866   -7.6972991    337.70312  0.014788191  0.013304609          559 
 1904000     0.491551   -7.6920753    337.40859  0.014767533  0.013294267          359 
 1905000   0.50069194   -7.6956962    337.97876  0.014784722  0.013283927          501 
 1906000   0.48633237   -7.6974192     337.0865  0.014737955  0.013273598          494 
 1907000   0.49746778   -7.7099198    337.87375  0.014764628  0.013263282          503 
 1908000   0.49280425   -7.6820269    337.45061  0.014738409   0.01325296          559 
 1909000   0.48965532   -7.6908182    337.34221  0.014725957  0.013242649          521 
 1910000   0.49174944   -7.6969338    337.12717  0.014708864  0.013232353          492 
 1911000   0.48714281   -7.6986818    337.00442  0.014695815  0.013222067          516 
 1912000    0.4905349   -7.7031702    337.07081  0.014691022  0.013211789          516 
 1913000   0.49218262   -7.7022394    337.09528  0.014684408  0.013201528          486 
 1914000   0.48813838   -7.6977604    336.98551  0.014671957  0.013191267          508 
 1915000   0.49943929   -7.6853462    337.31649  0.014678698  0.013181019          480 
 1916000   0.48101977   -7.7089467    337.23338  0.014667423  0.013170791          544 
 1917000    0.4804321   -7.6920456    336.99173  0.014649267  0.013160564          468 
 1918000   0.49098424   -7.6978466    336.88948  0.014637186   0.01315035          507 
 1919000    0.4912003   -7.6796165    336.75896  0.014623891  0.013140143          508 
 1920000    0.4868776    -7.682475    337.59182  0.014652423  0.013129953          502 
 1921000   0.49318934   -7.6922649    336.96119  0.014617438  0.013119757          533 
 1922000   0.49019199   -7.6934241    336.82654  0.014603995  0.013109569          555 
 1923000   0.48499223   -7.6939596    337.29931  0.014616888  0.013099405          396 
 1924000   0.48897834   -7.6935793    336.77765  0.014586697  0.013089231          508 
 1925000   0.47971502   -7.6962297    337.63592  0.014616274  0.013079078          509 
 1926000   0.48364714   -7.6916118    336.85385  0.014574846  0.013068934          391 
 1927000   0.48796317   -7.7214265     337.1747  0.014581158  0.013058795          503 
 1928000   0.47538122   -7.6936237    337.18814  0.014574176  0.013048677          521 
 1929000   0.48456925   -7.7005426    336.77094  0.014548598  0.013038558          547 
 1930000   0.48950187   -7.7030952    336.99328   0.01455066  0.013028446          548 
 1931000   0.47989743   -7.6970482    336.78792  0.014534262  0.013018345          525 
 1932000   0.48415859   -7.7009686    336.82665   0.01452841  0.013008252          540 
 1933000    0.4865008   -7.7006412    336.99864  0.014528308  0.012998166          538 
 1934000    0.4819628   -7.7127666    337.09527   0.01452496  0.012988086          534 
 1935000   0.47153344   -7.7094233    337.08052  0.014516818  0.012978019          533 
 1936000   0.48226092   -7.7052509    336.84173  0.014499041  0.012967959          527 
 1937000    0.4800189   -7.7109055    336.51005  0.014477286  0.012957912          479 
 1938000   0.48242363   -7.6986727    336.50741  0.014469703  0.012947863          476 
 1939000   0.48181026   -7.7073012    337.12324  0.014488707  0.012937834          490 
 1940000   0.48106094   -7.7047002    337.23129   0.01448588  0.012927824          536 
 1941000    0.4724971   -7.7215258    337.46376  0.014488398  0.012917809          607 
 1942000   0.46978742   -7.6995055    337.17779  0.014468666  0.012907812          547 
 1943000   0.48913421   -7.7093092    337.35261  0.014468717  0.012897818          510 
 1944000   0.46720957   -7.7038573    336.95157  0.014444083  0.012887831          517 
 1945000   0.47201526   -7.7060175    336.56877  0.014420256  0.012877851          504 
 1946000   0.48325193   -7.7130688    336.77186  0.014421543  0.012867887          542 
 1947000   0.47743585   -7.7091995    336.54084  0.014404247  0.012857921          492 
 1948000   0.48017126   -7.7076533    336.28953  0.014386102  0.012847971          518 
 1949000   0.46878841   -7.7136173    336.75393  0.014398577  0.012838022          551 
 1950000   0.47163475   -7.7194218    336.80677  0.014393452  0.012828089          490 
 1951000   0.47063663   -7.7239514     336.6236  0.014378251  0.012818157          561 
 1952000   0.47445173   -7.7142521    336.71329  0.014374714  0.012808249          579 
 1953000   0.47065436   -7.7150458    337.02307  0.014380572  0.012798347          523 
 1954000   0.47338024   -7.7028051    336.92607  0.014369075  0.012788443          540 
 1955000   0.47346371   -7.7093019    337.12934   0.01437039   0.01277856          540 
 1956000   0.47801229   -7.7129443    336.66903  0.014343432  0.012768688          568 
 1957000   0.46194078   -7.7148929    336.51218  0.014329424  0.012758817          574 
 1958000   0.47249668   -7.7104767    336.49111  0.014321208  0.012748956          583 
 1959000   0.48123537   -7.7255699    337.04354  0.014337398  0.012739098          577 
 1960000   0.46951085   -7.7115274    337.12714  0.014333637  0.012729256          498 
 1961000   0.47430741   -7.7264285    336.71966  0.014309012   0.01271942          565 
 1962000   0.47536942    -7.718462    336.80513  0.014305349  0.012709601          523 
 1963000   0.45931204   -7.7367916    336.93175  0.014303436  0.012699782          544 
 1964000   0.47014631   -7.7054936    336.64514  0.014283993  0.012689984          544 
 1965000   0.46858589   -7.7122727     336.5068  0.014270857  0.012680184          560 
 1966000   0.46989929   -7.7130488    336.67568  0.014270756  0.012670404          569 
 1967000   0.46707725    -7.722232    336.19975  0.014243338  0.012660621          528 
 1968000   0.46557773   -7.7260955    336.50737  0.014249126  0.012650842          595 
 1969000   0.46913018   -7.7248628    336.39997  0.014237344  0.012641072          578 
 1970000   0.47493116   -7.7165574    336.53433  0.014235801  0.012631303          574 
 1971000    0.4557001   -7.7366485    336.67222  0.014234408  0.012621556          601 
 1972000   0.46559772   -7.7329978    336.84066  0.014234308  0.012611816          619 
 1973000   0.46313921   -7.7320716    336.33187  0.014205603  0.012602088          523 
 1974000   0.46175406   -7.7251886     336.6926  0.014213636  0.012592376          552 
 1975000   0.46555489   -7.7473899    336.32851  0.014191076  0.012582652          584 
 1976000   0.45995649   -7.7299065    335.97226  0.014168871  0.012572942          603 
 1977000   0.46117049   -7.7329838     336.9755  0.014203992  0.012563241          566 
 1978000   0.46644391   -7.7198505    336.76275  0.014187848  0.012553552          562 
 1979000   0.45161062   -7.7525912    336.71385  0.014178619  0.012543871          601 
 1980000   0.46269201   -7.7206853    336.32594  0.014155132  0.012534207          664 
 1981000   0.45211304   -7.7306126    336.96263   0.01417477  0.012524547          605 
 1982000    0.4583453   -7.7306243    336.90158  0.014165051  0.012514896          585 
 1983000   0.46105543   -7.7187046     336.2653  0.014131169  0.012505255          579 
 1984000   0.46806863    -7.743974    336.59336  0.014137826  0.012495626          642 
 1985000   0.47106473   -7.7418164    336.78193   0.01413862  0.012485997          525 
 1986000   0.45461768   -7.7179084    336.74409  0.014129913  0.012476382          596 
 1987000   0.46331116   -7.7303459    336.30291  0.014104299  0.012466771          542 
 1988000    0.4694021   -7.7335289    336.61596  0.014110327  0.012457164          547 
 1989000   0.45316971    -7.735151    336.70487  0.014106958  0.012447563          555 
 1990000   0.45655485   -7.7338236    336.59865  0.014095421  0.012437973          544 
 1991000   0.45498417   -7.7116431    336.02577  0.014064364  0.012428387          550 
 1992000   0.47370055    -7.729393    336.10313  0.014060539  0.012418803          582 
 1993000   0.44604561   -7.7307148    336.56222   0.01407268  0.012409232          554 
 1994000   0.46404199    -7.731363    336.20944  0.014050879  0.012399668          522 
 1995000   0.45104293   -7.7445516     336.0381  0.014036679   0.01239011          552 
 1996000    0.4595383   -7.7126125    336.30298  0.014040706  0.012380573          551 
 1997000   0.46412658   -7.7396899    336.27184  0.014032375  0.012371045          579 
 1998000   0.45086239   -7.7390025    336.00344  0.014014158  0.012361519          566 
 1999000   0.45605232   -7.7307086    336.71846  0.014036954  0.012351996          416 
 2000000   0.45861453   -7.7397981    336.15608  0.014006503  0.012342486          567 
 2001000   0.44995494   -7.7436269    336.25659   0.01400369  0.012332988          589 
 2002000   0.45748658   -7.7570838     336.0855  0.013989573  0.012323496          550 
 2003000   0.45239281   -7.7447352    335.81943  0.013971519  0.012314016          528 
 2004000   0.45658803   -7.7315256      336.383  0.013987982  0.012304538          550 
 2005000   0.45634462   -7.7238403    335.88137  0.013960157  0.012295074          550 
 2006000   0.45197172   -7.7417393     336.0188  0.013958907  0.012285615          608 
 2007000    0.4599207   -7.7482965    336.02707  0.013952295  0.012276166          591 
 2008000   0.45302168   -7.7370821    336.26865  0.013955372  0.012266734          556 
 2009000    0.4579332   -7.7318984    335.83497  0.013930437  0.012257311          581 
 2010000   0.44867251   -7.7435164    336.20752  0.013938952  0.012247899          557 
 2011000    0.4414707   -7.7381542    336.02496  0.013924455  0.012238502          535 
 2012000   0.44704391   -7.7412119    336.32113  0.013929801  0.012229102          558 
Loop time of 4340.55 on 48 procs for 2000000 steps with 4000 atoms

Performance: 79621.168 tau/day, 460.771 timesteps/s
99.4% CPU use with 48 MPI tasks x no OpenMP threads

MPI task timing breakdown:
Section |  min time  |  avg time  |  max time  |%varavg| %total
---------------------------------------------------------------
Pair    | 283.79     | 301.54     | 313.73     |  44.4 |  6.95
Neigh   | 26.937     | 27.72      | 29.739     |   8.5 |  0.64
Comm    | 247.1      | 260.65     | 279.2      |  52.8 |  6.00
Output  | 4.2011     | 4.2028     | 4.2339     |   0.2 |  0.10
Modify  | 3671       | 3695.4     | 3710.7     |  14.4 | 85.14
Other   |            | 51         |            |       |  1.18

Nlocal:        83.3333 ave          91 max          76 min
Histogram: 3 3 2 5 13 5 9 3 3 2
Nghost:        1806.54 ave        1829 max        1781 min
Histogram: 1 2 3 10 5 5 11 7 2 2
Neighs:        11085.8 ave       12609 max        9969 min
Histogram: 4 4 8 8 7 8 3 1 1 4
FullNghs:      22170.0 ave       24709 max       20272 min
Histogram: 7 2 4 8 10 6 5 3 1 2

Total # of neighbors = 1064162
Ave neighs/atom = 266.04050
Neighbor list builds = 107745
Dangerous builds = 0

#clear
#
#next RN
#
#jump SELF
Total wall time: 1:12:23
