
units lj                  # Use reduced LJ style units
atom_style atomic         # Uncharged point particles
atom_modify map hash      # Needed for indexing of clusters etc
                          # Used to be able to find where atoms are in relation to each other.

lattice fcc 1.0 spacing 1 1 1
Lattice spacing in x,y,z = 1.5874011 1.5874011 1.5874011
region box block 0 10 0 10 0 10 units lattice
create_box 2 box
Created orthogonal box = (0.0000000 0.0000000 0.0000000) to (15.874011 15.874011 15.874011)
  3 by 4 by 4 MPI processor grid
create_atoms 1 box
Created 4000 atoms
  using lattice units in orthogonal box = (0.0000000 0.0000000 0.0000000) to (15.874011 15.874011 15.874011)
  create_atoms CPU = 0.002 seconds
set type 1 type/fraction 2 0.58 78393
Setting atom values ...
  2338 settings made for type/fraction
mass 1 1.0
mass 2 1.0
pair_style lj/cut  3.5
pair_modify tail  yes
pair_coeff 1  1  1.0  1.0   # Intearaction between 1 and 1 set with epsilon = 1 and sigma = 1
pair_coeff 1  2  1.5  0.8
pair_coeff 2  2  0.5  0.88

write_data data.0
System init for write_data ...
Neighbor list info ...
  update every 1 steps, delay 10 steps, check yes
  max neighbors/atom: 2000, page size: 100000
  master list distance cutoff = 3.8
  ghost atom cutoff = 3.8
  binsize = 1.9, bins = 9 9 9
  1 neighbor lists, perpetual/occasional/extra = 1 0 0
  (1) pair lj/cut, perpetual
      attributes: half, newton on
      pair build: half/bin/atomonly/newton
      stencil: half/bin/3d
      bin: standard
WARNING: Not all mixed pair coeffs generated from mixing. Use write_data with 'pair ij' option to store all pair coeffs. (../write_data.cpp:312)


#############################
#   M E L T   S Y S T E M   #
#############################

velocity all create 2.4 3143649 mom yes dist gaussian # Assign velocities
                                                    # Temperature 2.4, random number seed, zero linear momentum
                                                                                # Gaussian distribution

timestep 0.002   # simulation timestep
thermo 1000       # output thermodynamic data every 1000 steps bf 100

# Define a fix  in this case with index 1 applied to all
# particles in the simulation. This fix is for simulations
# in the anisotropic NPT ensemble. Note that we use the MTK
# correction.
fix 1 all npt temp 2.4 2.4 0.1 iso 5.68 5.68 0.5 mtk yes tchain 5 pchain 5 # Use NPT ensemble
                                                                         # Set temperature and pressure and damping
                                                                         # Numbers of thermostats in chain and in barostat
run 10000          # run for 10000 steps
Per MPI rank memory allocation (min/avg/max) = 3.642 | 3.644 | 3.648 Mbytes
Step Temp E_pair E_mol TotEng Press Volume 
       0          2.4   -4.8268882            0   -1.2277882   -4.1002737         4000 
    1000    2.4293102   -4.4710053            0  -0.82795105    5.8477595    3652.9453 
    2000    2.4342023   -4.6091124            0  -0.95872173    5.3159015    3634.2576 
    3000    2.3911025   -4.5646626            0  -0.97890547      5.34291    3654.2409 
    4000    2.3564695   -4.5246614            0  -0.99084072    5.4512788     3648.994 
    5000    2.4361861   -4.5684872            0   -0.9151216    5.4394674    3642.5552 
    6000    2.4041216   -4.5143163            0  -0.90903538    5.9766079    3620.3025 
    7000    2.4298406     -4.61235            0  -0.96850027    5.4137176    3607.6425 
    8000     2.386096   -4.5357266            0  -0.95747733     5.727812    3620.4878 
    9000    2.4036732   -4.5478374            0  -0.94322899     5.413825    3650.9506 
   10000    2.4040205   -4.5721935            0  -0.96706434     5.689709    3609.7907 
Loop time of 2.73585 on 48 procs for 10000 steps with 4000 atoms

Performance: 631613.393 tau/day, 3655.170 timesteps/s
99.5% CPU use with 48 MPI tasks x no OpenMP threads

MPI task timing breakdown:
Section |  min time  |  avg time  |  max time  |%varavg| %total
---------------------------------------------------------------
Pair    | 1.1998     | 1.2811     | 1.3785     |   2.8 | 46.83
Neigh   | 0.21883    | 0.22579    | 0.23468    |   0.8 |  8.25
Comm    | 0.85936    | 0.92434    | 1.0006     |   3.9 | 33.79
Output  | 0.00025476 | 0.00026121 | 0.00034212 |   0.0 |  0.01
Modify  | 0.2449     | 0.28832    | 0.32534    |   3.9 | 10.54
Other   |            | 0.01599    |            |       |  0.58

Nlocal:        83.3333 ave          92 max          72 min
Histogram: 1 0 1 2 10 11 12 6 3 2
Nghost:        1757.69 ave        1786 max        1733 min
Histogram: 2 3 4 9 9 10 3 6 1 1
Neighs:        10573.9 ave       11779 max        8902 min
Histogram: 1 1 2 3 6 12 13 4 4 2

Total # of neighbors = 507546
Ave neighs/atom = 126.88650
Neighbor list builds = 904
Dangerous builds = 199

# Equilibrate just above the melting temperature to avoid step fn in T

fix 1 all npt temp 1.25 1.25 0.1 iso 5.68 5.68 0.5 mtk yes tchain 5 pchain 5
run 2000
Per MPI rank memory allocation (min/avg/max) = 3.644 | 3.646 | 3.650 Mbytes
Step Temp E_pair E_mol TotEng Press Volume 
   10000    2.4040205   -4.5721935            0  -0.96706434     5.689709    3609.7907 
   11000    1.2615443   -6.6369251            0   -4.7450817    5.7136965    2787.8486 
   12000    1.2409603    -6.726821            0   -4.8658459    5.9455394    2755.8009 
Loop time of 0.660471 on 48 procs for 2000 steps with 4000 atoms

Performance: 523262.558 tau/day, 3028.140 timesteps/s
99.6% CPU use with 48 MPI tasks x no OpenMP threads

MPI task timing breakdown:
Section |  min time  |  avg time  |  max time  |%varavg| %total
---------------------------------------------------------------
Pair    | 0.30358    | 0.32779    | 0.35046    |   2.0 | 49.63
Neigh   | 0.042459   | 0.044836   | 0.046868   |   0.5 |  6.79
Comm    | 0.21195    | 0.23628    | 0.26239    |   2.8 | 35.77
Output  | 5.281e-05  | 5.5202e-05 | 7.2277e-05 |   0.0 |  0.01
Modify  | 0.040154   | 0.046562   | 0.05193    |   1.8 |  7.05
Other   |            | 0.004945   |            |       |  0.75

Nlocal:        83.3333 ave          89 max          78 min
Histogram: 7 3 5 4 4 7 5 5 4 4
Nghost:        2118.48 ave        2142 max        2102 min
Histogram: 5 4 7 9 6 5 3 5 3 1
Neighs:        13854.3 ave       15704 max       12258 min
Histogram: 2 6 4 9 4 8 7 5 2 1

Total # of neighbors = 665008
Ave neighs/atom = 166.25200
Neighbor list builds = 144
Dangerous builds = 20

#############################
# L I N E A R  Q U E N C H  #
#############################

# Define solid atoms. This closely follows ten Wolde  Ruiz-Montero and Frenkel  Faraday Discuss  1996  104  93-110
# Compute components of the per-atom q6 vector
compute q6 all orientorder/atom degrees 1 6 components 6 nnn NULL cutoff 1.3 # compute the Q6 parameter.
                                                                             # Use all neighbours within 1.3 unit cell.

# get number of connections
compute coord_number all coord/atom orientorder q6 0.5

# An atom is solid if it has 8 or more connections (of a possible 14)
variable is_solid atom c_coord_number>=8
group solid dynamic all var is_solid    # Must be dynamic to update
dynamic group solid defined

# do clustering
compute cluster solid cluster/atom 1.3 # Create a cluster where all atoms within are solid and max 1.3 units from another member

# define chunks one chunk per cluster
compute clus_chunks solid chunk/atom c_cluster nchunk every compress yes  # Says which atoms are in which chunk

# count the size of each chunk
compute size_chunks solid property/chunk clus_chunks count


# Find the maximum entry in the vector of chunk sizes
variable max_n equal max(c_size_chunks)


# Thermo style which includes this variable
# thermo_style custom step temp pe vol v_max_n

thermo ${N}  # Print the thermo information every 100 steps
thermo 1000  

# Reset the npt fix at a lower temperature (below freezing)
fix 1  all npt temp  ${temp} ${temp}  0.1  iso  5.68  5.68  0.5  mtk yes tchain  5  pchain  5
fix 1  all npt temp  0.45 ${temp}  0.1  iso  5.68  5.68  0.5  mtk yes tchain  5  pchain  5
fix 1  all npt temp  0.45 0.45  0.1  iso  5.68  5.68  0.5  mtk yes tchain  5  pchain  5

dump dmp2 all dcd ${N} traj.dcd
dump dmp2 all dcd 1000 traj.dcd


compute msd all msd com yes
variable twopoint equal c_msd[4]/6/(step*dt+1.0e-6)
fix 9 all vector 10 c_msd[4]
variable fit equal slope(f_9)/6/(10*dt)
thermo_style custom step temp pe c_msd[4] v_twopoint v_fit v_max_n

fix 1 all npt temp 1.25 ${temp} 0.1 iso 5.68 5.68 0.5 mtk yes tchain 5 pchain 5
fix 1 all npt temp 1.25 0.45 0.1 iso 5.68 5.68 0.5 mtk yes tchain 5 pchain 5
run 5000000 # 5000000  # Run for this many steps
Neighbor list info ...
  update every 1 steps, delay 10 steps, check yes
  max neighbors/atom: 2000, page size: 100000
  master list distance cutoff = 3.8
  ghost atom cutoff = 3.8
  binsize = 1.9, bins = 8 8 8
  4 neighbor lists, perpetual/occasional/extra = 1 3 0
  (1) pair lj/cut, perpetual
      attributes: half, newton on
      pair build: half/bin/atomonly/newton
      stencil: half/bin/3d
      bin: standard
  (2) compute orientorder/atom, occasional
      attributes: full, newton on
      pair build: full/bin/atomonly
      stencil: full/bin/3d
      bin: standard
  (3) compute coord/atom, occasional
      attributes: full, newton on
      pair build: full/bin/atomonly
      stencil: full/bin/3d
      bin: standard
  (4) compute cluster/atom, occasional
      attributes: full, newton on
      pair build: full/bin/atomonly
      stencil: full/bin/3d
      bin: standard
Per MPI rank memory allocation (min/avg/max) = 9.848 | 9.852 | 9.856 Mbytes
Step Temp PotEng c_msd[4] v_twopoint v_fit v_max_n 
   12000    1.2409603    -6.726821 1.5260514e-30 1.0597579e-32 8.3333333e+20            2 
   13000    1.2599132   -6.7601813   0.50506212 0.0032375776  0.042031231            3 
   14000    1.2723665   -6.7582593    0.9466203 0.0056346445  0.038268623            3 
   15000    1.2486522   -6.7171724    1.4501848 0.0080565819   0.03912737            2 
   16000    1.2123636   -6.7902389    1.8563834 0.0096686634  0.038651015            2 
   17000    1.2318897   -6.7653853    2.2433276  0.010996704  0.037582598            1 
   18000    1.2590183   -6.8012639    2.6953358  0.012478406  0.036775382            1 
   19000    1.2451206   -6.7901761    3.1382839  0.013764403  0.036682101            3 
   20000    1.2259578   -6.7459948    3.6572401    0.0152385  0.036797991            1 
   21000    1.2237459   -6.7543879    4.0775596  0.016180792  0.037051198            2 
   22000    1.2371202   -6.7372269    4.5107554  0.017086194  0.037062027            4 
   23000    1.2260605    -6.742075    4.9445105  0.017914893  0.037092749            3 
   24000    1.2612022   -6.7477579     5.406244   0.01877168  0.036999218            2 
   25000    1.2449184   -6.6614446    5.9080306  0.019693435  0.037098696            2 
   26000    1.2260306   -6.7078323    6.2677073  0.020088805  0.037091095            2 
   27000    1.2272426   -6.7477297    6.6959015  0.020666362  0.037002534            2 
   28000    1.2541788   -6.7636921    7.2051048  0.021443764   0.03700477            2 
   29000    1.2641319    -6.802317    7.5382925   0.02166176  0.037006241            1 
   30000     1.285835    -6.766007    7.9504996  0.022084721  0.036833402            1 
   31000    1.2701472   -6.7480966    8.3557303   0.02246164   0.03663927            1 
   32000    1.2623419    -6.748983    8.7409232  0.022762821  0.036463788            3 
   33000    1.2358951   -6.7787962    9.1670799  0.023149191  0.036333907            3 
   34000    1.2474759   -6.7124645    9.5905672  0.023506292  0.036222928            1 
   35000    1.2586877   -6.7836437    9.9497183  0.023689805  0.036094374            5 
   36000    1.2487343   -6.8296807    10.295597    0.0238324  0.035977269            3 
   37000    1.2834142   -6.7829217    10.675678   0.02404432  0.035802013            2 
   38000    1.2475432   -6.7987234    11.132812   0.02441406   0.03566063            3 
   39000    1.2477743   -6.7779851    11.363854   0.02428174  0.035467303            3 
   40000    1.2342899   -6.7887029    11.734386  0.024446638   0.03524417            2 
   41000    1.2396517   -6.7728262    12.172514  0.024740882   0.03506983            2 
   42000    1.2044481   -6.7751717    12.649452  0.025098119  0.034946832            2 
   43000    1.2235893   -6.7934172    13.078492  0.025345914  0.034855937            2 
   44000    1.2751684   -6.7793232    13.405697  0.025389577  0.034780441            2 
   45000    1.2257517   -6.7795884    13.861752   0.02566991  0.034691742            2 
   46000    1.2443146   -6.7599093    14.252737  0.025820175  0.034605653            7 
   47000    1.2333116   -6.7612761    14.708492  0.026078886  0.034538349            1 
   48000    1.2547001   -6.7826293    15.196462  0.026382747  0.034519366            3 
   49000    1.2444807   -6.8239408    15.660263    0.0266331  0.034520169            3 
   50000    1.2427696   -6.8347665    15.975561  0.026625935  0.034515295            1 
   51000    1.2181605   -6.7729462    16.319453  0.026665772  0.034476314            3 
   52000    1.2337384   -6.7448721    16.879925  0.027051162  0.034454961            2 
   53000     1.229169   -6.7829779    17.355897  0.027289147  0.034464439            2 
   54000    1.2444449   -6.8046151    17.821196  0.027501845  0.034495484            1 
   55000    1.2424321   -6.7679808    18.390492  0.027864381  0.034554195            2 
   56000    1.2278256   -6.7966166     18.78279   0.02795058  0.034610003            3 
   57000    1.2588531    -6.743739    19.131184  0.027969567  0.034641029            1 
   58000    1.2353589   -6.7647852    19.582346  0.028135555  0.034674565            2 
   59000    1.2415872    -6.795082    19.999953  0.028248521  0.034709925            4 
   60000    1.2343922   -6.8123838    20.261617  0.028141135  0.034734348            5 
   61000    1.2390805    -6.766368    20.768271  0.028371955  0.034738156            5 
   62000    1.2589797   -6.7866441    21.188886  0.028479685  0.034749336            5 
   63000    1.2415359   -6.7453969    21.406971  0.028316099  0.034738925            2 
   64000    1.2695244   -6.7800508    21.786979  0.028368461  0.034713005            1 
   65000     1.229371   -6.7671966    22.334285  0.028633699  0.034692427            4 
   66000    1.2307347   -6.7846582    22.779666  0.028762204  0.034684268            4 
   67000    1.2313762   -6.7898045    23.135826  0.028775903  0.034680228            3 
   68000    1.2203914    -6.800634    23.483134  0.028778351  0.034672049            2 
   69000    1.2412445   -6.7909987    23.927538  0.028897993   0.03466039            2 
   70000    1.2677638   -6.7905133    24.452692  0.029110348  0.034663632            3 
   71000    1.2484314   -6.7426836    24.993795   0.02933544   0.03468201            3 
   72000    1.2322141   -6.8082561     25.33959  0.029328229  0.034696639            2 
   73000    1.2561206   -6.8249419    25.844378  0.029502714  0.034707074            2 
   74000     1.232159    -6.829335    26.232007  0.029540548  0.034717181            5 
   75000    1.2374681   -6.7473304    26.418396  0.029353773  0.034714803            3 
   76000    1.2439579   -6.8013228    26.800845  0.029386891  0.034699985            2 
   77000    1.2373349   -6.8170072    27.240752  0.029481333  0.034690305            2 
   78000    1.2400389   -6.7759128    27.634282  0.029523806  0.034686016            2 
   79000    1.2647423   -6.7939114    28.236678  0.029785525  0.034686017            1 
   80000    1.2173339   -6.8238291    28.424163  0.029608502  0.034687177            3 
   81000    1.2553664   -6.8270131    29.105025  0.029943441  0.034688886            3 
   82000    1.2085604   -6.8222764    29.481091  0.029960459  0.034691505            3 
   83000    1.2505828   -6.8143975    29.838534  0.029958367  0.034690829            1 
   84000     1.200437   -6.8102075     30.28614  0.030045774  0.034690769            2 
   85000    1.2230694   -6.7883707    30.647636  0.030046702  0.034693532            1 
   86000    1.2202197   -6.8008571      31.0476  0.030084884  0.034685502            2 
   87000    1.2240917   -6.7714961    31.615455  0.030283002  0.034686539            2 
   88000    1.2488031   -6.7947199    32.018085  0.030320156  0.034694209            2 
   89000    1.2423918   -6.7610133    32.426704  0.030362082  0.034703255            3 
   90000    1.2445065   -6.7394147    32.828228  0.030396507  0.034704657            1 
   91000    1.2405288    -6.771362    33.094308  0.030306143  0.034709442            1 
   92000    1.2565158   -6.7885011    33.410903  0.030263499   0.03470092            1 
   93000    1.2447488   -6.7952517    33.846417   0.03032833  0.034693567            4 
   94000    1.2280731   -6.7642375    34.329669  0.030434103  0.034685393            2 
   95000    1.2357994   -6.7758332    34.639376  0.030385418  0.034679627            3 
   96000    1.2372929   -6.7912583    35.036187  0.030413357  0.034662535            4 
   97000    1.2306932   -6.7435673    35.592066  0.030577376  0.034652743            3 
   98000    1.2418105   -6.8208964    35.868285  0.030500242  0.034642011            2 
   99000    1.2390075   -6.8013382     36.51771  0.030738813  0.034637617            1 
  100000    1.2553191    -6.808487     37.00336  0.030836133  0.034640297            8 
  101000     1.226466   -6.7850242    37.336882  0.030806008  0.034644035            2 
  102000    1.2342383   -6.7899011    37.542813  0.030672233  0.034639894            2 
  103000    1.2418949   -6.7629816    38.073445  0.030803758  0.034631914            3 
  104000    1.2593774   -6.7817872     38.36096  0.030737948  0.034624391            2 
  105000    1.2304937   -6.7794182    38.970362  0.030928858  0.034615431            2 
  106000    1.2397183   -6.8116114    39.230889  0.030841894  0.034611813            3 
  107000    1.2509327   -6.7951324    39.669806  0.030895488  0.034609683            2 
  108000    1.2540186   -6.8590861    40.173541  0.030998103  0.034612396            2 
  109000    1.2435915   -6.7848929    40.733306  0.031141671   0.03461949            2 
  110000    1.2678139   -6.7856226    41.102189  0.031138022   0.03462998            3 
  111000    1.2133783   -6.7579509    41.712745  0.031315875  0.034640384            1 
  112000    1.2159351   -6.8186187    41.766827  0.031076508  0.034643119            3 
  113000    1.2306486   -6.8124198    42.140863  0.031077332  0.034641325            3 
  114000    1.2293639   -6.7807201    42.476119  0.031049795  0.034629132            2 
  115000    1.2275672   -6.7797652    42.683078  0.030929767   0.03461181            1 
  116000    1.2406551   -6.7813054    43.333228  0.031130193  0.034594951            1 
  117000    1.2310368   -6.7996639    43.789362  0.031189004  0.034591133            2 
  118000    1.2572377    -6.802039     44.33704  0.031311469  0.034592122            2 
  119000    1.2311239   -6.8006631    44.869075  0.031420921   0.03459416            5 
  120000    1.2352118   -6.8759473    45.005472    0.0312538  0.034599261            3 
  121000    1.2363359   -6.8105072    45.643237  0.031434736  0.034601147            5 
  122000    1.2264042   -6.8240361    46.295316  0.031622484  0.034610419            1 
  123000    1.2310744   -6.8398385    46.645725  0.031602794  0.034620877            2 
  124000    1.2163356   -6.7927746    47.244157  0.031750105  0.034635696            1 
  125000    1.2419251   -6.7737127    47.690341   0.03179356  0.034645759            3 
  126000    1.2191864   -6.8349389    48.125206   0.03182884  0.034660502            1 
  127000    1.2424783   -6.7716929    48.571636  0.031871152  0.034678892            2 
  128000      1.24948   -6.7762344    48.899029  0.031835305  0.034693422            5 
  129000    1.2450437   -6.8454131    49.264479  0.031824599  0.034710416            5 
  130000    1.2228828   -6.7674586    49.944932  0.032015982  0.034726914            2 
  131000    1.2616241   -6.8191553    50.184784  0.031924163  0.034742086            2 
  132000    1.2447159   -6.8216748    50.559004  0.031918563  0.034751059            6 
  133000    1.2299049   -6.8187538    50.899398  0.031891853   0.03475568            2 
  134000    1.2383839   -6.7948056    51.224509  0.031856038  0.034763699            3 
  135000    1.2118252   -6.8288699    51.733442  0.031934223  0.034772499            4 
  136000    1.2344092    -6.804855    52.144039  0.031951004  0.034779688            3 
  137000     1.195716   -6.8121792    52.463283  0.031911972  0.034783431            2 
  138000    1.2393341   -6.8121254    52.667792  0.031804222  0.034779194            2 
  139000    1.2152567   -6.8091203    53.041726  0.031799596  0.034773826            4 
  140000    1.2276429   -6.8290146    53.484978  0.031836297  0.034768115            3 
  141000    1.2464735   -6.7762529     53.94641  0.031883221  0.034762488            1 
  142000    1.2343999   -6.8338333     54.22791  0.031823891  0.034756673            1 
  143000    1.2220274   -6.8253291    54.819227  0.031945936  0.034754314            1 
  144000    1.2274723   -6.7752716    55.574152  0.032160967  0.034753125            2 
  145000    1.1955821   -6.8047049    55.856545  0.032101462  0.034755932            2 
  146000    1.2458585   -6.8167788    56.161623  0.032055721  0.034756811            2 
  147000    1.2132042   -6.8037942    56.826035  0.032214305  0.034757192            3 
  148000    1.2159649   -6.8102272    56.761412  0.031960255  0.034756787            3 
  149000    1.2589005   -6.8108392    57.174988  0.031977063  0.034752185            4 
  150000    1.2255828   -6.8149956    57.494221  0.031941234  0.034746664            1 
  151000    1.2357403   -6.7991529    58.142454  0.032087447  0.034744259            2 
  152000    1.2315683    -6.788552    58.218509  0.031918042  0.034737269            3 
  153000    1.2451436   -6.7950695      58.8256  0.032040087  0.034730842            2 
  154000    1.2293289   -6.8420871    59.100215  0.031980636  0.034724237            2 
  155000      1.24484    -6.819812    59.491995  0.031984943  0.034715313            1 
  156000    1.2428593   -6.7938891    59.832069  0.031961575  0.034706734            2 
  157000    1.2144187   -6.7798623    60.352652  0.032034316  0.034697389            3 
  158000    1.2113682   -6.9013552    60.279532  0.031793002  0.034684564            2 
  159000    1.2343169   -6.8566228    60.703157  0.031815072  0.034668179            3 
  160000     1.235903   -6.8198427    61.454893  0.032007757   0.03465334            1 
  161000    1.2456383   -6.8756711    61.503732  0.031834229  0.034637311            2 
  162000    1.2376323   -6.8227598    62.156536  0.031973527  0.034622384            4 
  163000    1.2147369   -6.8483915    61.952823  0.031673222  0.034604501            2 
  164000    1.2375405   -6.7952949    62.526375  0.031771532  0.034586232            5 
  165000    1.2405128   -6.8549397    62.952789  0.031794338  0.034569101            4 
  166000    1.2003185    -6.826787    63.741422  0.031998706  0.034556624            1 
  167000    1.2188546   -6.8512841    64.106527  0.031989285  0.034545789            2 
  168000    1.2162188   -6.8219432    64.483206  0.031985717  0.034535147            3 
  169000     1.214907   -6.8265381    64.849026  0.031976837  0.034525713            5 
  170000    1.2255284   -6.7935185    65.347665  0.032033169  0.034512722            3 
  171000    1.2288963   -6.8228494    65.729594  0.032031966  0.034500377            2 
  172000    1.2442923    -6.859505    65.776594  0.031868505   0.03448847            1 
  173000    1.2425155   -6.8309019    66.172954  0.031875219  0.034472091            2 
  174000    1.2141948   -6.8600664    66.401275  0.031801377  0.034457104            6 
  175000     1.222812   -6.7896979    67.082839  0.031944209   0.03444213            2 
  176000    1.2200465   -6.8493076    67.437734  0.031930745  0.034430385            2 
  177000    1.2219289   -6.7977998    68.127968  0.032075314  0.034418235            2 
  178000    1.2227885   -6.8026199    68.399295  0.032022142  0.034407942            2 
  179000    1.2312811   -6.8295365    68.408655  0.031847605   0.03439224            2 
  180000    1.2580167   -6.8136768    69.034365  0.031960354   0.03437438            2 
  181000    1.2277731   -6.8731138    68.995671  0.031765963  0.034358787            1 
  182000    1.2453033   -6.7907976    70.095417  0.032094971  0.034344951            5 
  183000    1.2177294   -6.8178673    70.761751   0.03222302   0.03433505            4 
  184000    1.1965918   -6.8621514    70.727582  0.032032419  0.034324664            2 
  185000      1.24917   -6.8412852    71.151595  0.032050268  0.034314197            2 
  186000    1.2155677   -6.8024888    71.640845  0.032097153  0.034304638            2 
  187000    1.2097987   -6.8619484     71.93316  0.032055775  0.034294385            2 
  188000     1.219073   -6.7958518    72.567215  0.032166319  0.034284632            2 
  189000    1.2212108   -6.8352944    72.929279  0.032155767  0.034278293            2 
  190000    1.2411349   -6.8279107    73.231824  0.032119221  0.034269761            2 
  191000    1.2122796   -6.7979494    73.839999  0.032216404  0.034261699            3 
  192000    1.1995453   -6.8093128    74.617563  0.032386095  0.034255176            2 
  193000    1.2009163   -6.7775453    74.846837  0.032317287   0.03425286            2 
  194000    1.2137044   -6.8004075    75.175689  0.032291963  0.034252685            1 
  195000    1.2378736    -6.787137    75.893827  0.032433259  0.034248993            2 
  196000    1.2049745   -6.8461704    76.064286  0.032340257  0.034247062            3 
  197000    1.2281745   -6.8465123    76.549426  0.032381314  0.034245087            2 
  198000    1.2214226   -6.8667337    76.821264  0.032332182  0.034240913            3 
  199000     1.228815   -6.8793957    76.857116  0.032184722  0.034237375            2 
  200000    1.1968163   -6.8003935    77.744748  0.032393645   0.03423228            4 
  201000    1.1992092   -6.8864553    77.767323  0.032241842  0.034226541            2 
  202000    1.2129128    -6.856281    78.250525   0.03228157   0.03422363            1 
  203000    1.2059506   -6.8276378    78.824527   0.03235818  0.034221814            4 
  204000    1.2105715   -6.8332973    79.268572  0.032380953  0.034218052            2 
  205000    1.2145204   -6.8733981    79.490989   0.03231341  0.034213079            1 
  206000    1.2349182   -6.8408188      79.8485  0.032301173  0.034207726            4 
  207000    1.1946878   -6.8805933    79.828893  0.032137236  0.034199199            3 
  208000    1.2195016    -6.858297    80.401204  0.032212021  0.034189936            2 
  209000    1.2237452   -6.8209869    80.731344  0.032189531    0.0341793            1 
  210000    1.2180608   -6.8740723    80.861561  0.032087921  0.034170168            2 
  211000    1.2134685    -6.833995      81.5351  0.032201856  0.034160693            4 
  212000    1.2364553   -6.8047714    81.997363  0.032231668  0.034150033            1 
  213000    1.2251236   -6.7891135    82.343111  0.032215615  0.034141535            1 
  214000    1.2188644   -6.8387483    82.669159   0.03219204  0.034132287            3 
  215000    1.2148545   -6.8482411    83.192669  0.032245221  0.034125319            2 
  216000    1.2215511   -6.8224056    83.797202  0.032329167  0.034118975            2 
  217000    1.2419572   -6.8425403    83.782483  0.032174533  0.034111192            6 
  218000    1.2083047   -6.9057976    83.922129  0.032080324   0.03410216            5 
  219000    1.2012028   -6.8407252    84.972583  0.032333555  0.034094197            1 
  220000    1.2025902   -6.8756344    85.153218  0.032255007  0.034086506            3 
  221000    1.2471869   -6.8056928    85.468167  0.032227816  0.034078403            2 
  222000    1.2181633   -6.8499747    85.324915  0.032028872    0.0340674            2 
  223000    1.2125134   -6.8620688    86.005463   0.03213956  0.034058683            3 
  224000    1.2154879   -6.8334296    86.383831  0.032136842  0.034047521            3 
  225000    1.2027438   -6.8885854    86.459703  0.032022112   0.03403829            2 
  226000    1.2323301   -6.8670767    87.557951   0.03228538  0.034028973            4 
  227000    1.2313729   -6.8759383    87.542512  0.032137486  0.034020571            2 
  228000    1.2084403   -6.8752951     87.79036   0.03208712   0.03401209            1 
  229000    1.2374677   -6.8654455    88.453929  0.032188475  0.034002533            1 
  230000     1.244581   -6.8314087    89.098038  0.032281898  0.033994998            1 
  231000    1.1970714   -6.8582731    89.169198   0.03216782  0.033986633            2 
  232000    1.2387208   -6.8812124    89.291689  0.032073164  0.033976537            2 
  233000    1.2230214   -6.8684038    89.871999  0.032143061  0.033964978            2 
  234000    1.2224351   -6.8996592    89.867201  0.032003989  0.033953895            3 
  235000    1.2249512   -6.8771865    90.635694  0.032140317  0.033941956            3 
  236000    1.2001201   -6.8560153    91.159376  0.032189045  0.033931779            2 
  237000    1.1952203   -6.8106597    91.664707   0.03223091  0.033922385            3 
  238000     1.215299   -6.8757705      91.9839  0.032207248  0.033913843            2 
  239000    1.1960024   -6.8362984    92.515479  0.032257838  0.033905673            3 
  240000    1.2000019   -6.8378906    92.375723  0.032074904  0.033897252            3 
  241000      1.20814   -6.8313783    92.713514  0.032058615  0.033887065            3 
  242000    1.2210682   -6.8363516    93.044321  0.032040056  0.033874466            3 
  243000    1.2078706   -6.8822665    92.988519  0.031889067  0.033861392            2 
  244000    1.2322931   -6.8454267    93.969481  0.032093402  0.033849421            2 
  245000    1.2127122    -6.829255    94.147495  0.032022957  0.033837138            3 
  246000     1.212559   -6.8396569    94.377353  0.031970648  0.033825858            2 
  247000    1.1936423   -6.8407542    94.911531  0.032021434  0.033812204            2 
  248000    1.2075147   -6.8787711    94.792905  0.031852455  0.033798521            2 
  249000    1.2163727   -6.8284706    95.208752  0.031863705  0.033782162            1 
  250000    1.1940584   -6.8555512    95.624063  0.031874688   0.03376491            2 
  251000    1.2067316   -6.8553097     96.07771   0.03189831  0.033749895            3 
  252000    1.1969182   -6.8843797    96.570601  0.031934723  0.033736538            2 
  253000    1.1903481   -6.8814116    97.026178  0.031958557  0.033722774            4 
  254000     1.201024   -6.8169101    97.661715  0.032041245  0.033710183            5 
  255000    1.2343046   -6.8901095    97.453835  0.031847658  0.033697236            3 
  256000    1.2310941   -6.8328958    98.468577  0.032053573  0.033684814            2 
  257000    1.2406706   -6.8832969    98.343176  0.031888189  0.033673828            2 
  258000    1.2154202   -6.8593445    98.964305  0.031965215  0.033662839            4 
  259000    1.2150469   -6.8284967    100.03116  0.032185058  0.033652338            4 
  260000    1.2111245   -6.8504022    100.24685  0.032130401  0.033644906            2 
  261000    1.2268488   -6.8356052    100.53042  0.032097836  0.033636976            5 
  262000    1.1879469   -6.8796582    100.51291  0.031969756  0.033627433            3 
  263000    1.2209713   -6.8702828    101.09903  0.032033912  0.033616659            2 
  264000    1.2080312   -6.8710037    101.39444   0.03200582  0.033606395            2 
  265000     1.213286   -6.8953523    101.66989  0.031971663  0.033595576            4 
  266000    1.2571899   -6.8938963    101.99308   0.03195272  0.033585355            5 
  267000    1.2171141   -6.8541631    102.50065  0.031991464  0.033575164            2 
  268000    1.1986182   -6.8548418    103.31808  0.032126268  0.033565417            2 
  269000    1.1824191   -6.8826615    103.40388  0.032033419  0.033553987            2 
  270000    1.2279686   -6.8946996    103.93521  0.032078769  0.033543381            2 
  271000    1.1911676   -6.8574635     104.2231  0.032048924  0.033535212            2 
  272000    1.2326949   -6.8688904    104.46588  0.032005477  0.033525911            6 
  273000      1.22871   -6.8703117    105.04251  0.032064257  0.033516835            3 
  274000    1.2134246   -6.8302413    105.43462   0.03206649  0.033507621            4 
  275000     1.223573   -6.8811676    105.58237  0.031994657  0.033497855            2 
  276000    1.2229576   -6.8995326    105.81545   0.03194911  0.033488466            6 
  277000    1.2239021     -6.88161    106.36027  0.031997674  0.033478904            1 
  278000    1.1829504   -6.8434749    106.91398  0.032048555  0.033469382            4 
  279000    1.2050518   -6.8841138    106.88463  0.031924919   0.03345978            2 
  280000    1.2149003   -6.9065654    107.07336  0.031867072  0.033448831            4 
  281000    1.1852226   -6.8774441    107.38284  0.031845445  0.033436069            2 
  282000    1.2097462   -6.8529509    107.97716  0.031908143  0.033425504            3 
  283000    1.2322353   -6.8717561    108.68572  0.032004039  0.033415334            5 
  284000    1.1974067   -6.9406309     108.3446  0.031791255  0.033403202            3 
  285000    1.2145359   -6.8692064    108.95392  0.031857872  0.033390738            2 
  286000    1.1901803   -6.8908411    109.56984  0.031925944  0.033378614            1 
  287000    1.2124374   -6.8840188    109.58137  0.031818051  0.033365897            4 
  288000    1.2208544   -6.8296185    110.18704  0.031882823  0.033352968            2 
  289000    1.1804142   -6.9125369    109.93854  0.031700847  0.033338244            1 
  290000     1.210367   -6.8828404     110.7346  0.031820287  0.033324482            1 
  291000    1.1939521   -6.9162347    111.03586  0.031797211  0.033313115            2 
  292000    1.1933001   -6.9041661    111.47337  0.031813177  0.033299887            1 
  293000    1.1864371   -6.8755596    112.05096  0.031868874  0.033286355            2 
  294000    1.1902664   -6.8733227    112.25561  0.031818484   0.03327304            1 
  295000    1.1995315   -6.8213014    112.53166  0.031788604  0.033259958            5 
  296000    1.1983243   -6.8477957     113.1136  0.031845045  0.033249067            5 
  297000    1.1885755   -6.8927616    113.49367  0.031844465  0.033237804            2 
  298000    1.2247842   -6.8663976    113.80697  0.031825215  0.033226247            3 
  299000    1.2216484   -6.8397459    113.99345   0.03177075  0.033213736            2 
  300000    1.1932133   -6.8624434    114.77804   0.03188279  0.033202344            5 
  301000    1.2152642   -6.8845996    114.87195  0.031802864  0.033190075            2 
  302000    1.2165268   -6.8799098    115.35678  0.031831341  0.033179781            2 
  303000    1.2053838   -6.9129261    115.32757  0.031718254  0.033169415            1 
  304000     1.205751   -6.9404637    116.24016  0.031864079   0.03315888            2 
  305000    1.2400453   -6.8981814    116.72406  0.031891821  0.033147764            2 
  306000     1.206277   -6.9084147    116.63711  0.031763919  0.033138508            4 
  307000    1.1823112   -6.8842084    117.62791  0.031929399  0.033130047            3 
  308000    1.2483279   -6.8579259    117.78194  0.031867409  0.033121863            2 
  309000    1.1992422   -6.8832621    118.12537  0.031856896  0.033112826            5 
  310000    1.2105384   -6.8718252    118.45519  0.031842792  0.033103728            2 
  311000    1.1876131   -6.8668332    118.51125  0.031755427  0.033094341            1 
  312000    1.2110494   -6.9092259    119.04809  0.031797032  0.033085256            3 
  313000    1.2222751   -6.8347377     119.5894  0.031839564  0.033076319            2 
  314000    1.2154211   -6.8246649    120.35421  0.031941137  0.033067172            3 
  315000    1.2051948   -6.8626025    120.35949  0.031841135  0.033057844            2 
  316000    1.1851312   -6.8759736    120.21738  0.031702896   0.03304759            2 
  317000    1.2019692   -6.9014339    120.71739   0.03173433     0.033038            3 
  318000    1.1991993   -6.8949311    121.27128  0.031779685   0.03302872            3 
  319000    1.1964311   -6.8909723    121.88589   0.03184062  0.033019288            3 
  320000    1.1775972   -6.8656842    122.38122  0.031870109  0.033009766            3 
  321000    1.2135806   -6.8629969     122.9416  0.031916304  0.033001652            2 
  322000    1.2184159   -6.8596975    123.11434  0.031861889  0.032994466            2 
  323000    1.2140882   -6.8758933    123.56794  0.031880273  0.032987417            6 
  324000    1.1979429   -6.8682823    124.48905  0.032018789   0.03297966            2 
  325000    1.1917385   -6.8832299    124.19997  0.031846145  0.032972452            2 
  326000    1.2309739   -6.8676598    124.69003   0.03187373  0.032964945            4 
  327000    1.1998667   -6.9107554     125.0038  0.031856219  0.032958043            2 
  328000    1.1698564   -6.8789985    125.36982  0.031852087  0.032952124            1 
  329000    1.1806352    -6.894461     125.8009  0.031864462  0.032944384            1 
  330000    1.1868457   -6.9068582    125.89082  0.031790612  0.032936793            2 
  331000    1.1935433   -6.9001081    126.55892   0.03186277   0.03292912            3 
  332000    1.2025927   -6.8619475    126.60946  0.031779483  0.032921907            2 
  333000    1.2235357   -6.8786191    127.14413  0.031817851  0.032914492            3 
  334000    1.2012475   -6.8973207    127.23344  0.031744871  0.032906768            3 
  335000    1.2021225   -6.9417484    127.64977  0.031753674   0.03289924            2 
  336000    1.2021397   -6.8743287    128.76413  0.031935547  0.032892148            1 
  337000    1.1764267    -6.899614     128.8285  0.031856701  0.032884927            2 
  338000    1.1880902   -6.8318932    129.45669  0.031917329   0.03287817            1 
  339000    1.2008819   -6.8916854    128.72259  0.031642722  0.032870691            4 
  340000    1.1989506   -6.8955354    128.90928  0.031595412  0.032860609            3 
  341000    1.1818077   -6.8775537    129.96542  0.031760856  0.032849893            2 
  342000    1.1839094   -6.9096149    129.15173   0.03146972  0.032838727       -1e+20 
  343000    1.1650429   -6.8484428    129.80914  0.031537692  0.032827005            2 
  344000    1.1934172   -6.8838809    129.84639  0.031455035  0.032814892            1 
  345000    1.2178525   -6.9008987    130.81753  0.031598437  0.032802822            3 
  346000    1.1942628   -6.8870768    130.79145  0.031500832  0.032790678            2 
  347000     1.187622    -6.873803    130.92403  0.031441889  0.032777688            2 
  348000    1.1873435   -6.9211779    131.27299  0.031435102  0.032765297            2 
  349000    1.1954454   -6.8654742    131.60713  0.031424816   0.03275257            6 
  350000    1.1708436    -6.913269    131.77284  0.031374486  0.032739743            3 
  351000    1.1964602   -6.8775596    132.63256  0.031489211  0.032726214            3 
  352000    1.1988072   -6.8936121    132.50341  0.031369179  0.032713815            2 
  353000    1.2148243   -6.8713653    132.66457  0.031318359  0.032699929            3 
  354000    1.1837039    -6.885469    133.07995  0.031327671  0.032685812            1 
  355000    1.1942529   -6.8820087    133.54377  0.031348303  0.032671077            3 
  356000    1.1854153   -6.9274501    132.90578  0.031110904  0.032655818            3 
  357000    1.1925886   -6.9315851    132.93485  0.031030544   0.03263989            2 
  358000    1.1827548   -6.8565976    134.10425  0.031216073  0.032623736            3 
  359000    1.1989245   -6.8858545    134.84131  0.031300212  0.032608623            2 
  360000    1.1698337   -6.9056442    134.69631  0.031179702  0.032593766            3 
  361000    1.1780734   -6.9316534    135.17258  0.031203274   0.03257926            3 
  362000    1.2066282   -6.8671924    135.76583  0.031253643  0.032564615            2 
  363000    1.2024894   -6.9227852    136.24066  0.031276553  0.032550087            2 
  364000    1.1800555   -6.9210934    136.25086  0.031192962  0.032536272            3 
  365000    1.1698687   -6.8535685    137.30361  0.031347856   0.03252186            4 
  366000    1.1974819   -6.9165061    137.26476  0.031253361  0.032507995            2 
  367000    1.1763886   -6.8973459    137.55338  0.031233738  0.032494073            4 
  368000    1.2064001   -6.9010492    137.62467  0.031165007  0.032480181            3 
  369000    1.1721894   -6.9138673    137.82259  0.031125245  0.032465599            5 
  370000    1.2036005   -6.9371467    138.01825  0.031085192  0.032450308            5 
  371000    1.1945404   -6.8723921    139.02521  0.031227586  0.032436288            2 
  372000    1.1831974   -6.9351896    138.62026  0.031052925  0.032421641            5 
  373000    1.1845926    -6.877111    139.33278   0.03112886  0.032406456            2 
  374000    1.2006825   -6.9207795    139.59441  0.031103923  0.032391421            1 
  375000    1.2139703   -6.9188063    139.78733  0.031063852  0.032376122            4 
  376000    1.2249165   -6.8892047    140.25319  0.031084483  0.032361433            4 
  377000     1.202841   -6.9259349    140.24145  0.030999437   0.03234613            5 
  378000    1.1820729   -6.8109615    141.27067  0.031144327   0.03233102            2 
  379000    1.1891771   -6.9332124    141.42067  0.031095134  0.032316835            2 
  380000    1.1824037     -6.94193    141.00989  0.030923222  0.032302647            1 
  381000    1.2263628   -6.9273835    141.79571  0.031013934   0.03228778            3 
  382000    1.1616174   -6.9048452    142.53008   0.03109295  0.032273829            6 
  383000    1.1882208   -6.9194534    142.63972  0.031035623  0.032260459            6 
  384000    1.1927352   -6.9117833    143.38512  0.031116563  0.032247423            2 
  385000     1.196729   -6.8833926    143.31092  0.031019679  0.032234556            3 
  386000    1.1864119   -6.8845762    144.47883  0.031191457  0.032221984            5 
  387000    1.2088358   -6.9330737    144.22548  0.031056305  0.032209632            5 
  388000    1.2183757    -6.925323    144.66351  0.031070341  0.032196271            1 
  389000    1.1966858    -6.878693    145.47348  0.031163985  0.032183038            1 
  390000    1.1940447   -6.9198625    144.86558  0.030954185  0.032169545            3 
  391000    1.2088131    -6.895523    145.39531  0.030987918  0.032155549            2 
  392000    1.2064947   -6.8991265    145.63788  0.030960435  0.032141107            6 
  393000    1.2121683   -6.9133836    146.36051  0.031034884  0.032126702            2 
  394000    1.1994413   -6.8571418    146.70158  0.031028254  0.032112244            1 
  395000    1.1843114   -6.9151654    146.81231  0.030973061  0.032098914            2 
  396000     1.174997   -6.8740076    147.19497  0.030975372  0.032085643            5 
  397000    1.1816284   -6.8938763    147.70775  0.031004984  0.032072607            2 
  398000    1.1971245   -6.9116372    148.10842  0.031010975  0.032060095            2 
  399000    1.1977162    -6.872066    149.35659   0.03119394  0.032048078            3 
  400000    1.1902191   -6.9201958    148.97157  0.031035745  0.032036571            2 
  401000    1.1770612   -6.8871641    149.65987  0.031101387  0.032024531            2 
  402000    1.1892104   -6.9073387    149.59648  0.031010878  0.032013141            2 
  403000    1.1814122    -6.893949    150.34142   0.03108797  0.032001714            5 
  404000    1.1858952   -6.8708596    150.67613  0.031080059  0.031991312            1 
  405000    1.1722932   -6.9156956    150.83094  0.031035172  0.031982064            4 
  406000    1.1681949   -6.9407772    151.29942  0.031054889   0.03197158            1 
  407000    1.1809546   -6.9464499    151.23794     0.030966  0.031960787            2 
  408000    1.2007693   -6.9628483    151.83514  0.031012079  0.031950072            3 
  409000    1.2065779   -6.9365846    152.23547  0.031017821  0.031939954            3 
  410000    1.1815682   -6.9147611     153.4166  0.031182236    0.0319307            2 
  411000    1.1947126   -6.8984029    153.05747   0.03103355  0.031921547            2 
  412000    1.1973122   -6.9542515    153.04524  0.030955753  0.031911008            3 
  413000    1.1862683     -6.93563     153.5378  0.030980185  0.031900692            2 
  414000    1.1672992   -6.8875442    154.41691  0.031082308  0.031890536            2 
  415000    1.1832668   -6.9201874      154.053  0.030934337  0.031880822            3 
  416000    1.1903864   -6.8899897    154.96365  0.031042397  0.031870578            2 
  417000    1.1884538   -6.8974572    155.22972  0.031021127  0.031861053            2 
  418000    1.1804454   -6.9907092    155.05818  0.030912716  0.031851315            3 
  419000    1.1962414   -6.8965326    156.27075  0.031080101  0.031840736            2 
  420000    1.1813381   -6.9223808     156.1055  0.030973314  0.031830112            5 
  421000    1.1826045   -6.9186066    156.47662  0.030973202  0.031820524            3 
  422000    1.2045923   -6.9329568    156.09746  0.030824933  0.031810015            3 
  423000    1.1827422    -6.950954    156.89128  0.030908447  0.031799682            3 
  424000    1.1758866   -6.9445878    157.77738  0.031009706  0.031790387            1 
  425000    1.1831695   -6.9473548    157.81169  0.030943468  0.031781602            4 
  426000    1.1829717   -6.9437274    158.55336  0.031015916   0.03177309            2 
  427000    1.1642818   -6.9321576    158.95975  0.031022589  0.031764008            2 
  428000    1.2091337   -6.9537746    159.22648  0.031002041  0.031755458            3 
  429000    1.1654847   -6.9252767    159.45348  0.030973869    0.0317472            3 
  430000    1.1739658   -6.9231479    159.87607  0.030983735  0.031739095            2 
  431000    1.1506612   -6.9740668    159.81186  0.030899431  0.031730405            4 
  432000     1.197697   -6.9860516    160.37861  0.030937231  0.031721511            2 
  433000    1.1706488   -6.8921531    161.31402  0.031045808  0.031712763            3 
  434000     1.209558   -6.9270801    161.04655  0.030922916  0.031704957            3 
  435000    1.1925237   -6.9301505    161.31111  0.030902511  0.031697267            2 
  436000    1.1987604   -6.8807899    162.13679  0.030989447  0.031689728            3 
  437000    1.1568131   -6.9647959    161.90656  0.030874629   0.03168081            4 
  438000    1.1758397   -6.9302805    161.70064  0.030764962  0.031670612            3 
  439000    1.2103634   -6.9352846    162.84536  0.030912179  0.031660817            2 
  440000    1.1636692    -6.968476    162.97777  0.030867001  0.031651939            2 
  441000    1.1790248   -6.9110394    163.18631  0.030836416  0.031643445            2 
  442000    1.1848344   -6.9583504    163.55337  0.030835855   0.03163409            5 
  443000    1.1809185   -6.9585428    164.12122  0.030873066  0.031625026            5 
  444000    1.1724848   -6.9455577    164.27659  0.030832693  0.031615894            2 
  445000    1.1962444   -6.9523215    164.66019  0.030835241  0.031606658            4 
  446000    1.1861377    -6.973487    164.38681  0.030715024  0.031596481            5 
  447000    1.1820106   -6.9710508    165.27238  0.030811406  0.031585975            2 
  448000    1.1837493   -6.9173635    165.75912  0.030833169  0.031575766            3 
  449000    1.1836595   -6.9630566    165.89844  0.030790356  0.031565939            2 
  450000    1.1772587   -6.9697152    166.39942  0.030814707   0.03155632            3 
  451000     1.180674   -6.9290242    166.79746   0.03081993  0.031546454            2 
  452000     1.176778   -6.9478216    166.75294  0.030743536  0.031537085            2 
  453000    1.1770965     -6.96265    167.08501  0.030736756  0.031527649            2 
  454000    1.1592785   -6.9525908    167.86819   0.03081281  0.031518413            3 
  455000    1.1520746   -6.9565945    167.72519  0.030718899  0.031509697            4 
  456000    1.1583728   -6.9478847    168.13324  0.030726104  0.031500454            2 
  457000    1.1859442    -6.922888    168.32976  0.030694704  0.031490954            2 
  458000      1.18279   -6.9729851    168.22574  0.030608759  0.031481824            2 
  459000    1.1910759   -6.9222605    169.97539  0.030859729  0.031472745            3 
  460000    1.1766172   -6.9401333     169.1358  0.030640544  0.031463478            3 
  461000    1.1801397   -6.9513487    169.21485  0.030588368  0.031453405            6 
  462000    1.1583976   -6.9489665    170.11257  0.030684086  0.031444208            2 
  463000    1.1767407   -6.9332212      170.249  0.030642369  0.031434649            2 
  464000    1.1771164   -6.9452486    170.73669  0.030663917  0.031425229            2 
  465000    1.1743383   -6.9664013    171.23536  0.030687341  0.031416435            2 
  466000    1.1843282   -6.9243593    171.35193  0.030642334  0.031407054            4 
  467000    1.1734207   -6.9711009    171.62948  0.030626246  0.031397739            2 
  468000    1.1899157   -6.9881118    171.78175  0.030587919  0.031388469            2 
  469000    1.1968888   -6.9496019    172.88788  0.030719239  0.031380161            2 
  470000    1.1779546   -6.9421873     173.2411  0.030716508  0.031372842            3 
  471000     1.171203   -6.9410067     173.4682  0.030691472  0.031365122            2 
  472000    1.1671537   -6.9262071    173.97195  0.030715386  0.031357245            4 
  473000    1.1754218    -6.951526    173.70523  0.030603459  0.031348698            2 
  474000    1.1538195    -6.973115    174.40065  0.030661155  0.031339737            3 
  475000    1.1794353    -6.959582    174.65709  0.030641595  0.031330318            2 
  476000    1.1733387   -6.9224843    174.97583  0.030633023  0.031320999            5 
  477000    1.1985863    -6.985172    174.73378  0.030526516  0.031311859            6 
  478000    1.2012546   -6.9577221     175.0989  0.030526307  0.031302326            2 
  479000    1.1863655   -6.9379579    175.46018  0.030525432  0.031292688            3 
  480000     1.175582   -6.9588255     176.0303  0.030560815  0.031283725            2 
  481000    1.1733624   -6.9395392    176.44474  0.030569082  0.031274511            8 
  482000    1.2064918    -6.906147    176.93946  0.030591194   0.03126571            3 
  483000    1.1779621   -6.9331183     177.2629  0.030583661  0.031256719            5 
  484000    1.1577685     -6.93838    177.52521  0.030565635  0.031247773            1 
  485000    1.1799059   -6.9430264    177.96676  0.030578481  0.031238909            3 
  486000    1.1829422   -6.9511724    178.43181  0.030595303  0.031230444            3 
  487000    1.1676401   -7.0117908    178.39095  0.030525488  0.031221622            2 
  488000    1.1584167   -6.9741645    178.87709  0.030545952  0.031212264            2 
  489000     1.162753   -6.9524204    179.24921    0.0305469  0.031203064            5 
  490000    1.1594435   -6.9463581    179.83826  0.030584738  0.031193672            4 
  491000    1.1647947   -6.9427449    179.58324  0.030479166  0.031183883            2 
  492000    1.1690203   -6.9476957    179.65876  0.030430007  0.031173872            2 
  493000    1.2025009   -6.9224271    180.13157  0.030448204  0.031163448            3 
  494000    1.1939927   -6.9606285     180.6741  0.030478088  0.031154148            1 
  495000    1.1869678   -6.9227531    181.07013  0.030483187  0.031145048            2 
  496000    1.1833472   -6.9802442    181.39107   0.03047565  0.031135663            1 
  497000    1.1865957   -6.9490052    181.29704  0.030398565  0.031125613            2 
  498000    1.1866448   -7.0183808     180.4771  0.030200318  0.031115195            5 
  499000    1.1682184   -6.9811214    181.70892  0.030345512  0.031104385            6 
  500000    1.1610658   -7.0028891    181.33118  0.030221863   0.03109334            3 
  501000    1.1792127   -6.9468545    182.94888  0.030430619  0.031082889            2 
  502000    1.1748603   -6.9418236    182.78147   0.03034221  0.031073038            1 
  503000    1.1834976   -6.9849613    182.21905   0.03018871  0.031062301            2 
  504000    1.1803558   -6.9919915    182.77491   0.03022072  0.031051669            2 
  505000    1.1600109   -6.9283747    183.61951  0.030300249  0.031041404            2 
  506000    1.1809001   -6.9609643    184.48674  0.030383191  0.031030865            3 
  507000    1.1632463   -6.9514998    184.61456  0.030344273  0.031020895            3 
  508000      1.18549   -6.9680198     184.2831  0.030230167  0.031010781            4 
  509000    1.1659871   -6.9599405    184.53277  0.030211652  0.031000508            2 
  510000    1.1699167   -6.9822079    184.98386  0.030226121  0.030990289            2 
  511000    1.1718415   -7.0070684    185.24236  0.030209126  0.030980306            3 
  512000    1.1743653   -6.9690785    186.09477  0.030288862  0.030970249            2 
  513000     1.166152   -7.0081021     185.9467  0.030205766  0.030960133            3 
  514000    1.1658948   -6.9866241    186.16334  0.030182123  0.030950307            5 
  515000    1.1775406   -6.9259876    187.07333  0.030270765  0.030939926            4 
  516000    1.1542713   -6.9423412    187.24828  0.030240356  0.030930676            3 
  517000    1.1512347   -6.9680537    188.11538  0.030321627  0.030920195            3 
  518000    1.1545816   -6.9983618     187.9745  0.030240428  0.030910597            2 
  519000    1.1562066   -6.9661974    188.07191  0.030197802  0.030900921            3 
  520000    1.1579075   -6.9722211    188.83552  0.030262102  0.030891347            3 
  521000    1.1883303    -6.921847    189.27671  0.030274586  0.030882731            5 
  522000    1.1916214   -7.0068087    189.20345  0.030204894  0.030872972            3 
  523000    1.1806157   -6.9784037    189.13475  0.030136193  0.030863669            2 
  524000    1.1682986   -6.9959279    189.80246   0.03018487  0.030854318            1 
  525000    1.1872226   -6.9556161    190.95044  0.030309594  0.030845116            3 
  526000    1.1786784   -6.9955125    190.64001   0.03020279  0.030836387            5 
  527000    1.1450529   -6.9983842     191.0174  0.030205154  0.030827225            3 
  528000    1.1796099   -6.9683712    191.20764  0.030177974  0.030818062            3 
  529000    1.1575315   -7.0267013    191.78225  0.030211444  0.030809329            4 
  530000    1.1691788   -7.0003464    191.58767  0.030123848  0.030799977            5 
  531000    1.1770816   -6.9478379     192.5093  0.030211754  0.030791082            3 
  532000    1.1747828   -6.9660372    192.41309  0.030139895  0.030781646            2 
  533000     1.164592     -6.93616    193.51719  0.030255971   0.03077271            2 
  534000    1.1651034    -7.012067     192.8921  0.030101764  0.030762812            2 
  535000    1.1730366   -6.9615254    192.64373  0.030006811   0.03075282            6 
  536000    1.1567605   -6.9513743    193.21036  0.030038924  0.030743038            3 
  537000    1.1984535   -6.9489747     193.6579  0.030052436  0.030733551            6 
  538000    1.1608133    -6.967131    194.06361  0.030059419  0.030723021            1 
  539000     1.157977   -6.9943224    193.96473  0.029988362  0.030713124            2 
  540000    1.1825645   -6.9901657    194.56475  0.030025424  0.030703604            2 
  541000    1.1385128   -6.9671707    195.13424  0.030057646  0.030694018            2 
  542000    1.1660528   -6.9885598     195.2269  0.030016435  0.030684321            2 
  543000    1.1663404   -6.9750912    195.70115   0.03003394  0.030674287            2 
  544000    1.1501006   -6.9949909    195.72569  0.029982489  0.030664851            5 
  545000    1.1925598   -6.9822233    196.35751  0.030024084  0.030655183            3 
  546000    1.1751694   -7.0023103    196.12484  0.029933584  0.030645422            2 
  547000    1.1770928   -7.0034146    196.21544  0.029892663  0.030635478            2 
  548000    1.1622868   -6.9405474    197.17632  0.029984233  0.030625156            3 
  549000    1.1681752   -6.9863974    197.45205  0.029971471  0.030615064            3 
  550000    1.1877699   -6.9899621    197.60344  0.029939915  0.030604969            4 
  551000    1.1462273    -7.016807    197.52396  0.029873558  0.030594949            3 
  552000    1.1738678   -6.9695033    198.54227  0.029973168  0.030584925            5 
  553000    1.1714072   -7.0166415    198.02249   0.02984064  0.030575088            2 
  554000    1.1480692   -7.0145366     198.4026  0.029843953  0.030564687            4 
  555000    1.1510392   -6.9510687    199.11948   0.02989782  0.030554677            2 
  556000    1.1800233   -6.9695587     199.0626  0.029835522  0.030544145            3 
  557000    1.1717415   -6.9498926    199.42458  0.029836113  0.030534194            2 
  558000    1.1536222   -6.9847152    199.80865  0.029840001  0.030524035            4 
  559000    1.1437533   -6.9976108    200.69569  0.029918856  0.030513704            3 
  560000    1.1491135   -7.0068751    200.19124  0.029790363  0.030503426            3 
  561000    1.1738634   -6.9795496    201.24197   0.02989334  0.030493265            8 
  562000    1.1544098   -6.9801742    201.42409  0.029867154  0.030482565            3 
  563000    1.1694197   -7.0144041    201.75642  0.029863295  0.030472343            4 
  564000    1.1576501   -6.9681707    202.44273  0.029911751  0.030462291            3 
  565000    1.1503433   -6.9846707    201.87252  0.029774709  0.030452991            4 
  566000     1.177837   -6.9899511    202.39804  0.029799476  0.030443275            5 
  567000       1.1461     -7.00797    202.43543  0.029752415  0.030433149            2 
  568000    1.1612146   -6.9669545    202.82543  0.029757252  0.030422831            3 
  569000    1.1684296   -6.9462897    203.50844  0.029804985  0.030412266            3 
  570000    1.1459907   -6.9988888    203.94397  0.029816371  0.030402424            2 
  571000    1.1629626   -6.9733775    204.95965  0.029912383  0.030393217            2 
  572000    1.1704644    -7.022347    204.11414  0.029736909  0.030384176            4 
  573000    1.1922354   -7.0152689    205.02155  0.029816979  0.030375222            2 
  574000    1.1689304    -6.976368    205.53661   0.02983981   0.03036614            3 
  575000    1.1848865    -7.006181    205.49389  0.029781723  0.030357066            3 
  576000    1.1751549   -6.9977491    205.60269   0.02974576  0.030347894            3 
  577000    1.1449938   -6.9955194    206.25671  0.029788664   0.03033904            2 
  578000    1.1737258   -6.9948543    206.67668  0.029797676  0.030329806            2 
  579000    1.1757063   -7.0163295    206.51895   0.02972351  0.030320842            4 
  580000    1.1970493   -6.9520087    208.26094  0.029922548  0.030312559            2 
  581000    1.1545327   -6.9917033    207.82646   0.02980873  0.030303914            3 
  582000    1.1636065   -6.9731059    208.48303  0.029851522  0.030295372            2 
  583000    1.1758428   -6.9927383    208.30059   0.02977424  0.030286711            3 
  584000    1.1779954   -7.0155557    209.18886  0.029850009  0.030278494            3 
  585000    1.1413239   -7.0095593    208.08421  0.029641626  0.030269877            6 
  586000    1.1481311   -7.0163653    209.59365  0.029805695  0.030261162            2 
  587000    1.1647458   -7.0503856    209.40368  0.029727951   0.03025271            1 
  588000    1.1494187   -7.0114045    210.04084  0.029767693  0.030244654            2 
  589000    1.1755871   -6.9954162    210.55995  0.029790598  0.030236246            3 
  590000    1.1478966   -6.9986256    210.69123  0.029758648  0.030227733            4 
  591000    1.1506527   -6.9658706     211.3289   0.02979821  0.030219256            3 
  592000    1.1565504   -6.9849795    211.89612   0.02982772  0.030211045            4 
  593000    1.1473397   -7.0232308    210.90973  0.029638803  0.030202049            3 
  594000    1.1537332   -6.9934016    211.52734  0.029675553  0.030192553            2 
  595000    1.1638185   -7.0431083    211.55463    0.0296295  0.030184141            3 
  596000    1.1649204   -6.9976647    211.66412  0.029595095  0.030175113            2 
  597000     1.183357   -6.9955014    212.18891  0.029618776  0.030166092            2 
  598000    1.1555862   -7.0178818    212.43711  0.029603833  0.030157002            3 
  599000    1.1492769   -6.9877114    213.03443  0.029637512  0.030148169            3 
  600000    1.1615534   -7.0085414    212.97903  0.029580421  0.030138891            4 
  601000    1.1511655   -6.9994604    212.95094  0.029527307  0.030129439            2 
  602000    1.1756494    -7.011813    213.73327  0.029586554   0.03012015            4 
  603000    1.1608133   -6.9849262    213.73895  0.029538273  0.030110815            3 
  604000    1.1558626   -7.0486918    214.23021  0.029557149  0.030101583            3 
  605000    1.1687604    -7.013111    214.53755  0.029550626  0.030092667            2 
  606000    1.1735009   -6.9769718    215.64901  0.029654704  0.030084153            3 
  607000    1.1278971   -7.0142245    215.53237  0.029589837  0.030075495            3 
  608000    1.1381998   -7.0209709    216.13072   0.02962318  0.030066688            4 
  609000    1.1602405   -6.9940699    216.15873  0.029578371  0.030057816            2 
  610000     1.146869   -7.0120204    216.93618   0.02963609   0.03004911            5 
  611000    1.1426554    -7.006574    217.08071  0.029607298  0.030041101            5 
  612000    1.1415662   -7.0235767    217.93537  0.029675295  0.030033522            2 
  613000    1.1647464   -7.0038077    218.55816   0.02971155  0.030026185            6 
  614000    1.1480412   -6.9937694    218.70344  0.029682877  0.030018722            2 
  615000    1.1331318   -6.9972109    219.19685   0.02970147  0.030011415            2 
  616000    1.1476672    -6.988867    219.53203  0.029698597  0.030004106            3 
  617000    1.1570473   -6.9853772    220.16926  0.029736529  0.029996834            3 
  618000    1.1479983   -7.0238736    219.58226  0.029609258  0.029989701            5 
  619000    1.1181392   -6.9913981    220.63205  0.029702754  0.029982572            3 
  620000    1.1457122   -7.0166102    220.43982  0.029629008  0.029974907            3 
  621000    1.1534937   -7.0569333    220.80327  0.029630068  0.029967256            3 
  622000     1.127824   -6.9898923    221.77317  0.029712375  0.029959965            1 
  623000    1.1669083   -7.0033006    221.47113  0.029624282  0.029952494            2 
  624000     1.162282   -7.0225054    221.85486  0.029628052  0.029945349            5 
  625000    1.1179527   -7.0278472    222.17316  0.029623088  0.029938173            3 
  626000    1.1540007    -6.977546    223.48206  0.029750008  0.029931093            3 
  627000    1.1393425   -6.9636142     223.5397   0.02971022  0.029924268            3 
  628000    1.1655646   -6.9706841    223.11411  0.029606437  0.029916843            2 
  629000     1.150542   -7.0456739    223.60729  0.029624708  0.029909272            4 
  630000    1.1532164   -7.0097304    223.77609  0.029600011   0.02990212            3 
  631000    1.1691302   -7.0595304    224.20881   0.02961025  0.029894759            5 
  632000    1.1583653   -7.0128275    224.40177  0.029588841  0.029887824            1 
  633000    1.1550402   -7.0156279    225.48766  0.029685053  0.029881177            4 
  634000    1.1564303   -7.0090676    225.50839  0.029640956  0.029874684            2 
  635000    1.1683877   -7.0445768    225.38086  0.029577541  0.029867946            3 
  636000    1.1367234   -7.0517552    226.18513  0.029636416  0.029861106            1 
  637000    1.1582879   -7.0597844    225.99729  0.029565317  0.029854054            4 
  638000    1.1494149   -7.0280639    226.37648  0.029568506  0.029846716            4 
  639000    1.1149297   -7.0471497    226.65604   0.02955869  0.029840383            5 
  640000    1.1595761   -7.0424998    228.12993  0.029704418  0.029833635            1 
  641000    1.1582535   -7.0099824    228.37469  0.029689897  0.029827621            2 
  642000    1.1407652   -7.0245229    227.72286  0.029559043  0.029821639            4 
  643000    1.1343153   -7.0389392    228.57638  0.029623689  0.029815656            2 
  644000    1.1551433   -7.0400243    228.78232  0.029604337  0.029809075            2 
  645000    1.1447639   -6.9761017    229.33146  0.029629387  0.029802657            4 
  646000    1.1340563   -6.9726455    230.24324   0.02970114  0.029796757            3 
  647000    1.1607961   -7.0458791    229.51771  0.029561786  0.029790898            3 
  648000      1.16782   -7.0123921    230.65127  0.029661943  0.029784674            4 
  649000     1.154243   -7.0717844    229.92156  0.029522542    0.0297785            4 
  650000    1.1609352   -7.0181817    230.86891  0.029598578  0.029772464            3 
  651000    1.1284065   -7.0462934    232.30384  0.029736794  0.029766755            3 
  652000    1.1389604   -7.0431122     232.2016  0.029678118  0.029761539            1 
  653000    1.1467069   -7.0413366    232.39918  0.029657884  0.029756118            6 
  654000    1.1624097   -7.0230642    232.84522  0.029669371  0.029750713            3 
  655000    1.1451836   -7.0114886    233.29249  0.029680978  0.029745503            3 
  656000    1.1520782   -6.9988857    235.03609  0.029857227  0.029740878            4 
  657000    1.1400018   -7.0324532    234.57812  0.029753694  0.029736444            3 
  658000    1.1402142   -7.0202489    234.15199  0.029654508  0.029731969            4 
  659000    1.1338735   -7.0367825    234.83282  0.029695602  0.029727347            4 
  660000    1.1495519   -7.0230899    234.52002  0.029611114  0.029722846            1 
  661000    1.1282333   -7.0002594    234.89282  0.029613316   0.02971776            1 
  662000    1.1343036   -7.0320249    236.13849  0.029725389  0.029713164            1 
  663000    1.1381031   -7.0688737    235.57241  0.029609402   0.02970842            4 
  664000    1.1230272   -7.0652872    236.56744  0.029689689  0.029703788            1 
  665000    1.1572099   -7.0199546    237.26462  0.029732408  0.029699272            2 
  666000    1.1367986    -7.024782    237.57642  0.029726779  0.029695035            5 
  667000    1.1373225   -7.0191796    237.82738  0.029713566   0.02969057            4 
  668000    1.1227908   -6.9972273    237.20385  0.029591299  0.029685698            2 
  669000     1.151931   -7.0399064    237.15397  0.029540853  0.029680327            2 
  670000     1.148655    -7.012322    237.88827  0.029588094  0.029675586            3 
  671000    1.1454352    -7.040121    237.21464  0.029460338  0.029670097            1 
  672000    1.1471413   -7.0474563    238.11107  0.029527662  0.029664661            3 
  673000    1.1259173    -7.032509    238.20576  0.029495513  0.029659251            6 
  674000    1.1634925   -7.0213963    239.12399  0.029565281  0.029654117            5 
  675000     1.132831    -7.042481    240.08587   0.02964023  0.029649034            6 
  676000     1.164274   -7.0294795    239.66066  0.029543967  0.029643874            4 
  677000    1.1044175   -6.9730827    240.51492   0.02960548  0.029638633            2 
  678000    1.1575688   -7.0579106    239.20354  0.029400631   0.02963333            1 
  679000    1.1325323   -7.0771488     240.3743  0.029501018  0.029627469            4 
  680000    1.1676271   -7.0248761    240.80744  0.029510716  0.029621999            5 
  681000    1.1503897   -7.0338158    240.41812   0.02941974   0.02961597            4 
  682000    1.1686659   -7.0543314    241.17057  0.029468545  0.029610091            3 
  683000    1.0995657   -7.0499544    241.51954  0.029467977  0.029604503            2 
  684000    1.1662182   -7.0494836    242.19521  0.029507214  0.029598791            4 
  685000    1.1347694   -7.0450237    242.43247  0.029493002  0.029593068            3 
  686000    1.1116969   -7.0058048    242.65651  0.029477224  0.029587932            3 
  687000      1.14054   -7.0379328     242.4012  0.029403348  0.029582303            6 
  688000    1.1327583   -7.0386681    242.60582  0.029385395  0.029576542            5 
  689000    1.1326958   -7.1018231    242.37224  0.029314495  0.029570164            4 
  690000    1.1556549   -7.0373069    242.64401  0.029304833  0.029563656            2 
  691000    1.1360595   -7.0262827     244.1531  0.029444416   0.02955758            4 
  692000    1.1318275   -7.0563477    243.45802  0.029318162  0.029551497            2 
  693000    1.1519085   -7.0491155    243.88841  0.029327611  0.029545519            1 
  694000    1.1683142    -7.045181    244.46908  0.029355077  0.029539161            6 
  695000    1.1235584   -7.0466264    244.30054   0.02929263  0.029532831            3 
  696000    1.1529223    -7.071977    244.41349  0.029264067  0.029526262            6 
  697000    1.1342844   -7.0113244    244.89803  0.029280013  0.029519694            6 
  698000    1.1409723   -7.0387543    245.42443  0.029300911  0.029513118            4 
  699000    1.1340337    -7.032956    245.30649  0.029244932  0.029506603            2 
  700000    1.1387698   -7.0345969    245.77644    0.0292591  0.029500009            2 
  701000     1.135775   -7.0691101    245.78415  0.029218277  0.029493084            2 
  702000    1.1493663    -6.985847    247.50537   0.02938098   0.02948663            2 
  703000    1.1467121    -7.029042    246.41742  0.029210221  0.029480068            1 
  704000    1.1406963   -7.0554939    246.39002  0.029165485  0.029473034            1 
  705000    1.1525623   -7.0464122    246.99094  0.029195146  0.029466188            3 
  706000    1.1421628   -7.0689777    247.35001  0.029196177  0.029459257            4 
  707000    1.1722364   -7.0148387    248.26667  0.029262926  0.029452386            1 
  708000    1.1542834   -7.0677371     248.2183  0.029215902  0.029445952            2 
  709000    1.1052621   -7.0561533    248.88017  0.029252488  0.029439676            4 
  710000    1.1542081   -7.0699352    249.02911  0.029228768   0.02943311            3 
  711000    1.1178084    -7.052812    249.68553  0.029264596   0.02942661            2 
  712000    1.1248469   -7.0595482    249.06327  0.029150664   0.02942006            6 
  713000    1.1288312   -7.0622381    249.82497  0.029198805  0.029413217            7 
  714000    1.1366207   -7.1054656    248.92833   0.02905326  0.029406105            2 
  715000    1.1453045   -7.0568466    250.29192  0.029171553  0.029399376            1 
  716000    1.1287305   -7.0624961    250.21465  0.029121817  0.029392839            4 
  717000    1.1541218   -7.0572233    250.43828  0.029107192  0.029386181            4 
  718000    1.1548492   -7.0584843     250.6751  0.029094138  0.029379478            6 
  719000    1.1148246   -7.0690115    251.06839  0.029099257  0.029372782            1 
  720000     1.135339   -7.0682929    251.26719   0.02908185  0.029365882            2 
  721000    1.1406282   -7.0241992    252.69732   0.02920681   0.02935878           11 
  722000    1.1460897    -7.062615    251.63129  0.029043316  0.029351318            6 
  723000     1.146782   -7.0342868    251.77333  0.029019518  0.029343623            4 
  724000    1.1536125   -7.0814277    251.12097  0.028904347  0.029335459            3 
  725000     1.120459   -7.0488616    252.13156  0.028980639  0.029327452            1 
  726000    1.1321091   -7.0286176    253.34284  0.029079756  0.029319475            2 
  727000    1.1120078   -7.0830605    251.90521  0.028874967  0.029311238            2 
  728000    1.1427086    -7.102786    252.98747  0.028959188  0.029303299            4 
  729000    1.1553131   -7.0542485    253.47496   0.02897519  0.029295353            2 
  730000    1.1511258   -7.0686846    253.96183  0.028991076  0.029287463            3 
  731000    1.1368103   -7.1023533     253.6948  0.028920976  0.029279785            4 
  732000    1.1323189   -7.0924802    254.61775  0.028986539  0.029272359            2 
  733000    1.1473649   -7.0872724    254.56537  0.028941038  0.029264921            3 
  734000    1.1249463   -7.0912233    255.19167  0.028972715  0.029257647            2 
  735000    1.1456408   -7.0787627    255.12894  0.028926184  0.029250741            3 
  736000    1.1073562   -7.0720516    255.70906  0.028952566  0.029243419            4 
  737000    1.1232083   -7.0731479    256.42556  0.028994297  0.029236364            2 
  738000    1.1201559   -7.0580699    256.71256  0.028987417  0.029229472            3 
  739000    1.1444759   -7.0388754    257.04742  0.028985951  0.029222275            2 
  740000    1.1196937   -7.0594034    257.50954  0.028998822  0.029214977            4 
  741000    1.1434152   -7.0923248    257.13129  0.028917149  0.029207865            2 
  742000    1.1324925    -7.057164    257.75192   0.02894788  0.029200546            4 
  743000    1.1357955   -7.0867174    258.06439  0.028943965  0.029193662            6 
  744000    1.1449142   -7.0977686     257.0582  0.028792361  0.029186537            4 
  745000    1.1397815   -7.0358825    258.40295  0.028904133  0.029179263            4 
  746000    1.1478357   -7.0347364    259.35933  0.028972222  0.029172438            1 
  747000    1.1088199   -7.0163488    259.23322  0.028919369  0.029165575            3 
  748000    1.1201925   -7.0337078    260.10067  0.028977347  0.029158597            2 
  749000    1.1300412   -7.0743739    260.04336  0.028932283  0.029151635            3 
  750000    1.1338775   -7.0379657    259.79304  0.028865893  0.029144833            7 
  751000    1.1281426   -7.0644184    260.46211  0.028901699  0.029137536            2 
  752000    1.1345422   -7.0576677    260.08497  0.028821473   0.02913027            1 
  753000    1.0904738   -7.0695171    259.98959  0.028772642  0.029122607            4 
  754000    1.1066829   -7.0760299     259.9145  0.028726182  0.029115136            2 
  755000    1.1347898   -7.0956004    260.13437  0.028712402  0.029107342            6 
  756000    1.1496385   -7.0679258    261.44068  0.028818417  0.029099667            4 
  757000    1.1222661   -7.0352342     261.0858  0.028741282  0.029091923            2 
  758000    1.1324177   -7.0505489    261.90169  0.028793062  0.029084124            2 
  759000     1.146249   -7.0592938     262.8452  0.028858718  0.029076569            2 
  760000    1.1565564   -7.0525888    263.20511   0.02886021  0.029069049            3 
  761000    1.1106802   -7.0840257     262.4595  0.028740637  0.029061418            2 
  762000    1.1177859   -7.0612816    262.16247  0.028670437  0.029053691            4 
  763000    1.1688505   -7.0192673    263.46494  0.028775113  0.029045927            4 
  764000    1.1550354   -7.0472775    263.56771   0.02874866  0.029038429            2 
  765000    1.1007603   -7.0847169    263.45848  0.028699181  0.029030635            5 
  766000    1.1254745   -7.0876831    262.59043  0.028567279  0.029022708            4 
  767000    1.1301294   -7.0110348    264.42802  0.028729685  0.029014887            3 
  768000    1.1181091   -7.1075826    263.45813  0.028587036  0.029007097            5 
  769000    1.1432413   -7.0560632    264.47623   0.02866019  0.028999391            3 
  770000    1.1111821    -7.061174    264.69436  0.028646576    0.0289914            4 
  771000    1.1383277   -7.0454785    265.09452  0.028652672  0.028983522            2 
  772000    1.1367793   -7.0383214    265.39245  0.028647717  0.028975665            5 
  773000    1.1279216   -7.0883419    265.24491  0.028594751  0.028967745            3 
  774000    1.1282792     -7.05193    265.89546  0.028627849  0.028960192            8 
  775000    1.1216672   -7.0511392    266.44398   0.02864989   0.02895265            4 
  776000    1.0995113   -7.0794178    266.80674  0.028651926  0.028945039            3 
  777000    1.1159019   -7.0824533    267.07749   0.02864409  0.028937442            2 
  778000    1.1080243   -7.0547126    268.13213  0.028720237  0.028930055            4 
  779000    1.1014677   -7.0672216    268.10741  0.028680724   0.02892263            2 
  780000    1.1225277   -7.0774458    268.90603  0.028729277  0.028915189            2 
  781000    1.1151942   -7.0858423    268.53754  0.028653173  0.028908054            3 
  782000    1.0963746    -7.069246    269.09592  0.028676035  0.028901032            2 
  783000    1.1162279   -7.0652295    269.08758  0.028638525  0.028893868            3 
  784000    1.1174628   -7.0615919    269.40056  0.028635263   0.02888655            2 
  785000    1.1170313   -7.0709827    269.71402  0.028632061  0.028879218            1 
  786000    1.1062903   -7.1622159    268.83989  0.028502957  0.028871862            5 
  787000    1.1380898   -7.0805414      270.347  0.028626324   0.02886465            3 
  788000    1.1108266   -7.1231052    270.28954  0.028583919   0.02885725            3 
  789000    1.1418936   -7.0647683     270.8088  0.028602535  0.028850215            2 
  790000    1.1381846   -7.1180324    270.69981  0.028554832  0.028843111            3 
  791000    1.1398188   -7.0514082    272.35803  0.028693429   0.02883627            2 
  792000    1.1448866   -7.0856316     272.0032  0.028619865   0.02882974            2 
  793000    1.1217256   -7.0504353    272.82886   0.02867054  0.028822858            3 
  794000    1.1489132   -7.0786426    272.75595  0.028626779    0.0288161            3 
  795000    1.1409804   -7.0902613    272.73487  0.028588561  0.028809197            4 
  796000     1.127659    -7.102504    273.30241  0.028612061  0.028802242            3 
  797000    1.1439001   -7.1054354    273.29932  0.028575839  0.028795482            3 
  798000    1.1237969   -7.0855592    273.14316  0.028523721  0.028788735            4 
  799000    1.1306885   -7.0507466    274.56854  0.028636686  0.028781753            2 
  800000    1.1148662   -7.0710238    274.68617  0.028613142  0.028775116            2 
  801000    1.1225051   -7.1103766    274.58127  0.028566508  0.028768777            6 
  802000    1.1389668   -7.0577113    275.65984  0.028642959   0.02876208            4 
  803000     1.141703   -7.0479995     276.3125  0.028675021   0.02875537            1 
  804000    1.1008619    -7.077598    275.86319  0.028592785  0.028749068            3 
  805000    1.1257827   -7.0916713    275.73224   0.02854371  0.028742659            3 
  806000    1.1462638   -7.0701862    277.06304  0.028645889  0.028736035            3 
  807000    1.1259696   -7.0805134    276.91232  0.028594829  0.028729472            2 
  808000     1.142771   -7.0723473    277.05756  0.028574418  0.028723207            9 
  809000     1.102714    -7.032438    278.12964   0.02864953  0.028716908            5 
  810000    1.1231938   -7.1089624    277.77234  0.028577401  0.028710288           14 
  811000    1.0882566   -7.0897083    278.16512  0.028582524  0.028703485            6 
  812000    1.1244137   -7.0970664    276.71661  0.028398667  0.028696565            4 
  813000     1.135582   -7.1312237    277.49213  0.028443227   0.02868971            2 
  814000    1.1169607   -7.0982877    278.42026  0.028503303  0.028682848            3 
  815000    1.1088678   -7.0978566     279.8238   0.02861184  0.028676493            4 
  816000    1.1201871   -7.0722588    278.83013  0.028475299  0.028670054            3 
  817000    1.1176696   -7.0988496    279.84992  0.028544463  0.028664125            2 
  818000    1.1260075   -7.1207052    279.37771  0.028461462  0.028657801            2 
  819000    1.1374191   -7.1168367     279.8283  0.028472558  0.028651475            3 
  820000    1.1172422    -7.110464    280.09901  0.028465346  0.028644994            5 
  821000    1.1256881   -7.0933402    281.68983  0.028592147  0.028638831            3 
  822000    1.1252733    -7.106859    280.81191  0.028468361  0.028632485            1 
  823000    1.1195021   -7.1109739    280.34332  0.028386322  0.028626009            3 
  824000     1.128011   -7.0759062    282.07476  0.028526978  0.028619206            2 
  825000    1.1124109   -7.1159313    281.68652  0.028453184   0.02861257            5 
  826000    1.1139806   -7.0983166    282.45684  0.028496453  0.028606033            1 
  827000    1.1455019   -7.1191534    281.88547   0.02840442  0.028599343            5 
  828000     1.126501   -7.1033501    282.09295  0.028390997  0.028592453            3 
  829000    1.0964604   -7.1102383    281.91992  0.028339357  0.028585823            2 
  830000    1.1187223   -7.0924571    282.98228  0.028411876  0.028578616            4 
  831000    1.1134742   -7.1412619    283.14412  0.028393915  0.028571733            7 
  832000    1.1265456   -7.0598441    283.71112  0.028416578  0.028564603            2 
  833000    1.1206251   -7.0709184    283.73424  0.028384778  0.028557765            2 
  834000    1.1038592   -7.0679283    283.83175  0.028360486  0.028550747            3 
  835000    1.1301349   -7.1056098    283.73549  0.028316915  0.028543465            6 
  836000    1.1218576   -7.1259939    283.81208  0.028290678  0.028536235            3 
  837000    1.1110939   -7.1205535    283.98654  0.028274248  0.028528752            3 
  838000     1.128613   -7.1210865    283.95748  0.028237617  0.028521287           11 
  839000    1.1105367    -7.126248    284.50298  0.028258142  0.028513637           13 
  840000    1.1168661   -7.1206839    284.16288  0.028190762  0.028505877            3 
  841000    1.1116658   -7.0631273    285.49046  0.028288789  0.028498234            5 
  842000    1.1211472   -7.0614233    285.23971  0.028230375  0.028490835            2 
  843000    1.1269922   -7.1185752    284.58194  0.028131864  0.028483252            4 
  844000    1.1290333   -7.0923637    284.96245  0.028136103  0.028475635            6 
  845000    1.1128287   -7.0934065    285.85871  0.028191194  0.028467756            2 
  846000    1.1080027   -7.1061395    285.96851  0.028168687  0.028460027            4 
  847000    1.1193415   -7.1081386    285.40938  0.028080419  0.028452499            3 
  848000    1.1177796   -7.1173458    285.71253  0.028077096  0.028444659            4 
  849000    1.1149022   -7.1221433    286.81382  0.028152122  0.028436741            3 
  850000    1.1326903   -7.0874864    287.31801  0.028168432   0.02842905            2 
  851000    1.1127011   -7.1209142    285.95675  0.028002032  0.028420925            4 
  852000    1.1140629   -7.1456924    286.38077  0.028010638  0.028412678            2 
  853000    1.1297753   -7.1025084    287.33866  0.028071381  0.028404519            2 
  854000    1.1356551   -7.1173417    287.15377  0.028020469  0.028396276            3 
  855000    1.1132173   -7.1027085    286.48351   0.02792237  0.028387864           12 
  856000    1.0837938    -7.142266    287.36006  0.027975084  0.028379543            2 
  857000    1.1289854   -7.1543212    287.14479  0.027921508  0.028371707            2 
  858000    1.1296839   -7.0896569    289.54387  0.028121976  0.028363605            3 
  859000    1.0998295   -7.1330966    288.02842  0.027942221  0.028355486            4 
  860000    1.1184279   -7.1237032     289.4053   0.02804315   0.02834733            1 
  861000    1.0879159   -7.1510813    289.15328  0.027986187  0.028339368            4 
  862000    1.1188752   -7.1283775    288.84582  0.027923997  0.028331383            6 
  863000    1.1213035   -7.1097671    290.44301  0.028045868  0.028323713            1 
  864000    1.1146838   -7.1570685    290.29723  0.027999347  0.028315772            3 
  865000    1.1222717   -7.0965202    290.36222  0.027973239  0.028307774            4 
  866000    1.1052427   -7.0502449    291.59345  0.028059416  0.028299997            4 
  867000    1.1207804    -7.148991    290.18409  0.027891589  0.028292412            5 
  868000    1.0943242   -7.0940542    292.30108    0.0280627   0.02828496            5 
  869000    1.1031876     -7.11627    291.34386  0.027938614  0.028277337            6 
  870000    1.0997603   -7.1567803    291.32182  0.027904389   0.02826922            2 
  871000    1.1402542   -7.1039125    292.81751  0.028015452  0.028261015            4 
  872000    1.1133816   -7.1275202    292.86512  0.027987875  0.028253144            4 
  873000    1.0920979   -7.1301827    292.41287  0.027912645  0.028245385            4 
  874000    1.1081977   -7.1253051    293.19534  0.027955314   0.02823745            3 
  875000    1.1267619   -7.1495453    292.92828  0.027897931  0.028229657            3 
  876000    1.1052946   -7.1005372    294.21541  0.027988529  0.028221879            5 
  877000    1.1077724   -7.1244214    293.69913  0.027907557   0.02821399            2 
  878000    1.1149833   -7.1302186    294.11278  0.027915032    0.0282061            2 
  879000    1.1136165   -7.1506676    293.98616   0.02787127  0.028198291            5 
  880000    1.0666805   -7.1219691    294.85223  0.027921613  0.028190829            4 
  881000    1.0958566   -7.1228013    295.09363  0.027912754  0.028183416            3 
  882000    1.1241239   -7.1474256     294.6241  0.027836744  0.028175805            4 
  883000    1.1085511   -7.1237526    296.00591  0.027935627  0.028168214            4 
  884000    1.1202247   -7.1177951    295.50198  0.027856522  0.028160726            5 
  885000    1.1027603   -7.1739369    295.91328  0.027863774  0.028152714            2 
  886000    1.1086002   -7.1096927    296.12184  0.027851941  0.028144838            4 
  887000    1.1317825   -7.1240725      295.998  0.027808906  0.028136925            3 
  888000    1.1066473   -7.1277882    297.07459  0.027878621  0.028129016            3 
  889000    1.1135806   -7.0943891    296.77522  0.027819199  0.028121303            6 
  890000    1.1190137   -7.1223827    297.27188  0.027834446  0.028113632            3 
  891000    1.1233807   -7.1039787    297.85469  0.027857715  0.028106117            2 
  892000    1.1269457   -7.1229461     297.3782  0.027781969  0.028098397            5 
  893000    1.0798708   -7.1564736    296.40877  0.027660393  0.028090399            4 
  894000    1.1118914   -7.0979501     297.8895  0.027767478  0.028082298            3 
  895000    1.1022102   -7.1087311    297.97539  0.027744449  0.028073969            3 
  896000    1.1096455   -7.1701228    297.57582  0.027676323  0.028065744            2 
  897000    1.1264954   -7.1656802    296.95256  0.027587566  0.028057315            3 
  898000    1.1043824    -7.132428    299.02779  0.027749423  0.028048873            2 
  899000    1.1253087   -7.0973756    299.41014  0.027753998  0.028040843            2 
  900000    1.1234935   -7.1305417    299.11454  0.027695791  0.028032822            2 
  901000    1.1302405   -7.1241915    299.88789  0.027736579  0.028025031            3 
  902000    1.1084396    -7.149593    299.57451  0.027676877  0.028016831            3 
  903000    1.1017291   -7.1259149    299.96787  0.027682528  0.028008848            2 
  904000    1.1025531   -7.1148936    299.66572  0.027624052  0.028000737            3 
  905000    1.1022213   -7.1493305    299.60206  0.027587667  0.027992661            2 
  906000     1.113506   -7.1934737    300.35435  0.027626412  0.027984704            4 
  907000    1.1170846   -7.1175052    301.88984   0.02773703  0.027976803            2 
  908000    1.1093248   -7.0761974    302.15988  0.027731266  0.027969321            3 
  909000    1.1103844   -7.1185377    301.92326  0.027679067  0.027961605            2 
  910000    1.1236221   -7.0790242    303.12959   0.02775912  0.027953781            5 
  911000    1.1032897   -7.1160744    302.46933  0.027668251  0.027946144            5 
  912000    1.1012851   -7.1370194    301.91617  0.027587369   0.02793827            3 
  913000    1.1078808   -7.1165185    301.92388  0.027557857  0.027930614            2 
  914000    1.1008428   -7.1314501    302.92643  0.027619113   0.02792276            4 
  915000    1.0926857   -7.1251214    302.56785  0.027556271  0.027914849            2 
  916000    1.1134451   -7.2001241    302.45998  0.027516373  0.027906717            4 
  917000    1.0940943   -7.1412883    303.20077  0.027553686  0.027898893            6 
  918000     1.125805   -7.1339852    304.54655  0.027645838  0.027890981            5 
  919000    1.0985218   -7.1153806    305.15623   0.02767104  0.027883178            5 
  920000    1.1206526   -7.1333281    304.37565  0.027570258  0.027875458            3 
  921000    1.0837146   -7.1548748    304.95591  0.027592826  0.027867661            3 
  922000    1.1059496   -7.1238433    305.32562  0.027596314  0.027859656            3 
  923000    1.0978387   -7.1313755    305.42453  0.027575346    0.0278518            5 
  924000    1.0999958   -7.1434388    304.33209  0.027446978  0.027843679            3 
  925000    1.1101266   -7.1264848    306.35193  0.027599273  0.027835536            3 
  926000    1.0985778   -7.1046377     305.5742  0.027499478  0.027827788            4 
  927000    1.1028576   -7.0925682    306.38727  0.027542905  0.027820025            3 
  928000    1.1351141   -7.1088288    306.39133  0.027513589  0.027812138            6 
  929000    1.0974252    -7.130832    305.92326  0.027441986  0.027804046            2 
  930000    1.0934007   -7.1500847    306.24139  0.027440984  0.027795883            3 
  931000    1.1033024   -7.1883422    305.93264  0.027383874  0.027787573            5 
  932000    1.0854784   -7.1477854    306.63129  0.027416961  0.027779145            4 
  933000    1.1204641   -7.1615781    306.71094  0.027394689  0.027770697            6 
  934000    1.1046724   -7.1180269    306.62173  0.027357399  0.027762352            3 
  935000    1.0734349   -7.1634808    306.97695    0.0273598  0.027753834            4 
  936000     1.092697   -7.1901299    307.21715  0.027351954  0.027745321            4 
  937000    1.1056429   -7.1354735    308.56183  0.027442354  0.027737014            4 
  938000    1.1088385   -7.1786525    307.84938  0.027349802  0.027728617            3 
  939000    1.0952327    -7.160853    308.41526  0.027370896  0.027719976            3 
  940000    1.1365519   -7.1650824    307.86641  0.027293122  0.027711425            3 
  941000    1.1060134   -7.1843049    307.58924  0.027239572  0.027702831            5 
  942000    1.0928971   -7.1320749    309.05307  0.027340151  0.027694005            5 
  943000    1.0878351   -7.1689311    308.87746   0.02729564  0.027685148            1 
  944000    1.0855002   -7.1956891    307.76336  0.027168375  0.027676226            2 
  945000    1.1304052   -7.1648299    309.23317  0.027269239  0.027667535            4 
  946000    1.1133704   -7.1354551    308.96103  0.027216441  0.027658874            2 
  947000    1.1213927   -7.1582539    309.31038  0.027218443  0.027650423            3 
  948000    1.0860368   -7.1689106    310.13146  0.027261907  0.027642107            3 
  949000    1.1128474   -7.1419657    310.76513  0.027288824  0.027633456            3 
  950000    1.1208928   -7.1384667    310.49216  0.027236154  0.027625065            2 
  951000    1.1029621   -7.1520767    311.18068  0.027267848  0.027616841            4 
  952000    1.1008063   -7.1290215    311.62254  0.027277884  0.027608908            2 
  953000    1.1168737   -7.1601037    311.64335   0.02725108  0.027600828            5 
  954000    1.0778602   -7.1205572    311.66479  0.027224388   0.02759276            3 
  955000    1.1069096   -7.2111734    312.22034  0.027244358  0.027584541            4 
  956000     1.115568   -7.1389431    311.93748  0.027191203  0.027576239            2 
  957000    1.1035873   -7.1694206    313.40002  0.027290145  0.027568444            3 
  958000    1.1125869   -7.1250322    313.68089   0.02728609  0.027560394            4 
  959000    1.0944527   -7.1730848    314.21611  0.027304146  0.027552277            5 
  960000    1.1009015   -7.1829546     312.3608  0.027114652  0.027544309            2 
  961000    1.0839592   -7.1653723    313.50638  0.027185777  0.027536228            4 
  962000    1.1070326   -7.1500427    313.88959  0.027190713  0.027528186            2 
  963000     1.108143   -7.1866316     314.0378  0.027175303  0.027520089            4 
  964000    1.0736955   -7.2031896    313.99623  0.027143519  0.027511901            3 
  965000    1.0795222   -7.1792843    314.67301  0.027173835  0.027503622            4 
  966000    1.1019046   -7.1415057    315.98399  0.027258798  0.027495566            4 
  967000    1.0812775   -7.1883456    314.96131  0.027142478  0.027487723            3 
  968000    1.0839791   -7.1388876      315.968  0.027201102   0.02747972            4 
  969000    1.1193042   -7.2162712    315.62203  0.027143277  0.027471826            2 
  970000    1.0795453   -7.1918371    315.88327  0.027137738  0.027463597            1 
  971000    1.0900215    -7.173397    317.46632  0.027245651  0.027455626            7 
  972000     1.096252   -7.1805434    316.33422   0.02712056  0.027447527            2 
  973000    1.0832914   -7.2069514    316.06025  0.027069223  0.027439384            3 
  974000    1.1280658   -7.2108804    316.58797  0.027086582   0.02743137            5 
  975000    1.0982661   -7.1306471    319.24408  0.027285819  0.027423767            2 
  976000    1.0754423   -7.1708495    317.80303  0.027134821  0.027416134            2 
  977000    1.0772322   -7.1751645    318.53118  0.027169155  0.027408423            2 
  978000    1.1027305   -7.2189009    318.75576  0.027160511   0.02740082            6 
  979000     1.099304    -7.161063    318.99559  0.027153183  0.027393287            2 
  980000    1.0856097   -7.1422773    319.57154  0.027174451  0.027385545            4 
  981000    1.0646493   -7.1609147    319.55063  0.027144973   0.02737772            4 
  982000    1.0931183   -7.2054245    318.88038  0.027060453  0.027370031            1 
  983000    1.0713406    -7.180917    319.09446  0.027051073  0.027362196            3 
  984000    1.0972316   -7.2032898    319.46794  0.027055212  0.027354362            2 
  985000    1.0966098   -7.2197975    319.11858  0.026998188  0.027346381            3 
  986000    1.0873648   -7.1386823    321.07032  0.027135761  0.027338299            2 
  987000    1.1048719   -7.1360903    320.36743  0.027048922  0.027330508            5 
  988000    1.1009806   -7.1859776    319.71499  0.026966514  0.027322571            4 
  989000    1.0894363   -7.2019731    320.42439  0.026999022   0.02731456            4 
  990000    1.0854983   -7.1698022     321.3768  0.027051919  0.027306571            2 
  991000    1.0921598   -7.1480767    322.73313  0.027138675  0.027298654            3 
  992000     1.060387   -7.2077468    321.16937  0.026979954  0.027290577            5 
  993000     1.078833   -7.1630465    322.74281  0.027084828  0.027282535            7 
  994000    1.0860112   -7.1572672      322.831  0.027064973  0.027274541            2 
  995000    1.0763397   -7.1975784    322.42575  0.027003832  0.027266542            6 
  996000    1.0849683   -7.1309712    322.40509  0.026974991   0.02725843            3 
  997000    1.0882173   -7.1754866    323.41278  0.027032162  0.027250638            3 
  998000    1.0769926   -7.1050143    324.40942  0.027088295  0.027242777            3 
  999000    1.0772816   -7.2241187    322.32392  0.026887213  0.027235027            4 
 1000000     1.089587   -7.2273221     323.0884  0.026924033  0.027227153            4 
 1001000    1.0714092   -7.1656985    324.86776  0.027045268  0.027219227            3 
 1002000    1.1100205   -7.2059726    323.80783  0.026930125  0.027211458            4 
 1003000    1.0650571   -7.1986971     323.5471  0.026881614  0.027203505            4 
 1004000    1.1038424     -7.21016    324.28839  0.026916367  0.027195606           17 
 1005000    1.0801902   -7.1967817    324.78249  0.026930555   0.02718787            6 
 1006000    1.0828465   -7.1519412    325.84328  0.026991657  0.027180282            2 
 1007000    1.0925535   -7.1982087    325.36834   0.02692555   0.02717259            2 
 1008000    1.0800465   -7.1850829    324.74544  0.026847341  0.027164537            1 
 1009000    1.1118142   -7.1914452    325.60034  0.026891339  0.027156755            4 
 1010000    1.1002883   -7.2137312    326.04681  0.026901552  0.027148989            2 
 1011000    1.0757523   -7.2026963    326.57137  0.026918181  0.027141192            5 
 1012000    1.0945463   -7.1917652    326.28008  0.026867595  0.027133484            6 
 1013000    1.0752511   -7.1876578    327.31429  0.026926151  0.027125948            2 
 1014000     1.106272   -7.2173544    327.27339  0.026896235  0.027118326            5 
 1015000    1.0881164   -7.2060359     328.1169  0.026938991  0.027110629            3 
 1016000    1.0820648   -7.1339296    328.52136   0.02694565   0.02710332            5 
 1017000    1.1046142   -7.2218333    327.79947  0.026860003  0.027095707            5 
 1018000    1.1071193   -7.2071591     327.4375  0.026803986  0.027087867            3 
 1019000    1.1002424   -7.1721563    328.17211  0.026837759  0.027080011            3 
 1020000    1.0798567   -7.1778814    328.85755  0.026867447    0.0270724            2 
 1021000    1.0846515   -7.1797656    329.23887  0.026872255  0.027064663            4 
 1022000    1.0813761   -7.1914563    329.77778  0.026889904  0.027056826            2 
 1023000    1.1104078   -7.1782615    329.39267  0.026832247  0.027049187            2 
 1024000    1.0770635    -7.213755    329.62628  0.026825055  0.027041523            5 
 1025000    1.0928439   -7.2029663    329.39649  0.026780203  0.027033475            5 
 1026000    1.1074098   -7.2328255    328.53006  0.026683728  0.027025197            3 
 1027000    1.0766181   -7.2091567    328.73588  0.026674447  0.027016908            3 
 1028000    1.0743964   -7.1869753    328.91572  0.026663077  0.027008687            2 
 1029000    1.0709576   -7.1854001    329.39771  0.026676199  0.027000839            6 
 1030000    1.0829046   -7.1308386    330.64753  0.026751419  0.026992943            2 
 1031000    1.0981793   -7.2019718    329.05146  0.026596464  0.026984768            4 
 1032000    1.0907587   -7.1142492    330.95088  0.026724069  0.026976467            2 
 1033000    1.0914625   -7.2315131    329.95148  0.026617577  0.026968295            3 
 1034000    1.0795733    -7.262017    329.49507  0.026555051  0.026959802            3 
 1035000    1.0627134   -7.1706118    331.30447  0.026675078  0.026951399            7 
 1036000    1.1186917   -7.1904033    331.91005  0.026698042  0.026943336            4 
 1037000    1.0946373    -7.171164     330.9647  0.026596328  0.026935112            3 
 1038000    1.0747227   -7.1850297     331.5592  0.026618433   0.02692682            4 
 1039000    1.0800097   -7.2246695    331.93913  0.026623286  0.026918639            4 
 1040000    1.0988751   -7.1953148    332.07731  0.026608759   0.02691039            3 
 1041000    1.0866054   -7.2010534    332.36271  0.026606045  0.026902531            5 
 1042000    1.0941222    -7.226396    332.41127  0.026584394  0.026894465            2 
 1043000    1.0705835   -7.2199283    333.33832  0.026632975  0.026886288            4 
 1044000    1.0742679   -7.1744409    333.66688  0.026633691  0.026878065            3 
 1045000    1.0517897   -7.2111987    333.16939  0.026568532  0.026869877            1 
 1046000    1.0816089   -7.1688984    333.35411  0.026557848  0.026861559            5 
 1047000    1.1140311   -7.2135732    332.65021  0.026476458  0.026853025            5 
 1048000    1.0817196   -7.1837444    332.48733  0.026438242  0.026844463            3 
 1049000    1.0645384   -7.1927455    333.37566  0.026483608   0.02683594            1 
 1050000    1.0731374   -7.1860088    334.47345  0.026545512  0.026827255            3 
 1051000    1.0817148   -7.2446116    333.18013  0.026417708  0.026818622            2 
 1052000    1.0597899   -7.2215137     334.4598  0.026493964  0.026809941            3 
 1053000    1.0912245   -7.2231478    333.93945  0.026427623  0.026801274            3 
 1054000    1.1013349   -7.1870274    334.62881  0.026457053  0.026792784            6 
 1055000    1.0934539   -7.2028984    334.15511  0.026394558  0.026784192            3 
 1056000    1.0906396   -7.2252988    334.51418    0.0263979  0.026775412            4 
 1057000    1.0744695   -7.2067428    334.46166  0.026368785  0.026766533            3 
 1058000    1.0997555   -7.2112597    335.14406   0.02639761  0.026757508            2 
 1059000    1.0669675   -7.2240623    335.18356  0.026375792  0.026748698            4 
 1060000    1.0675358   -7.1809815    334.87486   0.02632664  0.026739813            5 
 1061000    1.1043648   -7.1605742     335.2831  0.026333891   0.02673094            2 
 1062000    1.0824538   -7.1863583    335.68598  0.026340708  0.026722314            4 
 1063000    1.0662645   -7.2419812    335.67722  0.026315242  0.026713653            4 
 1064000    1.0834532   -7.2156367     336.0251  0.026317755  0.026704886            2 
 1065000     1.080523    -7.184252    335.85988  0.026280116  0.026696146            5 
 1066000    1.0847553   -7.1776904    336.89131  0.026336094  0.026687249            3 
 1067000    1.0635213   -7.1970627    336.64267  0.026291992  0.026678479            3 
 1068000    1.0949083   -7.2229178    336.91254  0.026288432  0.026669794            3 
 1069000    1.0938761   -7.2149617    336.29655  0.026215821  0.026661133            5 
 1070000    1.0855702   -7.2480097    336.72324  0.026224551  0.026652189            3 
 1071000    1.0645273    -7.245237    336.38278  0.026173574  0.026643174            3 
 1072000    1.0832267   -7.2317579    337.49042  0.026235263  0.026634095            5 
 1073000    1.0585597   -7.2342315    337.01611  0.026173976  0.026625222            5 
 1074000    1.0841121   -7.1639028    339.52996  0.026344659  0.026616637            5 
 1075000    1.0826375   -7.1805272    338.63902  0.026251087   0.02660813            2 
 1076000    1.0609986   -7.1729208    338.54376  0.026219312  0.026599575            4 
 1077000    1.0789505   -7.2191415     338.1974  0.026168168  0.026591163            2 
 1078000    1.0783779   -7.1952645    338.25451  0.026148308  0.026582541            3 
 1079000    1.0503097   -7.1870404    340.13531  0.026269332  0.026573997            2 
 1080000    1.0832456   -7.2186261    340.01793  0.026235951  0.026565441            4 
 1081000    1.0825431   -7.2289547    339.45422  0.026168226  0.026556678            4 
 1082000     1.104622   -7.2166922    339.81743  0.026172014  0.026547916            2 
 1083000    1.1052245   -7.1862072    341.34096  0.026265078  0.026539204            2 
 1084000    1.0844688   -7.2387496    339.63221  0.026109487  0.026530487            5 
 1085000    1.0582576   -7.2037134    340.52261  0.026153811  0.026521818            3 
 1086000    1.0591167   -7.2272176    339.31076  0.026036737  0.026513199            3 
 1087000    1.0638967   -7.2315952    340.32202  0.026090311  0.026504629            1 
 1088000    1.0939818   -7.2069804     341.7142  0.026172962  0.026496086            5 
 1089000    1.0735347   -7.2557238    341.42936  0.026127132  0.026487554            2 
 1090000    1.0726576   -7.1907116     342.7285  0.026202485  0.026479094            4 
 1091000    1.0844269   -7.2127786     342.3202   0.02614728  0.026470685            2 
 1092000    1.0629479   -7.2584789    341.23062  0.026040188  0.026462179            6 
 1093000    1.1065157   -7.2163455    342.77031  0.026133753  0.026453716            5 
 1094000     1.090593   -7.2370967    342.20156  0.026066542  0.026445246            4 
 1095000    1.0819617   -7.2276112    343.18012  0.026117209  0.026436792            5 
 1096000    1.0925737   -7.2414308    342.90431  0.026072408  0.026428131            1 
 1097000    1.1055204   -7.2112684    344.09739  0.026139273  0.026419783            6 
 1098000    1.0635636   -7.2134606    343.61044   0.02607851  0.026411458            3 
 1099000    1.0827152   -7.1664576    345.50881  0.026198727  0.026403126           10 
 1100000     1.075715   -7.2108175    344.45681  0.026095213  0.026394952            5 
 1101000     1.073747   -7.1932171    345.58425  0.026156846  0.026386602            9 
 1102000    1.0780152   -7.1998526    344.98761  0.026087992  0.026378341            3 
 1103000    1.0924937   -7.2025526    345.74572  0.026121617  0.026370129            3 
 1104000    1.0807936    -7.218071    345.34597  0.026067782  0.026361728            8 
 1105000    1.0730564   -7.2438446    346.00611  0.026093975  0.026353289            4 
 1106000    1.0878252   -7.2355088    346.00188  0.026070063  0.026344867            6 
 1107000    1.0958754   -7.2194676    346.15629  0.026058137  0.026336414            4 
 1108000    1.0810068   -7.2453566    346.78216   0.02608169  0.026327996            8 
 1109000    1.1043886   -7.2086848    347.12522  0.026083951  0.026319766            2 
 1110000    1.0942581   -7.2325559    346.91013  0.026044304  0.026311717            7 
 1111000    1.0981466   -7.2362466     346.8004  0.026012631  0.026303579            4 
 1112000    1.0798348   -7.2178538    347.38302    0.0260329  0.026295501            2 
 1113000    1.0806865   -7.2284514    347.58015   0.02602427  0.026287508            3 
 1114000     1.047873   -7.2549553    346.38896  0.025911802  0.026279304            2 
 1115000    1.0665458   -7.2922475    347.66894  0.025984226  0.026270823            5 
 1116000     1.069075   -7.2042641    348.49337  0.026022504  0.026262649            6 
 1117000    1.0855181   -7.2313936    347.89999  0.025954938  0.026254627            2 
 1118000    1.0740796   -7.1833309    349.49126  0.026050332  0.026246402            2 
 1119000    1.0634302   -7.1989811    348.22018  0.025932393  0.026238131            3 
 1120000    1.0729716   -7.2154757    348.82695  0.025954386  0.026229755            3 
 1121000    1.0837737   -7.2758426    348.41267  0.025900436   0.02622113            2 
 1122000     1.059619   -7.2325248    348.22755  0.025863603   0.02621276            5 
 1123000    1.0411439   -7.2192892    348.47304  0.025858789  0.026204367            2 
 1124000    1.0850365   -7.2377086     349.2055  0.025890088  0.026195981            3 
 1125000    1.0927253   -7.2204358    349.89919  0.025918459  0.026187569            6 
 1126000    1.0846368   -7.2733497    348.70611  0.025807142  0.026179177            4 
 1127000    1.0753584    -7.245629    349.79218   0.02586455  0.026170595            2 
 1128000    1.0718555   -7.2445356    348.83449   0.02577087  0.026162044            6 
 1129000     1.064361   -7.1870931    351.88559   0.02597325  0.026153748            2 
 1130000    1.0482067   -7.2049128    351.28815  0.025906206  0.026145606            1 
 1131000    1.0711833   -7.2214765    351.30577  0.025884598  0.026137457            4 
 1132000    1.0662074   -7.2308334    351.31156  0.025862159  0.026129165            5 
 1133000    1.0824525   -7.2594834    350.87015  0.025806866  0.026120897            3 
 1134000    1.0839764   -7.2367388    351.66808  0.025842746  0.026112606            5 
 1135000    1.0690303   -7.2653285    351.16929  0.025783355  0.026104213           15 
 1136000    1.0744215   -7.2394417    351.67474  0.025797737  0.026095895            4 
 1137000    1.0642605   -7.2592416    352.13466  0.025808756  0.026087736            5 
 1138000    1.0838092   -7.2261543    352.74772  0.025830969  0.026079693            3 
 1139000    1.0906479    -7.206289    353.75798  0.025882205  0.026071583            3 
 1140000    1.0735804   -7.2084788     353.9078  0.025870453  0.026063674            4 
 1141000    1.0625483    -7.240445    353.30304  0.025803611  0.026055732            5 
 1142000    1.0431518   -7.2178012    354.70971  0.025883662  0.026047943            2 
 1143000    1.0681314   -7.2351076    354.66025  0.025857411  0.026040018            2 
 1144000    1.0577607    -7.207583    353.93604  0.025782054  0.026031921            6 
 1145000    1.0661691   -7.2076886    354.70882   0.02581578  0.026023642            5 
 1146000    1.0801507   -7.2262313    355.38561  0.025842467  0.026015561            2 
 1147000    1.0548072   -7.2544911    354.18774  0.025732907  0.026007367            3 
 1148000    1.0733086    -7.236129    355.68014  0.025818825  0.025999314            3 
 1149000    1.0552697   -7.2244715    355.79507   0.02580469  0.025991306            6 
 1150000    1.0715123   -7.2477315    355.00081  0.025724696   0.02598332            3 
 1151000    1.0517374   -7.2779804    355.86676  0.025765042   0.02597515            7 
 1152000    1.0665731   -7.2470988    356.60272  0.025795914  0.025967041            6 
 1153000    1.0609149   -7.2578207    356.13766  0.025739929  0.025958956            4 
 1154000    1.0609329   -7.2376057    356.17492  0.025720315  0.025950659            6 
 1155000     1.072442   -7.2194841    356.31034  0.025707817  0.025942448            4 
 1156000     1.064815   -7.2211916    356.33538  0.025687383  0.025934268            3 
 1157000    1.0501478   -7.2199153    356.03388  0.025643466  0.025926044            6 
 1158000    1.0659729   -7.2451683    356.80516  0.025676825  0.025917839            4 
 1159000    1.0866782   -7.2321506    357.27205  0.025688241  0.025909672            3 
 1160000    1.0812495   -7.2249694    358.24674  0.025736116  0.025901721            4 
 1161000    1.0984948    -7.240679     357.6748  0.025672897  0.025893744            4 
 1162000    1.0552429   -7.2780182    357.54584  0.025641555  0.025885693            4 
 1163000    1.0717871   -7.2352911    359.15851  0.025735061  0.025877815            2 
 1164000    1.0691394   -7.2218069    359.21122  0.025716725  0.025869719            2 
 1165000    1.0912744   -7.2468282    358.31084  0.025630246  0.025861666            2 
 1166000    1.0639287   -7.3002577    358.47691  0.025620134   0.02585355            3 
 1167000    1.0471334   -7.2487626    359.10768  0.025643222  0.025845469            2 
 1168000     1.051363   -7.2578518    359.16677  0.025625483   0.02583749            5 
 1169000    1.0514074   -7.2131793    361.08285  0.025740152  0.025829684            3 
 1170000    1.0327869   -7.2204231    360.56193  0.025681049  0.025821935            5 
 1171000    1.0516906   -7.2008467    360.84324  0.025679137  0.025814291            3 
 1172000    1.0624708   -7.2230661    360.96177  0.025665655  0.025806715            3 
 1173000    1.0463028   -7.2302962    361.20593  0.025661121  0.025799091            2 
 1174000    1.0845381   -7.2571841    361.34279  0.025648977  0.025791484            5 
 1175000    1.0482599   -7.2529408    361.58403  0.025644257  0.025783946            3 
 1176000    1.0659244   -7.2055859    362.19972   0.02566608  0.025776328            5 
 1177000    1.0374873   -7.2536383    361.92992  0.025625171  0.025768778            2 
 1178000    1.0560309   -7.2452801    362.42202   0.02563823  0.025761016            3 
 1179000    1.0446096   -7.3110668    360.58544  0.025486673  0.025753178            5 
 1180000    1.0556269   -7.2863604    362.11315  0.025572962  0.025745274            2 
 1181000    1.0731871   -7.2349734     361.0526  0.025476475  0.025737438            5 
 1182000    1.0808122   -7.2384669    362.34768  0.025546226  0.025729674            3 
 1183000    1.0563602   -7.2848885    362.07664  0.025505539  0.025721967            3 
 1184000    1.0534054   -7.2563299    363.13513  0.025558497  0.025714237            4 
 1185000    1.0573045   -7.2373519    363.81482  0.025584727  0.025706359            1 
 1186000    1.0641394   -7.2698395    363.07429  0.025511122  0.025698586            4 
 1187000    1.0506116   -7.2706966    362.92084  0.025478857  0.025690674            4 
 1188000    1.0709812   -7.2491573    362.82155  0.025450446  0.025682839            2 
 1189000    1.0655313   -7.3079389    363.16855  0.025453361  0.025675015            2 
 1190000    1.0406838   -7.2296922     364.6293  0.025534264  0.025667203            3 
 1191000    1.0445412   -7.2913158    364.29463  0.025489409  0.025659317            4 
 1192000    1.0408735   -7.2648182    364.39757  0.025475222  0.025651313            2 
 1193000    1.0635255   -7.2576687    364.99565  0.025495645  0.025643436            3 
 1194000      1.03037   -7.2417282     364.7455  0.025456833  0.025635805            3 
 1195000    1.0726824     -7.25304    365.48382  0.025487017   0.02562799            3 
 1196000    1.0437911   -7.2988052    364.78139  0.025416763  0.025620116            4 
 1197000    1.0806916   -7.2829825    365.45601  0.025442496  0.025612261            2 
 1198000    1.0595434   -7.2946035    364.52061  0.025356191  0.025604179            3 
 1199000    1.0599615   -7.2455861    366.13909  0.025447532  0.025596082            4 
 1200000    1.0628446   -7.2834943    365.64043  0.025391697  0.025588182            5 
 1201000    1.0596357   -7.2446267    367.29092  0.025485076  0.025580284            8 
 1202000    1.0533376   -7.2748668    366.07805  0.025379787  0.025572431            2 
 1203000    1.0465489   -7.2803634    366.47634   0.02538628  0.025564608            4 
 1204000    1.0694159   -7.2664938      365.625  0.025306271  0.025556874            4 
 1205000    1.0662684   -7.2550531    367.12115  0.025388738  0.025549228            4 
 1206000    1.0721659   -7.2569037    367.21752  0.025374345   0.02554151            3 
 1207000    1.0698212   -7.2042938    368.31351  0.025428991  0.025533907            3 
 1208000    1.0373182   -7.2873261     367.8303  0.025374607  0.025526287            2 
 1209000    1.0603807   -7.2361832    368.50303  0.025399988   0.02551861            3 
 1210000    1.0702304   -7.2645046    368.93915  0.025409032  0.025511015            3 
 1211000    1.0742115   -7.2469961    368.12173  0.025331801  0.025503457            3 
 1212000    1.0619408   -7.2193243    370.62018  0.025482686  0.025495852            4 
 1213000    1.0560026   -7.2599701    369.55486   0.02538849  0.025488301            2 
 1214000    1.0633058   -7.2311347    370.18545  0.025410863  0.025480682            4 
 1215000     1.078982   -7.2459316    370.21094  0.025391697  0.025473207            7 
 1216000    1.0428143   -7.2965562    368.91487  0.025281995  0.025465674            2 
 1217000    1.0483169   -7.2614471    370.01814  0.025336766  0.025457901            5 
 1218000    1.0673501   -7.2863699    369.93943  0.025310579  0.025450371            2 
 1219000      1.04566   -7.2773397    370.01843  0.025295217  0.025442696            5 
 1220000    1.0424668   -7.2734606    370.11865  0.025281329  0.025435152            4 
 1221000    1.0582842   -7.2360504    370.78988  0.025306434  0.025427661            5 
 1222000    1.0884953    -7.280368    371.20707  0.025314176  0.025420107            2 
 1223000    1.0421343   -7.2297712     371.7721  0.025331978  0.025412531            4 
 1224000    1.0554828   -7.2854747    369.87188  0.025181909  0.025404905            8 
 1225000    1.0577452   -7.2751445    372.41628  0.025334441  0.025397289            4 
 1226000    1.0586385   -7.2554247    371.35761  0.025241817  0.025389872            3 
 1227000    1.0518712   -7.2814084     371.1868  0.025209644  0.025382235            2 
 1228000    1.0772869   -7.2680624    371.60268  0.025217337  0.025374475            3 
 1229000    1.0683825    -7.286832    371.73282  0.025205643  0.025366713            3 
 1230000    1.0584999   -7.2469862    372.37919  0.025228942  0.025358926            2 
 1231000    1.0884359   -7.2575009    371.89898   0.02517594  0.025351148            3 
 1232000    1.0406091   -7.2868597    373.17272  0.025241662  0.025343301            4 
 1233000    1.0437686   -7.3265962    372.58104    0.0251812  0.025335684            2 
 1234000    1.0566139   -7.2923961    373.19222  0.025202068  0.025328069            4 
 1235000    1.0593759   -7.2666471    373.99584  0.025235887  0.025320283            5 
 1236000    1.0675487   -7.3115573    373.32048  0.025169935  0.025312721            3 
 1237000    1.0701447   -7.2875277    373.16055  0.025138814  0.025305023            4 
 1238000    1.0472602   -7.2306759    374.40786  0.025202467  0.025297479            3 
 1239000     1.062424   -7.2740777    373.87474   0.02514627  0.025289709            3 
 1240000    1.0404039   -7.3016316    373.32994  0.025089378  0.025281927            3 
 1241000    1.0411482   -7.2856821    373.48102  0.025079306  0.025274135            2 
 1242000    1.0538095   -7.2855043    375.25339  0.025178032  0.025266509            6 
 1243000    1.0588797   -7.2643873    375.04308  0.025143677   0.02525896            7 
 1244000    1.0337577   -7.2779643    374.71944  0.025101784  0.025251299            2 
 1245000    1.0464723   -7.2817904    374.74708  0.025083472  0.025243543            5 
 1246000    1.0480084   -7.2638278    375.78889  0.025133018  0.025235779            5 
 1247000    1.0404976   -7.2604941    375.87793  0.025118814  0.025228263            6 
 1248000    1.0396533   -7.2782253    376.01083  0.025107561  0.025220805            3 
 1249000     1.052967    -7.317199      375.739  0.025069322  0.025213245            5 
 1250000    1.0518751   -7.3138361    375.32107  0.025021405  0.025205729            4 
 1251000    1.0507175    -7.303006    378.21463  0.025194153  0.025198105            4 
 1252000    1.0518911   -7.2805919    377.16932  0.025104454  0.025190839            3 
 1253000    1.0754576    -7.254487    378.97642  0.025204604  0.025183545            7 
 1254000    1.0651474   -7.2920842    378.28974  0.025138871  0.025176267            3 
 1255000    1.0485592   -7.2929715    377.14462  0.025042804  0.025168913            8 
 1256000    1.0646968   -7.2875073    378.79617  0.025132442  0.025161453            7 
 1257000    1.0473892   -7.2944336     378.8705  0.025117376  0.025153917            5 
 1258000    1.0651402   -7.2965947    378.05655  0.025043492  0.025146369            5 
 1259000    1.0545808   -7.2935095    379.02437   0.02508766  0.025138842            2 
 1260000    1.0426985   -7.3104099    378.25121  0.025016614  0.025131418            4 
 1261000    1.0446623   -7.2645484    378.32287  0.025001511   0.02512398            3 
 1262000    1.0334244   -7.2949551     378.9866  0.025025528  0.025116655            3 
 1263000    1.0473164   -7.2950789    378.05307  0.024944119  0.025109331            7 
 1264000    1.0456145   -7.3034982    379.55573  0.025023453  0.025101926            3 
 1265000    1.0196837   -7.2674125    380.39589  0.025059018  0.025094625            4 
 1266000    1.0496277   -7.2911036    381.12627  0.025087301   0.02508729            3 
 1267000    1.0245322   -7.3045996    380.14819   0.02500317  0.025080054            8 
 1268000    1.0290039   -7.2967306    381.11461  0.025046965  0.025072745            2 
 1269000    1.0471176   -7.3126542    381.17369  0.025031106  0.025065486            6 
 1270000    1.0444965   -7.2787281    381.28322  0.025018584   0.02505824            3 
 1271000    1.0417639   -7.2860245    382.57615  0.025083671  0.025051167            5 
 1272000    1.0544063   -7.2616783    382.91438   0.02508611  0.025044147            5 
 1273000    1.0575955   -7.2796762    383.13122  0.025080598  0.025037113            2 
 1274000    1.0586901   -7.2614549    382.60103  0.025026232  0.025029823            3 
 1275000    1.0346666   -7.2999933    383.54015  0.025067983  0.025022735            1 
 1276000    1.0311204   -7.3063627    383.20702  0.025026582  0.025015722            8 
 1277000    1.0306765   -7.2965412    383.43323  0.025021746  0.025008623            3 
 1278000    1.0648482   -7.3105657    382.59098  0.024947247  0.025001519            3 
 1279000     1.034536   -7.3374086       382.82  0.024942664  0.024994259            4 
 1280000    1.0587886   -7.2933583    383.73772  0.024982924  0.024986962           12 
 1281000    1.0427271   -7.3283181    382.96396  0.024913086   0.02497975            3 
 1282000    1.0615141    -7.347308    383.32538  0.024917146  0.024972493            4 
 1283000     1.031045    -7.322468    382.91065  0.024870788  0.024965122            3 
 1284000    1.0315196   -7.3146243    383.43957  0.024885746  0.024957743            5 
 1285000    1.0543677   -7.3081985     382.9016  0.024831492  0.024950305            2 
 1286000    1.0481832   -7.3092346    383.62694  0.024859185  0.024942898            7 
 1287000    1.0599556   -7.3568833     383.8381  0.024853542   0.02493544            6 
 1288000    1.0370704   -7.3639108     383.2191  0.024794196  0.024927957            4 
 1289000    1.0490934   -7.3260584     384.5115  0.024858514  0.024920553            5 
 1290000    1.0289617   -7.2868928    385.50501  0.024903424  0.024913297            4 
 1291000    1.0492781   -7.3180407     384.9641  0.024849219  0.024906052           10 
 1292000    1.0578199   -7.3214962    385.65144  0.024874319  0.024898729            4 
 1293000    1.0520642   -7.2619876     387.0776  0.024946997  0.024891478            4 
 1294000    1.0556967   -7.2786802    386.99261  0.024922244  0.024884403            6 
 1295000    1.0296461    -7.306378    386.47894  0.024869945  0.024877403            2 
 1296000    1.0680318   -7.3646035    386.50392  0.024852361  0.024870293            8 
 1297000    1.0456663    -7.322814    385.97804  0.024799411  0.024863172            5 
 1298000    1.0369873   -7.3271947    386.43403  0.024809581   0.02485613            2 
 1299000    1.0437712      -7.3001    387.33823  0.024848488  0.024849125            4 
 1300000    1.0540259   -7.3207597    387.34239   0.02482964  0.024842039            5 
 1301000    1.0607907   -7.3163647    388.00893  0.024853249  0.024835095            5 
 1302000    1.0556263   -7.2953479    388.98607  0.024896702  0.024828166            4 
 1303000    1.0399931    -7.338041    387.42067  0.024777479  0.024821142            2 
 1304000    1.0404359    -7.311321    389.13064  0.024867756  0.024814012            3 
 1305000    1.0653155   -7.3080609    388.65065  0.024818049  0.024806922            5 
 1306000    1.0344838   -7.2885468     388.4625  0.024787041  0.024799992            3 
 1307000    1.0373398   -7.2980565    387.64107  0.024715702  0.024792951            3 
 1308000     1.038428   -7.2665735    389.67243  0.024826225  0.024786073            4 
 1309000    1.0390772   -7.3233387    389.52138  0.024797643  0.024779105            3 
 1310000     1.067843   -7.2818508    390.22517  0.024823484  0.024772186            4 
 1311000    1.0585356   -7.2976087    390.34348   0.02481207  0.024765239            5 
 1312000    1.0442957   -7.3269598    389.54028  0.024742142  0.024758326            5 
 1313000    1.0286535   -7.2995914    390.64336  0.024793308  0.024751305            3 
 1314000    1.0434066   -7.3204643     390.9775   0.02479563  0.024744327            3 
 1315000    1.0273363   -7.3255794    390.61975  0.024754103  0.024737304            5 
 1316000    1.0463265   -7.3436276    390.68658  0.024739525  0.024730162            2 
 1317000    1.0390596   -7.3415111     389.1228  0.024621792  0.024723025            6 
 1318000    1.0500595   -7.3325441    390.53822  0.024692604   0.02471585            5 
 1319000    1.0456631   -7.2992589    392.77919  0.024815466   0.02470866            5 
 1320000    1.0570721   -7.2712495     391.7228  0.024729975  0.024701698            5 
 1321000    1.0556492   -7.2998051    393.31109  0.024811449   0.02469454            8 
 1322000    1.0289905   -7.3051878      393.474   0.02480295  0.024687615            5 
 1323000    1.0220843   -7.3340156    392.37529  0.024714997  0.024680502            4 
 1324000    1.0347853   -7.3177961    392.52317  0.024705638  0.024673376            9 
 1325000    1.0171538   -7.2961544    392.69114  0.024697556  0.024666297            4 
 1326000    1.0273999   -7.2917175    392.99056  0.024697747  0.024659277            5 
 1327000     1.034573   -7.3015737     392.2537  0.024632862   0.02465212            3 
 1328000     1.006749   -7.3170782    391.89824  0.024592008  0.024644866            3 
 1329000    1.0361488    -7.345197    392.07485  0.024584578  0.024637711            3 
 1330000     1.038855   -7.3332103    391.55618  0.024533595  0.024630435            5 
 1331000    1.0389373   -7.3272653    392.76093  0.024590592  0.024622892            4 
 1332000    1.0381079   -7.3677204    392.29628  0.024543061  0.024615372            1 
 1333000    1.0447561   -7.3583365    392.08802  0.024511629  0.024607878            4 
 1334000    1.0263777   -7.3191349    393.66159  0.024591554  0.024600515            4 
 1335000    1.0572793   -7.3431055    392.16631  0.024479794  0.024593154            4 
 1336000    1.0358189   -7.3361863    392.75471  0.024498173  0.024585807            2 
 1337000    1.0448262    -7.345609    392.30816  0.024452017  0.024578484            4 
 1338000    1.0520223   -7.3306532    393.84642  0.024529548  0.024571088            3 
 1339000    1.0282191   -7.3220266    394.19999  0.024533233  0.024563794            7 
 1340000    1.0198172   -7.3467203     394.2579  0.024518526  0.024556513            2 
 1341000    1.0342828   -7.2803064    395.43676    0.0245735  0.024549319            1 
 1342000    1.0229551   -7.3018199     395.5148  0.024560035  0.024542134            6 
 1343000    1.0436236   -7.3182455    394.36478  0.024470388   0.02453497            4 
 1344000    1.0404297   -7.3360875    394.33172  0.024450131  0.024527768           10 
 1345000    1.0366919    -7.306211    395.60795  0.024511026  0.024520414            6 
 1346000    1.0513702   -7.3335399    395.24903  0.024470594  0.024513146            5 
 1347000    1.0201264   -7.3380694    395.08778  0.024442451  0.024505908            3 
 1348000    1.0352124    -7.345645    396.57008  0.024515954  0.024498726            2 
 1349000    1.0299633   -7.3702526     393.7742  0.024325068  0.024491436            2 
 1350000    1.0514382    -7.332222    395.57964  0.024418496  0.024484188            3 
 1351000    1.0406478   -7.3257675    395.10933  0.024371412  0.024476759            4 
 1352000     1.032168   -7.3507569    395.70693   0.02439022  0.024469389            6 
 1353000    1.0475018   -7.3143563    395.26348   0.02434488  0.024462036            3 
 1354000    1.0329541    -7.354113    396.97178   0.02443204  0.024454969            2 
 1355000    1.0463228   -7.3368824    397.17532  0.024426526  0.024447768            5 
 1356000    1.0456435   -7.3553806     396.3004  0.024354744   0.02444065            3 
 1357000    1.0450427   -7.3399923    396.73575  0.024363532  0.024433443            7 
 1358000    1.0064689   -7.3544121    397.38271  0.024385291  0.024426251            3 
 1359000    1.0116865    -7.374422    396.58636  0.024318516  0.024419035            3 
 1360000    1.0529718   -7.3333979    397.70738  0.024369325  0.024411787            4 
 1361000    1.0606857   -7.3575434    397.50354  0.024338939  0.024404546            4 
 1362000    1.0339525   -7.3496138    398.00803  0.024351935  0.024397268            2 
 1363000    1.0379187   -7.3414268    399.73629  0.024439734  0.024390091            5 
 1364000    1.0100196   -7.3231451      399.216  0.024390029  0.024383054            5 
 1365000    1.0143649   -7.3168745    399.01517    0.0243599   0.02437594            4 
 1366000    1.0278254   -7.3191352    399.40206   0.02436567  0.024368815            5 
 1367000     1.035895    -7.344773    399.27537  0.024340123  0.024361609            7 
 1368000    1.0341721   -7.3482401    398.21296  0.024257612  0.024354378            8 
 1369000    1.0191652   -7.3184974    398.02947  0.024228723  0.024347093            2 
 1370000     1.028348   -7.3362371    399.49228  0.024300017   0.02433988            5 
 1371000      1.02175   -7.3665277    400.27963   0.02433015  0.024332716            3 
 1372000     1.060462   -7.3178815    400.53372   0.02432785  0.024325572            7 
 1373000    1.0296834   -7.3403766    400.05263  0.024280931  0.024318412            8 
 1374000    1.0276036    -7.368903    400.06232  0.024263848  0.024311119            6 
 1375000   0.99016757   -7.2987747     402.2189  0.024376903  0.024303932            3 
 1376000     1.015014   -7.3087578    401.42678  0.024311215  0.024296852            3 
 1377000    1.0146946   -7.3230507    401.32477  0.024287386  0.024289701            2 
 1378000    1.0493859    -7.340659    400.35369  0.024211036  0.024282448            3 
 1379000    1.0339776   -7.3739478    401.67232  0.024273164  0.024275026            4 
 1380000    1.0205927   -7.3860685    399.98668  0.024153785  0.024267586            6 
 1381000    1.0289605   -7.3675011    401.47883  0.024226336  0.024260333           12 
 1382000    1.0304302   -7.4215706    400.34009   0.02414014  0.024252933            9 
 1383000    1.0205407   -7.3469672    401.33115  0.024182402  0.024245477            3 
 1384000     1.058297   -7.3954296    400.59297  0.024120482  0.024238095            2 
 1385000    1.0170639   -7.3325156    402.25749  0.024203218  0.024230701            2 
 1386000    1.0413934   -7.3446938     402.1369  0.024178505  0.024223495            2 
 1387000    1.0400533   -7.3362468    402.37953  0.024175651    0.0242162            3 
 1388000    1.0116745   -7.3121866    402.85712  0.024186907  0.024208871            3 
 1389000    1.0227787    -7.317765    403.47014  0.024206272  0.024201608            6 
 1390000    1.0365763   -7.3206458    403.87513  0.024213137  0.024194388            5 
 1391000    1.0241146   -7.3262439     402.0689  0.024087521   0.02418709            4 
 1392000    1.0211775   -7.3286815    402.39049  0.024089469  0.024179614            3 
 1393000    1.0176801   -7.3478368    402.92731   0.02410429  0.024172231            4 
 1394000    1.0368557   -7.3553244    403.17141   0.02410159  0.024164764            2 
 1395000    1.0356884    -7.316433    404.42265  0.024159059  0.024157441            5 
 1396000    1.0350787    -7.324729    403.93416  0.024112593  0.024150085            2 
 1397000    1.0234063   -7.3290555    404.32499  0.024118647  0.024142734            2 
 1398000    1.0320364   -7.3962861    402.97809  0.024021107  0.024135317            5 
 1399000    1.0240483   -7.3767773     404.0488  0.024067715  0.024127766            3 
 1400000    1.0378794   -7.3149545    404.72185  0.024090586  0.024120473            3 
 1401000     1.025902   -7.3467042    404.11134  0.024037077  0.024113151            3 
 1402000     1.036731   -7.3896968    405.11686  0.024079699  0.024105729            3 
 1403000    1.0219558   -7.3610099    403.40243  0.023960705  0.024098128            4 
 1404000    1.0362671   -7.3723718    404.35843  0.024000382  0.024090514            3 
 1405000    1.0103998   -7.3821567    404.97192  0.024019687  0.024083014            2 
 1406000    1.0195928   -7.3644082    404.66901   0.02398465  0.024075599            9 
 1407000    1.0221645   -7.4245622    403.82516  0.023917624  0.024068121            2 
 1408000      1.02481   -7.3620757    404.80289  0.023958505  0.024060697            4 
 1409000    1.0284509   -7.3374474    405.28663  0.023970111  0.024053219            4 
 1410000    1.0173682   -7.4094756    405.29311  0.023953493  0.024045653           11 
 1411000    1.0286604   -7.3463931    406.50719   0.02400822  0.024038214            2 
 1412000    1.0239699   -7.3851303    404.97788  0.023900961  0.024030642            5 
 1413000    1.0096704   -7.3767972    405.05834  0.023888791  0.024022975            1 
 1414000    1.0028765   -7.3394719    406.03438  0.023929419  0.024015473            4 
 1415000    1.0297419   -7.4253291    405.43568  0.023877248  0.024007802            4 
 1416000    1.0289504   -7.3292185    407.32764   0.02397173  0.024000419            1 
 1417000    1.0404295   -7.3603184    407.04648  0.023938278  0.023993059            5 
 1418000    1.0269144   -7.3498938    407.12429  0.023925969  0.023985664            4 
 1419000    1.0176631    -7.361751    406.43154  0.023868425  0.023978242            4 
 1420000    1.0187261   -7.3738043     407.7509  0.023929044  0.023970895            2 
 1421000    1.0260151   -7.3797598    406.01379  0.023810332  0.023963329            3 
 1422000    1.0143663   -7.4052375    406.10572  0.023798976  0.023955717            4 
 1423000    1.0300089   -7.3632777    406.63777  0.023813409  0.023948107            5 
 1424000   0.99851983   -7.3560242    408.05209  0.023879453  0.023940542            7 
 1425000     1.034884   -7.3759365    407.62469  0.023837701  0.023933057            4 
 1426000    1.0269032   -7.3858986    408.53122  0.023873961  0.023925535            5 
 1427000    1.0208551   -7.3998288    407.52134  0.023798256  0.023917935            2 
 1428000    1.0275387   -7.3697308    408.29896   0.02382697  0.023910266            4 
 1429000      1.00993   -7.3594671    407.52216  0.023764996  0.023902497            3 
 1430000    1.0014546   -7.3557247    408.18841  0.023787203   0.02389466            5 
 1431000   0.99417745   -7.3688707    408.51244   0.02378945  0.023886994            6 
 1432000     1.000751   -7.3910524    407.73619  0.023727665  0.023879173            3 
 1433000   0.99864712   -7.3989208    407.20051  0.023679955  0.023871088            9 
 1434000    1.0298795   -7.3673033    408.66878  0.023748767  0.023863021            3 
 1435000    1.0170011   -7.3756258    407.86414   0.02368549  0.023855167            3 
 1436000    1.0297361   -7.3453381    408.17329  0.023686936  0.023847382            9 
 1437000    1.0277052   -7.3579752    409.13824  0.023726412  0.023839491            7 
 1438000    1.0199478   -7.3762085    407.40645  0.023609553  0.023831544            6 
 1439000   0.99944404   -7.3865028    407.25231   0.02358422  0.023823565            7 
 1440000    1.0380346   -7.3566517    408.95075  0.023666131  0.023815657            2 
 1441000    1.0266799   -7.3311811    409.58856  0.023686593  0.023807714            4 
 1442000    1.0131497   -7.3825757    407.14905  0.023529187  0.023799672            3 
 1443000    1.0183653   -7.3867225    408.57783  0.023595393   0.02379163            8 
 1444000    1.0213356   -7.3318262    410.18842     0.023672  0.023783789            1 
 1445000    1.0455075   -7.3987296      407.637  0.023508478   0.02377579            1 
 1446000    1.0281642   -7.3578525    409.37916  0.023592621  0.023767652            7 
 1447000     1.016606   -7.4215482    407.65814  0.023477202  0.023759569            3 
 1448000    1.0204577   -7.3599435    411.49878   0.02368202  0.023751626            4 
 1449000    1.0248351   -7.3731033    408.92524   0.02351767   0.02374371            6 
 1450000    1.0362375   -7.3955751    410.17326  0.023573176  0.023735706            5 
 1451000     1.017854   -7.3901906    409.68514  0.023528896  0.023727554            4 
 1452000    1.0201116   -7.3804543    410.74193  0.023573343  0.023719539            4 
 1453000    1.0223469   -7.4082311    410.74503  0.023557297  0.023711688            3 
 1454000    1.0079861   -7.3789835    409.35058  0.023461175  0.023703656            6 
 1455000    1.0403641   -7.3624474    411.21433  0.023551794   0.02369573            4 
 1456000    1.0197011   -7.3474641    410.55443   0.02349785  0.023687788            9 
 1457000    1.0327948    -7.355929    410.36847  0.023471086  0.023679724            6 
 1458000    1.0450248   -7.3746382     410.3717  0.023455172  0.023671468            7 
 1459000    1.0269015   -7.3913906      410.268  0.023433173  0.023663249            6 
 1460000    1.0152087   -7.4102839    409.43111  0.023369356  0.023654822            3 
 1461000    1.0151359   -7.3914508    409.88135  0.023379041  0.023646524            5 
 1462000    1.0280037   -7.3976748    409.95595  0.023367302  0.023638272            2 
 1463000    1.0242855   -7.4216303    409.63746  0.023333188  0.023629975            4 
 1464000    1.0144552   -7.4062875    409.77479  0.023325068  0.023621673            4 
 1465000    1.0331826   -7.4265445    409.59132   0.02329871  0.023613386            5 
 1466000    1.0287568   -7.3933736    410.74521  0.023348409  0.023605136            1 
 1467000     1.001349   -7.3960705    410.49068  0.023318034  0.023596855            3 
 1468000    1.0083443   -7.3985177    410.14985  0.023282802   0.02358865            4 
 1469000    1.0176297   -7.3821924    411.40978  0.023338427  0.023580463           15 
 1470000    1.0311397   -7.4042458    410.50013  0.023270983   0.02357223            6 
 1471000    1.0229816    -7.341453    412.42458  0.023364184  0.023563913            3 
 1472000    1.0209803   -7.4065179    411.43885  0.023292507  0.023555601            5 
 1473000    1.0210184   -7.3857336    412.45572  0.023334223  0.023547371            2 
 1474000    1.0416799   -7.4036704    411.32142  0.023254264  0.023539081            4 
 1475000    1.0077527    -7.392244    411.55771  0.023251848  0.023530743            8 
 1476000    1.0245346   -7.3832078    411.38936   0.02322659  0.023522498            5 
 1477000    1.0044347   -7.4074675    410.80301  0.023177782  0.023514169            2 
 1478000    1.0273332   -7.4019823    412.51149  0.023258429  0.023505889            2 
 1479000    1.0357466   -7.3804246    412.52231  0.023243312  0.023497532            3 
 1480000    1.0138593   -7.3916364    412.35561  0.023218221   0.02348931            5 
 1481000    1.0358364   -7.3686123    412.75839  0.023225208  0.023481041           12 
 1482000     1.009467    -7.382672    413.54949   0.02325402  0.023472671            5 
 1483000    1.0089366    -7.389297    411.91399  0.023146437  0.023464241            6 
 1484000    1.0081788   -7.3880351    412.84168  0.023182934  0.023455761            5 
 1485000    1.0291036   -7.4129504    411.01569  0.023064853  0.023447272            3 
 1486000     1.014979   -7.3777171    413.08541    0.0231654  0.023438807            4 
 1487000    1.0245115   -7.4156618    411.19713  0.023043999  0.023430381            6 
 1488000    1.0202446   -7.4001674    413.83781  0.023176401  0.023421919            2 
 1489000   0.99434288   -7.3603952    414.25925  0.023184422  0.023413593            4 
 1490000    1.0258624   -7.4025328    414.90149  0.023204781  0.023405227            5 
 1491000     1.001889   -7.3558268    413.94152  0.023135565  0.023396944            4 
 1492000   0.99287017   -7.4239118    413.81293  0.023112876  0.023388618            5 
 1493000    1.0088747   -7.4144441    413.73849   0.02309324  0.023380184            3 
 1494000    1.0082999   -7.4182115    412.81244  0.023026129  0.023371807            2 
 1495000    1.0137801   -7.3923592    414.74904  0.023118675  0.023363378            2 
 1496000    1.0262128   -7.4428243     413.6551  0.023042285  0.023354962            6 
 1497000    1.0077828   -7.4168093     413.1833  0.023000629  0.023346573            3 
 1498000    1.0056185   -7.4076983    414.19051  0.023041306  0.023338176            2 
 1499000    1.0103121   -7.4253511    412.89847  0.022954107  0.023329682            4 
 1500000      1.02612   -7.4056801    413.44413  0.022969119  0.023321267            3 
 1501000    1.0112683   -7.3935171    415.48349  0.023067038  0.023312886            5 
 1502000    1.0153294   -7.3950446    414.07161  0.022973347  0.023304461            7 
 1503000    1.0152557    -7.486121    413.95821  0.022951775  0.023296012            5 
 1504000    1.0267294   -7.3989041    415.52489  0.023023321  0.023287585            4 
 1505000    1.0036407   -7.4242663    415.84192  0.023025577  0.023279237            8 
 1506000    1.0234833   -7.4118584    415.66742  0.023000632  0.023270902            5 
 1507000   0.99708353   -7.4225621    416.04259  0.023006116  0.023262636            4 
 1508000    1.0132283   -7.3939336    416.91838  0.023039256  0.023254418            2 
 1509000    1.0294617   -7.4129732    417.43927  0.023052754    0.0232461            4 
 1510000    1.0073403   -7.4230637    416.26059  0.022972439    0.0232379            4 
 1511000    1.0121767   -7.4243523    416.17691   0.02295262  0.023229702            4 
 1512000    1.0004894   -7.3940131     417.5146  0.023011166  0.023221516            6 
 1513000    1.0353996   -7.4264383    417.30002  0.022984138   0.02321348            3 
 1514000    1.0042879   -7.3916004     417.1816  0.022962439  0.023205431            6 
 1515000   0.99610676   -7.3993881    417.37763  0.022958066   0.02319732            3 
 1516000    1.0123377   -7.3830123     418.4506  0.023001902   0.02318928            3 
 1517000    1.0428351   -7.4292605    417.95152  0.022959323  0.023181288            4 
 1518000     1.005317   -7.4010159     419.3119  0.023018879  0.023173319            2 
 1519000     1.029381   -7.4172421    418.21999  0.022943822  0.023165204            5 
 1520000     1.000015   -7.4506226    417.65933  0.022897989  0.023157065            5 
 1521000    1.0224463   -7.4404537    418.54825  0.022931638  0.023148815            6 
 1522000    1.0438385   -7.4489492    417.85949  0.022878859  0.023140619            7 
 1523000    1.0022077   -7.4261311    418.15429  0.022879968  0.023132471            3 
 1524000    1.0210254   -7.4417811    418.64344  0.022891702  0.023124241           10 
 1525000    1.0112783   -7.4358045    419.00561  0.022896481  0.023116055            6 
 1526000    1.0133946   -7.4332131    417.93131  0.022822811  0.023107864           11 
 1527000   0.99756425   -7.4098227    420.75616  0.022962026  0.023099703            3 
 1528000    1.0147355   -7.4272869    418.77693  0.022839056  0.023091611            2 
 1529000    1.0054854   -7.4096469    420.59897  0.022923423  0.023083578            4 
 1530000    1.0243695   -7.4195117    420.26921   0.02289048  0.023075488            7 
 1531000   0.98355635   -7.4025596    421.09077  0.022920247  0.023067457            4 
 1532000    1.0107989   -7.4077635    419.93489  0.022842411  0.023059436            3 
 1533000   0.99574348   -7.4565882    419.03924  0.022778824  0.023051348            5 
 1534000    1.0236294   -7.4158694    421.08597  0.022875161   0.02304321            3 
 1535000    1.0017958   -7.4383124    420.54226  0.022830742  0.023035263            6 
 1536000    1.0207501   -7.4033726    421.62327  0.022874527  0.023027334            5 
 1537000    1.0090191   -7.4373101    420.48395  0.022797872   0.02301937            5 
 1538000   0.98312825   -7.4426214    421.60573   0.02284383  0.023011403            6 
 1539000    1.0008771   -7.3845245    422.42126  0.022873146  0.023003442            4 
 1540000    1.0198772   -7.4407453    421.12384  0.022788086  0.022995455            6 
 1541000    0.9927598   -7.4048952    422.31351  0.022837633  0.022987293            4 
 1542000    1.0169154   -7.4857494    419.78357  0.022686099  0.022979198            6 
 1543000    1.0204367   -7.4217797    421.20303  0.022748057  0.022971081            6 
 1544000    1.0016282   -7.3876323     422.2379  0.022789178  0.022962922            3 
 1545000   0.99859968   -7.4201681    420.38986   0.02267475  0.022954825            4 
 1546000    1.0085363   -7.4317905    422.01846  0.022747869  0.022946579            7 
 1547000   0.99530193   -7.4078761    422.32255  0.022749545  0.022938441           11 
 1548000   0.98955812   -7.4020654    423.42198  0.022794034  0.022930413            3 
 1549000   0.99778602   -7.4253813      423.274  0.022771358  0.022922379            3 
 1550000    1.0288724    -7.420202    423.10049  0.022747338  0.022914359            4 
 1551000    1.0142875   -7.4303915    423.67896  0.022763753  0.022906353            5 
 1552000   0.99324337   -7.4566827    422.38481  0.022679597  0.022898321           14 
 1553000   0.99360619    -7.445672    421.96124  0.022642264  0.022890164            5 
 1554000    0.9786828   -7.4404762    423.65995  0.022718788  0.022882126            3 
 1555000    1.0088066   -7.4348466    422.66786  0.022651011  0.022874064            3 
 1556000    1.0309922   -7.4247165    423.46173   0.02267897  0.022865947            2 
 1557000    1.0105693   -7.4426549     423.0393  0.022641795  0.022857851            5 
 1558000    1.0398643   -7.4006307    423.02101  0.022626284  0.022849743            7 
 1559000    1.0254808   -7.4236985    423.78939  0.022652843  0.022841631            3 
 1560000      1.01161   -7.4281899    424.91566  0.022698486  0.022833522            5 
 1561000    1.0141762   -7.4367782    424.14094  0.022642587  0.022825414           11 
 1562000    1.0157907   -7.4409664    423.06851  0.022570876  0.022817273            6 
 1563000    1.0089524   -7.4107835    424.28582  0.022621338  0.022809089            3 
 1564000    1.0092504   -7.4490725    423.69784  0.022575545  0.022800956            3 
 1565000    1.0002516   -7.4562843    424.25026  0.022590535  0.022792696            2 
 1566000    1.0434342   -7.4102286    424.69205   0.02259962  0.022784497            3 
 1567000    1.0110908   -7.4221633    423.64509   0.02252952  0.022776258            7 
 1568000    1.0142833   -7.4390522    424.32586  0.022551332  0.022768025            3 
 1569000    1.0193793   -7.4600427    423.94796  0.022516888  0.022759818            7 
 1570000    1.0129725   -7.4283618    424.11319  0.022511316  0.022751676            3 
 1571000    0.9987582   -7.4480434    425.64453  0.022578216  0.022743552            7 
 1572000    1.0014653    -7.489554    425.11987  0.022536041  0.022735393            7 
 1573000   0.99159881   -7.4707269    423.84538  0.022454195  0.022727106            5 
 1574000   0.98994563   -7.4579479    424.85232   0.02249324  0.022718842            6 
 1575000     1.000155   -7.4853263    424.27422  0.022448371  0.022710605            7 
 1576000   0.98211011   -7.4415704    426.32326  0.022542473  0.022702427            3 
 1577000   0.98712906   -7.4328962    424.91615  0.022453823  0.022694414            6 
 1578000   0.99281511   -7.4170092    426.37314  0.022516537  0.022686347            7 
 1579000   0.97176265   -7.4383798    425.91135  0.022477905  0.022678405           10 
 1580000    1.0039073   -7.4394051    426.23883  0.022480951  0.022670435            4 
 1581000   0.98521909   -7.4041104    427.45484  0.022530827  0.022662421            6 
 1582000   0.97846625    -7.410866    426.91173  0.022487976  0.022654491           11 
 1583000   0.99278488   -7.3964747    428.83917  0.022575235  0.022646654            3 
 1584000   0.98342937   -7.4212807    428.06648  0.022520332  0.022638886            6 
 1585000   0.97046086   -7.4441794    427.76263  0.022490149  0.022631056            9 
 1586000   0.99154441   -7.4643812    427.46674  0.022460421  0.022623152            3 
 1587000    1.0129839   -7.4643809    426.58809  0.022400131  0.022615168            6 
 1588000    1.0131523   -7.4582978    428.57284  0.022490178  0.022607253            2 
 1589000   0.97809974   -7.4526553    427.22201  0.022405182  0.022599406           15 
 1590000    1.0015108   -7.4545074    429.29926  0.022499961  0.022591452            5 
 1591000   0.99062469   -7.4787517    429.60409  0.022501785   0.02258353            7 
 1592000    1.0221807   -7.4839669    427.93094   0.02240007  0.022575593            3 
 1593000    1.0219961   -7.4542152    428.26175  0.022403314  0.022567635            2 
 1594000    1.0002027   -7.4472549    430.27082  0.022494292  0.022559827            2 
 1595000   0.98408616    -7.450791    429.94326  0.022463075  0.022552155            8 
 1596000   0.99206052   -7.4507226    429.54368  0.022428137   0.02254449            5 
 1597000   0.98571075   -7.4675613    429.90169  0.022432775  0.022536798            8 
 1598000    1.0207649   -7.4834534     430.2931  0.022439148  0.022529062            5 
 1599000   0.99831438   -7.4629528    430.25524  0.022423142  0.022521331            3 
 1600000   0.99287255    -7.449397    430.71799  0.022433229  0.022513663            4 
 1601000   0.99370286    -7.460438    430.13386  0.022388812  0.022505891            6 
 1602000    1.0035895   -7.4649965    430.06323  0.022371163  0.022498115            7 
 1603000   0.99344808   -7.4650376    431.20068  0.022416338   0.02249034           10 
 1604000   0.98896904   -7.4523523    431.85457  0.022436335  0.022482568            7 
 1605000    0.9841041   -7.4227589    431.89911  0.022424668  0.022474897            3 
 1606000   0.99024704    -7.504161    430.37597  0.022331671  0.022467225            2 
 1607000    1.0020709   -7.4770518    431.47935  0.022374992  0.022459459            7 
 1608000   0.98724313   -7.4167995    432.70463  0.022424577  0.022451759            6 
 1609000    1.0067927   -7.4331867    432.13291  0.022381029  0.022444198            4 
 1610000    1.0118223    -7.479629     432.1843  0.022369788  0.022436626            4 
 1611000    1.0130658   -7.4196664    432.50033   0.02237225  0.022429008            3 
 1612000   0.99208235    -7.511188    431.97055  0.022330984  0.022421403            8 
 1613000    1.0008352   -7.4614805    432.63464  0.022351448  0.022413733           11 
 1614000   0.99121656   -7.4272739    433.48959  0.022381742  0.022406119            3 
 1615000   0.98446102   -7.4590907    431.94029  0.022287941   0.02239846            6 
 1616000   0.99551267   -7.4756758    432.94691  0.022326058  0.022390775            3 
 1617000   0.98643137   -7.4389854    431.91818  0.022259234  0.022383099            9 
 1618000   0.98670636   -7.4793939    431.99091  0.022249223  0.022375377            6 
 1619000    1.0086766   -7.4901668    433.66724  0.022321764  0.022367629            4 
 1620000   0.99645998   -7.4658908    434.16092  0.022333381  0.022359865            7 
 1621000    0.9974955   -7.4846316    433.78715  0.022300388  0.022352255            2 
 1622000   0.98207591   -7.4032475    435.26629  0.022362633  0.022344805            4 
 1623000   0.97851339   -7.4739922    434.81299   0.02232558  0.022337416            2 
 1624000    1.0012208   -7.4747055    434.32285  0.022286682  0.022329921            6 
 1625000   0.96173653   -7.5134095    434.00519  0.022256676  0.022322364            4 
 1626000   0.99025234    -7.412324    434.99511  0.022293722   0.02231477            2 
 1627000    0.9906283   -7.4543215    435.27231  0.022294218  0.022307165            2 
 1628000   0.98019834    -7.508312     434.2933   0.02223041  0.022299598            2 
 1629000    0.9862095    -7.469736    434.10743  0.022207255  0.022292047            9 
 1630000    0.9949193    -7.452251    434.23659  0.022200234  0.022284484            7 
 1631000   0.98290389   -7.4615483    435.21759  0.022236746  0.022276895            3 
 1632000   0.96825589    -7.439931    436.15145  0.022270805  0.022269302            3 
 1633000    1.0112013    -7.461763    434.99771  0.022198291  0.022261767            3 
 1634000   0.99656035   -7.4810285    435.30746  0.022200503  0.022254233            4 
 1635000      0.97903   -7.4738988    435.65219  0.022204495  0.022246737            5 
 1636000    1.0051829   -7.4768561     435.2487   0.02217037  0.022239228           11 
 1637000   0.99835088   -7.4274681    436.46527  0.022218757  0.022231744            3 
 1638000   0.99065586    -7.502647    436.11436   0.02218734  0.022224143            7 
 1639000    1.0132997   -7.5001224    435.70193  0.022152833  0.022216576            5 
 1640000   0.99305679   -7.4836652    436.54819  0.022182327  0.022209031            2 
 1641000   0.96495527   -7.4421103    437.73406   0.02222903  0.022201528            7 
 1642000    1.0100476   -7.4739324    436.51105  0.022153423  0.022194016            5 
 1643000   0.98282195   -7.4753228    436.84172  0.022156711  0.022186509            4 
 1644000   0.99756121   -7.4662279    437.15873  0.022159303   0.02217896            3 
 1645000   0.98371405   -7.4450657    436.97071  0.022136307  0.022171362            4 
 1646000   0.98409631   -7.4574438     436.9043  0.022119497  0.022163843            3 
 1647000    0.9889079   -7.5057153    436.52331   0.02208679   0.02215623            5 
 1648000   0.99929873    -7.516651    434.91388  0.021992004  0.022148498            4 
 1649000   0.99962005   -7.4779735    437.10768  0.022089533  0.022140888            5 
 1650000   0.98881748   -7.4616871    437.36316  0.022089048  0.022133301            7 
 1651000   0.97894574   -7.4884849    436.80355  0.022047423  0.022125752            5 
 1652000   0.98273398   -7.4866766    436.39973  0.022013707  0.022118224            4 
 1653000   0.99644413   -7.4880862     437.1313  0.022037271  0.022110589            6 
 1654000   0.98510164   -7.4575684    439.81403  0.022159111  0.022103107            6 
 1655000   0.97579634   -7.4751472    437.30409   0.02201934  0.022095643            7 
 1656000   0.97575598    -7.470912    438.43423  0.022062914  0.022088114           11 
 1657000   0.98193409   -7.4611077     438.5814  0.022057001  0.022080642            5 
 1658000   0.98367991   -7.4866909    438.83929  0.022056659  0.022073071            4 
 1659000   0.96800977   -7.4399703    439.12603  0.022057767  0.022065552            6 
 1660000   0.97441691   -7.4709483    438.82624   0.02202943  0.022058109            3 
 1661000    1.0028652   -7.4514386    440.02641   0.02207638  0.022050642            3 
 1662000   0.96784557   -7.4579944    439.35456   0.02202941  0.022043155            7 
 1663000   0.97409822   -7.4457257    440.47839  0.022072479  0.022035697            3 
 1664000   0.99664481   -7.5027108    439.11631  0.021991001  0.022028213            8 
 1665000   0.98123729   -7.4724942      440.675  0.022055806  0.022020726            5 
 1666000   0.99698605   -7.4875028    439.41575  0.021979579  0.022013327            6 
 1667000   0.96208848   -7.4706405    439.85213  0.021988209  0.022005843            3 
 1668000    0.9842415   -7.4930925    439.78474   0.02197166  0.021998342            3 
 1669000    0.9978618    -7.477901    439.35671  0.021937124  0.021990923            5 
 1670000   0.95625468   -7.5099194    439.34233   0.02192327  0.021983442            4 
 1671000   0.95984996   -7.5009501    440.28669  0.021957246  0.021975844            4 
 1672000   0.99604675   -7.4874493    440.66716  0.021963076  0.021968343            4 
 1673000   0.97116216   -7.4900999    440.41724    0.0219375  0.021960956            4 
 1674000    0.9925606   -7.5272711    440.00233   0.02190374  0.021953358            4 
 1675000   0.99153635   -7.5168547    438.87024   0.02183434  0.021945718            4 
 1676000    1.0035156   -7.5390874    439.58974  0.021857087  0.021938089            5 
 1677000   0.98220358   -7.4953664    440.64123  0.021896304  0.021930498            2 
 1678000    0.9716456    -7.492456    442.23374  0.021962343  0.021923082            7 
 1679000   0.99020056    -7.467143    441.37341  0.021906562  0.021915702            6 
 1680000   0.95469871   -7.4699111    443.13452  0.021980879   0.02190832            5 
 1681000   0.98544794   -7.4451191     442.3839  0.021930592  0.021900991            8 
 1682000    1.0138167   -7.5040048    441.99752   0.02189841  0.021893664            6 
 1683000   0.98535901   -7.4813338    443.04986  0.021937505  0.021886294            3 
 1684000   0.99423033   -7.5135318    442.60687  0.021902557  0.021878945            6 
 1685000   0.98853795   -7.4918518     442.4886  0.021883709  0.021871598            5 
 1686000   0.96904552   -7.4972596    441.96476  0.021844838   0.02186423            4 
 1687000   0.97590094   -7.5256908    441.75643  0.021821598  0.021856903           13 
 1688000   0.99920101   -7.5168629    442.97441    0.0218688  0.021849448            3 
 1689000    0.9860901   -7.5276364    443.44084  0.021878865  0.021842127            4 
 1690000    1.0032432   -7.5359205    442.37182  0.021813206  0.021834864            7 
 1691000   0.95893681   -7.4838762    443.90197  0.021875713  0.021827597            5 
 1692000   0.98600709   -7.5179094    442.62822   0.02180005  0.021820329            6 
 1693000    0.9700963   -7.4866099    444.83383  0.021895739  0.021813129            5 
 1694000    0.9765084   -7.4775339    445.14511  0.021898126  0.021805921            4 
 1695000   0.97404523   -7.5278834    443.44365  0.021801556  0.021798681            4 
 1696000   0.96527937   -7.4966831    444.39047  0.021835224  0.021791426            4 
 1697000   0.99093363   -7.5056229    443.88644  0.021797606  0.021784204            4 
 1698000   0.99489944   -7.4926238    444.91678  0.021835335  0.021776985            3 
 1699000   0.99179902   -7.5126354    444.44056  0.021799125   0.02176976            3 
 1700000    1.0021961   -7.4944868     444.5222  0.021790304  0.021762506            5 
 1701000   0.98376592   -7.5496989    444.58845  0.021780739   0.02175535            5 
 1702000   0.97184774   -7.5515364    444.62635  0.021769798   0.02174811            5 
 1703000   0.97842338   -7.4854499    445.45028  0.021797332  0.021740796            3 
 1704000    1.0051522   -7.5012185    446.92368  0.021856596  0.021733578            5 
 1705000   0.97226084   -7.5030766    446.96027  0.021845565  0.021726453            3 
 1706000   0.99251531   -7.5368408    445.34968  0.021754087   0.02171925           18 
 1707000    1.0163415   -7.4862188     445.8362  0.021765095  0.021712009            3 
 1708000   0.98434112   -7.5031602    446.40062   0.02177989   0.02170482            6 
 1709000   0.96190014   -7.5337088    445.33565  0.021715216  0.021697495            7 
 1710000   0.97480238   -7.4825331    447.45133   0.02180562   0.02169033            6 
 1711000    0.9674458   -7.5185224    445.86885  0.021715802  0.021683178            4 
 1712000   0.99035725   -7.5336559    446.22642  0.021720523   0.02167598            5 
 1713000   0.96928272   -7.5114196    446.71358  0.021731542  0.021668808            7 
 1714000   0.99049107   -7.5181276    446.47824  0.021707421  0.021661726            5 
 1715000   0.97066567   -7.5228651     446.7209  0.021706555  0.021654562            3 
 1716000   0.96650966   -7.5437982    446.29224  0.021673089  0.021647362            6 
 1717000   0.98345588   -7.4918557    447.38804   0.02171365   0.02164021            4 
 1718000   0.99798278   -7.4897659    447.85228  0.021723529  0.021633087            4 
 1719000   0.98663329   -7.5224255     447.7358  0.021705245  0.021626054            5 
 1720000    0.9619434   -7.5216713    447.42525   0.02167758  0.021618996            8 
 1721000   0.97474258   -7.5424631    446.71894  0.021630783  0.021611879            4 
 1722000   0.97041406   -7.4727609    450.05934  0.021779875  0.021604812            2 
 1723000    1.0042919   -7.5449236    448.51929   0.02169275  0.021597836            5 
 1724000   0.98871472   -7.5637526    447.27732  0.021620133  0.021590669            3 
 1725000   0.96477379   -7.5373728    448.87857  0.021684955  0.021583526            9 
 1726000    0.9715819   -7.5295074    449.56665  0.021705613  0.021576419            9 
 1727000   0.96639715   -7.5355892    449.16543  0.021673684  0.021569301            3 
 1728000   0.96138675   -7.5417442    448.45155  0.021626715  0.021562146            3 
 1729000   0.97191258   -7.5165555    448.54988  0.021618946  0.021555089            5 
 1730000   0.97835405   -7.5365872    448.42526  0.021600446  0.021547963            6 
 1731000   0.98669591   -7.5251205    449.72143  0.021650367  0.021540826            7 
 1732000   0.96263276   -7.5243898    450.01471  0.021651978  0.021533794            4 
 1733000   0.98020312   -7.5147583    451.14921  0.021694038  0.021526798            8 
 1734000   0.98430206   -7.5357948     450.4998  0.021650317  0.021519798            3 
 1735000   0.99162436   -7.4602365    451.50737  0.021686233  0.021512836            3 
 1736000   0.98731468   -7.5085348    451.08054  0.021653252  0.021505894            4 
 1737000   0.96993963    -7.511582    450.80731  0.021627678  0.021498897            3 
 1738000   0.97380666   -7.4833118    452.97163  0.021719008  0.021491995            8 
 1739000   0.97319842   -7.5136957    449.95817  0.021562113  0.021485012            7 
 1740000   0.97147762   -7.5159795    450.72481  0.021586437  0.021478043            4 
 1741000   0.97923273   -7.5345806    451.64675  0.021618167  0.021471026            3 
 1742000   0.98059579   -7.5071128     451.9796   0.02162168  0.021464092            2 
 1743000   0.97146192   -7.4767273      451.508  0.021586728  0.021457182            6 
 1744000   0.97846899   -7.4734784    452.10772  0.021603007  0.021450243            7 
 1745000   0.98055759   -7.5171995    450.26632   0.02150269  0.021443341            3 
 1746000   0.97240063   -7.4860196    452.02132  0.021574137   0.02143639           10 
 1747000    0.9802379   -7.5259763    451.49289  0.021536581  0.021429397            7 
 1748000   0.95451663   -7.5078287    451.64752  0.021531632  0.021422384            5 
 1749000   0.96759524    -7.519322    452.09789   0.02154078  0.021415419            3 
 1750000   0.99835878   -7.5250453    450.69933  0.021461873  0.021408469            5 
 1751000   0.97076164    -7.558379    451.76664  0.021500411  0.021401504            4 
 1752000   0.95214069   -7.5358452    451.86208  0.021492679  0.021394596            4 
 1753000    0.9513602   -7.5402099    453.73031  0.021569229  0.021387633            4 
 1754000   0.96592534   -7.5418713    454.21681  0.021580046   0.02138068            4 
 1755000    0.9689909   -7.5037027    453.02027  0.021510934  0.021373732            4 
 1756000   0.93312383   -7.5603071     451.8577  0.021443513  0.021366725            5 
 1757000   0.95951961    -7.569595    452.98455  0.021484754   0.02135967            5 
 1758000   0.97288999   -7.5335676    452.87616  0.021467395  0.021352685           12 
 1759000   0.98518396   -7.5833465    453.39892  0.021479956  0.021345659            7 
 1760000   0.97724558    -7.561861    452.19051  0.021410535  0.021338558            4 
 1761000   0.97676262   -7.5933144    451.90528   0.02138488  0.021331451            7 
 1762000   0.95104867   -7.5449718    452.77481  0.021413867  0.021324354            5 
 1763000   0.99656467   -7.5521824    452.87339   0.02140638  0.021317333            4 
 1764000     0.944799   -7.5369406    454.57836   0.02147479  0.021310391            8 
 1765000   0.95074702   -7.5385303     453.4371  0.021408739  0.021303465            7 
 1766000   0.95177575   -7.4880356    455.65751  0.021501392  0.021296563            5 
 1767000    0.9591431   -7.5417248    453.13803  0.021370403  0.021289595            2 
 1768000    0.9727302   -7.5078856    454.84355  0.021438704  0.021282642            4 
 1769000    0.9833018   -7.5115098    454.17967  0.021395311  0.021275746            5 
 1770000    0.9844289   -7.5430456    455.53258   0.02144692  0.021268782            6 
 1771000    1.0017466   -7.5463893    455.29672  0.021423712  0.021261737            4 
 1772000   0.96503601    -7.563629    454.19659  0.021359885  0.021254731            5 
 1773000   0.97138542   -7.5577228    454.21192  0.021348558  0.021247703            4 
 1774000   0.97924427   -7.5460895    455.41357  0.021392971  0.021240697            3 
 1775000   0.95754249   -7.5339951    455.25896   0.02137366   0.02123377            4 
 1776000   0.96750931   -7.5344325    455.90083  0.021391743  0.021226842            6 
 1777000   0.96655984   -7.5708753    454.86252  0.021331013  0.021219824            7 
 1778000   0.95595904   -7.5770151     454.2856  0.021291976   0.02121276            9 
 1779000   0.95942013   -7.5702449    455.39765  0.021332099  0.021205687            5 
 1780000   0.95847113   -7.5588789    454.80109  0.021292186  0.021198641            6 
 1781000   0.96619653   -7.5775495    454.31116  0.021257307  0.021191638            6 
 1782000   0.98169749   -7.5552202    453.79754  0.021221359  0.021184564            3 
 1783000   0.95562938   -7.5686445    455.99962  0.021312377  0.021177503            5 
 1784000   0.98654649    -7.539214    456.14671  0.021307301  0.021170492            4 
 1785000   0.97057819   -7.5330167    455.57389  0.021268622  0.021163438            9 
 1786000   0.97769543   -7.5610845    456.94884  0.021320868  0.021156359            6 
 1787000   0.97053326   -7.5555358    455.07347  0.021221483  0.021149279            7 
 1788000   0.95806222   -7.5693836    455.17229  0.021214219  0.021142076            4 
 1789000   0.95974977   -7.5839921    454.51992  0.021171973  0.021134838            4 
 1790000   0.98277992   -7.5551875     455.0288  0.021183836  0.021127696           10 
 1791000   0.97937073   -7.5311953     455.3932  0.021188963  0.021120576            3 
 1792000   0.96133716   -7.5338904    456.08112   0.02120913  0.021113438            5 
 1793000   0.97273437   -7.4987169    456.97467   0.02123883  0.021106361            6 
 1794000   0.96760713   -7.5081502    456.10418  0.021186556  0.021099369            4 
 1795000   0.96384904   -7.5064594    455.88418   0.02116454  0.021092407            4 
 1796000   0.97265166   -7.5667989    456.74876  0.021192871  0.021085382            5 
 1797000   0.96942761   -7.5328855    456.57462  0.021173002  0.021078312            4 
 1798000    0.9585008   -7.5273472    457.08734   0.02118499  0.021071262            3 
 1799000   0.97220078   -7.5451934    456.23452   0.02113371  0.021064254            3 
 1800000   0.96445522   -7.5563936    456.47286  0.021133003  0.021057241            8 
 1801000   0.95447186   -7.5177518    457.45224  0.021166585  0.021050205            6 
 1802000   0.95553588   -7.5275845    457.71442  0.021166963   0.02104322            4 
 1803000   0.95396995   -7.6008554    456.75572  0.021110913  0.021036185            4 
 1804000   0.95702712   -7.5432465    457.57187  0.021136912  0.021029085            8 
 1805000   0.94721602   -7.5598273     457.1524  0.021105836  0.021022075            4 
 1806000   0.96228168   -7.5873975     456.5054  0.021064295  0.021014998            3 
 1807000   0.96567652    -7.578024    457.43934  0.021095708   0.02100795            5 
 1808000    0.9429571   -7.5826839     457.5018  0.021086919   0.02100085            6 
 1809000   0.97029046   -7.5359065    458.34625  0.021114163  0.020993766            3 
 1810000   0.93905887   -7.5494042    458.22038  0.021096702  0.020986696            3 
 1811000   0.97326197   -7.5724433    457.55441  0.021054409  0.020979617            5 
 1812000   0.93860947   -7.5595175    458.38344  0.021080916  0.020972566            3 
 1813000    0.9776222   -7.5752378    458.47927  0.021073693  0.020965488            9 
 1814000   0.95262944    -7.572188    456.78342  0.020984171  0.020958402           13 
 1815000   0.96004787   -7.5751104    458.30516  0.021042478  0.020951286            4 
 1816000   0.96431563   -7.5559499     458.9612  0.021060995   0.02094421            7 
 1817000   0.94540816   -7.5736569    457.50081  0.020982426  0.020937112            4 
 1818000   0.95669786   -7.5624509    458.23772  0.021004663  0.020930001            6 
 1819000   0.97257631   -7.5896848    456.90196  0.020931921  0.020922877            7 
 1820000   0.96921206   -7.5616769    458.19613  0.020979676  0.020915817            5 
 1821000   0.94469746   -7.5561205    458.59451  0.020986386  0.020908665            3 
 1822000   0.95271558   -7.5489573    459.02364  0.020994495  0.020901649            3 
 1823000   0.98012538   -7.5491961     458.7382  0.020969931  0.020894686            4 
 1824000   0.95165826   -7.5682122    458.68526  0.020956015   0.02088765            3 
 1825000   0.94903815   -7.5921862    457.94192   0.02091059  0.020880505            4 
 1826000   0.95580164   -7.5062451     460.7472  0.021027163  0.020873372            2 
 1827000   0.95386749   -7.5940144    458.09075  0.020894488  0.020866295            6 
 1828000   0.93688721   -7.5793999     458.7153  0.020911529  0.020859144            6 
 1829000   0.94086019    -7.543208    459.23407  0.020923732  0.020851969            3 
 1830000   0.95828906   -7.5228772    459.12895  0.020907511  0.020844824            6 
 1831000   0.96138015   -7.5727573    460.23238  0.020946313  0.020837648            4 
 1832000   0.94800315   -7.5913853    459.35074  0.020894775  0.020830439            5 
 1833000   0.95677261    -7.584885    459.22786   0.02087779  0.020823241            3 
 1834000    0.9625095   -7.6026022    459.45363  0.020876665  0.020816014            2 
 1835000   0.95288998   -7.6136246    459.08255  0.020848435  0.020808767            6 
 1836000   0.95907263   -7.5898887    458.49486  0.020810406  0.020801564            5 
 1837000   0.94934814   -7.5868069    459.66419  0.020852123  0.020794349            6 
 1838000   0.96470462   -7.5693791    460.15844  0.020863186  0.020787213            4 
 1839000   0.96698369   -7.5739745       460.63   0.02087321  0.020780073           10 
 1840000   0.95049236   -7.5507978    459.85822  0.020826912  0.020772814            6 
 1841000    0.9712133   -7.5779363    459.72668  0.020809645  0.020765589            4 
 1842000   0.95883555   -7.5827797    459.48741  0.020787523  0.020758409            5 
 1843000   0.96437826   -7.5630359    460.26945  0.020811605  0.020751277            5 
 1844000   0.96332315   -7.5342043    461.70048  0.020864989  0.020744096           11 
 1845000   0.96203627   -7.5681438    460.95483  0.020820001  0.020737002            5 
 1846000   0.94499355   -7.5703387    460.77468  0.020800591   0.02072983            9 
 1847000   0.95017626   -7.5811892    460.62946  0.020782777  0.020722626           11 
 1848000   0.96639666   -7.5970854    460.05033  0.020745415  0.020715382            8 
 1849000    0.9602382   -7.5645423     460.7347   0.02076504  0.020708135            4 
 1850000   0.94755914   -7.5827593    460.58843  0.020747227  0.020700958           12 
 1851000   0.95158412    -7.618202    460.65515  0.020739022  0.020693757           14 
 1852000   0.97009212    -7.557133    461.74886  0.020777036  0.020686509            4 
 1853000   0.95322804   -7.5605263    460.61568  0.020714862    0.0206793            3 
 1854000   0.92798504   -7.5721748     459.8732  0.020670316  0.020672054            9 
 1855000   0.96021004   -7.5686958    461.12284  0.020715312  0.020664736            8 
 1856000    0.9625352   -7.5788328    460.83259  0.020691118  0.020657501            7 
 1857000   0.94755114   -7.5667084    461.00951  0.020687915    0.0206503           11 
 1858000   0.97044804   -7.5246526    462.83335  0.020758582  0.020643202            4 
 1859000   0.96133445   -7.5409776     462.1177  0.020715335  0.020636148            5 
 1860000   0.93003756   -7.5610289      462.174   0.02070672  0.020629001            4 
 1861000    0.9409799   -7.5292333    462.75344   0.02072154  0.020621787            8 
 1862000   0.96397731   -7.5732533     461.6913  0.020662876  0.020614672            5 
 1863000   0.96084897   -7.5519002      463.645  0.020739175  0.020607613            7 
 1864000   0.93843929   -7.5322979    464.27324  0.020756135  0.020600576            9 
 1865000   0.95307721    -7.557568    462.81759  0.020679964  0.020593506           10 
 1866000   0.96402542   -7.5731881    462.36172  0.020648523  0.020586425            5 
 1867000   0.96186388   -7.6074064    462.08451   0.02062509  0.020579324            4 
 1868000   0.94881833   -7.5914521    463.21241  0.020664365  0.020572196            3 
 1869000   0.94158235   -7.5666057    463.00492  0.020644058  0.020565129            5 
 1870000   0.95116295   -7.5354862    463.10659  0.020637548  0.020558102            4 
 1871000   0.96336375   -7.5830213    463.09458  0.020625984   0.02055106            4 
 1872000   0.93773376   -7.5539474    463.13464  0.020616749  0.020543993            5 
 1873000   0.93898337   -7.6070919    463.56192  0.020624752  0.020536868            6 
 1874000   0.94881715   -7.6270859    462.28043  0.020556761  0.020529724            9 
 1875000   0.94563163   -7.5783407    463.01379  0.020578391  0.020522603            6 
 1876000   0.96621781   -7.6094049    462.77439  0.020556787   0.02051543            5 
 1877000   0.96180526   -7.5867598    463.50974  0.020578482  0.020508292            8 
 1878000   0.95319183   -7.5986527    463.83797   0.02058209  0.020501133            8 
 1879000   0.94341233   -7.6098032    464.36567  0.020594539  0.020493996            6 
 1880000   0.95104447    -7.580392    464.36311  0.020583471  0.020486889            5 
 1881000   0.93207948   -7.5806635    463.31419  0.020526058  0.020479812            3 
 1882000   0.93289701   -7.5654026    464.74337  0.020578435  0.020472741           16 
 1883000   0.93725001   -7.6056151    463.36863  0.020506666  0.020465638           14 
 1884000   0.96696013   -7.5881095    464.39725   0.02054128  0.020458534            5 
 1885000   0.94152131   -7.5795933    464.06615  0.020515745  0.020451443            7 
 1886000   0.94600495   -7.6006643    463.83229  0.020494534  0.020444335            4 
 1887000   0.95643639   -7.5943378    464.84616  0.020528447  0.020437287            3 
 1888000   0.93036173   -7.5527628    465.96256   0.02056685  0.020430234            2 
 1889000   0.95150757   -7.5460874    465.80879  0.020549179   0.02042323            6 
 1890000   0.95447888   -7.5898525    464.46173  0.020478912  0.020416171            6 
 1891000   0.94272003   -7.6156461    464.49406  0.020469507  0.020409056            3 
 1892000   0.93526819   -7.6371808     465.7148  0.020512456  0.020401903            8 
 1893000   0.94185246   -7.5722747    465.76051  0.020503632  0.020394794           11 
 1894000    0.9761194   -7.6004501    466.38812  0.020520421  0.020387803            6 
 1895000    0.9490628   -7.5990683    465.42459   0.02046722  0.020380842            3 
 1896000   0.94232201   -7.6314131    464.61337  0.020420771  0.020373788            8 
 1897000   0.94942178   -7.5823855    465.71505  0.020458401  0.020366766            6 
 1898000   0.93820471   -7.6472831    465.31281  0.020429962  0.020359676            6 
 1899000   0.93911413   -7.5968988    466.44703  0.020468976  0.020352558            4 
 1900000   0.93152314   -7.6080424    465.59129   0.02042067  0.020345463            6 
 1901000   0.94975198   -7.5950209    465.63519  0.020411853  0.020338429            4 
 1902000   0.95016932    -7.589907    466.39332  0.020434337  0.020331426            6 
 1903000   0.94444198   -7.5953252     467.0164  0.020450884  0.020324467            4 
 1904000   0.93452075   -7.5932881    466.25564  0.020406847  0.020317417           10 
 1905000   0.93788893   -7.6123427    464.83605  0.020334036  0.020310322            4 
 1906000   0.93570404   -7.6367476    466.51454  0.020396753  0.020303198            3 
 1907000   0.95647546   -7.6148531    467.13055  0.020412976  0.020296144            7 
 1908000   0.96411229   -7.5936904    466.83031  0.020389165  0.020289087           16 
 1909000   0.94012887   -7.6162745     467.9624  0.020427903  0.020282055            8 
 1910000   0.93351679   -7.6305469    467.01771  0.020375991  0.020275026            5 
 1911000   0.94302521   -7.5591411    468.41597  0.020426303  0.020268068            9 
 1912000   0.95411166   -7.6188802    467.57127  0.020378804  0.020261093           10 
 1913000   0.95346399   -7.5794344    468.15457   0.02039356  0.020254183           10 
 1914000   0.94073124   -7.5800144    468.69844  0.020406585  0.020247274            4 
 1915000   0.94083286   -7.5552206    468.84683  0.020402386  0.020240426            6 
 1916000   0.95128012   -7.5496717    468.47539  0.020375582  0.020233527           12 
 1917000   0.94229883   -7.6304411    467.40571  0.020318454  0.020226554            4 
 1918000   0.94811733   -7.6084842    467.72212  0.020321608  0.020219431            4 
 1919000   0.93018727   -7.6179854    468.07321  0.020326264  0.020212422            4 
 1920000   0.94836241   -7.5935563    468.37304  0.020328691  0.020205452            5 
 1921000   0.93533681   -7.5938209    468.77153  0.020335395  0.020198483            3 
 1922000   0.93717212   -7.6532027    467.80995  0.020283123  0.020191506            8 
 1923000   0.94924783   -7.5964627    468.97631   0.02032312  0.020184531            6 
 1924000    0.9199665   -7.6173199    468.04329  0.020272145  0.020177521            5 
 1925000   0.91922196   -7.6053169    469.67414  0.020332214  0.020170546           10 
 1926000   0.93944472   -7.6234044    469.17621  0.020300113  0.020163498           12 
 1927000   0.93657818   -7.6594877    467.96626  0.020237254  0.020156436            2 
 1928000   0.94877282   -7.5825761    469.87235  0.020309144  0.020149437            4 
 1929000   0.93706445   -7.6178108    467.90293  0.020213536  0.020142439            3 
 1930000    0.9594717   -7.5703208    470.10203  0.020298015  0.020135449            6 
 1931000    0.9406327   -7.6219736    468.45353  0.020216361  0.020128484            6 
 1932000    0.9377796   -7.6180265    470.66037  0.020301086   0.02012146            5 
 1933000    0.9504413   -7.6259536    469.20979  0.020228048   0.02011441            8 
 1934000    0.9378076   -7.6196378    469.14188  0.020214662  0.020107346            4 
 1935000   0.94737595   -7.6002136    468.75305   0.02018747   0.02010033            5 
 1936000   0.96090104   -7.6023895    467.74947  0.020133844  0.020093281            5 
 1937000   0.94576974    -7.602574    469.45804  0.020196956  0.020086262            6 
 1938000    0.9611815    -7.621773    468.78754  0.020157703  0.020079262            6 
 1939000   0.92350407   -7.6128075    469.25155  0.020167249  0.020072186            9 
 1940000   0.93088395   -7.6237758    469.76557  0.020178933  0.020065175            4 
 1941000   0.92807003   -7.6032745    470.66496  0.020207151  0.020058184            8 
 1942000   0.92967126   -7.6569631     468.7921  0.020116379  0.020051171            4 
 1943000   0.95599753   -7.6058408    470.56227  0.020181947  0.020044159            5 
 1944000   0.93369946   -7.5960135    471.90605  0.020229169  0.020037167            9 
 1945000   0.92185137   -7.6212295    470.90069  0.020175694  0.020030209            4 
 1946000   0.95503625   -7.6109338    470.74621  0.020158711  0.020023298           11 
 1947000   0.95387535   -7.6238951    470.46724  0.020136417  0.020016363            2 
 1948000   0.93933692   -7.6144388    470.57086  0.020130512  0.020009392            9 
 1949000   0.92518838   -7.6394651    469.82562   0.02008832  0.020002416            5 
 1950000   0.96388373   -7.6221841    471.03995  0.020129912   0.01999552            7 
 1951000    0.9338676   -7.6065306    472.06131   0.02016322  0.019988583            4 
 1952000   0.93671096   -7.6201705    470.34433  0.020079591  0.019981651            6 
 1953000   0.96560269   -7.6318154     471.5056   0.02011886  0.019974668           13 
 1954000   0.93368813   -7.6176483    471.55169  0.020110529  0.019967727           11 
 1955000   0.93400481   -7.6022036    472.92621  0.020158833  0.019960798            5 
 1956000   0.94230299   -7.6595987    470.88046  0.020061369  0.019953839            4 
 1957000   0.93233506   -7.6277466    472.03144   0.02010013   0.01994689            5 
 1958000   0.93375557   -7.6160165    472.50091  0.020109845  0.019939991            5 
 1959000   0.93755053   -7.6536408    472.28197  0.020090266  0.019933078            5 
 1960000     0.946053   -7.6059503     471.1461  0.020031722  0.019926168            4 
 1961000   0.93744357   -7.6349011    471.14933  0.020021644  0.019919294            3 
 1962000   0.92492842   -7.6419734    471.81542  0.020039731  0.019912402            3 
 1963000   0.92627653   -7.5863204     472.8806  0.020074741  0.019905508            4 
 1964000   0.95213721   -7.6328752    473.61109  0.020095515  0.019898658            3 
 1965000   0.93186762   -7.6592077    473.71743  0.020089798  0.019891774            6 
 1966000   0.92355434   -7.6509226     473.6468  0.020076585  0.019884876            4 
 1967000   0.91253815   -7.6188432    473.25545  0.020049799  0.019878014           11 
 1968000   0.93906069   -7.6489125     473.5571  0.020052384  0.019871151            9 
 1969000   0.92782497   -7.6482025    473.42951    0.0200368   0.01986428            7 
 1970000    0.9388806   -7.6072077    473.97049  0.020049513  0.019857412            8 
 1971000   0.92558338   -7.6153772    474.77309  0.020073274  0.019850605            3 
 1972000   0.94848228   -7.6367389    473.11392  0.019992982  0.019843787            7 
 1973000   0.92066202    -7.596311    472.71446  0.019965977  0.019836956            6 
 1974000   0.93932944   -7.6357479    472.42143  0.019943491   0.01983009            4 
 1975000   0.93359912   -7.6214121    473.57445  0.019982044  0.019823171            2 
 1976000   0.93819605   -7.5838431    474.06047  0.019992429  0.019816319            4 
 1977000   0.95489511   -7.6705396    473.07027  0.019940578  0.019809442            4 
 1978000   0.93469276   -7.6638296    472.51776  0.019907219  0.019802477            7 
 1979000   0.92285904   -7.6485123    473.76432  0.019949651  0.019795519            8 
 1980000   0.92978696   -7.6378009     474.0882  0.019953207  0.019788607            7 
 1981000   0.91871841   -7.6487898    473.52241  0.019919334  0.019781712            4 
 1982000   0.92322544    -7.645004    474.72689  0.019959926  0.019774795            4 
 1983000    0.9095339   -7.6088101    474.62728  0.019945675  0.019767951            6 
 1984000   0.96454181   -7.6458493    474.30102  0.019921918  0.019761098            6 
 1985000   0.94280605   -7.5941911    476.56488  0.020006922  0.019754354            5 
 1986000   0.95625226    -7.623416     474.6334  0.019915802  0.019747563            7 
 1987000   0.93111884   -7.6459475    474.39832   0.01989592  0.019740762            3 
 1988000   0.92266641   -7.6404201    473.98674  0.019868659  0.019733975           15 
 1989000   0.92910109   -7.6749476    474.57786  0.019883437  0.019727157            8 
 1990000   0.95362795   -7.6100066    475.77588  0.019923613  0.019720316            3 
 1991000   0.93787622   -7.6243355    473.78218   0.01983016  0.019713525            4 
 1992000   0.91991961   -7.6509743    474.95956   0.01986946  0.019706663           13 
 1993000   0.93598815   -7.6304685    475.71295  0.019890992  0.019699835           10 
 1994000   0.90982849   -7.6341202    474.60778  0.019834829   0.01969308            4 
 1995000   0.93703343    -7.618654    476.72886  0.019913486  0.019686354            8 
 1996000   0.93705192   -7.6732828    475.89821   0.01986883  0.019679571           10 
 1997000   0.92904191   -7.6239487    475.94796  0.019860956  0.019672788           13 
 1998000   0.93728128   -7.6609377    476.20431  0.019861708  0.019666055            9 
 1999000   0.93389317   -7.6511201    476.66042  0.019870786   0.01965937           10 
 2000000   0.93808712   -7.6280612     477.0197  0.019875821  0.019652698            7 
 2001000   0.94710434   -7.6555996    476.65198  0.019850574  0.019646008            8 
 2002000   0.93910406    -7.630735    476.37428  0.019829099  0.019639312            5 
 2003000   0.93275997   -7.6579453    476.61937  0.019829396  0.019632705            6 
 2004000   0.95606739    -7.625471    477.32471  0.019848832  0.019626082            1 
 2005000   0.93049079   -7.6269438    477.44751  0.019844036   0.01961944            5 
 2006000   0.89474738   -7.6607832    477.23803  0.019825441  0.019612836            6 
 2007000   0.93401909   -7.6522563    477.91708  0.019843759  0.019606147            5 
 2008000   0.94311087   -7.6825613    476.96878  0.019794521  0.019599475            9 
 2009000   0.95406681   -7.6634906    477.77229  0.019817998  0.019592801           18 
 2010000    0.9114094   -7.6606349    478.05178  0.019819726  0.019586163            8 
 2011000   0.92813445   -7.6503962    477.48327  0.019786311  0.019579482            6 
 2012000   0.92500078   -7.6390192    479.57986  0.019863314  0.019572846            7 
 2013000   0.94372752   -7.6258361    479.45779  0.019848393  0.019566254            4 
 2014000   0.93378041   -7.6670868    478.05112  0.019780334  0.019559637            4 
 2015000   0.92372028   -7.6624132    477.92841  0.019765443  0.019553017           14 
 2016000   0.95099904   -7.6322184    479.62214   0.01982565  0.019546434            6 
 2017000   0.93047345    -7.632572    478.99448  0.019789889  0.019539831            4 
 2018000   0.91859554   -7.6655859    478.64183   0.01976552  0.019533264            5 
 2019000   0.93624044   -7.6539506     478.8278  0.019763406  0.019526656            8 
 2020000   0.92667429   -7.6649535    479.90815  0.019798191  0.019520092            4 
 2021000   0.92990633   -7.7096944    478.91435  0.019747417  0.019513476            4 
 2022000   0.92541998   -7.6893969    479.72123  0.019770905  0.019506837            5 
 2023000   0.93509688   -7.6525289     480.6259  0.019798397   0.01950031            6 
 2024000   0.94374129   -7.6478349    479.17142  0.019728731  0.019493815            5 
 2025000   0.92631733   -7.6638432    480.45769  0.019771922  0.019487375            5 
 2026000   0.91254862   -7.6623846    480.45247  0.019761948  0.019480887            4 
 2027000   0.93953244   -7.6574481    480.15741  0.019740068  0.019474418            4 
 2028000   0.94428911   -7.6557021    479.32331   0.01969606  0.019467879            6 
 2029000   0.93982307   -7.6746333    479.15938   0.01967962  0.019461325            7 
 2030000   0.93474693   -7.6262702    481.21068  0.019754133  0.019454792            4 
 2031000   0.92261126   -7.6817482     479.6487  0.019680318  0.019448281            7 
 2032000   0.93117189   -7.6845793    480.35088  0.019699429  0.019441778           10 
 2033000   0.93256631   -7.6775926    479.61506  0.019659578  0.019435261            5 
 2034000   0.92483307   -7.6660352    479.97219  0.019664544  0.019428721            7 
 2035000   0.92413758   -7.6333422    480.61597  0.019681243  0.019422156            3 
 2036000   0.94655114   -7.6531645    481.75513  0.019718203  0.019415649            8 
 2037000   0.92534013   -7.6531091    481.90244  0.019714549  0.019409129            5 
 2038000   0.93331826    -7.639067    479.95413   0.01962521  0.019402594           10 
 2039000   0.92117211   -7.6949622    479.76417  0.019607821  0.019396006            5 
 2040000   0.94263991   -7.6675571    481.02101  0.019649551  0.019389391            5 
 2041000   0.91915434   -7.7122854     479.5685  0.019580618  0.019382779            4 
 2042000   0.93623098   -7.6591947    481.19248  0.019637303  0.019376134            4 
 2043000   0.93730477    -7.635381    482.71697  0.019689875  0.019369586           10 
 2044000   0.91576436   -7.6431462     481.2151  0.019619011  0.019363005            3 
 2045000   0.92747999   -7.6834685    479.56441  0.019542152  0.019356474            6 
 2046000   0.92480087   -7.6650347    481.31095  0.019603737  0.019349891            5 
 2047000    0.9232581   -7.6758311    481.19081  0.019589269  0.019343283            7 
 2048000   0.93913821   -7.6783601    479.92836  0.019528335  0.019336673            7 
 2049000   0.92861095   -7.6267266    482.02545  0.019604094  0.019330122            3 
 2050000    0.9174145   -7.6693227     480.9538  0.019550967   0.01932352            4 
 2051000   0.92689348   -7.6862783    480.89659  0.019539111  0.019316912            8 
 2052000   0.90948802   -7.6676076    480.94852  0.019531697  0.019310321           11 
 2053000    0.9257518    -7.653395    480.95652  0.019522508  0.019303733            2 
 2054000   0.94599105     -7.69099    480.62037  0.019499366  0.019297088            5 
 2055000    0.9231499   -7.6810903    481.04482  0.019507089  0.019290474            3 
 2056000   0.91130384   -7.6805073    481.84201  0.019529913  0.019283847            6 
 2057000    0.9234878   -7.7129226    479.98729   0.01944528  0.019277224            7 
 2058000   0.91415176   -7.7033522    480.19043  0.019444057  0.019270585            7 
 2059000   0.94116473   -7.7256163    479.74734   0.01941668  0.019263866            7 
 2060000   0.90278545   -7.6962339    481.63327  0.019483546  0.019257098           12 
 2061000   0.93143388   -7.6847964    480.88604   0.01944388  0.019250411           17 
 2062000   0.91674184   -7.6591374    481.95521   0.01947766  0.019243744            7 
 2063000    0.9262382   -7.7028157    482.04128  0.019471695   0.01923709           18 
 2064000   0.91984328   -7.6810578    481.61285  0.019444963  0.019230455            7 
 2065000   0.93179263   -7.6641426    482.76502  0.019482043  0.019223833            4 
 2066000   0.92842375   -7.6900304    481.76175  0.019432145  0.019217246            4 
 2067000   0.93568847    -7.649347     483.0224  0.019473569  0.019210676            8 
 2068000   0.91149957   -7.6683016    482.88663  0.019458681  0.019204111            8 
 2069000   0.93303462   -7.7270747     481.7068  0.019401756  0.019197479           10 
 2070000   0.92717893   -7.6768932    483.13066  0.019449705  0.019190875           12 
 2071000   0.91220167   -7.6876392    483.28351  0.019446464  0.019184314            4 
 2072000   0.92482014   -7.6748515    482.51001  0.019405969  0.019177771            7 
 2073000   0.91508264   -7.7061167    482.24447  0.019385933  0.019171218           16 
 2074000   0.90402628   -7.6815203     483.7776  0.019438187  0.019164668            8 
 2075000   0.90939382   -7.6732552     484.1915  0.019445442  0.019158147            4 
 2076000    0.9228421   -7.7035158    483.00471  0.019388436  0.019151604            8 
 2077000    0.9219345   -7.6740924    483.95703   0.01941731  0.019145085            4 
 2078000     0.917251    -7.697115    483.11889  0.019374354  0.019138492            7 
 2079000   0.93818857   -7.7282776    482.48393  0.019339583  0.019131879           18 
 2080000    0.9206478   -7.6930601    481.67256  0.019297779  0.019125249            8 
 2081000   0.90845063   -7.6705039    484.18228  0.019389007  0.019118659            6 
 2082000   0.91421315   -7.6560026    484.19766   0.01938031  0.019112093            4 
 2083000   0.92715602   -7.6894375    484.63687  0.019388577   0.01910553            7 
 2084000   0.91255893   -7.6850576    484.01888  0.019354562  0.019098974            3 
 2085000   0.92634273   -7.7298393    482.70632  0.019292819  0.019092394            7 
 2086000   0.91555564    -7.751594    482.70762  0.019283622  0.019085725            9 
 2087000   0.91643347   -7.7381984    482.36921  0.019260869  0.019079094            3 
 2088000   0.93577936   -7.7036348    484.94172  0.019354315  0.019072459            9 
 2089000   0.91766905   -7.6722284    483.60244  0.019291624   0.01906591            8 
 2090000   0.92137423   -7.6970884    485.16949  0.019344876  0.019059357            4 
 2091000   0.90490915   -7.7369861    484.32074  0.019301799  0.019052814            4 
 2092000   0.91076046    -7.726237    484.06897  0.019282543  0.019046239            7 
 2093000   0.89790746   -7.7070837    485.62913  0.019335449  0.019039656            5 
 2094000   0.90399811   -7.6673774    486.15554  0.019347164  0.019033203            6 
 2095000   0.93077745   -7.6981434    484.64709  0.019277927  0.019026709            4 
 2096000   0.92038432   -7.6894381    486.69926   0.01935032  0.019020207            3 
 2097000   0.90887454   -7.7260484    484.88563   0.01926902  0.019013674           10 
 2098000   0.89103293   -7.7179734    484.61946  0.019249264   0.01900721            6 
 2099000   0.93998232   -7.6876192    485.50748  0.019275348  0.019000718            5 
 2100000   0.90946264    -7.665225    485.72391  0.019274758  0.018994249            3 
 2101000   0.91095907   -7.7171064    485.04607  0.019238699  0.018987755           11 
 2102000   0.89536461   -7.7139752    485.06472  0.019230285   0.01898119            5 
 2103000   0.90565372    -7.676183    485.33809  0.019231974  0.018974627            5 
 2104000   0.91968721    -7.718102    484.86346  0.019204034  0.018968053           10 
 2105000   0.94225279   -7.7060732    484.78426  0.019191776  0.018961468            4 
 2106000   0.90181547   -7.7183152    485.36938  0.019205816  0.018954868            7 
 2107000   0.92543948   -7.7193349    486.08429  0.019224976  0.018948262            9 
 2108000   0.89711975   -7.7320784    484.36237  0.019147785  0.018941675            9 
 2109000   0.91366407   -7.6845657    485.52609  0.019184688  0.018935092            4 
 2110000   0.91777953   -7.6951534    486.95175  0.019231902    0.0189285            4 
 2111000   0.90592589   -7.7070204    485.15044  0.019151683  0.018921873            8 
 2112000   0.90126512   -7.6815526    485.65335  0.019162459  0.018915263            7 
 2113000   0.91586022   -7.7207495    484.06326  0.019090679  0.018908694           13 
 2114000   0.91201048   -7.7292947    485.97436  0.019156984  0.018902061            9 
 2115000   0.90989163   -7.7177222     486.3883  0.019164236  0.018895464            7 
 2116000   0.92002642   -7.7100696    485.84599  0.019133821  0.018888881            7 
 2117000   0.91127067   -7.6950314    486.36371  0.019145163  0.018882306            5 
 2118000   0.91439483   -7.6937375    486.38669  0.019137027  0.018875717            7 
 2119000   0.92034085   -7.7120439    485.78814  0.019104457  0.018869198            5 
 2120000   0.88950798   -7.6952556    486.46385  0.019122007  0.018862656            5 
 2121000   0.90080777   -7.6988105    486.60272  0.019118447  0.018856122           11 
 2122000    0.9001834   -7.7044896    486.51088  0.019105831  0.018849571            8 
 2123000   0.91310703   -7.7236704    484.81014  0.019030073  0.018843006            5 
 2124000   0.89297243   -7.7121191    486.04449  0.019069542  0.018836467            5 
 2125000   0.90071429   -7.7255707    486.27591  0.019069643  0.018829909           10 
 2126000   0.92476953   -7.6921037    486.57505  0.019072399  0.018823345           15 
 2127000   0.91520689   -7.7033029    487.40142  0.019095808  0.018816777            5 
 2128000   0.91080016   -7.7434597    484.66096  0.018979517  0.018810219           11 
 2129000   0.89735907    -7.719924    486.70476  0.019050601  0.018803655            7 
 2130000   0.89222197   -7.6930066     487.4442  0.019070587  0.018797079           11 
 2131000   0.91124535   -7.7689778    485.17887  0.018973051  0.018790497           11 
 2132000   0.91399252    -7.736749    486.57911  0.019018883  0.018783888            8 
 2133000   0.92391979    -7.764059    487.07134  0.019029198  0.018777274            6 
 2134000   0.90443749   -7.7357959    485.02796  0.018940486  0.018770686           22 
 2135000    0.8987564   -7.7111604    487.39143  0.019023865  0.018764093            9 
 2136000   0.92560328   -7.7181969    488.05999  0.019041042  0.018757537           10 
 2137000   0.89824049   -7.7313224    486.91016  0.018987294   0.01875095           16 
 2138000   0.89400996   -7.7632301    486.18843  0.018950282  0.018744373            4 
 2139000   0.91333318    -7.746169    486.92604  0.018970159  0.018737755           10 
 2140000   0.89744491   -7.7544229    487.62903  0.018988669  0.018731156            7 
 2141000   0.89859135    -7.754177    486.82913  0.018948666  0.018724636            3 
 2142000   0.92285764   -7.7147733    488.94563  0.019022161  0.018718096            8 
 2143000   0.90125807   -7.7149246    488.61637  0.019000481   0.01871155           10 
 2144000   0.91262631   -7.6652688    489.27699  0.019017296  0.018705074            5 
 2145000   0.90042015   -7.7108329    488.91372  0.018994317  0.018698626            3 
 2146000   0.90384337   -7.7257903    489.18384  0.018995955  0.018692084            4 
 2147000   0.89310064   -7.7270279    488.30098   0.01895284  0.018685643            9 
 2148000   0.89640964    -7.752057    487.03655  0.018894962  0.018679126            8 
 2149000   0.89881696   -7.7334343    488.31932  0.018935913  0.018672668            7 
 2150000   0.88723358   -7.7448613    487.56183  0.018897746  0.018666224            6 
 2151000   0.90693079   -7.7356169    489.16617  0.018951115  0.018659759            5 
 2152000   0.91090207   -7.7309625    489.54885  0.018957127  0.018653322            7 
 2153000   0.91780256   -7.7222476    489.15001  0.018932885  0.018646913            8 
 2154000   0.90243228    -7.732312    488.98242  0.018917611  0.018640525            5 
 2155000   0.91931125   -7.7685027    487.81857  0.018863827  0.018634115            9 
 2156000   0.92962906   -7.7824543    489.73595  0.018929188  0.018627686           11 
 2157000    0.9014503   -7.7363961    490.79686  0.018961399  0.018621216            6 
 2158000   0.90510812   -7.7232911    489.78969   0.01891372  0.018614807            7 
 2159000   0.89559173   -7.6976903    490.59048  0.018935869  0.018608408            7 
 2160000   0.88061377    -7.753779    488.59457  0.018850099  0.018602015           12 
 2161000   0.90921115   -7.7046461    491.15061  0.018939943  0.018595618            4 
 2162000   0.88898959   -7.7551783    490.69595  0.018913658  0.018589236            8 
 2163000   0.91158481   -7.7339687    489.38458  0.018854391   0.01858284            7 
 2164000   0.90840376   -7.7451073    490.39213  0.018884478  0.018576467            8 
 2165000   0.89395766   -7.7145177    490.90724  0.018895583  0.018570089            7 
 2166000   0.92348575   -7.7164522    491.57054  0.018912378  0.018563739           11 
 2167000   0.89271343   -7.7411964    491.21994  0.018890168  0.018557349           12 
 2168000   0.91192027   -7.7253687    490.89118  0.018868819  0.018551018            5 
 2169000    0.9023471   -7.7441695    491.22887  0.018873093  0.018544656            8 
 2170000   0.89914594    -7.748487    490.84063  0.018849486  0.018538296            5 
 2171000   0.90281951   -7.7418003    491.06581  0.018849448  0.018531879            6 
 2172000   0.92152183   -7.7402336    491.39217  0.018853291  0.018525456           14 
 2173000   0.90721605   -7.7801742    490.20212  0.018798977  0.018519038            8 
 2174000   0.90670028    -7.785939     488.9856  0.018743698  0.018512592           13 
 2175000   0.89223991   -7.7503003     489.9665  0.018772663  0.018506081           26 
 2176000   0.89873468   -7.7707835    490.02717  0.018766359  0.018499642           23 
 2177000   0.90364207   -7.7046565     491.8321   0.01882683  0.018493212           14 
 2178000   0.90777923   -7.7553232    490.18145   0.01875503  0.018486799           15 
 2179000   0.87526631   -7.7225111    490.33334  0.018752231  0.018480411            4 
 2180000   0.89310142   -7.7643624    489.80769  0.018723536  0.018473993            8 
 2181000   0.91275109   -7.7400467    491.05192  0.018762491  0.018467556            9 
 2182000   0.89642308   -7.7641398    490.54322  0.018734464  0.018461072            4 
 2183000   0.89656523   -7.7409698    491.13573  0.018748501  0.018454597           16 
 2184000   0.89424079    -7.731532    491.12249  0.018739411  0.018448078           11 
 2185000   0.90422077   -7.7373914    489.83412  0.018681698  0.018441552           29 
 2186000   0.91061484   -7.7472664     490.1007  0.018683314  0.018435012           23 
 2187000   0.91000449   -7.7386195    491.06166  0.018711388  0.018428455           24 
 2188000   0.91340562   -7.7392955    490.03139  0.018663597  0.018421928            9 
 2189000   0.90241203   -7.7593728     490.5848  0.018676138  0.018415436           14 
 2190000   0.91646151   -7.6956441    491.93807  0.018719105  0.018408989            4 
 2191000   0.89768321   -7.7326241    490.17478  0.018643495  0.018402502            3 
 2192000   0.91137366   -7.7488379     490.9787  0.018665553  0.018395972            6 
 2193000   0.91503091   -7.7409304    490.54496  0.018640559  0.018389492           14 
 2194000   0.89954868   -7.7416092    490.68928  0.018637545  0.018383008           11 
 2195000   0.89002706   -7.7376001    489.72242  0.018592347  0.018376524            5 
 2196000    0.9172773   -7.7361488    490.43777  0.018611027  0.018370023            4 
 2197000   0.90268786   -7.7283966    490.79119  0.018615961  0.018363497            4 
 2198000   0.90816112   -7.7622805    490.98996  0.018615027  0.018356957            4 
 2199000   0.90867163   -7.7590674    491.67796  0.018632634  0.018350464            7 
 2200000   0.90250656   -7.7517502    491.24143   0.01860763  0.018343921            6 
 2201000   0.88747077   -7.7667787    489.97458  0.018551211  0.018337402            6 
 2202000    0.8852667   -7.7769973    490.88168  0.018577115   0.01833085            6 
 2203000   0.93336439   -7.7488887    490.14588  0.018540849  0.018324241            8 
 2204000   0.90395429   -7.7561234    490.85841  0.018559377  0.018317662            5 
 2205000   0.89453629   -7.7806522    491.16516  0.018562553  0.018311121           20 
 2206000   0.90702321   -7.7546059    491.62841  0.018571638  0.018304542            9 
 2207000   0.89398655   -7.7395588    491.26169  0.018549377  0.018297989            8 
 2208000    0.9044538   -7.7963448    490.32095   0.01850547  0.018291404            6 
 2209000   0.88762491   -7.7494771    490.86483  0.018517611   0.01828481            6 
 2210000   0.93102713   -7.7513676    491.49437   0.01853297  0.018278246            7 
 2211000   0.89084259    -7.758538    490.65178  0.018492831  0.018271709           11 
 2212000   0.89587799    -7.756834    490.36449  0.018473647  0.018265165            5 
 2213000   0.90585486   -7.7865084    491.20185  0.018496831  0.018258598            6 
 2214000   0.92386491   -7.7561931    491.72289  0.018508088   0.01825202            5 
 2215000   0.89796015    -7.785303    490.08007  0.018437926   0.01824545            9 
 2216000   0.91325514   -7.7521824    491.17561  0.018470803  0.018238909            7 
 2217000   0.88808558   -7.7499958    490.41878  0.018434024  0.018232307            6 
 2218000   0.88409659   -7.7475392    490.82106  0.018440827   0.01822571            4 
 2219000   0.90233453   -7.7677603    491.17375  0.018445762  0.018219114            9 
 2220000   0.87637434   -7.7157599    492.10496  0.018472408  0.018212535            4 
 2221000   0.90808302   -7.7461795    491.63614  0.018446501  0.018206012            8 
 2222000   0.87827437   -7.7428512    490.95566  0.018412678  0.018199456            4 
 2223000   0.91578335   -7.7511109    492.97893  0.018480242  0.018192881            8 
 2224000   0.89152952   -7.7288644    492.53249  0.018455204  0.018186324            4 
 2225000   0.90062312   -7.7705711    491.46522  0.018406937  0.018179744           15 
 2226000   0.87075778   -7.7562066    490.95312  0.018379497  0.018173127            7 
 2227000   0.89609344   -7.7829366    492.32746  0.018422671  0.018166588            6 
 2228000    0.8928697   -7.7961462    491.81404  0.018395199  0.018160024            6 
 2229000   0.89656639   -7.7668828    492.41086  0.018409259  0.018153479            6 
 2230000   0.90057646   -7.7856547    491.73549  0.018375766  0.018146845           22 
 2231000   0.88735928   -7.8275892    490.11331  0.018306937  0.018140193           10 
 2232000   0.88765958    -7.819597    490.02363  0.018295386  0.018133517            6 
 2233000   0.89716093   -7.7620752    491.53047  0.018343427  0.018126859           10 
 2234000   0.89040493   -7.7491811    492.11973  0.018357197  0.018120261           10 
 2235000   0.90045015   -7.7351253    492.50477   0.01836334  0.018113713            2 
 2236000   0.91926664   -7.7657761    492.21016  0.018344147  0.018107166            6 
 2237000   0.91485855   -7.7737349    492.11971  0.018332577  0.018100579            9 
 2238000   0.90085933    -7.759511    492.08964  0.018323266  0.018093982            7 
 2239000   0.88563735   -7.8167194     490.8774  0.018269964  0.018087365            7 
 2240000    0.8936863   -7.7696192    491.46133  0.018283532  0.018080734           12 
 2241000   0.87209106   -7.8008424    492.36087  0.018308823  0.018074159            6 
 2242000   0.90374114   -7.7290443    493.40869  0.018339603  0.018067551           11 
 2243000   0.88431481   -7.7880097     492.6627  0.018303711  0.018060983            5 
 2244000   0.88824077   -7.7630628    492.47093  0.018288433  0.018054385            5 
 2245000   0.90039329   -7.7910933    491.94034  0.018260592  0.018047782            3 
 2246000   0.88977698   -7.7836428     492.8635  0.018286714  0.018041185            5 
 2247000     0.904616   -7.7847654    492.06669  0.018249024  0.018034596            4 
 2248000   0.88969986   -7.7432955    492.69279  0.018264116  0.018028064            6 
 2249000   0.88080354    -7.728193    492.71966  0.018256991  0.018021471           11 
 2250000   0.89093266    -7.782072     492.6548  0.018246474  0.018014873            4 
 2251000   0.90301475    -7.775507    491.72246  0.018203853  0.018008244            8 
 2252000   0.89923877   -7.7835572    492.04956  0.018207873  0.018001627            7 
 2253000   0.89696001   -7.7924534    492.30114  0.018209097  0.017994995            7 
 2254000   0.90292627   -7.7591971    491.81642  0.018183097  0.017988354            7 
 2255000    0.8768957   -7.7630622    491.80457  0.018174596  0.017981736           13 
 2256000   0.90293632   -7.7766838    491.31492  0.018148453  0.017975175            6 
 2257000   0.89130083    -7.786244     492.8656  0.018197667  0.017968602            4 
 2258000    0.8755286   -7.7588635    492.25595  0.018167108  0.017961973            6 
 2259000   0.89785483   -7.7994654    491.79231  0.018141962  0.017955363            4 
 2260000   0.88493579   -7.7981037    491.84428  0.018135851  0.017948738            6 
 2261000   0.89306706   -7.7883678    492.10922  0.018137595  0.017942087            5 
 2262000   0.89664547   -7.7846368    493.02498  0.018163313  0.017935423            8 
 2263000   0.87796107   -7.7714108    491.66265   0.01810512  0.017928774            9 
 2264000   0.89034573   -7.8053698    493.48794  0.018164309  0.017922115            8 
 2265000    0.8917832   -7.7953748    491.45534  0.018081506  0.017915459           10 
 2266000   0.89842377    -7.790075    491.75886  0.018084689  0.017908818            8 
 2267000   0.90261152   -7.7552154    494.23606  0.018167772  0.017902231            6 
 2268000   0.89467505   -7.7574295    493.06655   0.01811679  0.017895663            6 
 2269000    0.8870916   -7.7889732    493.11097  0.018110437   0.01788903            5 
 2270000   0.88962964    -7.784085    492.71632  0.018087971  0.017882439            6 
 2271000   0.89939268   -7.7472166    492.73033   0.01808052  0.017875859           10 
 2272000    0.8809584   -7.7702145    493.28241  0.018092811  0.017869316            4 
 2273000   0.87893902   -7.8018664    493.15459  0.018080165  0.017862715            6 
 2274000   0.88789779   -7.7752497    493.10476  0.018070388  0.017856093           10 
 2275000   0.90225386   -7.7810891    494.12973   0.01809999  0.017849512            8 
 2276000   0.89208525   -7.7825426    493.42816   0.01806635  0.017842891            9 
 2277000   0.86956199   -7.7974736     493.1865  0.018049572   0.01783628            7 
 2278000   0.88009347   -7.8128627    492.83445   0.01802877  0.017829663            3 
 2279000   0.88936773    -7.794971    493.64554  0.018050517  0.017823098            4 
 2280000   0.87256116    -7.792232    494.35531  0.018068542  0.017816556            9 
 2281000   0.89190058   -7.7805737    494.23287  0.018056147   0.01780997            4 
 2282000   0.88718798   -7.8059136    493.43032  0.018018928  0.017803413           15 
 2283000   0.88922828   -7.7685617    495.16166  0.018074232  0.017796813            4 
 2284000   0.87244141   -7.7517625    494.93662  0.018058108  0.017790266            7 
 2285000   0.89440379   -7.7619446     493.9994  0.018016025  0.017783705           10 
 2286000   0.88030706   -7.7514074    494.71179  0.018034113  0.017777144            8 
 2287000   0.88880676   -7.7785763    494.18873  0.018007168  0.017770576           20 
 2288000   0.88531636   -7.7719817    494.24805  0.018001459  0.017764017            8 
 2289000   0.86552455   -7.7787264    493.92687  0.017981902   0.01775747            5 
 2290000   0.88988092   -7.7690666    493.39735   0.01795478  0.017750923            8 
 2291000    0.8692559   -7.8121459    494.28355  0.017979177  0.017744346            5 
 2292000   0.89738698   -7.8040139    492.97096   0.01792361   0.01773773            3 
 2293000   0.88144045   -7.8301341    492.27176  0.017890382  0.017731108            6 
 2294000   0.87798125   -7.8024369    493.47812  0.017926407  0.017724459           24 
 2295000   0.89138083   -7.8629748    492.80335  0.017894094  0.017717778            9 
 2296000   0.87631126   -7.8446825    492.71313  0.017883026  0.017711098           12 
 2297000   0.88870492   -7.8341667     493.7338   0.01791227  0.017704433           10 
 2298000   0.86466958    -7.838516    493.05815  0.017879974  0.017697741           15 
 2299000   0.87779475   -7.8033502    493.55601  0.017890243  0.017691085            4 
 2300000   0.89298172   -7.7982294    493.88155  0.017894259  0.017684449            7 
 2301000   0.89481757   -7.7879782    494.62823  0.017913524  0.017677855            5 
 2302000    0.8657752    -7.859015    493.21239  0.017854488  0.017671208           12 
 2303000    0.8952972   -7.8675431    492.62671  0.017825543   0.01766451            9 
 2304000   0.87310823   -7.7865587    494.45388  0.017883893  0.017657882            6 
 2305000   0.87143242   -7.8182735    494.93458  0.017893513  0.017651269            7 
 2306000   0.90998388   -7.8442716    492.88113  0.017811547  0.017644666            9 
 2307000   0.90978444    -7.837072    493.26442  0.017817671  0.017638015           18 
 2308000   0.89884312   -7.7801383    494.66418  0.017860492  0.017631399           14 
 2309000   0.87679363   -7.8319849    494.51713  0.017847449    0.0176248            8 
 2310000    0.8852817   -7.8165188    495.05374  0.017859081  0.017618178            6 
 2311000    0.8677778   -7.8031911    494.67748  0.017837786   0.01761154            5 
 2312000   0.90507274   -7.7800794    495.10487  0.017845475  0.017604954            5 
 2313000   0.86755708   -7.7774839    494.16796  0.017804005  0.017598363            4 
 2314000   0.87300469   -7.7970926    495.25473  0.017835448  0.017591742            5 
 2315000   0.88867926   -7.7711068    495.58616  0.017839675  0.017585165            6 
 2316000   0.90847037   -7.7689465    495.39567  0.017825118  0.017578595            9 
 2317000   0.89287218   -7.7975302    493.57065  0.017751786  0.017571997            7 
 2318000   0.87209909   -7.8111683    495.13794  0.017800472  0.017565394            7 
 2319000   0.89697547   -7.7968526    495.89575  0.017820028  0.017558795            5 
 2320000   0.87395698   -7.8091289    494.31909  0.017755715  0.017552213           10 
 2321000   0.89905564   -7.7734095    495.00507  0.017772694  0.017545649            7 
 2322000   0.87004849   -7.7963055    495.52917  0.017783849  0.017539085            4 
 2323000   0.88920214   -7.7879831    496.00647  0.017793316  0.017532497            4 
 2324000   0.89155932   -7.7871457    495.01237  0.017750013   0.01752588            8 
 2325000   0.88532593   -7.8322538    493.54833  0.017689904  0.017519244            7 
 2326000   0.87797569    -7.829055    494.14298  0.017703604   0.01751258            7 
 2327000   0.87029853   -7.8098278    493.64921  0.017678313  0.017505918            9 
 2328000   0.89169696   -7.8263692    495.04264  0.017720599  0.017499206            5 
 2329000   0.85236781   -7.8175563    494.00564  0.017675885  0.017492559            6 
 2330000   0.87166549   -7.7700586    495.43736  0.017719505  0.017485945            4 
 2331000   0.88192199   -7.8196194    493.69467  0.017649602  0.017479333            6 
 2332000    0.8813311    -7.834667    494.50459  0.017670976  0.017472685           38 
 2333000   0.88788243   -7.8027557    495.27423  0.017690893  0.017466057           23 
 2334000   0.87303913   -7.7819574    493.98696  0.017637352  0.017459469           38 
 2335000   0.89159147   -7.8136096    495.63942  0.017688773  0.017452832           30 
 2336000   0.86739084   -7.8366535    493.33567  0.017599018  0.017446134           43 
 2337000   0.89030312   -7.8332714    493.17893  0.017585898  0.017439414           16 
 2338000   0.88143983   -7.8337388    494.07291  0.017610241  0.017432695           28 
 2339000   0.90045598   -7.8693193    492.95345  0.017562828  0.017426002           10 
 2340000   0.87706909   -7.8319368    495.08455  0.017631216  0.017419302           16 
 2341000   0.86591242   -7.8351457    494.56043  0.017605027  0.017412585            5 
 2342000   0.87792232   -7.8350084    495.01058  0.017613527  0.017405939           14 
 2343000   0.88220044   -7.8223115    495.06645  0.017607997    0.0173993           11 
 2344000   0.87816351   -7.8301045    494.27568  0.017572372  0.017392654           11 
 2345000   0.87010793   -7.8258964    495.08446   0.01759362   0.01738599           21 
 2346000   0.91159069    -7.799718    494.32908  0.017559288  0.017379319            3 
 2347000   0.88269616   -7.8167706    496.20906  0.017618558  0.017372684            5 
 2348000   0.88797649   -7.8088145    495.07027  0.017570637  0.017366055            6 
 2349000   0.86059368    -7.800383    495.74062  0.017586938  0.017359436            7 
 2350000   0.86445856    -7.839015    494.96358    0.0175519   0.01735286            8 
 2351000   0.89429587   -7.8116983    495.95707   0.01757965  0.017346263            6 
 2352000   0.89113441   -7.7989294    496.31303  0.017584787  0.017339703           11 
 2353000   0.87043821    -7.815224    497.20819  0.017609016  0.017333097            7 
 2354000   0.88006085   -7.8170033    496.48998  0.017576111  0.017326527           11 
 2355000   0.88261318   -7.8400739     494.5554  0.017500191  0.017319906           11 
 2356000   0.87802212   -7.8228711    495.65209  0.017531554  0.017313303           10 
 2357000   0.86934422    -7.840145    495.84185  0.017530825  0.017306752            4 
 2358000   0.86427138   -7.8541319    494.57331  0.017478559  0.017300133            7 
 2359000   0.87656643   -7.8601134    494.61594  0.017472656  0.017293519            9 
 2360000   0.87967377   -7.8448338    496.01788  0.017514756  0.017286905            9 
 2361000   0.87894137   -7.8468693    495.13903  0.017476317  0.017280268           11 
 2362000   0.88970369   -7.8792564    495.49574  0.017481504  0.017273633            9 
 2363000   0.85895567   -7.8548822     494.4964  0.017438863  0.017266983           13 
 2364000   0.88554102   -7.8848123    494.48697  0.017431154  0.017260289           16 
 2365000   0.86598841   -7.9054771    494.25553  0.017415628  0.017253569            3 
 2366000   0.86921874   -7.8762159    493.71689  0.017389296   0.01724684            8 
 2367000   0.86083978   -7.8829099    493.03708  0.017358016  0.017240121            6 
 2368000   0.87335328   -7.8977483    494.53076   0.01740325  0.017233392           19 
 2369000   0.86364602   -7.8653218    495.85299  0.017442416  0.017226718           17 
 2370000   0.86151706   -7.8499793    494.76217  0.017396701   0.01722002           18 
 2371000    0.8492392   -7.8588139    494.87907  0.017393472  0.017213385           13 
 2372000   0.86835755   -7.8722515     494.5384  0.017374171  0.017206689            7 
 2373000   0.87980092   -7.8619699      494.545  0.017367081  0.017199967            5 
 2374000    0.8799855   -7.8498679    496.32912  0.017422393  0.017193271            5 
 2375000   0.87689566   -7.8707276    495.45417  0.017384357  0.017186603            6 
 2376000   0.88475698    -7.860324    495.67633  0.017384832  0.017179937           14 
 2377000   0.88510156   -7.8304636    496.38023  0.017402196  0.017173331            7 
 2378000   0.86982726    -7.826227    496.37747  0.017394781  0.017166755            4 
 2379000   0.88290551   -7.8488841    495.61004  0.017360587   0.01716017            8 
 2380000   0.89033556   -7.8373421    497.43874  0.017417323  0.017153607            5 
 2381000   0.88756134   -7.8267462    496.76759  0.017386518  0.017147028            4 
 2382000   0.87999822   -7.8670592    496.72015  0.017377559  0.017140437            5 
 2383000   0.87652431   -7.8740543    496.41283   0.01735952  0.017133851           15 
 2384000   0.88150384   -7.8722935    496.20608  0.017345011  0.017127282           13 
 2385000   0.86090385   -7.8659803    496.61676  0.017352088  0.017120714           31 
 2386000   0.85630265   -7.8571678    497.18872  0.017364792  0.017114181           11 
 2387000   0.86836507   -7.8667218    496.62116  0.017337703  0.017107606           34 
 2388000   0.88667201    -7.863165    495.11016  0.017277713  0.017101037           30 
 2389000   0.85152183   -7.8677781    496.69716  0.017325839  0.017094473           11 
 2390000   0.86336849   -7.8175354    499.05545  0.017400818  0.017087928           33 
 2391000   0.87147539   -7.8219252    498.01176  0.017357165   0.01708144           41 
 2392000   0.86926661   -7.8330389    498.13906  0.017354343  0.017074992           22 
 2393000   0.87095212    -7.811444    498.42925  0.017357196  0.017068521           21 
 2394000   0.86302929   -7.8548689    496.77947  0.017292519  0.017062048           27 
 2395000    0.8708062   -7.8322742    497.60774  0.017314118  0.017055594            7 
 2396000   0.87595307    -7.862614    497.55862  0.017305183  0.017049114           17 
 2397000    0.8713297   -7.8641615    497.49349  0.017295699  0.017042612           14 
 2398000   0.85075019    -7.878964    496.31536  0.017247545  0.017036099           18 
 2399000   0.85815783   -7.8599296    496.68656   0.01725325  0.017029553           19 
 2400000    0.8358069   -7.8986716    496.84438  0.017251541  0.017022983           18 
 2401000     0.852439   -7.8970945    496.29134  0.017225161  0.017016418           14 
 2402000   0.86612306   -7.8754513    496.55189  0.017227029  0.017009857           13 
 2403000   0.85626434   -7.8593768    498.23281  0.017278153  0.017003341           13 
 2404000   0.87227663   -7.8608648    496.74894  0.017219528  0.016996854           11 
 2405000   0.86496668   -7.8515822    499.36423  0.017302988  0.016990342           13 
 2406000   0.85272145   -7.8640856    497.96892  0.017247469  0.016983838           14 
 2407000   0.87365237   -7.8615842    498.25151  0.017250087  0.016977348           29 
 2408000   0.86769622   -7.8428871    497.84201  0.017228752  0.016970845           39 
 2409000   0.86677481   -7.8808812    497.40619  0.017206524  0.016964334           24 
 2410000   0.86524961   -7.8850029    497.55053  0.017204375  0.016957812           32 
 2411000   0.87399468   -7.8798633    497.43085  0.017193103  0.016951292           53 
 2412000   0.86578813   -7.8797285    497.95544  0.017204099  0.016944798           44 
 2413000   0.86333903   -7.8607827    496.74886    0.0171553  0.016938316           87 
 2414000   0.88521878   -7.8614987      497.636  0.017178818  0.016931834           81 
 2415000   0.86253372   -7.8924744    497.75579  0.017175838  0.016925332           79 
 2416000   0.88715466    -7.907679    498.36941  0.017189894  0.016918852           32 
 2417000   0.86369038   -7.8763933    497.69019  0.017159364  0.016912387          108 
 2418000   0.84400889    -7.891572    497.70366  0.017152732  0.016905939           37 
 2419000   0.85177964   -7.8981124    498.33133  0.017167264  0.016899496           52 
 2420000   0.86152144   -7.9048292    499.71964  0.017207977  0.016893071           61 
 2421000   0.85517702   -7.8794625    498.51042  0.017159246  0.016886633          116 
 2422000   0.86332868   -7.8973298    498.89375  0.017165351   0.01688019           80 
 2423000   0.87876121   -7.8486267    499.47185  0.017178149   0.01687378           82 
 2424000   0.87901217    -7.838235     499.4549  0.017170479  0.016867369           42 
 2425000   0.85497386   -7.8350038    500.12793  0.017186527  0.016860987           45 
 2426000   0.85248138   -7.8343997    499.72315  0.017165538  0.016854584           39 
 2427000   0.88277246   -7.8616951    499.09956  0.017137054  0.016848149           37 
 2428000   0.86344028   -7.8778971    498.39481  0.017105808  0.016841689           60 
 2429000   0.85881889   -7.8708695    499.27418  0.017128934  0.016835244           72 
 2430000   0.84847813   -7.8477688    499.06691  0.017114777  0.016828826           31 
 2431000   0.86291914   -7.8801113    498.00873  0.017071463  0.016822401           60 
 2432000   0.83647169   -7.8909946    498.14682  0.017069176  0.016815954           14 
 2433000   0.86001133   -7.8937622    498.82244  0.017085301  0.016809479           24 
 2434000   0.87562178   -7.9046401    497.49018  0.017032668  0.016803019           17 
 2435000   0.86352427   -7.9021339    498.01577  0.017043661  0.016796574           34 
 2436000    0.8519245   -7.9051363    498.35216  0.017048172  0.016790118           15 
 2437000   0.85410205    -7.894501    499.09943  0.017066729  0.016783685           17 
 2438000    0.8680021   -7.9030709    498.83689  0.017050755  0.016777254           12 
 2439000   0.87420707   -7.8964162    498.56784  0.017034571  0.016770819           29 
 2440000   0.87289193   -7.9055725    499.34947  0.017054285  0.016764379           17 
 2441000   0.85221398   -7.9246852    498.92815  0.017032915  0.016757922           20 
 2442000   0.86458374   -7.9219499    498.79099   0.01702126  0.016751459           21 
 2443000   0.86637326   -7.9114323      498.631  0.017008835  0.016744963           49 
 2444000   0.86069796   -7.9021706    498.49797  0.016997339  0.016738484           27 
 2445000   0.84626718   -7.8962411    499.51313  0.017024987  0.016731991           10 
 2446000   0.87951956    -7.893682    498.55724  0.016985461  0.016725521            9 
 2447000    0.8558885   -7.9026089    498.48658  0.016976113  0.016719042           18 
 2448000   0.86680567    -7.878675    498.71026  0.016976793  0.016712568           18 
 2449000   0.84535177   -7.9016393    499.08849  0.016982731  0.016706109            4 
 2450000   0.86882145   -7.8770435    499.74273  0.016998052   0.01669963           11 
 2451000   0.84572523   -7.8629003    498.47585  0.016948043  0.016693213           12 
 2452000   0.84899757   -7.8785362    498.77265  0.016951218  0.016686735           10 
 2453000   0.87226998   -7.9001036    498.13992  0.016922813  0.016680249           15 
 2454000   0.86585615   -7.8996847    498.77897  0.016937618   0.01667378           14 
 2455000   0.87325897    -7.876447    499.03675  0.016939469  0.016667324            9 
 2456000   0.84471976   -7.8506843    499.59761  0.016951602  0.016660909            6 
 2457000   0.83360708    -7.869829    498.48011  0.016906801  0.016654506           21 
 2458000   0.86760565   -7.8684194    499.12387  0.016921748  0.016648075            9 
 2459000   0.85924901   -7.8796621    498.89284  0.016907037  0.016641671           12 
 2460000    0.8492785   -7.8347007    501.05845  0.016973525  0.016635294            8 
 2461000   0.85633819   -7.8880313    499.74528  0.016922162  0.016628924            7 
 2462000   0.86503259   -7.9016001    499.35834  0.016902191  0.016622508            8 
 2463000   0.85593407   -7.8936649    499.16866  0.016888911  0.016616079           19 
 2464000   0.85381527   -7.8822789    499.22635  0.016884008  0.016609636           10 
 2465000   0.86869248   -7.8899248    499.13677   0.01687413  0.016603235           15 
 2466000   0.85099785   -7.8817557    498.60846  0.016849434  0.016596812            8 
 2467000   0.84944224   -7.8956592    498.83481   0.01685025  0.016590384            6 
 2468000   0.86019753   -7.9047435    499.03748  0.016850266  0.016583925            6 
 2469000   0.85007292   -7.8923324     498.3616  0.016820629  0.016577496           13 
 2470000   0.85846172   -7.9253904    498.07342  0.016804097  0.016571055            5 
 2471000   0.85240568   -7.8779248    499.73816  0.016853438  0.016564632            3 
 2472000   0.87551949   -7.9225047    499.75729  0.016847266  0.016558205            7 
 2473000   0.84849677   -7.8852638    499.85286  0.016843674  0.016551779            9 
 2474000   0.84796366   -7.9217633    498.00774  0.016774715   0.01654536           15 
 2475000   0.83956628   -7.8666079    501.32941  0.016879778  0.016538965           16 
 2476000   0.87056624   -7.8791293    499.79088  0.016821179  0.016532589            6 
 2477000   0.85457197   -7.8770728    499.67811  0.016810595  0.016526191            9 
 2478000   0.85347067   -7.8961148    500.16135  0.016820062  0.016519804            7 
 2479000   0.85190279    -7.931626    499.41023  0.016788027  0.016513407           10 
 2480000    0.8530462   -7.9275418    499.22316  0.016774972  0.016506997           29 
 2481000   0.83704457   -7.9021807    500.09188   0.01679739  0.016500535           30 
 2482000    0.8487115   -7.9069003    498.55458  0.016739007  0.016494106           38 
 2483000   0.83360663   -7.8699703    500.39858  0.016794153  0.016487713           48 
 2484000   0.84400956   -7.8920186    500.86265   0.01680296  0.016481345           22 
 2485000   0.84858704   -7.8870719    500.08631  0.016770165  0.016475015           40 
 2486000   0.84455048   -7.9258675    500.92621  0.016791573  0.016468637           24 
 2487000   0.86120159   -7.9526431    499.51187   0.01673743  0.016462272           26 
 2488000   0.85098452   -7.9145136    499.80974   0.01674068  0.016455901           22 
 2489000   0.87583059   -7.9154768     500.0345  0.016741479  0.016449554           20 
 2490000   0.85623244   -7.9088953    500.66889  0.016755987  0.016443204           27 
 2491000   0.85865529   -7.9277263    500.15549  0.016732085  0.016436863           22 
 2492000   0.85486398   -7.8756975    502.53418  0.016804915  0.016430557           34 
 2493000   0.82609193    -7.898173     499.9823  0.016712873  0.016424205           19 
 2494000   0.85081562   -7.9411736    499.66271  0.016695493  0.016417889           21 
 2495000   0.85815652   -7.9178343    501.24398  0.016741616  0.016411557           35 
 2496000    0.8575799   -7.9114519    500.63364  0.016714531  0.016405228            9 
 2497000   0.82776824   -7.9599126     501.1237  0.016724193  0.016398938           25 
 2498000   0.86509037   -7.9150352    501.48178  0.016729443  0.016392616           18 
 2499000   0.85204773   -7.9237942    500.65717  0.016695251  0.016386314           30 
 2500000   0.85879297   -7.9007382    502.06722  0.016735574  0.016380027           31 
 2501000   0.85082373   -7.9157141    501.69814  0.016716585  0.016373713           26 
 2502000   0.86161435   -7.9087389     501.1581  0.016691916  0.016367394           26 
 2503000   0.86415181   -7.9036449    500.74052  0.016671345  0.016361108           42 
 2504000   0.84739482   -7.9069802    501.46897   0.01668893  0.016354812           22 
 2505000   0.85607067   -7.9244922    501.46587  0.016682165  0.016348479           21 
 2506000   0.84403929   -7.9598771    501.09635   0.01666322   0.01634215           16 
 2507000   0.84467686   -7.9431919    500.16307  0.016625551    0.0163358           22 
 2508000   0.85082013   -7.9447948    500.15465  0.016618642  0.016329479           15 
 2509000   0.86721059   -7.9400771    500.75471  0.016631948  0.016323123           25 
 2510000   0.84887359    -7.944927    501.31821  0.016644031  0.016316812           34 
 2511000   0.83857413    -7.911182    501.41971  0.016640771  0.016310516           11 
 2512000   0.86301515   -7.9640404    500.26853  0.016595957  0.016304199           33 
 2513000   0.85279173   -7.8996947    502.14245  0.016651494  0.016297889           37 
 2514000   0.86401072   -7.9392448    501.56437  0.016625708  0.016291577           19 
 2515000   0.85577326   -7.9260769    501.17423  0.016606171  0.016285296           34 
 2516000   0.85631784    -7.955819    501.12011  0.016597778  0.016278991           29 
 2517000    0.8477246   -7.9282464    501.46081  0.016602464  0.016272674           12 
 2518000   0.85291626    -7.964117    500.86527  0.016576161   0.01626639           16 
 2519000   0.84998895   -7.9573461    501.27743  0.016583215   0.01626012           20 
 2520000   0.82709888    -7.924241    502.24638  0.016608677  0.016253812           22 
 2521000   0.83576801    -7.914129    501.69891  0.016583991  0.016247512           17 
 2522000   0.85258261   -7.9001645    501.85091  0.016582438  0.016241267           15 
 2523000    0.8560854   -7.9310371    501.17533  0.016553552  0.016234997           34 
 2524000    0.8583428   -7.9189187    502.37244  0.016586518  0.016228722           39 
 2525000   0.86235435   -7.9655089     501.1824  0.016540673  0.016222424           21 
 2526000   0.84860724   -7.9461336    501.11564  0.016531923   0.01621616           22 
 2527000   0.83838497   -7.9156034    502.86954  0.016583219  0.016209866           27 
 2528000   0.86107423   -7.9149259    501.62536  0.016535646  0.016203586           25 
 2529000   0.81649005   -7.9353975    500.92499   0.01650603  0.016197299           23 
 2530000   0.84158232   -7.9751175    501.54124  0.016519804  0.016191023           31 
 2531000   0.87634423    -7.930463    501.47004  0.016510932  0.016184768           48 
 2532000   0.85384324   -7.9131926    502.31341  0.016532169  0.016178528           33 
 2533000   0.84175392   -7.9603621    501.19196  0.016488747  0.016172299           35 
 2534000   0.87005344     -7.93676    501.16307   0.01648129  0.016166033           42 
 2535000   0.86951946   -7.9085131    502.95084  0.016533558    0.0161598           43 
 2536000   0.84578336   -7.8915967    504.26717  0.016570293  0.016153602           42 
 2537000    0.8359527   -7.9580128     500.4134  0.016437176  0.016147374           47 
 2538000   0.84943593   -7.9377417    501.25677  0.016458392  0.016141135           41 
 2539000    0.8375662   -7.9466179    502.81479  0.016503045  0.016134883           42 
 2540000   0.83927638   -7.9630689     501.7362  0.016461161  0.016128612           56 
 2541000   0.82681194   -7.9688777    501.28729  0.016439961  0.016122318           56 
 2542000   0.86815714   -7.9784271    501.56769  0.016442686  0.016116013           50 
 2543000   0.86275927   -7.9723407    501.75735  0.016442435  0.016109712           66 
 2544000   0.83469654   -7.9340708    501.88837  0.016440264  0.016103427           50 
 2545000   0.86856254   -7.9437145    502.32581  0.016448127  0.016097172           93 
 2546000   0.84374899   -7.9453932    502.23876  0.016438818  0.016090908           72 
 2547000   0.84904719   -7.9271065    503.25325  0.016465556  0.016084649           55 
 2548000   0.83545559   -7.9597132    501.54447  0.016403207  0.016078364           65 
 2549000   0.85271266   -7.9420626     501.7158  0.016402374  0.016072057           50 
 2550000   0.84482113   -7.9618228    501.89952  0.016401945   0.01606578           50 
 2551000   0.83645892   -7.9811668    500.03208  0.016334512  0.016059477           54 
 2552000   0.85143648   -7.9711429    500.97019  0.016358744  0.016053165           52 
 2553000   0.82445559   -7.9377827    502.06181  0.016387969   0.01604687           89 
 2554000   0.85029253   -7.9641886    501.59368  0.016366278  0.016040608           92 
 2555000   0.82183248   -7.9661564    502.10523  0.016376557  0.016034323          107 
 2556000   0.84400796   -7.9506124    500.75912  0.016326262  0.016028077          113 
 2557000   0.86077615   -7.9400105    503.18975  0.016399092  0.016021871           75 
 2558000   0.84118694   -7.9776513    502.44637  0.016368464  0.016015629           87 
 2559000   0.84243693   -7.9691961    502.57513  0.016366261  0.016009371           93 
 2560000   0.84882836   -7.9748274    501.60764  0.016328374  0.016003136           95 
 2561000   0.85380165   -7.9619791    500.90457   0.01629912  0.015996873          138 
 2562000   0.84345647   -7.9717154    500.93621  0.016293788  0.015990583          161 
 2563000   0.82619634   -8.0148105    501.92019  0.016319424  0.015984313          182 
 2564000   0.84415526   -7.9871573    502.12849  0.016319829  0.015978046          157 
 2565000   0.83654021   -7.9906179     500.8719  0.016272641  0.015971789          160 
 2566000   0.83474097   -8.0036687    501.29904  0.016280172  0.015965489          151 
 2567000   0.82383676   -7.9865107    500.82569  0.016258463  0.015959196          152 
 2568000   0.85740368   -8.0268953    501.05199  0.016259475  0.015952908          167 
 2569000   0.81539811   -7.9969741    501.90707  0.016280883  0.015946618          145 
 2570000   0.84079839   -7.9603575    502.26481  0.016286148  0.015940362          153 
 2571000   0.83766012   -7.9829352    502.33334  0.016282035  0.015934099          180 
 2572000   0.84621964   -7.9702715    501.16346    0.0162378  0.015927843          175 
 2573000   0.84513232   -7.9816607    502.21107  0.016265419  0.015921566          224 
 2574000    0.8513943   -7.9992866    502.66438  0.016273775  0.015915295          214 
 2575000   0.84097571   -8.0243263    501.39239  0.016226291   0.01590903          240 
 2576000   0.83846677   -8.0033242    502.24309  0.016247512  0.015902777          199 
 2577000   0.84371213   -7.9962177    501.56696  0.016219343  0.015896532          212 
 2578000   0.83632858   -8.0107844     501.6696  0.016216369  0.015890278          269 
 2579000   0.84712866   -7.9957112    502.04346  0.016222162  0.015884059          258 
 2580000   0.84326805   -7.9989566    502.37849  0.016226695   0.01587783          275 
 2581000   0.82180477   -7.9999993    502.36161  0.016219864  0.015871609          265 
 2582000   0.82498778   -7.9854835    502.31808  0.016212177  0.015865358          268 
 2583000    0.8388832   -8.0406269    502.57097  0.016214059  0.015859115          266 
 2584000   0.84246992   -8.0227903      500.813   0.01615109  0.015852876          266 
 2585000   0.84401754   -8.0316498    501.77196  0.016175756   0.01584663          259 
 2586000   0.82458998   -8.0293222    502.01914  0.016177466  0.015840381          261 
 2587000   0.84627543   -8.0614938    500.15427  0.016111141  0.015834094          279 
 2588000    0.8557269   -8.0081135    502.36719  0.016176172  0.015827861          251 
 2589000   0.83336206   -8.0305154    503.72085  0.016213495  0.015821584          269 
 2590000   0.83150718   -8.0203628    502.25952  0.016160216  0.015815347          361 
 2591000    0.8335314   -8.0337948    501.73609  0.016137144  0.015809099          335 
 2592000   0.82445729   -8.0271383    502.53645   0.01615665  0.015802877          411 
 2593000    0.8367543   -8.0458695     502.3214  0.016143508  0.015796632          417 
 2594000   0.83983351   -8.0514078    503.11069  0.016162641  0.015790412          381 
 2595000   0.82619104   -8.0191467    502.01415  0.016121199  0.015784193          392 
 2596000   0.84564447   -8.0330635     503.0709  0.016148912  0.015777959          394 
 2597000   0.85629043   -8.0424095    501.01591  0.016076752  0.015771698          492 
 2598000    0.8470683   -8.0478386    501.24934  0.016078052  0.015765432          512 
 2599000   0.83866677    -8.068577    502.56356  0.016114004  0.015759139          555 
 2600000   0.84104185   -8.0374574    500.68074   0.01604746  0.015752861          533 
 2601000   0.82304682   -8.0547016    501.28519  0.016060656  0.015746579          583 
 2602000   0.82656383   -8.0792434    500.28486  0.016022446  0.015740276          574 
 2603000   0.83051272   -8.0788309    501.38496   0.01605151  0.015733979          585 
 2604000   0.83896447   -8.0580736    502.25037   0.01607304  0.015727676          594 
 2605000   0.84522534   -8.0583523    501.80307  0.016052561  0.015721394          635 
 2606000   0.83802041   -8.0816083    500.97891  0.016020047  0.015715075          711 
 2607000   0.83591407    -8.101055    500.89363  0.016011176  0.015708752          720 
 2608000   0.82658612   -8.1303692    500.33687  0.015987247  0.015702374          804 
 2609000   0.83302657   -8.1069431    501.19707  0.016008594  0.015696008          773 
 2610000   0.82842358    -8.130546     500.4957  0.015980067  0.015689645          762 
 2611000   0.84004698   -8.1119393    500.40918  0.015971185  0.015683256          792 
 2612000   0.81758582   -8.1032665    500.35745  0.015963421  0.015676893          936 
 2613000   0.83261154   -8.1488034    499.69761  0.015936268  0.015670489         1015 
 2614000   0.83035871   -8.1698498    499.05878  0.015909806  0.015664094         1028 
 2615000   0.83994668   -8.1311132    499.08283  0.015904488  0.015657695         1029 
 2616000   0.82019898   -8.1873962     499.7324  0.015919101  0.015651275         1102 
 2617000    0.8274664   -8.1411762    499.05708  0.015891513  0.015644845         1165 
 2618000   0.80999954   -8.1735302     500.0116  0.015915826  0.015638426         1178 
 2619000   0.81507719   -8.1900838    498.69445  0.015867839  0.015631947         1277 
 2620000   0.83297137   -8.2009312    498.68263  0.015861407  0.015625467         1250 
 2621000   0.83300052   -8.1561597    500.02225  0.015897948  0.015619023         1201 
 2622000   0.83743326   -8.1949505    498.41434  0.015840781  0.015612572         1315 
 2623000   0.83996025   -8.2227687    498.05135   0.01582321  0.015606097         1360 
 2624000   0.82666498   -8.2189603    498.25614  0.015823683    0.0155996         1306 
 2625000   0.84634865   -8.2011096    498.24954  0.015817446  0.015593102         1328 
 2626000   0.83555419   -8.2072953    498.21595  0.015810356  0.015586614         1346 
 2627000   0.84175866   -8.2293474    498.98279  0.015828663   0.01558014         1457 
 2628000   0.83175524   -8.2235834    498.29439  0.015800811  0.015573612         1588 
 2629000   0.85681762   -8.2665321    497.17476  0.015759312  0.015567079         1564 
 2630000   0.81855766   -8.2386524    497.98556   0.01577901  0.015560511         1621 
 2631000   0.82046907   -8.2651049    496.73621  0.015733441  0.015553923         1732 
 2632000    0.8330939   -8.3029008    497.61939  0.015755426  0.015547335         1836 
 2633000   0.83274019    -8.285193    496.55103   0.01571563  0.015540724         1839 
 2634000   0.83132595   -8.3087077    497.20973  0.015730503  0.015534107         1889 
 2635000    0.8216661   -8.3088467    495.58451  0.015673135  0.015527468         2068 
 2636000   0.82536903   -8.3265756    496.22945  0.015687578   0.01552081         2157 
 2637000   0.82616363    -8.345936    494.94755  0.015641118  0.015514159         2235 
 2638000   0.84291622   -8.3387542    495.03459  0.015637939  0.015507474         2180 
 2639000   0.81171139   -8.3815545     493.3022  0.015577308  0.015500753         2296 
 2640000   0.82717589    -8.359382    495.37637   0.01563688  0.015494007         2356 
 2641000   0.84300998   -8.3978509    494.96034  0.015617832  0.015487243         2496 
 2642000   0.83811234   -8.4094831    492.07694  0.015520973  0.015480464         2631 
 2643000   0.84008748   -8.4196765    493.86605  0.015571511  0.015473667         2628 
 2644000   0.80936054   -8.4442068    493.91017  0.015567013  0.015466846         2609 
 2645000   0.82517663   -8.4730072    491.72678  0.015492337  0.015459971         2827 
 2646000   0.82959978   -8.5027723    491.80945  0.015489086  0.015453057         2887 
 2647000   0.85109375   -8.5148976    490.89645  0.015454491  0.015446102         3109 
 2648000   0.83370854    -8.543585    490.23073  0.015427704  0.015439072         3230 
 2649000   0.83978485   -8.5273406    490.03822  0.015415824  0.015432032         3288 
 2650000   0.83040062   -8.5696426    489.47623  0.015392334  0.015424976         3319 
 2651000   0.83100146    -8.570699    490.49298  0.015418489  0.015417907         3313 
 2652000   0.82149083   -8.5613771     489.7119  0.015388131  0.015410817         3327 
 2653000    0.8199712   -8.6031647    489.69343  0.015381751  0.015403734         3432 
 2654000   0.82315071   -8.5963101    490.15399  0.015390417  0.015396628         3439 
 2655000   0.82942866   -8.5961297    489.74248  0.015371704  0.015389518         3395 
 2656000   0.82247388    -8.593425    489.53273  0.015359335  0.015382426         3433 
 2657000   0.83177412   -8.6113892    489.52334   0.01535326  0.015375316         3463 
 2658000   0.84328675   -8.6105223    489.19804  0.015337285  0.015368209         3524 
 2659000    0.8448727   -8.6058695    489.22671  0.015332416  0.015361104         3580 
 2660000   0.82239413   -8.6219899    489.38785    0.0153317  0.015353983         3581 
 2661000    0.8218847    -8.623505    488.66313  0.015303242  0.015346838         3570 
 2662000   0.83505302   -8.6416317    488.21639  0.015283508  0.015339689         3600 
 2663000   0.83425632   -8.6707812    488.40275  0.015283601  0.015332529         3612 
 2664000   0.84501028   -8.6375024    489.04927  0.015298088  0.015325376         3635 
 2665000   0.81292457   -8.6641672    488.39259  0.015271813  0.015318227         3611 
 2666000     0.810351   -8.6643056    487.50032  0.015238195  0.015311056         3621 
 2667000    0.8207374   -8.6523267    488.17682  0.015253619  0.015303902         3622 
 2668000   0.82672036   -8.6807748    487.20881  0.015217667  0.015296733         3678 
 2669000   0.81088417   -8.6854971    487.76807  0.015229427  0.015289559         3696 
 2670000   0.81670924   -8.6475712    488.33475  0.015241409  0.015282391         3640 
 2671000   0.82619881   -8.6674549    487.63764  0.015213954  0.015275211         3669 
 2672000   0.83742798   -8.6671872    487.81413  0.015213764  0.015268038         3678 
 2673000   0.81370163   -8.7112894    487.50467  0.015198425  0.015260871         3659 
 2674000    0.8447978   -8.6733952    487.94745   0.01520654  0.015253701         3707 
 2675000   0.82660006   -8.7033067    487.23274   0.01517859  0.015246533         3719 
 2676000    0.8339096   -8.7057647     486.6069  0.015153429  0.015239349         3782 
 2677000   0.82306019   -8.7050731    488.19409  0.015197176   0.01523218         3703 
 2678000   0.82662942   -8.6722276    487.55797  0.015171707  0.015225007         3703 
 2679000    0.8255121   -8.7026078    487.59477  0.015167188  0.015217811         3761 
 2680000   0.83244875   -8.6940741    485.83791    0.0151069  0.015210631         3714 
 2681000   0.81260369   -8.6924485    485.93275  0.015104213  0.015203469         3722 
 2682000   0.83295037    -8.706764    486.88532  0.015128179  0.015196283         3681 
 2683000    0.8386653   -8.6952187    486.28318  0.015103838  0.015189115         3736 
 2684000   0.80925819   -8.6808661     487.4088  0.015133159  0.015181959         3727 
 2685000   0.82206057   -8.7085335    486.33189  0.015094099  0.015174797         3758 
 2686000   0.82592199   -8.6804836    486.54253  0.015095015  0.015167637         3760 
 2687000    0.8261709   -8.7094066    486.80953  0.015097678  0.015160464         3730 
 2688000   0.81359004   -8.7175201    486.51436  0.015082911  0.015153295         3706 
 2689000    0.8159673   -8.7056299    486.33934  0.015071877  0.015146135         3715 
 2690000   0.83031958   -8.7145724    487.21333   0.01509335  0.015138978         3705 
 2691000   0.82404844   -8.7251102    486.42536  0.015063339   0.01513183         3790 
 2692000   0.82293036   -8.7180388    487.23406  0.015082778  0.015124684         3703 
 2693000   0.80901803   -8.6826124    485.87677  0.015035177   0.01511753         3714 
 2694000   0.81224098   -8.7259251     485.7183  0.015024694  0.015110386         3721 
 2695000   0.83348507   -8.7184939    485.67068  0.015017646  0.015103245         3745 
 2696000   0.82201621   -8.7229876    486.41356  0.015035038  0.015096106         3705 
 2697000   0.80975003   -8.7047424    486.35559  0.015027672   0.01508897         3731 
 2698000   0.83712308   -8.7182697    486.00146  0.015011164  0.015081843         3784 
 2699000   0.83075946   -8.7155897    485.51334  0.014990532  0.015074707         3719 
 2700000   0.81901114   -8.7041905    486.57976  0.015017894  0.015067589         3781 
 2701000   0.81580293   -8.7136868    486.41905  0.015007375  0.015060469         3749 
 2702000   0.80095992    -8.727012    486.59966  0.015007392  0.015053352         3769 
 2703000   0.80699319   -8.7283908    486.73588  0.015006039  0.015046222         3794 
 2704000   0.82146741   -8.7125443    485.77252    0.0149708  0.015039112         3750 
 2705000   0.80889931   -8.7162735    486.70363   0.01499395   0.01503199         3769 
 2706000   0.82379988   -8.6933153    486.03732   0.01496789  0.015024882         3748 
 2707000   0.80003934   -8.7344736    486.71932  0.014983355  0.015017764         3754 
 2708000   0.79991652     -8.71616    487.10652  0.014989738  0.015010656         3775 
 2709000   0.82014708   -8.7261644    486.71967  0.014972304  0.015003548         3727 
 2710000   0.80396395   -8.6980824    485.31696  0.014923646  0.014996456         3764 
 2711000   0.80742082   -8.7348325    486.09326  0.014942004  0.014989366         3755 
 2712000   0.80294325   -8.7136645    486.88359  0.014960779  0.014982267         3771 
 2713000   0.80639271   -8.7478207    486.31317  0.014937743  0.014975179         3771 
 2714000   0.80534473   -8.7095966    486.81426  0.014947625  0.014968102         3752 
 2715000   0.83981733   -8.7609756    486.30237  0.014926408  0.014961015         3752 
 2716000   0.82048153   -8.7189402    486.95322  0.014940882  0.014953924         3784 
 2717000   0.79705165   -8.7387768    485.58507   0.01489342  0.014946839         3770 
 2718000   0.83296361   -8.7238436    486.82847  0.014926063  0.014939754         3767 
 2719000   0.82367518   -8.7351786     486.3282  0.014905241   0.01493267         3769 
 2720000   0.81771894   -8.7346792    486.50966   0.01490532  0.014925576         3802 
 2721000   0.80336386   -8.7136193    486.87734  0.014911103    0.0149185         3780 
 2722000   0.81573923   -8.7530471    486.22976    0.0148858  0.014911416         3810 
 2723000   0.81464999   -8.7238368    488.20242  0.014940703  0.014904329         3794 
 2724000   0.81381033   -8.7639799    485.83249  0.014862717  0.014897251         3788 
 2725000     0.824562   -8.7100051    486.31649  0.014872064  0.014890172         3798 
 2726000   0.82299582    -8.741903    486.08211  0.014859443  0.014883102         3819 
 2727000   0.81968101   -8.7347954    485.69268  0.014842094  0.014876038         3823 
 2728000   0.79812922    -8.733282    486.38481  0.014857796  0.014868972         3759 
 2729000   0.81212041   -8.7475438    486.30101  0.014849793  0.014861904         3773 
 2730000   0.80449807   -8.7255352    486.57301  0.014852656  0.014854844         3753 
 2731000   0.81050704   -8.7598979    485.74862  0.014822062  0.014847783         3799 
 2732000   0.81982103   -8.7244207    485.53822  0.014810219   0.01484071         3773 
 2733000    0.8228998   -8.7282478    486.37427  0.014830292  0.014833656         3790 
 2734000   0.81789613   -8.7497208    485.76769  0.014806379  0.014826588         3823 
 2735000   0.82792866   -8.7434565    486.46627  0.014822251  0.014819525         3862 
 2736000    0.8024035    -8.720344    485.61459  0.014790893  0.014812465         3764 
 2737000   0.81753681   -8.7159525    486.95238   0.01482622  0.014805421         3806 
 2738000    0.8218723   -8.7293193    486.66624  0.014812097   0.01479838         3743 
 2739000   0.83079493   -8.7413748    486.47828   0.01480097  0.014791328         3779 
 2740000   0.82098315   -8.7315735    487.13177  0.014815443  0.014784286         3757 
 2741000   0.80986673   -8.7636479    485.31733  0.014754874  0.014777252         3814 
 2742000   0.80315877   -8.7786898    485.57294  0.014757262  0.014770205         3814 
 2743000   0.83114825   -8.7409796    485.11077  0.014737841  0.014763159         3791 
 2744000   0.80902095   -8.7649012    485.35405  0.014739858   0.01475611         3816 
 2745000   0.81106326   -8.7548754    485.67324  0.014744179  0.014749083         3809 
 2746000   0.79799827   -8.7489907    486.09095  0.014751485  0.014742048         3793 
 2747000    0.8069527   -8.7147523    485.77038  0.014736391  0.014735017         3790 
 2748000   0.81193895   -8.7513879    485.21772  0.014714268  0.014727995         3795 
 2749000   0.81725621   -8.7455334     486.3434   0.01474304  0.014720966         3833 
 2750000   0.81505175   -8.7440687    485.81232  0.014721585  0.014713943         3786 
 2751000   0.80939744   -8.7399195    485.72427  0.014713567   0.01470693         3775 
 2752000   0.82442747   -8.7779835    485.95734  0.014715278   0.01469992         3795 
 2753000   0.80119692   -8.7364096    486.57429  0.014728608    0.0146929         3811 
 2754000    0.8026231   -8.7388535    485.54823  0.014692212  0.014685885         3776 
 2755000   0.82827954   -8.7529972    485.77445  0.014693722  0.014678878         3836 
 2756000   0.79817345   -8.7522513    485.13643  0.014669099  0.014671871         3790 
 2757000   0.79891335   -8.7334085    485.24866   0.01466717  0.014664882         3817 
 2758000   0.82227075   -8.7673838    485.37841  0.014665773  0.014657885         3826 
 2759000   0.78753315   -8.7669137    486.03015  0.014680142  0.014650893         3852 
 2760000   0.81805652   -8.7495888    485.48513  0.014658368  0.014643895         3832 
 2761000   0.80787825   -8.7752023    485.82922  0.014663444  0.014636921         3843 
 2762000   0.79786696   -8.7485958    486.55507  0.014680035  0.014629936         3822 
 2763000   0.80724169   -8.7516233    486.13819  0.014662148  0.014622962         3843 
 2764000   0.80305427   -8.7622774    486.03415  0.014653707  0.014615986         3834 
 2765000   0.80940178   -8.7538761    487.33758  0.014687691  0.014609017         3797 
 2766000   0.80615723   -8.7512032    486.29138  0.014650861  0.014602044         3794 
 2767000   0.80198528   -8.7800618    485.04526  0.014608037  0.014595079         3823 
 2768000   0.79586861   -8.7782786    486.40825  0.014643794  0.014588113         3816 
 2769000   0.81049652      -8.7939    485.29388  0.014604968  0.014581157         3774 
 2770000   0.81286181   -8.7650421    485.73802  0.014613057  0.014574194         3804 
 2771000   0.82062362   -8.7692012    485.83034   0.01461056  0.014567233         3829 
 2772000   0.80427795   -8.7464094    486.42158  0.014623063  0.014560272         3817 
 2773000   0.83037477   -8.7958937     484.4433  0.014558339  0.014553318         3846 
 2774000   0.82519613   -8.7543775    485.07481  0.014572062  0.014546364         3848 
 2775000   0.81602705    -8.772182    485.73485  0.014586632  0.014539405         3818 
 2776000   0.81828392   -8.7654961    484.65242  0.014548884  0.014532442         3852 
 2777000   0.79455784   -8.7578924    484.77927  0.014547452  0.014525494         3794 
 2778000   0.79541216   -8.7608744    485.95525  0.014577491  0.014518553         3848 
 2779000   0.80793695   -8.7412278    485.39902  0.014555566  0.014511615         3806 
 2780000   0.81335838   -8.7387801    486.17489  0.014573588  0.014504683         3790 
 2781000   0.80763574   -8.7797327    485.33795  0.014543268  0.014497742         3834 
 2782000   0.80576962   -8.7849761    484.72985  0.014519825  0.014490802         3843 
 2783000   0.80032885   -8.7470284    485.67669   0.01454296  0.014483869         3783 
 2784000   0.81971436   -8.7849758    485.45141  0.014530993  0.014476938         3853 
 2785000   0.81291972   -8.7913706    485.58669  0.014529823  0.014470014         3834 
 2786000   0.79792349   -8.7888503     485.1157   0.01451052  0.014463091         3824 
 2787000   0.82263863   -8.7655455    485.65342  0.014521391   0.01445617         3839 
 2788000   0.80079226   -8.7878145     485.1184  0.014500191  0.014449259         3818 
 2789000   0.82421478   -8.7966815    485.34182  0.014501668  0.014442353         3804 
 2790000   0.80918181   -8.7509667    485.14819  0.014490687  0.014435442         3828 
 2791000   0.81465532    -8.754807    485.29479  0.014489872  0.014428541         3817 
 2792000   0.80416677   -8.7546339    487.43045  0.014548426  0.014421646         3821 
 2793000   0.81387869   -8.8110327    484.04228  0.014442126  0.014414751         3854 
 2794000   0.81772343   -8.7768782    484.08542  0.014438243  0.014407846         3845 
 2795000   0.79734926   -8.7831514    484.66409  0.014450331  0.014400945         3826 
 2796000   0.80173077   -8.8007349    483.88028  0.014421802  0.014394055         3828 
 2797000   0.79788624   -8.7884404    484.33612  0.014430227  0.014387159         3826 
 2798000   0.79990394   -8.7841549    485.33817  0.014454913   0.01438027         3795 
 2799000    0.8191967    -8.775839    485.18339  0.014445141   0.01437339         3830 
 2800000   0.80484483   -8.7705851    486.28212  0.014472682  0.014366508         3813 
 2801000   0.82149386   -8.7810001    485.05099  0.014430888  0.014359627         3849 
 2802000   0.81042407   -8.7950369    484.38069  0.014405802  0.014352755         3847 
 2803000   0.78893138   -8.7904527    484.69138  0.014409899  0.014345879         3829 
 2804000   0.80038751   -8.7648783    484.69351  0.014404824  0.014339004         3829 
 2805000   0.79578112   -8.7883018    484.62291  0.014397591  0.014332129         3835 
 2806000   0.80048424    -8.799122    484.77609  0.014397009  0.014325256         3850 
 2807000   0.79152988   -8.7809166    485.90312  0.014425339    0.0143184         3835 
 2808000   0.81608253   -8.7666708    484.75596  0.014386157   0.01431154         3863 
 2809000   0.79028121    -8.764281    486.04821  0.014419373  0.014304687         3826 
 2810000   0.78849774   -8.7800656    483.98903  0.014353174  0.014297845         3827 
 2811000   0.78977727   -8.7986736     484.1695  0.014353418  0.014290996         3848 
 2812000    0.8150981    -8.792331     484.9404  0.014371159  0.014284142         3834 
 2813000   0.79904596   -8.7698312    484.22737  0.014344927    0.0142773         3852 
 2814000   0.80763292   -8.7927771    485.32139  0.014372228  0.014270448         3847 
 2815000   0.81216003    -8.803925    484.62764  0.014346585  0.014263611         3837 
 2816000   0.80434621    -8.762186    485.11495  0.014355911  0.014256771         3799 
 2817000   0.80248234   -8.7813886    484.86488  0.014343417  0.014249936         3831 
 2818000   0.80789131   -8.7719529    485.15501  0.014346907  0.014243103         3818 
 2819000   0.80556711   -8.7885802    485.18871  0.014342814  0.014236274         3845 
 2820000   0.81083426   -8.7878305     485.6976  0.014352766  0.014229452         3809 
 2821000   0.79242999   -8.8341224    483.51424  0.014283181  0.014222617         3863 
 2822000   0.80363633    -8.812893    484.03981  0.014293639  0.014215805         3834 
 2823000   0.80589278   -8.8066016    484.37726  0.014298538  0.014208993         3834 
 2824000   0.81635588   -8.7730184    484.51039  0.014297403  0.014202184         3813 
 2825000   0.80523795    -8.794641    484.53232  0.014292989   0.01419538         3811 
 2826000   0.79915003   -8.7968193    484.71342  0.014293271  0.014188577         3816 
 2827000   0.80039028   -8.7904204      484.716  0.014288292  0.014181778         3827 
 2828000   0.80158373   -8.7820009    485.11469  0.014294987  0.014174978         3826 
 2829000    0.7982567   -8.7952563    484.41157  0.014269223  0.014168182         3818 
 2830000   0.80084771    -8.796953    484.29023  0.014260607  0.014161386         3814 
 2831000   0.79870519   -8.7815508    484.96705  0.014275493  0.014154609         3824 
 2832000    0.7812222     -8.81877    484.31758  0.014251341  0.014147826         3840 
 2833000   0.80500682    -8.821592    484.75938  0.014259306  0.014141047         3847 
 2834000   0.78120639   -8.8184956    483.54235  0.014218488  0.014134273         3822 
 2835000   0.80307278   -8.8024648    483.80814  0.014221286  0.014127496         3824 
 2836000   0.80447106     -8.79145    484.23169  0.014228717  0.014120727         3853 
 2837000   0.79378322   -8.7868673     485.6343  0.014264901  0.014113964         3803 
 2838000   0.77780914   -8.7875305     483.8994  0.014208932  0.014107194         3846 
 2839000   0.79164376   -8.7720347     486.1944  0.014271293  0.014100444         3783 
 2840000   0.80437462   -8.7789075    486.24374  0.014267715  0.014093683         3789 
 2841000   0.77626302   -8.8161126    484.25094   0.01420424  0.014086923         3850 
 2842000    0.7992445   -8.7940864    484.36228  0.014202506  0.014080166         3819 
 2843000   0.80252359    -8.784633    484.78032  0.014209764  0.014073416         3815 
 2844000   0.79848765   -8.7792497     485.9562  0.014239223  0.014066678         3814 
 2845000   0.79780233   -8.7991702    485.36326   0.01421685  0.014059934         3827 
 2846000   0.81592955   -8.8076424    484.20438  0.014177922  0.014053184         3831 
 2847000   0.81714591   -8.8061445    484.83726  0.014191466  0.014046433         3808 
 2848000    0.7874644   -8.7867171    484.76125   0.01418426  0.014039694         3773 
 2849000   0.79970622    -8.802552    484.68539  0.014177062  0.014032955         3841 
 2850000   0.80250374   -8.8219997    483.75992  0.014145027   0.01402623         3830 
 2851000   0.79877679   -8.7999221    484.48879   0.01416137  0.014019502         3817 
 2852000   0.80584567    -8.773413    485.98592   0.01420015   0.01401278         3800 
 2853000   0.78524813   -8.8035202    484.20153  0.014143052  0.014006056         3821 
 2854000      0.80784   -8.8033903     484.4951  0.014146668  0.013999336         3835 
 2855000   0.79485376   -8.7977267    484.71805  0.014148221  0.013992607         3832 
 2856000   0.78268803   -8.8059974    484.36753   0.01413304  0.013985895         3822 
 2857000   0.78808022   -8.7961728    484.85691  0.014142367  0.013979191         3799 
 2858000   0.79165511   -8.7995448    484.41451  0.014124519  0.013972495         3765 
 2859000   0.78247729   -8.7885528    484.44873  0.014120576  0.013965802         3798 
 2860000   0.79051502   -8.7937905    484.41012  0.014114514  0.013959107         3817 
 2861000    0.7734933   -8.8039041    485.63501  0.014145258  0.013952417         3843 
 2862000   0.77737032   -8.7902852    484.69302  0.014112888  0.013945735         3788 
 2863000   0.78771591   -8.8049719    484.57445  0.014104507  0.013939049         3813 
 2864000   0.77997983   -8.7907294    484.26985   0.01409072  0.013932355         3808 
 2865000   0.79845482   -8.8133333    485.31446  0.014116186   0.01392567         3831 
 2866000   0.78031876   -8.8311357    483.12862  0.014047704  0.013918979         3855 
 2867000   0.79846058   -8.8025408    483.92656  0.014065997  0.013912311         3849 
 2868000   0.79902161   -8.7942449    484.86827  0.014088455  0.013905637         3837 
 2869000   0.77823748    -8.785684    485.07011  0.014089407  0.013898967         3827 
 2870000   0.78917708   -8.7984262    484.22858  0.014060063  0.013892312         3834 
 2871000   0.79782409   -8.7877018    484.15339  0.014052984  0.013885648         3821 
 2872000   0.79841173   -8.8127568    483.99134  0.014043388  0.013878993         3813 
 2873000   0.78527831   -8.8017847    484.55075  0.014054727  0.013872353         3805 
 2874000   0.77762408   -8.7960914    484.56371  0.014050212  0.013865707         3794 
 2875000   0.80226076   -8.8184888    484.61048  0.014046681  0.013859061         3831 
 2876000   0.77494066   -8.8013973    484.16657  0.014028934  0.013852403         3797 
 2877000   0.80186347   -8.8265552      483.267  0.013998001  0.013845764         3838 
 2878000   0.80232572   -8.7936511    485.18065  0.014048548  0.013839133         3834 
 2879000   0.80298519    -8.816603    483.47698  0.013994355  0.013832489         3810 
 2880000   0.80776361   -8.8049075     484.4017  0.014016253  0.013825854         3846 
 2881000   0.80650424   -8.8040928    485.07889  0.014030976  0.013819227         3837 
 2882000   0.76755732   -8.8174989    484.70782  0.014015378  0.013812604         3829 
 2883000   0.78928273   -8.8374975    483.95542  0.013988768  0.013805981         3801 
 2884000   0.77852923   -8.8281509    482.94111  0.013954609  0.013799358         3816 
 2885000   0.78691075    -8.789193    484.45495    0.0139935  0.013792748         3834 
 2886000   0.79006294    -8.825025    483.30755  0.013955519  0.013786125         3836 
 2887000   0.79106359   -8.7836387    484.86899  0.013995757  0.013779524         3831 
 2888000   0.78465211   -8.7762947    484.29433  0.013974329  0.013772913         3836 
 2889000   0.79877416   -8.8164729    484.58852  0.013977977  0.013766309         3843 
 2890000   0.79580232   -8.8039294    483.04213  0.013928551  0.013759713         3822 
 2891000   0.78951048   -8.8327649    483.74703  0.013944051  0.013753118         3826 
 2892000   0.79022731   -8.8289542    483.52514  0.013932836  0.013746526         3845 
 2893000   0.78737212   -8.8114338     483.9776  0.013941053  0.013739944         3853 
 2894000   0.80252414   -8.8069533    483.56933   0.01392448  0.013733355         3831 
 2895000   0.79147761   -8.8076232    483.93013  0.013930055  0.013726781         3854 
 2896000   0.78355124   -8.8171745    484.11225  0.013930486  0.013720212         3797 
 2897000   0.78434449   -8.8177181    484.65884    0.0139414  0.013713635         3829 
 2898000   0.78368032   -8.8135262    484.85422  0.013942208  0.013707069         3840 
 2899000   0.78213607   -8.8136732    484.92281   0.01393937  0.013700507         3852 
 2900000   0.80049664   -8.8370675    483.91072   0.01390548   0.01369394         3864 
 2901000   0.78655367   -8.8178529    484.84387  0.013927493  0.013687383         3855 
 2902000   0.77363476   -8.7944614     484.3015  0.013907119  0.013680831         3832 
 2903000   0.78674729   -8.8116248    484.39796  0.013905097  0.013674286         3829 
 2904000   0.79498027   -8.8109952    483.93634  0.013887062  0.013667734         3840 
 2905000    0.8012176   -8.8255272    483.58653  0.013872247  0.013661183         3835 
 2906000   0.76999019   -8.8029737    484.47859  0.013893054  0.013654642         3859 
 2907000   0.77403986   -8.8182558    483.85675  0.013870449  0.013648103         3853 
 2908000   0.78370425   -8.8177941    484.54481  0.013885397  0.013641576         3861 
 2909000   0.78083583   -8.8225975    483.97018  0.013864162  0.013635043         3828 
 2910000   0.79613156   -8.8247129    484.33992  0.013869986  0.013628513         3837 
 2911000   0.79052911    -8.826175     483.3605  0.013837184  0.013621985         3857 
 2912000   0.78252927   -8.8070873    484.07961  0.013853011  0.013615452         3838 
 2913000   0.77782944   -8.7861331    484.79613  0.013868753   0.01360893         3839 
 2914000   0.78652259   -8.8197932    483.50058  0.013826944  0.013602408         3817 
 2915000   0.79351313   -8.8156313    483.99217  0.013836254  0.013595906         3847 
 2916000   0.78086211   -8.7935467    484.51242  0.013846377  0.013589394         3849 
 2917000   0.77751171   -8.7972956    484.94362  0.013853949  0.013582885         3829 
 2918000   0.78010602   -8.7966506    484.46637  0.013835572  0.013576387         3835 
 2919000   0.76882103   -8.8176367    483.64253  0.013807312  0.013569901         3813 
 2920000   0.76949458   -8.8366758    483.91288  0.013810299  0.013563413         3812 
 2921000   0.76546755    -8.793036    484.96725  0.013835651  0.013556925         3826 
 2922000   0.77018983   -8.8290038    483.97467  0.013802609  0.013550435         3826 
 2923000   0.77163689   -8.8140216    483.47242  0.013783568  0.013543951         3837 
 2924000   0.77684118   -8.8104845    483.61413  0.013782892  0.013537474         3851 
 2925000   0.78729373   -8.8181482     483.4334  0.013773031  0.013530996         3853 
 2926000   0.79972278   -8.8020946    484.34841  0.013794384  0.013524521         3804 
 2927000   0.77526382   -8.8044182    484.54814  0.013795358  0.013518058         3828 
 2928000   0.77570323    -8.829548     484.1562  0.013779491  0.013511592         3831 
 2929000   0.78028644   -8.7992261    483.29639  0.013750324  0.013505128         3809 
 2930000   0.76646674   -8.8310118     483.3977  0.013748512   0.01349867         3880 
 2931000   0.78566192   -8.8089894    483.58591  0.013749173  0.013492207         3837 
 2932000   0.77216776   -8.8167471    484.20528  0.013762087  0.013485757         3839 
 2933000   0.78257896    -8.825927    483.76853  0.013744986  0.013479313         3838 
 2934000   0.75564453   -8.8493492    483.17048  0.013723315  0.013472866         3851 
 2935000   0.76794512    -8.789399    483.89755  0.013739283  0.013466417         3844 
 2936000   0.80264895    -8.813739    484.06668  0.013739404  0.013459991         3841 
 2937000   0.79569302   -8.8196712    484.21973  0.013739069  0.013453547         3841 
 2938000   0.76864041   -8.8392798    484.43016  0.013740361  0.013447121         3832 
 2939000   0.78878909   -8.8315952    483.47792  0.013708685  0.013440688         3852 
 2940000   0.78541921   -8.8347497    483.94713  0.013717322  0.013434264         3859 
 2941000   0.79680257   -8.8231675    484.07944  0.013716407   0.01342785         3811 
 2942000    0.7726974   -8.8209704    484.77368   0.01373141  0.013421424         3823 
 2943000   0.80923042   -8.8402258     483.6129  0.013693875  0.013415003         3822 
 2944000   0.78247683   -8.8367631    483.99903  0.013700154  0.013408585         3819 
 2945000   0.79204036    -8.795644    484.52106  0.013710273  0.013402184         3798 
 2946000   0.77847661   -8.8101954    483.90217  0.013688113  0.013395779         3803 
 2947000   0.76501783    -8.835741    483.80578  0.013680743  0.013389379         3816 
 2948000   0.79176297   -8.8261209    483.90873  0.013679012  0.013382982         3856 
 2949000   0.75967825   -8.8078531    484.12036  0.013680354  0.013376592         3817 
 2950000   0.77207656   -8.8420303    484.18971  0.013677676  0.013370208         3836 
 2951000    0.7885979   -8.8301731    484.23844  0.013674417  0.013363831         3832 
 2952000   0.79117032   -8.8287767    484.01484  0.013663472  0.013357445         3833 
 2953000   0.77756098   -8.8390629    483.84803  0.013654138  0.013351072         3874 
 2954000   0.77474242   -8.8093758    482.91287  0.013623134  0.013344707         3836 
 2955000   0.78124798   -8.8276737    484.54308  0.013664497   0.01333834         3852 
 2956000   0.78473196   -8.8460671    483.36391  0.013626632  0.013331975         3860 
 2957000   0.77865308    -8.834604     484.1837  0.013645127   0.01332562         3847 
 2958000   0.77682887   -8.8413434    484.28909  0.013643483  0.013319262         3824 
 2959000   0.78032941   -8.8367763    483.40173  0.013613882  0.013312905         3852 
 2960000   0.78598483   -8.8404239    483.75922  0.013619347  0.013306548         3831 
 2961000   0.79779675   -8.8505809     484.1938  0.013626978  0.013300194         3850 
 2962000   0.77371007   -8.8512002    483.17588   0.01359374  0.013293842         3839 
 2963000   0.77273641   -8.8367575     483.8357  0.013607709    0.0132875         3837 
 2964000     0.779165     -8.83672    483.07817   0.01358182  0.013281165         3866 
 2965000   0.76983461   -8.8195207     483.3273  0.013584241  0.013274823         3827 
 2966000   0.78415668   -8.8326318    483.09144  0.013573034  0.013268489         3860 
 2967000   0.77776831   -8.8510058    483.19199  0.013571284  0.013262155         3820 
 2968000    0.7727353   -8.8518117    483.88702  0.013586226  0.013255834         3882 
 2969000    0.7698558   -8.8059508    483.26735  0.013564257  0.013249513         3856 
 2970000   0.76085785   -8.8579704    484.25552  0.013587416  0.013243192         3867 
 2971000   0.78258511   -8.8453161     483.7964  0.013569965  0.013236874         3858 
 2972000   0.79095186   -8.8440179     483.8754  0.013567614  0.013230553         3840 
 2973000   0.78787519   -8.8161564    483.88701  0.013563376  0.013224244         3843 
 2974000   0.75385162   -8.8385303    483.57551  0.013550087  0.013217932         3858 
 2975000   0.77561622   -8.8337555    483.56911  0.013545353   0.01321162         3852 
 2976000   0.77499722   -8.8464876    482.43201  0.013508961  0.013205309         3878 
 2977000   0.77478406   -8.8403649    483.59559  0.013536995  0.013199004         3855 
 2978000   0.77524828   -8.8054584    484.29005  0.013551882  0.013192705         3827 
 2979000   0.78688521   -8.8264901    483.68975   0.01353054   0.01318641         3848 
 2980000   0.78857029   -8.8136104    483.42295  0.013518539  0.013180118         3843 
 2981000   0.79192566   -8.8460929    483.79676  0.013524454  0.013173826         3837 
 2982000   0.77924028   -8.8525373    483.26085  0.013504942  0.013167539         3864 
 2983000   0.78645578   -8.8196883    484.93028  0.013547052  0.013161253         3862 
 2984000   0.76844962   -8.8485081    483.20364  0.013494293   0.01315498         3870 
 2985000   0.77424644   -8.8116368    484.25837  0.013519217  0.013148709         3844 
 2986000   0.76544887   -8.8176862    483.71423  0.013499504  0.013142443         3796 
 2987000   0.80542561   -8.8309892    484.15229  0.013507206  0.013136181         3835 
 2988000   0.77874544   -8.8307529    484.01261   0.01349879  0.013129919         3819 
 2989000   0.77063846   -8.8511618    484.06337  0.013495689  0.013123654         3806 
 2990000   0.78240288   -8.8416558    483.66318  0.013480022    0.0131174         3829 
 2991000   0.77012144   -8.8495997    483.75739   0.01347814  0.013111152         3836 
 2992000   0.78962763   -8.8214189    484.24463  0.013487206  0.013104904         3854 
 2993000   0.76763853   -8.8240646    483.40941  0.013459445  0.013098651         3818 
 2994000   0.78203755    -8.835772    483.22043  0.013449689  0.013092405         3848 
 2995000   0.77277161   -8.8286645    484.82154  0.013489748   0.01308616         3832 
 2996000   0.76220418   -8.8343302    483.81189  0.013457162  0.013079928         3849 
 2997000   0.78671614   -8.8316218    483.83068  0.013453194  0.013073693         3834 
 2998000   0.77146094   -8.8479518    483.61295  0.013442655  0.013067467         3837 
 2999000   0.78809934   -8.8575003    483.68023  0.013440042  0.013061243         3865 
 3000000   0.77889133   -8.8399123    482.85633  0.013412676  0.013055019         3844 
 3001000   0.77562848   -8.8509912     482.5799   0.01340053  0.013048798         3876 
 3002000   0.76893021   -8.8433705    482.48141  0.013393333  0.013042577         3825 
 3003000   0.76350167   -8.8030362    484.25672  0.013438137  0.013036362         3840 
 3004000   0.77561123   -8.8614643    483.30777  0.013407339  0.013030149         3842 
 3005000   0.76599056   -8.8409955    484.03696  0.013423099  0.013023946         3866 
 3006000   0.77385385   -8.8190356    485.03933  0.013446422  0.013017736         3838 
 3007000   0.76643743   -8.8541524    484.15785  0.013417522  0.013011529         3855 
 3008000   0.77393863   -8.8533224    483.48343  0.013394377  0.013005327         3870 
 3009000   0.77151674   -8.8151093    484.14674  0.013408296  0.012999128         3830 
 3010000   0.78007196   -8.8580176    482.63867  0.013362089  0.012992936         3896 
 3011000   0.76655785   -8.8636756    483.25424  0.013374688  0.012986743         3882 
 3012000   0.78602225   -8.8590601    483.59678  0.013379725  0.012980548         3875 
 3013000   0.77506765   -8.8520378    483.28952  0.013366786  0.012974359         3864 
 3014000   0.76217363   -8.8648489    483.18797  0.013359543  0.012968185         3870 
 3015000   0.77505222   -8.8496455    482.88393  0.013346709  0.012962014         3889 
 3016000   0.77768406   -8.8581462    483.74661   0.01336612  0.012955836         3889 
 3017000   0.77492339   -8.8477247    483.10778  0.013344044  0.012949653         3889 
 3018000   0.75913322   -8.8768798    483.68785   0.01335564  0.012943486         3870 
 3019000   0.78399703   -8.8403318    484.19332  0.013365168   0.01293732         3868 
 3020000    0.7673879   -8.8574066    483.08338  0.013330115  0.012931154         3865 
 3021000   0.74200294   -8.8581771    482.50766  0.013309822  0.012924991         3846 
 3022000   0.76859044   -8.8382405    483.33026  0.013328101   0.01291883         3847 
 3023000   0.77631947   -8.8970477    482.09642   0.01328968   0.01291267         3868 
 3024000   0.77249748   -8.8608225    484.48779  0.013351185  0.012906521         3875 
 3025000   0.77455323   -8.8329098    483.56705  0.013321406  0.012900371         3865 
 3026000   0.77117865   -8.8721269     483.7211  0.013321246  0.012894226         3871 
 3027000   0.76487939   -8.8728984     482.9905  0.013296732  0.012888088         3857 
 3028000   0.76685206   -8.8658293    482.36075   0.01327501  0.012881947         3848 
 3029000   0.75951056   -8.8593922     482.9309  0.013286313  0.012875815         3881 
 3030000   0.76254131   -8.8403014    484.52175  0.013325681   0.01286968         3831 
 3031000   0.76052599   -8.8503685    483.52236  0.013293807  0.012863564         3882 
 3032000   0.76927988   -8.8544848    483.79495  0.013296915  0.012857437         3862 
 3033000   0.76427761   -8.8561843    483.34577  0.013280189   0.01285132         3855 
 3034000   0.77868521   -8.8363143    483.87676  0.013290396  0.012845208         3870 
 3035000   0.77277015   -8.8624718    482.93209  0.013260079  0.012839096         3865 
 3036000   0.76053157   -8.8782869     482.9305  0.013255668  0.012832981         3866 
 3037000   0.73960975   -8.8481026    483.04229  0.013254371  0.012826875         3844 
 3038000   0.76567949   -8.8505366    483.34637  0.013258349  0.012820773         3859 
 3039000   0.75348555   -8.8545103    483.46797  0.013257321  0.012814672         3862 
 3040000   0.75529765   -8.8651068    482.67288  0.013231165  0.012808574         3865 
 3041000   0.76668937   -8.8565116    483.36441  0.013245764  0.012802485         3854 
 3042000   0.77097137   -8.8772179    482.91116  0.013228993  0.012796399         3860 
 3043000   0.76658125   -8.8438352    482.85113  0.013223002  0.012790313         3828 
 3044000   0.77315426   -8.8474218    483.80236  0.013244699  0.012784234         3856 
 3045000   0.75623733   -8.8752946    482.65669  0.013208995  0.012778156         3864 
 3046000    0.7765901   -8.8832811    482.38962  0.013197352  0.012772078         3853 
 3047000    0.7533151   -8.8483278     483.6646  0.013227891  0.012765999         3845 
 3048000   0.75702686   -8.8577314    483.30103  0.013213611  0.012759927         3871 
 3049000    0.7597077   -8.8632566     482.3939  0.013184484  0.012753867         3848 
 3050000   0.77090824   -8.8490184    483.27265  0.013204171    0.0127478         3860 
 3051000   0.76240462   -8.8617927    482.60372  0.013181572  0.012741739         3848 
 3052000   0.76670558   -8.8752956    483.54652  0.013202996  0.012735678         3852 
 3053000   0.76204367   -8.8743039    482.14299  0.013160361   0.01272962         3853 
 3054000    0.7636581    -8.867543    483.35456  0.013189112  0.012723575         3891 
 3055000    0.7725901   -8.8681711    482.69472  0.013166796  0.012717528         3868 
 3056000   0.77041705   -8.8777302    482.98728  0.013170465  0.012711481         3874 
 3057000   0.77119703   -8.8583855    482.96166  0.013165458  0.012705447         3867 
 3058000   0.74601181   -8.8447946     483.6689  0.013180426  0.012699413         3853 
 3059000    0.7755412   -8.8730827    482.95187  0.013156584   0.01269338         3867 
 3060000   0.76504773   -8.8786264    483.08965  0.013156036  0.012687347         3881 
 3061000   0.75241744   -8.8829933    483.00481  0.013149428  0.012681319         3845 
 3062000   0.76300341   -8.8545612    485.26046  0.013206522  0.012675303         3876 
 3063000   0.75896548   -8.8679963    482.97201   0.01313995  0.012669281         3907 
 3064000   0.76760362   -8.8644644    484.29234  0.013171572  0.012663264         3838 
 3065000   0.76287012   -8.8634471    482.82419  0.013127357  0.012657249         3854 
 3066000   0.73780428   -8.8612996    483.42987  0.013139538  0.012651234         3877 
 3067000   0.76299879   -8.8661475     482.7813  0.013117631  0.012645228         3907 
 3068000   0.74638699   -8.8755925    483.19319  0.013124543  0.012639226         3879 
 3069000   0.75837893     -8.85162    483.80008  0.013136746   0.01263323         3884 
 3070000   0.76149027   -8.8648284    482.57194   0.01309913  0.012627233         3887 
 3071000   0.75543581   -8.8839535    483.14452  0.013110402  0.012621244         3889 
 3072000   0.76424662   -8.8491825    483.12211  0.013105526  0.012615257         3892 
 3073000   0.75302427   -8.8756893    483.46709  0.013110616  0.012609277         3886 
 3074000   0.75847143   -8.8694019    482.61871  0.013083352  0.012603294         3845 
 3075000   0.75197289   -8.8439791    484.09247  0.013119037  0.012597314         3853 
 3076000   0.75218429   -8.8614912    482.47035  0.013070827  0.012591335         3874 
 3077000   0.77624711   -8.8791895    483.34318  0.013090217  0.012585363         3885 
 3078000   0.75910477   -8.8633651    482.17363    0.0130543  0.012579388         3880 
 3079000   0.77027087   -8.8892329    482.07972  0.013047519  0.012573423         3877 
 3080000   0.76085409   -8.8516355    483.02903  0.013068967  0.012567469         3893 
 3081000   0.75221781   -8.8368494    482.93805  0.013062265  0.012561508         3855 
 3082000    0.7547474   -8.8973458    483.13446  0.013063337  0.012555543         3896 
 3083000   0.76391288   -8.8867283    482.87272  0.013052025  0.012549597         3889 
 3084000   0.76397796   -8.8474693    483.75559  0.013071649  0.012543654         3862 
 3085000   0.76033209    -8.885741    482.31933  0.013028615  0.012537706         3889 
 3086000    0.7452007    -8.851356    484.08463  0.013072063  0.012531767         3870 
 3087000    0.7399102    -8.846558    483.45496   0.01305083   0.01252583         3846 
 3088000   0.76217727   -8.8695333    482.38149  0.013017635  0.012519895         3890 
 3089000   0.74959813    -8.835408    482.25791  0.013010087  0.012513963         3862 
 3090000   0.75449081   -8.8584752    482.36792  0.013008844   0.01250803         3869 
 3091000   0.76618431   -8.8925182    482.13885  0.012998459  0.012502102         3860 
 3092000   0.74734481   -8.8618261    483.62701  0.013034363  0.012496172         3851 
 3093000   0.75436042   -8.8794039    483.01517  0.013013665  0.012490247         3883 
 3094000   0.74522699   -8.8904246     483.0422  0.013010186  0.012484327         3885 
 3095000   0.75244398   -8.8790622     483.4331  0.013016508  0.012478412         3854 
 3096000   0.76471608   -8.8749754     482.6876  0.012992237  0.012472505         3870 
 3097000   0.74702222   -8.8665455    482.82234  0.012991668  0.012466597         3885 
 3098000   0.77462424   -8.8564533    482.39031  0.012975853  0.012460691         3849 
 3099000   0.75002575   -8.8909535    483.65707   0.01300573  0.012454794         3831 
 3100000   0.73712428   -8.8481706    483.87371  0.013007358  0.012448895         3857 
 3101000   0.75175148    -8.901514    482.95068  0.012978358  0.012442999         3850 
 3102000   0.74832836   -8.8723272    483.09852  0.012978146  0.012437108         3880 
 3103000    0.7427998   -8.8851307    481.95034  0.012943129  0.012431217         3891 
 3104000   0.74127542   -8.8822217    482.59003  0.012956133  0.012425323         3871 
 3105000   0.75663049   -8.8773287    482.54022  0.012950623  0.012419446         3858 
 3106000   0.74794839    -8.873271    483.55808  0.012973763  0.012413567         3880 
 3107000   0.75051558   -8.8574812    483.11199  0.012957622  0.012407693         3880 
 3108000   0.75312332   -8.8480735    483.04706  0.012951712  0.012401827         3846 
 3109000   0.76399445   -8.8759729    482.20042  0.012924853  0.012395957         3843 
 3110000   0.75528126   -8.8732394    482.01417  0.012915707  0.012390097         3857 
 3111000   0.76995568    -8.873584    483.46589  0.012950442  0.012384242         3862 
 3112000   0.75069357   -8.8835458    482.58102  0.012922585  0.012378385         3857 
 3113000   0.75224939   -8.8818488    483.33559  0.012938633  0.012372533         3873 
 3114000   0.75270333   -8.8823269    482.34564  0.012907987  0.012366689         3876 
 3115000   0.76196102   -8.8778547    481.48431    0.0128808  0.012360838         3904 
 3116000   0.75250339   -8.8732311    483.50015  0.012930577  0.012354984         3881 
 3117000   0.75971955    -8.887324    483.02096  0.012913618  0.012349142         3849 
 3118000   0.74767415   -8.9015846    481.76664  0.012875952  0.012343303         3883 
 3119000   0.76246937   -8.8816616     482.9935  0.012904603  0.012337459         3872 
 3120000   0.76257898   -8.8675029    482.85272  0.012896707  0.012331624         3879 
 3121000   0.75819353   -8.8781401    481.92862  0.012867901  0.012325788         3883 
 3122000    0.7567532   -8.8455371    482.95481   0.01289117   0.01231996         3889 
 3123000      0.75509   -8.8867132    482.74574  0.012881464   0.01231413         3874 
 3124000   0.74164362   -8.8888506    483.03115  0.012884954  0.012308308         3854 
 3125000   0.73359073   -8.8779598    482.38802  0.012863681  0.012302488         3890 
 3126000   0.75027122   -8.8589858    483.04723  0.012877139  0.012296672         3828 
 3127000   0.75373063   -8.8765755    482.96029  0.012870704  0.012290856         3895 
 3128000   0.77179704   -8.9015639    482.13104  0.012844497  0.012285044         3886 
 3129000   0.75064725   -8.8970449    483.44943  0.012875504  0.012279231         3881 
 3130000    0.7496537   -8.8915929    482.23031  0.012838933  0.012273425         3855 
 3131000   0.75909093   -8.8777887    483.23412  0.012861549  0.012267623         3879 
 3132000   0.75564481    -8.896417    482.56719  0.012839697  0.012261828         3869 
 3133000   0.76553013   -8.8939906    481.77441  0.012814512  0.012256037         3870 
 3134000    0.7480572    -8.899306    481.87963  0.012813221  0.012250248         3885 
 3135000   0.74231689   -8.8890464    481.63274  0.012802571  0.012244458         3891 
 3136000   0.72816637   -8.8564523    482.99094  0.012834581  0.012238673         3875 
 3137000   0.75613546   -8.8588965    483.06746  0.012832522  0.012232894         3869 
 3138000   0.75386588   -8.8631489    484.07325  0.012855143  0.012227123         3829 
 3139000   0.75780244   -8.8823428    482.13649  0.012799631  0.012221354         3874 
 3140000    0.7462076   -8.8738573    481.88234   0.01278881  0.012215579         3874 
 3141000   0.75365557   -8.8822816    483.78038  0.012835094  0.012209812         3890 
 3142000   0.75554112   -8.8597227    482.88555  0.012807277   0.01220405         3897 
 3143000   0.75553964   -8.8944915    482.77341  0.012800228  0.012198284         3875 
 3144000   0.75583151   -8.8949794    481.62642  0.012765755  0.012192518         3872 
 3145000   0.74827903   -8.9034239    482.62587  0.012788179  0.012186765         3841 
 3146000   0.73246152   -8.8839686    481.83853  0.012763258  0.012181006         3848 
 3147000   0.75440339   -8.8682573    482.92088  0.012787863  0.012175262         3864 
 3148000   0.75419857   -8.9027281    482.18958  0.012764443  0.012169517         3861 
 3149000   0.74463024   -8.8818977    482.32003  0.012763841   0.01216377         3890 
 3150000   0.76130979   -8.8766859    482.89821  0.012775085  0.012158037         3874 
 3151000   0.75245287   -8.8838818    482.53692  0.012761476  0.012152305         3861 
 3152000   0.75688923   -8.8810803    482.35606  0.012752645  0.012146581         3850 
 3153000   0.75709178   -8.9016971     483.4242  0.012776832   0.01214085         3881 
 3154000    0.7505985    -8.918831    481.20861  0.012714241  0.012135118         3878 
 3155000     0.747479   -8.8817558     482.4675  0.012743463  0.012129398         3868 
 3156000   0.74823386   -8.8932878    481.02169  0.012701249  0.012123672         3896 
 3157000   0.75496683   -8.8675516    483.48013  0.012762119   0.01211796         3885 
 3158000   0.75305207   -8.8916643    483.16112   0.01274966  0.012112249         3885 
 3159000   0.75255532   -8.9051627    483.01811  0.012741852  0.012106547         3905 
 3160000   0.75214092     -8.89019    483.25558  0.012744082  0.012100846         3881 
 3161000    0.7398675   -8.9030879    482.92833  0.012731423  0.012095146         3893 
 3162000   0.74476389   -8.8953805    482.02161    0.0127035   0.01208946         3893 
 3163000   0.74592188   -8.9089462    482.54739  0.012713336  0.012083772         3912 
 3164000   0.75515799   -8.9002032    482.78148  0.012715484  0.012078083         3900 
 3165000   0.75386314   -8.9068301    481.74019  0.012684049  0.012072395         3866 
 3166000   0.74698669   -8.8814319    482.50956  0.012700294  0.012066712         3895 
 3167000     0.760247   -8.8682467    482.58294  0.012698214   0.01206103         3859 
 3168000   0.75532266   -8.8729092    483.04967  0.012706483  0.012055356         3883 
 3169000   0.75833962   -8.9081455    481.83863  0.012670628  0.012049679         3883 
 3170000   0.75287958   -8.9140678    481.79747  0.012665549  0.012044016         3899 
 3171000   0.74882004    -8.890569    482.55958  0.012681583   0.01203834         3901 
 3172000   0.73337879   -8.8920206    483.09928  0.012691763  0.012032674         3882 
 3173000   0.75690389   -8.9166942    482.72492  0.012677932  0.012027013         3868 
 3174000   0.71882275   -8.9094973     482.4576  0.012666919  0.012021347         3894 
 3175000   0.73685107   -8.9056048    482.57785  0.012666085  0.012015684         3910 
 3176000    0.7480901   -8.9190646    481.09735  0.012623251  0.012010027         3899 
 3177000   0.72305203   -8.9046978    482.40191  0.012653497  0.012004375         3897 
 3178000   0.74788015    -8.903322    482.54451  0.012653254   0.01199872         3888 
 3179000   0.72171328   -8.8766491    481.94317  0.012633511  0.011993072         3897 
 3180000   0.72455668   -8.8936679    482.73966   0.01265041  0.011987428         3910 
 3181000    0.7495484   -8.8888708    481.47954  0.012613422  0.011981787         3887 
 3182000   0.73945189   -8.9021086    481.39852  0.012607336  0.011976154         3873 
 3183000   0.74883765   -8.9038418      482.148  0.012622997  0.011970522         3877 
 3184000   0.74056804   -8.8964031    481.86578  0.012611646  0.011964889         3899 
 3185000   0.74111767   -8.8976403    482.03226  0.012612043  0.011959261         3892 
 3186000   0.74881995   -8.8900537    483.12349  0.012636626  0.011953634         3897 
 3187000   0.72555092   -8.9061364    482.57137  0.012618224  0.011948009         3891 
 3188000   0.74493773    -8.928745    481.46736  0.012585408  0.011942388         3887 
 3189000   0.73367761   -8.9165016    480.85702  0.012565512  0.011936773         3896 
 3190000   0.72583669   -8.8938876    482.83767  0.012613314  0.011931157         3894 
 3191000   0.75686419   -8.8900802    481.93957  0.012585908  0.011925552         3905 
 3192000   0.73438528   -8.9064858     481.8738  0.012580247  0.011919938         3905 
 3193000   0.74079076    -8.915269    480.97718  0.012552907  0.011914335         3880 
 3194000   0.74091666   -8.9032193    482.42255  0.012586687  0.011908725         3861 
 3195000   0.74373773    -8.918696    481.84516  0.012567688  0.011903125         3886 
 3196000   0.74370761    -8.889118    481.88446  0.012564781  0.011897533         3885 
 3197000   0.71400695   -8.9147791    482.42392  0.012574912  0.011891941         3905 
 3198000    0.7216233   -8.9004111    481.90727  0.012557517  0.011886353         3899 
 3199000   0.73516057   -8.8953505     482.4729  0.012568326  0.011880761         3899 
 3200000   0.73007847   -8.9214222    481.44952  0.012537748  0.011875174         3890 
 3201000   0.72623363   -8.9285241    481.53538  0.012536066  0.011869594         3858 
 3202000   0.73312838   -8.8938989    481.84464    0.0125402  0.011864015         3897 
 3203000   0.72853212   -8.8738348    482.43725  0.012551703  0.011858444         3878 
 3204000   0.74097402   -8.8977786    482.28706  0.012543879  0.011852873         3888 
 3205000   0.72592439   -8.9096998    482.15716  0.012536588  0.011847303         3911 
 3206000   0.74167701   -8.9242265    481.80673  0.012523569  0.011841738         3902 
 3207000   0.73114321   -8.9057934     481.9217  0.012522651   0.01183618         3895 
 3208000    0.7523343   -8.9036835    481.48279  0.012507346   0.01183063         3905 
 3209000   0.74323235   -8.9006911    482.15579  0.012520925  0.011825068         3903 
 3210000   0.73286453    -8.916507    480.83256  0.012482673  0.011819518         3894 
 3211000   0.74209911   -8.9082163    481.73862    0.0125023  0.011813974         3871 
 3212000   0.74364862   -8.9085612    482.63013  0.012521537  0.011808432         3880 
 3213000   0.73932284   -8.9244943    482.11728  0.012504339  0.011802893         3893 
 3214000   0.73731701   -8.8954722    482.33446  0.012506079   0.01179735         3895 
 3215000   0.72967061   -8.8850435    482.34308  0.012502413  0.011791818         3878 
 3216000   0.74516318   -8.9290758    481.76734  0.012483606  0.011786287         3880 
 3217000   0.72540447   -8.8943503    481.88985  0.012482899  0.011780755         3879 
 3218000   0.73028279   -8.9144674    481.18041  0.012460649  0.011775232         3894 
 3219000   0.75428587   -8.8838442    482.59159   0.01249331  0.011769711         3865 
 3220000   0.72801743   -8.9018016    482.80206  0.012494877    0.0117642         3887 
 3221000   0.73561776   -8.9306691    481.44297  0.012455836  0.011758686         3901 
 3222000   0.73266314   -8.8936061    482.67186  0.012483754  0.011753187         3859 
 3223000   0.74176025   -8.9184822    481.22511  0.012442474  0.011747678         3906 
 3224000   0.73760462   -8.9139546    481.55837  0.012447228  0.011742171         3892 
 3225000    0.7256672   -8.8986609    481.88408  0.012451785  0.011736671         3882 
 3226000   0.73554569   -8.8886811     482.3383  0.012459658  0.011731177         3890 
 3227000   0.71882126   -8.9319852    482.15982  0.012451188  0.011725682         3867 
 3228000   0.73149253   -8.9134469    481.89265  0.012440434  0.011720193         3924 
 3229000   0.75156459   -8.9033149     482.6593  0.012456367  0.011714703         3866 
 3230000   0.72887363   -8.9135458    481.62804  0.012425904  0.011709228         3889 
 3231000   0.73256191   -8.9270137     481.0347  0.012406755  0.011703744         3901 
 3232000   0.73400846   -8.9341749    482.05335  0.012429181  0.011698264         3889 
 3233000    0.7475524   -8.9107191    481.94653  0.012422583  0.011692788         3884 
 3234000    0.7409274   -8.9026666    481.96463  0.012419208  0.011687317         3905 
 3235000   0.72066165   -8.9045099     482.4281  0.012427308   0.01168185         3894 
 3236000   0.74878636   -8.9229473    481.87515  0.012409228  0.011676382         3884 
 3237000   0.73580897   -8.9256264    480.74464  0.012376291  0.011670917         3896 
 3238000   0.74889618   -8.9096517    481.88172  0.012401733  0.011665456         3887 
 3239000   0.73702685   -8.9447701    481.84163  0.012396872      0.01166         3908 
 3240000   0.73838439   -8.8949019    481.50357  0.012384351  0.011654546         3869 
 3241000   0.72012174   -8.8994216    481.49679  0.012380356  0.011649099         3882 
 3242000    0.7240067   -8.9045886    482.28927  0.012396907   0.01164365         3881 
 3243000   0.74167878   -8.9031842    482.45161  0.012397256  0.011638212         3892 
 3244000   0.72460059   -8.9217757    481.42218   0.01236699  0.011632778         3917 
 3245000   0.72229144   -8.9118179    481.69096  0.012370081   0.01162734         3895 
 3246000   0.72242937   -8.9127488    481.85564  0.012370498  0.011621906         3882 
 3247000   0.71259261   -8.9190821    482.28934  0.012377819  0.011616475         3904 
 3248000    0.7464939   -8.9313632    481.94705  0.012365226  0.011611048         3905 
 3249000   0.72898966   -8.9213844    481.63078  0.012353308  0.011605623         3876 
 3250000   0.73869366   -8.9138487    481.21582  0.012338867  0.011600206         3909 
 3251000   0.73702439   -8.9209596    481.79539  0.012349928  0.011594783         3905 
 3252000   0.73346939     -8.89441    482.03909  0.012352375  0.011589369         3889 
 3253000   0.73031172   -8.8694928    482.05473  0.012348979  0.011583957         3897 
 3254000   0.74584315   -8.9335583    481.00902  0.012318404  0.011578546         3898 
 3255000   0.73851619   -8.9245681    481.34905  0.012323324  0.011573141         3893 
 3256000   0.74123791   -8.9323138    480.66756  0.012302098  0.011567741         3899 
 3257000   0.71771216   -8.9400529    480.98836  0.012306529  0.011562342         3895 
 3258000   0.71982203    -8.908105    482.08187  0.012330721   0.01155694         3894 
 3259000   0.74260333   -8.9311343    481.36738  0.012308668  0.011551546         3885 
 3260000   0.71530084   -8.9033465    482.51077   0.01233412  0.011546144         3905 
 3261000   0.71953807   -8.9279429    481.74591  0.012310792  0.011540753         3898 
 3262000   0.73725184   -8.9167976    481.56937  0.012302508  0.011535365         3908 
 3263000   0.74155406   -8.9250689    481.14993  0.012288026  0.011529983         3913 
 3264000   0.74289525   -8.9470246    479.96863  0.012254101  0.011524602         3895 
 3265000   0.72037096   -8.9074379     482.0845  0.012304352  0.011519222         3898 
 3266000   0.71584763   -8.9096729    480.75817  0.012266742  0.011513846         3915 
 3267000   0.72882227   -8.9214017    481.67732  0.012286433  0.011508473         3894 
 3268000   0.70565734   -8.9442813    482.42727  0.012301797  0.011503101         3897 
 3269000   0.74273418   -8.9451119     481.7069   0.01227967  0.011497733         3899 
 3270000    0.7262582   -8.9445846    481.37601  0.012267482  0.011492366         3921 
 3271000   0.72604905   -8.9371622    481.06445  0.012255795  0.011487003         3917 
 3272000    0.7431089   -8.9068839    481.79413  0.012270633   0.01148165         3906 
 3273000   0.73184978   -8.9261617    482.53615  0.012285776  0.011476298         3910 
 3274000   0.72682894   -8.9061484    481.50028  0.012255658  0.011470951         3878 
 3275000   0.73198887   -8.9259956    482.74612  0.012283616  0.011465598         3891 
 3276000   0.72728721   -8.9225891     481.8192  0.012256288  0.011460248         3894 
 3277000   0.72617869    -8.918075    481.43988  0.012242902  0.011454908         3903 
 3278000   0.71864281   -8.9192942    481.90684  0.012251038  0.011449562         3890 
 3279000   0.72179757   -8.9267573    481.43527  0.012235317  0.011444226         3913 
 3280000    0.7336923   -8.9162035    482.08282  0.012248039  0.011438895         3898 
 3281000   0.74274831   -8.9404268    482.23192  0.012248093   0.01143356         3919 
 3282000    0.7400031   -8.9035716    481.90308  0.012236012  0.011428236         3874 
 3283000   0.72630053    -8.935102    482.11535  0.012237673  0.011422917         3898 
 3284000   0.74097237   -8.9340309    481.71708   0.01222384  0.011417596         3893 
 3285000   0.72795428   -8.9424946    481.38417  0.012211674   0.01141228         3890 
 3286000   0.71762211   -8.9453614    481.28015  0.012205319  0.011406968         3905 
 3287000   0.72730925   -8.9164355    482.14847   0.01222362  0.011401668         3905 
 3288000   0.72739621   -8.9349175    482.03026  0.012216906  0.011396364         3886 
 3289000   0.73085308   -8.9434486    480.96371  0.012186169  0.011391058         3891 
 3290000   0.71546878   -8.9568515    480.29177  0.012165445  0.011385757         3894 
 3291000   0.72151483   -8.9105051    481.77109  0.012199207  0.011380456         3899 
 3292000   0.73876202   -8.9453382    481.52518  0.012189276  0.011375161         3889 
 3293000   0.70132551   -8.9224309    482.22866  0.012203377   0.01136987         3896 
 3294000   0.72751384   -8.9153026    481.79153  0.012188614  0.011364584         3898 
 3295000   0.71067193   -8.9303731    481.53005  0.012178302  0.011359298         3903 
 3296000   0.71369445   -8.9105477    481.79737  0.012181365  0.011354012         3897 
 3297000   0.73392702   -8.9425456     480.9921  0.012157317  0.011348735         3915 
 3298000   0.71310841   -8.9215479    481.10088   0.01215638  0.011343461         3912 
 3299000   0.73303107   -8.9463166    482.32259  0.012183555  0.011338186         3909 
 3300000   0.71552045    -8.915273    481.57554  0.012160998  0.011332911         3903 
 3301000   0.72678975   -8.9104915    481.69311  0.012160282  0.011327641         3888 
 3302000   0.73681892   -8.9146502    480.72044  0.012132052  0.011322375         3907 
 3303000   0.74147662   -8.9100327    481.80157  0.012155656  0.011317118         3890 
 3304000    0.7090373    -8.940245    481.74841  0.012150636  0.011311857         3903 
 3305000   0.71406801    -8.944842    480.51987  0.012115983  0.011306606         3896 
 3306000   0.70895436   -8.9550732    480.80247  0.012119441  0.011301353         3901 
 3307000    0.7197111   -8.9422891    481.19929  0.012125776  0.011296096         3904 
 3308000    0.7327822    -8.903109    481.56547  0.012131335   0.01129085         3906 
 3309000   0.71319528   -8.8950105    481.44782  0.012124706  0.011285608         3898 
 3310000   0.71590518   -8.9360599    481.28692  0.012116992  0.011280367         3914 
 3311000   0.72495227   -8.9319486    479.80317  0.012075988  0.011275135         3921 
 3312000   0.71383807   -8.9416211    481.34031  0.012111018  0.011269905         3912 
 3313000   0.72813997   -8.9309803    481.25259  0.012105156  0.011264679         3889 
 3314000   0.70942996   -8.9453685    480.72266  0.012088178  0.011259447         3888 
 3315000   0.72783194   -8.9249048    481.29612  0.012098947  0.011254215         3894 
 3316000   0.72481118    -8.932568    481.00954  0.012088097  0.011248993         3888 
 3317000   0.72747089   -8.9555324    480.85248  0.012080507   0.01124378         3883 
 3318000   0.72706921   -8.9425563    481.37365  0.012089955  0.011238563         3894 
 3319000   0.72219477    -8.945655    480.22287  0.012057419  0.011233344         3918 
 3320000     0.723054   -8.9655663    481.65344  0.012089695  0.011228127         3912 
 3321000   0.71279803   -8.9585877    480.87412  0.012066499   0.01122292         3901 
 3322000   0.71412361    -8.950394    480.05275  0.012042262  0.011217719         3901 
 3323000   0.71803986   -8.9391819    481.26585   0.01206906  0.011212518         3895 
 3324000   0.72697926   -8.9379135    481.37501  0.012068166  0.011207318         3909 
 3325000   0.71906244   -8.9527215    481.13181  0.012058441  0.011202119         3890 
 3326000   0.72939264    -8.920214    481.34193   0.01206008  0.011196926         3904 
 3327000   0.70863111   -8.9231805    481.24456  0.012054017  0.011191733         3916 
 3328000   0.72389588   -8.9550212    481.15878  0.012048247  0.011186548         3903 
 3329000   0.70749623   -8.9510232    480.61709  0.012031068  0.011181365         3900 
 3330000    0.7059724   -8.9350255    481.76908  0.012056283  0.011176184         3887 
 3331000   0.69227092   -8.9562702    482.00272  0.012058509  0.011171003         3895 
 3332000   0.71696324   -8.9179945    481.29419   0.01203717  0.011165833         3897 
 3333000   0.68624994   -8.9439875    480.50407  0.012013803  0.011160657         3888 
 3334000   0.72102612   -8.9412297    481.59607  0.012037494  0.011155486         3894 
 3335000   0.70504489   -8.9177059    481.25987  0.012025484  0.011150318         3903 
 3336000     0.726416    -8.946484    480.90628  0.012013047  0.011145153         3889 
 3337000   0.74609601   -8.9454897    480.53338  0.012000134  0.011139997         3920 
 3338000   0.70502867    -8.942412    481.19241  0.012012992  0.011134839         3921 
 3339000    0.7181347   -8.9419482    480.04323  0.011980714  0.011129686         3889 
 3340000   0.71061404   -8.9260302    482.20534  0.012031071  0.011124539         3882 
 3341000   0.71984883   -8.9644561    481.48896  0.012009602  0.011119394         3895 
 3342000   0.71108504   -8.9400196    481.71192  0.012011568  0.011114256         3899 
 3343000   0.71200008   -8.9208236     481.8423  0.012011225  0.011109117         3887 
 3344000   0.70825362   -8.9503555     481.8069  0.012006751  0.011103982         3906 
 3345000   0.71861094   -8.9222293    482.21451  0.012013316   0.01109885         3893 
 3346000    0.7093021   -8.9220083    481.08861  0.011981685   0.01109372         3895 
 3347000   0.71617921   -8.9498502    482.33431   0.01200912  0.011088592         3889 
 3348000   0.70549829   -8.9584913    481.77456  0.011991601   0.01108347         3908 
 3349000   0.71067232   -8.9707462    480.85492  0.011965137  0.011078347         3900 
 3350000   0.70280137   -8.9540184    481.57519  0.011979482  0.011073222         3895 
 3351000   0.71476217   -8.9710347    480.07059  0.011938491  0.011068099         3903 
 3352000   0.70526223   -8.9338002    479.97401  0.011932528  0.011062976         3915 
 3353000   0.70483189   -8.9442115      480.441  0.011940576  0.011057865         3893 
 3354000   0.73438737   -8.9432033     481.8829  0.011972841  0.011052747         3921 
 3355000   0.72367257   -8.9517334    480.42563  0.011933076  0.011047641         3893 
 3356000   0.70833776   -8.9439907     481.3785  0.011953181   0.01104253         3920 
 3357000    0.7118366   -8.9565375    481.55586  0.011954023  0.011037427         3904 
 3358000   0.73531173   -8.9229931    481.29898  0.011944088  0.011032326         3894 
 3359000   0.71189386   -8.9356815    480.49518  0.011920591  0.011027232         3910 
 3360000   0.70818162   -8.9645524    480.84477  0.011925714  0.011022144         3914 
 3361000   0.71861478   -8.9460885    481.11881   0.01192896  0.011017055         3896 
 3362000   0.72356061    -8.953198     481.5364  0.011935762   0.01101197         3890 
 3363000   0.70176021   -8.9412672    481.07429  0.011920763  0.011006883         3899 
 3364000   0.72239615   -8.9676796     480.2575  0.011896985  0.011001809         3896 
 3365000   0.71594739   -8.9596832    481.45388  0.011923078  0.010996726         3886 
 3366000   0.71724585   -8.9625286    480.89113  0.011905603  0.010991649         3913 
 3367000   0.70491673   -8.9514913    480.09521  0.011882368  0.010986574         3876 
 3368000   0.72286529     -8.96226     481.4176   0.01191156  0.010981506         3915 
 3369000   0.71638232   -8.9234562    481.74069  0.011916016   0.01097644         3899 
 3370000   0.70028546    -8.956855      480.627  0.011884941  0.010971383         3903 
 3371000   0.71220602   -8.9624872    480.65679  0.011882151  0.010966323         3882 
 3372000    0.7159958   -8.9456775    481.12024  0.011890081  0.010961264         3875 
 3373000   0.71450685   -8.9481375    481.21313  0.011888851  0.010956206         3918 
 3374000   0.72606827   -8.9502712    481.15254  0.011883831  0.010951154         3910 
 3375000   0.72237038   -8.9665857    482.09529  0.011903587  0.010946106         3888 
 3376000   0.70507996   -8.9517849    480.15156  0.011852082  0.010941065         3920 
 3377000   0.71204594   -8.9611549     479.9388  0.011843323  0.010936027         3917 
 3378000   0.71361773   -8.9526818    480.31296  0.011849047  0.010930987         3921 
 3379000   0.70161625   -8.9480052    480.98443    0.0118621  0.010925946         3881 
 3380000   0.71594294   -8.9519067    480.41155  0.011844466  0.010920908         3890 
 3381000    0.7108913   -8.9487872    479.84302   0.01182695  0.010915873         3905 
 3382000   0.70706719   -8.9473077    480.93591  0.011850382  0.010910843         3895 
 3383000   0.70397619   -8.9526662    481.41436  0.011858665   0.01090581         3891 
 3384000   0.71209239   -8.9695854    480.89431  0.011842354  0.010900785         3917 
 3385000   0.70909233   -8.9530359    480.75368  0.011835393  0.010895761         3921 
 3386000   0.70391908   -8.9659003    481.96357  0.011861675  0.010890741         3915 
 3387000   0.70474449    -8.964174    480.94741  0.011833171  0.010885716         3914 
 3388000   0.70553272   -8.9624135    480.63817  0.011822072  0.010880704         3892 
 3389000   0.71663595   -8.9445559    480.11809  0.011805795    0.0108757         3934 
 3390000   0.70647346    -8.945543    479.75991  0.011793508  0.010870696         3905 
 3391000   0.70863401   -8.9401199    481.19824  0.011825377   0.01086569         3901 
 3392000   0.69859999   -8.9598415    480.25093  0.011798618  0.010860688         3923 
 3393000   0.70791219   -8.9425055    480.69597  0.011806071   0.01085569         3898 
 3394000    0.7058089   -8.9413081    480.83461  0.011805996  0.010850695         3910 
 3395000   0.69418777   -8.9660632    481.77586  0.011825622  0.010845699         3906 
 3396000   0.70755155   -8.9793226    480.26506  0.011785067  0.010840709         3894 
 3397000   0.71831585   -8.9602765    480.60275  0.011789882  0.010835722         3917 
 3398000   0.70229281   -8.9645792    480.81364  0.011791584  0.010830735         3862 
 3399000    0.7074464   -8.9520034    481.50935  0.011805172  0.010825755         3918 
 3400000   0.71883245   -8.9469508    481.03784  0.011790143  0.010820778         3904 
 3401000   0.71097473   -8.9742264    481.04287    0.0117868  0.010815801         3921 
 3402000   0.73209399   -8.9533799    480.18588  0.011762343  0.010810828         3893 
 3403000    0.7191681   -8.9480883    481.24294  0.011784772   0.01080586         3913 
 3404000   0.69903574   -8.9668781    480.78981  0.011770217  0.010800897         3910 
 3405000   0.69880798    -8.971409    481.01285  0.011772219  0.010795934         3909 
 3406000   0.71572004   -8.9721769    481.25298  0.011774637  0.010790972         3892 
 3407000   0.71362745   -8.9669968     480.3315  0.011748643  0.010786018         3890 
 3408000   0.71459266   -8.9698794    480.30447  0.011744534  0.010781064         3919 
 3409000   0.71137373   -8.9720922    481.13725  0.011761447  0.010776114         3913 
 3410000   0.71671749   -8.9752642    480.74827  0.011748492  0.010771166         3914 
 3411000   0.69437334   -8.9841041    480.16337  0.011730758  0.010766223         3917 
 3412000   0.70523266   -8.9547643    481.11782  0.011750631  0.010761274         3905 
 3413000   0.70951092   -8.9559724    480.82311  0.011739992  0.010756336         3909 
 3414000   0.69444592   -8.9389421    480.83859  0.011736931  0.010751401         3914 
 3415000   0.71029254   -8.9484562    481.16194  0.011741385  0.010746464         3904 
 3416000    0.7225292   -8.9534767    481.48178   0.01174575  0.010741537         3890 
 3417000   0.70317357    -8.962855    480.69727   0.01172318  0.010736614         3924 
 3418000   0.70621716   -8.9582854    481.08473  0.011729197  0.010731693         3893 
 3419000   0.68922363   -8.9435276    480.79802  0.011718778  0.010726774         3896 
 3420000   0.69251819   -8.9615893     480.4794  0.011707588  0.010721856         3908 
 3421000   0.69910858   -8.9408841    480.33991  0.011700768  0.010716941         3901 
 3422000   0.71122746   -8.9714045    480.44229  0.011699842  0.010712037         3903 
 3423000    0.6836108   -8.9459949    481.56162  0.011723674  0.010707127         3920 
 3424000   0.70219261   -8.9509229    480.93003  0.011704878   0.01070222         3879 
 3425000    0.6987307   -8.9352754    480.61328  0.011693754  0.010697314         3874 
 3426000   0.69961319   -8.9479312    480.44752  0.011686309  0.010692416         3897 
 3427000   0.71139765   -8.9447854    480.68298  0.011688624  0.010687521         3923 
 3428000   0.71478917   -8.9619314    480.33227  0.011676689  0.010682628         3901 
 3429000   0.71102544   -8.9641362     479.9106  0.011663036  0.010677732         3911 
 3430000   0.69574523    -8.989372    480.75243  0.011680088  0.010672838         3924 
 3431000   0.69444872   -8.9622957    480.76901  0.011677087  0.010667948         3915 
 3432000   0.69827869   -8.9813481    480.05695  0.011656395  0.010663068         3916 
 3433000   0.70267109   -8.9553974    481.05483  0.011677222  0.010658185         3904 
 3434000   0.70305552   -8.9782745     479.6458  0.011639628  0.010653308         3920 
 3435000   0.70074067   -8.9569315    481.35913  0.011677805  0.010648433         3889 
 3436000   0.69897658   -8.9597848    481.19717  0.011670478  0.010643555         3931 
 3437000   0.70502815   -8.9629446    480.60818  0.011652802  0.010638681         3918 
 3438000   0.69251489   -8.9523217      480.228  0.011640198  0.010633817         3905 
 3439000    0.7072659   -8.9757192    480.33028  0.011639291  0.010628954         3909 
 3440000   0.71853062   -8.9692493     480.7608  0.011646337  0.010624097         3924 
 3441000   0.68759061   -8.9966552    480.41597  0.011634602  0.010619239         3919 
 3442000   0.69740154   -8.9726325    481.31852  0.011653073  0.010614386         3906 
 3443000   0.70982224   -8.9612529      481.748  0.011660083  0.010609537         3886 
 3444000   0.70756426   -8.9707788    480.52342  0.011627067  0.010604686         3883 
 3445000     0.708348   -8.9610237    480.56696  0.011624745  0.010599839         3902 
 3446000   0.69754385   -8.9535549    481.28008  0.011638617  0.010594997         3889 
 3447000   0.70220385   -8.9598165    480.99079  0.011628246  0.010590156         3891 
 3448000   0.71927318   -8.9662472     479.8985  0.011598475   0.01058532         3901 
 3449000   0.70592422   -8.9658129    480.12176  0.011600506  0.010580491         3893 
 3450000   0.69958499   -8.9876332    479.59301  0.011584372  0.010575659         3905 
 3451000    0.7133491   -8.9701689    480.69524  0.011607632  0.010570829         3895 
 3452000   0.68110696   -8.9907043    479.85816  0.011584061     0.010566         3892 
 3453000   0.70737077   -8.9752444    479.90837  0.011581918  0.010561176         3901 
 3454000   0.70633227    -8.974685    480.29201  0.011587821  0.010556355         3907 
 3455000    0.6892994   -8.9819984    479.68278  0.011569773  0.010551534         3925 
 3456000   0.70789304   -8.9684483    480.50751  0.011586311  0.010546717         3901 
 3457000   0.70781244   -8.9590961    479.95318  0.011569597  0.010541904         3894 
 3458000   0.69447577   -8.9743439    480.36745  0.011576235  0.010537088         3906 
 3459000   0.69595048   -8.9828649     480.6706  0.011580192  0.010532287         3901 
 3460000   0.70727572     -8.99761    480.16314  0.011564623  0.010527476         3918 
 3461000   0.70258694   -8.9818966     480.5746  0.011571189  0.010522676         3899 
 3462000   0.68306818   -8.9620584    480.67622  0.011570292  0.010517876         3903 
 3463000   0.69084197   -8.9833819    480.54185  0.011563718  0.010513081         3888 
 3464000   0.69051288    -9.004993    479.99288  0.011547173  0.010508285         3923 
 3465000   0.71011613   -8.9905235    479.80838  0.011539403  0.010503492         3900 
 3466000   0.68203145   -8.9956717    479.44868  0.011527426  0.010498696         3924 
 3467000   0.70384114   -8.9653221    479.84447  0.011533614  0.010493907         3896 
 3468000   0.69026753   -8.9573579    480.10436  0.011536533  0.010489123         3904 
 3469000   0.69769647   -8.9601017    479.93219  0.011529072  0.010484339         3891 
 3470000   0.70964405   -8.9737469     479.4317   0.01151373  0.010479557         3890 
 3471000   0.68932586   -8.9612055    480.09814  0.011526413  0.010474778         3913 
 3472000   0.69427241   -8.9895869    481.41142  0.011554614  0.010470001         3900 
 3473000   0.70630313   -8.9987066    480.08777  0.011519526  0.010465229         3911 
 3474000   0.69857555    -8.992496    480.21519  0.011519267  0.010460463         3920 
 3475000   0.67478194   -8.9913859    480.78387  0.011529589  0.010455701         3919 
 3476000   0.69357195   -8.9872607    480.46073  0.011518525  0.010450941         3910 
 3477000   0.68757436   -8.9848786    479.52049  0.011492678   0.01044618         3910 
 3478000   0.70850575   -8.9801219    480.95181  0.011523668  0.010441428         3897 
 3479000   0.71278497   -8.9899537    479.52278  0.011486126  0.010436677         3919 
 3480000   0.69405439   -8.9980032    480.41765  0.011504254  0.010431928         3920 
 3481000   0.68065232   -8.9762429    479.71374  0.011484098  0.010427174         3906 
 3482000   0.69933833    -8.962347    480.45052  0.011498433   0.01042243         3890 
 3483000   0.69719756   -8.9845287    481.08526  0.011510318   0.01041769         3923 
 3484000   0.68676039   -8.9787963    479.83919   0.01147721  0.010412952         3907 
 3485000   0.69349117     -9.00702    479.73188   0.01147135  0.010408215         3903 
 3486000     0.693417   -8.9859838    480.87189  0.011495312  0.010403478         3917 
 3487000   0.69710917   -8.9789448    480.08496  0.011473209  0.010398744         3907 
 3488000   0.68023307   -8.9680388    480.22697  0.011473313  0.010394014         3885 
 3489000   0.69361787   -8.9815155    479.51323  0.011452977   0.01038928         3909 
 3490000   0.68360127   -8.9817831    480.27629  0.011467915  0.010384557         3913 
 3491000   0.68076912   -9.0053342    479.44274  0.011444733  0.010379833         3897 
 3492000    0.6978405   -8.9951906    479.98149  0.011454312  0.010375114         3930 
 3493000   0.70426708   -8.9658196    480.52164  0.011463919  0.010370398         3900 
 3494000   0.69785712   -8.9887479    480.93116  0.011470406  0.010365683         3916 
 3495000   0.70383751    -8.978538    480.52572  0.011457456  0.010360973         3924 
 3496000     0.688259    -8.979959     480.0714   0.01144335  0.010356268         3896 
 3497000   0.69690226     -8.96404    479.73029  0.011431949  0.010351562         3899 
 3498000   0.69176458   -8.9746439    478.75824  0.011405523  0.010346857         3907 
 3499000   0.70394085   -8.9962654    479.51762  0.011420349  0.010342153         3908 
 3500000   0.67642883   -8.9956641    480.18308  0.011432931  0.010337458         3913 
 3501000   0.71082426   -9.0039218    480.19594  0.011429971   0.01033276         3910 
 3502000   0.69636782   -8.9840102     480.2836  0.011428793  0.010328066         3893 
 3503000   0.69831175   -8.9741684    479.25251  0.011401002  0.010323374         3910 
 3504000   0.67306979   -9.0051407    480.17292  0.011419637  0.010318691         3906 
 3505000   0.69333019   -8.9858186    479.57941  0.011402268  0.010314007         3922 
 3506000   0.69553175   -9.0092849     480.1124  0.011411685  0.010309325         3909 
 3507000   0.68581931   -8.9815565     480.2185  0.011410952   0.01030465         3923 
 3508000   0.68083974   -9.0011625    479.99639  0.011402423  0.010299976         3915 
 3509000   0.68557206   -8.9706664    480.41904   0.01140921  0.010295304         3917 
 3510000   0.68652366   -9.0033149    480.03143  0.011396757  0.010290638         3908 
 3511000   0.69549577   -8.9998795    479.19649  0.011373694  0.010285968         3910 
 3512000   0.69644192   -8.9917102    480.05165  0.011390747  0.010281301         3917 
 3513000   0.69773155   -9.0161274    479.37129  0.011371366  0.010276636         3894 
 3514000   0.68602518   -9.0052746    479.25624  0.011365401  0.010271973         3905 
 3515000   0.70053909    -8.992228    479.27972  0.011362724  0.010267313         3909 
 3516000    0.6810558   -8.9957975    479.64829  0.011368228  0.010262655         3877 
 3517000   0.68443856   -8.9721703    480.33637    0.0113813  0.010258001         3907 
 3518000   0.68650309   -8.9790084    479.82593  0.011365973  0.010253349         3901 
 3519000   0.69311141     -8.97289    479.99346  0.011366711  0.010248699         3921 
 3520000   0.67507887   -8.9970635    479.94819   0.01136241  0.010244055         3901 
 3521000   0.66257219   -9.0212285    479.82996  0.011356385   0.01023941         3910 
 3522000   0.68760683   -8.9975606    479.54262  0.011346361  0.010234768         3893 
 3523000   0.68894047   -9.0003009    479.50113  0.011342159  0.010230134         3934 
 3524000   0.69097105   -8.9990876    480.41984  0.011360666  0.010225495         3916 
 3525000   0.68278349   -8.9968635    479.07428  0.011325633  0.010220859         3936 
 3526000   0.68164685   -9.0000861    480.41687  0.011354152  0.010216231         3927 
 3527000   0.67200953    -8.998146    479.76305  0.011335485  0.010211606         3925 
 3528000   0.67960651   -8.9885158     480.6357  0.011352884  0.010206982         3926 
 3529000   0.67552513   -8.9972433    479.79316  0.011329772  0.010202358         3920 
 3530000   0.66761716   -9.0096884    480.70914  0.011348185  0.010197734         3905 
 3531000   0.68010713   -9.0045616    479.57699  0.011318252  0.010193117         3915 
 3532000   0.68588328   -9.0007421    479.84609  0.011321397  0.010188502         3905 
 3533000   0.69002529   -9.0195086    480.22081  0.011327031  0.010183891         3910 
 3534000   0.69468332   -8.9909154    479.55246  0.011308066  0.010179282         3918 
 3535000   0.69061384   -8.9827172    479.66411  0.011307499  0.010174678         3906 
 3536000   0.68295514   -8.9998596    479.84845  0.011308645  0.010170079         3908 
 3537000   0.70181934   -8.9950287    480.47169  0.011320132  0.010165477         3916 
 3538000   0.68722118    -8.984054    479.75105  0.011299959  0.010160883         3907 
 3539000   0.69006242   -9.0085754    479.64758  0.011294329  0.010156288         3926 
 3540000   0.68053599   -8.9903337    479.49348  0.011287511  0.010151701         3919 
 3541000   0.69837253   -8.9987333     479.7431  0.011290198  0.010147112         3911 
 3542000   0.68707078   -8.9805956    479.35038  0.011277771  0.010142525         3925 
 3543000   0.68409283   -9.0091965    480.04818  0.011291001  0.010137939         3893 
 3544000   0.68533059   -8.9759822    480.24792  0.011292511  0.010133362         3901 
 3545000   0.69009633   -9.0022865    478.77705   0.01125475  0.010128787         3886 
 3546000   0.70704871   -8.9821442    479.93574  0.011278806  0.010124213         3907 
 3547000   0.67915859   -8.9865628    479.18117  0.011257898  0.010119645         3906 
 3548000   0.68266846    -9.004424    479.71228  0.011267199  0.010115084         3924 
 3549000   0.67990703   -9.0169259    479.60053  0.011261401   0.01011052         3906 
 3550000   0.68979823   -8.9996353    479.37441   0.01125292  0.010105956         3889 
 3551000   0.68172261   -9.0234855    479.57815  0.011254533  0.010101394         3915 
 3552000   0.68657276   -8.9879144    479.69169  0.011254028  0.010096835         3908 
 3553000   0.69461804   -9.0113229    480.16855  0.011262045  0.010092282         3924 
 3554000   0.68880216   -8.9949893    480.69503  0.011271221  0.010087732         3900 
 3555000   0.67601063   -8.9997221    479.87139  0.011248743  0.010083189         3920 
 3556000   0.66826581   -9.0037594    480.36179  0.011257072  0.010078645         3909 
 3557000   0.68845737   -8.9956071    479.94892  0.011244235  0.010074105         3919 
 3558000   0.69281856   -8.9970616     479.9219  0.011240442  0.010069562         3915 
 3559000   0.67449727   -8.9959517    479.87114  0.011236095   0.01006502         3914 
 3560000   0.67846737   -9.0148437    480.12104  0.011238788  0.010060483         3898 
 3561000   0.68075054   -8.9965711    479.34237   0.01121741  0.010055948         3907 
 3562000   0.67691783   -8.9995888    479.87878   0.01122681  0.010051414         3913 
 3563000   0.67881701   -9.0029435    479.00769  0.011203286  0.010046887         3896 
 3564000   0.68596287   -8.9938336    478.91281  0.011197924  0.010042365         3918 
 3565000   0.67734344   -8.9859043    479.64511  0.011211901   0.01003784         3921 
 3566000   0.67970032   -9.0220977    480.06544  0.011218579  0.010033323         3908 
 3567000   0.67855287    -9.008066    479.86175  0.011210675  0.010028807         3916 
 3568000   0.68072993   -9.0133541    479.84196  0.011207071  0.010024295         3914 
 3569000   0.68352713   -8.9973687    480.29207  0.011214441  0.010019784         3897 
 3570000   0.68659264   -8.9844705    479.28461  0.011187783  0.010015271         3889 
 3571000   0.69986517   -9.0098357    479.50312  0.011189749  0.010010762         3914 
 3572000   0.66842913   -9.0048342    479.10864  0.011177413  0.010006258         3911 
 3573000   0.68467229   -9.0118782    480.01797  0.011195493  0.010001755         3911 
 3574000   0.69224475   -8.9891369    480.74739  0.011209368 0.0099972588         3904 
 3575000   0.67924783   -9.0168812    478.93567  0.011164002 0.0099927565         3921 
 3576000    0.6749686   -8.9846345    479.13657  0.011165561 0.0099882635         3898 
 3577000   0.67852293   -9.0026465    480.37631  0.011191322 0.0099837689         3928 
 3578000   0.69682273   -9.0207014    479.30632  0.011163274 0.0099792848         3922 
 3579000   0.68684961   -9.0244461    478.50166  0.011141419 0.0099747996         3939 
 3580000    0.6735793   -8.9951588    479.74037  0.011167141 0.0099703153         3906 
 3581000    0.6823097   -8.9996791    479.82874  0.011166079 0.0099658316         3907 
 3582000   0.67050384   -9.0147055    480.02836  0.011167606 0.0099613591         3911 
 3583000   0.68707185   -9.0009298    479.21443  0.011145558 0.0099568816         3931 
 3584000   0.67842077   -8.9944298    479.30193  0.011144483 0.0099524057         3911 
 3585000   0.67975472   -9.0062054    480.07296  0.011159297 0.0099479316         3919 
 3586000   0.69097963   -8.9882919    478.91199  0.011129206 0.0099434627         3913 
 3587000   0.69784746   -9.0293152     478.7367  0.011122031 0.0099389967         3904 
 3588000   0.67694148   -9.0080021    480.53167   0.01116062 0.0099345323         3915 
 3589000   0.66932366   -9.0271433    478.78864  0.011117039 0.0099300702         3930 
 3590000   0.66904333   -8.9996616    478.98223  0.011118436 0.0099256092         3916 
 3591000   0.67916961   -9.0195256    478.78671  0.011110803 0.0099211531         3938 
 3592000   0.67285238   -9.0067295    479.49131  0.011124056    0.0099167         3881 
 3593000    0.6746629   -9.0061034    477.84712  0.011082826 0.0099122473         3895 
 3594000   0.67173763   -8.9976507    479.24424  0.011112137 0.0099078045         3904 
 3595000   0.69499286   -9.0063335    479.92524  0.011124832 0.0099033563         3922 
 3596000   0.66941125   -9.0387913    479.33793  0.011108128 0.0098989114         3921 
 3597000   0.67318927   -9.0159024    479.20793  0.011102028 0.0098944671         3921 
 3598000   0.67841849   -9.0173278    478.80541   0.01108962 0.0098900331         3915 
 3599000   0.67533133   -9.0083771    478.78584  0.011086085  0.009885598         3909 
 3600000   0.67586256   -9.0212029    479.22266  0.011093117 0.0098811694         3912 
 3601000   0.67221952   -8.9992512    480.49181  0.011119407 0.0098767421         3912 
 3602000   0.68154037   -9.0269324    478.58666  0.011072244 0.0098723129         3936 
 3603000    0.6967984   -9.0134939     479.2751  0.011085093 0.0098678882         3916 
 3604000   0.68321179   -9.0125289    479.13571  0.011078795 0.0098634677         3899 
 3605000   0.67804249   -9.0229775    479.37301  0.011081207 0.0098590459         3932 
 3606000    0.6805033   -8.9987396    478.58183   0.01105985 0.0098546315         3921 
 3607000   0.69010215   -9.0198927    479.99691  0.011089477 0.0098502158         3911 
 3608000   0.66777483   -9.0204191    479.05566  0.011064663 0.0098458001         3923 
 3609000   0.66597832   -9.0074394    479.28397  0.011066869 0.0098413914         3925 
 3610000   0.67801649   -9.0035733    479.49972  0.011068784 0.0098369837         3925 
 3611000   0.66837353   -9.0277366    479.50999  0.011065956 0.0098325802         3919 
 3612000   0.67588404   -9.0142356    479.05432  0.011052379 0.0098281763         3919 
 3613000   0.68459562    -9.006065    478.36343  0.011033385 0.0098237767         3911 
 3614000   0.65066927   -9.0260416    479.30472  0.011052037 0.0098193805         3930 
 3615000   0.67654207    -9.004753    480.01467  0.011065345 0.0098149879         3914 
 3616000   0.67669992   -9.0207221    479.39147  0.011047923 0.0098105941         3916 
 3617000   0.67395795   -9.0323233    478.53929  0.011025235 0.0098062058         3924 
 3618000   0.66595604   -9.0142174    480.08458   0.01105778 0.0098018215         3906 
 3619000   0.66515063   -9.0001484    479.07183  0.011031404 0.0097974351         3905 
 3620000   0.68486594   -9.0309301    478.25526  0.011009559 0.0097930508         3926 
 3621000   0.68632514   -9.0178186    479.06338  0.011025117  0.009788672         3929 
 3622000   0.67269964   -9.0034682    479.19132  0.011025017 0.0097842974         3912 
 3623000   0.66281987   -9.0315515     478.5913  0.011008172 0.0097799222         3910 
 3624000   0.66593863   -9.0210012    479.53315  0.011026792 0.0097755505         3937 
 3625000   0.66910343   -9.0107074    478.35999  0.010996781  0.009771181         3917 
 3626000   0.67381771   -9.0216909    478.79835  0.011003823 0.0097668148         3908 
 3627000   0.68392566   -9.0163163    479.60213  0.011019257 0.0097624498         3906 
 3628000   0.68464717    -8.991661    478.82577  0.010998387 0.0097580898         3916 
 3629000   0.67586054   -8.9921398     479.5925  0.011012963 0.0097537364         3903 
 3630000   0.67310443   -9.0112045    479.32657  0.011003824 0.0097493789         3916 
 3631000   0.69012918   -9.0381675    478.52297   0.01098235 0.0097450281         3912 
 3632000    0.6609146   -9.0125051    479.36566  0.010998661 0.0097406746         3901 
 3633000   0.66272517   -9.0140217    479.56472    0.0110002 0.0097363222         3912 
 3634000   0.67341194   -9.0222463    478.83194  0.010980369 0.0097319758         3912 
 3635000   0.68108217   -9.0413895    478.78625  0.010976301  0.009727625         3918 
 3636000   0.67298323    -9.009602    479.55624   0.01099093 0.0097232836         3904 
 3637000   0.66824833   -9.0058652     479.0462  0.010976221 0.0097189426         3905 
 3638000   0.67081462   -9.0225319    478.88862  0.010969595 0.0097146093         3905 
 3639000   0.66795115   -9.0342667    479.71889  0.010985593 0.0097102791         3922 
 3640000   0.67369338   -9.0138053    479.84315   0.01098542 0.0097059503         3917 
 3641000    0.6709758   -9.0139884    479.52795  0.010975189 0.0097016292         3902 
 3642000   0.68055619   -9.0258006    479.92883  0.010981348 0.0096973008         3906 
 3643000   0.67069914   -9.0226303    479.63363  0.010971581 0.0096929797         3915 
 3644000   0.66848916   -9.0039442    479.22611  0.010959251 0.0096886587         3924 
 3645000   0.66688905     -9.02357    478.69289  0.010944053 0.0096843395         3931 
 3646000   0.66720514   -9.0195856    479.95246   0.01096984 0.0096800225         3902 
 3647000   0.67162068   -9.0319915    479.27952  0.010951456 0.0096757064         3905 
 3648000   0.67066461   -9.0440762    479.63724  0.010956626 0.0096713952         3926 
 3649000   0.66259734   -9.0277123    479.03384  0.010939843 0.0096670862         3908 
 3650000   0.67315843   -9.0403523    478.17078  0.010917141 0.0096627794         3940 
 3651000   0.66418211   -9.0335761    478.03122  0.010910966 0.0096584703         3917 
 3652000   0.66065686   -9.0247937    478.84197  0.010926478 0.0096541628         3906 
 3653000   0.67172351   -9.0152496    478.97916  0.010926617 0.0096498571         3928 
 3654000   0.67642742   -9.0441543    478.62537  0.010915558 0.0096455653         3917 
 3655000   0.64823917   -9.0105837    479.55225  0.010933704 0.0096412765         3906 
 3656000   0.65140169   -9.0116771    478.77088  0.010912903 0.0096369896         3915 
 3657000   0.66538958   -9.0168584    479.18985  0.010919466 0.0096327025         3926 
 3658000   0.66411709   -9.0364061    478.88975  0.010909644 0.0096284166         3912 
 3659000   0.67738706    -9.029758    478.25085  0.010892112 0.0096241296         3928 
 3660000    0.6769108   -9.0345939    478.25553  0.010889242 0.0096198485         3905 
 3661000   0.66599682   -9.0233993    478.01155  0.010880715 0.0096155666         3925 
 3662000   0.66084125   -9.0358814    478.40909   0.01088679 0.0096112922         3914 
 3663000     0.673844   -9.0313865     478.7594  0.010891787 0.0096070181         3933 
 3664000   0.66021444   -9.0398856    478.49713  0.010882849 0.0096027476         3907 
 3665000   0.65042862   -9.0366658    479.58129  0.010904531 0.0095984795         3891 
 3666000   0.67048128   -9.0400749    479.06813  0.010889892 0.0095942094         3914 
 3667000   0.67637489   -9.0365667    478.17016  0.010866516 0.0095899448         3926 
 3668000    0.6729632   -9.0253122    479.84032  0.010901498 0.0095856859         3926 
 3669000   0.66787582    -9.021422    478.93003  0.010877851 0.0095814251         3907 
 3670000   0.66929694   -9.0359411    479.31549   0.01088364 0.0095771694         3907 
 3671000   0.65559702   -9.0431824    478.87567  0.010870691 0.0095729153         3926 
 3672000    0.6596232   -9.0100896    479.16786  0.010874361 0.0095686631         3904 
 3673000    0.6586336    -9.026288    478.58699  0.010858222  0.009564416         3909 
 3674000   0.65276478   -9.0332529    478.42405  0.010851571 0.0095601724         3925 
 3675000   0.67839686   -9.0382825    479.58444  0.010874931 0.0095559296         3915 
 3676000   0.67100707   -9.0300571    478.99373  0.010858581 0.0095516856         3922 
 3677000   0.66251125   -9.0180007    478.39582  0.010842077 0.0095474437         3923 
 3678000   0.67011928    -9.016997    479.08489  0.010854742 0.0095432069         3919 
 3679000   0.66141001   -9.0339845    479.68649  0.010865418 0.0095389741         3911 
 3680000   0.65590929   -9.0289357    478.26123  0.010830191 0.0095347421         3913 
 3681000   0.65129852   -9.0362608     478.6012  0.010834945 0.0095305121         3917 
 3682000    0.6594997   -9.0164864    478.58872   0.01083172 0.0095262823         3935 
 3683000    0.6608282   -9.0333579    479.00994   0.01083831 0.0095220533         3926 
 3684000   0.66636131   -9.0345087    478.47314  0.010823225 0.0095178313         3935 
 3685000   0.65316881   -9.0096751    479.65863  0.010847097 0.0095136089         3914 
 3686000   0.66082955   -9.0131398    479.26213   0.01083519   0.00950939         3915 
 3687000   0.66266992   -9.0297198       479.12  0.010829039 0.0095051766         3900 
 3688000   0.65974779   -9.0555442     478.6381  0.010815214 0.0095009616         3925 
 3689000   0.68138059   -9.0418488    479.04363  0.010821443 0.0094967483         3914 
 3690000   0.66470324   -9.0325637    479.56258   0.01083023 0.0094925377         3918 
 3691000   0.67554653   -9.0320778    478.06959  0.010793588 0.0094883318         3927 
 3692000     0.656649   -9.0532193    478.89397  0.010809272 0.0094841234         3919 
 3693000   0.65813823   -9.0253644    478.84915  0.010805333 0.0094799234         3911 
 3694000    0.6462389   -9.0401841    478.91253  0.010803838 0.0094757256         3916 
 3695000   0.65644966   -9.0476382    479.51308  0.010814458 0.0094715323         3909 
 3696000   0.65473432   -9.0212373    479.39789  0.010808935 0.0094673401         3900 
 3697000   0.66662982   -9.0525894    478.50865  0.010785967 0.0094631502         3915 
 3698000   0.65712957   -9.0381764    479.31975  0.010801328  0.009458957         3919 
 3699000   0.65416114   -9.0306549    478.93233   0.01078968 0.0094547669         3916 
 3700000   0.67151903   -9.0253703    479.38016   0.01079685  0.009450586         3902 
 3701000    0.6615158   -9.0447211    478.21821   0.01076777  0.009446402         3910 
 3702000   0.66005819   -9.0549103      478.792  0.010777778  0.009442221         3902 
 3703000   0.65114574   -9.0320727    478.52494  0.010768857 0.0094380472         3911 
 3704000    0.6601455   -9.0400978    478.77353  0.010771543 0.0094338747         3924 
 3705000   0.65254568   -9.0371933    478.48611  0.010762171 0.0094297018         3920 
 3706000   0.66903516   -9.0516976    478.93967  0.010769465 0.0094255278         3919 
 3707000   0.66468833   -9.0431629    479.02431  0.010768463 0.0094213541         3926 
 3708000   0.66955108   -9.0299719    479.46159  0.010775386 0.0094171881         3883 
 3709000    0.6452681   -9.0374671    478.83607  0.010758427 0.0094130256         3898 
 3710000    0.6547528   -9.0312429    479.16272  0.010762864 0.0094088597         3913 
 3711000   0.64813002   -9.0657929    477.83964  0.010730253 0.0094046977         3909 
 3712000   0.66077646    -9.023359    478.32029  0.010738153 0.0094005371         3905 
 3713000   0.64331717   -9.0429875    478.21323  0.010732858 0.0093963812         3908 
 3714000   0.65516647   -9.0258264    478.60608  0.010738783 0.0093922309         3926 
 3715000   0.65457388   -9.0319053    478.68064  0.010737565 0.0093880785         3897 
 3716000   0.64328409   -9.0527796     478.1258  0.010722233 0.0093839303         3899 
 3717000   0.65027339   -9.0560137    478.63108  0.010730676 0.0093797836         3914 
 3718000   0.65089719   -9.0471372    478.92374   0.01073435 0.0093756395         3916 
 3719000   0.66461318   -9.0486609    478.78891  0.010728442 0.0093714979         3895 
 3720000   0.64980503   -9.0511185    478.87273  0.010727436 0.0093673627         3916 
 3721000   0.66149435    -9.036297    479.04736  0.010728464  0.009363229         3917 
 3722000   0.65577514   -9.0216601     479.0385  0.010725383 0.0093590984         3907 
 3723000   0.65825081   -9.0418484     478.8637  0.010718589 0.0093549694         3910 
 3724000   0.65884411    -9.048391    479.92367   0.01073943 0.0093508405         3917 
 3725000   0.66170159   -9.0556229    479.02779  0.010716505 0.0093467126         3897 
 3726000    0.6649355   -9.0438902    478.46702  0.010701087 0.0093425907         3907 
 3727000   0.64936525   -9.0348347    478.87332  0.010707301 0.0093384678         3906 
 3728000   0.65989008   -9.0342509    479.14651  0.010710535 0.0093343508         3922 
 3729000   0.64694345   -9.0450859    478.29936  0.010688731 0.0093302342         3910 
 3730000   0.66018642   -9.0350524    478.39457  0.010687993 0.0093261232         3924 
 3731000   0.65345853   -9.0393624     478.7831  0.010693806 0.0093220131         3905 
 3732000   0.65010289   -9.0357654    479.11947  0.010698452 0.0093179039         3907 
 3733000   0.64246946    -9.038423    479.08404  0.010694795 0.0093137986         3913 
 3734000   0.65732237   -9.0487053    478.68638  0.010683056 0.0093096927         3913 
 3735000   0.65367107   -9.0523933     479.3299  0.010694554 0.0093055886         3907 
 3736000   0.64705091    -9.036754    478.77087  0.010679222 0.0093014857         3906 
 3737000    0.6548134   -9.0490478    477.67692   0.01065197 0.0092973903         3911 
 3738000   0.65796186    -9.043091    478.48397  0.010667112 0.0092932913         3907 
 3739000   0.64133233   -9.0390436    479.04163  0.010676688 0.0092892001         3908 
 3740000   0.65901256   -9.0547809    478.27168  0.010656677 0.0092851126         3913 
 3741000   0.64056391   -9.0587131     479.0772  0.010671772 0.0092810243         3928 
 3742000   0.63817464   -9.0610968    477.61966  0.010636461  0.009276936         3918 
 3743000    0.6561466   -9.0411731    479.52496  0.010676039 0.0092728503         3917 
 3744000   0.64821801   -9.0388287    478.56651  0.010651854 0.0092687628         3899 
 3745000   0.65018911   -9.0471157     477.8965  0.010634101 0.0092646819         3930 
 3746000   0.65148636   -9.0205571    478.68451  0.010648792 0.0092605996         3922 
 3747000   0.66345759   -9.0435863    477.80561  0.010626404 0.0092565235         3905 
 3748000   0.65399655   -9.0525916    478.23004  0.010633005 0.0092524474         3924 
 3749000    0.6513295   -9.0689346    478.64415  0.010639374 0.0092483751         3923 
 3750000   0.66461444   -9.0463305    479.13734  0.010647497 0.0092443091         3919 
 3751000   0.66952369   -9.0561266    478.87562  0.010638843 0.0092402411         3930 
 3752000    0.6763744   -9.0709685     478.0096  0.010616773  0.009236177         3920 
 3753000   0.66521876   -9.0437623    477.99771   0.01061368 0.0092321167         3922 
 3754000   0.65217036   -9.0559466    476.98771  0.010588432 0.0092280552         3917 
 3755000   0.64944612   -9.0636897    478.25711  0.010613784 0.0092239997         3923 
 3756000   0.64647891   -9.0470465    479.24786   0.01063294 0.0092199462         3915 
 3757000   0.65696074    -9.058118     477.0835  0.010582102 0.0092158969         3917 
 3758000   0.63552554    -9.067666    478.24368  0.010605013 0.0092118443         3912 
 3759000   0.67199494   -9.0536142     478.9662   0.01061821 0.0092077947         3939 
 3760000   0.65485839   -9.0407445     478.1778  0.010597912 0.0092037517         3919 
 3761000   0.64805699   -9.0580198     478.2985  0.010597769  0.009199711         3925 
 3762000   0.65182571   -9.0373033    478.57989  0.010601185 0.0091956729         3910 
 3763000    0.6408305   -9.0482973     479.1264   0.01061047 0.0091916347         3911 
 3764000   0.64035456   -9.0525476    478.14263  0.010585871 0.0091875985         3892 
 3765000   0.63695213    -9.032343      478.886  0.010599513 0.0091835636         3928 
 3766000   0.65139093   -9.0501178    478.15847    0.0105806 0.0091795322         3918 
 3767000   0.66625295   -9.0392064    478.78758  0.010591708 0.0091755021         3912 
 3768000   0.63826195   -9.0539094    477.71225  0.010565115 0.0091714757         3915 
 3769000   0.64548551   -9.0608056    478.20392  0.010573183 0.0091674521         3898 
 3770000   0.65949131   -9.0784803    478.15793  0.010569362 0.0091634305         3927 
 3771000   0.63677537   -9.0344908    478.91202  0.010583223 0.0091594141         3904 
 3772000   0.64528904   -9.0608374    477.97042  0.010559615 0.0091553966         3916 
 3773000   0.64638699   -9.0543257    478.12253  0.010560176 0.0091513812         3918 
 3774000   0.64794373   -9.0636506    478.98869  0.010576503 0.0091473661         3916 
 3775000   0.63007128   -9.0477277    478.89118  0.010571549 0.0091433556         3916 
 3776000    0.6471043   -9.0527642     477.8522   0.01054582 0.0091393438         3926 
 3777000   0.63666425   -9.0640752    478.33178  0.010553609 0.0091353383         3925 
 3778000    0.6589415   -9.0781439    478.03726  0.010544319  0.009131337         3921 
 3779000   0.65604823   -9.0662585    478.60321  0.010554009 0.0091273373         3916 
 3780000   0.65181467    -9.059397    478.45238  0.010547892 0.0091233393         3926 
 3781000   0.64360841   -9.0635872    478.50789  0.010546326  0.009119336         3888 
 3782000   0.64471469   -9.0693838    477.66872  0.010525047 0.0091153399         3930 
 3783000   0.64598489   -9.0533413    478.27869  0.010535701 0.0091113455         3906 
 3784000    0.6552582   -9.0697897    479.28067  0.010554983 0.0091073568         3915 
 3785000   0.64989719   -9.0449834    477.64611  0.010516207 0.0091033671         3906 
 3786000   0.65483845   -9.0670834    478.69883    0.0105366 0.0090993783         3925 
 3787000   0.63997636     -9.04721    477.82805  0.010514656 0.0090953936         3911 
 3788000   0.64528977   -9.0647438    478.53564  0.010527447  0.009091408         3930 
 3789000   0.65093618   -9.0590836    478.29555  0.010519388 0.0090874283         3933 
 3790000   0.63461403   -9.0720707    476.90012   0.01048593 0.0090834525         3926 
 3791000   0.64594364   -9.0611967    477.51621  0.010496707 0.0090794775         3914 
 3792000   0.64868067   -9.0486404    477.77053  0.010499528 0.0090755016         3911 
 3793000    0.6445555   -9.0594039    478.23609  0.010506989 0.0090715299         3921 
 3794000   0.64036127   -9.0643537    478.67759  0.010513916 0.0090675657         3923 
 3795000   0.63214307   -9.0674146    477.68666  0.010489387 0.0090636023         3937 
 3796000   0.65594483   -9.0467212    477.59274  0.010484561 0.0090596409         3928 
 3797000   0.65272677   -9.0683714    477.40264  0.010477628 0.0090556791         3938 
 3798000   0.63824529   -9.0704999    477.30506  0.010472728 0.0090517231         3927 
 3799000   0.64044092   -9.0675741    478.28196    0.0104914 0.0090477669         3915 
 3800000   0.64583717    -9.082112    477.89408  0.010480133 0.0090438149         3930 
 3801000   0.66048534   -9.0895567    477.55402  0.010469921 0.0090398622         3925 
 3802000   0.64794556   -9.0561654    477.49516  0.010465877 0.0090359127         3916 
 3803000   0.64488954   -9.0638643    477.67344  0.010467031 0.0090319642         3916 
 3804000    0.6482959   -9.0550691    477.59961  0.010462662 0.0090280194         3916 
 3805000   0.64671987   -9.0513362    477.66489  0.010461342 0.0090240797         3926 
 3806000   0.64877268   -9.0759016    477.38369  0.010452437 0.0090201377         3919 
 3807000   0.65287471   -9.0531106    478.14167  0.010466283 0.0090161983         3932 
 3808000   0.64893103   -9.0659731    477.59467  0.010451564 0.0090122656         3941 
 3809000   0.65684239   -9.0777258    478.11258  0.010460151 0.0090083297         3927 
 3810000    0.6414586   -9.0775033    478.10371  0.010457211 0.0090043978         3935 
 3811000   0.65025117   -9.0704283    477.61567  0.010443796 0.0090004668         3904 
 3812000   0.63835032   -9.0679783    478.72122  0.010465224  0.008996539         3900 
 3813000   0.64086899   -9.0504972    478.22666  0.010451671 0.0089926139         3917 
 3814000   0.62880864    -9.055409    478.44638  0.010453731 0.0089886923         3924 
 3815000   0.63529702   -9.0608451    478.03029  0.010441902 0.0089847719         3909 
 3816000   0.64823241   -9.0626036    477.87781  0.010435836 0.0089808504         3933 
 3817000   0.64042517   -9.0765599     477.4817  0.010424454 0.0089769352         3931 
 3818000   0.63535446   -9.0825942     479.0822  0.010456657 0.0089730228         3927 
 3819000   0.64792118   -9.0569002    477.61309  0.010421862 0.0089691107         3917 
 3820000   0.64604813   -9.0812244     477.2028  0.010410183 0.0089651995         3921 
 3821000   0.64228025   -9.0696457    478.27986  0.010430949 0.0089612911         3911 
 3822000   0.62735152   -9.0760927    477.85006  0.010418848 0.0089573851         3901 
 3823000   0.62737271   -9.0592164    477.89815  0.010417171 0.0089534817         3907 
 3824000   0.64609754   -9.0602196    477.66594  0.010409387 0.0089495786         3930 
 3825000   0.65039458   -9.0850419    477.19445  0.010396393 0.0089456819         3927 
 3826000   0.62111145   -9.0655258    477.31149  0.010396225  0.008941788         3946 
 3827000   0.64441153   -9.0910066    477.84169  0.010405054 0.0089378968         3922 
 3828000      0.63517   -9.0679898    476.98268  0.010383635 0.0089340012         3925 
 3829000    0.6249965   -9.0702258     477.7145  0.010396851 0.0089301138         3908 
 3830000   0.65257137   -9.0818432    477.53277  0.010390182 0.0089262291         3917 
 3831000   0.63393609   -9.0791726    477.65514  0.010390132 0.0089223428         3918 
 3832000   0.63767468   -9.0642066    477.88878  0.010392501 0.0089184555         3929 
 3833000   0.62852708   -9.0898761    479.05474  0.010415139 0.0089145754         3934 
 3834000   0.63630304   -9.0855214    477.43954  0.010377316 0.0089106942         3924 
 3835000   0.63278879   -9.0862222    477.73987  0.010381136 0.0089068184         3916 
 3836000   0.63255436   -9.0650973    477.27031  0.010368229 0.0089029454         3929 
 3837000   0.64822822   -9.0670821    478.29809  0.010387848 0.0088990715         3937 
 3838000   0.62763017   -9.0868737     477.4272  0.010366232 0.0088952017         3935 
 3839000   0.63030264   -9.0720576    478.07727  0.010377643 0.0088913331         3926 
 3840000   0.64064401   -9.0595826    477.35021  0.010359163 0.0088874667         3933 
 3841000   0.63415146    -9.054143    477.28458  0.010355042 0.0088836042         3902 
 3842000   0.64278082   -9.0800352    477.55262   0.01035816 0.0088797397         3909 
 3843000   0.64020018   -9.0844291    478.36012  0.010372975 0.0088758832         3912 
 3844000   0.63336731   -9.0620493    477.74292  0.010356897 0.0088720271         3925 
 3845000   0.64331531   -9.0819225     478.2747  0.010365728 0.0088681739         3917 
 3846000   0.63691156   -9.0956909    478.56842  0.010369397 0.0088643256         3949 
 3847000   0.62185759   -9.0788793    477.20358  0.010337137  0.008860475         3900 
 3848000   0.63227531    -9.059423    477.89982  0.010349528   0.00885663         3900 
 3849000   0.64436073   -9.0781099    477.92713  0.010347431 0.0088527835         3911 
 3850000   0.63304958   -9.0720527    478.27864  0.010352351 0.0088489394         3909 
 3851000   0.64411258     -9.07203    478.37345  0.010351715 0.0088450994         3921 
 3852000     0.620685   -9.0752349    477.76749  0.010335918 0.0088412599         3930 
 3853000    0.6230906   -9.0830205    477.88824  0.010335847  0.008837421         3910 
 3854000   0.63475746   -9.0737042    477.59671  0.010326862 0.0088335832         3916 
 3855000   0.62182625   -9.0627511     478.2331   0.01033794 0.0088297529         3899 
 3856000   0.63104966    -9.089232    477.98012  0.010329792 0.0088259243         3908 
 3857000   0.62208461   -9.0754695    478.98292   0.01034878 0.0088220978         3925 
 3858000   0.63161575   -9.0874262    476.97076  0.010302634 0.0088182733         3909 
 3859000   0.61638302   -9.0858715    478.06147  0.010323518 0.0088144499         3937 
 3860000   0.63146286   -9.0738658     477.9587  0.010318625 0.0088106308         3926 
 3861000    0.6279213   -9.0911672    477.26419  0.010300962 0.0088068142         3908 
 3862000   0.63010298   -9.0776164    477.67328  0.010307122 0.0088029998         3909 
 3863000   0.63811654   -9.0755707    478.58906   0.01032421  0.008799187         3905 
 3864000   0.63294839   -9.0640729     478.1944  0.010313026 0.0087953761         3926 
 3865000   0.62644298   -9.0685486    478.32919  0.010313264 0.0087915632         3904 
 3866000   0.62825496   -9.0862041    477.21006  0.010286473 0.0087877571         3934 
 3867000   0.63301198    -9.078002    478.22161  0.010305612  0.008783955         3897 
 3868000   0.62801403   -9.0820744    478.76131  0.010314575  0.008780154         3929 
 3869000   0.62984435   -9.0786574    477.56177  0.010286072  0.008776354         3927 
 3870000   0.63082622   -9.0902364    476.99947  0.010271306 0.0087725557         3939 
 3871000   0.63898677   -9.0826387    477.83119  0.010286558   0.00876876         3905 
 3872000   0.63045731   -9.0723118    477.65439  0.010280096  0.008764962         3926 
 3873000   0.63192381   -9.0775333    477.49324  0.010273975 0.0087611704         3913 
 3874000   0.61236201   -9.0921781    477.25003  0.010266091 0.0087573771         3929 
 3875000   0.64547599   -9.0758922    477.23187  0.010263051 0.0087535887         3922 
 3876000    0.6225874   -9.0863725    477.58279  0.010267948 0.0087498039         3925 
 3877000   0.62779879   -9.0718748    477.19325  0.010256926 0.0087460216         3932 
 3878000   0.62986896   -9.0882857    477.72613  0.010265733 0.0087422423         3913 
 3879000   0.62873696   -9.0870551    477.74516  0.010263495 0.0087384602         3917 
 3880000   0.63332535    -9.072886    478.15824  0.010269722 0.0087346847         3914 
 3881000   0.62333603   -9.0938229    477.05795   0.01024345  0.008730913         3927 
 3882000   0.61735961   -9.0786963    478.56312  0.010273122 0.0087271396         3893 
 3883000    0.6204319   -9.0793246    477.40942  0.010245717 0.0087233722         3924 
 3884000   0.63394061   -9.0695194    477.26187  0.010239913 0.0087196123         3926 
 3885000   0.63599184   -9.0702651    478.04824  0.010254145 0.0087158505         3916 
 3886000   0.63792678   -9.0849526    477.52133  0.010240207 0.0087120872         3917 
 3887000   0.63460565    -9.092021    478.45591  0.010257609 0.0087083267         3908 
 3888000   0.61873634   -9.0959969    477.31456  0.010230508 0.0087045663         3928 
 3889000   0.63387306   -9.0929723     477.8644  0.010239659 0.0087008103         3927 
 3890000   0.62217249    -9.095554    477.78276  0.010235278 0.0086970556         3910 
 3891000   0.62453339   -9.0821121    477.97679  0.010236803 0.0086933071         3926 
 3892000   0.63519665   -9.0828768       477.77  0.010229745 0.0086895564         3919 
 3893000   0.61561094   -9.0713049    478.42892  0.010241222 0.0086858066         3920 
 3894000   0.63385533   -9.0809511    477.22262  0.010212776  0.008682062         3911 
 3895000   0.62094512   -9.0799707    477.54703  0.010217095 0.0086783203         3926 
 3896000   0.63161007   -9.0715946     478.8038  0.010241354 0.0086745787         3924 
 3897000   0.62986438   -9.0838694    477.94812  0.010220429 0.0086708423         3926 
 3898000    0.6271508   -9.0870912    477.59863  0.010210335 0.0086671041         3918 
 3899000   0.63636255   -9.0841282    477.40163  0.010203506 0.0086633671         3940 
 3900000   0.62859805   -9.0763078    478.89069  0.010232707 0.0086596361         3910 
 3901000   0.61995527   -9.0995637    477.61785  0.010202894 0.0086559037         3927 
 3902000   0.61339886   -9.0705297    477.63112  0.010200562 0.0086521769         3919 
 3903000   0.62804484   -9.0814569     477.8137  0.010201847 0.0086484488         3932 
 3904000   0.61340422   -9.0956962    477.22415  0.010186649 0.0086447216         3919 
 3905000   0.62480348   -9.0905844    477.29137  0.010185475 0.0086410004         3917 
 3906000   0.64551174   -9.0837814    478.01321  0.010198268 0.0086372823         3921 
 3907000   0.61981361   -9.0894087    477.64125  0.010187724 0.0086335635         3917 
 3908000   0.62327999   -9.0883933    477.34911  0.010178887 0.0086298519         3942 
 3909000   0.62467157   -9.0874454    477.80889  0.010186085 0.0086261375         3929 
 3910000   0.62443784   -9.0851713    477.59959  0.010179019 0.0086224214         3915 
 3911000   0.62194242   -9.0944149    477.54766   0.01017531 0.0086187157         3939 
 3912000   0.60841819   -9.0977152    477.60859  0.010174007 0.0086150088         3936 
 3913000   0.61865402   -9.0908964    477.32717  0.010165414 0.0086113007         3927 
 3914000   0.61211264   -9.0743948    476.82767  0.010152182 0.0086075945         3922 
 3915000   0.62078909   -9.0930825     477.1995  0.010157503 0.0086038876         3934 
 3916000   0.63022431    -9.081758    477.22151  0.010155378 0.0086001856         3934 
 3917000   0.61467973    -9.089184    478.12619  0.010172032 0.0085964882         3907 
 3918000   0.62503984   -9.0894806    477.48454  0.010155788 0.0085927909         3919 
 3919000   0.61983094   -9.1040608    476.89468  0.010140654  0.008589098         3928 
 3920000   0.63377021   -9.0944866    477.20547  0.010144674 0.0085854066         3931 
 3921000   0.62998214      -9.0937    477.62216  0.010150943 0.0085817196         3909 
 3922000   0.61801661   -9.1031685    478.15006  0.010159571 0.0085780309         3916 
 3923000   0.60614353   -9.0849626    477.99416   0.01015367 0.0085743447         3909 
 3924000   0.63376066   -9.1017571    477.87796  0.010148615 0.0085706603         3904 
 3925000   0.62777081   -9.0989644    477.16791  0.010130954 0.0085669793         3934 
 3926000   0.62643147   -9.0921322    476.39181  0.010111899 0.0085632995         3925 
 3927000   0.62188217   -9.0974633    476.34694  0.010108372 0.0085596212         3909 
 3928000   0.62271162   -9.0843129    477.09453  0.010121659 0.0085559445         3925 
 3929000   0.61187372   -9.1084346    477.74769  0.010132936 0.0085522717         3918 
 3930000    0.6212561   -9.0943424    477.16919  0.010118091 0.0085485979         3906 
 3931000   0.62887598   -9.0896062    477.00733  0.010112086 0.0085449241         3908 
 3932000   0.63361855   -9.0975124    477.37405  0.010117287 0.0085412562         3936 
 3933000   0.61912686   -9.1197869    477.31913  0.010113551 0.0085375894         3931 
 3934000   0.62207389    -9.096871    477.35132  0.010111662 0.0085339236         3926 
 3935000   0.61152416   -9.0950276    477.39942  0.010110111   0.00853026         3925 
 3936000   0.61595222   -9.0773102    477.67521  0.010113381 0.0085265974         3920 
 3937000   0.62395871   -9.0885035    476.72209  0.010090638 0.0085229391         3929 
 3938000   0.62595109   -9.1065647    476.68023   0.01008719 0.0085192838         3924 
 3939000   0.62709049   -9.1157395    477.11213  0.010093766 0.0085156312         3925 
 3940000   0.63181228   -9.1137722    477.44825  0.010098313 0.0085119804         3932 
 3941000   0.63098152    -9.097845    476.94286  0.010085064 0.0085083282         3930 
 3942000   0.61832447    -9.097731    476.92707  0.010082172 0.0085046794         3921 
 3943000   0.62158085   -9.1027248    478.05012   0.01010335  0.008501032         3917 
 3944000   0.62511708   -9.0978223    477.59307  0.010091132 0.0084973858         3912 
 3945000   0.60803918   -9.0979131    478.08101  0.010098881 0.0084937447         3932 
 3946000   0.62251766   -9.0757431    477.80296   0.01009045 0.0084901043         3924 
 3947000   0.62633191   -9.0854073    477.30508  0.010077381 0.0084864677         3924 
 3948000   0.61227723   -9.1068356    477.05488  0.010069547 0.0084828346         3925 
 3949000   0.61456222   -9.0869564    476.49304  0.010055141 0.0084791962         3918 
 3950000   0.61558687    -9.090668    476.47746  0.010052267 0.0084755621         3920 
 3951000   0.61296458    -9.118213    476.86752   0.01005795 0.0084719292         3919 
 3952000   0.61456725   -9.0994696    477.10866   0.01006049 0.0084683013         3934 
 3953000   0.61121049   -9.0931617    477.33732  0.010062765 0.0084646749         3912 
 3954000   0.62066707   -9.1190979    477.25827  0.010058554 0.0084610527         3935 
 3955000   0.60643889   -9.0758314    477.29849  0.010056858 0.0084574319         3936 
 3956000    0.6101351   -9.0981533    477.32888  0.010054956 0.0084538154         3926 
 3957000   0.61886792   -9.1185032    477.08408   0.01004726 0.0084501988         3923 
 3958000   0.60439884   -9.1116334    476.16364  0.010025342 0.0084465814         3934 
 3959000   0.61817691   -9.0936662    476.38736  0.010027519 0.0084429658         3931 
 3960000   0.61572559   -9.0952719    476.79536  0.010033572  0.008439358         3911 
 3961000   0.60618541   -9.0985641    477.04763  0.010036347 0.0084357515         3918 
 3962000   0.61540528   -9.1049983    476.19012  0.010015777 0.0084321426         3913 
 3963000    0.6210385   -9.0956183    476.93551  0.010028924 0.0084285364         3927 
 3964000   0.61823574    -9.099262    477.22346  0.010032447  0.008424935         3905 
 3965000   0.60132402   -9.1064991    476.75234  0.010020016  0.008421331         3926 
 3966000   0.60604849    -9.117172    476.56109   0.01001347 0.0084177331         3926 
 3967000    0.6195755    -9.111979    477.65825  0.010033994 0.0084141379         3915 
 3968000   0.60928807   -9.0724449     477.0749  0.010019214 0.0084105422         3923 
 3969000   0.62733501    -9.114532    477.96405  0.010035359 0.0084069509         3910 
 3970000   0.61341762   -9.1031875    476.61351  0.010004482 0.0084033631         3918 
 3971000   0.60407791   -9.1000167     477.4075  0.010018625 0.0083997754         3921 
 3972000   0.61245644   -9.0997114    476.70465  0.010001356 0.0083961885         3926 
 3973000   0.61998688   -9.1139251    476.57252 0.0099960677 0.0083926072         3919 
 3974000   0.62912714   -9.1138145      477.231   0.01000736 0.0083890261         3914 
 3975000    0.6288987   -9.1060121    477.92033  0.010019294 0.0083854473         3930 
 3976000   0.61322068   -9.1035972    477.46616  0.010007255 0.0083818686         3918 
 3977000   0.61613499   -9.0892712    477.04679 0.0099959516 0.0083782949         3921 
 3978000   0.62050893   -9.1097862    476.76928 0.0099876252 0.0083747196         3918 
 3979000   0.62225766   -9.1111817    476.56764 0.0099808922 0.0083711467         3927 
 3980000   0.59996004   -9.1179425     476.6162 0.0099794013 0.0083675794         3925 
 3981000   0.59812234   -9.0836332    477.75092  0.010000647 0.0083640141         3929 
 3982000   0.60869863   -9.1127287    476.58793 0.0099737972 0.0083604491         3916 
 3983000   0.60311158   -9.1098894    476.29772 0.0099652214  0.008356885         3912 
 3984000   0.60815345   -9.1105407    476.34759 0.0099637632 0.0083533219         3916 
 3985000    0.6208824   -9.0974899    477.19389 0.0099789604 0.0083497621         3909 
 3986000   0.61584383   -9.0942129     476.7357 0.0099668777 0.0083462024         3908 
 3987000   0.62692641   -9.1139595    477.26297 0.0099753986 0.0083426482         3941 
 3988000   0.61741612   -9.0931929    476.62308 0.0099595261 0.0083390937         3908 
 3989000   0.62674642   -9.0957086     476.3965 0.0099522959 0.0083355441         3919 
 3990000   0.61592709   -9.0762355    476.21819 0.0099460774 0.0083319953         3920 
 3991000   0.62869103   -9.0944325    476.84754 0.0099567263 0.0083284493         3920 
 3992000   0.60462216   -9.1098131    476.81859  0.009953628 0.0083249064         3918 
 3993000   0.61666594   -9.1181476    477.13549 0.0099577487 0.0083213618         3913 
 3994000   0.62929072    -9.104842    477.02823 0.0099530176 0.0083178204         3916 
 3995000   0.61549331   -9.1050476     476.8979 0.0099478076 0.0083142809         3906 
 3996000   0.62505426   -9.1256054    476.51122 0.0099372542  0.008310744         3925 
 3997000   0.61205593   -9.1175256    476.38141 0.0099320617 0.0083072077         3920 
 3998000   0.62610273   -9.1148757     476.0961 0.0099236306 0.0083036772         3931 
 3999000   0.61588671   -9.1161387    476.60331 0.0099317185  0.008300145         3935 
 4000000   0.60861269   -9.1073112    476.88496 0.0099351033 0.0082966155         3923 
 4001000   0.60405595   -9.1346353    476.04014 0.0099150241 0.0082930874         3916 
 4002000   0.59740797   -9.0926909    477.27874 0.0099383379 0.0082895606         3926 
 4003000   0.61327257    -9.106168     476.8036 0.0099259639 0.0082860391         3920 
 4004000   0.60917554   -9.1087051    476.93058 0.0099261276 0.0082825208         3921 
 4005000   0.61219651   -9.1108983    476.43635 0.0099133657 0.0082790003         3938 
 4006000   0.61475037    -9.120621    476.18025 0.0099055636  0.008275482         3910 
 4007000   0.59486685   -9.0934129    477.55716 0.0099317271 0.0082719673         3923 
 4008000   0.61778411   -9.1231407    476.81943 0.0099139103 0.0082684562         3926 
 4009000   0.60947183   -9.1234811    476.82874 0.0099116309 0.0082649472         3926 
 4010000   0.61649587   -9.1258634    477.41706 0.0099213854 0.0082614341         3920 
 4011000   0.61220696   -9.1080978    477.08741 0.0099120628 0.0082579285         3916 
 4012000   0.61263478   -9.1019232    476.57994 0.0098990516 0.0082544234         3923 
 4013000   0.60886704   -9.1279677    476.73461 0.0098997967 0.0082509184         3904 
 4014000   0.59304922   -9.1211979    475.76123 0.0098771224 0.0082474175         3919 
 4015000   0.61517567   -9.1097087    476.13451 0.0098824099 0.0082439193         3937 
 4016000    0.6067159   -9.1155821    476.76339 0.0098929985 0.0082404235         3943 
 4017000    0.6166105   -9.1098576    475.94259 0.0098735083  0.008236931         3905 
 4018000   0.61599739   -9.1236547     477.0973 0.0098949997 0.0082334361         3931 
 4019000   0.60838763   -9.1181741    476.66804 0.0098836369 0.0082299437         3928 
 4020000   0.60559734   -9.0974294    476.19193 0.0098713087 0.0082264559         3928 
 4021000   0.61274873   -9.1241292    477.10324 0.0098877401 0.0082229692         3928 
 4022000   0.60357262   -9.1258527    476.52971 0.0098733986 0.0082194877         3912 
 4023000   0.61394696   -9.1105898    476.51183 0.0098705739 0.0082160062         3924 
 4024000   0.62772509    -9.119722     476.3651 0.0098650824 0.0082125237         3932 
 4025000   0.59896849   -9.1289157    477.57033 0.0098875845  0.008209045         3941 
 4026000   0.60622267   -9.1174269    477.03366   0.00987402 0.0082055664         3946 
 4027000   0.60177009   -9.1053453    477.76566 0.0098867159 0.0082020927         3931 
 4028000   0.60143159    -9.119238    476.92612 0.0098668926  0.008198621         3923 
 4029000   0.60437128   -9.1074628    477.31308 0.0098724473 0.0081951505         3921 
 4030000   0.58960964   -9.1260535    476.45782 0.0098523122 0.0081916826         3938 
 4031000     0.608453    -9.122287    477.06727 0.0098624673 0.0081882128         3918 
 4032000    0.6019305   -9.1082086     476.7494 0.0098534516 0.0081847455         3916 
 4033000    0.6197813   -9.1185588    477.33984 0.0098632086 0.0081812817         3911 
 4034000   0.59884406   -9.1348179    475.44482 0.0098216166 0.0081778207         3915 
 4035000   0.59920022   -9.1181082    476.61748  0.009843401 0.0081743563         3928 
 4036000   0.60301039   -9.1269303    477.23311 0.0098536734 0.0081708955         3914 
 4037000   0.60931477   -9.1208195    476.40047 0.0098340448 0.0081674387         3912 
 4038000   0.59991782   -9.1124439    476.84156 0.0098407124 0.0081639863         3911 
 4039000   0.61255354   -9.1085073    477.47648 0.0098513758  0.008160536         3915 
 4040000   0.60684298   -9.1239962    476.09214 0.0098203824 0.0081570838         3909 
 4041000   0.61380421   -9.1138515    476.33391  0.009822938 0.0081536353         3935 
 4042000   0.60567517   -9.1097624    476.84231 0.0098309895 0.0081501894         3912 
 4043000   0.60597868    -9.108092    476.11277 0.0098135207 0.0081467439         3932 
 4044000   0.60420251   -9.1236378    476.53801 0.0098198568 0.0081433002         3912 
 4045000   0.60910964   -9.1267499    475.85373 0.0098033319 0.0081398595         3910 
 4046000   0.60782177   -9.1244111     477.1699 0.0098280173 0.0081364211         3908 
 4047000   0.61279044   -9.1106315    476.37429 0.0098092062 0.0081329845         3905 
 4048000    0.6026075   -9.1296788       476.13  0.009801754 0.0081295508         3926 
 4049000   0.60688227   -9.1262318    476.24873 0.0098017768 0.0081261173         3914 
 4050000   0.59826805   -9.1168561    476.81003  0.009810906 0.0081226799         3934 
 4051000   0.60064684   -9.1295882     476.8016 0.0098083108 0.0081192499         3927 
 4052000   0.61525829   -9.1482044    476.68231 0.0098034369 0.0081158215         3916 
 4053000    0.5883689   -9.1072359    476.95495 0.0098066238 0.0081123984         3927 
 4054000   0.60454902   -9.1273572    476.72394 0.0097994562 0.0081089729         3941 
 4055000   0.61201959   -9.1317955    476.17091 0.0097856742 0.0081055512         3914 
 4056000   0.61032244   -9.1205299    476.77514 0.0097956759 0.0081021335         3921 
 4057000   0.59498052   -9.1207463    476.57038 0.0097890555 0.0080987143         3897 
 4058000   0.60672665   -9.1261696    476.56447 0.0097865218 0.0080953015         3921 
 4059000   0.59690843   -9.1248538    477.12141  0.009795545 0.0080918915         3902 
 4060000   0.61121596   -9.1384184    476.57881 0.0097819953  0.008088482         3923 
 4061000   0.59253744   -9.1350317     476.9951  0.009788129 0.0080850735         3908 
 4062000   0.59996419   -9.1479682    475.61189 0.0097573423 0.0080816647         3933 
 4063000    0.5965181   -9.1306158    476.20527 0.0097671111 0.0080782555         3907 
 4064000   0.61045016    -9.148462    476.52037  0.009771169  0.008074851         3930 
 4065000   0.60194332   -9.1081559    476.29442 0.0097641332 0.0080714485         3915 
 4066000   0.60596061    -9.141148    476.66932 0.0097694154 0.0080680521         3913 
 4067000   0.59440218   -9.1287494    477.48193 0.0097836638 0.0080646523         3917 
 4068000   0.61060064   -9.1268114    476.91858 0.0097697185 0.0080612509         3924 
 4069000   0.57953145   -9.1325702    476.46232 0.0097579733 0.0080578572         3907 
 4070000   0.60387269   -9.1300282    476.50875 0.0097565263 0.0080544652         3937 
 4071000   0.58690085   -9.1410643    476.72604 0.0097585777  0.008051072         3919 
 4072000   0.60890706    -9.146111    475.85817 0.0097384202 0.0080476834         3930 
 4073000   0.60243246   -9.1334469    476.59567 0.0097511185  0.008044298         3911 
 4074000   0.61259379   -9.1264921    476.33306 0.0097433534 0.0080409146         3947 
 4075000   0.61033941   -9.1280705    475.67044 0.0097274118 0.0080375317         3931 
 4076000   0.59385049   -9.1316503    476.11971 0.0097342106  0.008034153         3929 
 4077000   0.61673291   -9.1207369    476.53833 0.0097403795 0.0080307742         3930 
 4078000     0.608877    -9.141338    476.45416 0.0097362711 0.0080273967         3920 
 4079000   0.61364379   -9.1393246    476.26265 0.0097299717 0.0080240173         3908 
 4080000   0.60804518   -9.1330608    476.73236 0.0097371806 0.0080206454         3932 
 4081000   0.60175746   -9.1162939     476.3103 0.0097261761 0.0080172714         3911 
 4082000   0.59514266   -9.1576049    476.19818 0.0097215045 0.0080139008         3929 
 4083000   0.61642524   -9.1300235    476.51415 0.0097255725 0.0080105355         3916 
 4084000   0.60965843   -9.1462539     477.0879 0.0097348983 0.0080071712         3930 
 4085000    0.6098547   -9.1407751    475.79312  0.009706102 0.0080038064         3930 
 4086000   0.59859864     -9.13122    476.16633 0.0097113381 0.0080004427         3919 
 4087000   0.59256921   -9.1416409    476.67307 0.0097192942 0.0079970821         3925 
 4088000   0.58734246   -9.1399966    476.34038 0.0097101349  0.007993725         3909 
 4089000   0.58584861   -9.1392774    476.77944 0.0097167082 0.0079903676         3925 
 4090000   0.59976817   -9.1377669    475.96335 0.0096977048 0.0079870151         3910 
 4091000   0.59242477   -9.1519693    476.04205 0.0096969374 0.0079836635         3932 
 4092000   0.58065077   -9.1216741     476.7932 0.0097098649 0.0079803131         3930 
 4093000   0.58799039   -9.1509741     475.9379 0.0096900786 0.0079769634         3940 
 4094000   0.58492665   -9.1409201    475.99073  0.009688787  0.007973617         3934 
 4095000   0.58592894   -9.1276755    476.68211 0.0097004906 0.0079702748         3923 
 4096000   0.59860622   -9.1455592    476.02685  0.009684791 0.0079669322         3928 
 4097000   0.60493772   -9.1595399    475.93326 0.0096805236 0.0079635921         3922 
 4098000   0.59344008   -9.1397043    476.05577 0.0096806525 0.0079602502         3917 
 4099000   0.59193255   -9.1302922    476.39494 0.0096851863 0.0079569108         3937 
 4100000   0.60364131   -9.1431995    475.60479 0.0096667641  0.007953579         3915 
 4101000   0.58964392   -9.1311375    476.52308 0.0096830667 0.0079502479         3933 
 4102000   0.59852037   -9.1345204    476.26134 0.0096753887 0.0079469137         3931 
 4103000   0.60803743   -9.1432379    476.57794  0.009679461 0.0079435832         3931 
 4104000   0.60555939   -9.1253443    476.44342  0.009674371 0.0079402564         3925 
 4105000   0.59939804   -9.1304374    475.58417  0.009654571 0.0079369303         3901 
 4106000   0.59101401   -9.1222364    476.47183 0.0096702353  0.007933603         3906 
 4107000   0.59653793   -9.1360329    475.84381 0.0096551379 0.0079302801         3906 
 4108000   0.60674399   -9.1360296     476.7461 0.0096710909 0.0079269576         3929 
 4109000   0.58153861   -9.1423039    476.37833 0.0096612788  0.007923641         3918 
 4110000   0.59535042   -9.1426277    476.67359 0.0096649146 0.0079203227         3920 
 4111000   0.59554963   -9.1729312    476.05775   0.00965008 0.0079170073         3949 
 4112000   0.60795776   -9.1453927    476.33289 0.0096533092 0.0079136933         3939 
 4113000    0.5933121   -9.1417131    476.56135  0.009655591 0.0079103805         3930 
 4114000   0.59402829   -9.1400225    475.93902 0.0096406381 0.0079070715         3926 
 4115000   0.59388287    -9.163659    475.63966 0.0096322328 0.0079037636         3936 
 4116000   0.58503718   -9.1380746    476.54213 0.0096481642 0.0079004554         3930 
 4117000   0.60146512   -9.1396795    476.65856 0.0096481775 0.0078971479         3923 
 4118000   0.56702093   -9.1347056    476.31384 0.0096388588 0.0078938439         3929 
 4119000   0.58872343   -9.1461488    475.08599 0.0096116775 0.0078905424         3927 
 4120000   0.59680544   -9.1442538    475.94459 0.0096267109 0.0078872384         3917 
 4121000   0.58920824   -9.1408501     475.8306 0.0096220699 0.0078839401         3918 
 4122000    0.6008225   -9.1399876    476.19684 0.0096271397 0.0078806495         3936 
 4123000   0.59370571   -9.1573369    475.32529 0.0096071892 0.0078773558         3924 
 4124000   0.59037335   -9.1278945    477.31031 0.0096449707 0.0078740662         3930 
 4125000   0.59485197   -9.1602994    476.71299 0.0096305655 0.0078707764         3932 
 4126000   0.60504515   -9.1487155    477.14724 0.0096370019  0.007867488         3936 
 4127000    0.5900098   -9.1490071    475.59128 0.0096032486 0.0078642001         3932 
 4128000   0.58962342   -9.1356126    476.73792 0.0096240699 0.0078609192         3930 
 4129000   0.59306034   -9.1490647     475.5162 0.0095970816 0.0078576376         3922 
 4130000   0.58506344   -9.1566029     476.6313 0.0096172579 0.0078543591         3940 
 4131000    0.5971521   -9.1355482    476.13073 0.0096048319 0.0078510796         3917 
 4132000   0.59173745   -9.1238004    476.50657 0.0096100872 0.0078478034         3921 
 4133000   0.59537529   -9.1399159    475.69463  0.009591391 0.0078445298         3928 
 4134000   0.59758612   -9.1325186    475.98317 0.0095948872 0.0078412563         3929 
 4135000   0.58911026   -9.1363577    476.26686 0.0095982841 0.0078379854         3944 
 4136000   0.60502214   -9.1429966    476.09853 0.0095925719  0.007834717         3925 
 4137000   0.60172805   -9.1404207    476.08279 0.0095899361 0.0078314503         3939 
 4138000   0.59188838   -9.1536559     475.3079 0.0095720134 0.0078281868         3943 
 4139000    0.5849262   -9.1558761    476.50787 0.0095938606 0.0078249233         3938 
 4140000    0.5878629   -9.1436228    476.54956 0.0095923825 0.0078216605         3928 
 4141000   0.58995169   -9.1373693    476.34417 0.0095859328 0.0078183996         3929 
 4142000   0.58925209   -9.1474351    476.77868 0.0095923603 0.0078151417         3907 
 4143000   0.59428373   -9.1357317    475.24529  0.009559202 0.0078118842         3951 
 4144000   0.58864298   -9.1421398    475.12525 0.0095544815 0.0078086324         3932 
 4145000   0.58705571   -9.1491029    475.69924 0.0095637162 0.0078053809         3946 
 4146000   0.58877789   -9.1728091    476.17249 0.0095709216 0.0078021305         3928 
 4147000   0.58244136   -9.1557436    476.95999 0.0095844384 0.0077988812         3924 
 4148000   0.59992622    -9.153952    476.32593 0.0095693895 0.0077956355         3931 
 4149000   0.57453305   -9.1487385    475.61904  0.009552885 0.0077923897         3927 
 4150000   0.59451734   -9.1208711    475.16211 0.0095414078 0.0077891467         3924 
 4151000   0.58216206   -9.1472413    475.78643 0.0095516427 0.0077859045         3926 
 4152000   0.57434075    -9.155477    475.43708 0.0095423306 0.0077826663         3927 
 4153000   0.59065437   -9.1344791    475.98554 0.0095510383 0.0077794276         3921 
 4154000   0.59469031   -9.1538606    475.57782 0.0095405598 0.0077761868         3925 
 4155000   0.58477598   -9.1436123    476.84742 0.0095637268 0.0077729505         3927 
 4156000   0.58673396    -9.148974    475.66485 0.0095377136  0.007769719         3940 
 4157000   0.58935518   -9.1640136    475.84919 0.0095391146 0.0077664886         3934 
 4158000    0.5835484   -9.1499789    476.12546 0.0095423573   0.00776326         3933 
 4159000   0.59531692   -9.1534092    476.35687 0.0095446996 0.0077600314         3930 
 4160000   0.58670065   -9.1545626    476.31617 0.0095415899 0.0077568019         3935 
 4161000   0.59248501   -9.1457898     475.7775 0.0095285087 0.0077535745         3948 
 4162000   0.58345663   -9.1388629    476.16953 0.0095340689 0.0077503507         3930 
 4163000   0.59454292   -9.1478454    475.94905 0.0095273651 0.0077471279         3935 
 4164000   0.59666544   -9.1435753    476.74772 0.0095410608 0.0077439081         3932 
 4165000    0.5918129   -9.1351836    475.53023 0.0095144104 0.0077406905         3925 
 4166000   0.57922533   -9.1406667    476.22714 0.0095260669 0.0077374753         3927 
 4167000    0.5971851    -9.143371    476.18608 0.0095229598 0.0077342642         3935 
 4168000   0.57991759   -9.1548587    476.82185 0.0095333862 0.0077310527         3936 
 4169000   0.59785466   -9.1680326    475.89025  0.009512478 0.0077278404         3944 
 4170000   0.58979782   -9.1501459    475.75995 0.0095075929 0.0077246331         3920 
 4171000   0.57546708   -9.1434256    475.98405 0.0095097908 0.0077214251         3927 
 4172000   0.56882601   -9.1567506    476.13434 0.0095105133 0.0077182187         3928 
 4173000   0.59367993    -9.167266    475.79929 0.0095015435 0.0077150123         3932 
 4174000   0.58736594   -9.1584763    476.74773 0.0095182025 0.0077118123         3938 
 4175000    0.5860779   -9.1469811    475.86486 0.0094983006  0.007708611         3921 
 4176000   0.57853344   -9.1649256    476.52374 0.0095091742 0.0077054138         3950 
 4177000   0.58617152   -9.1683601     475.5292 0.0094870561  0.007702218         3928 
 4178000   0.58095318   -9.1570836    476.32084 0.0095005752 0.0076990252         3933 
 4179000    0.5816208   -9.1581137    476.13226 0.0094945413 0.0076958314         3947 
 4180000   0.58305224   -9.1560861    476.29531 0.0094955205 0.0076926418         3934 
 4181000   0.59033321   -9.1617028    475.67215 0.0094808289 0.0076894519         3942 
 4182000   0.59016603   -9.1571016    475.11286  0.009467417 0.0076862633         3937 
 4183000   0.57845885   -9.1651285    475.41433 0.0094711597 0.0076830768         3938 
 4184000   0.58671571   -9.1486394     475.3043 0.0094667045 0.0076798931         3952 
 4185000   0.58792151   -9.1549714    476.18074 0.0094818945 0.0076767115         3947 
 4186000   0.59325263   -9.1602951    475.87844 0.0094736113 0.0076735308         3938 
 4187000   0.58953503   -9.1622182    476.12818 0.0094763191 0.0076703513         3939 
 4188000   0.58107694   -9.1625598    476.22168 0.0094759169 0.0076671751         3933 
 4189000   0.58292086    -9.165926    475.20682 0.0094534659 0.0076639984         3947 
 4190000   0.57586756   -9.1608752    475.71584 0.0094613334 0.0076608252         3941 
 4191000   0.58223669   -9.1485506    476.48398 0.0094743494  0.007657654         3950 
 4192000    0.5834845   -9.1547624    476.16819 0.0094658117 0.0076544879         3946 
 4193000   0.57819038   -9.1707438    476.04672 0.0094611401 0.0076513199         3949 
 4194000   0.57346661   -9.1583024     475.5873 0.0094497556 0.0076481554         3911 
 4195000   0.58568711    -9.164579    475.75658 0.0094508657 0.0076449935         3943 
 4196000   0.57918743   -9.1559712    475.50088  0.009443535 0.0076418291         3933 
 4197000   0.58937923   -9.1679294    475.71799 0.0094455959 0.0076386674         3942 
 4198000   0.55908011   -9.1559535    476.49735 0.0094588166   0.00763551         3933 
 4199000   0.58583059   -9.1583212    474.98431 0.0094265363 0.0076323517         3949 
 4200000   0.59516747   -9.1491179     475.2056 0.0094286824  0.007629196         3939 
 4201000   0.57548825   -9.1639831    475.31286 0.0094285659 0.0076260438         3946 
 4202000   0.57228251   -9.1661579    476.61427 0.0094521313 0.0076228935         3950 
 4203000   0.58059584   -9.1672179    475.88262 0.0094353758  0.007619743         3937 
 4204000    0.5741037   -9.1568315    476.54561 0.0094462736 0.0076165931         3934 
 4205000   0.56894882   -9.1628029    475.04549 0.0094142983 0.0076134451         3950 
 4206000   0.57863151   -9.1620113    475.21687 0.0094154555 0.0076103014         3943 
 4207000   0.57464843   -9.1733439    475.74213  0.009423622 0.0076071565         3940 
 4208000   0.57594937   -9.1560422    475.24812 0.0094115994 0.0076040129         3930 
 4209000    0.5876463   -9.1590918    475.72835 0.0094188713 0.0076008715         3919 
 4210000   0.56390965   -9.1538451    475.16373 0.0094054578 0.0075977345         3946 
 4211000   0.57578172   -9.1733073    474.71817 0.0093944068 0.0075945948         3935 
 4212000   0.58150233   -9.1625684    475.43929 0.0094064436 0.0075914615         3941 
 4213000   0.57855224   -9.1569672    475.30822 0.0094016184 0.0075883264         3935 
 4214000   0.59586674   -9.1573509    475.59709 0.0094050999 0.0075851938         3936 
 4215000   0.58264645    -9.164698    475.08291 0.0093927028 0.0075820628         3940 
 4216000   0.56465789   -9.1656515    474.97294 0.0093883013  0.007578932         3930 
 4217000   0.58461195    -9.163826    475.55208 0.0093975195  0.007575805         3943 
 4218000   0.57885319   -9.1538618    475.16869  0.009387717 0.0075726798         3947 
 4219000   0.58016834    -9.180863    474.78172 0.0093778486 0.0075695553         3942 
 4220000   0.57328446   -9.1799506    476.20506 0.0094037334 0.0075664347         3927 
 4221000   0.57864753   -9.1769475    475.62973 0.0093901471 0.0075633148         3949 
 4222000   0.58606357   -9.1530589     474.9848 0.0093751935 0.0075601954         3942 
 4223000   0.56815646   -9.1739576     475.9232  0.009391491 0.0075570797         3938 
 4224000   0.58208383    -9.153355    474.73752 0.0093658759 0.0075539663         3921 
 4225000   0.58345626   -9.1859586    475.03727 0.0093695714 0.0075508534         3929 
 4226000   0.57157998   -9.1637228    475.06779 0.0093679561 0.0075477415         3916 
 4227000   0.57742139   -9.1598665    475.46604 0.0093735912  0.007544628         3918 
 4228000   0.57161267    -9.151205     475.1174 0.0093645025 0.0075415212         3910 
 4229000   0.57787519   -9.1502748    475.72152 0.0093741925 0.0075384156         3929 
 4230000    0.5740538   -9.1718372    474.61065 0.0093500915 0.0075353107         3947 
 4231000   0.57871021   -9.1731217    475.29685  0.009361397 0.0075322101         3926 
 4232000   0.58642954   -9.1761603    475.92214 0.0093714976 0.0075291091         3938 
 4233000   0.57227351   -9.1708857    475.66736 0.0093642681 0.0075260087         3949 
 4234000    0.5629172   -9.1762616    475.31688 0.0093551582 0.0075229091         3936 
 4235000    0.5887802   -9.1691316    475.45811 0.0093557282 0.0075198136         3935 
 4236000   0.56584815    -9.180468    476.10439 0.0093662337 0.0075167178         3930 
 4237000   0.56479239   -9.1620891    476.22366 0.0093663688 0.0075136252         3919 
 4238000   0.58046592   -9.1786394    475.62962 0.0093524781 0.0075105328         3939 
 4239000   0.57319045   -9.1550408    474.42437 0.0093265781 0.0075074466         3928 
 4240000   0.57196539   -9.1950754    475.37057  0.009342975 0.0075043595         3920 
 4241000   0.56923277   -9.1971619    475.68871 0.0093470232 0.0075012714         3944 
 4242000   0.56746813   -9.1659145      476.229 0.0093554338 0.0074981867         3927 
 4243000   0.57501153   -9.1635808    475.98906 0.0093485163 0.0074951026         3929 
 4244000   0.56550138   -9.1677571    475.03138 0.0093275089 0.0074920229         3920 
 4245000   0.57059692   -9.1600428    474.30109 0.0093109754 0.0074889442         3941 
 4246000    0.5664542   -9.1742719    475.15801 0.0093256008 0.0074858667         3940 
 4247000   0.56964026   -9.1563377    475.88184 0.0093376077 0.0074827921         3954 
 4248000   0.57690258   -9.1750934    475.20618 0.0093221551 0.0074797187         3937 
 4249000   0.58454918   -9.1831969    475.72587 0.0093301535 0.0074766455         3931 
 4250000   0.57176763   -9.1734211    475.66275 0.0093267207 0.0074735751         3938 
 4251000   0.57837062   -9.1681374    475.48406 0.0093210238 0.0074705071         3925 
 4252000   0.57552538   -9.1864189    475.49586 0.0093190629 0.0074674413         3931 
 4253000   0.57946795   -9.1746227    475.11368 0.0093093831 0.0074643783         3924 
 4254000   0.55887612    -9.191062    474.68149 0.0092987284 0.0074613125         3944 
 4255000   0.57217648   -9.1795329    475.72509 0.0093169818 0.0074582506         3941 
 4256000   0.57558041   -9.1602002    476.79107 0.0093356648 0.0074551918         3921 
 4257000   0.56378045    -9.175938    474.44235 0.0092874942 0.0074521343         3935 
 4258000   0.56527482   -9.1929727    475.77577 0.0093114093 0.0074490774         3919 
 4259000   0.56982422   -9.1614942    475.20128 0.0092979824 0.0074460248         3922 
 4260000   0.56314666   -9.1801563    474.13623 0.0092749653 0.0074429713         3912 
 4261000   0.58118402   -9.1607965    475.39379 0.0092973831   0.00743992         3941 
 4262000   0.55520852   -9.1678478    475.36094 0.0092945593  0.007436872         3935 
 4263000   0.56878517   -9.1790761    476.02329 0.0093053266 0.0074338247         3931 
 4264000   0.56729903   -9.1823237    476.26743 0.0093079157 0.0074307807         3943 
 4265000    0.5689446   -9.1809002    474.88938 0.0092788078 0.0074277335         3932 
 4266000   0.58404029   -9.2026943    474.72655 0.0092734519 0.0074246909         3930 
 4267000   0.57582075   -9.1703529    475.60517 0.0092884379  0.007421651         3940 
 4268000     0.562628   -9.1923357    474.91197 0.0092727267 0.0074186086         3937 
 4269000   0.56710914   -9.1677008    475.25468 0.0092772444 0.0074155686         3937 
 4270000   0.56781614   -9.1812255    474.77589 0.0092657277 0.0074125295         3926 
 4271000   0.57225624   -9.1797389    475.27525 0.0092733016 0.0074094945         3926 
 4272000   0.57304109   -9.1681992     475.3991 0.0092735467 0.0074064608         3923 
 4273000   0.57551265     -9.17831    474.83436 0.0092603628 0.0074034307         3931 
 4274000    0.5713117   -9.1921143    475.20592 0.0092654406 0.0074004016         3916 
 4275000   0.56406069   -9.1853007    475.14279 0.0092620426  0.007397375         3913 
 4276000   0.55622732   -9.1576144    474.49439 0.0092472402   0.00739435         3943 
 4277000   0.56572435   -9.1895149    475.07783 0.0092564459 0.0073913273         3939 
 4278000    0.5672347   -9.1866767    475.23556 0.0092573547 0.0073883035         3934 
 4279000   0.56263898   -9.1652022    474.48906 0.0092406532 0.0073852822         3937 
 4280000   0.58104765     -9.18924     474.5398 0.0092394821 0.0073822621         3945 
 4281000   0.57243758   -9.1735656    474.82855 0.0092429447 0.0073792459         3922 
 4282000   0.56086332   -9.1725101    474.84817 0.0092411679  0.007376228         3946 
 4283000   0.55914871   -9.1670738    475.41648 0.0092500677 0.0073732128         3935 
 4284000   0.56142363   -9.1908383    474.99522  0.009239714 0.0073702017         3933 
 4285000   0.56755836   -9.1873262    474.96639 0.0092369972 0.0073671884         3924 
 4286000   0.56448403   -9.1983441    475.06488 0.0092367568 0.0073641785         3925 
 4287000   0.57424382   -9.1944812    474.61407 0.0092258391 0.0073611702         3942 
 4288000   0.56505597   -9.1871577    474.92341 0.0092296993 0.0073581645         3923 
 4289000    0.5747575   -9.1739442    475.30197 0.0092349027 0.0073551594         3922 
 4290000    0.5529805   -9.1690077    475.17661 0.0092303149  0.007352153         3919 
 4291000   0.56423048   -9.1927034     474.5093 0.0092152044 0.0073491496         3930 
 4292000   0.55222221    -9.178158    475.61698 0.0092345638 0.0073461488         3950 
 4293000   0.57204424   -9.1847235    475.82977 0.0092365434  0.007343148         3928 
 4294000   0.56071878   -9.1869542    474.87687 0.0092158995 0.0073401497         3943 
 4295000   0.55752865   -9.1652192    475.50826 0.0092260042 0.0073371545         3926 
 4296000   0.56342922   -9.2020563    474.61684  0.009206565  0.007334159         3936 
 4297000   0.55855788   -9.1602817    475.38887 0.0092193947 0.0073311677         3937 
 4298000   0.57169116    -9.187741    475.01731 0.0092100455 0.0073281735         3931 
 4299000    0.5628525   -9.1815086    475.02988 0.0092081469 0.0073251835         3936 
 4300000   0.56569217   -9.1920336    474.42187 0.0091942222 0.0073221972         3939 
 4301000   0.56696154   -9.1893044    475.50807 0.0092131301 0.0073192136         3934 
 4302000   0.55813191   -9.1948709    474.86742 0.0091985786 0.0073162295         3939 
 4303000   0.56680971   -9.1804242    475.18048 0.0092025038  0.007313249         3935 
 4304000   0.56580218   -9.1937413    474.66775 0.0091904381 0.0073102668         3924 
 4305000   0.58584795   -9.1787961    474.55886 0.0091861955 0.0073072888         3943 
 4306000   0.56370565   -9.1956624    474.68113 0.0091864285 0.0073043106         3934 
 4307000   0.56854405   -9.1844843    473.90899 0.0091693559  0.007301334         3906 
 4308000   0.56333711   -9.2075018    474.68707 0.0091822786 0.0072983602         3939 
 4309000   0.55125988   -9.1929092    474.57591 0.0091779977 0.0072953857         3947 
 4310000   0.56047624   -9.1875483    474.48594 0.0091741287 0.0072924143         3927 
 4311000   0.56968551    -9.189679    474.77523 0.0091775928 0.0072894411         3936 
 4312000   0.56459147   -9.1886823     475.3782 0.0091871174 0.0072864738         3916 
 4313000   0.55394408   -9.1968607    474.97752 0.0091772456 0.0072835042         3925 
 4314000   0.55885423   -9.1872862    474.21542 0.0091603967 0.0072805397         3927 
 4315000   0.57159333   -9.1848772     474.7817 0.0091692101  0.007277577         3935 
 4316000   0.57147411   -9.1861754    475.07542 0.0091727568 0.0072746153         3922 
 4317000   0.55293928   -9.1704901    474.50669 0.0091596535 0.0072716553         3938 
 4318000   0.55947146   -9.1894281    474.43872 0.0091562204  0.007268696         3932 
 4319000   0.57813411   -9.1880663    474.92447 0.0091634729 0.0072657391         3936 
 4320000   0.56588574   -9.1874657    474.95767 0.0091619921 0.0072627862         3940 
 4321000   0.55824719   -9.1759688    475.23534 0.0091652269 0.0072598306         3924 
 4322000   0.54894003   -9.1640314     475.1418 0.0091613027 0.0072568793         3925 
 4323000   0.55782006   -9.1787835    475.60789 0.0091681681 0.0072539292         3941 
 4324000   0.55824679   -9.1705276    475.27917 0.0091597126 0.0072509798         3940 
 4325000   0.56419309   -9.1900284    476.00401 0.0091715609 0.0072480338         3925 
 4326000   0.56058102   -9.2007092    475.26352 0.0091551764 0.0072450896         3928 
 4327000   0.56003054   -9.1694884     474.9131 0.0091463119 0.0072421483         3933 
 4328000   0.54188842   -9.1842692    474.72911  0.009140656 0.0072392062         3926 
 4329000   0.56885604    -9.208036    473.96267 0.0091237905 0.0072362692         3944 
 4330000   0.55880656   -9.2078948    475.12969 0.0091441433 0.0072333317         3934 
 4331000   0.56199559   -9.1918878    474.06533 0.0091215525 0.0072303987         3934 
 4332000   0.55504894   -9.1740521    475.09853 0.0091393223 0.0072274627         3938 
 4333000   0.56107326   -9.1663123    474.38168 0.0091234264 0.0072245284         3921 
 4334000   0.55578926   -9.1698159    474.95779 0.0091323986 0.0072215971         3945 
 4335000   0.56907434   -9.2066584    474.57201 0.0091228761 0.0072186667         3937 
 4336000   0.54766208   -9.1807987     474.9656 0.0091283364  0.007215739         3938 
 4337000   0.56632834   -9.1884694    474.44346  0.009116199 0.0072128108         3935 
 4338000   0.56700305   -9.2109651    475.25174 0.0091296247 0.0072098853         3937 
 4339000   0.56239354   -9.1891515    475.42467 0.0091308418 0.0072069632         3933 
 4340000   0.54562222   -9.1970811     474.5726  0.009112377 0.0072040411         3937 
 4341000   0.56544379   -9.1889086    474.55648 0.0091099685 0.0072011199         3925 
 4342000   0.54438522   -9.1954291    474.53424 0.0091074437 0.0071982017         3940 
 4343000   0.56395517   -9.2166114    473.92903 0.0090937338  0.007195283         3939 
 4344000   0.54881965   -9.1890361    474.28366 0.0090984434 0.0071923653         3927 
 4345000   0.54898026   -9.1931214    474.80488  0.009106346 0.0071894503         3934 
 4346000   0.54585554   -9.1639528    474.82459 0.0091046285 0.0071865379         3929 
 4347000   0.55243863   -9.1838418    474.68165  0.009099794 0.0071836267         3932 
 4348000   0.55304003   -9.2123309    475.11142 0.0091059379 0.0071807181         3927 
 4349000   0.57237006   -9.1990435    475.14846 0.0091045539 0.0071778112         3934 
 4350000   0.56140624   -9.2122625    474.57553 0.0090914852 0.0071749025         3937 
 4351000   0.55658497   -9.2075059    474.93644 0.0090963082     0.007172         3931 
 4352000   0.55298948   -9.2112828    475.07397 0.0090968514  0.007169098         3936 
 4353000   0.55135126   -9.2123289    474.65065 0.0090866577 0.0071661968         3933 
 4354000   0.55458213   -9.1969361    474.86674 0.0090887066 0.0071632971         3923 
 4355000     0.553465   -9.1997319    473.86129 0.0090673803 0.0071603964         3929 
 4356000   0.55463577   -9.1793569    474.79524 0.0090831658 0.0071575007         3940 
 4357000   0.56075724   -9.1957294    474.52572 0.0090759261 0.0071546064         3931 
 4358000   0.54837835   -9.2011475    474.82109 0.0090794915 0.0071517119         3922 
 4359000   0.56076082    -9.209672    475.40869 0.0090886422 0.0071488207         3922 
 4360000   0.54788974   -9.2067826    474.73932 0.0090737638 0.0071459342         3915 
 4361000   0.55472091   -9.1946346     474.4814 0.0090667545 0.0071430455         3930 
 4362000   0.56299326   -9.2063389     474.5459 0.0090659082 0.0071401596         3935 
 4363000   0.55755302    -9.213732    474.59488 0.0090647658 0.0071372749         3927 
 4364000   0.55811849   -9.2106925    474.87927 0.0090681192 0.0071343883         3927 
 4365000   0.55692151   -9.1986029    474.65158 0.0090616949 0.0071315067         3934 
 4366000   0.55320545   -9.1951685    474.57349 0.0090581288 0.0071286269         3935 
 4367000   0.55098325   -9.2024333        474.3 0.0090508358 0.0071257444         3925 
 4368000    0.5579859   -9.1890051    474.75104 0.0090573687 0.0071228662         3941 
 4369000    0.5506335   -9.2203603    474.18577 0.0090445138 0.0071199885         3938 
 4370000   0.55430127   -9.2243191     475.2864 0.0090634325 0.0071171144         3933 
 4371000   0.54878264   -9.2207018    474.36574 0.0090438065   0.00711424         3916 
 4372000   0.55490383   -9.1955388    474.50444 0.0090443817 0.0071113667         3917 
 4373000   0.55196059   -9.2098523    473.43879  0.009022006 0.0071084955         3919 
 4374000   0.54399548   -9.2018607    474.69563 0.0090438887 0.0071056277         3925 
 4375000    0.5382987   -9.2145011    475.16991 0.0090508554 0.0071027616         3941 
 4376000   0.55338684    -9.200735     475.0039 0.0090456257 0.0070998955         3930 
 4377000   0.54616837   -9.1902362     474.0341 0.0090250951 0.0070970323         3935 
 4378000   0.56385172   -9.2031587    474.25986 0.0090273309 0.0070941713         3929 
 4379000   0.56431987    -9.202141    474.35902 0.0090271566 0.0070913107         3928 
 4380000   0.54558384   -9.2030874    474.49772 0.0090277344 0.0070884529         3932 
 4381000   0.54549787   -9.1937383    474.43102  0.009024405 0.0070855943         3947 
 4382000   0.54780313   -9.1979628    474.80161 0.0090293931 0.0070827381         3944 
 4383000   0.56112101   -9.1892838    474.75433 0.0090264342 0.0070798838         3929 
 4384000   0.55912875   -9.1968762     475.0632 0.0090302464 0.0070770314         3927 
 4385000   0.54028929    -9.184302     474.9003 0.0090250912 0.0070741805         3923 
 4386000   0.53480647   -9.2286501    473.85907 0.0090032503 0.0070713306         3929 
 4387000   0.55931003   -9.2130226    474.70947 0.0090173517   0.00706848         3935 
 4388000   0.55261179   -9.1954751    474.38354  0.009009107 0.0070656317         3932 
 4389000   0.55360703   -9.2031049    474.75526 0.0090141121 0.0070627855         3939 
 4390000   0.55198358   -9.1938499    474.49078 0.0090070383 0.0070599392         3926 
 4391000   0.54787679   -9.2026215    473.73303 0.0089906063 0.0070570974         3936 
 4392000   0.54392642   -9.2033978    474.53823  0.009003837 0.0070542576         3935 
 4393000   0.54495168    -9.221338     473.5029 0.0089821477 0.0070514183         3930 
 4394000   0.55252444   -9.1942445    474.34178 0.0089960132 0.0070485782         3915 
 4395000   0.55829912   -9.2200053    474.54419 0.0089978041  0.007045741         3936 
 4396000    0.5370483   -9.2174645    474.64536 0.0089976751 0.0070429053         3934 
 4397000   0.53986131   -9.2156427    474.43699 0.0089916797 0.0070400714         3940 
 4398000   0.55879096   -9.1923186    474.27788 0.0089866205   0.00703724         3930 
 4399000   0.54093676   -9.1960247    475.02774 0.0089987826 0.0070344096         3942 
 4400000   0.54882238   -9.2093408    474.54602  0.008987614   0.00703158         3923 
 4401000   0.55421092   -9.2295151    473.97675 0.0089747926 0.0070287543         3946 
 4402000   0.52779677   -9.2063581    473.80483 0.0089694993 0.0070259271         3918 
 4403000   0.55904075    -9.194178    474.76423 0.0089856203 0.0070231013         3938 
 4404000   0.55863318    -9.212991    474.63238 0.0089810849 0.0070202792         3927 
 4405000   0.53396354   -9.2047925     473.7902 0.0089631138 0.0070174576         3911 
 4406000   0.54621901   -9.1993164    474.21933  0.008969196 0.0070146402         3937 
 4407000    0.5428029   -9.2138555    474.51449  0.008972742 0.0070118206         3932 
 4408000   0.55214885   -9.1995486    474.65941 0.0089734462 0.0070090039         3942 
 4409000    0.5445116   -9.2056176     474.7993  0.008974055  0.007006189         3937 
 4410000     0.554473   -9.1987252    475.50028 0.0089852661 0.0070033761         3908 
 4411000   0.54180174   -9.2160136     474.4871  0.008964088 0.0070005634         3931 
 4412000   0.55373661   -9.2091771    474.80316 0.0089680258 0.0069977555         3937 
 4413000   0.54663994    -9.230023    474.72498 0.0089645173 0.0069949452         3933 
 4414000   0.54568828   -9.2050705    474.52821 0.0089587716 0.0069921385         3934 
 4415000    0.5523723   -9.2021017    474.39353 0.0089542002 0.0069893328         3924 
 4416000   0.54560718   -9.2059792    474.58982 0.0089558768 0.0069865293         3937 
 4417000   0.54278804   -9.1983835    475.65141 0.0089738777 0.0069837273         3931 
 4418000   0.54445363   -9.2250745     474.2735  0.008945856 0.0069809257         3932 
 4419000   0.53906721    -9.222452    473.51724 0.0089295701 0.0069781246         3931 
 4420000   0.54948007   -9.2093301    474.11303 0.0089387826  0.006975327         3950 
 4421000   0.55268569   -9.1936357    473.67164 0.0089284408 0.0069725296         3944 
 4422000   0.55023931   -9.2166981    474.38825 0.0089399262 0.0069697324         3920 
 4423000   0.54094475   -9.2168772    474.77954 0.0089452773 0.0069669364         3953 
 4424000   0.53325328   -9.2047773    474.46897 0.0089374053 0.0069641454         3926 
 4425000   0.54796378    -9.202876    474.14061 0.0089292018 0.0069613558         3931 
 4426000   0.55312101   -9.2268855    474.35715 0.0089312612 0.0069585666         3940 
 4427000   0.54081013   -9.1986083    474.11146 0.0089246189 0.0069557797         3949 
 4428000    0.5443473   -9.1977295     474.6179 0.0089321345 0.0069529947         3936 
 4429000   0.53466936   -9.2222367     474.5583 0.0089289963 0.0069502111         3936 
 4430000   0.54988705    -9.195431    474.72344 0.0089300872 0.0069474295         3939 
 4431000   0.54960048     -9.21296    474.33293 0.0089207277 0.0069446492         3938 
 4432000    0.5398573   -9.2207176    474.38176 0.0089196329 0.0069418696         3934 
 4433000   0.54768884   -9.1877675    474.11787 0.0089126603 0.0069390916         3939 
 4434000   0.54736304   -9.2144836    473.89583 0.0089064771 0.0069363153         3940 
 4435000   0.54143265   -9.2032276    473.99639 0.0089063583 0.0069335388         3934 
 4436000   0.54120007    -9.223506    474.31585 0.0089103518 0.0069307643         3933 
 4437000   0.56115554   -9.2208178    474.60562  0.008913786 0.0069279942         3947 
 4438000   0.54522432   -9.2288322    474.72266 0.0089139751 0.0069252251         3951 
 4439000   0.53771921   -9.2113487    475.00291 0.0089172282 0.0069224544         3943 
 4440000   0.53928486   -9.2314838     473.8973 0.0088944689 0.0069196847         3927 
 4441000   0.54883828    -9.221558    473.93844 0.0088932381 0.0069169177         3926 
 4442000    0.5498748   -9.2090706    474.91867 0.0089096253  0.006914153         3940 
 4443000   0.54390815   -9.2326988    474.25104  0.008895098 0.0069113901         3946 
 4444000    0.5362171   -9.2072519    473.84171 0.0088854206 0.0069086297         3942 
 4445000   0.53680829   -9.2161923    473.97557 0.0088859311 0.0069058681         3922 
 4446000   0.53668241   -9.2222465    474.27408 0.0088895278 0.0069031084         3923 
 4447000   0.54205807    -9.225699    474.26362 0.0088873326 0.0069003525         3940 
 4448000   0.55377552   -9.2070247    474.52995 0.0088903243 0.0068975972         3950 
 4449000   0.54409764   -9.2104657    473.93418 0.0088771668  0.006894842         3946 
 4450000   0.53037145   -9.2228559    474.50262 0.0088858169  0.006892089         3926 
 4451000   0.52840819   -9.2418263    474.48259 0.0088834455 0.0068893382         3919 
 4452000   0.53285079   -9.2115663    474.10158 0.0088743183 0.0068865863         3937 
 4453000   0.54233153   -9.2306435    474.20073 0.0088741808 0.0068838399         3917 
 4454000   0.52799362   -9.2239369    473.50347  0.008859143 0.0068810915         3945 
 4455000   0.53895772   -9.2256428    474.15136 0.0088692735 0.0068783433         3931 
 4456000   0.54790177   -9.2384966    474.74183 0.0088783257 0.0068755963         3926 
 4457000   0.54927303   -9.2197398    474.40722 0.0088700774 0.0068728527         3928 
 4458000   0.54561782    -9.220021    473.88776 0.0088583774 0.0068701075         3913 
 4459000   0.53985852   -9.2049601    474.07653 0.0088599188 0.0068673653         3952 
 4460000   0.55914479   -9.2199393    473.53367 0.0088477891 0.0068646261         3944 
 4461000   0.55414235   -9.2080522    474.47669 0.0088634217 0.0068618906         3928 
 4462000   0.52556618   -9.2203771     474.2274 0.0088567794 0.0068591543         3949 
 4463000   0.54395569   -9.2076526    473.42793 0.0088398672 0.0068564186         3917 
 4464000   0.54592984   -9.2204012    474.36962 0.0088554664 0.0068536854         3942 
 4465000   0.52981472   -9.2179517    474.33265  0.008852793 0.0068509554         3931 
 4466000   0.54241992    -9.230453    473.42648 0.0088339021 0.0068482283         3941 
 4467000   0.54290008   -9.2253907    474.08363 0.0088441838 0.0068454998         3926 
 4468000   0.54875196    -9.215429    474.80893  0.008855732 0.0068427727         3935 
 4469000   0.53790472   -9.2216595    474.50615 0.0088481046 0.0068400488         3940 
 4470000   0.53714355   -9.2282222    474.08743  0.008838319 0.0068373249         3935 
 4471000   0.53195646   -9.2287445    474.08798 0.0088363525 0.0068346035         3952 
 4472000   0.54078335   -9.2196702     474.2265 0.0088369577 0.0068318819         3936 
 4473000   0.52799824   -9.2241171    474.94625 0.0088483912 0.0068291612         3915 
 4474000   0.53348499   -9.2310102    474.37115 0.0088357017 0.0068264454         3933 
 4475000   0.54296334   -9.2109764    474.62678 0.0088384875 0.0068237299         3934 
 4476000   0.54318579   -9.2154583    474.40897 0.0088324577 0.0068210163         3938 
 4477000   0.54158636   -9.2333261    473.58116 0.0088150764 0.0068183041         3944 
 4478000   0.52479717   -9.2062074    473.67276 0.0088148123 0.0068155914         3938 
 4479000   0.53060525    -9.231534    473.97995 0.0088185597 0.0068128809         3931 
 4480000   0.54409616   -9.2072572    475.44797 0.0088438982 0.0068101707         3941 
 4481000   0.53171486   -9.2212421    474.37765 0.0088220199 0.0068074644         3928 
 4482000   0.53584933   -9.2283942    474.54699 0.0088231999 0.0068047554         3942 
 4483000   0.54268759   -9.2280347    474.21724 0.0088151022 0.0068020523         3944 
 4484000   0.52589094   -9.2300405    474.09528 0.0088108698 0.0067993493         3940 
 4485000   0.53047168   -9.2231702    474.10807 0.0088091428 0.0067966458         3938 
 4486000    0.5263501   -9.2189763    474.03936 0.0088059029 0.0067939458         3934 
 4487000    0.5381859   -9.2380458     474.0693 0.0088044964 0.0067912473         3940 
 4488000   0.52191938   -9.2395187    474.33547 0.0088074768   0.00678855         3949 
 4489000   0.52917035   -9.2335534    474.25053  0.008803938 0.0067858544         3930 
 4490000   0.52618956   -9.2367457    473.59883 0.0087898817 0.0067831582         3948 
 4491000   0.52368356   -9.2199125    474.13598 0.0087978917 0.0067804664         3931 
 4492000   0.54120419   -9.2328507    473.44007  0.008783023 0.0067777752         3947 
 4493000   0.53651864   -9.2288475    474.25642 0.0087962093 0.0067750843         3938 
 4494000   0.52422825   -9.2244892    473.23998 0.0087754039 0.0067723946         3953 
 4495000    0.5322378   -9.2416082    474.03105 0.0087881173 0.0067697057         3951 
 4496000   0.54061531   -9.2149582    474.07659 0.0087870067 0.0067670202         3943 
 4497000   0.52339163   -9.2418472    473.68405 0.0087777786 0.0067643338         3950 
 4498000   0.52734569   -9.2312447    473.99162 0.0087815254 0.0067616499         3935 
 4499000   0.52464255   -9.2218382    474.13318 0.0087821958 0.0067589663         3937 
 4500000   0.52356913   -9.2380979    474.35291 0.0087843132  0.006756286         3930 
 4501000   0.53665764   -9.2221094    474.35081 0.0087823227 0.0067536075         3949 
 4502000   0.53858584   -9.2351494    473.64516 0.0087673101  0.006750931         3946 
 4503000   0.52812492   -9.2152036    474.06754 0.0087731797 0.0067482541         3949 
 4504000   0.52796518   -9.2428524    473.56416 0.0087619183 0.0067455785         3940 
 4505000   0.53671148   -9.2319921    473.94026 0.0087669304 0.0067429041         3944 
 4506000   0.53397555   -9.2312768    474.11052 0.0087681335 0.0067402328         3929 
 4507000   0.53847087   -9.2369678    474.18849 0.0087676298  0.006737562         3935 
 4508000   0.52093105   -9.2439914    473.56637 0.0087541846 0.0067348901         3946 
 4509000   0.53848448     -9.22986    473.91904  0.008758761 0.0067322209         3937 
 4510000   0.52581005   -9.2196938    474.09137 0.0087600031 0.0067295548         3942 
 4511000   0.53112761   -9.2402761    474.17611 0.0087596267 0.0067268875         3928 
 4512000   0.54006778   -9.2428597    474.13893 0.0087569986 0.0067242225         3934 
 4513000   0.54121464   -9.2308436    473.55128 0.0087442071   0.00672156         3941 
 4514000   0.53223429   -9.2507033    473.30855 0.0087377889 0.0067188972         3947 
 4515000   0.53220974   -9.2456665     473.5893 0.0087410353 0.0067162367         3945 
 4516000   0.53044897   -9.2309288    475.13796 0.0087676771 0.0067135795         3945 
 4517000   0.52187866   -9.2456644    473.83977  0.008741786 0.0067109228         3945 
 4518000   0.54274664   -9.2315961    473.80569 0.0087392225 0.0067082655         3934 
 4519000   0.52261733   -9.2333962    473.29037 0.0087277858 0.0067056111         3935 
 4520000    0.5336486   -9.2228248    474.08531 0.0087405109 0.0067029582         3943 
 4521000   0.52854496   -9.2450335    473.02707 0.0087190715 0.0067003056         3945 
 4522000   0.52012115   -9.2421336     473.9019 0.0087332652 0.0066976556         3943 
 4523000   0.52742129   -9.2374109    474.09803 0.0087349479 0.0066950081         3938 
 4524000   0.52075808   -9.2386701     474.3193  0.008737093 0.0066923626         3938 
 4525000   0.53060427   -9.2449712     473.6861 0.0087235009 0.0066897177         3937 
 4526000   0.52003714   -9.2617223    473.31032 0.0087146545 0.0066870714         3936 
 4527000   0.53621146   -9.2385619     472.4842 0.0086975222 0.0066844277         3951 
 4528000   0.52959222   -9.2398704    473.65632 0.0087171731 0.0066817867         3948 
 4529000   0.52772409   -9.2247187     473.5281 0.0087128891 0.0066791484         3937 
 4530000   0.53166748   -9.2255623    473.66295 0.0087134465 0.0066765098         3948 
 4531000   0.53345901   -9.2298923    473.50265 0.0087085752 0.0066738729         3949 
 4532000   0.53089944   -9.2422122    473.74425  0.008711096 0.0066712364         3948 
 4533000   0.52561246    -9.228113    473.88968 0.0087118479  0.006668604         3942 
 4534000   0.51584133   -9.2364152    473.81391 0.0087085339 0.0066659734         3942 
 4535000   0.53311168   -9.2390101    473.58871 0.0087024753 0.0066633425         3953 
 4536000   0.53236038   -9.2261644    474.10495  0.008710041 0.0066607142         3958 
 4537000   0.52364618   -9.2370423    474.02287 0.0087066137 0.0066580872         3949 
 4538000   0.52257306   -9.2292812    473.74123  0.008699523 0.0066554625         3932 
 4539000   0.52184833   -9.2430662    475.05755 0.0087217732 0.0066528361         3948 
 4540000   0.51221983   -9.2455095    474.01142 0.0087006501 0.0066502109         3938 
 4541000   0.52932077   -9.2414153     473.7861 0.0086945992 0.0066475885         3940 
 4542000   0.52191168   -9.2595296    473.60855 0.0086894274 0.0066449672         3943 
 4543000   0.53121062   -9.2522131    474.84255 0.0087101503 0.0066423452         3940 
 4544000   0.53314368   -9.2391379    474.46216 0.0087012574 0.0066397273         3958 
 4545000   0.53234847   -9.2535736    473.63497 0.0086841762 0.0066371122         3962 
 4546000   0.51772491   -9.2388525    473.36712  0.008677356 0.0066344986         3944 
 4547000   0.53045941   -9.2456446    473.72194 0.0086819504 0.0066318857         3955 
 4548000   0.52327127   -9.2439782    473.69988 0.0086796373 0.0066292728         3960 
 4549000   0.53896465   -9.2527931    473.36934  0.008671674 0.0066266622         3952 
 4550000   0.52828951   -9.2463177     474.3025 0.0086868591 0.0066240543         3949 
 4551000   0.51844807   -9.2407062    473.66852 0.0086733415 0.0066214469         3943 
 4552000    0.5122125   -9.2399534    473.70864 0.0086721704 0.0066188412         3943 
 4553000   0.52994476   -9.2394624    473.52448 0.0086668951 0.0066162365         3951 
 4554000   0.53962749    -9.241319    473.93136 0.0086724375 0.0066136328         3942 
 4555000   0.52980716   -9.2657284    474.04316 0.0086725788 0.0066110305         3952 
 4556000   0.52216898    -9.234924    473.86429 0.0086674037 0.0066084313         3934 
 4557000   0.52246083   -9.2489828    474.03456 0.0086686153 0.0066058315         3941 
 4558000   0.52338099   -9.2358163    473.67017 0.0086600514 0.0066032313         3944 
 4559000   0.52945796   -9.2316723    473.74925 0.0086595973 0.0066006333         3936 
 4560000   0.51214189   -9.2463076    473.33852 0.0086501922 0.0065980372         3935 
 4561000   0.52816292    -9.231078    473.84604 0.0086575686 0.0065954423         3931 
 4562000   0.52325122   -9.2516699    473.89104 0.0086564928 0.0065928483         3945 
 4563000   0.52505829   -9.2443978     474.1063 0.0086585269 0.0065902539         3929 
 4564000   0.52141305   -9.2275918    473.83829 0.0086517362 0.0065876618         3925 
 4565000   0.52473143   -9.2438765    474.05283 0.0086537574 0.0065850717         3939 
 4566000   0.51894974   -9.2575035     473.7452 0.0086462477 0.0065824848         3932 
 4567000   0.52367171   -9.2375007    473.81063 0.0086455483 0.0065798977         3923 
 4568000   0.53721818   -9.2425728    474.28106 0.0086522377 0.0065773144         3938 
 4569000   0.52566577   -9.2442346    473.03448 0.0086276077 0.0065747308         3945 
 4570000   0.52236807   -9.2529642    473.22735 0.0086292368 0.0065721474         3941 
 4571000   0.51864373   -9.2596295    473.39075  0.008630328 0.0065695649         3954 
 4572000   0.53102632   -9.2406399    473.71651  0.008634378 0.0065669858         3946 
 4573000   0.51828307   -9.2480685    474.38462 0.0086446648 0.0065644086         3933 
 4574000   0.51899339   -9.2417122    473.80372 0.0086321914 0.0065618302         3935 
 4575000    0.5119527   -9.2369866    473.57815 0.0086261959  0.006559252         3925 
 4576000   0.51726204   -9.2582148     473.8031 0.0086284073 0.0065566745         3915 
 4577000   0.50802581   -9.2491611    472.68995  0.008606255  0.006554099         3942 
 4578000   0.51803957   -9.2432743    473.53375 0.0086197347 0.0065515255         3918 
 4579000   0.50892077   -9.2449859    473.06896 0.0086093937 0.0065489535         3944 
 4580000   0.51995799   -9.2412522    473.65739 0.0086182204 0.0065463845         3934 
 4581000   0.52732388   -9.2455219    473.29511 0.0086097488 0.0065438161         3918 
 4582000   0.53283044   -9.2509715    473.09563 0.0086042417 0.0065412474         3950 
 4583000   0.52200809    -9.255196    473.49184 0.0086095686  0.006538682         3952 
 4584000   0.51960464   -9.2419481    473.49628 0.0086077713 0.0065361179         3946 
 4585000   0.51570988    -9.252085    473.49708 0.0086059084 0.0065335534         3947 
 4586000   0.52252196   -9.2385617     473.5815 0.0086055658 0.0065309908         3953 
 4587000   0.51651462   -9.2662119    473.46189 0.0086015167 0.0065284306         3941 
 4588000   0.51923443   -9.2466379    473.40256 0.0085985644 0.0065258713         3938 
 4589000    0.5176198   -9.2621354    473.11001 0.0085913781  0.006523315         3940 
 4590000    0.5071769   -9.2535127    472.96291 0.0085868357 0.0065207575         3958 
 4591000   0.50828335   -9.2729089    473.03349 0.0085862465 0.0065182024         3921 
 4592000   0.52013218   -9.2624294    473.96798 0.0086013353 0.0065156471         3948 
 4593000   0.50964291   -9.2514998    473.10763 0.0085838528 0.0065130955         3921 
 4594000   0.50820544   -9.2432448    473.29664 0.0085854128 0.0065105465         3937 
 4595000   0.51566392   -9.2576707    473.67034 0.0085903218 0.0065079951         3932 
 4596000   0.50338347   -9.2730929      473.449 0.0085844394 0.0065054466         3929 
 4597000   0.51805945   -9.2512115    473.58673 0.0085850686 0.0065028985         3939 
 4598000   0.50694537     -9.26367    474.14129 0.0085932523  0.006500351         3936 
 4599000   0.52109002   -9.2476463    473.60595 0.0085816836 0.0064978049         3926 
 4600000   0.51966375   -9.2439681    473.74335 0.0085823071 0.0064952615         3932 
 4601000   0.51883585   -9.2466348    473.16178 0.0085699083 0.0064927193         3932 
 4602000   0.51097082   -9.2656275    473.32412 0.0085709858 0.0064901783         3933 
 4603000   0.51547888   -9.2653801    472.87806 0.0085610482 0.0064876381         3944 
 4604000   0.51587102   -9.2587736    473.59533 0.0085721715 0.0064850975         3942 
 4605000   0.51230371   -9.2550675    473.26144 0.0085642678 0.0064825607         3942 
 4606000   0.50514938   -9.2783969    472.93539 0.0085565094 0.0064800248         3941 
 4607000   0.51554581   -9.2650805    473.39397 0.0085629472  0.006477492         3942 
 4608000     0.519256    -9.263967    473.12116 0.0085561552 0.0064749582         3939 
 4609000   0.51073714    -9.240645    473.58249   0.00856264 0.0064724275         3951 
 4610000   0.52062784   -9.2479948    472.79957 0.0085466299 0.0064698987         3935 
 4611000   0.51996053   -9.2560272    472.93594  0.008547241 0.0064673697         3938 
 4612000   0.50265665   -9.2451212    473.65516 0.0085583832 0.0064648431         3947 
 4613000   0.51054354   -9.2630712    473.90466 0.0085610351 0.0064623189         3946 
 4614000   0.51693913   -9.2594672    474.00339 0.0085609629 0.0064597946         3934 
 4615000   0.51355412   -9.2566777    473.68237  0.008553311  0.006457273         3935 
 4616000   0.51591683   -9.2566618    473.03497 0.0085397706 0.0064547514         3929 
 4617000   0.50806339   -9.2553868    473.54268 0.0085470847 0.0064522323         3926 
 4618000   0.52351416   -9.2745002    473.37997 0.0085422977 0.0064497133         3925 
 4619000   0.51104293   -9.2665628    473.13303 0.0085359932 0.0064471966         3935 
 4620000   0.51366841   -9.2566519    473.30143  0.008537183 0.0064446809         3939 
 4621000   0.50582414   -9.2592578    473.20537 0.0085336033 0.0064421645         3947 
 4622000   0.50376999   -9.2736873    473.02834 0.0085285652 0.0064396505         3941 
 4623000    0.5110992   -9.2647282    474.01876 0.0085445735 0.0064371389         3940 
 4624000   0.51485908   -9.2507073    473.56928 0.0085346251 0.0064346279         3938 
 4625000   0.52441997    -9.267115    473.73924 0.0085358422   0.00643212         3933 
 4626000   0.51461078   -9.2715873    473.05076 0.0085215947 0.0064296121         3951 
 4627000   0.50798261   -9.2670662    473.46138 0.0085271482 0.0064271052         3942 
 4628000   0.51488268   -9.2711231    473.03264 0.0085175857  0.006424599         3940 
 4629000   0.51556914   -9.2574972    472.87855 0.0085129717 0.0064220959         3939 
 4630000   0.51029369   -9.2395727    473.00063 0.0085133303 0.0064195936         3938 
 4631000   0.51758916   -9.2570361    473.55522 0.0085214715 0.0064170928         3945 
 4632000   0.51294608    -9.256309    473.17546 0.0085127997 0.0064145933         3945 
 4633000   0.51905151    -9.267379    473.39013 0.0085148235 0.0064120941         3942 
 4634000    0.5189193   -9.2558829    473.57953 0.0085163921 0.0064095983         3952 
 4635000    0.5170639    -9.267978    473.05634 0.0085051481 0.0064071016         3925 
 4636000   0.50964125   -9.2755856    473.57366 0.0085126125 0.0064046074         3947 
 4637000   0.50908576   -9.2548754    473.61694 0.0085115546 0.0064021159         3940 
 4638000   0.50429889    -9.272551    471.76068  0.008476367 0.0063996243         3944 
 4639000   0.50485933    -9.258562    473.39092 0.0085038249 0.0063971332         3947 
 4640000   0.50953146   -9.2663489    473.45411 0.0085031271 0.0063946442         3948 
 4641000   0.50252519   -9.2670903    473.12257 0.0084953416 0.0063921575         3933 
 4642000   0.50905098   -9.2608832    473.53798 0.0085009691 0.0063896695         3936 
 4643000   0.51200792   -9.2560451    472.62239  0.008482705 0.0063871842         3939 
 4644000    0.5109573   -9.2632686    474.08793 0.0085071765 0.0063847005         3939 
 4645000   0.51060127   -9.2492978    473.30618   0.00849132 0.0063822209         3952 
 4646000   0.50162317   -9.2797985    472.41439 0.0084734968 0.0063797392         3936 
 4647000     0.499683   -9.2544304    473.19342 0.0084856434 0.0063772575         3948 
 4648000   0.52125798   -9.2726347    473.26528 0.0084851061   0.00637478         3936 
 4649000   0.50805058   -9.2646005    473.04359 0.0084793073 0.0063723033         3949 
 4650000    0.5033299   -9.2717639    473.07906 0.0084781193 0.0063698276         3937 
 4651000   0.51027337    -9.267894    473.00249 0.0084749245  0.006367354         3940 
 4652000   0.50740376   -9.2545601    472.58813 0.0084656802 0.0063648817         3939 
 4653000   0.50853367   -9.2775478    472.50988 0.0084624594 0.0063624077         3938 
 4654000   0.50659712    -9.280327    473.63156 0.0084807256 0.0063599371         3950 
 4655000     0.508878   -9.2426167    472.72746 0.0084627186 0.0063574665         3934 
 4656000   0.51543058   -9.2562757    473.39342 0.0084728204 0.0063549971         3940 
 4657000   0.51169823    -9.264396    472.98453 0.0084636842 0.0063525303         3946 
 4658000   0.50639533   -9.2734258    473.23943 0.0084664275 0.0063500641         3948 
 4659000   0.50505442    -9.262216    473.26185 0.0084650113 0.0063476003         3937 
 4660000   0.51409652   -9.2739105    473.58996 0.0084690623 0.0063451379         3935 
 4661000   0.51247215   -9.2624775    473.05431 0.0084576685 0.0063426755         3943 
 4662000   0.50330117   -9.2704222    473.52716 0.0084643064 0.0063402149         3940 
 4663000   0.51398274   -9.2889518    473.32682 0.0084589109 0.0063377559         3942 
 4664000   0.49514588   -9.2866642    472.98875 0.0084510569 0.0063352991         3955 
 4665000   0.51241028   -9.2885039    472.56049  0.008441595 0.0063328417         3937 
 4666000   0.50015128   -9.2747067    471.63215 0.0084232059 0.0063303864         3939 
 4667000   0.51063822   -9.2563084     473.2568 0.0084504107 0.0063279306         3940 
 4668000   0.51482022   -9.2704385    473.24069 0.0084483129 0.0063254791         3943 
 4669000   0.49594864   -9.2746797    473.29059 0.0084473941 0.0063230277         3938 
 4670000     0.505085   -9.2654738    472.53358 0.0084320768 0.0063205775         3952 
 4671000   0.49573534   -9.2775168    473.93356  0.008455248 0.0063181287         3949 
 4672000   0.50112764    -9.288673    473.09829 0.0084385397 0.0063156819         3937 
 4673000   0.49710039   -9.2821439    472.77737  0.008431011 0.0063132366         3936 
 4674000   0.50162094   -9.2769468    473.11269 0.0084351855 0.0063107914         3935 
 4675000   0.50155879   -9.2768816     472.9882 0.0084311622 0.0063083484         3949 
 4676000   0.49194822   -9.2573324    472.72928 0.0084247448 0.0063059065         3939 
 4677000   0.50808185   -9.2752633    473.04793 0.0084286211 0.0063034663         3939 
 4678000   0.50873256   -9.2847634    472.92073 0.0084245534 0.0063010251         3942 
 4679000   0.49780399   -9.2743184    473.19676  0.008427669 0.0062985867         3945 
 4680000   0.49868674   -9.2775364    473.75154 0.0084357469 0.0062961499         3936 
 4681000   0.50252851   -9.2667557    473.15426 0.0084233117  0.006293714         3929 
 4682000   0.50010131   -9.2635257    473.30673 0.0084242263 0.0062912793         3935 
 4683000   0.49661783    -9.265047    473.07488 0.0084183016 0.0062888462         3936 
 4684000   0.51272133   -9.2758497    472.78888 0.0084114162 0.0062864142         3950 
 4685000   0.50522935   -9.2633322    473.55313 0.0084232146 0.0062839854         3949 
 4686000    0.4967608   -9.2836822    472.97157  0.008411075 0.0062815552         3938 
 4687000   0.48388295   -9.2687812    473.34953 0.0084160005 0.0062791262         3944 
 4688000   0.49909368   -9.2741037    472.79284 0.0084043096 0.0062766996         3939 
 4689000   0.50169121   -9.2682488     473.5615  0.008416178 0.0062742737         3943 
 4690000   0.49877468   -9.2679193    473.42266 0.0084119165 0.0062718502         3942 
 4691000   0.50042408   -9.2698097    473.07578 0.0084039612 0.0062694258         3934 
 4692000   0.50115298   -9.2743878    473.47048 0.0084091802 0.0062670036         3939 
 4693000   0.49299193   -9.2726483    473.17873 0.0084022077 0.0062645842         3959 
 4694000   0.49396833    -9.262351    473.06041 0.0083983172 0.0062621635         3939 
 4695000   0.49758407      -9.2899    473.41732 0.0084028634  0.006259744         3952 
 4696000   0.49420455   -9.2757135    473.03321 0.0083942577 0.0062573284         3935 
 4697000   0.50495004   -9.2850376    472.88713 0.0083898788  0.006254912         3937 
 4698000   0.49616644   -9.2766755    472.78484 0.0083862785 0.0062524977         3945 
 4699000   0.49462775   -9.2860817    473.54077 0.0083978997 0.0062500845         3942 
 4700000   0.50457823   -9.2925268    472.70873 0.0083813605 0.0062476738         3945 
 4701000   0.49930601   -9.2846757     473.0059 0.0083848455 0.0062452633         3934 
 4702000   0.49475602   -9.2708317    473.49657 0.0083917584 0.0062428547         3936 
 4703000   0.50437389   -9.2418498      472.727 0.0083763379 0.0062404485         3946 
 4704000   0.50538047   -9.2835836    473.32725 0.0083851909 0.0062380435         3941 
 4705000   0.49887063   -9.2755725    472.93419 0.0083764469 0.0062356366         3941 
 4706000    0.5064779   -9.2917476     473.1572  0.008378616 0.0062332325         3952 
 4707000   0.49554475   -9.2636103    473.05686 0.0083750595 0.0062308304         3938 
 4708000    0.5080811   -9.2632296    472.04112 0.0083553017 0.0062284296         3932 
 4709000   0.48684108   -9.2675234    473.29951 0.0083757966 0.0062260297         3933 
 4710000   0.48163495   -9.2920543    472.88654 0.0083667116 0.0062236297         3958 
 4711000   0.49594697   -9.2666423     472.8493  0.008364277 0.0062212307         3936 
 4712000   0.50290992   -9.2785859    473.27923 0.0083701053 0.0062188331         3936 
 4713000   0.49204778   -9.2702266     473.0883 0.0083649532  0.006216439         3936 
 4714000   0.50572169    -9.284832    472.14612 0.0083465231 0.0062140439         3933 
 4715000   0.49869805   -9.2882438    473.07192 0.0083611156   0.00621165         3937 
 4716000   0.47883685   -9.2976367    472.87161 0.0083558032 0.0062092584         3942 
 4717000   0.50356916   -9.2771491    472.74411 0.0083517793 0.0062068665         3948 
 4718000   0.49074263   -9.2943475    473.15649 0.0083572929 0.0062044767         3942 
 4719000   0.48865824   -9.2804646    472.30969  0.008340568 0.0062020881         3934 
 4720000   0.48925603   -9.2850662    472.96077 0.0083502962 0.0061997009         3936 
 4721000   0.49845698   -9.2922207    472.79929  0.008345677 0.0061973145         3928 
 4722000   0.49300199   -9.2782967     473.3859 0.0083542619 0.0061949305         3943 
 4723000   0.50058903   -9.2719705    472.76525 0.0083415422 0.0061925482         3950 
 4724000   0.49896462   -9.2775726    472.70474 0.0083387091 0.0061901664         3928 
 4725000   0.49219843   -9.2819829    473.27502 0.0083470022 0.0061877848         3921 
 4726000    0.4886786   -9.2909073    472.72464 0.0083355311 0.0061854047         3923 
 4727000   0.49705795   -9.2915034    472.14325 0.0083235183 0.0061830274         3930 
 4728000   0.48291215   -9.2837791    472.57274 0.0083293277  0.006180649         3936 
 4729000   0.49792385   -9.2810064    472.83221 0.0083321387 0.0061782714         3945 
 4730000   0.49756223   -9.2973966    472.66007 0.0083273444 0.0061758969         3946 
 4731000   0.49273587   -9.2876094    473.60955 0.0083423086 0.0061735228         3952 
 4732000   0.50415966   -9.2853968    472.75407 0.0083254803 0.0061711495         3943 
 4733000   0.48797219   -9.2874386     473.1047 0.0083298947 0.0061687771         3939 
 4734000   0.50039911   -9.2840453    473.48064 0.0083347529 0.0061664077         3939 
 4735000   0.50062707    -9.278374    472.77444 0.0083205638 0.0061640384         3923 
 4736000   0.48918299   -9.2908129    472.72164  0.008317878 0.0061616709         3949 
 4737000   0.49611688   -9.2945829    472.19681 0.0083068893 0.0061593057         3946 
 4738000   0.48714205   -9.2747229    473.64579  0.008330621 0.0061569425         3945 
 4739000   0.48048811   -9.2753124    472.27182 0.0083047025 0.0061545765         3944 
 4740000   0.48909142   -9.2798017    472.89433 0.0083138948 0.0061522121         3945 
 4741000   0.49438368   -9.2841249    472.47898 0.0083048403 0.0061498495         3943 
 4742000   0.48561935   -9.2685109    472.57785 0.0083048266 0.0061474882         3940 
 4743000   0.49054643   -9.2803178    472.41563 0.0083002253 0.0061451274         3934 
 4744000   0.48815535   -9.3014983    473.12938 0.0083110135 0.0061427693         3952 
 4745000   0.49351481   -9.2917455    472.79794 0.0083034412 0.0061404112         3932 
 4746000   0.49996351   -9.2993272    472.12309 0.0082898422 0.0061380549         3934 
 4747000   0.48844544   -9.2798962    472.00416  0.008286008 0.0061357017         3940 
 4748000   0.48170799   -9.2859941     472.5844 0.0082944468 0.0061333484         3917 
 4749000   0.48984774   -9.2714036    472.83739 0.0082971396 0.0061309968         3932 
 4750000   0.49191419   -9.2969713    472.45764 0.0082887305 0.0061286477         3947 
 4751000   0.47970996   -9.2935277    472.51742 0.0082880345 0.0061262974         3951 
 4752000   0.49723235   -9.3064379     472.3962 0.0082841646 0.0061239498         3942 
 4753000   0.48323584   -9.2790989    472.59062 0.0082858303 0.0061216037         3937 
 4754000   0.49700701   -9.2951737    472.57628  0.008283836 0.0061192573         3956 
 4755000   0.49666565   -9.2997441    473.11477 0.0082915312 0.0061169135         3951 
 4756000   0.49175117   -9.2895283    471.92321 0.0082689096  0.006114569         3950 
 4757000   0.49009021   -9.2745445    471.68174 0.0082629413 0.0061122264         3945 
 4758000   0.48964224   -9.3027267    472.65266 0.0082782097 0.0061098859         3952 
 4759000   0.48187489   -9.2876152    472.82051 0.0082794094 0.0061075441         3936 
 4760000    0.4879916   -9.2852996    472.71357 0.0082757979  0.006105206         3948 
 4761000   0.49637041   -9.2951442    473.01972 0.0082794182 0.0061028686         3935 
 4762000   0.48657676   -9.2757406    473.18062 0.0082804953 0.0061005322         3941 
 4763000   0.48719128   -9.2826719    471.87064 0.0082558374 0.0060981975         3942 
 4764000   0.49271966    -9.299413    473.07064 0.0082750951 0.0060958645         3936 
 4765000   0.48783332   -9.2862099    473.08299 0.0082735744 0.0060935321         3953 
 4766000    0.4970065    -9.290202    472.26942 0.0082576133 0.0060912004         3935 
 4767000   0.49410688   -9.2919668    472.80511 0.0082652456 0.0060888698         3956 
 4768000   0.49977951   -9.3127258    472.47388 0.0082577229 0.0060865381         3942 
 4769000   0.49751794   -9.3137395    472.70156 0.0082599699  0.006084209         3944 
 4770000   0.48407971   -9.2830147    472.99357 0.0082633398 0.0060818838         3944 
 4771000   0.49192261   -9.2829209     472.8977 0.0082599333 0.0060795593         3934 
 4772000   0.47933903   -9.2957002    472.39772 0.0082494712 0.0060772354         3938 
 4773000   0.47907106   -9.2951512    473.05221 0.0082591699 0.0060749116         3952 
 4774000   0.48531436   -9.2777513    472.74285 0.0082520397 0.0060725888         3950 
 4775000   0.49984576   -9.3031829    472.19067 0.0082406749 0.0060702701         3944 
 4776000   0.48961638   -9.3018818    472.24057 0.0082398201 0.0060679509         3943 
 4777000   0.48575932   -9.3005372    472.07946 0.0082352847 0.0060656342         3946 
 4778000   0.49432236   -9.2881702    472.31406 0.0082376528 0.0060633168         3948 
 4779000   0.49287101   -9.2896343    472.25113 0.0082348317 0.0060610005         3946 
 4780000   0.48051853   -9.3017393    472.93708 0.0082450676  0.006058686         3950 
 4781000   0.49433304   -9.2817902    472.36305 0.0082333377 0.0060563719         3946 
 4782000   0.48437642   -9.3043224     472.6906  0.008237324 0.0060540612         3942 
 4783000     0.477142    -9.312715    472.88391 0.0082389698 0.0060517494         3939 
 4784000   0.48485953   -9.3121599    471.86351 0.0082194731 0.0060494379         3941 
 4785000   0.48810434   -9.3114916    472.17948 0.0082232581 0.0060471278         3945 
 4786000   0.48677104   -9.2999198    471.72287 0.0082135895 0.0060448202         3942 
 4787000    0.4782859   -9.2934969    472.17775 0.0082197923 0.0060425125         3939 
 4788000   0.48716655   -9.3025925    471.88792 0.0082130311 0.0060402067         3942 
 4789000   0.48118103     -9.28833    472.34501   0.00821927 0.0060379032         3946 
 4790000   0.48910871   -9.2970665    473.01442 0.0082292002 0.0060355989         3940 
 4791000   0.48585633   -9.3034409    472.27426 0.0082146083 0.0060332991         3940 
 4792000   0.48826596   -9.3139923    471.96119 0.0082074497 0.0060309993         3924 
 4793000   0.49039019   -9.3131313    472.10887  0.008208305 0.0060287017         3930 
 4794000   0.48694858   -9.2937576    472.61616  0.008215411 0.0060264039         3926 
 4795000   0.48703491   -9.3033547    472.69492 0.0082150664 0.0060241077         3941 
 4796000   0.48949136    -9.299112    472.71768  0.008213749 0.0060218138         3950 
 4797000   0.47430727   -9.3053491    472.52823 0.0082087456 0.0060195194         3950 
 4798000   0.48484822   -9.3099598    472.54643 0.0082073508 0.0060172257         3952 
 4799000   0.48234566   -9.3059125    471.77109  0.008192177  0.006014934         3942 
 4800000   0.48191126    -9.311114    472.27588  0.008199234 0.0060126449         3942 
 4801000   0.48200173   -9.3088688    471.78983 0.0081890896 0.0060103555         3941 
 4802000    0.4925759   -9.3068962    472.53844 0.0082003756 0.0060080651         3946 
 4803000   0.48636677   -9.2966721    472.43722 0.0081969119 0.0060057772         3941 
 4804000   0.48818821    -9.314281    472.25229 0.0081919979 0.0060034888         3956 
 4805000   0.47522129   -9.3118663    472.50134 0.0081946123 0.0060012047         3940 
 4806000   0.47827945   -9.3023803    472.13193 0.0081865017 0.0059989203         3938 
 4807000   0.48750284   -9.3019611    472.24879 0.0081868247 0.0059966371         3936 
 4808000   0.49052627   -9.2961482    471.95467 0.0081800241 0.0059943549         3935 
 4809000   0.48422857   -9.3116215    471.99206  0.008178971 0.0059920756         3933 
 4810000   0.48539362   -9.3019622    472.16815 0.0081803214  0.005989798         3946 
 4811000   0.48207611   -9.3061652    472.33238 0.0081814658 0.0059875195         3943 
 4812000   0.49115415   -9.3051464    472.34089 0.0081799128 0.0059852417         3948 
 4813000   0.48345666   -9.3062768    472.55524 0.0081819246 0.0059829657         3939 
 4814000   0.48422297   -9.3036298      472.069  0.008171808 0.0059806911         3946 
 4815000   0.48299392   -9.3048326    472.41823 0.0081761549 0.0059784189         3941 
 4816000     0.477192     -9.32321     472.0762 0.0081685389 0.0059761465         3936 
 4817000   0.48563848   -9.3009026    471.77265 0.0081615917 0.0059738759         3938 
 4818000   0.47873085   -9.3055801    472.46665 0.0081719014  0.005971605         3939 
 4819000   0.47196673   -9.3215648    472.22724 0.0081660655 0.0059693346         3936 
 4820000   0.46856892   -9.3102293    472.08269 0.0081618722  0.005967065         3953 
 4821000   0.47642009   -9.3096933    472.33823 0.0081645964 0.0059647976         3952 
 4822000   0.47328095   -9.3078922    472.48771 0.0081654865 0.0059625328         3941 
 4823000   0.47868648    -9.307067     471.8608 0.0081529615  0.005960268         3946 
 4824000     0.485855   -9.2945777     471.8196 0.0081505597  0.005958005         3942 
 4825000   0.47178422    -9.302296    471.60367 0.0081451411 0.0059557429         3946 
 4826000   0.48874044    -9.314868    472.11587 0.0081522978 0.0059534841         3944 
 4827000   0.47221978   -9.2948617    471.79023  0.008144987  0.005951223         3940 
 4828000   0.47756119   -9.3064572    472.05228 0.0081478231 0.0059489645         3943 
 4829000    0.4815876    -9.326628    471.39106 0.0081347252 0.0059467068         3946 
 4830000   0.47580552   -9.3111407    472.02224  0.008143931 0.0059444502         3947 
 4831000   0.48680425   -9.2934723    471.70372 0.0081367508 0.0059421961         3929 
 4832000   0.48105821   -9.3026265    471.41394 0.0081300694 0.0059399414         3945 
 4833000   0.48991968   -9.3224358    471.84802 0.0081358717 0.0059376896         3952 
 4834000   0.46991569   -9.3191036    472.13098 0.0081390666 0.0059354391         3954 
 4835000   0.46673322   -9.3164722    471.91491 0.0081336592 0.0059331887         3937 
 4836000   0.47423517   -9.3124529    472.01925 0.0081337754 0.0059309389         3935 
 4837000   0.48871482   -9.2965382    471.60039 0.0081248776 0.0059286915         3936 
 4838000   0.47864053   -9.3122676    471.48228 0.0081211637 0.0059264455         3927 
 4839000   0.47842859   -9.3102097    471.69455 0.0081231409 0.0059242001         3937 
 4840000   0.47325649   -9.3106913    472.39225 0.0081334754 0.0059219546         3948 
 4841000   0.47113281   -9.3197463    472.06027 0.0081260805 0.0059197124         3938 
 4842000   0.48125977   -9.3207243     472.3933 0.0081301338 0.0059174696         3941 
 4843000   0.46934414   -9.3036509    471.44521 0.0081121414 0.0059152272         3947 
 4844000   0.46829983   -9.3182388    472.09584 0.0081216598 0.0059129849         3931 
 4845000   0.47049108   -9.3054907      472.243 0.0081225146 0.0059107475         3934 
 4846000   0.47523531   -9.3133981    471.28255 0.0081043223 0.0059085092         3944 
 4847000   0.47332232   -9.3263623    471.77448  0.008111108 0.0059062719         3935 
 4848000   0.48128957   -9.3218134    472.61971 0.0081239636 0.0059040361         3943 
 4849000   0.48161065   -9.3240057     472.2893 0.0081166099 0.0059018021         3942 
 4850000   0.47032527   -9.3099865    472.19014 0.0081132327 0.0058995681         3933 
 4851000     0.475256   -9.3214106    471.95887 0.0081075872 0.0058973351         3940 
 4852000   0.47550087   -9.3316542    472.11797 0.0081086489 0.0058951036         3947 
 4853000   0.47944535   -9.3119977    471.89736 0.0081031898 0.0058928742         3935 
 4854000   0.47173434   -9.3162689    471.91658 0.0081018504 0.0058906455         3929 
 4855000   0.48488851   -9.3139559    472.21368 0.0081052811 0.0058884176         3952 
 4856000   0.47661775   -9.3255079    472.49134  0.008108377  0.005886192         3952 
 4857000   0.48738452   -9.3215906    472.26491 0.0081028226 0.0058839665         3943 
 4858000   0.46992712    -9.321952    472.45795  0.008104466 0.0058817413         3942 
 4859000   0.48099501    -9.326727    472.90022 0.0081103831 0.0058795186         3946 
 4860000   0.46604422   -9.3242467    471.93621 0.0080921846 0.0058772973         3943 
 4861000   0.46969373    -9.297382    471.75434 0.0080874021 0.0058750762         3947 
 4862000   0.47524889   -9.3127145    473.08064 0.0081084711 0.0058728572         3948 
 4863000   0.47261621   -9.3073523    472.39137 0.0080949922 0.0058706393         3952 
 4864000   0.48224195   -9.3159515    471.67014 0.0080809714 0.0058684236         3955 
 4865000   0.47144757   -9.3197314    471.77981  0.008081189 0.0058662072         3938 
 4866000   0.47114315    -9.310954    472.44439 0.0080909095 0.0058639929         3957 
 4867000   0.47862431   -9.3107691    471.68516 0.0080762476 0.0058617783         3956 
 4868000    0.4747292   -9.3205064    472.00953 0.0080801413 0.0058595666         3943 
 4869000    0.4753762   -9.3049347    471.88868 0.0080764134 0.0058573541         3934 
 4870000   0.47956562   -9.3136334    472.46302 0.0080845829 0.0058551447         3946 
 4871000   0.47415895   -9.3120222    472.83104 0.0080892191 0.0058529363         3934 
 4872000   0.46332329   -9.3307269    471.52814 0.0080652733 0.0058507279         3944 
 4873000   0.47950561    -9.302875    471.93441 0.0080705659 0.0058485219         3949 
 4874000   0.47597316   -9.3193547     471.9645 0.0080694244 0.0058463159         3944 
 4875000   0.46056257   -9.3189025    471.94042 0.0080673575 0.0058441121         3961 
 4876000   0.47644107   -9.3106485     472.1913 0.0080699908 0.0058419101         3938 
 4877000   0.48262537   -9.3179967    471.01304 0.0080482032 0.0058397083         3950 
 4878000   0.46996004   -9.3139587    471.95553 0.0080626543 0.0058375072         3956 
 4879000   0.47018467   -9.3227756    472.00051 0.0080617701 0.0058353062         3951 
 4880000   0.47501966   -9.3282192    471.24046  0.008047139 0.0058331079         3950 
 4881000   0.47639698   -9.3115014    472.03375 0.0080590342 0.0058309104         3951 
 4882000   0.47361056   -9.3357776     471.2315 0.0080436894 0.0058287144         3939 
 4883000    0.4713447   -9.3262762    471.56058 0.0080476582 0.0058265179         3941 
 4884000    0.4755607   -9.3147295    471.77386 0.0080496495 0.0058243216         3945 
 4885000   0.46104565   -9.3213002    472.49849 0.0080603631 0.0058221284         3946 
 4886000   0.47823339   -9.3072237    471.46876  0.008041151 0.0058199361         3944 
 4887000    0.4715184   -9.2952328     471.8041 0.0080452237 0.0058177461         3939 
 4888000   0.46489467   -9.3439538    472.18443 0.0080500618  0.005815558         3952 
 4889000   0.46535325   -9.3270767    471.94455 0.0080443266 0.0058133692         3941 
 4890000   0.47822027   -9.3256888    472.10205 0.0080453656 0.0058111813         3946 
 4891000   0.47189943   -9.3100089    471.62344 0.0080355659 0.0058089947         3949 
 4892000   0.46498276   -9.3160775    471.78532  0.008036681 0.0058068086         3949 
 4893000    0.4721334   -9.3276238    471.74516 0.0080343545  0.005804623         3954 
 4894000   0.46634235   -9.3159821    471.72413 0.0080323547 0.0058024405         3947 
 4895000    0.4606275   -9.3194122    471.09358 0.0080199792  0.005800258         3941 
 4896000    0.4637187   -9.3335958    472.39395 0.0080404744 0.0057980769         3955 
 4897000   0.47154347   -9.3475165    471.42235 0.0080222985 0.0057958962         3955 
 4898000   0.45705734   -9.3211034    471.75273 0.0080262817 0.0057937159         3951 
 4899000   0.47104033    -9.338222    471.63297 0.0080226062 0.0057915375         3951 
 4900000   0.46185266   -9.3233146    471.61634 0.0080206861 0.0057893609         3958 
 4901000   0.46803831   -9.3182429    471.54695 0.0080178697 0.0057871857         3941 
 4902000   0.46249459   -9.3390932    471.41026 0.0080139103 0.0057850096         3939 
 4903000   0.46257373   -9.3223434    472.21157 0.0080258951 0.0057828374         3935 
 4904000   0.47485555   -9.3126652    471.71576 0.0080158334 0.0057806651         3940 
 4905000   0.46930991   -9.3294449     471.9564 0.0080182875 0.0057784941         3943 
 4906000   0.46418465   -9.3276797     472.8578 0.0080319642 0.0057763243         3952 
 4907000   0.47596925   -9.3251469    471.62478 0.0080093877 0.0057741552         3952 
 4908000     0.469952   -9.3275235    471.67679 0.0080086387 0.0057719863         3953 
 4909000   0.46457805   -9.3308868    472.37678 0.0080188901 0.0057698177         3948 
 4910000   0.46572713   -9.3290551    471.90294 0.0080092149 0.0057676498         3949 
 4911000   0.46398746   -9.3440809    471.52443 0.0080011612 0.0057654844         3935 
 4912000   0.46587632   -9.3324773    471.17304 0.0079935708 0.0057633202         3948 
 4913000   0.46655216   -9.3358069    471.40883 0.0079959432 0.0057611568         3943 
 4914000   0.45687569   -9.3565013     472.2206 0.0080080823 0.0057589941         3941 
 4915000   0.46428395   -9.3205654    471.51484  0.007994487 0.0057568316         3943 
 4916000   0.46688687   -9.3216293    471.34066 0.0079899081 0.0057546708         3940 
 4917000   0.46685477   -9.3339522    471.49181 0.0079908449  0.005752512         3941 
 4918000   0.46466674   -9.3260579    471.53482 0.0079899489 0.0057503573         3937 
 4919000   0.47044112   -9.3303729    471.35976 0.0079853587 0.0057481998         3942 
 4920000   0.46318542   -9.3265798    471.77272 0.0079907303 0.0057460447         3945 
 4921000   0.46354929   -9.3377572    470.87528 0.0079739091 0.0057438895         3944 
 4922000   0.45993084   -9.3316944    471.42677 0.0079816262 0.0057417369         3938 
 4923000   0.46820752   -9.3208046    471.96306 0.0079890828 0.0057395857         3938 
 4924000   0.47398736   -9.3255956    471.11027 0.0079730279 0.0057374345         3941 
 4925000   0.46803701   -9.3404363    471.72154  0.007981752 0.0057352843         3939 
 4926000   0.46695768   -9.3413779    471.11292 0.0079698356 0.0057331353         3935 
 4927000   0.47397143   -9.3468702     471.5434  0.007975499  0.005730988         3944 
 4928000   0.46340753   -9.3292072    470.94334 0.0079637334 0.0057288406         3925 
 4929000   0.47247377   -9.3133208    471.46012 0.0079708548 0.0057266955         3935 
 4930000   0.46083466   -9.3455357    471.23799 0.0079654833 0.0057245518         3943 
 4931000   0.45267129   -9.3472062    471.65603 0.0079709327 0.0057224074         3944 
 4932000   0.45991078    -9.323966     471.6024 0.0079684105 0.0057202641         3956 
 4933000   0.46947603   -9.3295839    471.33356 0.0079622535 0.0057181224         3947 
 4934000   0.45919626    -9.331734    471.01172 0.0079552041  0.005715982         3950 
 4935000   0.45348867   -9.3384133    471.81203 0.0079671063 0.0057138436         3954 
 4936000   0.46193138   -9.3254668    470.70995  0.007946886 0.0057117052         3945 
 4937000   0.45729079    -9.320669    472.05758 0.0079680235 0.0057095675         3942 
 4938000    0.4636938   -9.3508356    471.43382 0.0079558832 0.0057074327         3922 
 4939000   0.46260898   -9.3442335    472.01124 0.0079640149 0.0057052975         3932 
 4940000   0.45818519   -9.3410979    471.85448 0.0079597585 0.0057031642         3949 
 4941000   0.46526833   -9.3488736    470.84537 0.0079411281 0.0057010323         3953 
 4942000   0.45735009   -9.3340754     471.7728 0.0079551599 0.0056989013         3945 
 4943000   0.45467921   -9.3292085    470.97862 0.0079401615 0.0056967706         3924 
 4944000   0.45928976   -9.3351797    471.62161 0.0079493934 0.0056946427         3944 
 4945000   0.46514778   -9.3371702    472.13249 0.0079563952 0.0056925146         3929 
 4946000   0.45759412   -9.3384746    471.80037 0.0079491908 0.0056903875         3934 
 4947000   0.46509323   -9.3317213    470.94824 0.0079332296 0.0056882624         3935 
 4948000   0.45381178   -9.3412824    471.68335 0.0079440068 0.0056861388         3946 
 4949000   0.46082459   -9.3496101    471.38226 0.0079373317 0.0056840162         3938 
 4950000   0.45559401   -9.3429439    471.15973 0.0079319821 0.0056818935         3936 
 4951000   0.45550988   -9.3395034    472.10202 0.0079462402 0.0056797713         3934 
 4952000   0.45985105   -9.3320417    471.35647 0.0079320892  0.005677652         3940 
 4953000   0.46745039   -9.3415648    471.34842 0.0079303522 0.0056755314         3944 
 4954000    0.4574033   -9.3317839    471.62305 0.0079333713 0.0056734139         3948 
 4955000    0.4632594   -9.3429338    471.37583 0.0079276124  0.005671298         3943 
 4956000   0.46678571   -9.3361585    471.40594 0.0079265191 0.0056691805         3933 
 4957000    0.4558927   -9.3330554    471.30498 0.0079232227 0.0056670649         3941 
 4958000   0.46109402     -9.34151    472.07637   0.00793459 0.0056649514         3951 
 4959000   0.45763308   -9.3287343    471.66498 0.0079260769 0.0056628393         3956 
 4960000   0.45890688   -9.3377284    471.56531 0.0079228043 0.0056607267         3942 
 4961000   0.45977024   -9.3232142    471.86449 0.0079262327  0.005658617         3943 
 4962000   0.45665739   -9.3432375    471.32468 0.0079155696  0.005656507         3944 
 4963000   0.46006084    -9.343664    472.01475 0.0079255616 0.0056543985         3945 
 4964000   0.46667389   -9.3344669    470.66367 0.0079012837 0.0056522906         3943 
 4965000   0.45769838   -9.3275408    471.52249 0.0079141068 0.0056501834         3958 
 4966000   0.44934609   -9.3422006    471.37371 0.0079100165 0.0056480768         3944 
 4967000   0.45401548   -9.3435942    472.04651  0.007919712 0.0056459717         3936 
 4968000   0.46440295   -9.3397334    471.04781 0.0079013655 0.0056438676         3933 
 4969000   0.45499874   -9.3326144    471.27081 0.0079035153 0.0056417638         3937 
 4970000   0.45729934   -9.3412765    471.21866 0.0079010506 0.0056396635         3938 
 4971000   0.46105201   -9.3382869    471.63045 0.0079063645 0.0056375608         3951 
 4972000   0.45690034   -9.3425572    471.48497  0.007902336 0.0056354605         3948 
 4973000   0.46031863   -9.3537452    471.52341  0.007901391 0.0056333624         3930 
 4974000   0.45728944   -9.3413721    471.68409 0.0079024945  0.005631267         3937 
 4975000   0.45513451   -9.3272292    471.93858 0.0079051688 0.0056291715         3946 
 4976000    0.4548999   -9.3425098    471.90029 0.0079029389  0.005627076         3942 
 4977000   0.45297127   -9.3387023    471.36776 0.0078924345 0.0056249817         3931 
 4978000   0.45622907   -9.3555874    471.65872 0.0078957199 0.0056228901         3949 
 4979000    0.4492209   -9.3500003     471.6191 0.0078934708 0.0056207996         3940 
 4980000    0.4514799   -9.3444997    471.66346 0.0078926281 0.0056187103         3941 
 4981000   0.45602951   -9.3414096     470.5297 0.0078720755 0.0056166227         3941 
 4982000   0.44528661    -9.346784    471.36448 0.0078844587  0.005614534         3932 
 4983000   0.45860494    -9.341038     471.9884 0.0078933106  0.005612445         3938 
 4984000   0.45369379   -9.3447742    471.20086 0.0078785591 0.0056103599         3953 
 4985000     0.451076   -9.3571991    471.58218 0.0078833531 0.0056082746         3946 
 4986000    0.4641942   -9.3341406    471.28223 0.0078767588 0.0056061916         3942 
 4987000   0.46008499   -9.3437747    471.96144 0.0078865291 0.0056041101         3945 
 4988000   0.44218904   -9.3567599    471.15783 0.0078715222 0.0056020265         3932 
 4989000   0.45341123    -9.339456     470.6864 0.0078620699 0.0055999445         3936 
 4990000   0.45226755   -9.3574621    470.92627 0.0078645001 0.0055978639         3933 
 4991000   0.46210399   -9.3629659    470.78881 0.0078606292  0.005595784         3945 
 4992000   0.44468647   -9.3440101    470.76383 0.0078586376 0.0055937068         3940 
 4993000   0.43860949   -9.3523502    472.42881 0.0078848523 0.0055916304         3941 
 4994000   0.45896803   -9.3389435    471.38302 0.0078658227 0.0055895545         3938 
 4995000   0.45185879   -9.3549376    470.86817 0.0078556585  0.005587481         3953 
 4996000    0.4488747    -9.350716    470.89869 0.0078545951 0.0055854075         3947 
 4997000   0.45742797   -9.3437291    471.38745 0.0078611742 0.0055833353         3933 
 4998000    0.4498597   -9.3473148     471.1918 0.0078563392  0.005581264         3954 
 4999000   0.45393196   -9.3462762    471.50389 0.0078599702 0.0055791936         3951 
 5000000   0.44825229   -9.3455063    470.87105 0.0078478508 0.0055771248         3935 
 5001000   0.45465952   -9.3587642    470.95542 0.0078476875  0.005575058         3958 
 5002000   0.44633692   -9.3372278    470.81753 0.0078438214 0.0055729905         3935 
 5003000   0.45440802   -9.3534058    471.63775 0.0078559156 0.0055709219         3942 
 5004000   0.44754296   -9.3442488    471.48429 0.0078517901 0.0055688569         3943 
 5005000   0.44700105   -9.3431405    470.89469 0.0078404044 0.0055667912         3947 
 5006000   0.45089588   -9.3584094    471.02891 0.0078410726 0.0055647281         3938 
 5007000   0.44333747   -9.3518019     471.5099 0.0078475119 0.0055626653         3942 
 5008000    0.4560814    -9.351937    471.60359 0.0078475038 0.0055606022         3942 
 5009000   0.44966688   -9.3404744    471.81394 0.0078494366 0.0055585401         3941 
 5010000   0.45194069   -9.3524915    471.41855 0.0078412933 0.0055564806         3943 
 5011000   0.44472999   -9.3520875    471.30235 0.0078377961 0.0055544231         3962 
 5012000    0.4582292   -9.3534533    471.02972 0.0078316992 0.0055523646         3950 
Loop time of 13237.6 on 48 procs for 5000000 steps with 4000 atoms

Performance: 65268.727 tau/day, 377.713 timesteps/s
99.4% CPU use with 48 MPI tasks x no OpenMP threads

MPI task timing breakdown:
Section |  min time  |  avg time  |  max time  |%varavg| %total
---------------------------------------------------------------
Pair    | 996.15     | 1108.2     | 1196.7     | 177.9 |  8.37
Neigh   | 93.047     | 98.462     | 102.77     |  23.6 |  0.74
Comm    | 846.74     | 949.87     | 1087       | 210.0 |  7.18
Output  | 38.922     | 38.927     | 39.017     |   0.2 |  0.29
Modify  | 10856      | 10912      | 10971      |  26.3 | 82.43
Other   |            | 129.8      |            |       |  0.98

Nlocal:        83.3333 ave          92 max          77 min
Histogram: 6 3 6 2 14 4 9 1 1 2
Nghost:        2459.65 ave        2481 max        2430 min
Histogram: 1 2 5 5 5 4 6 12 4 4
Neighs:        17129.4 ave       19594 max       14598 min
Histogram: 6 3 3 4 6 7 7 5 4 3
FullNghs:      34259.2 ave       38366 max       31003 min
Histogram: 2 7 6 4 9 8 9 0 2 1

Total # of neighbors = 1644440
Ave neighs/atom = 411.11000
Neighbor list builds = 265873
Dangerous builds = 0

#clear
#
#next RN
#
#jump SELF
Total wall time: 3:40:41
