
units lj                  # Use reduced LJ style units
atom_style atomic         # Uncharged point particles
atom_modify map hash      # Needed for indexing of clusters etc
                          # Used to be able to find where atoms are in relation to each other.

lattice fcc 1.0 spacing 1 1 1
Lattice spacing in x,y,z = 1.5874011 1.5874011 1.5874011
region box block 0 10 0 10 0 10 units lattice
create_box 2 box
Created orthogonal box = (0.0000000 0.0000000 0.0000000) to (15.874011 15.874011 15.874011)
  3 by 4 by 4 MPI processor grid
create_atoms 1 box
Created 4000 atoms
  using lattice units in orthogonal box = (0.0000000 0.0000000 0.0000000) to (15.874011 15.874011 15.874011)
  create_atoms CPU = 0.026 seconds
set type 1 type/fraction 2 0.43 78393
Setting atom values ...
  1722 settings made for type/fraction
mass 1 1.0
mass 2 1.0
pair_style lj/cut  3.5
pair_modify tail  yes
pair_coeff 1  1  1.0  1.0   # Intearaction between 1 and 1 set with epsilon = 1 and sigma = 1
pair_coeff 1  2  1.5  0.8
pair_coeff 2  2  0.5  0.88

write_data data.0
System init for write_data ...
Neighbor list info ...
  update every 1 steps, delay 10 steps, check yes
  max neighbors/atom: 2000, page size: 100000
  master list distance cutoff = 3.8
  ghost atom cutoff = 3.8
  binsize = 1.9, bins = 9 9 9
  1 neighbor lists, perpetual/occasional/extra = 1 0 0
  (1) pair lj/cut, perpetual
      attributes: half, newton on
      pair build: half/bin/atomonly/newton
      stencil: half/bin/3d
      bin: standard
WARNING: Not all mixed pair coeffs generated from mixing. Use write_data with 'pair ij' option to store all pair coeffs. (../write_data.cpp:312)


#############################
#   M E L T   S Y S T E M   #
#############################

velocity all create 2.4 5833274 mom yes dist gaussian # Assign velocities
                                                    # Temperature 2.4, random number seed, zero linear momentum
                                                                                # Gaussian distribution

timestep 0.002   # simulation timestep
thermo 1000       # output thermodynamic data every 1000 steps bf 100

# Define a fix  in this case with index 1 applied to all
# particles in the simulation. This fix is for simulations
# in the anisotropic NPT ensemble. Note that we use the MTK
# correction.
fix 1 all npt temp 2.4 2.4 0.1 iso 5.68 5.68 0.5 mtk yes tchain 5 pchain 5 # Use NPT ensemble
                                                                         # Set temperature and pressure and damping
                                                                         # Numbers of thermostats in chain and in barostat
run 10000          # run for 10000 steps
Per MPI rank memory allocation (min/avg/max) = 3.642 | 3.644 | 3.648 Mbytes
Step Temp E_pair E_mol TotEng Press Volume 
       0          2.4   -5.6998203            0   -2.1007203   -4.1891945         4000 
    1000    2.4615502   -4.9418044            0   -1.2504021    5.5881771    3875.4189 
    2000    2.3926793     -5.04316            0   -1.4550383    5.6868167    3810.6755 
    3000    2.3905448   -5.0141785            0   -1.4292576    5.8132842    3819.6863 
    4000    2.4150117   -5.0012049            0    -1.379593    5.7097769    3827.1069 
    5000    2.4403673   -5.0890702            0   -1.4294345    5.7463673    3785.2745 
    6000    2.3344606   -4.9915475            0    -1.490732    5.6936849    3835.5488 
    7000    2.4243318   -4.9784054            0   -1.3428167    5.9689375    3821.2727 
    8000    2.4148874    -5.047786            0   -1.4263605    5.6529254    3809.2646 
    9000    2.3617622   -5.0623483            0   -1.5205907    5.4703959    3830.4482 
   10000    2.3926315   -5.0278536            0   -1.4398036    5.4191059    3840.4214 
Loop time of 2.50635 on 48 procs for 10000 steps with 4000 atoms

Performance: 689449.657 tau/day, 3989.871 timesteps/s
99.6% CPU use with 48 MPI tasks x no OpenMP threads

MPI task timing breakdown:
Section |  min time  |  avg time  |  max time  |%varavg| %total
---------------------------------------------------------------
Pair    | 1.0905     | 1.1961     | 1.2807     |   3.2 | 47.72
Neigh   | 0.20677    | 0.21502    | 0.22322    |   0.7 |  8.58
Comm    | 0.73194    | 0.84125    | 0.95819    |   4.4 | 33.56
Output  | 0.00024132 | 0.00025051 | 0.00032075 |   0.0 |  0.01
Modify  | 0.21495    | 0.23829    | 0.26509    |   2.7 |  9.51
Other   |            | 0.01547    |            |       |  0.62

Nlocal:        83.3333 ave          94 max          73 min
Histogram: 1 2 4 9 10 9 8 1 2 2
Nghost:        1688.73 ave        1729 max        1660 min
Histogram: 2 4 8 8 9 10 3 3 0 1
Neighs:        9949.65 ave       11302 max        8702 min
Histogram: 3 3 3 5 12 11 4 3 1 3

Total # of neighbors = 477583
Ave neighs/atom = 119.39575
Neighbor list builds = 897
Dangerous builds = 168

# Equilibrate just above the melting temperature to avoid step fn in T

fix 1 all npt temp 1.25 1.25 0.1 iso 5.68 5.68 0.5 mtk yes tchain 5 pchain 5
run 2000
Per MPI rank memory allocation (min/avg/max) = 3.643 | 3.645 | 3.649 Mbytes
Step Temp E_pair E_mol TotEng Press Volume 
   10000    2.3926315   -5.0278536            0   -1.4398036    5.4191059    3840.4214 
   11000    1.2658448   -7.0263864            0   -5.1280938    6.0293111     3014.871 
   12000    1.2524002   -7.1102452            0   -5.2321145    5.7820777    3003.1227 
Loop time of 0.61054 on 48 procs for 2000 steps with 4000 atoms

Performance: 566056.230 tau/day, 3275.788 timesteps/s
99.6% CPU use with 48 MPI tasks x no OpenMP threads

MPI task timing breakdown:
Section |  min time  |  avg time  |  max time  |%varavg| %total
---------------------------------------------------------------
Pair    | 0.27409    | 0.29787    | 0.31622    |   1.9 | 48.79
Neigh   | 0.039486   | 0.042009   | 0.044217   |   0.5 |  6.88
Comm    | 0.20177    | 0.22262    | 0.24986    |   2.6 | 36.46
Output  | 4.9796e-05 | 5.3221e-05 | 0.00016476 |   0.0 |  0.01
Modify  | 0.040039   | 0.043305   | 0.045865   |   0.8 |  7.09
Other   |            | 0.004684   |            |       |  0.77

Nlocal:        83.3333 ave          94 max          77 min
Histogram: 3 7 12 2 15 3 1 3 1 1
Nghost:        1986.40 ave        2013 max        1962 min
Histogram: 3 1 8 5 9 7 6 7 0 2
Neighs:        12731.4 ave       13952 max       11513 min
Histogram: 3 3 7 6 4 10 3 4 3 5

Total # of neighbors = 611105
Ave neighs/atom = 152.77625
Neighbor list builds = 144
Dangerous builds = 15

#############################
# L I N E A R  Q U E N C H  #
#############################

# Define solid atoms. This closely follows ten Wolde  Ruiz-Montero and Frenkel  Faraday Discuss  1996  104  93-110
# Compute components of the per-atom q6 vector
compute q6 all orientorder/atom degrees 1 6 components 6 nnn NULL cutoff 1.3 # compute the Q6 parameter.
                                                                             # Use all neighbours within 1.3 unit cell.

# get number of connections
compute coord_number all coord/atom orientorder q6 0.5

# An atom is solid if it has 8 or more connections (of a possible 14)
variable is_solid atom c_coord_number>=8
group solid dynamic all var is_solid    # Must be dynamic to update
dynamic group solid defined

# do clustering
compute cluster solid cluster/atom 1.3 # Create a cluster where all atoms within are solid and max 1.3 units from another member

# define chunks one chunk per cluster
compute clus_chunks solid chunk/atom c_cluster nchunk every compress yes  # Says which atoms are in which chunk

# count the size of each chunk
compute size_chunks solid property/chunk clus_chunks count


# Find the maximum entry in the vector of chunk sizes
variable max_n equal max(c_size_chunks)


# Thermo style which includes this variable
# thermo_style custom step temp pe vol v_max_n

thermo ${N}  # Print the thermo information every 100 steps
thermo 1000  

# Reset the npt fix at a lower temperature (below freezing)
fix 1  all npt temp  ${temp} ${temp}  0.1  iso  5.68  5.68  0.5  mtk yes tchain  5  pchain  5
fix 1  all npt temp  0.45 ${temp}  0.1  iso  5.68  5.68  0.5  mtk yes tchain  5  pchain  5
fix 1  all npt temp  0.45 0.45  0.1  iso  5.68  5.68  0.5  mtk yes tchain  5  pchain  5

dump dmp2 all dcd ${N} traj.dcd
dump dmp2 all dcd 1000 traj.dcd


compute msd all msd com yes
variable twopoint equal c_msd[4]/6/(step*dt+1.0e-6)
fix 9 all vector 10 c_msd[4]
variable fit equal slope(f_9)/6/(10*dt)
thermo_style custom step temp pe c_msd[4] v_twopoint v_fit v_max_n

fix 1 all npt temp 1.25 ${temp} 0.1 iso 5.68 5.68 0.5 mtk yes tchain 5 pchain 5
fix 1 all npt temp 1.25 0.45 0.1 iso 5.68 5.68 0.5 mtk yes tchain 5 pchain 5
run 500000 # 5000000  # Run for this many steps
Neighbor list info ...
  update every 1 steps, delay 10 steps, check yes
  max neighbors/atom: 2000, page size: 100000
  master list distance cutoff = 3.8
  ghost atom cutoff = 3.8
  binsize = 1.9, bins = 8 8 8
  4 neighbor lists, perpetual/occasional/extra = 1 3 0
  (1) pair lj/cut, perpetual
      attributes: half, newton on
      pair build: half/bin/atomonly/newton
      stencil: half/bin/3d
      bin: standard
  (2) compute orientorder/atom, occasional
      attributes: full, newton on
      pair build: full/bin/atomonly
      stencil: full/bin/3d
      bin: standard
  (3) compute coord/atom, occasional
      attributes: full, newton on
      pair build: full/bin/atomonly
      stencil: full/bin/3d
      bin: standard
  (4) compute cluster/atom, occasional
      attributes: full, newton on
      pair build: full/bin/atomonly
      stencil: full/bin/3d
      bin: standard
Per MPI rank memory allocation (min/avg/max) = 9.830 | 9.834 | 9.840 Mbytes
Step Temp PotEng c_msd[4] v_twopoint v_fit v_max_n 
   12000    1.2524002   -7.1102452 1.686979e-30 1.1715132e-32 8.3333333e+20            3 
   13000    1.2368289    -7.207397   0.45453256 0.0029136702  0.037556936            1 
   14000    1.2595348   -7.1525891   0.88431705 0.0052637918   0.03531242            4 
   15000     1.237487   -7.2071511    1.2826904 0.0071260575  0.034878269            1 
   16000    1.2566224    -7.182939    1.6829539 0.0087653846  0.034777732            2 
   17000    1.2345528   -7.1376754    2.0858625  0.010224816  0.034282055            1 
   18000    1.2272398   -7.1715406    2.5073155  0.011607942  0.034078173            4 
   19000     1.266652   -7.1706271    2.8792424  0.012628256  0.034053022            3 
   20000    1.2355125   -7.1331847    3.2378888  0.013491203  0.033612591            2 
   21000    1.2333143   -7.1562547    3.6757328  0.014586241  0.033370768            1 
   22000    1.1992432   -7.1772471    4.1226783  0.015616205  0.033558165            1 
   23000    1.2196199    -7.205286    4.4954273   0.01628778  0.033671522            1 
   24000    1.2303711   -7.1930254    4.8795878  0.016943013   0.03368389            1 
   25000    1.2405656   -7.1728986    5.2239977  0.017413325  0.033526401            2 
   26000    1.2469626   -7.1677121      5.63878  0.018073013  0.033381218            1 
   27000    1.2074569   -7.2546992    6.0692271  0.018732182  0.033336242            1 
   28000    1.2383721   -7.2037114    6.5210613   0.01940792  0.033331759            1 
   29000    1.2161616   -7.2136637    6.8598061  0.019712086  0.033368131            2 
   30000    1.2222794   -7.1838008    7.2767516  0.020213199  0.033331145            1 
   31000    1.2228649   -7.1949335    7.6424516  0.020544224  0.033258586            4 
   32000    1.2264929   -7.1998529    8.0198713  0.020885081  0.033203941            2 
   33000    1.2169192   -7.1936177    8.3979612  0.021206972  0.033143276            1 
   34000    1.2022805   -7.1541436    8.6906331  0.021300571  0.033062759            1 
   35000    1.2251846   -7.2205652    9.1081547  0.021686082  0.032934848            1 
   36000    1.2220012   -7.1769766    9.4923585  0.021973052  0.032835564            2 
   37000    1.1931104   -7.2229921     9.746323  0.021951178  0.032717403            2 
   38000    1.1901375   -7.2680608    10.127464   0.02220935  0.032567818            1 
   39000    1.2044603   -7.2003638    10.476578  0.022385849   0.03245428            2 
   40000    1.2011754   -7.2690653    10.875498  0.022657287   0.03236456            1 
   41000    1.2183273   -7.2464172    11.167085  0.022697328  0.032239093            6 
   42000    1.1984637   -7.1878374    11.528354  0.022873717  0.032101154            1 
   43000    1.2167649   -7.2385556    11.876051  0.023015603  0.031972632            4 
   44000    1.1973184   -7.3250601    12.222944  0.023149516  0.031850221            3 
   45000    1.2222377    -7.298524    12.581044   0.02329823  0.031741991            2 
   46000    1.1755326   -7.2063558    12.982944  0.023519826  0.031658658            2 
   47000    1.2033135   -7.2101381    13.479812  0.023900375  0.031613462            2 
   48000    1.2013374   -7.2596657    13.803953  0.023965196  0.031576843            1 
   49000     1.176114   -7.2792699    14.196961  0.024144492  0.031533964            1 
   50000    1.1821592   -7.2672512     14.52256  0.024204267  0.031493112            1 
   51000    1.1782763   -7.2727592    14.733079  0.024073658  0.031426249            1 
   52000    1.1779158    -7.249695    15.092721  0.024187052  0.031344386            3 
   53000    1.1739811   -7.3341639    15.397502  0.024209908  0.031245677            1 
   54000    1.1934774   -7.2648336    15.706821  0.024238922  0.031153787            2 
   55000    1.1996153   -7.3286707      15.9786      0.02421   0.03105841            2 
   56000    1.1790649   -7.3079559    16.338591   0.02431338  0.030950399            2 
   57000    1.1808681   -7.3480982    16.623049  0.024302703  0.030851908            2 
   58000    1.1721622   -7.2813928    16.982112  0.024399586  0.030743368            1 
   59000    1.1759638   -7.2962114    17.315603  0.024457067   0.03064036            1 
   60000    1.1704815   -7.2909764    17.667825  0.024538645  0.030549207            1 
   61000    1.1749062   -7.3277843    17.952776  0.024525651  0.030460366            2 
   62000    1.1804382   -7.3325618    18.171076  0.024423488   0.03036906            1 
   63000    1.1672337    -7.333477    18.647494  0.024665997  0.030283734            2 
   64000    1.1800366     -7.34498    19.098908   0.02486837  0.030227238            1 
   65000    1.1577713   -7.3773499    19.481239  0.024975947  0.030182959            2 
   66000    1.2017905   -7.3268013    19.687432  0.024857869  0.030135529            3 
   67000    1.1704587   -7.3343382    20.034954  0.024919096  0.030073033            1 
   68000    1.1515121   -7.3929271    20.282935  0.024856538  0.030004814            1 
   69000    1.1381294   -7.3570165    20.563218  0.024834804  0.029925067            1 
   70000     1.154503   -7.3084031    20.896927  0.024877294  0.029855995            1 
   71000      1.16232   -7.3348973    21.207366  0.024891275  0.029783433       -1e+20 
   72000    1.1544366   -7.3523615    21.492716  0.024875829  0.029718863            1 
   73000    1.1690569   -7.3594048    21.776068  0.024858525  0.029640074            5 
   74000    1.1704752   -7.3881106    22.014851  0.024791498  0.029562154            2 
   75000    1.1484459   -7.3458497    22.340383  0.024822648  0.029480478            1 
   76000     1.148068   -7.3955224    22.717567  0.024909613  0.029407292            3 
   77000    1.1314321   -7.3741442    23.061909  0.024958776  0.029344125            2 
   78000    1.1218244   -7.3574092     23.29065  0.024883173  0.029274722            1 
   79000    1.1536028   -7.4079572    23.577628  0.024870915   0.02919806            1 
   80000    1.1349643   -7.4149928    23.924362  0.024921211  0.029132044            1 
   81000    1.1282167   -7.3853769     24.19774  0.024894794  0.029063117            1 
   82000    1.1321613   -7.3851272    24.596964  0.024996915  0.029004736            2 
   83000    1.1094497   -7.4177872    24.933354  0.025033488  0.028946232            1 
   84000    1.1556484   -7.4164515    25.380501  0.025179068  0.028894376            2 
   85000    1.1374987   -7.4254936    25.420744  0.024922297  0.028837734            1 
   86000      1.14808   -7.4342026    25.807038   0.02500682  0.028775243            1 
   87000    1.1421614   -7.3686698    26.181667  0.025078225  0.028719682            2 
   88000    1.1098041   -7.4152857    26.359036  0.024961208  0.028658941            2 
   89000    1.1233583   -7.3885482    26.902288  0.025189408  0.028598877            1 
   90000    1.1315465    -7.411185    26.983866  0.024985061  0.028543448            2 
   91000    1.1246258   -7.4379292    27.155773  0.024867924   0.02848325            4 
   92000    1.1303458   -7.4495427    27.532765  0.024939098  0.028423637            2 
   93000    1.1309277   -7.4542768    27.731471  0.024848988  0.028365019            3 
   94000     1.107416   -7.4309103    28.071638  0.024886204  0.028303445            2 
   95000    1.1227672   -7.4511072    28.314246  0.024837057  0.028242027            5 
   96000    1.1183113   -7.4441524    28.660522  0.024878925  0.028182809            1 
   97000    1.1241544   -7.4096888    29.011021  0.024923557  0.028125295            2 
   98000    1.1176978   -7.4729688    29.389988  0.024991486   0.02807508            8 
   99000    1.1323561   -7.4506773     29.58481  0.024903039  0.028024007            2 
  100000    1.1171483   -7.4315842    29.981892   0.02498491  0.027975657            4 
  101000    1.0938942   -7.4489135    30.207523  0.024923699  0.027926521            4 
  102000    1.1090988   -7.4667826    30.457299  0.024883414  0.027873793            5 
  103000    1.0823113    -7.436293    30.687438  0.024828024  0.027819416            2 
  104000    1.0862326   -7.4584582    31.052129  0.024881514  0.027768182            1 
  105000    1.0860703   -7.4827643    31.355197  0.024885077   0.02771769            2 
  106000    1.1076118   -7.4952889    31.401519  0.024686729  0.027663217            1 
  107000    1.0954414   -7.5570677    31.463543  0.024504317  0.027599653            2 
  108000    1.0831406    -7.513999    31.690152  0.024452278  0.027530603            1 
  109000    1.0878382   -7.4863712    31.912729  0.024398111  0.027460287            1 
  110000    1.0995201   -7.4865699    32.089451   0.02431019   0.02738268            4 
  111000    1.1145145   -7.5154731    32.289651  0.024241479  0.027303297            2 
  112000     1.094224   -7.5195706    32.438725  0.024135956  0.027222812            4 
  113000    1.1036409   -7.5178947    32.658229   0.02408424  0.027138984            4 
  114000    1.0724613   -7.5687756    32.695867  0.023900487  0.027054421            2 
  115000    1.0856426   -7.5132916    33.017982  0.023926074  0.026966566            3 
  116000    1.0981295   -7.5539407    33.241399  0.023880315  0.026878558            2 
  117000    1.0733442   -7.5130554    33.612327  0.023940404  0.026794953            2 
  118000    1.1162935   -7.5350383    33.835411  0.023895064    0.0267174            4 
  119000    1.0850479   -7.5402229    34.105723  0.023883559  0.026639704            1 
  120000    1.0506621   -7.5917364    34.251004   0.02378542  0.026562363            3 
  121000    1.0564063   -7.5427425    34.614733  0.023839348  0.026486579            3 
  122000    1.0905153   -7.5919098    34.768721  0.023749126  0.026410853            2 
  123000    1.0531214   -7.5495781    34.949479  0.023678509  0.026332903            2 
  124000    1.0516319   -7.5458078    35.371089  0.023770893   0.02625855            2 
  125000    1.0575691    -7.558444    35.381962  0.023587975  0.026183095            3 
  126000    1.0635638   -7.5954889    35.573839  0.023527671  0.026106458            2 
  127000    1.0775716   -7.6126592    35.707203  0.023429923  0.026028904            1 
  128000    1.0916423    -7.566245    36.172238  0.023549634   0.02595283            6 
  129000    1.0477957   -7.6120377    36.165518  0.023362738  0.025879225            2 
  130000    1.0718358   -7.6099065    36.270528  0.023250338  0.025801772            4 
  131000    1.0475577   -7.6354791    36.470444  0.023200028  0.025721291            2 
  132000    1.0650152   -7.6211971    36.894826  0.023292188  0.025643896            1 
  133000    1.0452726   -7.5609346    37.185382  0.023299112  0.025569647            2 
  134000    1.0615803   -7.5950368     37.38808  0.023251294  0.025497361            1 
  135000    1.0778188   -7.5701295    37.757672  0.023307205  0.025427695            3 
  136000    1.0692352   -7.5705193    37.676007  0.023085788  0.025356364            2 
  137000    1.0603308   -7.6055017     37.74508  0.022959294  0.025279302            3 
  138000    1.0521924   -7.6074858    37.916031  0.022896154  0.025199984            8 
  139000    1.0452175   -7.6179176    38.135276  0.022862875  0.025119835            1 
  140000    1.0537192   -7.6239948    38.224436   0.02275264  0.025038874            3 
  141000    1.0348919   -7.6446129    38.371126   0.02267797  0.024957731            3 
  142000    1.0465196   -7.6556507    38.648355  0.022680959    0.0248788            2 
  143000    1.0265366   -7.6546107    38.908451  0.022673923  0.024802641            9 
  144000    1.0268753   -7.6646491    39.071013   0.02261054  0.024726885            3 
  145000     1.014691   -7.6885997     39.22296  0.022541931  0.024650062            2 
  146000    1.0546702   -7.6449391      39.5877  0.022595719  0.024575986            1 
  147000    1.0313182   -7.6493244     39.80429   0.02256479  0.024503287            3 
  148000    1.0073737   -7.6562892    39.926518  0.022481147  0.024431257            1 
  149000    1.0279771   -7.6584889    40.270222  0.022522496  0.024360103            2 
  150000    1.0223424   -7.6772965    40.410561  0.022450312  0.024292497            2 
  151000    1.0177051   -7.7099766    40.642128   0.02242943  0.024225145            3 
  152000    1.0162277   -7.6660703     41.01977  0.022488909  0.024161061            1 
  153000    1.0082399   -7.6774196    41.217973  0.022449876  0.024098194            2 
  154000    1.0496395   -7.7136605    41.216536   0.02230332  0.024034278            5 
  155000    1.0187319   -7.7426278    41.508055  0.022316158  0.023969149            2 
  156000    1.0194081   -7.6982299    41.617344  0.022231487  0.023905004            3 
  157000    1.0053222   -7.7537309     41.71477  0.022141598  0.023840875            3 
  158000    1.0183622   -7.7147116    41.986221  0.022144631  0.023776083            3 
  159000    1.0054657   -7.7265383     42.17435  0.022103957  0.023711721            1 
  160000     1.016927   -7.7312872    42.297986  0.022030201  0.023643815            8 
  161000    1.0064065    -7.735075    42.377031  0.021934281  0.023575612            1 
  162000    1.0085799   -7.7147542    42.639735   0.02193402  0.023510473            2 
  163000    1.0096358   -7.7482363    42.669666  0.021814758  0.023443193            3 
  164000    1.0202929   -7.7536603    42.856609  0.021776732  0.023375404            1 
  165000    1.0082049   -7.7205713    42.998916  0.021716624  0.023307693            2 
  166000   0.97965572   -7.7634429    43.022442  0.021597611  0.023238487            4 
  167000   0.99624829   -7.7519578    43.230806  0.021572258  0.023168835            2 
  168000   0.98802244   -7.7611895    43.266982  0.021461797  0.023097972            2 
  169000   0.96440092   -7.7720357    43.397525  0.021399174  0.023026624            2 
  170000   0.99342097   -7.7202064    43.567892   0.02135681  0.022956889            2 
  171000   0.98370079   -7.7652608    43.708824  0.021300596  0.022886512            4 
  172000   0.97009893   -7.7756391     43.57836  0.021113547  0.022813872            3 
  173000   0.99178538   -7.7973593    43.811829  0.021103964  0.022740289            2 
  174000   0.99141541   -7.7776166    44.058011   0.02110058  0.022667358            2 
  175000   0.99109945   -7.7943138    43.996034  0.020950492   0.02259359            3 
  176000    1.0007471   -7.7851599    44.232011  0.020943187  0.022519424            2 
  177000   0.98342854   -7.8107414    44.220571  0.020819478  0.022444913            3 
  178000   0.99933204   -7.8063999    44.422711  0.020797149   0.02237041            4 
  179000   0.98534199   -7.8286007    44.569445  0.020749276   0.02229663            3 
  180000   0.98596577   -7.8243791      44.6338  0.020663796  0.022223527            3 
  181000   0.99196331    -7.829723    44.756612  0.020606175  0.022148321            2 
  182000   0.97476573   -7.8287586    44.937325  0.020575698  0.022072853            4 
  183000   0.96544574   -7.8235937    45.279897  0.020619261   0.02199935            4 
  184000     0.989416   -7.8153958    45.323449  0.020526924  0.021928537            3 
  185000   0.96770134   -7.7826686    45.716593   0.02059306  0.021859507            1 
  186000   0.97618957   -7.7757307    45.687329  0.020469234  0.021790224            4 
  187000   0.95354234   -7.8234017    45.892674  0.020451281  0.021722723            2 
  188000     1.000454   -7.8273066    46.230869  0.020492407  0.021656611            1 
  189000   0.96823713   -7.8346783    46.308542  0.020418228  0.021591286            4 
  190000    0.9583258   -7.8307814    46.351786   0.02032973  0.021526498            3 
  191000   0.97515537   -7.8595021     46.57977  0.020322762  0.021461687            2 
  192000   0.97412164   -7.8527258    46.534542  0.020197284  0.021396694            2 
  193000   0.97215989   -7.8233423    46.852024  0.020229717  0.021331163            2 
  194000   0.95409779   -7.8815957    46.944685  0.020165243  0.021266754            2 
  195000   0.97726643   -7.8674759    47.039886  0.020102515  0.021202301            1 
  196000   0.96616767   -7.8512837    47.259131  0.020093168  0.021139631            4 
  197000   0.95448785   -7.8922393    47.425999  0.020061759  0.021076945            4 
  198000   0.95092419   -7.8804038    47.405319  0.019951733   0.02101396            3 
  199000   0.93471363   -7.9107719    47.678873  0.019966027  0.020951511            1 
  200000   0.97933413   -7.8868215    47.755407  0.019898086  0.020889471            4 
  201000    0.9526483   -7.8704741    48.089815  0.019937734   0.02082858            1 
  202000   0.95909849   -7.9093551    48.287987  0.019920787  0.020769311            7 
  203000   0.95286808   -7.8825416    48.356803  0.019850904  0.020710889            2 
  204000     0.938572   -7.8747069    48.556474  0.019835161   0.02065379            2 
  205000   0.92958583   -7.8821713    48.769111  0.019824842  0.020596907            3 
  206000   0.94587563   -7.9012331    49.011878  0.019826812  0.020541047            1 
  207000   0.95289066   -7.9373102    48.940398  0.019702253  0.020485485            2 
  208000   0.92121022   -7.9275825    49.093049   0.01966869  0.020429217            1 
  209000   0.92945105   -7.8941885    49.281293  0.019649638  0.020373049            2 
  210000    0.9452746   -7.9647615    49.208586  0.019527217  0.020317912            8 
  211000   0.91688654   -7.9188697    49.490721  0.019546098  0.020261202            4 
  212000   0.93490268    -7.919734    49.575832  0.019487355  0.020205985            1 
  213000   0.91586914   -7.9233538    49.844344  0.019500917   0.02015027            3 
  214000   0.90870358   -7.9298122    49.840475  0.019408285  0.020094108            2 
  215000    0.9391866   -7.9047041    49.854913   0.01932361  0.020038308            3 
  216000   0.92691556   -7.9503097    49.938814  0.019266518  0.019982305            5 
  217000   0.92689095   -7.9461305    50.010747  0.019205356  0.019925018            3 
  218000   0.92510092   -7.9503327    50.059768  0.019135997  0.019867884            2 
  219000   0.90394244   -7.9637173    50.115818  0.019069946   0.01981089            3 
  220000   0.91342561   -7.9600632     50.34283  0.019069254   0.01975437            1 
  221000   0.91209948   -7.9593168      50.5116  0.019046606  0.019697675            2 
  222000   0.91565586   -7.9903455    50.499081  0.018956111  0.019641774            3 
  223000     0.928963   -7.9778726    50.655428  0.018929532  0.019584749            1 
  224000   0.91032363   -8.0158099    50.473181  0.018777225  0.019527223            4 
  225000   0.90457754   -8.0163846    50.448887  0.018684773  0.019467912            2 
  226000   0.89712038   -8.0212448    50.381008  0.018577068    0.0194076            4 
  227000   0.90564407   -7.9875885    50.717667   0.01861882  0.019347778            4 
  228000   0.89714849   -7.9950881    50.773796  0.018557674  0.019288436            4 
  229000    0.8920961   -8.0017558    51.038865  0.018573095  0.019229691            2 
  230000    0.9249569   -8.0123976    50.923926  0.018450698   0.01917117            1 
  231000   0.89111427   -8.0050735    51.260987   0.01849242  0.019113156            2 
  232000    0.8949617   -8.0388015    51.301288  0.018427187  0.019055851            2 
  233000   0.91443578   -8.0243914    51.469561  0.018408284  0.018998662            3 
  234000   0.88504111   -8.0465785    51.608963   0.01837926  0.018942474            5 
  235000   0.88914452   -8.0371771    51.567921  0.018286497  0.018886324            5 
  236000   0.89414218   -8.0279076    51.686609  0.018250921   0.01883007            2 
  237000   0.88236859   -8.0408177    51.749011  0.018195855  0.018774061            2 
  238000   0.88460514   -8.0663312    51.936553  0.018185068  0.018718023            2 
  239000   0.91426243   -8.0407915    51.952102  0.018114401  0.018662706            3 
  240000    0.8954386   -8.0351461    51.943498  0.018035937  0.018606581            2 
  241000   0.89709671   -8.0360673    52.125465   0.01802402  0.018550672            8 
  242000   0.87877374   -8.0704829    52.205727  0.017977179  0.018494689            3 
  243000    0.8959438   -8.0754274    52.442344  0.017984343   0.01843961            1 
  244000   0.89220844   -8.0549759    52.497809   0.01792958  0.018385002            2 
  245000   0.85513852    -8.066485    52.445916  0.017838747  0.018329798            3 
  246000   0.88545421   -8.1037286    52.648335  0.017834802  0.018275499            5 
  247000   0.88120271   -8.0970217    52.575214  0.017737927  0.018221447            3 
  248000   0.86427639   -8.0998284    52.716703  0.017713946  0.018167128            7 
  249000   0.87685572   -8.0961754    52.715552   0.01764242   0.01811208            9 
  250000   0.86856692    -8.080874    52.798826  0.017599609  0.018057086            1 
  251000   0.86726985   -8.0770587    52.728952  0.017506292  0.018001826            4 
  252000   0.88045623   -8.1111533    52.845052  0.017475216  0.017946734            1 
  253000   0.86703675   -8.1134701    53.025872  0.017465702   0.01789187            2 
  254000    0.8774607   -8.1132364    53.114136  0.017425898   0.01783728            4 
  255000   0.85144661   -8.1670428      53.0628  0.017340784  0.017782627            1 
  256000    0.8626539   -8.1296708    53.207166  0.017320041  0.017728469            2 
  257000   0.84349313   -8.1486147    53.244426   0.01726473  0.017674245            1 
  258000   0.85928066   -8.1263977    53.335073  0.017227091  0.017619892            3 
  259000   0.85729892   -8.1137774    53.578801  0.017238996  0.017566138            1 
  260000   0.83077435   -8.1524295    53.283903  0.017078174  0.017512273            2 
  261000   0.86538725   -8.1367117     53.44578  0.017064425   0.01745832            3 
  262000   0.84574342   -8.1232561    53.459662  0.017003709  0.017404295            3 
  263000   0.86759198   -8.1650629    53.512374  0.016955759  0.017349864            2 
  264000   0.82360756   -8.1521812    53.698568  0.016950306  0.017295285            3 
  265000   0.83119412   -8.1853914    53.716675  0.016892036  0.017241485            4 
  266000   0.84734719   -8.1505768     53.63333  0.016802422  0.017187123            2 
  267000    0.8477432   -8.1722369    53.778559  0.016784819  0.017133029            4 
  268000    0.8176039   -8.1944881    53.710691  0.016701085  0.017078491            2 
  269000    0.8265932   -8.1940835    53.811313  0.016670171  0.017023546            1 
  270000   0.83871464   -8.2450478    53.807045  0.016607113  0.016969256            5 
  271000   0.83241355   -8.1682028    54.029273  0.016614168  0.016915268            3 
  272000   0.81987731   -8.2156261    53.938519  0.016525282  0.016861453            2 
  273000   0.83933126   -8.2182612    53.833414  0.016432666  0.016807137            2 
  274000   0.83177515   -8.2056568    54.085933  0.016449493   0.01675315            3 
  275000   0.82802932   -8.2185506    54.112518  0.016397733  0.016699787            2 
  276000   0.83635715   -8.1854661     54.02933  0.016313204  0.016646528            2 
  277000    0.8428852    -8.230459      54.2683  0.016326203  0.016593684            4 
  278000   0.83520453   -8.2171457    54.358125  0.016294402  0.016540867            2 
  279000   0.82786999   -8.2534135    54.302124  0.016219272  0.016487957            3 
  280000   0.82196032    -8.244081    54.360878  0.016178833  0.016435356            5 
  281000   0.82100487   -8.2730613    54.435254  0.016143314  0.016382895            3 
  282000   0.82880344   -8.2629642    54.536364  0.016115947  0.016330465            3 
  283000   0.82367512    -8.297049    54.417848  0.016024101  0.016278102            4 
  284000   0.80801722   -8.2915331    54.456371  0.015978982  0.016225823            9 
  285000   0.80384144   -8.2925455    54.492972  0.015933618  0.016173494            2 
  286000   0.82226585   -8.2867212    54.622865  0.015915753  0.016121362            4 
  287000   0.80157838   -8.2860673     54.73596  0.015893136  0.016069465            2 
  288000   0.82178933    -8.269047    54.820539  0.015862424  0.016018182            5 
  289000   0.80058552   -8.2980602    54.721487  0.015778976  0.015967026            4 
  290000   0.79735994    -8.295889    54.797105  0.015746295  0.015915953            3 
  291000   0.81579131   -8.3160572    54.798145  0.015692481  0.015864772            4 
  292000   0.79795547   -8.3313047     54.85381  0.015654626  0.015813856            5 
  293000   0.80565564   -8.3209855    54.941782  0.015626218  0.015762999            2 
  294000   0.79286241   -8.2936802    55.183709  0.015641641  0.015712554            4 
  295000   0.78267493   -8.2544003    55.130667  0.015573635   0.01566251            2 
  296000   0.78370907   -8.3152279    54.996208  0.015483167  0.015612071            6 
  297000   0.80058657   -8.2977237     54.95201  0.015418633  0.015561337            8 
  298000   0.79375756   -8.3326377    55.028183  0.015388194  0.015510957            4 
  299000   0.80039671   -8.3456318    54.999069  0.015328615  0.015460278            4 
  300000   0.79137691    -8.327865    55.261023  0.015350284  0.015409666            5 
  301000   0.80714092   -8.3228294    55.036844  0.015237221  0.015359207            7 
  302000   0.78550327    -8.318971    55.067904  0.015195338  0.015308833            4 
  303000    0.7673812    -8.317181     55.33189  0.015217792  0.015258711            7 
  304000   0.76377273   -8.3301974    55.066471  0.015094976  0.015208281            5 
  305000   0.78962941   -8.3367835    55.230313  0.015090249  0.015158304            2 
  306000   0.79109601   -8.3279894    55.411141   0.01509018  0.015108784            5 
  307000    0.7791635   -8.3473307    55.429702  0.015046065  0.015059611            8 
  308000   0.77409657   -8.3250751    55.371029  0.014981339  0.015010494           18 
  309000   0.78570395   -8.3339046    55.310987  0.014916663  0.014961079           12 
  310000   0.76901833   -8.3542906    55.446456  0.014904961  0.014911912            9 
  311000   0.76633687   -8.3540928    55.453945  0.014859042  0.014862962            4 
  312000   0.77587586    -8.394046      55.3682  0.014788515  0.014813822            6 
  313000   0.77994882    -8.364673    55.447194  0.014762299  0.014764804            3 
  314000   0.76292803   -8.3989084    55.324082  0.014682612   0.01471544            9 
  315000    0.7545707   -8.4394677    55.372558  0.014648825  0.014666121            6 
  316000   0.77419941   -8.3876768    55.499612  0.014635974  0.014616984           11 
  317000   0.76980478   -8.4161653    55.387232  0.014560261  0.014568189            5 
  318000   0.76705719   -8.4289687    55.397754  0.014517231  0.014519349            5 
  319000   0.75000989   -8.4351148    55.357674  0.014461252  0.014470545            2 
  320000   0.76263931   -8.4353461    55.372819  0.014420005  0.014421591            3 
  321000   0.75322908   -8.4635261    55.487416  0.014404833  0.014372662            9 
  322000   0.73702136   -8.4453414    55.550012  0.014376297  0.014324029            7 
  323000   0.74757615   -8.4642329    55.355631  0.014281639  0.014275445            4 
  324000   0.73345923   -8.4388705    55.435909  0.014258207   0.01422713            3 
  325000   0.74686913   -8.4415775    55.559011    0.0142459  0.014178694            5 
  326000   0.76424906   -8.4316531    55.563582   0.01420337  0.014130529            3 
  327000   0.74156899   -8.4613968    55.541885  0.014154405  0.014082607            2 
  328000   0.75857803   -8.4499492    55.433084  0.014083609  0.014034583            4 
  329000   0.74079154   -8.4846379    55.591001  0.014080801  0.013986822            3 
  330000   0.74342283   -8.4885884    55.693334  0.014063973  0.013939248            7 
  331000   0.72804026   -8.4583978    55.568948  0.013990168  0.013891903            6 
  332000   0.73885098   -8.4967934    55.486443   0.01392732  0.013844379            3 
  333000   0.73363006   -8.4652138    55.515294  0.013892716  0.013797141            6 
  334000   0.71776514   -8.4784175    55.627566  0.013879133  0.013749812            2 
  335000   0.73737286   -8.4857516    55.498454  0.013805585   0.01370267           13 
  336000   0.75355192   -8.5006898    55.521881  0.013770308  0.013655518           14 
  337000   0.72946583   -8.4847816    55.669927  0.013766055  0.013608602            9 
  338000   0.73031584   -8.5240785    55.604753  0.013709259  0.013561704           13 
  339000   0.71991498   -8.4812865    55.575562  0.013661643  0.013514792            4 
  340000   0.72143802   -8.5135602    55.514139  0.013606407  0.013467877            9 
  341000   0.70430347   -8.5159471     55.47028  0.013555787  0.013421218            3 
  342000   0.70699239   -8.5205736    55.607718  0.013549639  0.013374523            6 
  343000    0.7259211   -8.5209579    55.556373  0.013497661  0.013327959            6 
  344000   0.70044885   -8.5101168    55.509063  0.013446963  0.013281553            7 
  345000   0.73257355    -8.499938    55.551997  0.013418357  0.013235465            8 
  346000    0.7012094   -8.5229669    55.593916  0.013389672  0.013189647           16 
  347000   0.69724503   -8.5269379    55.555161  0.013341777  0.013143863            7 
  348000   0.70729014   -8.5257921    55.683776  0.013334238  0.013098209            8 
  349000   0.71555918    -8.531619    55.665805  0.013291739  0.013052768            8 
  350000   0.71057731   -8.5611736    55.656614  0.013251575  0.013007831            6 
  351000   0.68478303   -8.5546776     55.66488  0.013215783  0.012962656            5 
  352000   0.72387406   -8.5698144    55.609361  0.013165095  0.012917781           10 
  353000   0.71447429   -8.5558628    55.734489  0.013157339  0.012873069            6 
  354000   0.69144177   -8.5673939    55.614485  0.013091922  0.012828502            6 
  355000   0.69517684   -8.5871537    55.618862  0.013056071  0.012783987            5 
  356000   0.69086607   -8.5646298     55.74127   0.01304805  0.012739796            4 
  357000   0.68814102   -8.5627121    55.870955  0.013041773   0.01269596           13 
  358000   0.71250811   -8.5694907    55.685626  0.012962204  0.012652382            3 
  359000   0.69427422   -8.5933389     55.71936  0.012933928  0.012608502           17 
  360000   0.68877774   -8.5875761    55.636137  0.012878735  0.012564756           17 
  361000    0.7020558   -8.5871704    55.572206  0.012828302  0.012520981           16 
  362000   0.68695316   -8.5850914     55.63149  0.012806512  0.012477032            7 
  363000   0.67251188   -8.6131886     55.49793  0.012740572  0.012433381            2 
  364000   0.67928386   -8.5939815    55.645609  0.012739379  0.012389866            4 
  365000   0.69330276   -8.6124011    55.676802  0.012711599  0.012346409            5 
  366000   0.71682238   -8.5959905    55.607214  0.012661023  0.012303244            4 
  367000   0.66598355     -8.64282    55.592536  0.012623192  0.012260117            5 
  368000   0.69059271   -8.6260504    55.705475  0.012614464  0.012217085            7 
  369000    0.6882638    -8.639884    55.568821  0.012549417  0.012174088           10 
  370000   0.68168635   -8.6321553     55.60658  0.012524004   0.01213117           10 
  371000   0.69630703   -8.6189365    55.501772  0.012466705  0.012088359            9 
  372000   0.66516503   -8.6400537    55.655415  0.012467611   0.01204592            8 
  373000    0.6616229    -8.642818    55.571167  0.012415363  0.012003422           11 
  374000   0.66815692   -8.6660632    55.521203  0.012371035  0.011961062           10 
  375000   0.66872858   -8.6607135    55.527275  0.012339394  0.011918901           15 
  376000   0.67028635   -8.6688877    55.640013  0.012331563  0.011876904            8 
  377000   0.64806323     -8.65702    55.528657  0.012274239  0.011835147            9 
  378000   0.66024817   -8.6596724    55.594732  0.012256334  0.011793531            7 
  379000   0.66255856   -8.6714168    55.455369  0.012193353  0.011751924           12 
  380000   0.65804028    -8.655447    55.573888  0.012187256  0.011710357           14 
  381000   0.66599892   -8.6814831    55.567161  0.012153797  0.011669059            6 
  382000   0.65613685    -8.685428    55.460983  0.012098818  0.011627774            3 
  383000     0.668878   -8.6743832    55.529368  0.012082108   0.01158674            5 
  384000   0.64584567   -8.6864064    55.493997  0.012042968  0.011545849            3 
  385000   0.64489033   -8.6748739    55.553221  0.012024507  0.011505101            7 
  386000   0.65204688   -8.7014106    55.452289  0.011971565  0.011464371            6 
  387000   0.65635929   -8.6996751    55.520961  0.011955418  0.011423898            7 
  388000   0.64701342   -8.6900956    55.492566  0.011918506  0.011383508            7 
  389000   0.63407715   -8.6643357    55.495925  0.011888587  0.011343276            5 
  390000   0.63401218   -8.6987198    55.514709  0.011862117  0.011303044            3 
  391000   0.65032231   -8.6739364    55.478209     0.011824  0.011263108            2 
  392000   0.63076301   -8.7033451    55.404927  0.011778258  0.011223284            3 
  393000    0.6353731   -8.7100447    55.379293  0.011742853  0.011183531            5 
  394000   0.64453364   -8.7133876    55.398846  0.011717184  0.011143849            3 
  395000   0.63007714   -8.7039634    55.495891  0.011707994  0.011104404            4 
  396000    0.6401372   -8.7026184    55.452248  0.011669244  0.011065092            7 
  397000   0.63035558    -8.740525     55.39747  0.011628352  0.011025915            6 
  398000   0.65276351   -8.6962098    55.561901  0.011633564  0.010987093            5 
  399000   0.62823195    -8.733473    55.419203  0.011574604  0.010948357            9 
  400000   0.61982801    -8.733098    55.452668  0.011552639  0.010909512            7 
  401000   0.63253803   -8.7406849    55.331476  0.011498644  0.010870842            9 
  402000    0.6336801   -8.7362454    55.447133  0.011494016  0.010832294            4 
  403000   0.62488933   -8.7286108    55.384637  0.011452572  0.010793996            4 
  404000   0.62500445   -8.7434045    55.363113  0.011419784  0.010755849            5 
  405000   0.60532625   -8.7500893    55.374224  0.011393873  0.010717818            4 
  406000   0.61031478   -8.7365453    55.446097  0.011380562  0.010679961            4 
  407000   0.61727348   -8.7489027    55.418876  0.011347026  0.010642274            4 
  408000   0.61297131    -8.772123    55.462213  0.011328066  0.010604822            4 
  409000   0.60261437   -8.7610564    55.499142  0.011307894  0.010567556            7 
  410000   0.61379166   -8.7609055    55.467136  0.011273808  0.010530363            5 
  411000   0.61145694   -8.7505353     55.35534   0.01122371  0.010493311            6 
  412000   0.60319269    -8.772725    55.376377  0.011200724  0.010456352            9 
  413000   0.61115873   -8.7884859    55.326712  0.011163582  0.010419483            7 
  414000   0.60645712   -8.7706288    55.393962  0.011150153  0.010382711            6 
  415000   0.60232953   -8.7768207    55.394546  0.011123403  0.010346101            4 
  416000   0.60285443   -8.7890578    55.231068  0.011063916  0.010309725            4 
  417000   0.60521636   -8.7873535    55.309376  0.011053033  0.010273382            4 
  418000   0.62612213   -8.7960868    55.378556  0.011040382  0.010237283            6 
  419000   0.61057673   -8.8032214    55.253343  0.010989129  0.010201309            6 
  420000   0.59508451   -8.7989369    55.279992  0.010968252  0.010165526            7 
  421000   0.59283986    -8.798397    55.309894  0.010948118  0.010129802            6 
  422000    0.5886984   -8.8053018    55.284081  0.010917078  0.010094209            9 
  423000   0.58975401   -8.8211201    55.265741  0.010887656  0.010058808            5 
  424000   0.59117283   -8.7991834    55.310974  0.010870867  0.010023559            5 
  425000   0.58241838    -8.798722    55.265969  0.010836465 0.0099883819            4 
  426000   0.59013686    -8.817886    55.291536  0.010816028 0.0099534432            3 
  427000   0.60545942    -8.809706    55.237853  0.010780221 0.0099184913            6 
  428000   0.58911608   -8.8251467    55.269986   0.01076129 0.0098837521            2 
  429000   0.57931772   -8.8208065    55.233527  0.010729123 0.0098490766            4 
  430000   0.58482364   -8.8430249    55.242906   0.01070599 0.0098146495            4 
  431000    0.5762533   -8.8188405    55.400096  0.010711542 0.0097803415            5 
  432000   0.59125304   -8.8319681    55.170887  0.010642532    0.0097462            8 
  433000   0.57832313   -8.8431014    55.143152  0.010612616 0.0097121725            3 
  434000   0.57596404   -8.8041871    55.213103  0.010601594 0.0096782087            3 
  435000   0.57104851   -8.8523511    55.161794  0.010567393 0.0096444017            6 
  436000   0.58379513   -8.8659337    55.174693  0.010545622 0.0096107083            5 
  437000   0.57157897   -8.8567899    55.138807  0.010514647 0.0095771291            4 
  438000   0.58142124   -8.8623836    55.087648  0.010480907 0.0095436724            5 
  439000   0.56940454   -8.8616225    55.067201  0.010453151 0.0095102869            4 
  440000   0.56025184   -8.8509369    55.108581  0.010437231 0.0094770208            9 
  441000   0.56179133   -8.8658462    55.099219  0.010411795  0.009443888            5 
  442000   0.56592041   -8.8660979    55.181633  0.010403777 0.0094109713            5 
  443000   0.57147535   -8.8771298    55.104037  0.010365695 0.0093781685            4 
  444000   0.55585072   -8.8867544    55.083892  0.010338568 0.0093455335            4 
  445000    0.5545345   -8.8780273    55.064846  0.010311769 0.0093129638            6 
  446000   0.56471235   -8.8954629    55.082522  0.010291951 0.0092805494            9 
  447000   0.57119853   -8.8746549      55.0454  0.010262006   0.00924824            3 
  448000   0.55205275   -8.8787487    55.040232  0.010238138 0.0092160093            6 
  449000   0.54670712   -8.8849013    55.022921  0.010212123  0.009183858            5 
  450000   0.54458239   -8.8844792    55.046899   0.01019387 0.0091519456            3 
  451000   0.55041924   -8.8998983    54.974708  0.010157928  0.009120163            4 
  452000   0.54734161   -8.9051707    54.999867  0.010140094 0.0090884904            3 
  453000   0.54850102   -8.8930978    55.062299  0.010129194 0.0090569521            4 
  454000   0.55165346   -8.8959497    55.073046  0.010108856  0.009025559            2 
  455000   0.55270268   -8.8815262    55.001491  0.010073533 0.0089942931            3 
  456000    0.5361938   -8.8969153    54.935087  0.010039307 0.0089631112            2 
  457000    0.5440915   -8.9037171    55.033666  0.010035315 0.0089320297           10 
  458000   0.54301791   -8.9096492    54.942087 0.0099967406 0.0089011358            3 
  459000   0.53631618   -8.9102973    55.031582 0.0099912095 0.0088703718            2 
  460000    0.5388219   -8.9018005    55.089366 0.0099799576 0.0088397998            5 
  461000   0.53062889   -8.9195142    55.023589 0.0099464188 0.0088094213            6 
  462000   0.52002138   -8.9201321    54.930046  0.009908017 0.0087791547            6 
  463000   0.52569881   -8.9012769    54.999891 0.0098991883 0.0087489231            4 
  464000   0.52876736   -8.9202951    54.879314 0.0098561986 0.0087188185            7 
  465000    0.5312544   -8.9332879     55.02022 0.0098602546 0.0086888877            5 
  466000   0.52590263   -8.9358939    54.956729 0.0098277413 0.0086590879            5 
  467000   0.51763428   -8.9212464    54.915946 0.0097994193 0.0086294491            5 
  468000   0.51890558   -8.9232468    54.924745 0.0097800472 0.0085998805            5 
  469000   0.51448701   -8.9363433    54.978626  0.009768768  0.008570414           12 
  470000   0.52087427   -8.9367812    54.908983 0.0097356354 0.0085411368            4 
  471000   0.52522547   -8.9448259    54.849508 0.0097044423 0.0085119485            3 
  472000   0.51121918   -8.9442565    54.964686 0.0097042171 0.0084828538            4 
  473000   0.51533244   -8.9510584    54.908303 0.0096737672 0.0084539132            2 
  474000   0.51395004   -8.9470057    54.893198 0.0096507029 0.0084250607            3 
  475000   0.50644829   -8.9605076    54.902318 0.0096319857 0.0083964015            3 
  476000   0.51427068   -8.9511532    54.898182 0.0096110262 0.0083678256            4 
  477000    0.5104559    -8.968514     54.87999 0.0095876991 0.0083394334            4 
  478000   0.49385602   -8.9859099    54.838632  0.009560431 0.0083111244            4 
  479000    0.4977528   -8.9725023    54.964919 0.0095624425 0.0082829143            3 
  480000   0.50974733   -8.9722734    54.859645  0.009524244 0.0082549222            3 
  481000   0.48733697   -8.9789748    54.860345 0.0095045643 0.0082269029            7 
  482000   0.49936204   -8.9773678    54.948169 0.0095000293 0.0081990679            9 
  483000   0.49614617   -8.9775419    54.840381 0.0094617634 0.0081713319            5 
  484000   0.48304166   -8.9734199    54.834315 0.0094411699 0.0081437535            4 
  485000    0.4943696   -8.9830576    54.827008 0.0094204481 0.0081162456            8 
  486000   0.49272155   -8.9819889    54.751583 0.0093881315 0.0080888841            8 
  487000   0.49782877   -8.9784277    54.880331 0.0093908848 0.0080615988            8 
  488000   0.49231512    -8.988716    54.892625 0.0093737406  0.008034452            9 
  489000    0.5008809   -8.9861012     54.88553 0.0093533623 0.0080074532            4 
  490000   0.48582431   -8.9913066    54.770687 0.0093147428 0.0079805127            8 
  491000   0.48231999    -8.998089    54.792707  0.009299509 0.0079537244           10 
  492000   0.48600909   -8.9942458    54.751098   0.00927356 0.0079270121            4 
  493000   0.48702886   -8.9920833    54.703441 0.0092466939 0.0079003934            4 
  494000   0.48349241   -8.9942374    54.746794 0.0092352892 0.0078738546           15 
  495000   0.47938499   -9.0009963    54.804362 0.0092263235 0.0078474494            9 
  496000   0.48044234   -8.9997848    54.746757 0.0091980439 0.0078211648            9 
  497000    0.4719532   -9.0156408    54.750973 0.0091802437 0.0077949945            5 
  498000   0.48042397     -9.01364    54.739597 0.0091599057 0.0077689577            5 
  499000   0.46899509   -9.0124771    54.769013 0.0091464618 0.0077430556            5 
  500000   0.46990699   -9.0096406    54.654757 0.0091091261 0.0077172612            5 
  501000   0.47366133    -9.006687    54.798714 0.0091148893 0.0076915457            6 
  502000   0.47234072   -9.0176252    54.757577 0.0090899033 0.0076659099            7 
  503000   0.45617313   -9.0196224     54.80319 0.0090793887 0.0076404425            7 
  504000   0.46657361   -9.0330853     54.73704 0.0090504365 0.0076150718            4 
  505000   0.46323373    -9.035155    54.681692 0.0090233815 0.0075898023            9 
  506000   0.45448782   -9.0403036    54.648035 0.0090000058 0.0075645815            9 
  507000   0.46472752   -9.0280483    54.708055 0.0089921196 0.0075395377            8 
  508000   0.46228356    -9.044982    54.707841 0.0089743834 0.0075145643            7 
  509000   0.45704154    -9.033194     54.68311 0.0089527029 0.0074896908            8 
  510000   0.44779979   -9.0397039    54.662328  0.008931753 0.0074649277            6 
  511000   0.45878225   -9.0493403    54.680917 0.0089173054 0.0074402951            3 
  512000   0.44989698   -9.0407802    54.707026 0.0089041384 0.0074157842            4 
Loop time of 1251.31 on 48 procs for 500000 steps with 4000 atoms

Performance: 69047.485 tau/day, 399.580 timesteps/s
99.4% CPU use with 48 MPI tasks x no OpenMP threads

MPI task timing breakdown:
Section |  min time  |  avg time  |  max time  |%varavg| %total
---------------------------------------------------------------
Pair    | 83.093     | 88.965     | 93.69      |  27.6 |  7.11
Neigh   | 8.2474     | 8.6415     | 9.1408     |   5.7 |  0.69
Comm    | 79.812     | 85.614     | 93.086     |  34.4 |  6.84
Output  | 0.8429     | 0.84417    | 0.89062    |   0.7 |  0.07
Modify  | 1051.5     | 1055.2     | 1060.4     |   5.5 | 84.33
Other   |            | 12.04      |            |       |  0.96

Nlocal:        83.3333 ave          90 max          74 min
Histogram: 1 2 1 3 3 17 10 5 3 3
Nghost:        2229.19 ave        2244 max        2213 min
Histogram: 2 6 4 5 6 5 5 3 9 3
Neighs:        14901.9 ave       16315 max       13171 min
Histogram: 1 1 3 10 6 6 8 8 2 3
FullNghs:      29803.9 ave       32258 max       26582 min
Histogram: 1 2 1 3 8 14 8 6 2 3

Total # of neighbors = 1430589
Ave neighs/atom = 357.64725
Neighbor list builds = 26704
Dangerous builds = 0

#clear
#
#next RN
#
#jump SELF
Total wall time: 0:20:54
