
units lj                  # Use reduced LJ style units
atom_style atomic         # Uncharged point particles
atom_modify map hash      # Needed for indexing of clusters etc
                          # Used to be able to find where atoms are in relation to each other.

lattice fcc 1.0 spacing 1 1 1
Lattice spacing in x,y,z = 1.5874011 1.5874011 1.5874011
region box block 0 10 0 10 0 10 units lattice
create_box 2 box
Created orthogonal box = (0.0000000 0.0000000 0.0000000) to (15.874011 15.874011 15.874011)
  3 by 4 by 4 MPI processor grid
create_atoms 1 box
Created 4000 atoms
  using lattice units in orthogonal box = (0.0000000 0.0000000 0.0000000) to (15.874011 15.874011 15.874011)
  create_atoms CPU = 0.002 seconds
set type 1 type/fraction 2 0.35 78393
Setting atom values ...
  1418 settings made for type/fraction
mass 1 1.0
mass 2 1.0
pair_style lj/cut  3.5
pair_modify tail  yes
pair_coeff 1  1  1.0  1.0   # Intearaction between 1 and 1 set with epsilon = 1 and sigma = 1
pair_coeff 1  2  1.5  0.8
pair_coeff 2  2  0.5  0.88

write_data data.0
System init for write_data ...
Neighbor list info ...
  update every 1 steps, delay 10 steps, check yes
  max neighbors/atom: 2000, page size: 100000
  master list distance cutoff = 3.8
  ghost atom cutoff = 3.8
  binsize = 1.9, bins = 9 9 9
  1 neighbor lists, perpetual/occasional/extra = 1 0 0
  (1) pair lj/cut, perpetual
      attributes: half, newton on
      pair build: half/bin/atomonly/newton
      stencil: half/bin/3d
      bin: standard
WARNING: Not all mixed pair coeffs generated from mixing. Use write_data with 'pair ij' option to store all pair coeffs. (../write_data.cpp:312)


#############################
#   M E L T   S Y S T E M   #
#############################

velocity all create 2.4 5300450 mom yes dist gaussian # Assign velocities
                                                    # Temperature 2.4, random number seed, zero linear momentum
                                                                                # Gaussian distribution

timestep 0.002   # simulation timestep
thermo 1000       # output thermodynamic data every 1000 steps bf 100

# Define a fix  in this case with index 1 applied to all
# particles in the simulation. This fix is for simulations
# in the anisotropic NPT ensemble. Note that we use the MTK
# correction.
fix 1 all npt temp 2.4 2.4 0.1 iso 5.68 5.68 0.5 mtk yes tchain 5 pchain 5 # Use NPT ensemble
                                                                         # Set temperature and pressure and damping
                                                                         # Numbers of thermostats in chain and in barostat
run 10000          # run for 10000 steps
Per MPI rank memory allocation (min/avg/max) = 3.642 | 3.644 | 3.648 Mbytes
Step Temp E_pair E_mol TotEng Press Volume 
       0          2.4   -6.1483103            0   -2.5492103   -4.0910289         4000 
    1000    2.4171082     -4.94034            0   -1.3155842    5.9822032    4036.9422 
    2000    2.4315678   -5.0307812            0   -1.3843413    6.0028897    3988.7801 
    3000     2.374734   -5.0690533            0   -1.5078428    5.7833632    3982.4621 
    4000    2.4094625   -5.0243086            0   -1.4110183    5.4115369    4040.7366 
    5000    2.4129149   -4.9872571            0   -1.3687895    5.7118417     4036.743 
    6000    2.3894011   -4.9906538            0   -1.4074482    5.4709683    4042.9916 
    7000    2.4408783   -5.0037877            0   -1.3433856    5.7516838    4032.8516 
    8000     2.403747    -5.058744            0   -1.4540249    5.7909305    3991.0682 
    9000    2.3857604   -5.1052436            0   -1.5274977    5.6797506     3977.504 
   10000    2.4323919   -5.0184067            0    -1.370731     5.705923    4026.3176 
Loop time of 2.47505 on 48 procs for 10000 steps with 4000 atoms

Performance: 698167.603 tau/day, 4040.322 timesteps/s
99.6% CPU use with 48 MPI tasks x no OpenMP threads

MPI task timing breakdown:
Section |  min time  |  avg time  |  max time  |%varavg| %total
---------------------------------------------------------------
Pair    | 1.0804     | 1.1493     | 1.1976     |   2.5 | 46.43
Neigh   | 0.20672    | 0.21361    | 0.22511    |   0.9 |  8.63
Comm    | 0.80312    | 0.86097    | 0.92414    |   3.1 | 34.79
Output  | 0.00025617 | 0.00026783 | 0.00032854 |   0.0 |  0.01
Modify  | 0.2176     | 0.23556    | 0.26746    |   2.6 |  9.52
Other   |            | 0.01538    |            |       |  0.62

Nlocal:        83.3333 ave          92 max          74 min
Histogram: 1 2 2 10 8 6 10 4 3 2
Nghost:        1632.81 ave        1659 max        1612 min
Histogram: 6 2 5 11 3 5 7 6 1 2
Neighs:        9467.21 ave       10856 max        8036 min
Histogram: 1 1 4 9 7 12 7 5 0 2

Total # of neighbors = 454426
Ave neighs/atom = 113.60650
Neighbor list builds = 903
Dangerous builds = 195

# Equilibrate just above the melting temperature to avoid step fn in T

fix 1 all npt temp 1.25 1.25 0.1 iso 5.68 5.68 0.5 mtk yes tchain 5 pchain 5
run 2000
Per MPI rank memory allocation (min/avg/max) = 3.643 | 3.645 | 3.649 Mbytes
Step Temp E_pair E_mol TotEng Press Volume 
   10000    2.4323919   -5.0184067            0    -1.370731     5.705923    4026.3176 
   11000    1.2640563   -6.9849803            0   -5.0893699    5.7365205    3202.9544 
   12000    1.2686195   -7.0311603            0   -5.1287068    5.8010583     3190.751 
Loop time of 0.588679 on 48 procs for 2000 steps with 4000 atoms

Performance: 587076.767 tau/day, 3397.435 timesteps/s
99.7% CPU use with 48 MPI tasks x no OpenMP threads

MPI task timing breakdown:
Section |  min time  |  avg time  |  max time  |%varavg| %total
---------------------------------------------------------------
Pair    | 0.26417    | 0.28511    | 0.30824    |   1.8 | 48.43
Neigh   | 0.038887   | 0.040842   | 0.0436     |   0.5 |  6.94
Comm    | 0.19133    | 0.21231    | 0.23483    |   2.2 | 36.07
Output  | 5.4992e-05 | 5.6142e-05 | 7.1963e-05 |   0.0 |  0.01
Modify  | 0.040735   | 0.045553   | 0.049813   |   1.2 |  7.74
Other   |            | 0.004801   |            |       |  0.82

Nlocal:        83.3333 ave          95 max          75 min
Histogram: 3 3 3 10 9 13 4 0 2 1
Nghost:        1911.71 ave        1936 max        1883 min
Histogram: 2 2 6 7 3 3 13 5 3 4
Neighs:        11984.4 ave       13454 max       10004 min
Histogram: 2 0 2 5 6 10 11 7 2 3

Total # of neighbors = 575253
Ave neighs/atom = 143.81325
Neighbor list builds = 143
Dangerous builds = 8

#############################
# L I N E A R  Q U E N C H  #
#############################

# Define solid atoms. This closely follows ten Wolde  Ruiz-Montero and Frenkel  Faraday Discuss  1996  104  93-110
# Compute components of the per-atom q6 vector
compute q6 all orientorder/atom degrees 1 6 components 6 nnn NULL cutoff 1.3 # compute the Q6 parameter.
                                                                             # Use all neighbours within 1.3 unit cell.

# get number of connections
compute coord_number all coord/atom orientorder q6 0.5

# An atom is solid if it has 8 or more connections (of a possible 14)
variable is_solid atom c_coord_number>=8
group solid dynamic all var is_solid    # Must be dynamic to update
dynamic group solid defined

# do clustering
compute cluster solid cluster/atom 1.3 # Create a cluster where all atoms within are solid and max 1.3 units from another member

# define chunks one chunk per cluster
compute clus_chunks solid chunk/atom c_cluster nchunk every compress yes  # Says which atoms are in which chunk

# count the size of each chunk
compute size_chunks solid property/chunk clus_chunks count


# Find the maximum entry in the vector of chunk sizes
variable max_n equal max(c_size_chunks)


# Thermo style which includes this variable
# thermo_style custom step temp pe vol v_max_n

thermo ${N}  # Print the thermo information every 100 steps
thermo 1000  

# Reset the npt fix at a lower temperature (below freezing)
fix 1  all npt temp  ${temp} ${temp}  0.1  iso  5.68  5.68  0.5  mtk yes tchain  5  pchain  5
fix 1  all npt temp  0.45 ${temp}  0.1  iso  5.68  5.68  0.5  mtk yes tchain  5  pchain  5
fix 1  all npt temp  0.45 0.45  0.1  iso  5.68  5.68  0.5  mtk yes tchain  5  pchain  5

dump dmp2 all dcd ${N} traj.dcd
dump dmp2 all dcd 1000 traj.dcd


compute msd all msd com yes
variable twopoint equal c_msd[4]/6/(step*dt+1.0e-6)
fix 9 all vector 10 c_msd[4]
variable fit equal slope(f_9)/6/(10*dt)
thermo_style custom step temp pe c_msd[4] v_twopoint v_fit v_max_n

fix 1 all npt temp 1.25 ${temp} 0.1 iso 5.68 5.68 0.5 mtk yes tchain 5 pchain 5
fix 1 all npt temp 1.25 0.45 0.1 iso 5.68 5.68 0.5 mtk yes tchain 5 pchain 5
run 500000 # 5000000  # Run for this many steps
Neighbor list info ...
  update every 1 steps, delay 10 steps, check yes
  max neighbors/atom: 2000, page size: 100000
  master list distance cutoff = 3.8
  ghost atom cutoff = 3.8
  binsize = 1.9, bins = 8 8 8
  4 neighbor lists, perpetual/occasional/extra = 1 3 0
  (1) pair lj/cut, perpetual
      attributes: half, newton on
      pair build: half/bin/atomonly/newton
      stencil: half/bin/3d
      bin: standard
  (2) compute orientorder/atom, occasional
      attributes: full, newton on
      pair build: full/bin/atomonly
      stencil: full/bin/3d
      bin: standard
  (3) compute coord/atom, occasional
      attributes: full, newton on
      pair build: full/bin/atomonly
      stencil: full/bin/3d
      bin: standard
  (4) compute cluster/atom, occasional
      attributes: full, newton on
      pair build: full/bin/atomonly
      stencil: full/bin/3d
      bin: standard
Per MPI rank memory allocation (min/avg/max) = 9.817 | 9.823 | 9.829 Mbytes
Step Temp PotEng c_msd[4] v_twopoint v_fit v_max_n 
   12000    1.2686195   -7.0311603            0            0 8.3333333e+20            2 
   13000    1.2584114    -6.993107   0.50647125 0.0032466104  0.040959281            2 
   14000    1.2645904   -7.0146585   0.96980979 0.0057726771  0.040511175            1 
   15000    1.2446653   -7.0289881     1.404184  0.007801022  0.038733963            3 
   16000     1.244698   -7.0426712    1.8513808  0.009642608  0.038056328            3 
   17000    1.2659492   -7.0119083     2.275973   0.01115673  0.037617157            1 
   18000     1.227655   -7.0302583    2.7612518  0.012783573  0.037383945            2 
   19000    1.2424311   -7.0407452    3.2219193  0.014131225   0.03777492            2 
   20000    1.2345979    -7.019407      3.62923  0.015121791  0.037516858            1 
   21000    1.2236191     -7.02709    3.9836126  0.015807986  0.037119507            1 
   22000    1.2516476   -7.0418208    4.4205522  0.016744515  0.036732339            2 
   23000     1.244248   -7.0455404    4.8444264  0.017552269  0.036467325            1 
   24000    1.2361503   -7.0725351    5.2386105  0.018189619  0.036309873            2 
   25000    1.2459008   -7.0509805    5.7506544  0.019168848  0.036182513            2 
   26000    1.2458926   -7.0624181    6.2844217  0.020142377  0.036303158            1 
   27000    1.2402932   -7.1018564    6.7274557  0.020763752  0.036508945            1 
   28000    1.2352324   -7.0378883    7.2232543   0.02149778  0.036673068            2 
   29000     1.240275   -7.0503067    7.5098239  0.021579953  0.036717445            1 
   30000    1.1976291   -7.0970958    7.8914173  0.021920603   0.03660725            2 
   31000    1.2283695    -7.064652    8.2969883  0.022303732  0.036431967            2 
   32000    1.2153453   -7.0898332    8.7274508  0.022727736  0.036250884            3 
   33000    1.2041129   -7.0653968    9.1540173  0.023116205  0.036210983            1 
   34000    1.2080505   -7.0798794    9.5483344   0.02340278  0.036126274            1 
   35000    1.2141489   -7.0887866    9.8797563  0.023523229  0.035992937       -1e+20 
   36000    1.2461516   -7.0920538    10.369201   0.02400278  0.035843487            1 
   37000    1.1659854   -7.1030681    10.823079  0.024376304  0.035780118            1 
   38000    1.2079492   -7.1025068    11.144698  0.024440128  0.035681478            1 
   39000    1.2022115   -7.0981182    11.542299  0.024663031  0.035580242            1 
   40000    1.2026037   -7.0922619      12.0473  0.025098541  0.035479856            1 
   41000    1.2072011   -7.0826881     12.49914  0.025404757  0.035452021            3 
   42000    1.1866232   -7.1219282    12.928343  0.025651473  0.035444879            1 
   43000    1.2169289   -7.1466729    13.310064  0.025794697  0.035432475            1 
   44000    1.1698432   -7.1421255    13.829724  0.026192658  0.035429793            2 
   45000    1.1643143   -7.1398888    14.355051  0.026583428  0.035460286            1 
   46000    1.1710081   -7.1303844    14.648114  0.026536438  0.035473555            1 
   47000    1.1737097   -7.1245679    15.046279  0.026677799  0.035456257            1 
   48000    1.1860872   -7.1353019    15.461802  0.026843405  0.035442898            1 
   49000    1.1928667   -7.1282736    15.823674   0.02691101  0.035429281            3 
   50000    1.1941783   -7.1420033    16.185121  0.026975201  0.035404136            1 
   51000    1.1981193    -7.125824    16.570789  0.027076452  0.035371443            1 
   52000    1.2060803   -7.1910166    16.969236  0.027194288  0.035329466            1 
   53000    1.1659905    -7.165364    17.285508  0.027178471  0.035265062            1 
   54000    1.1604951   -7.2055994    17.587287  0.027140874  0.035175065            6 
   55000    1.1671836   -7.1894514    17.957577  0.027208449   0.03506498            3 
   56000    1.1802614   -7.1509506    18.486547  0.027509742  0.034989746            1 
   57000    1.1984623   -7.1580697    18.696266  0.027333722  0.034895746            1 
   58000    1.2096378   -7.1589245     19.02853  0.027339842  0.034795345       -1e+20 
   59000    1.1501629   -7.2067346    19.307382  0.027270314  0.034667933            2 
   60000      1.18884   -7.2001396    19.698389  0.027358873  0.034543994            3 
   61000    1.1875634   -7.1846527    20.110802  0.027473773  0.034432136            2 
   62000    1.1773958   -7.2041974     20.46133  0.027501787   0.03432919            1 
   63000    1.1717293   -7.1620909    20.899213  0.027644461  0.034225123            2 
   64000    1.1669327   -7.2188694     21.10187  0.027476393   0.03412158            1 
   65000     1.172973   -7.1912289    21.636149  0.027738653  0.034022981            4 
   66000    1.1670732    -7.153925    21.933441  0.027693739  0.033938912            3 
   67000    1.1760448   -7.1424439     22.37021  0.027823644  0.033864218            2 
   68000    1.1646315   -7.2454488    22.648985  0.027756109  0.033796089            2 
   69000    1.1827907    -7.254266    23.017057  0.027798377  0.033717399            1 
   70000    1.1686636   -7.2076969    23.459751  0.027928274  0.033646503            1 
   71000    1.1573726   -7.2230352    23.746913  0.027871964  0.033567335            2 
   72000    1.1540888   -7.1932487    24.083315  0.027874206  0.033486003            3 
   73000    1.1410374   -7.2549342    24.369366  0.027818911  0.033396999            1 
   74000    1.1585236   -7.2127897    24.845917  0.027979636  0.033307018            1 
   75000    1.1559155   -7.1886374    25.302695  0.028114105  0.033235052            2 
   76000     1.164347   -7.2112291    25.656984  0.028132657  0.033175573            2 
   77000    1.1772962   -7.2212246    25.957541  0.028092576  0.033116679            1 
   78000    1.1476126   -7.2228762     26.37206  0.028175278  0.033053092            3 
   79000    1.1348068   -7.2747105    26.560549  0.028017456  0.032988975            4 
   80000    1.1038295   -7.2557848    26.941266  0.028063818  0.032920765            1 
   81000    1.1284306   -7.2341258    27.348675  0.028136497  0.032850066            2 
   82000    1.1407042    -7.278452     27.57544  0.028023821   0.03277808            2 
   83000    1.1273006   -7.2477774    27.972548  0.028084888  0.032715131            1 
   84000    1.1430161   -7.2553879    28.310976  0.028086286  0.032649901            2 
   85000    1.1182107   -7.2828084     28.43522  0.027877667  0.032573646            2 
   86000    1.1353808   -7.2918575    28.732436  0.027841508  0.032487237            2 
   87000    1.1118946   -7.3091089    28.801162   0.02758732  0.032394123            4 
   88000    1.1299911   -7.2795208    29.376138  0.027818312   0.03229816            1 
   89000    1.1133781   -7.2718275    29.687941  0.027797698  0.032212867            1 
   90000    1.1294228   -7.2643161    29.862501  0.027650463  0.032124826            2 
   91000    1.1302877   -7.2724122    30.262376  0.027712799  0.032032423            3 
   92000    1.1220148    -7.302193     30.57797  0.027697437  0.031939958            3 
   93000    1.1507088   -7.3076547    30.891727  0.027680759  0.031851157            2 
   94000    1.1196229   -7.2783845    31.215735  0.027673524  0.031767632            2 
   95000    1.1222583   -7.3212793    31.713607  0.027818953  0.031694196            2 
   96000     1.133342   -7.3331086    31.751824  0.027562347  0.031617555            2 
   97000    1.1231829   -7.3093139    32.011261  0.027501083  0.031528134            2 
   98000    1.0939753   -7.3148473    32.264533  0.027435828  0.031437746            1 
   99000    1.0975265   -7.2564395    32.590151  0.027432787  0.031346094            1 
  100000    1.1053587   -7.3026822    32.741059  0.027284216  0.031255438            1 
  101000    1.1096299    -7.308713    33.094362  0.027305579  0.031161557            2 
  102000    1.1000141   -7.3162909    33.538884  0.027401049  0.031073875            2 
  103000    1.1031671   -7.3417214    33.648698  0.027223866  0.030988119            4 
  104000    1.0768585   -7.3339257    33.921692  0.027180843   0.03089453            3 
  105000    1.0891454   -7.3450104    34.226084  0.027163559  0.030802743            2 
  106000    1.0996703   -7.3525235    34.539649  0.027153812    0.0307122            2 
  107000    1.0863985   -7.2733396    34.988149  0.027249337  0.030630205            1 
  108000    1.0867537   -7.4091251     35.19639  0.027157709   0.03054833            2 
  109000    1.0995542   -7.3451311     35.50936  0.027147828  0.030471458            2 
  110000    1.0806532   -7.3365808    36.039394  0.027302571  0.030401219            2 
  111000    1.1148316   -7.3485168    36.201385  0.027178217  0.030332328            6 
  112000    1.0935682   -7.3940372    36.315689  0.027020602  0.030257962            1 
  113000    1.1044059   -7.3662773    36.633187  0.027015624  0.030181976            1 
  114000    1.0791328   -7.3493844    36.978101  0.027030775  0.030104806            3 
  115000    1.1003337   -7.3999208    37.135423  0.026909726  0.030026883            1 
  116000    1.0751013   -7.3713721     37.43652  0.026894052  0.029949339            6 
  117000    1.0687783   -7.4210632    37.554396  0.026748145  0.029868086            4 
  118000    1.0735744   -7.4232353     37.78245  0.026682521  0.029783909            1 
  119000     1.074095   -7.3726414    38.248638   0.02678476  0.029701764            2 
  120000    1.0734995   -7.3881426    38.396771  0.026664424  0.029625085            1 
  121000    1.0931369    -7.405213    38.694757  0.026649282  0.029547795            1 
  122000    1.0654139    -7.404174    38.926191  0.026588928  0.029470898            2 
  123000    1.0513786   -7.4082725    39.201077  0.026558995  0.029391616            1 
  124000    1.0640223   -7.4190076    39.370391  0.026458596  0.029311832            1 
  125000    1.0788436   -7.3856364    39.603302  0.026402201   0.02923115            1 
  126000    1.0708326    -7.374349    39.932116   0.02641013  0.029150786            3 
  127000    1.0549823   -7.3669545    40.160387   0.02635196  0.029072126            2 
  128000    1.0837497   -7.4530677    40.256233  0.026208485  0.028991481            2 
  129000    1.0686633   -7.4411821    40.345059  0.026062699  0.028905886            1 
  130000    1.0428856   -7.4307374    40.576245  0.026010414  0.028817883            3 
  131000    1.0790791     -7.41813    40.625839  0.025843409  0.028727871            1 
  132000    1.0664649   -7.4735545    40.936595   0.02584381  0.028635932            3 
  133000    1.0653067   -7.4049529    41.239025  0.025838988  0.028543596            1 
  134000    1.0407244   -7.4266941    41.274806  0.025668412  0.028453769            2 
  135000     1.035788   -7.4290321     41.79542  0.025799642  0.028365284            3 
  136000    1.0534861   -7.4257475    42.069844   0.02577809  0.028276236            1 
  137000    1.0430988   -7.4762369    42.015263  0.025556729  0.028190525            1 
  138000    1.0552746   -7.4519683     42.10445  0.025425393  0.028100012            2 
  139000    1.0530077   -7.5022775    42.392318  0.025415059  0.028008453            2 
  140000    1.0589423   -7.4230798    42.629533  0.025374722  0.027917176            1 
  141000    1.0461847   -7.5238224    42.421146  0.025071599  0.027823556            2 
  142000    1.0738017   -7.4216456    43.110017  0.025299305  0.027728167            1 
  143000    1.0309733   -7.4572984     43.34805  0.025261102  0.027639712            2 
  144000    1.0603198   -7.4821181    43.360874  0.025093098  0.027549982            3 
  145000    1.0343575   -7.5044871    43.856404   0.02520483   0.02746114            2 
  146000    1.0298761   -7.5000972    43.975732  0.025100304  0.027377703            2 
  147000    1.0341738   -7.4716149    44.278741  0.025101327  0.027294925            4 
  148000    1.0487574   -7.5018161    44.481647  0.025045972  0.027214735            3 
  149000    1.0273305   -7.5228262    44.722892  0.025012803  0.027135714            3 
  150000    1.0518927   -7.5105831    44.895103  0.024941724  0.027055416            1 
  151000    1.0189684    -7.535979     44.92556  0.024793355  0.026974819            1 
  152000    1.0133662   -7.4574311    45.669678  0.025038201  0.026896759            2 
  153000   0.99265531   -7.5173756    45.692196  0.024886817  0.026823174            2 
  154000    1.0463008   -7.5294386    45.879227  0.024826421  0.026748813            1 
  155000    1.0306132   -7.5064382    46.087696  0.024778331  0.026672821            1 
  156000    1.0160348   -7.5293096    46.276044  0.024720109  0.026600452            2 
  157000    1.0089614   -7.5543639    46.487737   0.02467502  0.026525609            1 
  158000    1.0036336   -7.5389742    46.636065  0.024597081  0.026452101            1 
  159000    1.0237641   -7.5740035    46.764747  0.024509825   0.02637851            2 
  160000   0.99476228   -7.5617828    47.222301  0.024594948    0.0263062            1 
  161000    1.0233703   -7.5566153    47.156351  0.024408049  0.026232196            2 
  162000    1.0130675   -7.5420182    47.448775  0.024407806  0.026158685            1 
  163000    1.0020469   -7.5103786    47.656999  0.024364519   0.02608499            4 
  164000    1.0196443   -7.5548433    47.996295  0.024388361  0.026012147            1 
  165000    1.0404364   -7.5523729    48.096237  0.024291029  0.025940166            2 
  166000   0.98753871   -7.5788831    48.305722   0.02424986  0.025869474            2 
  167000    1.0028614   -7.6023486    48.511107  0.024207139   0.02579941            1 
  168000     1.003945    -7.604523    48.641986  0.024127969  0.025729305            2 
  169000   0.98654348   -7.5432705    48.983979  0.024153836  0.025660217            5 
  170000   0.99909906   -7.5672462    49.172603  0.024104217  0.025591541            2 
  171000    0.9804287   -7.5611751    49.308389  0.024029429  0.025522794            2 
  172000   0.98905313   -7.5776003    49.424575  0.023946015  0.025454923            2 
  173000   0.97684999   -7.5828681    49.624252  0.023903782  0.025389606            1 
  174000   0.97436268   -7.5763749    49.779724  0.023840864  0.025322119            1 
  175000    1.0157477   -7.5927194    50.056289  0.023836328  0.025256045            1 
  176000   0.96506641   -7.6242554    50.267352   0.02380083  0.025189683            2 
  177000   0.99055056   -7.5826722    50.564329  0.023806181  0.025123048            5 
  178000   0.99020444    -7.603961    50.600925  0.023689572  0.025057604            1 
  179000   0.96427014   -7.6059645     50.83724  0.023667244  0.024992186            1 
  180000   0.96825023   -7.6086254    50.978453  0.023601136  0.024927676            2 
  181000   0.97396428   -7.6520217    51.184247  0.023565491  0.024862525            3 
  182000   0.96258849   -7.6047484    51.387467   0.02352906  0.024798316            1 
  183000   0.96280818   -7.6441335    51.549587  0.023474311     0.024733            1 
  184000     0.970796   -7.6249617     51.71903  0.023423473   0.02466734            4 
  185000   0.96180642   -7.6592819    51.678601  0.023278649  0.024601579            3 
  186000    0.9621734   -7.6445459    51.918065  0.023260782  0.024535364            1 
  187000   0.97346386   -7.6774209    51.924163   0.02313911   0.02446984            2 
  188000   0.94995204   -7.7198115     52.06124  0.023076791  0.024402825            1 
  189000   0.96588045   -7.6782748     52.52461  0.023158999  0.024336757            1 
  190000   0.93937894   -7.6872354    52.712442  0.023119492  0.024273498            4 
  191000   0.95875477   -7.6577695    53.044897  0.023143498  0.024211746            1 
  192000   0.97261171   -7.6451978     53.11089  0.023051601  0.024150431            1 
  193000   0.95897423   -7.6610462     53.14327  0.022946144  0.024087861       -1e+20 
  194000   0.96850188   -7.6528421    53.375953  0.022927815  0.024025518            1 
  195000   0.95338813   -7.6993005    53.461517  0.022846802  0.023962841            1 
  196000   0.96582139    -7.695984    53.640119  0.022806173  0.023900281            2 
  197000   0.97280816   -7.6795348    53.993182  0.022839756  0.023837423            2 
  198000   0.94873002   -7.6738908    53.999539  0.022727079  0.023774961            1 
  199000   0.92255434   -7.6880406    54.127129  0.022666302  0.023711675            1 
  200000     0.958927   -7.7239584    54.067549  0.022528146  0.023647702            2 
  201000   0.93239294   -7.7160672    54.276995    0.0225029  0.023584752            1 
  202000   0.91880246   -7.7262791    54.347161  0.022420446  0.023520228            1 
  203000   0.94652957   -7.6894145    54.625009  0.022424059  0.023455299            1 
  204000   0.94163984   -7.7037689    54.855408  0.022408255  0.023392465            2 
  205000   0.96866486   -7.7100448    54.963359  0.022342829  0.023329098            1 
  206000   0.92914162   -7.7124137    55.180367  0.022322155  0.023267346            2 
  207000   0.92860113   -7.7658426    55.230589  0.022234537  0.023205761            2 
  208000   0.92268067    -7.744574    55.452343  0.022216484  0.023143904            1 
  209000    0.9244305   -7.7442646    55.493031  0.022126408  0.023081605            2 
  210000   0.93083715   -7.7154974    55.844715  0.022160601  0.023019721            1 
  211000      0.89842   -7.7605312    55.814448  0.022043621  0.022958078            2 
  212000   0.93289612   -7.7544881    56.095683   0.02205019  0.022896194            2 
  213000   0.92951396   -7.7647964    56.080717  0.021940813   0.02283587            1 
  214000   0.91724761    -7.765457    56.234171  0.021898042  0.022775327            2 
  215000   0.92583403   -7.7850382    56.396752  0.021859206  0.022713865            1 
  216000   0.92827735   -7.7649422    56.476185  0.021788652  0.022652433            4 
  217000   0.92338132   -7.7789579    56.598049  0.021735042  0.022590803            2 
  218000   0.92165991   -7.7395252    56.536583  0.021611844  0.022529422            2 
  219000   0.93141948   -7.8092489    56.511973  0.021503795  0.022466131            3 
  220000   0.92127713   -7.7874629    56.790123   0.02151141  0.022402592            2 
  221000   0.92133672   -7.8018204    56.925119  0.021464977  0.022340136            2 
  222000   0.92360364    -7.788703    57.133507  0.021446511   0.02227734            2 
  223000   0.91517637   -7.8160309    57.029009  0.021311289  0.022214383            1 
  224000   0.91074391   -7.8284344    57.195467  0.021278075  0.022151228            2 
  225000   0.90325898   -7.8041403    57.397678  0.021258399  0.022088381            2 
  226000   0.89830308    -7.810342     57.55363   0.02122184  0.022026676            2 
  227000   0.90044818   -7.8043259    57.683846  0.021176155  0.021965632            2 
  228000   0.91810919   -7.8034462    57.930422    0.0211734  0.021904752            2 
  229000   0.90765528   -7.8144973    58.027429   0.02111624   0.02184388            2 
  230000   0.91862692   -7.7927805    57.989914  0.021010838  0.021783088            1 
  231000   0.89471534   -7.8446291    58.338155   0.02104551  0.021723028            1 
  232000   0.90335801   -7.8061109    58.244792  0.020921262  0.021662996            5 
  233000   0.90891905    -7.861724    58.431676   0.02089831  0.021603276            4 
  234000   0.91662348   -7.8374671    58.522644  0.020841397  0.021543623            2 
  235000   0.89321481   -7.8662657    58.584824   0.02077476   0.02148343            2 
  236000   0.91351599   -7.8571444    58.872086  0.020788166  0.021423995            2 
  237000   0.88965492   -7.8463175    58.940511  0.020724512  0.021365043            3 
  238000   0.86893874   -7.8718154    58.877891  0.020615508  0.021305299            1 
  239000   0.89417264   -7.8437044    58.911047  0.020540811  0.021244229            2 
  240000   0.87269512    -7.857758    58.985853  0.020481199  0.021182791            3 
  241000   0.88526543   -7.8380075    59.185989  0.020465418  0.021121518            1 
  242000   0.88766775   -7.8617323    59.224727   0.02039419  0.021060744            3 
  243000   0.88841242   -7.8691017    59.319253  0.020342679   0.02100058            1 
  244000   0.86578449   -7.8765677     59.37698  0.020279023  0.020940536            2 
  245000   0.85888979   -7.8638352    59.679623  0.020299191  0.020879852            1 
  246000   0.87622819    -7.916954    59.527711  0.020165214  0.020819764            2 
  247000   0.86919841   -7.9034312    59.591459  0.020105081  0.020759482            3 
  248000   0.88427528   -7.8900535    59.700566  0.020060674   0.02069859            2 
  249000   0.90334617   -7.8909151    59.750832  0.019996932   0.02063766            4 
  250000   0.87004249   -7.9209131    59.841718  0.019947239  0.020576656            2 
  251000   0.86264567   -7.9161328    59.868354  0.019876611  0.020514932            4 
  252000   0.86703205   -7.9547003    59.866646  0.019797171  0.020453312            1 
  253000   0.87906313   -7.9516417    59.894915  0.019728233  0.020392083            3 
  254000   0.86734327   -7.9281949    60.089961  0.019714554  0.020331003            3 
  255000   0.86233491   -7.8803235    60.302781  0.019706791  0.020270559            2 
  256000   0.85945194   -7.9399918    60.188872  0.019592732  0.020210101            1 
  257000   0.83854376   -7.9204605    60.354758  0.019570285  0.020149836            1 
  258000   0.85374614   -7.8955536    60.415912  0.019514184  0.020088377            2 
  259000    0.8432968   -7.8993315    60.486314  0.019461491  0.020027686            3 
  260000   0.84766604   -7.9206133    60.582552  0.019417485  0.019967242            3 
  261000   0.86934938    -7.911893    60.692152  0.019378082   0.01990721            1 
  262000   0.86099264   -7.9371548    60.716724  0.019311935  0.019847962            3 
  263000    0.8534094   -7.9422184    60.748967  0.019248722  0.019788201            1 
  264000   0.85156035   -7.9378342    60.952222  0.019239969  0.019728681            2 
  265000   0.82133646   -7.9474817    60.968101  0.019172359   0.01966957            3 
  266000   0.84200329   -7.9754135    60.881123  0.019073033  0.019609912            4 
  267000    0.8384577   -7.9446132    61.039016  0.019050879   0.01955031            2 
  268000   0.84062676   -7.9474461    61.244391  0.019043654  0.019490823            2 
  269000   0.83584392    -7.961432    61.162276  0.018947421    0.0194312            2 
  270000   0.83038504   -7.9732534    61.174876  0.018881135  0.019371494            2 
  271000   0.84479012   -8.0033669    61.216947  0.018824399  0.019311768            4 
  272000    0.8324363   -7.9915564    61.283981   0.01877573  0.019252134            3 
  273000   0.82836425   -8.0003286    61.554627  0.018789569  0.019193328            1 
  274000   0.83512157   -8.0064429    61.466083  0.018694064  0.019134555            2 
  275000   0.84593464   -7.9794746    61.558741  0.018654164  0.019075864            3 
  276000    0.8125375   -7.9657173    61.563391   0.01858798  0.019017153            2 
  277000   0.82386319   -7.9797427    61.618181  0.018537359  0.018958186            2 
  278000   0.83738142   -8.0108398    61.760307  0.018513281  0.018899455            3 
  279000   0.83313949   -8.0175084    61.663316  0.018417956  0.018840567            3 
  280000   0.81542927   -8.0452524    61.749257  0.018377755  0.018781929            4 
  281000   0.80856538   -8.0274667    61.628948  0.018276675  0.018723049            2 
  282000   0.81263165   -8.0499266    61.723778  0.018239887  0.018663804            2 
  283000   0.80768657   -8.0437547    61.727156   0.01817643  0.018604011            2 
  284000   0.80585138   -8.0614889    61.727141  0.018112424  0.018544123            4 
  285000    0.8328752    -8.047197    61.766862  0.018060486  0.018484533            2 
  286000   0.81376459   -8.0424819    61.620146  0.017954588  0.018423811            2 
  287000   0.79864071   -8.0511747    61.842612  0.017956624  0.018364253            5 
  288000   0.81203839   -8.0641626    61.913135   0.01791468  0.018304844            2 
  289000   0.81417064   -8.1012382    61.833274  0.017829664  0.018245097            2 
  290000   0.80199387   -8.1096601    61.883818  0.017782706  0.018185493            2 
  291000   0.79919291   -8.0744894    62.048035  0.017768624  0.018126509            4 
  292000   0.80166329   -8.0949552    62.020416   0.01769989  0.018068298            1 
  293000   0.80726484    -8.097097    62.126411  0.017669628  0.018009796            1 
  294000   0.79767113   -8.1050547    62.032073  0.017582787  0.017951386            1 
  295000   0.79610212   -8.0972757    62.156119  0.017558226  0.017893049            2 
  296000   0.77805755   -8.1390154    62.207501  0.017513373  0.017834907            3 
  297000   0.79433287   -8.1288541     62.30845   0.01748273  0.017776887            1 
  298000   0.79419752   -8.1188433    62.271595  0.017413757  0.017718442            1 
  299000   0.79418705   -8.1090264    62.268564  0.017354672  0.017660418            2 
  300000   0.76596523     -8.13728    62.284611  0.017301281  0.017602493            1 
  301000   0.79506224   -8.1330563    62.481879  0.017298416  0.017544708            2 
  302000    0.7806285   -8.1278609    62.490694  0.017243569  0.017487537            2 
  303000   0.79194585   -8.1595562    62.630723  0.017225171  0.017430678            1 
  304000   0.77444882   -8.1323419    62.774661  0.017207966  0.017374712            5 
  305000    0.7860731   -8.1314843    62.873445  0.017178537  0.017319268            1 
  306000   0.77832942   -8.1349867    62.757154  0.017090728  0.017263699            4 
  307000   0.78347757   -8.1286236    62.853763  0.017061282  0.017207976            3 
  308000   0.76341863   -8.1388233    62.865746  0.017009131  0.017152549            1 
  309000   0.77566547   -8.1543302    63.046599  0.017002858  0.017097695            2 
  310000   0.78103735   -8.1725127    63.020466  0.016940986  0.017042904            2 
  311000   0.75992291   -8.1859298    62.984803  0.016876957  0.016988662            2 
  312000   0.75688323   -8.1775074    63.040416  0.016837718  0.016934165            2 
  313000   0.75644596   -8.1653871    63.006459  0.016774883   0.01687983            1 
  314000   0.76613148   -8.1639704     63.11388  0.016749968  0.016825863            2 
  315000   0.76274699    -8.162928    63.303702  0.016747011  0.016772319            2 
  316000   0.77966997   -8.1647556    63.261905  0.016682992  0.016719017            5 
  317000   0.74662589   -8.1813924    63.258663  0.016629512  0.016665814            3 
  318000    0.7546514   -8.1832896    63.353245  0.016602003  0.016612361            4 
  319000   0.78374561   -8.1750357    63.374444  0.016555497  0.016559121            1 
  320000   0.77264091   -8.1951382    63.276969  0.016478377  0.016505717            3 
  321000    0.7673837   -8.2047711    63.301638  0.016433447  0.016452429            4 
  322000    0.7538687   -8.1886063    63.271852  0.016374703  0.016399129            5 
  323000   0.76576874   -8.1931804    63.363336   0.01634761  0.016345959            7 
  324000   0.75703885   -8.1794869    63.291107  0.016278577  0.016292679            1 
  325000   0.75130388   -8.2323367    63.335014  0.016239747  0.016239927            3 
  326000   0.71878698   -8.2009498    63.303291  0.016181823  0.016186814            2 
  327000   0.75506083   -8.2044209    63.382908  0.016152627   0.01613371            2 
  328000   0.74955902   -8.2251189     63.33891  0.016092203   0.01608055            2 
  329000   0.74957965   -8.2046372    63.359424  0.016048486  0.016027562            2 
  330000   0.75142221   -8.2404763    63.466217  0.016026822  0.015974712            2 
  331000      0.75773   -8.2441554    63.400475  0.015961852  0.015922155            2 
  332000   0.73164385   -8.2568141    63.397237  0.015912961  0.015869712            1 
  333000   0.75695833   -8.2423908    63.473043  0.015884145  0.015817408            1 
  334000   0.75712048   -8.2552835    63.236411  0.015777548  0.015765169            2 
  335000   0.73584109   -8.2442444    63.347369  0.015758052  0.015712908            2 
  336000   0.73040679    -8.233135     63.49801  0.015748514  0.015661002            2 
  337000   0.71818416   -8.2505455    63.552512   0.01571526  0.015609278            5 
  338000   0.73743956   -8.2706945    63.474406  0.015649508  0.015557684            2 
  339000   0.72712452   -8.2556438    63.457318  0.015599144  0.015505841            2 
  340000   0.72937939   -8.2594471     63.55293  0.015576698   0.01545429            3 
  341000    0.7281284   -8.2699919     63.51773  0.015522417  0.015402916            2 
  342000   0.71483908   -8.2782938    63.427134  0.015454955  0.015351688            3 
  343000   0.71681468   -8.2647675    63.476019  0.015421773  0.015300506            5 
  344000    0.7158865   -8.2598933    63.569206  0.015399517   0.01524971            2 
  345000   0.71184548   -8.2508064    63.562555  0.015353274  0.015198837            5 
  346000   0.71346639   -8.3235927    63.422634  0.015275201  0.015147918            2 
  347000    0.7144766   -8.3099412    63.238214  0.015186891  0.015096838            2 
  348000   0.71227231   -8.3133621    63.672948  0.015247353  0.015046054            3 
  349000   0.71192622   -8.3167698     63.56105  0.015176946  0.014995366            2 
  350000   0.70226638   -8.2898569    63.504758   0.01512018  0.014944884            3 
  351000    0.6989042    -8.341832     63.39656  0.015051415  0.014894682            2 
  352000    0.6980841   -8.3217996    63.632605  0.015064537   0.01484435            2 
  353000   0.70150178   -8.3431865    63.438851  0.014976122  0.014794477            2 
  354000   0.70312139   -8.3392315    63.529494  0.014955154  0.014744539            2 
  355000    0.7016941   -8.3566007    63.467602  0.014898498  0.014694658            4 
  356000   0.69909296   -8.3436071    63.506673  0.014865794  0.014644651            4 
  357000   0.70235711   -8.3548344    63.590097  0.014843627  0.014595034            5 
  358000   0.69979553   -8.3325334    63.527609  0.014787618  0.014545678            6 
  359000   0.70614403   -8.3574261    63.519184  0.014744472  0.014496264            5 
  360000   0.69763411   -8.3561324    63.319932  0.014657392  0.014447007            3 
  361000   0.70197763   -8.3799972    63.403852  0.014636162  0.014397711            2 
  362000     0.694955   -8.3470816     63.43259  0.014602346   0.01434871            5 
  363000   0.68323999    -8.373503    63.474018  0.014571629  0.014299597            3 
  364000   0.68762227   -8.3877937    63.623117  0.014565732  0.014250913            2 
  365000   0.67880415   -8.3586081    63.594491   0.01451929  0.014202356            3 
  366000   0.68538282   -8.3797326    63.440527  0.014444565  0.014154199            5 
  367000   0.68704984   -8.3915139    63.624667  0.014447018  0.014105951            2 
  368000   0.68437851   -8.3859535    63.705937  0.014426163  0.014058022            5 
  369000   0.66989152   -8.4046143    63.513023  0.014343501   0.01401014            3 
  370000   0.68165233   -8.4133648    63.504596  0.014302837  0.013962399            2 
  371000   0.68123867   -8.3949485    63.583227  0.014281947  0.013914671            4 
  372000   0.68307264    -8.418081    63.451158  0.014213969  0.013866976            1 
  373000   0.68498877   -8.4034199    63.548412   0.01419759  0.013819497            4 
  374000   0.69321932   -8.4289181    63.378816   0.01412184  0.013771934            1 
  375000   0.66717182   -8.4320369    63.516067  0.014114682   0.01372451            3 
  376000   0.64569249   -8.4400029    63.387461  0.014048639   0.01367726            2 
  377000   0.67212013   -8.4495239    63.380678  0.014009876  0.013630044            2 
  378000   0.66638127   -8.4301394     63.37725  0.013972057   0.01358291            2 
  379000   0.66709454   -8.4477183     63.49635  0.013961379  0.013536026            2 
  380000   0.65894558   -8.4539545    63.475027  0.013919962  0.013489455            6 
  381000   0.67795268   -8.4695644    63.335109  0.013852824  0.013442926            2 
  382000   0.65024181   -8.4630585    63.480642  0.013848308  0.013396559            2 
  383000   0.64678223    -8.449256    63.471425  0.013810145  0.013350482            4 
  384000   0.65762626   -8.4711468    63.474776  0.013774908  0.013304547            2 
  385000   0.64473939   -8.4630501    63.481249   0.01374053  0.013258697            4 
  386000   0.65417317   -8.4545226    63.335561   0.01367348   0.01321294            3 
  387000   0.65866144    -8.458849    63.377609  0.013647203  0.013167476            2 
  388000   0.63825061   -8.4937359    63.356848   0.01360757  0.013122077            2 
  389000   0.64393076   -8.4788788    63.396735  0.013581134  0.013076828            3 
  390000    0.6376019    -8.468246     63.31736   0.01352935  0.013031418            3 
  391000    0.6488254   -8.5063257    63.355511   0.01350288  0.012986261            2 
  392000   0.64077447   -8.4939877    63.266149  0.013449436  0.012941313            2 
  393000   0.64159753   -8.4845118    63.369866  0.013437207  0.012896602            2 
  394000   0.63880724    -8.501733    63.315548  0.013391613  0.012852145            1 
  395000    0.6430215   -8.5063066     63.45281  0.013386669  0.012807874            4 
  396000   0.64048859   -8.4900126    63.409477  0.013343745  0.012763766            4 
  397000   0.64013127   -8.5014317    63.354513  0.013298596  0.012719749            4 
  398000   0.62754557   -8.4972763    63.441999  0.013283501   0.01267601            1 
  399000   0.63664052   -8.5063858    63.398669  0.013241159  0.012632422            3 
  400000   0.62924399   -8.5159147    63.419037  0.013212299  0.012589031            2 
  401000   0.62125627   -8.5028805    63.324592  0.013159724  0.012545608            2 
  402000   0.62942928   -8.5046633    63.418335  0.013146421   0.01250239            4 
  403000   0.62487617   -8.5400866    63.333112  0.013096177  0.012459357            3 
  404000   0.61863759   -8.5235309    63.299292  0.013056785  0.012416285            4 
  405000   0.62341495   -8.5367003    63.308021  0.013026342  0.012373392            2 
  406000   0.60832515    -8.515578    63.289267  0.012990408  0.012330536            4 
  407000   0.62027949   -8.5548992    63.248179  0.012950078  0.012287815            4 
  408000    0.6133106   -8.5656597    63.292253  0.012927339  0.012245134            3 
  409000   0.62879333   -8.5563172    63.016693  0.012839587  0.012202684            4 
  410000   0.62017009   -8.5420952    63.127853  0.012830864  0.012160363            2 
  411000   0.61775887    -8.565444    63.164787  0.012807134  0.012118281            4 
  412000    0.6093155   -8.5505022    63.191417  0.012781436  0.012076371            3 
  413000   0.60614852    -8.576907    63.104472  0.012732944  0.012034634            3 
  414000   0.61287698   -8.5537057    63.284612  0.012738449   0.01199304            2 
  415000   0.59243968   -8.5407595    63.212112  0.012693195  0.011951565            3 
  416000   0.60381465   -8.5566471    63.132437  0.012646722  0.011910248            4 
  417000   0.61865042   -8.5689949    63.179114  0.012625722  0.011869118            1 
  418000     0.590366   -8.5591861    63.186018  0.012596894  0.011828097            1 
  419000   0.60492671   -8.5745007    63.284091  0.012586335  0.011787277            2 
  420000   0.59360461   -8.5869715     63.19425  0.012538542   0.01174666            3 
  421000   0.61990702   -8.5810509    63.254074    0.0125206  0.011706208            2 
  422000    0.5834102   -8.5735437    63.209278  0.012482085  0.011665975            2 
  423000   0.58233872   -8.5818908    63.135362  0.012438015  0.011625883            4 
  424000    0.5839458   -8.6108487    63.156397  0.012412814  0.011585845            6 
  425000   0.59667276   -8.5935026    63.114361  0.012375365   0.01154603            3 
  426000   0.58823262   -8.6194294    63.116072   0.01234665  0.011506335            3 
  427000   0.58626765   -8.6000971    63.074281  0.012309579  0.011466811            2 
  428000   0.59024732   -8.6085397    63.118767   0.01228948   0.01142733            3 
  429000   0.57544192   -8.6158351    63.115167  0.012260133  0.011387988            2 
  430000   0.58435523   -8.6048345    63.029512  0.012215022  0.011348863            2 
  431000   0.58705401   -8.6114342    63.108039  0.012201864  0.011309876            2 
  432000   0.57938356   -8.6001532    63.138546  0.012179504  0.011271128            2 
  433000   0.57454585   -8.6372323     63.15659  0.012154848  0.011232403            3 
  434000   0.56686839    -8.626605    63.041693   0.01210478  0.011193867            7 
  435000    0.5702479   -8.6254694    62.983019  0.012065712  0.011155445            1 
  436000   0.57444358   -8.6239233    63.071959  0.012055038  0.011117286            2 
  437000   0.56927995     -8.62952    63.066729  0.012026455  0.011079184            3 
  438000   0.55791935   -8.6316702    62.916219  0.011970361  0.011041135            4 
  439000   0.57724025   -8.6517253    63.042869  0.011967135  0.011003262            3 
  440000   0.56571149   -8.6528016    62.949093  0.011922177  0.010965607            2 
  441000   0.56163685   -8.6117307    63.062536  0.011916579  0.010928059            2 
  442000   0.57828548   -8.6431719    62.981243  0.011874292  0.010890716            3 
  443000   0.57071038   -8.6607019    62.915695  0.011835157  0.010853485            2 
  444000    0.5619169   -8.6457935    62.987772  0.011822029  0.010816357            4 
  445000    0.5601757   -8.6405758     62.95515  0.011789354  0.010779437            4 
  446000   0.56090607   -8.6492694    63.066466  0.011783719   0.01074259            2 
  447000   0.55104914   -8.6692664    62.910558  0.011728292  0.010705944            2 
  448000   0.53865193   -8.6530923    62.889751  0.011698242  0.010669373            7 
  449000   0.54057235   -8.6635891    62.911744   0.01167627  0.010632991            3 
  450000   0.55068191    -8.690202    62.991542    0.0116651  0.010596786            3 
  451000   0.54524835   -8.6628468    62.947758  0.011631145  0.010560782            2 
  452000   0.54995739   -8.6678336     63.02886  0.011620365  0.010524972            4 
  453000   0.53236121   -8.6818557      62.9636  0.011582708  0.010489328            2 
  454000    0.5360838    -8.675519    63.117356  0.011585418  0.010453735            3 
  455000   0.54010347   -8.6790526    62.857484   0.01151236  0.010418332            2 
  456000   0.54144917   -8.6876247    62.861048  0.011487765  0.010382996            2 
  457000   0.53909437   -8.6816089    62.941772  0.011477347  0.010347824            4 
  458000   0.53565095   -8.6853855    62.938082  0.011451616  0.010312879            1 
  459000   0.52395374   -8.6990781    62.840023  0.011408864  0.010278024            2 
  460000   0.53798968   -8.7183202    62.768299  0.011371069  0.010243288            5 
  461000   0.54062634   -8.7055045    62.905139  0.011371139  0.010208692            1 
  462000   0.51395676   -8.7062817    62.868561  0.011339928  0.010174278            4 
  463000   0.52955366   -8.7038303    62.834469    0.0113093  0.010139931            2 
  464000   0.53997227   -8.7041519    62.845582  0.011286922  0.010105741            4 
  465000   0.52399313   -8.7106278    62.786867  0.011252127  0.010071643            1 
  466000   0.53423291   -8.7061678    62.762349  0.011223596  0.010037677            3 
  467000   0.50951349   -8.7204103    62.855916  0.011216259  0.010003829            3 
  468000   0.51723147   -8.7241721    62.778841  0.011178569 0.0099701469            1 
  469000   0.51941652     -8.71681    62.805747  0.011159514 0.0099365999            2 
  470000   0.51855239   -8.7230179    62.743509  0.011124736 0.0099032948            5 
  471000   0.51185665   -8.7360443    62.898578  0.011128552 0.0098701417            1 
  472000   0.51332148   -8.7371364      62.7802  0.011084075 0.0098370426            2 
  473000   0.51608102   -8.7294427    62.870888  0.011076619 0.0098040915            2 
  474000   0.51328648   -8.7363357    62.769689  0.011035459 0.0097712303            2 
  475000   0.51896411   -8.7483281    62.684701  0.010997316 0.0097384609            2 
  476000   0.50454914   -8.7198003    62.703501  0.010977504 0.0097058234            1 
  477000   0.49749707   -8.7539758    62.727845  0.010958743 0.0096733239            2 
  478000   0.49260911   -8.7437324    62.696821  0.010930408 0.0096409724            2 
  479000   0.49457336   -8.7518206    62.759741  0.010918535 0.0096087579            2 
  480000   0.50476863   -8.7482252    62.617529  0.010871099 0.0095766683            2 
  481000   0.50938102   -8.7502394    62.707649  0.010864111 0.0095447325            1 
  482000   0.49424918   -8.7525343    62.748647   0.01084866 0.0095129021            1 
  483000    0.5028899   -8.7601612    62.640914  0.010807611 0.0094811765            1 
  484000   0.49793302   -8.7743769    62.694403  0.010794491  0.009449585            2 
  485000    0.4880727    -8.757252    62.633019  0.010761687 0.0094180943            1 
  486000   0.49301042   -8.7735837    62.710548  0.010752837  0.009386806            1 
  487000   0.49148304   -8.7711721    62.702416  0.010729366 0.0093556742            2 
  488000   0.48528276   -8.7767651    62.693047   0.01070578 0.0093245593            3 
  489000   0.48328225   -8.7709683     62.68753  0.010682947 0.0092936467            3 
  490000   0.48057744   -8.7724243    62.608721  0.010647742 0.0092628539            3 
  491000   0.49610384   -8.7669901    62.585836  0.010622172 0.0092321813            2 
  492000   0.47886519   -8.7842777    62.635395  0.010608976 0.0092015855            2 
  493000   0.47947758   -8.7951693    62.533073  0.010570161 0.0091711514            1 
  494000   0.48063429   -8.7894589    62.622862  0.010563911 0.0091407857            2 
  495000   0.47821823   -8.7917793    62.553616  0.010530912 0.0091105751            3 
  496000   0.47963158   -8.7985721     62.60399  0.010518144 0.0090804673            3 
  497000    0.4719151   -8.7805526    62.604271  0.010497027 0.0090504437            3 
  498000   0.46169061   -8.7962104    62.565431   0.01046945 0.0090206035            5 
  499000   0.47933919   -8.7950804    62.506448  0.010438619 0.0089908107            5 
  500000   0.46010494   -8.8119996    62.408126  0.010401354 0.0089611885            2 
  501000   0.46886178   -8.8011527    62.583049  0.010409689  0.008931684            2 
  502000   0.46211806   -8.7996486    62.549179   0.01038333  0.008902322            3 
  503000   0.48043211   -8.8083123    62.475451  0.010350472 0.0088730643            4 
  504000    0.4552748   -8.8162763    62.567912  0.010345224 0.0088439388            2 
  505000   0.45879488   -8.8210013    62.499992   0.01031353 0.0088149566            2 
  506000   0.46549487   -8.8110727    62.450929  0.010285067 0.0087860421            6 
  507000   0.45925297   -8.8299554    62.567621  0.010283961 0.0087572501            2 
  508000   0.45412647   -8.8209605    62.502711  0.010253069  0.008728594            2 
  509000   0.45296004   -8.8222948    62.429621  0.010220959 0.0087000536            3 
  510000   0.45650721   -8.8264747    62.489408  0.010210688 0.0086716252            4 
  511000   0.45632684   -8.8299612    62.392166  0.010174848 0.0086433449            3 
  512000    0.4505951   -8.8334019    62.442134  0.010163108 0.0086151929            1 
Loop time of 1220.44 on 48 procs for 500000 steps with 4000 atoms

Performance: 70794.428 tau/day, 409.690 timesteps/s
99.4% CPU use with 48 MPI tasks x no OpenMP threads

MPI task timing breakdown:
Section |  min time  |  avg time  |  max time  |%varavg| %total
---------------------------------------------------------------
Pair    | 78.58      | 82.948     | 87.16      |  26.1 |  6.80
Neigh   | 8.0045     | 8.3475     | 8.7942     |   6.1 |  0.68
Comm    | 78.446     | 84.426     | 90.163     |  30.1 |  6.92
Output  | 0.959      | 0.95988    | 0.98572    |   0.4 |  0.08
Modify  | 1028.8     | 1032.6     | 1036.4     |   5.0 | 84.61
Other   |            | 11.16      |            |       |  0.91

Nlocal:        83.3333 ave          89 max          77 min
Histogram: 4 2 0 5 7 16 2 6 2 4
Nghost:        2122.48 ave        2152 max        2100 min
Histogram: 3 4 3 12 9 7 5 2 2 1
Neighs:        13951.5 ave       14899 max       12945 min
Histogram: 1 6 5 5 6 5 6 8 2 4
FullNghs:      27902.7 ave       29961 max       25386 min
Histogram: 2 2 1 3 12 11 4 9 0 4

Total # of neighbors = 1339328
Ave neighs/atom = 334.83200
Neighbor list builds = 26760
Dangerous builds = 0

#clear
#
#next RN
#
#jump SELF
Total wall time: 0:20:23
