
units lj                  # Use reduced LJ style units
atom_style atomic         # Uncharged point particles
atom_modify map hash      # Needed for indexing of clusters etc
                          # Used to be able to find where atoms are in relation to each other.

lattice fcc 1.0 spacing 1 1 1
Lattice spacing in x,y,z = 1.5874011 1.5874011 1.5874011
region box block 0 10 0 10 0 10 units lattice
create_box 2 box
Created orthogonal box = (0.0000000 0.0000000 0.0000000) to (15.874011 15.874011 15.874011)
  3 by 4 by 4 MPI processor grid
create_atoms 1 box
Created 4000 atoms
  using lattice units in orthogonal box = (0.0000000 0.0000000 0.0000000) to (15.874011 15.874011 15.874011)
  create_atoms CPU = 0.002 seconds
set type 1 type/fraction 2 1.0 78393
Setting atom values ...
  4000 settings made for type/fraction
mass 1 1.0
mass 2 1.0
pair_style lj/cut  3.5
pair_modify tail  yes
pair_coeff 1  1  1.0  1.0   # Intearaction between 1 and 1 set with epsilon = 1 and sigma = 1
pair_coeff 1  2  1.5  0.8
pair_coeff 2  2  0.5  0.88

write_data data.0
System init for write_data ...
Neighbor list info ...
  update every 1 steps, delay 10 steps, check yes
  max neighbors/atom: 2000, page size: 100000
  master list distance cutoff = 3.8
  ghost atom cutoff = 3.8
  binsize = 1.9, bins = 9 9 9
  1 neighbor lists, perpetual/occasional/extra = 1 0 0
  (1) pair lj/cut, perpetual
      attributes: half, newton on
      pair build: half/bin/atomonly/newton
      stencil: half/bin/3d
      bin: standard
WARNING: Not all mixed pair coeffs generated from mixing. Use write_data with 'pair ij' option to store all pair coeffs. (../write_data.cpp:312)


#############################
#   M E L T   S Y S T E M   #
#############################

velocity all create 2.4 6583654 mom yes dist gaussian # Assign velocities
                                                    # Temperature 2.4, random number seed, zero linear momentum
                                                                                # Gaussian distribution

timestep 0.002   # simulation timestep
thermo 1000       # output thermodynamic data every 1000 steps bf 100

# Define a fix  in this case with index 1 applied to all
# particles in the simulation. This fix is for simulations
# in the anisotropic NPT ensemble. Note that we use the MTK
# correction.
fix 1 all npt temp 2.4 2.4 0.1 iso 5.68 5.68 0.5 mtk yes tchain 5 pchain 5 # Use NPT ensemble
                                                                         # Set temperature and pressure and damping
                                                                         # Numbers of thermostats in chain and in barostat
run 10000          # run for 10000 steps
Per MPI rank memory allocation (min/avg/max) = 3.642 | 3.644 | 3.648 Mbytes
Step Temp E_pair E_mol TotEng Press Volume 
       0          2.4   -2.7016284            0   0.89747158   -1.6956087         4000 
    1000    2.4073574    -1.415267            0    2.1948663    5.8054265    4263.2651 
    2000      2.35516   -1.4226036            0    2.1092532    5.7679046    4247.3132 
    3000     2.417189   -1.4149264            0    2.2099506    5.7015043    4278.0483 
    4000    2.3762754   -1.4706246            0    2.0928975    5.5217015    4243.0577 
    5000    2.3492333   -1.3818314            0    2.1411376    5.9325233      4262.43 
    6000    2.3897013   -1.4533725            0    2.1302833    5.7841665    4219.0993 
    7000    2.3852768   -1.4229273            0    2.1540934    5.7715573    4258.2342 
    8000    2.4227819   -1.4093442            0    2.2239201    5.9280702    4236.0083 
    9000    2.4151765    -1.436325            0     2.185534    5.7969897    4236.7263 
   10000    2.4045756   -1.4436077            0    2.1623539    5.6112078    4272.4567 
Loop time of 2.34876 on 48 procs for 10000 steps with 4000 atoms

Performance: 735707.139 tau/day, 4257.564 timesteps/s
99.7% CPU use with 48 MPI tasks x no OpenMP threads

MPI task timing breakdown:
Section |  min time  |  avg time  |  max time  |%varavg| %total
---------------------------------------------------------------
Pair    | 1.0154     | 1.083      | 1.1348     |   2.4 | 46.11
Neigh   | 0.20556    | 0.21097    | 0.22137    |   0.7 |  8.98
Comm    | 0.74497    | 0.80386    | 0.87054    |   3.1 | 34.22
Output  | 0.00024287 | 0.00024754 | 0.00031535 |   0.0 |  0.01
Modify  | 0.21262    | 0.23626    | 0.26389    |   2.8 | 10.06
Other   |            | 0.01446    |            |       |  0.62

Nlocal:        83.3333 ave          92 max          72 min
Histogram: 1 2 2 3 8 10 8 5 4 5
Nghost:        1568.40 ave        1593 max        1536 min
Histogram: 2 2 4 4 6 6 6 11 4 3
Neighs:        8925.33 ave       10006 max        7372 min
Histogram: 1 1 1 3 14 6 9 5 3 5

Total # of neighbors = 428416
Ave neighs/atom = 107.10400
Neighbor list builds = 917
Dangerous builds = 273

# Equilibrate just above the melting temperature to avoid step fn in T

fix 1 all npt temp 1.25 1.25 0.1 iso 5.68 5.68 0.5 mtk yes tchain 5 pchain 5
run 2000
Per MPI rank memory allocation (min/avg/max) = 3.643 | 3.645 | 3.649 Mbytes
Step Temp E_pair E_mol TotEng Press Volume 
   10000    2.4045756   -1.4436077            0    2.1623539    5.6112078    4272.4567 
   11000    1.2337166   -2.2378758            0  -0.38776351    5.6410895     3336.514 
   12000    1.2270431   -2.2273968            0  -0.38729233    5.6593978    3341.5796 
Loop time of 0.570426 on 48 procs for 2000 steps with 4000 atoms

Performance: 605863.149 tau/day, 3506.152 timesteps/s
99.6% CPU use with 48 MPI tasks x no OpenMP threads

MPI task timing breakdown:
Section |  min time  |  avg time  |  max time  |%varavg| %total
---------------------------------------------------------------
Pair    | 0.25371    | 0.2717     | 0.29395    |   2.0 | 47.63
Neigh   | 0.038522   | 0.040219   | 0.042578   |   0.5 |  7.05
Comm    | 0.18444    | 0.20883    | 0.22943    |   2.5 | 36.61
Output  | 5.2027e-05 | 5.3585e-05 | 6.8642e-05 |   0.0 |  0.01
Modify  | 0.041896   | 0.044987   | 0.048055   |   0.8 |  7.89
Other   |            | 0.004641   |            |       |  0.81

Nlocal:        83.3333 ave          95 max          75 min
Histogram: 2 0 8 9 13 7 7 1 0 1
Nghost:        1854.21 ave        1869 max        1841 min
Histogram: 3 8 3 7 4 6 4 7 3 3
Neighs:        11418.9 ave       12811 max       10122 min
Histogram: 5 3 3 9 2 10 5 7 2 2

Total # of neighbors = 548107
Ave neighs/atom = 137.02675
Neighbor list builds = 145
Dangerous builds = 21

#############################
# L I N E A R  Q U E N C H  #
#############################

# Define solid atoms. This closely follows ten Wolde  Ruiz-Montero and Frenkel  Faraday Discuss  1996  104  93-110
# Compute components of the per-atom q6 vector
compute q6 all orientorder/atom degrees 1 6 components 6 nnn NULL cutoff 1.3 # compute the Q6 parameter.
                                                                             # Use all neighbours within 1.3 unit cell.

# get number of connections
compute coord_number all coord/atom orientorder q6 0.5

# An atom is solid if it has 8 or more connections (of a possible 14)
variable is_solid atom c_coord_number>=8
group solid dynamic all var is_solid    # Must be dynamic to update
dynamic group solid defined

# do clustering
compute cluster solid cluster/atom 1.3 # Create a cluster where all atoms within are solid and max 1.3 units from another member

# define chunks one chunk per cluster
compute clus_chunks solid chunk/atom c_cluster nchunk every compress yes  # Says which atoms are in which chunk

# count the size of each chunk
compute size_chunks solid property/chunk clus_chunks count


# Find the maximum entry in the vector of chunk sizes
variable max_n equal max(c_size_chunks)


# Thermo style which includes this variable
# thermo_style custom step temp pe vol v_max_n

thermo ${N}  # Print the thermo information every 100 steps
thermo 1000  

# Reset the npt fix at a lower temperature (below freezing)
fix 1  all npt temp  ${temp} ${temp}  0.1  iso  5.68  5.68  0.5  mtk yes tchain  5  pchain  5
fix 1  all npt temp  0.45 ${temp}  0.1  iso  5.68  5.68  0.5  mtk yes tchain  5  pchain  5
fix 1  all npt temp  0.45 0.45  0.1  iso  5.68  5.68  0.5  mtk yes tchain  5  pchain  5

dump dmp2 all dcd ${N} traj.dcd
dump dmp2 all dcd 1000 traj.dcd


compute msd all msd com yes
variable twopoint equal c_msd[4]/6/(step*dt+1.0e-6)
fix 9 all vector 10 c_msd[4]
variable fit equal slope(f_9)/6/(10*dt)
thermo_style custom step temp pe c_msd[4] v_twopoint v_fit v_max_n

fix 1 all npt temp 1.25 ${temp} 0.1 iso 5.68 5.68 0.5 mtk yes tchain 5 pchain 5
fix 1 all npt temp 1.25 0.45 0.1 iso 5.68 5.68 0.5 mtk yes tchain 5 pchain 5
run 5000000 # 5000000  # Run for this many steps
Neighbor list info ...
  update every 1 steps, delay 10 steps, check yes
  max neighbors/atom: 2000, page size: 100000
  master list distance cutoff = 3.8
  ghost atom cutoff = 3.8
  binsize = 1.9, bins = 8 8 8
  4 neighbor lists, perpetual/occasional/extra = 1 3 0
  (1) pair lj/cut, perpetual
      attributes: half, newton on
      pair build: half/bin/atomonly/newton
      stencil: half/bin/3d
      bin: standard
  (2) compute orientorder/atom, occasional
      attributes: full, newton on
      pair build: full/bin/atomonly
      stencil: full/bin/3d
      bin: standard
  (3) compute coord/atom, occasional
      attributes: full, newton on
      pair build: full/bin/atomonly
      stencil: full/bin/3d
      bin: standard
  (4) compute cluster/atom, occasional
      attributes: full, newton on
      pair build: full/bin/atomonly
      stencil: full/bin/3d
      bin: standard
Per MPI rank memory allocation (min/avg/max) = 9.809 | 9.815 | 9.821 Mbytes
Step Temp PotEng c_msd[4] v_twopoint v_fit v_max_n 
   12000    1.2270431   -2.2273968 7.8886091e-34 5.4782005e-36 8.3333333e+20            3 
   13000    1.2350003   -2.2158217    1.2336777 0.0079081902   0.10427636            1 
   14000    1.2302669   -2.2204309    2.5952035  0.015447639   0.11106813            1 
   15000    1.2703705    -2.251346    4.0137125  0.022298402   0.11319194            1 
   16000    1.2625586   -2.2286989    5.4787573  0.028535193    0.1155025            1 
   17000    1.2466393   -2.2220014    6.8171786  0.033417541   0.11591159            1 
   18000    1.2433886   -2.2112977    8.2000876  0.037963368   0.11597398            1 
   19000     1.262233   -2.2017896    9.5586995  0.041924119   0.11578908            1 
   20000    1.2560675   -2.2293962    10.884837  0.045353485   0.11513193            1 
   21000    1.2650075   -2.2346033    12.010687  0.047661455   0.11410234            3 
   22000    1.2437901   -2.2325642    13.330497  0.050494307   0.11309419            1 
   23000    1.2371536   -2.2114803    14.795114  0.053605485   0.11266061            1 
   24000    1.2283965   -2.2396385    16.171027  0.056149398   0.11258193            2 
   25000    1.2628532   -2.2503227    17.273524  0.057578412   0.11216638            1 
   26000    1.2360079   -2.2419361    18.674161  0.059853079   0.11161996            2 
   27000    1.2134937   -2.2477462    20.035136  0.061836839   0.11142287            1 
   28000    1.2465848   -2.2395647     21.75751  0.064754493   0.11165804            1 
   29000    1.2335859   -2.2270257    23.116869  0.066427784   0.11194906            1 
   30000    1.2401656    -2.201414    24.255968  0.067377689   0.11217813            1 
   31000    1.2349998   -2.2384786    25.697633  0.069079658   0.11229462            2 
   32000    1.2499592   -2.2022909     26.92731  0.070123203   0.11233022            2 
   33000    1.2375518   -2.2190534     28.49463  0.071956136   0.11249128            2 
   34000    1.2679623   -2.2258133     29.79249  0.073020807    0.1125717            2 
   35000    1.2595408   -2.2267472    31.122202   0.07410048   0.11267212            2 
   36000    1.2555578   -2.2430988    32.378221  0.074949584    0.1126429            1 
   37000    1.2748084   -2.2563887    34.038221  0.076662659   0.11290393            2 
   38000    1.2405447    -2.212302    35.529832  0.077916298   0.11309317            1 
   39000    1.2371916   -2.2385674    36.816465  0.078667659   0.11326348            1 
   40000    1.2526153   -2.2131501    38.229755  0.079645322    0.1134319            1 
   41000    1.2445359   -2.2522768     39.34228  0.079963983   0.11352198            2 
   42000    1.2651864    -2.219658    40.841902   0.08103552   0.11360001            1 
   43000     1.247471   -2.2306557    42.300823  0.081978338   0.11371382            1 
   44000    1.2325198   -2.2655763    43.579063  0.082536103   0.11372989            1 
   45000    1.2502363   -2.2301238    44.593815  0.082581139   0.11368281            1 
   46000    1.2668198   -2.2708674    46.162357  0.083627458   0.11365907            1 
   47000    1.2524303    -2.230447    48.010989  0.085125866    0.1137448            1 
   48000    1.2476048   -2.2321087    49.349411   0.08567606   0.11390916            1 
   49000    1.2482675   -2.2476454    50.617862  0.086084799   0.11408637            1 
   50000    1.2556414   -2.2309997    51.786482  0.086310803   0.11416714            1 
   51000    1.2544922   -2.2247831    53.254573  0.087017276    0.1141547            1 
   52000     1.238078    -2.222461    54.760591  0.087757356    0.1141811            1 
   53000    1.2514893   -2.2469719    56.016521   0.08807629   0.11422929            1 
   54000     1.262164   -2.2219844    57.760572  0.089136685    0.1142817            2 
   55000    1.2349443   -2.2425638    58.889809  0.089226983   0.11432735            1 
   56000    1.2518209   -2.2304987    60.221864  0.089615868   0.11435888            2 
   57000    1.2286208    -2.251907    61.613062  0.090077575   0.11436413            1 
   58000    1.2368567   -2.2254695    62.675374  0.090050825   0.11434421            1 
   59000     1.258206   -2.2615216    63.775322  0.090078138   0.11423951            2 
   60000    1.2806069   -2.2235979    65.260805  0.090640006   0.11415998            2 
   61000    1.2244597   -2.2140862      66.6595   0.09106489   0.11409242            1 
   62000    1.2263505   -2.2309828    67.808867  0.091140949   0.11403408            1 
   63000    1.2457365   -2.2449582    69.365064   0.09175273   0.11401454            3 
   64000    1.2256792   -2.2433249    71.116292  0.092599338   0.11401258            3 
   65000    1.2264847   -2.2242922    72.965927  0.093546059    0.1140692            2 
   66000    1.2217172   -2.2213493    73.716901  0.093076894   0.11410053            2 
   67000    1.2665924    -2.248587    75.603022  0.094033609   0.11411337            1 
   68000    1.2327019   -2.2507361    76.343498  0.093558207   0.11415801            1 
   69000    1.2412535   -2.2277367    78.195361  0.094438841   0.11422008            1 
   70000    1.2485448    -2.269264    79.438449  0.094569582   0.11428813            1 
   71000    1.2374985   -2.2232842    81.181723  0.095283712   0.11436334            2 
   72000    1.2483021   -2.2158707    81.987956  0.094893467   0.11438947            1 
   73000    1.2508901   -2.2546161    83.565979  0.095394952   0.11437149            2 
   74000    1.2492802   -2.2146086    84.877565  0.095582843   0.11438279            1 
   75000    1.2494254   -2.2008747    86.089431  0.095654923   0.11438773            2 
   76000    1.2460136   -2.2488069    87.548715  0.095996397   0.11435828            3 
   77000    1.2308542    -2.253801      88.9851   0.09630422   0.11436927            2 
   78000    1.2172986   -2.2274346    91.109351   0.09733905   0.11442831            4 
   79000    1.2525137   -2.2252663    92.186462  0.097243103   0.11448722            1 
   80000    1.2522189   -2.2413317    93.042895  0.096919681   0.11454195            2 
   81000    1.2323595   -2.2350461    95.014238  0.097751273   0.11459389            1 
   82000    1.2229629    -2.255223    96.468032  0.098036617   0.11465436            1 
   83000    1.2534941   -2.2555565    97.988745  0.098382274   0.11471044            2 
   84000    1.2461849   -2.2073084     100.0751  0.099280857   0.11481098            2 
   85000    1.2391518   -2.2378741     100.7859  0.098809705   0.11489327            1 
   86000    1.2255018    -2.235439    102.50482  0.099326379   0.11495696            1 
   87000    1.2182971   -2.2618563    103.95568  0.099574401   0.11503233            3 
   88000    1.2623603   -2.2531519    105.67115   0.10006738   0.11510935            1 
   89000     1.262462   -2.2536075    106.61908  0.099830596   0.11517863            1 
   90000    1.2379375   -2.2479117    108.23051   0.10021343   0.11522702            1 
   91000    1.2273667   -2.2550298    109.91156   0.10065161    0.1152883            2 
   92000    1.2678615   -2.2267482    111.29051   0.10080662   0.11535761            1 
   93000    1.2567935   -2.2542284    112.70753   0.10099241   0.11545395            1 
   94000    1.2420588   -2.2592739     114.2676   0.10130106   0.11555721            2 
   95000    1.2080927   -2.2489955    116.50029   0.10219324   0.11565996            1 
   96000    1.2340534   -2.2597324    117.98683   0.10241913   0.11577365            1 
   97000    1.2055954   -2.2335099    118.80238    0.1020639   0.11588145            2 
   98000    1.2590249   -2.2172828    119.92952   0.10198088   0.11594975            2 
   99000    1.2281353   -2.2547326    120.94067   0.10180191   0.11599617            1 
  100000    1.2457394   -2.2580738    121.79708   0.10149757   0.11602414            1 
  101000    1.2206683   -2.2533588      123.261    0.1017005   0.11602828            1 
  102000    1.2411325   -2.2469413    124.15286   0.10143208   0.11601461            1 
  103000    1.2440777   -2.2733364     125.3033   0.10137807   0.11599734            2 
  104000    1.2349109   -2.2524757    126.85626   0.10164764   0.11597013            1 
  105000    1.2388541    -2.213826    127.85389   0.10147134   0.11595181            1 
  106000    1.2378362   -2.2443503    129.27594   0.10163202   0.11590547            1 
  107000    1.2259145   -2.2223504    130.62861   0.10173568   0.11584882            1 
  108000    1.2103979    -2.217981    132.49871   0.10223666   0.11580563            3 
  109000     1.234359   -2.2257223     133.3543   0.10195283   0.11577001            1 
  110000    1.2284213   -2.2592829    134.34804   0.10177882   0.11571384            1 
  111000    1.2427899   -2.2086332     135.1084   0.10143273   0.11565166            1 
  112000    1.2405063   -2.2471696    136.96261   0.10190671   0.11558823            2 
  113000     1.269109   -2.2158054    138.19924   0.10191684    0.1155121            1 
  114000    1.2200611   -2.2405553    139.12441   0.10169913   0.11543587            1 
  115000     1.245018   -2.2502321     140.7374   0.10198363   0.11536409            3 
  116000    1.2236372   -2.2484944    141.53643   0.10167847    0.1152971            1 
  117000    1.2488827   -2.2587571    143.40155   0.10213785   0.11522553            1 
  118000    1.2342666   -2.2583436     144.5853   0.10210826   0.11517109            1 
  119000    1.2463468   -2.2498814      146.314   0.10246079   0.11511502            5 
  120000    1.2267491   -2.2397522    147.63108   0.10252158   0.11507462            1 
  121000    1.2262401   -2.2476704    150.04894   0.10333949   0.11505806            1 
  122000    1.2291129   -2.2690493    151.11053   0.10321757   0.11503109            1 
  123000    1.2420729   -2.2672255     152.2208   0.10313063   0.11500289            1 
  124000    1.2167809   -2.2659545    153.90315   0.10342953   0.11498737            1 
  125000     1.224475   -2.2602128    155.51193   0.10367462   0.11496932            1 
  126000    1.2320249   -2.2450814    157.32229   0.10404913   0.11497919            1 
  127000    1.2313679   -2.2545783    158.29671   0.10386923   0.11500094            1 
  128000    1.2365026   -2.2158147     160.0272   0.10418437   0.11502297            2 
  129000    1.2169469   -2.2416066    162.02855    0.1046696   0.11505439            1 
  130000    1.2228819   -2.2362156    163.83164   0.10502028   0.11508782            1 
  131000    1.2466971   -2.2468834    164.77666   0.10481976   0.11512172            1 
  132000    1.2144535   -2.2212912    167.19764   0.10555406   0.11515017            1 
  133000    1.2312025   -2.2618231    166.99612   0.10463416   0.11517905            1 
  134000    1.2394767   -2.2465298    168.87039    0.1050189   0.11520644            2 
  135000    1.2136448   -2.2320421    170.98283   0.10554496   0.11524165            2 
  136000    1.2156184   -2.2613705    171.01561   0.10478898   0.11525325            3 
  137000    1.2212112   -2.2575143    171.88813   0.10455482   0.11525758            1 
  138000     1.249676   -2.2589969    174.55174   0.10540564   0.11527137            1 
  139000    1.2261497   -2.2523083    175.84848   0.10542475   0.11528165            2 
  140000    1.2243336   -2.2349544    177.83366   0.10585337    0.1152939            3 
  141000    1.2134243   -2.2596614    177.79743   0.10508122   0.11529968            1 
  142000    1.2507289   -2.1968878     180.0465   0.10566109   0.11530688            1 
  143000    1.1947445   -2.2387058    182.22379   0.10619102   0.11533615            2 
  144000    1.2192902    -2.281307    181.47669   0.10502123   0.11535986            3 
  145000    1.2299644   -2.2590133     184.1646   0.10584172   0.11537583            5 
  146000    1.1926641   -2.2285113    186.45431   0.10642369   0.11539999            1 
  147000     1.218703   -2.2622642    186.99783   0.10600784   0.11543189            1 
  148000    1.2507636   -2.2740097    187.81538    0.1057519   0.11544884            1 
  149000    1.2434945   -2.2602018    191.01082   0.10682932   0.11547742            1 
  150000    1.2461442   -2.2221401    192.47688    0.1069316   0.11551414            2 
  151000    1.2421394   -2.2478396    192.26037   0.10610396   0.11556146            1 
  152000    1.2331039   -2.2378592     194.9008   0.10685351   0.11558234            2 
  153000    1.2343804    -2.267845    194.62976    0.1060075   0.11558727            1 
  154000    1.2117795   -2.2619614    195.75221   0.10592652   0.11559329            2 
  155000    1.2196733   -2.2173453    196.47597   0.10563224   0.11559406            1 
  156000    1.2522435   -2.2431343    199.29736   0.10646226   0.11558381            1 
  157000    1.2292839   -2.2327649     199.9414   0.10612601   0.11558221            2 
  158000    1.2168817   -2.2613867     201.0913   0.10606081   0.11556802            3 
  159000    1.2142814   -2.2534864    202.76078   0.10626875   0.11555975       -1e+20 
  160000    1.2031337    -2.256239    203.62451   0.10605443   0.11554764            1 
  161000    1.2267425   -2.2440705    205.64364   0.10644081   0.11553135       -1e+20 
  162000    1.1912212   -2.2771763    206.59105   0.10627111   0.11551742            1 
  163000    1.2324489   -2.2269914     207.9722   0.10632525   0.11550186            1 
  164000    1.2232036   -2.2503895    209.57945   0.10649362   0.11548237            2 
  165000    1.2371993   -2.2573416    210.42704   0.10627628   0.11545715            1 
  166000    1.2364649   -2.2733504    211.44527   0.10614722   0.11543359            2 
  167000    1.2271994    -2.241344    213.10425   0.10633944   0.11540592            1 
  168000    1.2023366   -2.2490825     214.3132   0.10630615   0.11538357            1 
  169000    1.2405288   -2.2414159    216.14933   0.10658251   0.11536323            2 
  170000    1.2152138    -2.245098    216.64274   0.10619742   0.11534182            1 
  171000    1.2412214   -2.2580711    217.51639   0.10600214   0.11531915            1 
  172000    1.2328367    -2.220575    221.86706   0.10749373   0.11530245            1 
  173000    1.2027099   -2.2235594    222.04691   0.10695901   0.11529646            1 
  174000    1.2346977   -2.2309278     223.7274   0.10714914    0.1152926            1 
  175000    1.2251153   -2.2632566    224.34427    0.1068306    0.1152828            2 
  176000    1.2171538    -2.254336     225.4514   0.10674782   0.11526996            2 
  177000    1.2110932   -2.2706242    227.46792   0.10709413   0.11525571            2 
  178000    1.2194899   -2.2690094    228.80168   0.10711689   0.11522876            1 
  179000    1.2265178   -2.3002207    228.38444   0.10632423    0.1152002            2 
  180000    1.2215013   -2.2141437    230.08503   0.10652085   0.11517778            2 
  181000    1.2093087   -2.2397914    231.69907   0.10667545   0.11515431            1 
  182000     1.201833   -2.2420492    233.37361   0.10685605   0.11512741            1 
  183000    1.2013045   -2.2644058    232.99576   0.10610007    0.1151007            5 
  184000    1.2085504   -2.2472451     235.4525    0.1066361   0.11507357            2 
  185000    1.2280822   -2.2579625    237.09585   0.10679993   0.11505073            3 
  186000    1.2096411   -2.2390336    238.28964   0.10676059   0.11502771            1 
  187000    1.2274296   -2.2652481     239.6796   0.10680909   0.11500469            1 
  188000    1.1978037   -2.2606271    241.22705   0.10692688   0.11498237            2 
  189000    1.2183399   -2.2726196    242.00135   0.10670253   0.11496173            2 
  190000    1.2223782   -2.2323373    244.71287    0.1073302   0.11493495            2 
  191000    1.2391543   -2.2756814    245.26812   0.10701052   0.11491032            1 
  192000    1.2220159   -2.2727071    247.50445   0.10742381   0.11488531            1 
  193000    1.2039918   -2.2777944    247.27203   0.10676685   0.11486018            2 
  194000    1.2272234    -2.263115    248.88221   0.10690816   0.11482806            1 
  195000    1.2240513   -2.2574116    249.66954   0.10669639   0.11479201            2 
  196000    1.2228464   -2.2615576    249.67071   0.10615251   0.11475452            2 
  197000    1.2332511   -2.2523577    252.99273   0.10701892   0.11472146            1 
  198000     1.203879   -2.2527499    253.64854   0.10675444   0.11468435            1 
  199000    1.2146746   -2.2243248    254.26502   0.10647614   0.11464143            1 
  200000    1.2065112   -2.2562343    255.38823   0.10641176   0.11459574            1 
  201000    1.2142898   -2.2536661    256.61184   0.10638965    0.1145536            1 
  202000    1.2181047   -2.2713966    257.35129   0.10616802   0.11451264            4 
  203000    1.2378527   -2.2686334    259.35694   0.10646837   0.11447574            1 
  204000     1.232674   -2.2360583    261.54248   0.10683925   0.11444529            2 
  205000     1.212234   -2.2769961    261.02752   0.10610875   0.11440829            1 
  206000    1.2303556   -2.2566848    263.91995   0.10676373   0.11437168            1 
  207000    1.2125871   -2.2498082    263.22763   0.10596926    0.1143355            1 
  208000    1.2377569   -2.2603165    266.80343    0.1068924   0.11430226            1 
  209000    1.2081274   -2.2638136    267.19175   0.10653578   0.11427013            3 
  210000    1.2194027   -2.2417085    269.58377   0.10697769   0.11423544            1 
  211000    1.2174581   -2.2615891    270.56583   0.10685854   0.11420336            2 
  212000    1.2255407   -2.2270694    272.89724   0.10727093   0.11418039            1 
  213000    1.1912277   -2.2635919    273.23554   0.10689966   0.11415431            1 
  214000    1.2246439   -2.2382332    273.88801   0.10665421   0.11412172            2 
  215000    1.2274074   -2.2717059    276.17558    0.1070448   0.11408679            3 
  216000    1.2223618   -2.2478882    278.08292   0.10728508   0.11405599            2 
  217000    1.2391267   -2.2607561    277.34517   0.10650736   0.11402979            2 
  218000    1.2163588   -2.2499764    279.65384   0.10690131   0.11399672            1 
  219000    1.2385465   -2.2834449    279.82125   0.10647688   0.11396325            1 
  220000    1.1990952   -2.2808658    279.72797   0.10595756   0.11392488            1 
  221000     1.248789   -2.2641231    283.28781   0.10682044   0.11388673            1 
  222000     1.212844   -2.2696717    282.91315   0.10619863   0.11385275            2 
  223000    1.2116975   -2.2490468    287.11207    0.1072915   0.11381616            2 
  224000    1.2189548   -2.2575759    286.37506   0.10653834   0.11378306            1 
  225000    1.2247623   -2.2857734    287.28054    0.1064002   0.11374309            1 
  226000    1.2285119   -2.2099547    289.70996   0.10682521   0.11370569            1 
  227000    1.2227225   -2.2612994    291.83565   0.10713497   0.11366944            2 
  228000     1.232769   -2.2526311    291.62059   0.10658647    0.1136293            1 
  229000    1.2260221   -2.2683343    291.51133   0.10608127   0.11358891            1 
  230000    1.1978187   -2.2601783    295.80028   0.10717402    0.1135525            3 
  231000    1.2269753   -2.2602519    297.06471    0.1071662   0.11351979            1 
  232000    1.2041029   -2.2363899    297.59862   0.10689606   0.11348523            2 
  233000    1.2275751   -2.2594874     299.6691   0.10717779   0.11345306            2 
  234000    1.1997538   -2.2764844    298.83634    0.1064232   0.11341952            1 
  235000    1.2044022   -2.2701244    301.76545   0.10700902   0.11338688            1 
  236000    1.1928411   -2.2573917    303.78028   0.10726705   0.11335654            1 
  237000    1.2094042   -2.2255232    303.62988   0.10676156   0.11331942            1 
  238000     1.225863   -2.2735099    304.80613   0.10672484   0.11328315            1 
  239000    1.2384341   -2.2898841    305.47291   0.10651078   0.11324851            2 
  240000     1.205773   -2.2698923    308.57821   0.10714521   0.11321013            1 
  241000     1.202647   -2.2572844    309.05729   0.10686628   0.11317509            1 
  242000    1.2355905   -2.2721387    310.11337   0.10678835   0.11314584            2 
  243000    1.2318058   -2.2495544    312.25512   0.10708337   0.11311967            1 
  244000    1.2157689   -2.2800495    311.33881   0.10633156   0.11308562            2 
  245000    1.2118305   -2.2647092    314.18535   0.10686576   0.11304873            1 
  246000    1.1994978   -2.2556387    314.85704   0.10665889   0.11301503            2 
  247000    1.2093333   -2.2525871    317.02763   0.10695939   0.11297969            2 
  248000     1.216972   -2.2923168    315.21995   0.10592068   0.11294039            2 
  249000    1.1842211   -2.2247868    318.38263   0.10655376   0.11290393            2 
  250000    1.2249426   -2.2870194    320.70539    0.1069018   0.11286887            2 
  251000    1.1986873   -2.2593358    320.13273   0.10628577   0.11283507            2 
  252000    1.2090095   -2.2811215    322.70661   0.10671515   0.11280087            2 
  253000    1.2019454   -2.2612193    324.32742   0.10682721   0.11276821            1 
  254000    1.1747335   -2.2393121    325.09784    0.1066594   0.11273316            1 
  255000     1.198744   -2.2852785    325.24264   0.10628844   0.11269821            2 
  256000    1.1833169   -2.2665351    328.89875   0.10706339   0.11266364            1 
  257000    1.2157005   -2.2521741    327.95566     0.106341    0.1126285            1 
  258000    1.2401252   -2.2665913     329.1955   0.10632929   0.11259236            1 
  259000    1.1954823   -2.2438764    330.24059   0.10625502   0.11255682            2 
  260000     1.192164   -2.3006474    330.94812   0.10607311   0.11252071       -1e+20 
  261000    1.2427465    -2.256924    333.11912   0.10635987   0.11248178            3 
  262000     1.226061    -2.267751    333.97713   0.10622682   0.11244247            1 
  263000    1.1883109   -2.2929174    334.13625   0.10587333   0.11239835            3 
  264000    1.2042794   -2.2431259    337.50841   0.10653674   0.11235611            1 
  265000    1.2303667   -2.2661239    339.09233   0.10663281    0.1123201            1 
  266000    1.1896156   -2.2645511    340.85555   0.10678432   0.11228932            1 
  267000    1.1825579   -2.2587631    342.65982   0.10694751    0.1122581            1 
  268000    1.1872871   -2.2681804    343.38287   0.10677328   0.11223312            1 
  269000    1.2124546   -2.2400003    346.66473   0.10739304   0.11220883            1 
  270000    1.2072749   -2.2529255    346.60331   0.10697633   0.11218844            4 
  271000    1.2071226   -2.2632828    347.91903   0.10698617   0.11217066            1 
  272000    1.2301288   -2.2866888    348.00945   0.10662054   0.11214903            3 
  273000    1.1795544   -2.2619645    350.38954   0.10695651   0.11212582            2 
  274000    1.2008984   -2.2503318     351.3774   0.10686661   0.11210471            1 
  275000    1.1739356   -2.2482266    352.86972   0.10693022   0.11208332            1 
  276000    1.1923624   -2.2579213    354.14565   0.10692803   0.11206296            1 
  277000    1.2075789   -2.2475677    354.61017   0.10668176   0.11203851            1 
  278000    1.2145013    -2.282786    356.91009   0.10698744   0.11200902            1 
  279000    1.1944082   -2.2487405    356.70135   0.10654162   0.11198436            3 
  280000    1.2075093   -2.2419654    360.63866   0.10733293   0.11195905            4 
  281000    1.1993642   -2.2607826    360.81175    0.1070023   0.11193701            2 
  282000    1.2118151   -2.2819769    360.08703    0.1064087   0.11191596            3 
  283000    1.2031039   -2.2822197    362.35808   0.10670144    0.1118871            2 
  284000    1.2071151   -2.2503232    365.79308   0.10733365   0.11186491            1 
  285000    1.1674211   -2.2790081    363.02525   0.10614773   0.11184147            1 
  286000    1.2167337   -2.2546421    366.12377   0.10667942   0.11181322            2 
  287000    1.1912438   -2.2550498    368.50797   0.10699999    0.1117871            1 
  288000    1.1905415   -2.2507056     370.5534   0.10722031   0.11176475            2 
  289000    1.2121689   -2.2859167    367.75799   0.10604325   0.11173906            1 
  290000    1.2082722   -2.2618968     372.8342   0.10713626   0.11171668            1 
  291000    1.2022388    -2.266703    374.07995   0.10712484   0.11168978            1 
  292000    1.2379531   -2.2666596    372.60219   0.10633624   0.11166385            2 
  293000    1.2143547   -2.2540967    375.36959   0.10676041   0.11164026            1 
  294000    1.1924231   -2.2581211    377.69241   0.10705567    0.1116161            2 
  295000    1.2070078   -2.2906604    377.10298   0.10652626   0.11159722            1 
  296000     1.214735   -2.2680473    380.78901   0.10720411   0.11157784            2 
  297000    1.1686468   -2.2916041    380.32881   0.10671403   0.11155533            3 
  298000    1.2152748   -2.2923346    382.99171   0.10710059   0.11153114            1 
  299000    1.2243238    -2.247154    384.00394   0.10702451    0.1115141            2 
  300000    1.2074048   -2.2716342    385.57349   0.10710375   0.11149916            2 
  301000    1.1853843   -2.2862571    387.11753   0.10717539   0.11148438            1 
  302000    1.1933804   -2.2706082    388.63114   0.10723817   0.11146972            4 
  303000    1.2043846   -2.2606075    390.46645   0.10738901   0.11146026            1 
  304000     1.219526   -2.2667323    390.59316   0.10707049   0.11144788            1 
  305000    1.1902108   -2.2848625    391.99616   0.10710278   0.11143893            5 
  306000    1.1755631   -2.2458216    394.11503    0.1073298   0.11142852            3 
  307000    1.2060338   -2.2563815    394.28606   0.10702662   0.11142162            1 
  308000    1.1955318   -2.2540848    395.74703   0.10707441   0.11141689            2 
  309000    1.2095652   -2.2533343    401.56762   0.10829763   0.11141281            2 
  310000    1.1978107   -2.2916248    401.50163   0.10793055   0.11140756            1 
  311000    1.1864025    -2.254114    402.21026   0.10777338   0.11140033            1 
  312000    1.2327085   -2.2613746    401.94225   0.10735637    0.1113929            1 
  313000    1.1902645   -2.2532381    403.60067   0.10745492   0.11138409            1 
  314000    1.1889691   -2.2734702    403.94056   0.10720291   0.11137378            1 
  315000    1.2163203   -2.2815207    406.78448   0.10761494    0.1113641            2 
  316000    1.1735898   -2.2534271    408.65002   0.10776635   0.11135325            2 
  317000    1.2026606   -2.2787369    407.32117   0.10707707   0.11134159            2 
  318000    1.1925829   -2.2816832     411.0655   0.10772157   0.11133047            1 
  319000    1.1739348   -2.2961025    409.78002   0.10704807   0.11131864            1 
  320000    1.1748676   -2.2759682    411.76078   0.10722937     0.111308            3 
  321000    1.2012828   -2.2733186    414.28549   0.10755075   0.11129768            1 
  322000    1.2064924   -2.2545868    414.52149   0.10727782   0.11128587            2 
  323000    1.2142094   -2.2970157    415.11159   0.10709793   0.11127835            1 
  324000    1.2016667   -2.2659618    417.30569   0.10733171   0.11126705            1 
  325000    1.2000451   -2.2933209    418.87443    0.1074037    0.1112568            2 
  326000     1.218861   -2.2815652    420.60943   0.10751775   0.11124258            1 
  327000    1.1892935   -2.2583914    420.28434    0.1071061   0.11123023            2 
  328000    1.2020007   -2.2972562    421.80444   0.10716576   0.11121857            1 
  329000    1.1787846   -2.2827221     423.6397   0.10730489   0.11120499            1 
  330000    1.2144738   -2.2803625    425.06759    0.1073403   0.11119162            2 
  331000    1.1871647   -2.2936025    427.73751   0.10768819    0.1111834            3 
  332000    1.1854411   -2.2786748    429.79014   0.10787905   0.11117953            2 
  333000    1.2062268   -2.2747373    429.70082   0.10753274   0.11117547            2 
  334000    1.1863722   -2.2777739    432.39265    0.1078824   0.11117327            1 
  335000     1.195184   -2.2803705    432.87048   0.10767922   0.11116524            2 
  336000    1.1729893   -2.2982007    431.89599   0.10711706   0.11115379            1 
  337000    1.1702745   -2.2923738     435.7074   0.10774169   0.11114403            4 
  338000    1.1932938   -2.2907999    438.08378   0.10800882   0.11113647            1 
  339000    1.2128342   -2.2379313    436.58375   0.10732147   0.11112734            1 
  340000    1.1997797   -2.2962486    438.78279    0.1075448   0.11111876            1 
  341000    1.2074215   -2.2815215     439.1282   0.10731383   0.11110518            2 
  342000    1.2283593   -2.2705521    440.61112   0.10736138   0.11109536            1 
  343000    1.2201228   -2.2731187    442.29664   0.10745788   0.11108172            1 
  344000    1.2122506   -2.2719107    444.29662      0.10763   0.11107173            1 
  345000    1.2221464   -2.2679753    444.72325   0.10742107   0.11106225            2 
  346000    1.2168578   -2.3327018    445.29609   0.10724858   0.11105188            1 
  347000    1.1709574   -2.2793358     445.8372   0.10706945   0.11103923            1 
  348000    1.2061614   -2.2666932    448.50194   0.10739989   0.11102996       -1e+20 
  349000    1.2105295   -2.2790302    450.59547   0.10759204   0.11101827            1 
  350000     1.194467   -2.2466281     451.3757   0.10747041   0.11100742            2 
  351000    1.1887428   -2.2951652    454.33939   0.10786785   0.11099324            1 
  352000    1.1986462   -2.2754721    452.83468   0.10720518   0.11098093            2 
  353000    1.1776945   -2.2513218     454.6634   0.10733319   0.11097107            4 
  354000    1.1761154   -2.2907519    455.94515   0.10733172   0.11095646            1 
  355000    1.2089623   -2.2945199    455.10283   0.10683165   0.11093711            2 
  356000    1.1948299   -2.2766029    458.38239   0.10729925    0.1109158            1 
  357000    1.1830432   -2.2667391    457.19201   0.10672082   0.11089707            2 
  358000    1.1950485   -2.2930139    461.68166    0.1074678   0.11087472            2 
  359000    1.2255091   -2.3061398    457.10064   0.10610507   0.11085006            1 
  360000    1.1969647   -2.2828656    459.55792   0.10637915   0.11082522            3 
  361000    1.1813369   -2.2870891    462.55446   0.10677619   0.11080147            1 
  362000    1.1814373   -2.2675841    461.81062   0.10630999   0.11077627            1 
  363000    1.1753095   -2.2708618    463.89465   0.10649556   0.11075541            1 
  364000    1.2002165   -2.2818894    465.06592   0.10647114   0.11072884            1 
  365000    1.1875542   -2.2791198    468.86164   0.10704604   0.11070236            2 
  366000    1.1797352   -2.3055409    468.98159   0.10678087   0.11067836            1 
  367000    1.1978099   -2.2909815    468.25276   0.10632442   0.11065307            1 
  368000    1.1756558   -2.2598242    471.72305   0.10682134   0.11062724            3 
  369000    1.2189344   -2.3086668    468.93364   0.10590191   0.11059873            2 
  370000    1.1753728   -2.2862923    469.45918   0.10573405   0.11056629            4 
  371000    1.1981606   -2.2723116    471.67255   0.10594622   0.11053407            2 
  372000    1.1785258   -2.3213839     472.8442   0.10592388       0.1105            2 
  373000    1.1939742   -2.2643834    473.52479   0.10579196   0.11046594            1 
  374000    1.1535204   -2.2833022    473.73344   0.10555558   0.11043357            1 
  375000    1.1760079   -2.2488254    477.95919   0.10621315   0.11040192            3 
  376000    1.1899655   -2.2824298     477.0403   0.10572702   0.11037109            2 
  377000    1.2129885   -2.2674601     479.6922   0.10603276    0.1103401            2 
  378000    1.1754753   -2.2735336    478.80113    0.1055558   0.11030115            2 
  379000    1.1780781    -2.248213    481.71778    0.1059186    0.1102637            2 
  380000    1.2016642   -2.2968461    481.16931   0.10551958   0.11022646            2 
  381000    1.1762777   -2.3026573    480.02695   0.10499277    0.1101908            5 
  382000    1.1922458   -2.2985914    483.86903   0.10555607   0.11015272            2 
  383000    1.1877552   -2.2908263    484.51124    0.1054202   0.11011418            2 
  384000    1.1865524   -2.2910639    485.59806   0.10538152   0.11007409            1 
  385000    1.2173889   -2.2898093    486.77508   0.10536257   0.11003732            1 
  386000    1.1933234   -2.2818715    487.45317     0.105236   0.10999947            1 
  387000    1.1927642   -2.2831149    487.60736   0.10499728   0.10996356            1 
  388000    1.1960892   -2.2918227    491.29809   0.10551935   0.10992685            1 
  389000    1.1827187   -2.2996522    493.75406   0.10577422   0.10989267            1 
  390000    1.1863625   -2.2769751    492.14765   0.10515976   0.10985569            1 
  391000    1.2049467   -2.2865628    492.94663   0.10506109   0.10981665            2 
  392000    1.1969702   -2.3020404    494.85582   0.10519894   0.10977803            3 
  393000    1.1834322   -2.3046402    495.94572   0.10516237   0.10973954            1 
  394000    1.1814741    -2.258996    496.99132   0.10511661   0.10970306            1 
  395000    1.1953449   -2.3049131     497.6998   0.10499996   0.10966664            1 
  396000    1.1797199   -2.2559321    500.07546   0.10523473   0.10963013            1 
  397000     1.178342   -2.2787039    503.44139   0.10567619   0.10959438            2 
  398000     1.191452   -2.3117057    502.55376   0.10522482   0.10955832            1 
  399000    1.1849871   -2.2978634     502.4508    0.1049396   0.10952303            1 
  400000    1.1827122   -2.2822437    503.72265   0.10494222   0.10948472            1 
  401000    1.1521032   -2.2955403    507.51459   0.10546853   0.10944852            1 
  402000    1.1728362   -2.2973565    507.19258   0.10513942   0.10941457            2 
  403000    1.1740636   -2.3004172    508.93617   0.10523907   0.10938106            1 
  404000    1.2031023   -2.2780606    509.07368   0.10500695   0.10934898            1 
  405000    1.2091697   -2.3040065    510.95753   0.10513529   0.10931662            3 
  406000    1.2062086   -2.2703161    511.42725   0.10497275   0.10928309            1 
  407000    1.1627947   -2.2918228    513.64237   0.10516838   0.10924962            2 
  408000    1.1932242   -2.2657266    513.85316   0.10495367   0.10921596            4 
  409000    1.1584536     -2.28793    514.75054    0.1048799   0.10917977            1 
  410000    1.2081768   -2.3038702    513.96191    0.1044638   0.10914369            2 
  411000    1.1882247   -2.2754172     518.7236    0.1051751   0.10910784            2 
  412000    1.1634434   -2.3083494    522.30081   0.10564337    0.1090747            1 
  413000    1.1590533   -2.2997274    520.70123   0.10506482   0.10904156            1 
  414000    1.1851123   -2.2796753    521.54607   0.10498109   0.10900758            1 
  415000    1.1732988   -2.2902425    521.57883    0.1047347   0.10897307            1 
  416000    1.1853777   -2.2742691    524.60801   0.10508974    0.1089386            4 
  417000    1.1679773   -2.2897975    526.30528   0.10517691   0.10890447            2 
  418000    1.1883897   -2.2808434     524.8667    0.1046385    0.1088688            2 
  419000    1.1857462   -2.2978208    526.67812   0.10474903   0.10883112            7 
  420000    1.1978119   -2.2799771    530.78415   0.10531432   0.10879874            1 
  421000    1.1588964   -2.3242261     527.7578   0.10446512   0.10876453            1 
  422000    1.1682393   -2.3030956     530.1521   0.10469038   0.10872933            2 
  423000    1.1824328   -2.2788625     533.8678    0.1051749   0.10869499            2 
  424000    1.1643311   -2.2697602    533.78493   0.10491056   0.10866295            1 
  425000    1.2034105   -2.3012764     531.8929   0.10429272   0.10863156            2 
  426000    1.1710617   -2.2935061    537.18825   0.10508377   0.10860039            3 
  427000    1.2150229   -2.2955261    537.62576   0.10492306   0.10856736            2 
  428000     1.177659   -2.2821969    536.58515    0.1044753   0.10853401            3 
  429000    1.1662884   -2.2752298    538.91943    0.1046852   0.10849977            2 
  430000    1.1828526   -2.2958062    541.80986   0.10500191   0.10846671            1 
  431000    1.1884592   -2.3172529    539.66725   0.10434402   0.10843274            1 
  432000    1.2021382   -2.3049533    543.55267   0.10485198   0.10839867            2 
  433000    1.1837222   -2.2872906    543.07094   0.10451712   0.10836673            1 
  434000     1.184813    -2.280961    544.90218   0.10462791   0.10833562            3 
  435000    1.1736422   -2.2790461    546.56518   0.10470597   0.10830537            1 
  436000    1.1908631   -2.2859961      548.482   0.10483219   0.10827475            2 
  437000    1.1930823   -2.2902406    550.13426   0.10490737   0.10824412            2 
  438000      1.18014   -2.2760423    552.24072   0.10506863   0.10821383            1 
  439000    1.1889805   -2.3007647     551.2691   0.10464485   0.10818295            1 
  440000    1.1833174   -2.2808715    548.24246    0.1038338   0.10815133            1 
  441000      1.18316   -2.2917979    553.87643   0.10466297   0.10812106            1 
  442000    1.1866702   -2.3046958     553.9622   0.10444235   0.10809301            1 
  443000    1.1755588    -2.324054    556.31702   0.10464955   0.10806596            2 
  444000    1.1902002   -2.2851181    557.69706   0.10467287   0.10803927            3 
  445000    1.1845656   -2.2987492    557.84231   0.10446485   0.10801585            1 
  446000    1.1942134   -2.2906202    560.88191   0.10479856   0.10799091            2 
  447000    1.1705512   -2.3050879    563.13495   0.10498414   0.10796638            1 
  448000    1.1643725   -2.3282931    563.48301   0.10481455   0.10794182            2 
  449000    1.2053861    -2.294063    565.27135   0.10491302   0.10791519            3 
  450000    1.1837216   -2.2882819      567.631   0.10511685   0.10788965            2 
  451000     1.184039   -2.3199621    567.10061   0.10478577   0.10786592            1 
  452000    1.2052746   -2.2904099    569.32445   0.10496395   0.10784238            2 
  453000    1.1734121   -2.2905297    569.80219   0.10482012   0.10781827            2 
  454000    1.1869457   -2.2889716    571.68596   0.10493501   0.10779729            1 
  455000    1.1433298   -2.2757001    571.56635   0.10468248   0.10777558            2 
  456000    1.1861889   -2.2801266    572.18777   0.10456648   0.10775279            1 
  457000    1.1726548   -2.2926028    573.76571    0.1046254    0.1077286            2 
  458000      1.21119   -2.3080611    573.50284   0.10434913   0.10770484            5 
  459000    1.2005529   -2.2936837    576.34521   0.10463784   0.10768131            2 
  460000    1.1763191   -2.3065823    579.02832   0.10489643   0.10765715            2 
  461000    1.1531531   -2.2871609    578.63402   0.10459762    0.1076334            2 
  462000    1.1792598   -2.2930084    583.21856   0.10519815   0.10760841            3 
  463000    1.1991595   -2.3168708    578.73078   0.10416321   0.10758067            2 
  464000    1.1744424   -2.2945083    582.48845   0.10461359   0.10755419            2 
  465000    1.1756667   -2.2982068    585.31285   0.10489478   0.10753004            3 
  466000    1.1810784   -2.2832861    585.15039   0.10464063   0.10750528            1 
  467000    1.1859514   -2.3109157    585.65136   0.10450595    0.1074829            1 
  468000    1.1753726   -2.2958968    588.30345   0.10475489   0.10746286            3 
  469000     1.208898   -2.2999776    587.37776   0.10436705   0.10744026            3 
  470000    1.1893768   -2.3456069    587.49265   0.10416536   0.10741517            2 
  471000    1.1776957   -2.2593992    591.75091   0.10469761   0.10739159            2 
  472000    1.1669398   -2.3096141    592.17681   0.10455099   0.10736694            3 
  473000    1.1639371   -2.2990402    592.83841   0.10444651   0.10734309            1 
  474000    1.1523569   -2.3127143    593.77567   0.10439094   0.10731748            3 
  475000    1.1695063   -2.3011805    597.51374   0.10482697   0.10729175            1 
  476000    1.1730809   -2.3025455    594.60668   0.10409781   0.10726556            1 
  477000    1.1841578   -2.2699849    596.99018   0.10429598   0.10724049            1 
  478000    1.1604797   -2.3026027     599.0058   0.10442918   0.10721658            1 
  479000    1.1683556   -2.2866967    602.71004   0.10485561   0.10719612            1 
  480000    1.2060521   -2.2861409     602.6678   0.10462983   0.10717521            2 
  481000    1.1567676   -2.3285239    602.67035   0.10441274   0.10715411            2 
  482000    1.1598856   -2.2962275     605.3844   0.10466535   0.10712995            3 
  483000     1.165749   -2.3020673    607.25588   0.10477155   0.10710847            2 
  484000    1.1695738   -2.3315264    604.41306   0.10406561   0.10708776            3 
  485000     1.162256   -2.3393286    607.75474   0.10442521   0.10706519            3 
  486000    1.1761411   -2.3006236    609.91931    0.1045815   0.10704396            1 
  487000    1.1994094   -2.3046094    610.76411   0.10451131    0.1070226            1 
  488000    1.1761848   -2.2760239    613.94457   0.10484026   0.10700376            1 
  489000    1.1876091   -2.3098705    615.84032   0.10494893   0.10698709            4 
  490000    1.1533371   -2.2899047    611.37539   0.10397541   0.10696941            2 
  491000    1.1811771   -2.2988218    619.02351    0.1050617   0.10694972            2 
  492000    1.1608486   -2.2912209    619.62236   0.10494959   0.10693187            3 
  493000    1.1950082   -2.3082892    617.61414   0.10439725    0.1069136            1 
  494000    1.1569543   -2.3024723    619.73919    0.1045444   0.10689458            2 
  495000    1.1601433    -2.301348    619.34736   0.10426723   0.10687593            2 
  496000     1.175948   -2.3210293    619.11968   0.10401876   0.10685688            2 
  497000    1.1429192   -2.3074754    621.21036   0.10416002   0.10683761            1 
  498000    1.1637915   -2.2875148    623.68651   0.10436521   0.10681882            2 
  499000    1.1486288   -2.2978536    623.04684   0.10404924   0.10679866            2 
  500000    1.2040974   -2.2781905    624.12354   0.10402059   0.10677985            2 
  501000    1.1744652   -2.2827564    627.71484   0.10441032   0.10675927            3 
  502000    1.1663723   -2.3457222    624.54024   0.10367534   0.10673747            4 
  503000    1.1738137   -2.3168616    632.71652   0.10482381    0.1067159            2 
  504000    1.1614161   -2.2976529     627.5783   0.10376625   0.10669365            1 
  505000    1.1687189   -2.3357152     630.2337   0.10399896   0.10667175            1 
  506000    1.1919799   -2.3137303    631.55274   0.10401066   0.10664906            2 
  507000    1.1511998   -2.3329954    631.89305   0.10386145   0.10662373            1 
  508000    1.1509817   -2.3100031    631.45884   0.10358577   0.10659962            2 
  509000    1.1730951   -2.3160537    633.65613     0.103742   0.10657425            2 
  510000    1.1561988   -2.3024613    635.94503   0.10391259   0.10655004            1 
  511000     1.140587   -2.3153974    636.67408   0.10382813   0.10652673            1 
  512000    1.1856405   -2.2980519    640.36076   0.10422538   0.10650118            2 
  513000    1.1748045   -2.3271461    639.41621   0.10386878   0.10647719            1 
  514000    1.1731364   -2.2853583    637.66658   0.10338304   0.10645019            3 
  515000    1.1588183     -2.33799    637.02478   0.10307844   0.10642701            1 
  516000     1.165358   -2.2982889    643.15571   0.10386882   0.10640215            2 
  517000    1.1687445   -2.3280296    643.87382   0.10378366   0.10637693            1 
  518000    1.1601086   -2.3029011    642.86703   0.10342134   0.10635148            1 
  519000    1.1722059   -2.2684527    644.88878   0.10354669   0.10632548            3 
  520000    1.1682324   -2.2986922    646.25456   0.10356644   0.10630064            3 
  521000    1.1582982   -2.2900299    644.39604   0.10307038   0.10627376            1 
  522000    1.1756021   -2.3071942    647.99171   0.10344695   0.10624701            1 
  523000    1.1530506   -2.3057203    652.28877   0.10393384   0.10621931            2 
  524000    1.1687043   -2.3040563    647.52084   0.10297723   0.10619184            2 
  525000    1.1460719   -2.3003851    648.70469     0.102969   0.10616479            1 
  526000    1.1651223   -2.3200227    650.49924   0.10305755   0.10613756            1 
  527000     1.174572   -2.3253888    655.65574   0.10367738    0.1061097            2 
  528000     1.143871   -2.2803747    653.95816   0.10321309   0.10608235            1 
  529000    1.1431774   -2.3116406    657.48521    0.1035736   0.10605386            1 
  530000    1.1715144   -2.3092139    656.64013    0.1032453   0.10602483            2 
  531000    1.1653087   -2.3091336    654.65637   0.10273954   0.10599501            2 
  532000    1.1746974   -2.2988749    658.68622   0.10317767   0.10596755            3 
  533000    1.1815022   -2.3001283    663.96798   0.10380988   0.10594096            2 
  534000    1.1878931   -2.3113569    661.32564   0.10320313   0.10591433            2 
  535000    1.1763763   -2.2979968    661.41468   0.10302409   0.10588543            1 
  536000    1.1674375   -2.2714845    661.45082    0.1028375   0.10585714            4 
  537000    1.1513106   -2.3119251    659.19402   0.10229578   0.10582861            2 
  538000    1.1498768   -2.3168623    662.84989   0.10267192   0.10579865            1 
  539000    1.1488306   -2.3161319    662.38981    0.1024103   0.10576838       -1e+20 
  540000    1.1601896   -2.3031314    664.68905   0.10257547   0.10573693            1 
  541000    1.1724687   -2.3096747    668.96151   0.10304398   0.10570788            1 
  542000    1.1715505   -2.3151669    667.47983   0.10262605    0.1056774            3 
  543000    1.1616826   -2.3232205    668.00391   0.10251748   0.10564722            2 
  544000    1.1385971   -2.3130051     670.6534    0.1027349   0.10561656            1 
  545000    1.1503519   -2.3106946    673.84566    0.1030345   0.10558685            3 
  546000    1.1578123   -2.3106933    672.65463   0.10266402   0.10555542            1 
  547000    1.1507938   -2.3376535    672.57456   0.10246413    0.1055266            2 
  548000    1.1534596   -2.3043736    677.86099   0.10308105   0.10549771            1 
  549000    1.1718689   -2.3141357    676.02721   0.10261494   0.10546823            1 
  550000    1.1629316   -2.3227649    678.38132   0.10278505   0.10543953            1 
  551000    1.1540646   -2.3000943    677.95823   0.10253452   0.10541202            2 
  552000    1.1848243    -2.286551    682.46125   0.10302857   0.10538325            3 
  553000    1.1705418   -2.3242818    678.98572   0.10231852   0.10535414            1 
  554000    1.1871832   -2.3240233    682.50147   0.10266268   0.10532664            2 
  555000     1.164669   -2.3284879    683.83343   0.10267769   0.10529782            2 
  556000    1.1524766    -2.336994    683.82307   0.10249147   0.10526971            1 
  557000    1.1650147   -2.3304442    687.87594   0.10291381   0.10524237            1 
  558000    1.1434024   -2.3116247    686.71057   0.10255534   0.10521711            1 
  559000    1.1953927   -2.3156144    690.10304   0.10287761   0.10519067            2 
  560000    1.1645025   -2.2973935    689.38689   0.10258733   0.10516331            3 
  561000    1.1543792   -2.3455068    692.07785    0.1028042   0.10513857            1 
  562000     1.162962   -2.3145331    692.42491   0.10267273   0.10511396            3 
  563000    1.1404071   -2.3270696    694.93962   0.10286258   0.10508806            3 
  564000    1.1854526   -2.3231205    694.56177   0.10262438    0.1050641            1 
  565000    1.1364071   -2.3470899    695.78114   0.10262259   0.10503929            1 
  566000    1.1648366   -2.2843014    696.30721   0.10251873   0.10501494            2 
  567000    1.1569079   -2.3205025    699.31422   0.10277987   0.10499309            1 
  568000    1.1442876   -2.3185874    703.35498   0.10319175   0.10496906            1 
  569000    1.1452056   -2.3355422    702.12428   0.10283015   0.10494618            2 
  570000    1.1918547   -2.3324832    700.20452   0.10236908    0.1049247            2 
  571000    1.1571093   -2.3287875    705.13646   0.10290958   0.10490253            1 
  572000    1.1843495   -2.3293149    704.55944   0.10264561   0.10487932            3 
  573000    1.1574269   -2.3184944    703.39609   0.10229728   0.10485581            1 
  574000    1.1600959   -2.3172765    707.86017   0.10276716   0.10483003            1 
  575000     1.149725   -2.3171431    708.61407   0.10269769    0.1048057            4 
  576000    1.1644835   -2.3034616    707.16499   0.10230975    0.1047809            1 
  577000    1.1663177   -2.3236984    713.74399   0.10308261   0.10475521            2 
  578000    1.1448757   -2.3319211    707.94565   0.10206829   0.10472902            2 
  579000    1.1603096   -2.3238435    710.56268   0.10226866   0.10470081            2 
  580000    1.1712307   -2.3212034    708.81722   0.10184155   0.10467325            1 
  581000    1.1543999   -2.2997628    712.76667   0.10223274   0.10464621            4 
  582000    1.1857754   -2.3040614    710.87113   0.10178567   0.10461696            2 
  583000    1.1299356   -2.3427636    711.01277   0.10163133   0.10458684            1 
  584000    1.1914337   -2.3158895    712.62558   0.10168744   0.10455764            1 
  585000    1.1479323   -2.3154526    712.88963   0.10155123   0.10452953            1 
  586000    1.1590056   -2.3221491    716.72122   0.10192281   0.10449982            2 
  587000      1.16861   -2.3118787    716.93429   0.10177943     0.104472            1 
  588000    1.1565298   -2.2975565    719.51228    0.1019717   0.10444414            1 
  589000    1.1321421   -2.3060919    723.47241   0.10235886   0.10441691            2 
  590000      1.15603   -2.3214888     720.4724   0.10176164   0.10439007            1 
  591000    1.1465242   -2.3178191    721.79713   0.10177625   0.10436272            2 
  592000    1.1452579   -2.3230365    720.62873   0.10143985    0.1043336            4 
  593000    1.1496069   -2.3192919    728.38175   0.10235831    0.1043059            2 
  594000    1.1472585    -2.298691    724.45991   0.10163579   0.10427867            1 
  595000    1.1614965   -2.3241221    728.91043    0.1020883   0.10425202            2 
  596000    1.1588408   -2.3016242    726.85175   0.10162916   0.10422779            1 
  597000    1.1639168   -2.3080975    732.84802   0.10229593   0.10420269            2 
  598000    1.1560055   -2.3018104    729.76014   0.10169456   0.10417748            3 
  599000    1.1423838   -2.3409218    730.09639   0.10157156   0.10415307            1 
  600000    1.1626772   -2.3181591    733.77941   0.10191381   0.10412587            1 
  601000    1.1602228   -2.3101209    732.71738   0.10159697   0.10410023            1 
  602000    1.1528082   -2.3161271    734.66305   0.10169754   0.10407514            2 
  603000    1.1686557   -2.3181064    734.42515   0.10149601   0.10405172            3 
  604000    1.1531362   -2.3259914    739.94667   0.10208977   0.10402674            3 
  605000    1.1674244   -2.3507325    737.00051   0.10151522   0.10400348            2 
  606000    1.1457274   -2.3132767    745.04415   0.10245382   0.10397991            1 
  607000    1.1721019   -2.3140332    743.72855   0.10210441   0.10395845            1 
  608000    1.1651977   -2.3066189     744.4058    0.1020293   0.10393547            1 
  609000    1.1486846   -2.3212893    745.47091   0.10200751   0.10391131            1 
  610000     1.155881   -2.3041762    745.84558   0.10189147    0.1038863            2 
  611000     1.151078   -2.3396974    744.75275   0.10157566   0.10386222            2 
  612000    1.1214365   -2.3502782    748.81714   0.10196312   0.10383783            6 
  613000    1.1628293   -2.3140461    749.85373    0.1019377   0.10381408            2 
  614000    1.1736301   -2.3332583    746.26261   0.10128428   0.10379005            2 
  615000    1.1597487   -2.3401684    750.89357    0.1017471   0.10376498            2 
  616000    1.1366065   -2.3188282      754.999   0.10213731   0.10373991            2 
  617000    1.1467762   -2.3190119    753.48187   0.10176686   0.10371733            1 
  618000    1.1604014   -2.2879751    753.97174   0.10166825   0.10369427            2 
  619000    1.1560844    -2.315904    754.80514    0.1016162   0.10367248            3 
  620000    1.1399842   -2.3203809    758.38258   0.10193314   0.10364986            1 
  621000    1.1473696   -2.3270762    755.29938   0.10135526   0.10362731            1 
  622000    1.1307147   -2.3217194    759.85912    0.1018032   0.10360579            1 
  623000    1.1705613   -2.3096757    760.68571   0.10175036   0.10358549            1 
  624000    1.1755482   -2.3247603    764.44898   0.10208987   0.10356491            1 
  625000    1.1422594   -2.2879985    764.14786   0.10188638   0.10354459            1 
  626000    1.1378471   -2.3341368    764.21944   0.10173315   0.10352347            1 
  627000    1.1207838   -2.3534595    762.90539   0.10139625   0.10350228            1 
  628000    1.1838336   -2.3229734     772.3118   0.10248299   0.10348461            1 
  629000    1.1147873   -2.3612291     769.9025   0.10200086   0.10346632            3 
  630000    1.1233049   -2.3274318    770.55982    0.1019259   0.10344767            2 
  631000    1.1833558    -2.335315    771.21227   0.10185054   0.10342854            2 
  632000    1.1553665   -2.3240991    773.15491   0.10194553   0.10341073            1 
  633000    1.1667182   -2.3314585     774.7792   0.10199831   0.10339171            1 
  634000    1.1702587   -2.3098108    775.49061   0.10193094   0.10337431            2 
  635000    1.1455892   -2.3062013    776.25039   0.10187013   0.10335755            2 
  636000    1.1614606   -2.3552638    778.54491    0.1020106    0.1033398            1 
  637000    1.1590909   -2.3265596      775.867   0.10150013   0.10332038            1 
  638000    1.1421956   -2.3305119    772.81969   0.10094301   0.10329904            3 
  639000    1.1625944   -2.3321221    778.30225   0.10150003    0.1032779            1 
  640000    1.1487668   -2.3151587    782.91429   0.10194196   0.10325733            2 
  641000    1.1431213   -2.3204635    782.27419   0.10169971   0.10323746            1 
  642000    1.1499218   -2.3496558    780.54586   0.10131696   0.10321641            2 
  643000    1.1538795   -2.3457858    783.10384   0.10149091   0.10319652            5 
  644000    1.1446463   -2.3398278    786.65769   0.10179318   0.10317756            2 
  645000    1.1753306   -2.3357163    787.93538   0.10180044   0.10315944            2 
  646000     1.142607   -2.3267479     786.7282   0.10148713   0.10313915            2 
  647000    1.1309061   -2.3207504    791.63219    0.1019619   0.10312022            2 
  648000    1.1488665   -2.3393098    787.58012   0.10128345   0.10310093            1 
  649000    1.1442792   -2.3229574     791.7974    0.1016689    0.1030817            1 
  650000    1.1443102   -2.3485844      793.102   0.10167974   0.10306418            1 
  651000    1.1783195   -2.3481408    796.04575   0.10190038   0.10304577       -1e+20 
  652000    1.1428405   -2.3282367    800.56194   0.10232131   0.10302878            1 
  653000    1.1526573   -2.3218671    798.35816   0.10188338   0.10301304            1 
  654000    1.1391869   -2.3421515    799.09104   0.10182098   0.10299717            1 
  655000    1.1463158   -2.3255383    797.10688   0.10141309   0.10298188            1 
  656000    1.1766995   -2.3296949     801.8002    0.1018547   0.10296734            4 
  657000     1.136302   -2.3234899    801.73715   0.10169167   0.10295342            2 
  658000    1.1755863    -2.322776    802.27372   0.10160508   0.10293712            2 
  659000    1.1436093   -2.3318396    805.44946   0.10185249   0.10292137            2 
  660000    1.1534431   -2.3103437    806.70558   0.10185676   0.10290595            1 
  661000    1.1515192   -2.3218576    811.07274   0.10225324   0.10289101            3 
  662000    1.1320974   -2.3614863      808.549   0.10178109   0.10287663            2 
  663000    1.1203534   -2.3104966    807.78687   0.10153178   0.10286081            3 
  664000    1.1501518   -2.3386685    808.91344   0.10152026   0.10284639            1 
  665000    1.1497017   -2.3342118    811.75786   0.10172404   0.10283199            1 
  666000    1.1394188   -2.3434277    810.97081   0.10147282   0.10281718            1 
  667000    1.1566979   -2.3162627    814.40194   0.10174937   0.10280214            2 
  668000    1.1583756   -2.3438521    813.16968   0.10144332   0.10278718            2 
  669000    1.1577927   -2.3223422    816.06566   0.10165242   0.10277225            2 
  670000    1.1283442   -2.3449489    818.31283    0.1017802   0.10275534            3 
  671000     1.130874    -2.336538      818.485    0.1016499   0.10273895            1 
  672000     1.177925   -2.3105696    821.70807   0.10189832   0.10272357            1 
  673000    1.1517306   -2.3129397    821.22687   0.10168733   0.10270722            2 
  674000    1.1423452   -2.3404772    821.14962   0.10152691    0.1026909            2 
  675000    1.1422994   -2.3441113    824.91456    0.1018413    0.1026743            1 
  676000    1.1432808   -2.3266176    819.95583   0.10107937   0.10265768            1 
  677000    1.1318898   -2.3221911    825.43574    0.1016046   0.10264071            1 
  678000    1.1455321   -2.3787404    822.04646   0.10103816   0.10262094            3 
  679000    1.1714027   -2.3474317    821.78077   0.10085675   0.10260082            1 
  680000     1.153677   -2.3108776    830.47426   0.10177381     0.102581            3 
  681000    1.1483004   -2.3382442    826.31958   0.10111595   0.10256219            1 
  682000    1.1552307   -2.3426931    830.28139   0.10145178   0.10254215            2 
  683000    1.1698102   -2.3217935    825.76084   0.10075169   0.10252049            1 
  684000    1.1257408   -2.3148562    827.28448   0.10079002   0.10249883            1 
  685000    1.1475674   -2.3517679       824.25   0.10027372   0.10247601            2 
  686000    1.1211595   -2.3431744    826.21891   0.10036673   0.10245351            1 
  687000    1.1313103   -2.3483782    826.71565   0.10028089   0.10243107            5 
  688000    1.1502643   -2.3201699    831.98479   0.10077335   0.10240892            1 
  689000    1.1320371   -2.3467101    826.97655   0.10002135   0.10238423            1 
  690000    1.1377075   -2.3487169    831.04823   0.10036814   0.10236079            1 
  691000    1.1619248    -2.342273     834.4318   0.10063095    0.1023373            1 
  692000    1.1532087   -2.3327459    831.56548   0.10014035   0.10231557            2 
  693000     1.149844   -2.3151656    837.59635   0.10072106   0.10229347            2 
  694000    1.1541775   -2.3310717    838.01401   0.10062608    0.1022729            1 
  695000    1.1335414   -2.3175346    841.06841   0.10084753   0.10225236            3 
  696000    1.1791979   -2.3193303    840.70645    0.1006593    0.1022326            2 
  697000    1.1362944   -2.3487235    844.31731   0.10094659   0.10221286            1 
  698000    1.1511169   -2.3466579    845.62456   0.10095804   0.10219289            1 
  699000    1.1313513   -2.3354954      841.334    0.1003021   0.10217277            3 
  700000    1.1479334    -2.359716    840.57497   0.10006845   0.10215081            2 
  701000    1.1311619   -2.3044406    845.97207   0.10056729   0.10212848            2 
  702000    1.1125594    -2.336075    846.72465   0.10051337   0.10210692            1 
  703000    1.1506406   -2.3369616    848.60883   0.10059374   0.10208472            2 
  704000     1.132393   -2.3287285     850.9375    0.1007265   0.10206118            2 
  705000    1.1304502   -2.3464752    846.38319   0.10004529   0.10203941            1 
  706000    1.1437762   -2.3206785    850.42635   0.10038082   0.10201746            1 
  707000    1.1494491   -2.3355804    848.05194  0.099958974   0.10199626            3 
  708000    1.1357967   -2.3287439    851.77264   0.10025573   0.10197435            1 
  709000    1.1547972   -2.3275291    851.82678   0.10012068   0.10195201            1 
  710000     1.131826   -2.3320409    854.87566   0.10033752   0.10192732            1 
  711000    1.1237961   -2.3370294    851.33068  0.099780904   0.10190283            2 
  712000    1.1252828   -2.3111199    852.80676  0.099813525   0.10187808            2 
  713000    1.1204941   -2.3533311      851.586  0.099530855   0.10185182            2 
  714000    1.1071658   -2.3229839    859.00684   0.10025757   0.10182647            1 
  715000    1.1466011   -2.3180917    858.14926    0.1000174   0.10180027            2 
  716000    1.1479105   -2.3508244     853.6265  0.099351315   0.10177489            4 
  717000    1.1322049   -2.3475456    858.99835  0.099837093   0.10174935            1 
  718000    1.1377032    -2.341344    859.31288   0.09973455   0.10172459            2 
  719000    1.1301362   -2.3446854     859.6106  0.099630343    0.1016988            1 
  720000    1.1189038   -2.3267941    860.79101  0.099628589    0.1016728            3 
  721000    1.1427741   -2.3338448    862.23224  0.099656986    0.1016487            1 
  722000    1.1525712   -2.3091128    865.81319   0.09993227   0.10162322            2 
  723000    1.1255436   -2.3179751    861.76495  0.099327449   0.10159866            1 
  724000    1.1262817   -2.3528232    864.90448   0.09955162   0.10157471            2 
  725000    1.1293642   -2.3350173     864.9916  0.099424322   0.10154947            2 
  726000    1.1196109   -2.3597939    867.79125   0.09960873   0.10152495            2 
  727000    1.1231103   -2.3519041    867.26555  0.099411457   0.10150026            3 
  728000    1.1542338   -2.3436374    871.89429   0.09980475   0.10147563            1 
  729000    1.1605243   -2.3416803    868.60145  0.099291433   0.10145225            1 
  730000    1.1504797   -2.3542945    870.73275  0.099398716   0.10142702            2 
  731000    1.1280094   -2.3490262    869.74691  0.099150354    0.1014015            1 
  732000     1.157503   -2.3504648    872.66443  0.099347043   0.10137693            2 
  733000    1.1256793   -2.3180587     876.4394  0.099640677   0.10135041            1 
  734000    1.1363293   -2.3529181    870.31455  0.098809553   0.10132356            2 
  735000    1.1355206   -2.3353013    873.65705  0.099054087   0.10129728            1 
  736000    1.1328364   -2.3538561    873.60023  0.098913069   0.10127049            1 
  737000    1.1350451   -2.3424952    876.24101  0.099077455   0.10124389            4 
  738000    1.1077155   -2.3517337    879.78387  0.099343256   0.10121575            2 
  739000    1.1412005   -2.3380649    874.08875  0.098566615   0.10118697            1 
  740000    1.1155655   -2.3555114    875.76989  0.098622735   0.10115883            2 
  741000    1.1584284   -2.3552746    878.13632  0.098755772   0.10113042            2 
  742000    1.1215577   -2.3273475    878.77024  0.098693872   0.10110113            2 
  743000    1.1064646   -2.3271389    879.63483  0.098658012   0.10107175            3 
  744000    1.1123677   -2.3798165     879.6857  0.098531104   0.10104345            3 
  745000    1.1443522    -2.349131    883.07204  0.098777633   0.10101409            2 
  746000    1.1232299   -2.3286322    880.98422     0.098412   0.10098596            1 
  747000    1.1213092   -2.3021424    887.94699  0.099057005   0.10095982            2 
  748000    1.1295746   -2.3214412    888.69041  0.099007399   0.10093288            2 
  749000    1.1328364   -2.3484977    888.17757  0.098818154   0.10090637            2 
  750000    1.1380717   -2.3209782    888.77947  0.098753274   0.10087796            2 
  751000    1.1036759   -2.3299826    887.17215  0.098443426   0.10085028            3 
  752000    1.1514909   -2.3588397    889.56475  0.098577654   0.10082101            2 
  753000    1.1476305    -2.346366    889.52547  0.098442394   0.10079212            1 
  754000    1.1512286   -2.3701106     889.1819  0.098273861   0.10076349            2 
  755000    1.1460679    -2.343963    890.37293  0.098275157   0.10073516            3 
  756000    1.1429242   -2.3212069    893.48082  0.098487745   0.10070711            1 
  757000     1.095761   -2.3411516     892.7075  0.098272512   0.10067884            1 
  758000    1.1284151   -2.3631026    894.47097  0.098336738   0.10065019            1 
  759000    1.1552466   -2.3653833    894.07277  0.098163457   0.10062315            3 
  760000    1.1477054   -2.3553148    892.04113  0.097811527   0.10059519            2 
  761000    1.1340004   -2.3560272     895.2311  0.098032315   0.10056734            2 
  762000    1.0970143   -2.3432083    898.87157   0.09830179   0.10053868            1 
  763000    1.1184031     -2.38327    897.45544  0.098018287   0.10050998            1 
  764000    1.1547913   -2.3417067    903.17425  0.098513771   0.10048261            2 
  765000    1.1060883   -2.3538793    900.30317   0.09807224    0.1004547            2 
  766000    1.1374723   -2.3209268    906.40746  0.098608296   0.10042847            1 
  767000    1.1438878   -2.3588363     908.3724   0.09869322   0.10040229            1 
  768000    1.1201463   -2.3414822    907.89662  0.098513089   0.10037552            2 
  769000    1.1081087   -2.3421329    907.88019  0.098383202   0.10035027            2 
  770000    1.1300856   -2.3434202    915.08233  0.099034884   0.10032582            3 
  771000    1.1414979   -2.3643947    911.93539  0.098566298   0.10030254            2 
  772000    1.1204741   -2.3644985    910.00985   0.09823077   0.10027756            1 
  773000    1.1100044   -2.3539884    914.89589  0.098630432   0.10025262       -1e+20 
  774000    1.1417703   -2.3656774    914.24738  0.098433181   0.10022867            1 
  775000    1.1308516   -2.3310146    914.46795  0.098329887   0.10020474            2 
  776000    1.1310811    -2.327671    914.40002  0.098195879   0.10018121            2 
  777000    1.1243226    -2.362628    919.21149  0.098585531   0.10015739            5 
  778000    1.1243846   -2.3246897    919.74265  0.098515708   0.10013409            2 
  779000    1.1271991   -2.3380404    920.92526  0.098515753   0.10011083            2 
  780000    1.1209835   -2.3643847    924.60933  0.098783048   0.10008809            6 
  781000    1.1127011   -2.3509161    924.92374  0.098690113   0.10006522            1 
  782000    1.1293075   -2.3393899    924.09232  0.098475311   0.10004222            1 
  783000    1.1341364   -2.3710268    923.93475  0.098332775   0.10001951            3 
  784000    1.1223389   -2.3368635    927.11653  0.098545549  0.099997519            2 
  785000    1.1433105     -2.35057    931.10629  0.098843555    0.0999754            1 
  786000    1.1208776   -2.3310338     935.7311  0.099208131  0.099954596            2 
  787000     1.116056   -2.3231085    932.05438  0.098692756  0.099933355            5 
  788000    1.1098831   -2.3461111    930.09808  0.098360625  0.099911941            1 
  789000    1.1428702   -2.3465745    933.63304   0.09860932  0.099889324            1 
  790000    1.1200774   -2.3463378    933.13015   0.09843145  0.099867885            6 
  791000    1.1318192   -2.3678895    930.14625  0.097992651  0.099845116            1 
  792000    1.1069611   -2.3759535    933.84308    0.0982579  0.099821934            1 
  793000    1.1456347    -2.331402    939.05206  0.098681385   0.09979934            1 
  794000    1.1264629   -2.3541549    939.68056  0.098623065     0.099778            3 
  795000    1.1366959   -2.3613286    941.93394  0.098735214  0.099755833            3 
  796000    1.1173716   -2.3379402    941.07211   0.09852095  0.099734119            1 
  797000    1.1119489   -2.3602821    939.03942    0.0981848  0.099712251            2 
  798000    1.1271825   -2.3216238    945.29037  0.098714533  0.099689691            2 
  799000    1.1158632   -2.3402539    940.99333  0.098142817   0.09966885            1 
  800000    1.1353702   -2.3649673    944.42461  0.098377564  0.099647127            3 
  801000    1.0954603   -2.3435908    949.28826  0.098760743  0.099624655            1 
  802000    1.1404222   -2.3412093     943.3618  0.098021799  0.099602295            1 
  803000     1.107693   -2.3248901    944.16951  0.097983552   0.09957996            2 
  804000    1.1248289   -2.3288932    948.18817   0.09827821  0.099557649            1 
  805000    1.1393625   -2.3603829    949.05961  0.098246336  0.099535883            2 
  806000    1.1249984   -2.3663602    946.24513   0.09783345  0.099512066            2 
  807000    1.1437162   -2.3474621    949.14375   0.09801154  0.099489739            2 
  808000    1.1391535   -2.3381512    953.15231  0.098303662  0.099467205            2 
  809000    1.1191593   -2.3807591    947.27525  0.097576767  0.099443666       -1e+20 
  810000    1.1325204   -2.3774522    951.86791  0.097928798  0.099420179            1 
  811000    1.1174993   -2.3131012    954.47509  0.098075944  0.099397405            2 
  812000    1.1196043   -2.3644388    956.09955  0.098121875  0.099374978            1 
  813000    1.1093562   -2.3275403    958.01836  0.098197864  0.099352633            2 
  814000     1.139115   -2.3571966    956.89698  0.097962426   0.09932968            2 
  815000     1.132473   -2.3390914    959.51654  0.098110076  0.099306428            1 
  816000    1.1157138   -2.3521129    959.78997  0.098017766  0.099282848            3 
  817000    1.1338284   -2.3406967     960.6888  0.097989473   0.09926002            3 
  818000    1.1211633   -2.2967828    964.70074  0.098278397  0.099236152            4 
  819000     1.122743   -2.3508088    959.66136  0.097645641  0.099213342            3 
  820000    1.1205153   -2.3518127    959.17881  0.097477521  0.099190672            4 
  821000    1.1076028   -2.3520874    960.23082  0.097465572  0.099168108            1 
  822000    1.1181173   -2.3556377    967.86945  0.098121396  0.099146457            2 
  823000    1.1125757    -2.365077    965.57067  0.097769407  0.099124259            3 
  824000    1.1325364   -2.3660678    965.02103  0.097595169  0.099100417            1 
  825000    1.1241372   -2.3366141    971.83085  0.098164732  0.099078368            1 
  826000    1.1175982   -2.3361275    969.83771  0.097844805  0.099055888            2 
  827000    1.1172347   -2.3430895    971.48717  0.097892701  0.099033862            1 
  828000    1.1148935   -2.3611168    974.73551    0.0981014  0.099010902            2 
  829000    1.0968273   -2.3537412    971.54874   0.09766272  0.098988729            1 
  830000    1.0993746   -2.3625444    977.99767  0.098192537  0.098967933            2 
  831000     1.126381    -2.365173    968.25401  0.097097273  0.098945343            2 
  832000    1.0957785    -2.339126    971.74879  0.097330608  0.098923655            2 
  833000    1.1189526   -2.3422717    975.85929  0.097624978  0.098902317            2 
  834000    1.0927642    -2.348102    979.77863  0.097899543  0.098882206            1 
  835000    1.1370457   -2.3384091    983.51235  0.098154925  0.098861996            1 
  836000    1.0879759    -2.354565    979.13796  0.097601471  0.098840979            2 
  837000     1.109403   -2.3620483    979.23018  0.097494044  0.098819755            1 
  838000    1.1164123   -2.3374991    987.13659  0.098163941  0.098798225            2 
  839000    1.1206873   -2.3779258    977.02778  0.097042886  0.098777044            2 
  840000    1.1012481   -2.3695341    982.64788  0.097484909   0.09875475            1 
  841000      1.12717   -2.3691562    984.67299  0.097569659  0.098731817            2 
  842000    1.1191096   -2.3705518    978.87085  0.096879538  0.098709093            1 
  843000    1.1254546   -2.3676057    978.53853  0.096731765  0.098685596            1 
  844000    1.1253201   -2.3473351    983.32603  0.097089853  0.098662087            2 
  845000    1.1035203   -2.3548604    984.00897  0.097042305  0.098639566            1 
  846000    1.1139053   -2.3829435    982.94744  0.096823034  0.098615688            2 
  847000    1.1422026    -2.352136    985.44745  0.096954688  0.098591254            3 
  848000    1.1268079   -2.3273222     986.9601  0.096989004  0.098566807            3 
  849000    1.1167286   -2.3556716     989.7505  0.097148656  0.098541692            6 
  850000    1.1000941   -2.3552328    986.45002  0.096710786  0.098517119            2 
  851000    1.1111064   -2.3782956    987.81347  0.096730657  0.098492901            1 
  852000    1.1386845    -2.368809    993.21402  0.097145346  0.098469267            1 
  853000    1.1127241   -2.3880611    991.37407  0.096851707  0.098446187            2 
  854000    1.1186859   -2.3515247    994.03238  0.096997695  0.098423978            2 
  855000    1.1149799   -2.3719617    994.60628  0.096940183  0.098402013            2 
  856000    1.1444308   -2.3454248    996.98224   0.09705824  0.098380335            1 
  857000    1.1158786   -2.3572381    1000.9878  0.097334482  0.098358624            2 
  858000    1.1027636   -2.3721072    997.72431   0.09690407  0.098337722            3 
  859000    1.1335959   -2.3534016    1000.9241  0.097101677  0.098316774            2 
  860000     1.109471   -2.3521241    1005.3019  0.097412971  0.098295797            4 
  861000    1.1030667    -2.376876    1006.0958  0.097376672  0.098275803            2 
  862000    1.1052811   -2.3886948    1004.9587  0.097153784  0.098255625            3 
  863000    1.1244862   -2.3470888    1007.1039  0.097248349  0.098234795            3 
  864000    1.1087606   -2.3923207     1004.598  0.096894095  0.098213993            1 
  865000     1.109204   -2.3695874    1011.3141  0.097429101  0.098193045            3 
  866000    1.0965154   -2.3467684    1010.4546  0.097233888  0.098173001            2 
  867000    1.1036354   -2.3793581    1014.4774  0.097508401  0.098154021            2 
  868000    1.1177721   -2.3369529    1016.0152  0.097543699  0.098133974            2 
  869000    1.1149597   -2.3547697    1015.8731   0.09741783  0.098113537            1 
  870000    1.1135366   -2.3386336    1011.7197  0.096908022  0.098094057            2 
  871000     1.101678   -2.3821263     1013.744   0.09699043  0.098073438            2 
  872000    1.1153783   -2.3688565    1013.2912  0.096835937  0.098052785            3 
  873000    1.1078507   -2.3664464    1018.7939   0.09725028  0.098031852            2 
  874000    1.1219883    -2.366541    1016.3091  0.096902084  0.098011736            1 
  875000    1.0934926   -2.3700285    1015.7327  0.096736447  0.097990723            1 
  876000    1.1270187   -2.3606245    1019.7853  0.097011542  0.097969346            2 
  877000    1.0974283   -2.3418434    1019.5924  0.096882596   0.09794816            2 
  878000    1.1209498   -2.3692075     1015.681  0.096401007  0.097927493            3 
  879000    1.1148584   -2.3366654    1020.6004  0.096757715  0.097907417            1 
  880000    1.0936282   -2.3691438    1027.5374  0.097304677  0.097887286            1 
  881000    1.1104529   -2.3357934    1027.8579   0.09722455   0.09786768            1 
  882000    1.1140164   -2.3346208    1023.8213  0.096732929  0.097848544            2 
  883000    1.1136832   -2.3626043     1027.636  0.096983387  0.097830943            2 
  884000    1.0911559   -2.3782376    1029.4001  0.097039977  0.097810867            1 
  885000    1.1056636   -2.3671223    1023.8947  0.096411933  0.097790536            6 
  886000    1.0942315    -2.358314    1026.5281  0.096550803   0.09777011            1 
  887000    1.1131214   -2.3981871    1026.6298  0.096451499  0.097749898            1 
  888000    1.1171955   -2.3606797    1032.6815    0.0969108  0.097729932            5 
  889000    1.1144237   -2.3771646    1032.2494  0.096761289  0.097709288            2 
  890000    1.1101676   -2.3612007    1030.1443  0.096455462  0.097689301            1 
  891000    1.1167676   -2.3596217    1032.3834  0.096556624  0.097668873            1 
  892000    1.1242391    -2.362237    1034.6975  0.096664561  0.097648228            2 
  893000    1.0988487   -2.3686921    1039.2054  0.096976983  0.097627548            2 
  894000    1.1117738   -2.3502521    1034.5633  0.096435802  0.097607922            5 
  895000    1.0953975   -2.3719062    1039.2339  0.096762929   0.09758767            2 
  896000    1.0993546   -2.3626547    1041.2499  0.096842436  0.097567145            3 
  897000    1.0893643   -2.3483612    1036.5359  0.096296534  0.097547237            1 
  898000    1.1275185   -2.3787301     1043.524  0.096837788  0.097527531            2 
  899000    1.0799281   -2.3610827    1042.3277  0.096619179  0.097507517            1 
  900000     1.104663   -2.3648971    1044.1805   0.09668338  0.097488208            1 
  901000    1.0970494   -2.3853621    1040.8077   0.09626412   0.09746768            2 
  902000    1.1287961   -2.3934541     1043.582  0.096413714  0.097447671            2 
  903000    1.0935321   -2.3815737    1045.2111  0.096457277   0.09742856            1 
  904000    1.1227911   -2.3839341    1046.8476  0.096501441  0.097409452            1 
  905000    1.1242933   -2.3846899     1047.451   0.09645037  0.097390678            2 
  906000    1.0886213   -2.3683385    1048.6386  0.096453147  0.097371009            1 
  907000    1.0985217   -2.3889909    1051.4723  0.096607153  0.097351987            1 
  908000     1.094627    -2.338183    1053.3961  0.096677325  0.097332833            3 
  909000    1.0930652    -2.352653    1050.9003  0.096342163   0.09731425            3 
  910000    1.0940721   -2.3678391    1054.2192  0.096540223  0.097294924            1 
  911000    1.0895485   -2.3623555    1056.3199  0.096626412  0.097276348            2 
  912000    1.1004949    -2.357731    1055.8688  0.096479241  0.097256976            1 
  913000     1.111502    -2.352374    1056.8921  0.096466969  0.097238189            1 
  914000    1.0793345   -2.3667794    1059.6969  0.096617148  0.097219381            1 
  915000    1.1159036   -2.3673067    1059.0787  0.096455256   0.09719951            2 
  916000    1.1037128   -2.3818261    1055.2196  0.095998869  0.097179985            1 
  917000    1.1160076    -2.355761    1058.2198  0.096166826  0.097159852            1 
  918000    1.0809927   -2.3764667    1060.8924  0.096304685   0.09714082            2 
  919000    1.0985023   -2.3767034     1062.056  0.096305405  0.097121286            3 
  920000    1.1110995   -2.3581074     1064.787    0.0964481  0.097102923            3 
  921000    1.1006775   -2.3720043    1064.1223  0.096283232  0.097083467            2 
  922000    1.1251845   -2.3361452    1070.5507   0.09675982   0.09706566            1 
  923000    1.0958164    -2.348515    1070.5935  0.096658858  0.097047647            1 
  924000    1.0987214    -2.380965    1063.4466  0.095909688  0.097030191            3 
  925000    1.1084136    -2.368667    1071.6418  0.096544305  0.097012831            1 
  926000    1.1087671   -2.3486599    1070.9525  0.096378017  0.096994232            1 
  927000    1.0963541   -2.3650222    1073.7369  0.096524355  0.096976104            1 
  928000    1.1129111   -2.3806976    1066.1656  0.095740443  0.096957263            1 
  929000    1.0856581   -2.3728357    1070.3279  0.096010757  0.096939916            1 
  930000    1.1071611   -2.3782211    1072.3967  0.096092897  0.096922045            2 
  931000    1.1264975   -2.3717428    1077.5827  0.096453873  0.096903663            2 
  932000    1.1249428   -2.3572451    1076.9276  0.096291806   0.09688509            2 
  933000     1.101846   -2.3741696    1075.4073   0.09605281  0.096866501            2 
  934000    1.1332835   -2.3694487    1079.3408   0.09630093  0.096848342            2 
  935000    1.1150036   -2.3797825    1072.5823  0.095595573  0.096828882            3 
  936000    1.1040763   -2.4127326    1079.8697  0.096142242  0.096809719            4 
  937000    1.0799814    -2.378381    1077.3871   0.09581885   0.09679003            1 
  938000    1.1089812   -2.3797765    1080.7783  0.096017975  0.096770842            1 
  939000    1.0931474   -2.3823915    1080.0237  0.095848749  0.096752377            1 
  940000    1.0936059   -2.3617849    1081.5129  0.095878806  0.096732526            2 
  941000    1.1080038   -2.4007221    1084.7296  0.096061777  0.096714313            2 
  942000    1.0946081    -2.387285    1086.0208   0.09607403  0.096695505            2 
  943000    1.1099737   -2.3757898    1087.1618  0.096072975   0.09667652            2 
  944000    1.0793282   -2.3596829    1086.8635  0.095944871  0.096659069            2 
  945000    1.1035178   -2.3720283    1083.3133  0.095530275  0.096640492            2 
  946000    1.0868914   -2.4040568    1091.4286  0.096144167  0.096622585            2 
  947000    1.0964128   -2.3928842    1088.6786  0.095800651  0.096605097            1 
  948000    1.1009723   -2.3743252    1093.9989  0.096167277  0.096587194            2 
  949000     1.105423   -2.3980216    1094.8979  0.096144878  0.096568935            1 
  950000    1.1038378   -2.3666031    1092.9249  0.095870607  0.096550944            2 
  951000    1.1090963    -2.373237    1094.1224  0.095874729   0.09653278            2 
  952000    1.0901215   -2.3622273    1095.9944  0.095937887  0.096514524            1 
  953000    1.0880925     -2.37576    1099.0135  0.096101219  0.096496669            1 
  954000    1.0778901   -2.3552906    1098.1091  0.095921476  0.096478711            2 
  955000    1.1222449   -2.3865431    1099.4487  0.095937935  0.096462002            2 
  956000    1.1120458   -2.3898471    1101.3653  0.096004644  0.096444936            1 
  957000    1.0925468   -2.3808879    1100.0588   0.09579056  0.096426795            3 
  958000    1.1011531   -2.3760929    1109.7313  0.096531953  0.096409654            2 
  959000    1.0966487   -2.3593507    1101.7181  0.095734975  0.096392226            1 
  960000    1.0993329   -2.3501266    1108.3752  0.096213125  0.096374592            1 
  961000    1.1031265    -2.358312    1108.6055   0.09613298  0.096357362            1 
  962000    1.1039218      -2.3518    1109.1197  0.096077589  0.096340415            2 
  963000    1.0590889   -2.3912885    1113.8693  0.096388827  0.096323692            1 
  964000    1.0840204   -2.3772336    1109.3951  0.095902066  0.096307598            3 
  965000    1.0827421   -2.3877288    1111.2556  0.095963349  0.096291448            4 
  966000    1.0862361   -2.3793735    1115.9733  0.096270986  0.096275484            1 
  967000    1.0661681   -2.3989099     1113.279  0.095939246  0.096259724            1 
  968000    1.0843439   -2.3858155    1116.5567  0.096122304  0.096244212            2 
  969000    1.0957177   -2.3798396    1116.0213   0.09597706  0.096228098            1 
  970000    1.0711905   -2.3914787    1116.8011  0.095945115  0.096212534            4 
  971000    1.1258129   -2.3724007    1122.3081   0.09631892  0.096196357            1 
  972000    1.1157758   -2.3767899    1121.5913  0.096158374  0.096181382            2 
  973000    1.0969361   -2.3654874    1123.0737  0.096186509  0.096165346            1 
  974000    1.1194682   -2.3879907    1121.8473   0.09598283  0.096150163            1 
  975000    1.0972906   -2.3651449    1124.7764  0.096134732  0.096134872            1 
  976000    1.0853727   -2.3722381    1124.3331  0.095998389  0.096119689            3 
  977000    1.0961075   -2.3507092    1130.8528  0.096456225  0.096104401            1 
  978000    1.1162989   -2.3966468    1128.6009  0.096165724  0.096090688            1 
  979000    1.1109149   -2.3720244    1127.4123  0.095966317   0.09607616            2 
  980000    1.0932374   -2.3874281    1126.4247   0.09578441  0.096061632            4 
  981000    1.1074652   -2.3626869    1129.5134  0.095949147  0.096047948            3 
  982000    1.0697272   -2.3610032    1137.9856  0.096570398  0.096034186            2 
  983000    1.0907606   -2.3852665    1134.3966  0.096167906  0.096019483            1 
  984000    1.0834436   -2.3736172    1136.6604  0.096261889  0.096005164            2 
  985000     1.080452    -2.409458    1131.6993  0.095744439  0.095989824            1 
  986000    1.0822065   -2.4096168    1137.6769   0.09615254  0.095974562            2 
  987000    1.0944292   -2.3793448    1133.7955  0.095727417  0.095959811            1 
  988000    1.1007437    -2.391728    1132.7475  0.095542134  0.095944843            2 
  989000    1.0878798   -2.3852805    1137.5467  0.095849911  0.095929161            2 
  990000    1.0838167   -2.3903222    1144.6379  0.096349994   0.09591393            1 
  991000    1.1091191   -2.3623424    1141.6142  0.095998503   0.09589951            2 
  992000    1.1219865   -2.3609486    1143.6674  0.096074213  0.095885542            2 
  993000    1.1089583   -2.3622588    1144.7114  0.096065075  0.095871225            1 
  994000    1.0821684   -2.4091993    1138.7865  0.095471703  0.095856668            1 
  995000    1.1009592   -2.3797074     1140.137  0.095488865  0.095841432            3 
  996000    1.0972625    -2.367922    1140.3188    0.0954082  0.095826037            4 
  997000    1.0925671   -2.3595383    1145.7729  0.095768376  0.095810373            2 
  998000     1.112729   -2.3918426    1146.4386  0.095728008  0.095794355            2 
  999000    1.1028832   -2.3659975    1146.6658  0.095651134  0.095778674            4 
 1000000    1.1057646   -2.3997326     1145.793  0.095482751  0.095762612            1 
 1001000     1.084028   -2.3822868    1149.5673  0.095701571   0.09574671            1 
 1002000    1.0961452   -2.3849333    1152.2216  0.095826816  0.095730617            2 
 1003000    1.0880905   -2.3824346    1148.2914  0.095404737  0.095715115            1 
 1004000    1.0936934   -2.3767353    1144.1237  0.094963784   0.09569867            2 
 1005000    1.0656689   -2.3909147    1151.9301  0.095516592  0.095682732            3 
 1006000    1.1075471    -2.380118    1155.3826  0.095707636  0.095666862            2 
 1007000    1.0801844   -2.3968916     1151.469  0.095288729  0.095650899            4 
 1008000    1.1029861   -2.3816835    1155.8841  0.095559198  0.095635151            3 
 1009000    1.0869564   -2.3847739    1157.1441  0.095568556  0.095619549            5 
 1010000    1.0956575   -2.4214636    1156.0614  0.095384607   0.09560391            5 
 1011000    1.0843614   -2.3889848    1152.9255  0.095031779  0.095587481            2 
 1012000    1.0693964   -2.3788026    1157.8554  0.095343828  0.095571161            1 
 1013000    1.0811701   -2.3840081    1157.5332  0.095223195  0.095554094            3 
 1014000    1.0662974   -2.3740414     1157.012  0.095086458   0.09553806            1 
 1015000    1.1002812   -2.3985389    1153.6174  0.094714074  0.095521097            1 
 1016000    1.0724177    -2.381138    1161.5053  0.095267822  0.095504428            2 
 1017000    1.0715291   -2.3951922    1157.6837  0.094861002  0.095486987            5 
 1018000     1.105762   -2.4053634     1158.409  0.094827194  0.095469589            3 
 1019000     1.090868   -2.3920308    1166.2338  0.095374044  0.095453319            2 
 1020000     1.071919   -2.3709601    1163.9486  0.095093843  0.095436266            7 
 1021000    1.0833124   -2.3813234    1158.7669  0.094577773  0.095420166            2 
 1022000    1.0972938    -2.372714    1170.7998  0.095466393  0.095403345            2 
 1023000    1.0952375   -2.4162507    1163.3267  0.094764316  0.095387189            3 
 1024000    1.0719822   -2.3981721    1171.3481  0.095324555  0.095370803            2 
 1025000    1.0951262   -2.4046768    1164.5462  0.094678551  0.095353753            3 
 1026000     1.090102   -2.4006805     1170.495  0.095069445  0.095336718            2 
 1027000     1.068147   -2.3903152    1171.6212   0.09506826  0.095320366            2 
 1028000    1.0653067   -2.3679604    1171.9354  0.095001244  0.095303907            2 
 1029000    1.0677346   -2.4115012    1171.1583  0.094845988  0.095287273            2 
 1030000    1.0619751   -2.3811167    1172.3451  0.094849927  0.095270094            3 
 1031000    1.0793587   -2.3823004    1175.3372  0.094999775  0.095252683            3 
 1032000    1.0736125   -2.4123723    1177.0754   0.09504808  0.095236199            1 
 1033000    1.0882074   -2.3562671    1179.0442  0.095114892  0.095219205            1 
 1034000    1.0956838   -2.3703662     1171.111  0.094383546  0.095202587            3 
 1035000     1.073248   -2.4191402    1173.1069  0.094453048    0.0951853            1 
 1036000    1.0245924   -2.3787958    1177.4372  0.094710203  0.095167121            2 
 1037000    1.0674323   -2.3901108     1178.099  0.094672052  0.095148911            1 
 1038000     1.082406   -2.3812083     1180.711  0.094790544  0.095131047            1 
 1039000    1.0694792   -2.3954892    1177.0522  0.094405856  0.095113147            2 
 1040000    1.0769631   -2.3843172     1181.848  0.094699355  0.095094241            1 
 1041000    1.0865747   -2.4109728     1174.583  0.094026815  0.095075315            1 
 1042000    1.0778385   -2.3913238    1175.5571  0.094014485  0.095055908            2 
 1043000    1.0801768   -2.3685691      1179.49  0.094238573  0.095036818            2 
 1044000    1.0697268   -2.3853334    1185.7308  0.094646459  0.095018122            4 
 1045000    1.0713601   -2.3778578    1192.7101  0.095112446   0.09499994            2 
 1046000    1.0725632   -2.3999094    1182.3765  0.094198253  0.094981536            2 
 1047000    1.0904802   -2.3821861    1181.6538  0.094050766  0.094963025            1 
 1048000    1.0879446   -2.3806435    1179.8146  0.093814774  0.094943763            2 
 1049000     1.050377   -2.3882382    1185.6898  0.094192075  0.094925197            2 
 1050000    1.0861106   -2.3802643     1190.658  0.094496669  0.094907162            1 
 1051000    1.0806685   -2.3717116    1193.0854   0.09459922  0.094889757            2 
 1052000     1.090431   -2.3871799    1191.3882  0.094374859  0.094872006            1 
 1053000    1.1008491   -2.4253095    1192.2471  0.094353206  0.094853527            3 
 1054000    1.1091497   -2.3823489    1193.1862  0.094337931  0.094834612            2 
 1055000    1.0822621   -2.3836186    1195.1342  0.094402389  0.094816395            2 
 1056000    1.1075453   -2.3871244    1193.4289  0.094178418  0.094799271            1 
 1057000    1.0885045   -2.4252059      1198.74  0.094508039  0.094781104            2 
 1058000    1.0916314     -2.38266    1197.8545  0.094348971  0.094762561            2 
 1059000    1.1068708   -2.4044027    1196.2194  0.094131211  0.094743753            2 
 1060000    1.0683641   -2.4014769     1196.991  0.094103067  0.094725552            2 
 1061000    1.0674484    -2.392309    1198.9738  0.094170105  0.094707094            1 
 1062000    1.0732162   -2.3823354    1200.5345    0.0942039  0.094688599            1 
 1063000    1.0725486   -2.3693392    1200.7273  0.094130394  0.094670966            2 
 1064000    1.1105515   -2.3846227    1203.0203  0.094221518  0.094652637            1 
 1065000    1.0799064   -2.3994673    1203.1178  0.094140676  0.094634144            3 
 1066000    1.0842257   -2.3943647    1210.3784  0.094619949  0.094615798            1 
 1067000    1.0872101   -2.3946774    1204.5889   0.09407911  0.094597632            2 
 1068000     1.077916   -2.3947356    1208.6513  0.094307996  0.094580474            3 
 1069000    1.0737958   -2.4118562    1204.9525  0.093931437  0.094561697            2 
 1070000    1.0552494    -2.421332    1206.4181  0.093957796  0.094543211            5 
 1071000    1.1001173   -2.4099464    1206.5612  0.093881203  0.094525747            1 
 1072000    1.0648018   -2.3774869    1213.2916  0.094316823     0.094508            1 
 1073000    1.0806643   -2.4041744    1211.1523  0.094062775  0.094490252            1 
 1074000    1.0777037   -2.3902232    1214.3529  0.094223531  0.094472416            2 
 1075000    1.0784188   -2.3728844    1209.9093  0.093791418  0.094454142       -1e+20 
 1076000    1.0718767   -2.3941613     1213.718  0.093999229  0.094436093            3 
 1077000    1.1005991   -2.3961228      1209.41  0.093578617   0.09441779            3 
 1078000    1.0580664   -2.3886763    1217.2401  0.094097099  0.094399146            1 
 1079000    1.0851994   -2.3954355    1213.1109  0.093690984  0.094380461            3 
 1080000    1.0702247   -2.3799379    1214.1544  0.093684751  0.094361306            2 
 1081000    1.0583356   -2.4253475    1212.9322  0.093503871  0.094342415            5 
 1082000    1.0731545   -2.3918865    1215.0855  0.093583295  0.094323651            1 
 1083000    1.0673205   -2.4035183    1214.9327  0.093485127  0.094305017            1 
 1084000    1.0701506   -2.4104162    1219.9495  0.093784555  0.094286921            2 
 1085000    1.0792463   -2.4029328    1218.9307  0.093619873  0.094268566            3 
 1086000    1.0883682   -2.3931543    1221.1294   0.09370238  0.094251058            4 
 1087000    1.0820188   -2.4235158    1222.9174  0.093753247  0.094233295            2 
 1088000    1.0670287    -2.409072    1223.8995  0.093742303  0.094215437            2 
 1089000    1.0641619    -2.409348    1220.5565  0.093400405  0.094198157            3 
 1090000    1.0688559   -2.4028578    1223.0744  0.093507217  0.094180039            1 
 1091000    1.0750465   -2.3958458     1229.629  0.093922168  0.094161555            2 
 1092000    1.0715453   -2.4072476    1224.5321  0.093447197  0.094142572            1 
 1093000     1.057594   -2.4120949    1221.6128  0.093139126  0.094122948            2 
 1094000    1.0907487    -2.382306    1224.9616   0.09330908  0.094104005            1 
 1095000    1.0724661   -2.3949861    1225.1769  0.093240249  0.094084889            3 
 1096000    1.0581524   -2.4105256    1229.9041  0.093514607  0.094066171            1 
 1097000    1.0632502   -2.3929332     1229.897  0.093428822  0.094047115            1 
 1098000    1.0907654   -2.4052657    1230.9041  0.093420169  0.094027282            1 
 1099000    1.0623637   -2.4079464    1228.3095  0.093138423  0.094007494            2 
 1100000    1.0849922   -2.4178888    1229.1943  0.093120781  0.093987585            1 
 1101000    1.0847092    -2.397137    1231.7182  0.093227236  0.093967839            3 
 1102000    1.0596252   -2.4021906    1227.3908    0.0928154  0.093947537            3 
 1103000     1.064927    -2.408593    1235.1122  0.093314609  0.093927198            3 
 1104000     1.073237   -2.4051265       1231.1  0.092927238   0.09390712            2 
 1105000    1.0918353   -2.3938869    1236.1303  0.093222494  0.093886888            2 
 1106000    1.0498404   -2.3933979    1228.5458  0.092566739  0.093866838            2 
 1107000    1.0800649   -2.4152939    1237.8947   0.09318689  0.093846404            1 
 1108000    1.0600547   -2.3954795    1234.5475  0.092851043  0.093826764            5 
 1109000    1.0870886   -2.4133065    1237.9395  0.093022206   0.09380734            1 
 1110000    1.0840389   -2.4142647    1238.1043   0.09295077  0.093786953            2 
 1111000    1.0806678   -2.3683414    1243.1689  0.093246994  0.093767644            2 
 1112000     1.093715    -2.389432    1237.4938  0.092737848  0.093749093            3 
 1113000     1.069906   -2.4016606    1239.9113  0.092835524  0.093729467            2 
 1114000    1.0647256   -2.4108665    1244.2605  0.093077537  0.093710237            1 
 1115000    1.0616271   -2.3926615    1244.0906  0.092981362  0.093690954            3 
 1116000    1.0685245   -2.4051718    1243.4641  0.092851259  0.093671502            1 
 1117000    1.0653014   -2.4205493     1242.146  0.092669803  0.093652422            2 
 1118000      1.08017   -2.3808851    1245.8607  0.092863795  0.093633112            3 
 1119000    1.0704655   -2.3667286    1256.0751  0.093541487  0.093614875            2 
 1120000    1.0765729   -2.3937269     1245.688   0.09268512   0.09359626            2 
 1121000    1.0570261   -2.4059194    1251.7282  0.093051456  0.093576797            2 
 1122000     1.050135   -2.3886546    1250.6252  0.092886598  0.093558367            2 
 1123000    1.0835605   -2.4215477    1250.7963  0.092816585  0.093539452            4 
 1124000    1.0494844    -2.401106    1249.1844    0.0926145  0.093520193            1 
 1125000    1.0539739   -2.4167058    1255.6616  0.093011971  0.093501602            2 
 1126000    1.0880056   -2.4029339    1252.2687  0.092678265  0.093482348            2 
 1127000    1.0536178   -2.4227781    1250.7048  0.092480392  0.093462994            2 
 1128000    1.0854052   -2.3867204    1254.1986  0.092656519  0.093443953            5 
 1129000    1.0601609   -2.4254406    1256.4744   0.09274243  0.093425352            2 
 1130000    1.0673797   -2.4457915    1255.9419  0.092621088  0.093405686            2 
 1131000    1.0844952    -2.402563    1261.0475  0.092915377  0.093386127            2 
 1132000    1.0675069    -2.416719    1260.3104  0.092779037  0.093367045            1 
 1133000    1.0492838   -2.4015052    1262.5609  0.092862672  0.093348003            3 
 1134000    1.0597868   -2.4030142    1260.3592  0.092618987  0.093329012            2 
 1135000    1.0643584   -2.4068013    1262.2854  0.092678811  0.093309829            1 
 1136000    1.1011829   -2.4184417    1263.9894  0.092722226   0.09329023            1 
 1137000    1.0611306   -2.3690403     1268.945  0.093003884  0.093272037            3 
 1138000    1.0801634   -2.4136396    1264.9658   0.09263077   0.09325386            2 
 1139000    1.0560563   -2.4413184    1271.8038   0.09304974  0.093234708            1 
 1140000    1.0926092   -2.4065906    1261.4128  0.092208536  0.093216551            1 
 1141000    1.0711065   -2.4141252    1272.3075  0.092923419  0.093198462            2 
 1142000    1.1134925   -2.4129741    1270.6507  0.092721153  0.093180045            1 
 1143000    1.0575793   -2.3987534    1273.9453  0.092880232  0.093161814            2 
 1144000    1.0365291   -2.3852571    1273.8848   0.09279464  0.093143671            1 
 1145000    1.0600915   -2.3656494    1271.6172  0.092548561  0.093126887            1 
 1146000    1.0878628   -2.4175736    1273.1628  0.092580195  0.093109633            3 
 1147000    1.0827544   -2.4389895    1275.1428  0.092643331  0.093092329            2 
 1148000    1.0535492   -2.4335592    1274.6788  0.092528952  0.093074529            1 
 1149000    1.0607237   -2.4255109    1279.1723  0.092774317  0.093056459            3 
 1150000     1.067763   -2.4033601    1277.6016  0.092579828  0.093039071            3 
 1151000    1.0718726   -2.4075825    1281.3299  0.092769321  0.093021635            3 
 1152000    1.0797646   -2.4243582     1279.102  0.092527632   0.09300401            1 
 1153000    1.0502399   -2.4030809    1279.1395  0.092450092  0.092986125            2 
 1154000     1.061961    -2.413892    1282.7789  0.092632792  0.092968709            2 
 1155000    1.0692087   -2.4326387    1289.4589  0.093034553  0.092951458            1 
 1156000    1.0964993   -2.4209194    1284.3658  0.092586925  0.092934637            4 
 1157000    1.0871482   -2.4020198    1285.0884  0.092558942   0.09291906            2 
 1158000    1.0623129   -2.4085497    1289.6028  0.092803882  0.092902552            1 
 1159000    1.0830915   -2.3969567    1285.3484  0.092417919  0.092886187            3 
 1160000    1.0603463   -2.4321197    1296.3112  0.093125804  0.092870344            1 
 1161000    1.0670188   -2.4143503    1295.4243  0.092981931  0.092854758            2 
 1162000    1.0534306   -2.4212763    1291.6262   0.09262953  0.092839042            1 
 1163000    1.0484103   -2.4048146    1300.9684  0.093219292  0.092823731            2 
 1164000     1.085132   -2.4058315    1299.0731  0.093003515  0.092808238            2 
 1165000    1.0716717   -2.4127116    1300.5524    0.0930295  0.092793564            1 
 1166000    1.0657049   -2.3966069    1303.2009  0.093138998  0.092778301            1 
 1167000    1.0551315    -2.421605    1307.2659  0.093349463  0.092763977            2 
 1168000    1.0754568   -2.3730753    1306.9607   0.09324777  0.092749557            5 
 1169000     1.075699    -2.398001    1306.1583  0.093110798  0.092736156            2 
 1170000     1.071009   -2.3945061    1297.0899  0.092385317  0.092721227            1 
 1171000    1.0650505   -2.4152383    1305.1614  0.092880832  0.092705897            2 
 1172000    1.0548473   -2.4127548    1304.6882   0.09276793  0.092690453            2 
 1173000    1.0439416   -2.4069286    1304.8155  0.092697887  0.092675412            4 
 1174000    1.0552652   -2.4078087    1300.1778  0.092289738   0.09265995            1 
 1175000     1.058723   -2.4371214    1307.6407  0.092740472  0.092644003            7 
 1176000    1.0840206   -2.4187941    1306.3265  0.092568485  0.092628307            1 
 1177000    1.0653165   -2.4143063    1315.9263  0.093169519  0.092612459            4 
 1178000    1.0635391   -2.4022621    1304.7749  0.092301567  0.092596502            1 
 1179000    1.0786671   -2.3873356    1311.7819  0.092718537  0.092580388            1 
 1180000    1.0563945   -2.4031614    1307.2884  0.092322624  0.092564604            2 
 1181000    1.0536619   -2.4165793    1309.9597  0.092432949  0.092548101            2 
 1182000    1.0797791   -2.3669743    1308.8402  0.092275819  0.092531322            1 
 1183000     1.060003   -2.4168547    1311.5378  0.092387843  0.092514381            2 
 1184000    1.0458093    -2.375414    1312.8729  0.092403779  0.092498222            2 
 1185000    1.0475325   -2.4164119    1316.5169  0.092582063  0.092482312            1 
 1186000    1.0572765   -2.3907191    1315.0358  0.092399928  0.092466276            3 
 1187000    1.0522769   -2.4271152    1315.6588  0.092365822  0.092450334            1 
 1188000    1.0663787   -2.4124015     1313.586  0.092142678  0.092433839            4 
 1189000      1.05426   -2.4111422    1317.6973   0.09235333  0.092418105            3 
 1190000    1.0744622   -2.4055466    1322.2743  0.092596236  0.092401983            1 
 1191000    1.0543132   -2.4205048    1320.8295  0.092417399  0.092385537            2 
 1192000    1.0595238   -2.4314463    1313.4419  0.091823401  0.092369527            2 
 1193000     1.055952   -2.4249667    1316.4715  0.091958057  0.092352971            3 
 1194000    1.0422137   -2.4234657     1315.859  0.091838289  0.092335575            4 
 1195000    1.0483262   -2.3878284    1325.3827  0.092425572     0.092319            2 
 1196000    1.0485046   -2.4432184     1317.234  0.091780518  0.092302495            5 
 1197000      1.08618   -2.4019877    1321.6537  0.092011536  0.092285539            1 
 1198000    1.0536266   -2.4215526    1329.7563   0.09249835  0.092269178            3 
 1199000      1.08775   -2.3842655    1327.8504  0.092288743  0.092252625            6 
 1200000    1.0765157   -2.4153286    1327.4982  0.092187373   0.09223657            2 
 1201000    1.0707786   -2.4296473    1326.8495  0.092065602  0.092219509            1 
 1202000    1.0433059   -2.4209347    1325.8038  0.091916516  0.092202448            6 
 1203000    1.0484409   -2.4603705    1325.0521  0.091788036  0.092185433            1 
 1204000    1.0638548   -2.4121613    1327.2795  0.091865968  0.092168164            2 
 1205000    1.0698132   -2.4335502     1325.975  0.091699513  0.092150182            1 
 1206000    1.0356879   -2.4185953    1334.6073   0.09221996  0.092132063            5 
 1207000    1.0448327    -2.422805    1324.7678  0.091464224  0.092114427            2 
 1208000    1.0394513   -2.4256339    1325.9306  0.091468723  0.092096159            2 
 1209000    1.0518649   -2.4056669     1340.739  0.092413774  0.092079302            2 
 1210000    1.0466373   -2.3889428    1333.5939  0.091845309   0.09206292            3 
 1211000    1.0640435   -2.4230139    1335.0662  0.091870779  0.092046087            3 
 1212000    1.0688336   -2.4176166     1336.223   0.09187452  0.092028585            2 
 1213000    1.0558233   -2.4117723       1331.2  0.091453699  0.092011093            1 
 1214000    1.0450939   -2.4366427     1331.659   0.09140987  0.091993189            4 
 1215000    1.0471606   -2.4335102    1341.4086  0.092003336  0.091975982            1 
 1216000    1.0297033   -2.4159216    1334.0068   0.09142042  0.091958201            2 
 1217000    1.0698388   -2.4016366    1336.6571  0.091526784   0.09194094            2 
 1218000     1.066599   -2.4086603    1342.4556   0.09184836  0.091923634            2 
 1219000    1.0558233   -2.4403601    1343.1981  0.091823768  0.091907127            2 
 1220000    1.0542487   -2.4276504    1338.8287  0.091450045  0.091890333            2 
 1221000    1.0487518    -2.397817     1346.123  0.091872989  0.091873242            4 
 1222000    1.0487705   -2.4094702     1341.557  0.091486432  0.091855905            1 
 1223000    1.0308314   -2.4143854    1339.5612  0.091275631  0.091838815            3 
 1224000    1.0526862   -2.4221099    1340.0019  0.091231064  0.091821531            5 
 1225000    1.0573487    -2.409885    1346.4797   0.09159726  0.091804472            3 
 1226000    1.0384497   -2.4502967    1346.1477  0.091499981  0.091787643            3 
 1227000     1.058131   -2.4190814    1344.1329  0.091288568  0.091770461            1 
 1228000     1.031713   -2.4583199    1345.5634  0.091311303  0.091753203            2 
 1229000    1.0846088   -2.4365872    1348.3793   0.09142794  0.091735844            2 
 1230000    1.0431627   -2.4418591    1348.5878  0.091367734  0.091718561            2 
 1231000    1.0710407   -2.4410679    1349.7032  0.091369026  0.091701734            2 
 1232000    1.0603667   -2.4386319    1351.7136  0.091430847  0.091684531            1 
 1233000    1.0545676   -2.4292187    1357.4739  0.091746006  0.091667546            4 
 1234000    1.0399305   -2.4380094     1355.039  0.091507223  0.091650214            5 
 1235000    1.0574837   -2.4106317    1362.4957  0.091936279  0.091632823            2 
 1236000    1.0409322   -2.4289568     1352.791   0.09120759  0.091616125            2 
 1237000    1.0393399   -2.4067958    1352.5053  0.091114614  0.091599507            4 
 1238000    1.0485364    -2.412079     1360.245  0.091561994  0.091582563            2 
 1239000    1.0811529    -2.408294    1354.1612  0.091078911  0.091565098            1 
 1240000    1.0321917   -2.3974749     1359.227  0.091345903  0.091548705            1 
 1241000    1.0398737   -2.4279713    1363.7036  0.091572901  0.091531896            3 
 1242000    1.0548191   -2.4181521    1363.9719  0.091517169  0.091515018            2 
 1243000    1.0569534   -2.4328736    1359.8374   0.09116636  0.091498551            1 
 1244000    1.0420648   -2.3942016    1358.5916  0.091009619  0.091481789            2 
 1245000    1.0582554   -2.4092689     1367.243  0.091515593  0.091464774            2 
 1246000      1.06788   -2.4202219    1364.3651  0.091249675  0.091448051            2 
 1247000    1.0612747   -2.4142939    1363.8029  0.091138925  0.091431199            3 
 1248000    1.0556753   -2.4179524    1368.7207  0.091394278  0.091414335            2 
 1249000    1.0540968    -2.405354    1361.8957  0.090865741  0.091397096            2 
 1250000    1.0603896   -2.4279046    1361.4753  0.090765022  0.091379419            2 
 1251000    1.0407264   -2.4398575    1365.5769  0.090965688  0.091361292            2 
 1252000    1.0724472   -2.3948753    1369.8922  0.091180258  0.091343606            3 
 1253000     1.067929   -2.4164951    1370.1729  0.091126156  0.091326123            2 
 1254000    1.0362093   -2.4327934    1368.5739  0.090947226   0.09130844            1 
 1255000    1.0567575   -2.4342768    1370.2548  0.090986374  0.091290574            2 
 1256000     1.063279    -2.441071    1370.3681  0.090921454  0.091273268            1 
 1257000    1.0380442   -2.4048111    1368.9025  0.090751957   0.09125559            3 
 1258000    1.0381803   -2.4181281    1370.6659  0.090796627  0.091238222            3 
 1259000    1.0559937   -2.4234969    1369.6134  0.090654847  0.091220483            2 
 1260000    1.0408457   -2.4418337    1369.4718  0.090573532   0.09120234            5 
 1261000      1.04582   -2.4209821    1375.4855  0.090899119  0.091184359            2 
 1262000    1.0426588    -2.445858    1371.8215  0.090585148  0.091166547            2 
 1263000    1.0724181    -2.449836    1372.0499  0.090528497  0.091148438            2 
 1264000    1.0430954   -2.4320408    1367.2992  0.090143671  0.091130094            2 
 1265000    1.0519308   -2.4290359    1373.5534  0.090484416  0.091111816            2 
 1266000    1.0556851   -2.4605391    1379.3263  0.090792939  0.091093576            2 
 1267000    1.0567176   -2.4371675    1381.1742  0.090842815  0.091075236            2 
 1268000    1.0523254   -2.3970171     1378.504   0.09059569  0.091056624            1 
 1269000    1.0629537   -2.4178402    1379.3977  0.090582984  0.091037894            2 
 1270000     1.040677   -2.4141023    1378.1444   0.09042942   0.09102006            1 
 1271000     1.061989   -2.4419115    1380.3079  0.090500122  0.091002105            2 
 1272000    1.0551577   -2.4518766    1373.1914   0.08996275  0.090983248            1 
 1273000    1.0751085   -2.4231697    1385.6408  0.090707043  0.090964352            3 
 1274000    1.0485859   -2.4488998    1387.4528  0.090754373  0.090946245            2 
 1275000    1.0353547   -2.4094337    1387.4474  0.090682837  0.090928356            2 
 1276000    1.0612337   -2.4369762    1383.5043  0.090354254  0.090910421            4 
 1277000    1.0679378   -2.4175037    1386.9956   0.09051133  0.090892843            3 
 1278000    1.0401088   -2.4303228    1391.1161  0.090709184  0.090874977            2 
 1279000    1.0488726   -2.4215016    1384.1068  0.090181576  0.090857148            4 
 1280000    1.0564423   -2.4030133    1395.5675  0.090857256  0.090839138            1 
 1281000    1.0563131   -2.4564399    1385.8678  0.090155331   0.09082092            2 
 1282000    1.0382096   -2.4180079    1392.8055  0.090535982  0.090802939            2 
 1283000    1.0387226   -2.4316497    1388.5964  0.090192023   0.09078452            1 
 1284000    1.0543965   -2.4240961    1394.7903  0.090523771    0.0907657            2 
 1285000    1.0320571   -2.4325971    1392.2762  0.090290285  0.090747597            4 
 1286000    1.0290162   -2.4269577     1395.343  0.090418804  0.090729573            3 
 1287000    1.0695465     -2.43559    1393.3182  0.090217444  0.090711632            2 
 1288000    1.0482493   -2.4297501    1401.8599  0.090700044  0.090694257            1 
 1289000    1.0416809   -2.4425635     1393.254  0.090073312  0.090676808            1 
 1290000    1.0544143   -2.4228283     1400.532  0.090473644  0.090659205            3 
 1291000    1.0430756   -2.4034677    1398.4031  0.090266144   0.09064157            3 
 1292000    1.0168925   -2.4125592    1401.2704  0.090381218  0.090623857            2 
 1293000    1.0575909   -2.4305719    1401.5029  0.090326304  0.090606315            2 
 1294000    1.0274257   -2.4728338    1395.5251  0.089871528  0.090587815            7 
 1295000    1.0521326    -2.456101    1403.4182   0.09031005  0.090569327            3 
 1296000    1.0499121   -2.4220116    1411.8343  0.090781524  0.090551767            2 
 1297000    1.0463207   -2.4408244    1404.5669  0.090244599  0.090534489            5 
 1298000     1.026111    -2.444149    1403.6185  0.090114181  0.090516585            1 
 1299000    1.0569364   -2.4549317    1401.7265  0.089923433  0.090498209            1 
 1300000    1.0481287   -2.4279744    1400.8822  0.089800143  0.090480118            2 
 1301000    1.0621159   -2.4557518    1403.5896  0.089904537  0.090462427            3 
 1302000    1.0446956   -2.4329476    1410.0929  0.090251723  0.090444892            1 
 1303000    1.0324994   -2.4559099    1410.3321  0.090197754  0.090427322            1 
 1304000    1.0358732   -2.4450968    1410.2468  0.090123137  0.090409555            2 
 1305000    1.0304095   -2.4371125    1408.3178  0.089930895  0.090392075            4 
 1306000    1.0516327   -2.4593163    1411.9212  0.090091962  0.090374965            4 
 1307000    1.0471902     -2.41427    1413.1402  0.090100754  0.090358101            3 
 1308000    1.0593526   -2.4542997    1415.0427   0.09015308  0.090340841            3 
 1309000      1.04579   -2.4477893    1413.9009  0.090011518  0.090324134            2 
 1310000    1.0329807   -2.4260275    1414.5073   0.08998138  0.090307498            2 
 1311000    1.0505913   -2.4403841    1427.2309  0.090721517  0.090291233            2 
 1312000    1.0635242   -2.4364729    1421.0413  0.090259229  0.090275058            1 
 1313000    1.0397943   -2.4433217    1422.4659  0.090280902  0.090258954            2 
 1314000    1.0444162   -2.4286741    1420.9383  0.090115318   0.09024289            4 
 1315000    1.0480768   -2.4298367    1426.9994  0.090430885  0.090226604            1 
 1316000    1.0500989   -2.4641627     1428.722  0.090471249  0.090211191            2 
 1317000    1.0422682   -2.4449098    1426.8379  0.090283339  0.090196215            2 
 1318000    1.0602539   -2.4326631    1439.1313  0.090992112  0.090181046            2 
 1319000    1.0365723   -2.4332248    1430.7394  0.090392938  0.090165382            2 
 1320000    1.0285259   -2.4509492    1426.6485  0.090066192  0.090149725            5 
 1321000    1.0696197   -2.4305517    1434.4415  0.090489621  0.090134269            1 
 1322000    1.0466971   -2.4158773    1430.4933  0.090172298  0.090118964            1 
 1323000    1.0211976   -2.4301154    1429.3765  0.090033796  0.090103806            2 
 1324000    1.0230135   -2.4660829    1432.9516  0.090190813  0.090088063            3 
 1325000     1.045141   -2.4351951    1428.5379  0.089845152  0.090072519            2 
 1326000    1.0332431   -2.4398714    1437.6027  0.090347078  0.090057986            1 
 1327000    1.0476542   -2.4201182    1439.5711  0.090402607  0.090042632            3 
 1328000    1.0313492   -2.4686386    1444.2401  0.090627518  0.090028043            4 
 1329000    1.0317558   -2.4408397    1441.5535  0.090390864   0.09001297            1 
 1330000    1.0319361   -2.4510466    1438.7421  0.090146749  0.089998385            1 
 1331000    1.0325298   -2.4425671    1441.2879  0.090238409  0.089983152            1 
 1332000    1.0321398   -2.4438841    1441.4085  0.090178211  0.089968525            4 
 1333000    1.0261466   -2.4704092    1445.0124  0.090335862   0.08995385            2 
 1334000    1.0463757   -2.4391988    1445.9583  0.090327232  0.089939197            1 
 1335000    1.0071756   -2.4396582    1442.9738  0.090073269  0.089924593            1 
 1336000    1.0400417   -2.4393395    1445.9756  0.090193092  0.089909724            1 
 1337000    1.0419327   -2.4229838    1448.3852  0.090275819  0.089894568            3 
 1338000    1.0461721    -2.453582    1445.3506  0.090019344  0.089879959            1 
 1339000    1.0426465   -2.4552829     1451.967  0.090363893   0.08986543            1 
 1340000    1.0350223   -2.4723994     1451.912  0.090293038  0.089850722            2 
 1341000    1.0524868   -2.4562681    1451.2024  0.090181605  0.089835996            4 
 1342000    1.0456798   -2.4654035    1448.0641  0.089919531  0.089821228            2 
 1343000    1.0281861   -2.4203269    1451.5793  0.090070695  0.089806266            1 
 1344000    1.0412813    -2.444162     1451.341  0.089988904  0.089791785            2 
 1345000     1.051115   -2.4467214    1451.1143  0.089907948  0.089777384            2 
 1346000    1.0045315   -2.4453454     1453.218  0.089971396  0.089763149            2 
 1347000    1.0278821   -2.4671089    1462.3205  0.090467738  0.089748696            2 
 1348000    1.0398819   -2.4323489    1458.0209   0.09013482  0.089733963            2 
 1349000    1.0314931    -2.449788    1456.9537  0.090002083  0.089719267            3 
 1350000    1.0326865   -2.4581378    1459.8205  0.090112377  0.089704783            4 
 1351000    1.0452328   -2.4496892    1457.6263  0.089910334  0.089690303            2 
 1352000    1.0148103   -2.4447718    1458.7751  0.089914639  0.089675186            2 
 1353000      1.03747   -2.4493473    1461.8165  0.090035505  0.089660624            1 
 1354000    1.0336785   -2.4205608    1463.0076   0.09004232  0.089646107            1 
 1355000     1.044415   -2.4486642    1460.7692  0.089838205  0.089631569            2 
 1356000    1.0306586   -2.4094349    1466.0223  0.090094785  0.089617048            2 
 1357000    1.0158056    -2.424648    1470.9104  0.090328565   0.08960344            2 
 1358000    1.0478966   -2.4618565    1465.4844  0.089929088  0.089588963            1 
 1359000    1.0333193   -2.4421609    1467.7156  0.089999727  0.089574935            2 
 1360000    1.0546488   -2.4694832    1470.0219  0.090074868   0.08956098            2 
 1361000    1.0333814   -2.4491812    1470.1034  0.090013678  0.089546668            3 
 1362000    1.0486067    -2.440723    1468.8345  0.089869954  0.089532983            5 
 1363000    1.0210474   -2.4761289    1472.0386  0.089999915  0.089519552            2 
 1364000    1.0119836   -2.4641144    1467.7888  0.089674293  0.089505521            2 
 1365000    1.0387186   -2.4299402    1472.0354  0.089867853  0.089491602            2 
 1366000    1.0585248   -2.4712861    1469.3061  0.089635563  0.089477504            3 
 1367000    1.0440057   -2.4530992    1474.6885  0.089898104  0.089463066            2 
 1368000    1.0452599   -2.4279981     1473.458  0.089757432  0.089449053            2 
 1369000    1.0446283   -2.4603138    1476.6594  0.089886743  0.089434323            2 
 1370000    1.0418329   -2.4664725    1480.8618  0.090076749  0.089419891            1 
 1371000    1.0284907   -2.4512834    1481.6235   0.09005735  0.089405916            1 
 1372000    1.0583128   -2.4324996    1474.1044  0.089535009  0.089391493            1 
 1373000    1.0234725   -2.4469274    1480.5798  0.089862819   0.08937672            1 
 1374000    1.0312074   -2.4632263    1475.1605  0.089468733  0.089361855            5 
 1375000    1.0457692   -2.4574442    1485.5733  0.090034746   0.08934723            3 
 1376000    1.0203371   -2.4403385    1480.0248  0.089633284  0.089332804            2 
 1377000    1.0135325    -2.471101     1479.011  0.089506836  0.089318214            1 
 1378000    1.0112481   -2.4404103    1476.1004  0.089265871  0.089303186            1 
 1379000    1.0145021   -2.4623811     1474.841  0.089125028  0.089287572            2 
 1380000    1.0465226   -2.4720483    1480.4681  0.089400245  0.089271505            3 
 1381000    1.0214869    -2.459411    1484.5955  0.089584571  0.089255983            1 
 1382000    1.0321323   -2.4334199    1486.6136  0.089641436  0.089240911            2 
 1383000     1.023765   -2.4631821    1488.3564  0.089681637   0.08922597            1 
 1384000    1.0199161   -2.4499055    1481.6746   0.08921451  0.089210707            5 
 1385000    1.0331956   -2.4566751    1487.8173  0.089519694  0.089195858            1 
 1386000    1.0133616   -2.4232941    1487.8956   0.08945981  0.089180867            2 
 1387000    1.0058217   -2.4163906    1492.5121  0.089672683  0.089166077            4 
 1388000   0.99564883   -2.4404411    1490.9935  0.089516904  0.089150818            6 
 1389000    1.0351039   -2.4562644    1486.3823  0.089175807  0.089135688            2 
 1390000    1.0296257   -2.4636706    1490.9757   0.08938703  0.089120223            2 
 1391000    1.0263685   -2.4490589    1486.3928  0.089048216  0.089105721            4 
 1392000    1.0164494   -2.4615521    1496.8473  0.089610114  0.089090818            2 
 1393000    1.0431824   -2.4698897    1496.1905  0.089506493   0.08907649            2 
 1394000    1.0379712   -2.4633156    1491.2179  0.089145018  0.089062238            2 
 1395000    1.0166569   -2.4583013    1500.6247  0.089643054  0.089047607            2 
 1396000    1.0262044   -2.4558457    1497.4501  0.089389335  0.089032911            3 
 1397000    1.0332181   -2.4903968    1494.1681  0.089129571  0.089018393            1 
 1398000    1.0313435   -2.4669994    1497.2467  0.089249329  0.089003393            1 
 1399000    1.0189601    -2.461316    1495.7679  0.089097446   0.08898901            2 
 1400000    1.0556326   -2.4443607    1506.7013  0.089684601  0.088974232            2 
 1401000    1.0305455    -2.486897    1490.9981   0.08868654  0.088959575            2 
 1402000    1.0321986   -2.4372754    1498.1544  0.089048644  0.088944396            2 
 1403000   0.99687105   -2.4478977    1504.1307  0.089340144   0.08892991            2 
 1404000     1.038409   -2.4410222    1508.0753  0.089510643  0.088915023            2 
 1405000     1.044132   -2.4387682    1504.3405  0.089225418   0.08890022            2 
 1406000    1.0159018   -2.4778587    1508.0472  0.089381652  0.088885563            1 
 1407000    1.0333285   -2.4628765    1505.7567   0.08918246  0.088870822            4 
 1408000    1.0244351   -2.4657352    1509.3771  0.089333401  0.088856058            1 
 1409000    1.0275687   -2.4746327    1509.5495  0.089280194  0.088840892            3 
 1410000    1.0014018   -2.4578926    1511.2256  0.089315936  0.088825631            4 
 1411000    1.0090056   -2.4306669    1505.7798  0.088931006  0.088810523            4 
 1412000    1.0141845     -2.47424    1500.6766  0.088566847   0.08879504            2 
 1413000    1.0329976   -2.4542701    1509.5079  0.089025003  0.088779605            1 
 1414000    1.0157499   -2.4736572    1511.4148  0.089074424  0.088764586            3 
 1415000    1.0195985   -2.4397114    1510.9318  0.088983027  0.088749838            4 
 1416000    1.0087742    -2.431117    1510.3126  0.088883743  0.088735049            1 
 1417000    1.0239085   -2.4599364     1507.394  0.088649379  0.088720595            1 
 1418000      1.02739   -2.4298494    1514.2975  0.088992569  0.088705609            2 
 1419000    1.0413971   -2.4439013    1516.8173  0.089077833  0.088690688            1 
 1420000    1.0319924   -2.4527403    1508.5743  0.088531354  0.088675373            2 
 1421000    1.0316563   -2.4404072    1513.0729  0.088732872  0.088660055            2 
 1422000    1.0364816   -2.4566538    1514.7386  0.088768087  0.088644483            1 
 1423000    1.0181545   -2.4817784    1511.7647   0.08853155  0.088628839            2 
 1424000    1.0218967   -2.4617992    1516.5323   0.08874838  0.088612741            1 
 1425000    1.0080227   -2.4554671    1513.3018  0.088497184  0.088597357            2 
 1426000    1.0158689   -2.4641374    1514.3535  0.088496583  0.088581941            2 
 1427000   0.99379792   -2.4535954      1517.61  0.088624737  0.088566083            3 
 1428000    1.0361654   -2.4688875    1516.9701  0.088525333  0.088550427            2 
 1429000   0.99043441   -2.4666602     1520.065  0.088643865  0.088534158            3 
 1430000    1.0394631   -2.4457233    1532.1292   0.08928492   0.08851861            2 
 1431000    1.0336653   -2.4486543    1511.4893  0.088020576  0.088503081            2 
 1432000    1.0293756   -2.4721081    1520.8144  0.088501771  0.088487261            1 
 1433000    1.0259506   -2.4827743     1520.148  0.088401255  0.088471997            2 
 1434000    1.0178884   -2.4445362    1523.2557  0.088520207  0.088456376            1 
 1435000    1.0199794   -2.4903749    1519.9293  0.088265347  0.088440703            2 
 1436000    1.0406984   -2.4540204    1529.9518  0.088785504  0.088425042            5 
 1437000    1.0223358   -2.4451572    1530.4835  0.088754555  0.088409475            2 
 1438000    0.9979242   -2.4589986    1521.3845  0.088165535  0.088394732            2 
 1439000    1.0261592   -2.4558649    1534.4478  0.088860768  0.088379834            3 
 1440000     1.037194   -2.4265035    1529.2195  0.088496501  0.088364211            2 
 1441000    1.0410146   -2.4437119    1535.7281  0.088811479  0.088349095            2 
 1442000    1.0081668   -2.4500349    1531.4908  0.088505016  0.088334159            2 
 1443000    1.0281563    -2.500536     1529.566  0.088332523  0.088319186            1 
 1444000    1.0259158   -2.4641939     1533.619  0.088505253  0.088304569            2 
 1445000    1.0180795   -2.4687469    1538.4492  0.088722562  0.088290057            4 
 1446000    1.0207754   -2.4539509    1538.1505  0.088643989  0.088275421            3 
 1447000     1.020076   -2.4801137    1534.6156   0.08837915  0.088260844            2 
 1448000    1.0075637   -2.4573918    1533.2122  0.088237349   0.08824633            2 
 1449000    1.0315225   -2.4621322    1544.3376  0.088816289  0.088232005            3 
 1450000    1.0204258   -2.4686996    1538.1487   0.08839935   0.08821727            2 
 1451000    1.0301701   -2.4777855    1536.5111   0.08824438  0.088202668            3 
 1452000    1.0045442   -2.4465005     1544.549  0.088644915   0.08818824            2 
 1453000     1.012356   -2.4558608    1544.6449  0.088589409  0.088173663            2 
 1454000    1.0202144   -2.4903992      1544.68  0.088530489  0.088159125            1 
 1455000    1.0153699   -2.4562119    1546.8628  0.088594662  0.088144474            4 
 1456000    1.0041441   -2.4425757    1549.4072  0.088679444  0.088130591            2 
 1457000    1.0115241   -2.4655154    1548.1132  0.088544566  0.088116187            2 
 1458000    1.0273743    -2.492614    1548.4759  0.088504566  0.088101748            1 
 1459000    1.0079914   -2.4715836    1549.1105  0.088480151  0.088087437            3 
 1460000    1.0277884   -2.4730498    1550.6867  0.088509514  0.088072635            2 
 1461000    1.0239424   -2.4554825    1551.1806  0.088477103  0.088058118            3 
 1462000    1.0243372   -2.4648407    1549.4416  0.088317462  0.088043541            1 
 1463000    1.0084411   -2.4709089    1551.6507  0.088382931  0.088029532            3 
 1464000     1.004084    -2.440398    1555.1496  0.088521721  0.088015446            2 
 1465000    1.0050843   -2.4610731    1554.0579  0.088399198  0.088001007            4 
 1466000    1.0585268   -2.4838683     1549.334  0.088070372  0.087986833            1 
 1467000    1.0148722   -2.4433538    1557.5812  0.088478823   0.08797239            1 
 1468000    1.0217091   -2.4584925    1560.2716  0.088571273  0.087958332            2 
 1469000    1.0414373   -2.4732596    1556.5966  0.088302507  0.087943971            3 
 1470000     1.003259   -2.4691263    1559.0156  0.088379571  0.087929884            1 
 1471000    1.0303537   -2.4473512    1559.9084  0.088370066  0.087915918            1 
 1472000    1.0182225   -2.4810745    1560.1958  0.088326302  0.087901729            1 
 1473000    1.0290732   -2.4455339     1565.868  0.088587239   0.08788791            2 
 1474000    1.0161414   -2.4539106     1569.694  0.088743444  0.087873781            1 
 1475000    1.0188823   -2.4539985    1560.5475  0.088166527  0.087859704            2 
 1476000    1.0328049    -2.475338    1568.4755  0.088554397   0.08784602            1 
 1477000    1.0395577   -2.4730107    1565.4462  0.088323527  0.087832021            1 
 1478000    1.0021572   -2.4717902    1562.1773  0.088079461  0.087818029            1 
 1479000   0.98104501   -2.4750374    1571.3724  0.088537997   0.08780421            4 
 1480000    1.0026021    -2.456414    1570.8258  0.088447398  0.087789925            4 
 1481000   0.98251314   -2.4594514    1564.4297  0.088027781  0.087776054            2 
 1482000    1.0126986   -2.4921161    1561.4601  0.087801397  0.087761253            2 
 1483000    1.0261287   -2.4648072    1567.2718  0.088068767  0.087746653            3 
 1484000    1.0347276   -2.4802771    1568.3726   0.08807124  0.087732087            1 
 1485000     1.013731   -2.4749488    1570.4675  0.088129487  0.087717717            2 
 1486000    1.0304702   -2.4854598    1567.5484  0.087906484  0.087702561            1 
 1487000    1.0301606   -2.4695663    1567.1137  0.087823005  0.087687884            2 
 1488000    1.0279573   -2.4967806    1568.3488  0.087833154  0.087673446            3 
 1489000    1.0039604   -2.4617633     1575.353  0.088166163  0.087658881            2 
 1490000    1.0118599   -2.4677148    1571.8195  0.087909369  0.087644368            2 
 1491000   0.99873413    -2.469459    1571.5711  0.087836523  0.087629587            3 
 1492000    1.0157507   -2.4457027    1580.6217  0.088283159  0.087614967            4 
 1493000    1.0301384   -2.4699293    1574.1455  0.087862551  0.087600436            4 
 1494000    1.0006049   -2.4936612    1570.1668  0.087581818  0.087586035            2 
 1495000    1.0061763   -2.4771134    1577.5395    0.0879342  0.087571536            1 
 1496000   0.99095628   -2.4782607    1577.7592  0.087887656  0.087557191            7 
 1497000   0.97541783    -2.477132    1579.1951  0.087908879  0.087542564            2 
 1498000    1.0136998   -2.4332974    1576.3402  0.087691378   0.08752805            1 
 1499000    1.0152858   -2.4579105    1576.6042  0.087647554  0.087512912            2 
 1500000    1.0104057   -2.4521538    1575.6401  0.087535562  0.087498028            3 
 1501000    1.0104401   -2.4636058     1578.468  0.087634246  0.087482847            6 
 1502000    1.0142355   -2.4526994    1579.0227  0.087606676  0.087467988            2 
 1503000    1.0056799   -2.4745582    1581.8937   0.08770757  0.087453245            3 
 1504000    1.0215968   -2.4907025    1580.3394  0.087563131    0.0874384            2 
 1505000    1.0026249   -2.4756054    1590.8521  0.088087049  0.087423793            1 
 1506000    1.0109791   -2.4677935    1583.6332  0.087629104  0.087409719            2 
 1507000   0.98414898   -2.4495479    1585.5318  0.087675946  0.087395136            4 
 1508000    1.0263373   -2.4986591     1581.572  0.087398983  0.087380632            3 
 1509000    1.0254342   -2.4653484    1584.0024  0.087475282  0.087365957            2 
 1510000    1.0149982   -2.4875943    1586.2351  0.087540569  0.087350881            2 
 1511000    1.0061738   -2.4594723      1588.03  0.087581622  0.087336072            4 
 1512000    1.0085334   -2.4370925    1588.9963  0.087576955  0.087321103            1 
 1513000    1.0013504    -2.461865    1586.8455  0.087400614  0.087305778            2 
 1514000    1.0019239   -2.4889281     1588.712  0.087445617  0.087290773            2 
 1515000    1.0181658    -2.482638     1589.794  0.087447416  0.087275437            1 
 1516000     1.016723   -2.4644648    1594.4245  0.087644269    0.0872603            2 
 1517000   0.99754502   -2.4521766    1594.8829  0.087611675  0.087245378            1 
 1518000   0.99010288     -2.47386    1595.0412  0.087562649  0.087230726            1 
 1519000   0.98809101   -2.4639769     1592.487   0.08736488  0.087215535            1 
 1520000    1.0100521    -2.486632    1592.5514  0.087310932  0.087200603            4 
 1521000   0.97596057    -2.460702    1592.1554  0.087231833  0.087185802            1 
 1522000   0.99987053   -2.4766432    1595.7336  0.087370435  0.087170713            2 
 1523000   0.99480104   -2.4881313    1595.1181   0.08727939   0.08715605            4 
 1524000    0.9896427   -2.4671008    1601.5431  0.087573439  0.087141152            2 
 1525000   0.98759536    -2.508846    1602.2049  0.087552179   0.08712635            1 
 1526000    1.0077454   -2.4696552    1604.9045  0.087642232  0.087111974            2 
 1527000    0.9841512   -2.4646197    1608.8685   0.08780116  0.087097773            2 
 1528000     1.001457   -2.4443167     1604.797  0.087521652  0.087083746            2 
 1529000    1.0060515   -2.4683162    1605.6995  0.087513596  0.087069422            2 
 1530000   0.99786538   -2.4655985    1610.2571  0.087704633   0.08705512            3 
 1531000    1.0044539   -2.4799913    1606.2903  0.087431434  0.087040665            3 
 1532000    1.0004141    -2.493564    1604.7028  0.087288013  0.087026074            4 
 1533000    1.0021269   -2.4627427    1606.0212  0.087302739  0.087010823            3 
 1534000   0.99311818   -2.4869907    1605.1862  0.087200468  0.086996085            3 
 1535000    1.0173291   -2.4583551    1606.2559  0.087201732  0.086981555            3 
 1536000   0.99030801    -2.483053     1605.621  0.087110513  0.086966632            2 
 1537000    1.0084359   -2.4550336    1604.6212  0.086999633  0.086951824            1 
 1538000    1.0189613    -2.469035    1612.4398  0.087366701  0.086937381            1 
 1539000    1.0015629   -2.4974485    1606.5699  0.086992087   0.08692257            3 
 1540000   0.99259683   -2.4832008    1612.3737  0.087249658  0.086907435            3 
 1541000    1.0056509   -2.4658588    1611.9155   0.08716826  0.086892295            2 
 1542000    1.0147698   -2.4770615    1613.2063  0.087181491  0.086877355            1 
 1543000   0.99971893   -2.4784378    1619.1104  0.087443852  0.086862783            2 
 1544000    1.0150159   -2.4665077    1624.7866  0.087693575  0.086848318            3 
 1545000    1.0005668   -2.4796377    1612.9162   0.08699656  0.086834023            3 
 1546000   0.99760763   -2.4744423    1623.3526  0.087502838  0.086819651            3 
 1547000    1.0222823    -2.461071    1617.8478  0.087149741  0.086805509            3 
 1548000   0.99512382   -2.4699429    1616.5833  0.087025372  0.086791263            1 
 1549000    1.0023711   -2.4849128    1626.0512  0.087478547  0.086776915            1 
 1550000    1.0084043   -2.4757747    1621.5898  0.087182247  0.086762408            1 
 1551000    1.0212141   -2.4802334    1625.7714  0.087350709  0.086748034            1 
 1552000    1.0152473   -2.4894998    1621.8257  0.087082564  0.086733713            2 
 1553000    1.0153272   -2.4620314    1624.8727  0.087189991  0.086718652            4 
 1554000    1.0060904   -2.4878211    1619.5774  0.086849923  0.086703892            4 
 1555000    1.0009815   -2.4819716    1626.3256  0.087155711   0.08668899            2 
 1556000    0.9980733   -2.4739361    1627.4279  0.087158737  0.086674467            2 
 1557000   0.99348213   -2.4951143    1619.7695  0.086692864  0.086659601            3 
 1558000   0.99832411   -2.4585335    1629.3062  0.087147318  0.086644899            2 
 1559000   0.99141519   -2.4925217    1630.9403  0.087178762  0.086630648            1 
 1560000    1.0157817   -2.4776283    1625.4966  0.086832083  0.086616135            2 
 1561000    1.0077284   -2.5022066    1632.0737  0.087127571  0.086601659            4 
 1562000   0.99076903   -2.4879923    1631.4701  0.087039591  0.086587246            2 
 1563000   0.96603483   -2.4886145    1634.2201  0.087130526  0.086572895            2 
 1564000    1.0139455   -2.4697023    1634.4025  0.087084534  0.086558894            2 
 1565000   0.99946647    -2.484946    1630.0966  0.086799606   0.08654444            3 
 1566000   0.97760749   -2.4974755    1635.4282  0.087027894  0.086530822            2 
 1567000    0.9956111   -2.4592468    1632.9494  0.086840536  0.086516809            4 
 1568000    1.0141352   -2.4968127    1639.0684  0.087110352  0.086502343            2 
 1569000    1.0069886   -2.4884636    1637.9657  0.086996268  0.086488649            2 
 1570000   0.98298928   -2.4992071    1640.2043  0.087059678  0.086474947            3 
 1571000   0.99555114     -2.47291    1639.3453  0.086958696  0.086461433            1 
 1572000    0.9922399   -2.4934764     1640.402  0.086959391  0.086447629            2 
 1573000    1.0023143   -2.4914342    1638.8401  0.086821365  0.086433923            4 
 1574000    1.0147153   -2.4803265    1644.9381  0.087089056  0.086420017            1 
 1575000    1.0154769   -2.4782919    1642.5248  0.086906072  0.086406291            3 
 1576000   0.99769918   -2.4780626    1634.9108  0.086448328  0.086392284            2 
 1577000   0.98899318   -2.4962456    1642.3969  0.086789098  0.086378443            2 
 1578000    1.0081692   -2.4687704    1639.5929  0.086586022  0.086364473            3 
 1579000    1.0026688   -2.4666665     1648.601  0.087006595  0.086350518            2 
 1580000   0.99966723    -2.492851    1640.0637  0.086501249  0.086336079            2 
 1581000   0.98912217   -2.4878957    1642.5608  0.086578159   0.08632156            2 
 1582000   0.99280083   -2.4682449    1645.4707  0.086676713  0.086306789            5 
 1583000   0.98274779    -2.504562    1646.4606  0.086674071  0.086292552            1 
 1584000    1.0170233   -2.4862468     1652.459  0.086934924  0.086278422            7 
 1585000    1.0060884   -2.4779756    1650.6664  0.086785828  0.086264067            4 
 1586000   0.98496851   -2.4844694     1650.938  0.086745378  0.086249644            2 
 1587000    1.0018175   -2.4774578    1648.7086  0.086573649  0.086235276            3 
 1588000   0.99117981   -2.4752127    1646.7941  0.086418664   0.08622132            3 
 1589000    1.0064624   -2.4996436    1650.9357  0.086581482  0.086207115            1 
 1590000    1.0062086   -2.4897137    1653.2156  0.086646517  0.086193374            2 
 1591000   0.98230397   -2.5000981    1651.4877  0.086501557  0.086179643            5 
 1592000   0.99970997   -2.5058205    1655.6482  0.086665004  0.086166185            1 
 1593000   0.97556897    -2.478639    1662.2163   0.08695419  0.086152718            2 
 1594000    1.0022686   -2.4958955    1659.2675   0.08674548  0.086139116            2 
 1595000   0.99786626    -2.493252    1657.4329  0.086595239  0.086125588            2 
 1596000   0.98604508   -2.4870993    1657.2073  0.086529202  0.086111842            2 
 1597000   0.97660622   -2.4711179     1663.679  0.086812722  0.086098089            5 
 1598000   0.98989062   -2.4639724    1667.4941  0.086957348  0.086084851            4 
 1599000   0.98514956   -2.4774661    1664.3201  0.086737551  0.086071897            2 
 1600000   0.99195067   -2.5074483     1660.611  0.086490154  0.086058808            3 
 1601000   0.97867826    -2.483627    1663.2925  0.086575708  0.086045086            4 
 1602000    1.0126001   -2.4810804    1664.4399  0.086581351  0.086031538            2 
 1603000   0.97253032   -2.4805681    1668.6815  0.086747842  0.086018105            2 
 1604000   0.98546065   -2.5056733    1662.2176   0.08635794  0.086004393            2 
 1605000   0.98492986   -2.5115493    1670.5708  0.086737842  0.085991034            2 
 1606000    1.0025765   -2.4779292    1671.1931   0.08671612  0.085977989            3 
 1607000    1.0133258   -2.5159424     1672.739  0.086742323  0.085964886            2 
 1608000   0.97989663   -2.4762508     1673.644  0.086735284  0.085951627            2 
 1609000   0.96042806   -2.4989023     1675.112  0.086757407  0.085938741            1 
 1610000     1.003604   -2.5080602    1666.7034  0.086268293  0.085925419            3 
 1611000   0.98608247   -2.5115989    1676.5388  0.086723505  0.085912404            3 
 1612000   0.99714126    -2.490777    1680.3019  0.086864243   0.08589909            3 
 1613000    1.0107231   -2.4833317    1668.3811  0.086194519  0.085885753            2 
 1614000    1.0093099   -2.5029997     1678.561   0.08666672  0.085872451            1 
 1615000   0.98185065   -2.4868491    1675.1548  0.086437299  0.085859183            4 
 1616000   0.99705957   -2.4804912    1684.3714  0.086859085  0.085846358            1 
 1617000   0.99093542    -2.493658    1682.1914   0.08669302  0.085833534            2 
 1618000   0.99317641   -2.4824694      1681.27  0.086591988  0.085820678            4 
 1619000   0.98675458   -2.4831615    1680.4104  0.086494256  0.085807979            1 
 1620000   0.98954975   -2.5015024    1680.6364  0.086452489  0.085794638            2 
 1621000   0.99716057   -2.4717171    1682.5683  0.086498472  0.085781623            5 
 1622000   0.97898618   -2.5090454    1675.6279   0.08608857   0.08576813            3 
 1623000   0.98268421   -2.5155936    1681.7189   0.08634827  0.085754798            2 
 1624000   0.99309277   -2.4770839    1682.1401  0.086316711   0.08574123            3 
 1625000    1.0012224    -2.497021    1679.5614  0.086131356  0.085728307            1 
 1626000   0.98433053   -2.5019411     1685.297  0.086372336  0.085715137            1 
 1627000   0.99285973   -2.5145911    1682.9818  0.086200664  0.085701869            5 
 1628000    1.0139656   -2.5019432    1684.0703  0.086203433  0.085688845            2 
 1629000   0.99410653   -2.4942491     1681.712  0.086029877  0.085676066            2 
 1630000    1.0186912   -2.5088493    1694.8812  0.086650369  0.085662978            5 
 1631000     1.008296    -2.480333    1699.9463  0.086856033  0.085649965            3 
 1632000    1.0004033   -2.4932455    1684.7985  0.086029333  0.085637121            2 
 1633000    1.0000873   -2.5211672     1685.481  0.086011482  0.085623954            4 
 1634000     1.017868   -2.4880196    1687.0796  0.086040373  0.085610961            6 
 1635000    1.0014586   -2.5017916    1692.4827  0.086263135  0.085597919            1 
 1636000    0.9857576   -2.4838798    1695.1927  0.086348446  0.085584966            2 
 1637000    1.0101034   -2.5191779    1683.9514  0.085723447  0.085571933            3 
 1638000   0.98234599   -2.4931594    1698.6106  0.086416901  0.085558527            2 
 1639000   0.99538044   -2.4641159     1694.772  0.086169008  0.085545389            3 
 1640000   0.97012574   -2.5217679    1690.5845  0.085903684  0.085531687            6 
 1641000   0.98433648   -2.4867494    1697.0318  0.086178741  0.085518038            2 
 1642000    1.0041823    -2.490671    1701.1722   0.08633639  0.085504779            1 
 1643000    1.0015299   -2.4932935    1695.4714  0.085994693  0.085491492            1 
 1644000    1.0087791   -2.4914633    1698.7093  0.086106515  0.085477808            2 
 1645000    1.0060989   -2.4772316    1701.2328  0.086182008  0.085464554            5 
 1646000   0.98481745   -2.4920554    1693.3303  0.085729562  0.085451134            3 
 1647000    1.0119522   -2.4938263    1697.1593  0.085871245  0.085437715            1 
 1648000   0.98411989   -2.5064697    1702.0167  0.086064759  0.085424013            2 
 1649000   0.99286584    -2.535048    1698.1111  0.085815196   0.08541051            1 
 1650000   0.97685981   -2.4980036    1702.5565    0.0859877  0.085396961            2 
 1651000    0.9748296   -2.5166523    1708.7052   0.08624597  0.085383446            2 
 1652000   0.98620778   -2.5013384    1706.2536  0.086070099  0.085370143            3 
 1653000   0.98012014   -2.4711394    1709.3692  0.086175095  0.085356976            2 
 1654000   0.99078691   -2.4744023    1708.0458  0.086056318  0.085344302            1 
 1655000    1.0092963   -2.4788075    1706.5174   0.08592736  0.085331436            2 
 1656000   0.99462517   -2.5030706    1705.6269  0.085830661  0.085318534            1 
 1657000   0.98801424   -2.5122314    1709.7854     0.085988  0.085305499            5 
 1658000    1.0011779   -2.4849068    1713.3797  0.086116793   0.08529286            3 
 1659000   0.96465863   -2.5056314     1717.078  0.086250651  0.085280066            2 
 1660000   0.99634735   -2.5056591    1705.7171  0.085628367  0.085267453            2 
 1661000    1.0182512   -2.5069282    1709.0417  0.085743615  0.085254458            2 
 1662000   0.99375489   -2.4742253    1717.2394  0.086103061  0.085241988            3 
 1663000   0.99135303   -2.4768449    1718.7014  0.086124544  0.085229414            4 
 1664000    0.9928677   -2.5061282    1717.9755  0.086036436  0.085216742            2 
 1665000   0.99867118   -2.4890784    1720.3128  0.086101743   0.08520408            2 
 1666000   0.98882527   -2.5042917    1712.3217  0.085650346  0.085191167            5 
 1667000   0.97458831   -2.5249623    1713.9281  0.085679269  0.085178244            2 
 1668000   0.98212413   -2.5023639     1718.255  0.085844075  0.085165413            1 
 1669000   0.99466793   -2.5173157    1716.2529  0.085692677  0.085152149            3 
 1670000   0.98648507   -2.5174837    1720.1001  0.085833336  0.085138847            5 
 1671000   0.98145863   -2.5040748    1719.1062  0.085732405  0.085125946            2 
 1672000   0.96426422   -2.4950649    1717.6308  0.085607597  0.085112737            1 
 1673000   0.96822633   -2.4915176    1726.0134  0.085973971  0.085100194            2 
 1674000   0.96202572   -2.4998389     1721.703  0.085708034  0.085087488            3 
 1675000   0.99904945   -2.5112559    1723.1589    0.0857293   0.08507474            1 
 1676000   0.98499934   -2.4769793    1723.8646  0.085713235  0.085061696            3 
 1677000   0.99095756   -2.5044401    1726.9743  0.085816654   0.08504873            2 
 1678000   0.97052035   -2.5253426     1727.567  0.085794942  0.085036255            2 
 1679000   0.99466504   -2.5150322    1731.3014  0.085929193  0.085023392            2 
 1680000   0.97917803    -2.493092    1724.2263  0.085527098   0.08501085            1 
 1681000   0.98910365   -2.4941728    1732.3176  0.085877337  0.084998185            2 
 1682000   0.99397469   -2.5187027    1733.9777  0.085908525   0.08498559            2 
 1683000   0.97977905   -2.5080037    1726.6685   0.08549557  0.084972834            3 
 1684000   0.99002913   -2.5106539    1734.7105   0.08584276  0.084960176            2 
 1685000    1.0037787   -2.4730373    1739.9346  0.086050179  0.084947848            1 
 1686000   0.97318129   -2.5056994    1732.1478  0.085614264  0.084935268            2 
 1687000     0.980279   -2.4806986     1735.989  0.085753262  0.084922552            3 
 1688000   0.98367771     -2.49364    1732.1272  0.085511809  0.084910027            2 
 1689000   0.97722493    -2.519537     1733.872  0.085547266  0.084897663            4 
 1690000   0.98190571   -2.5138745    1739.6278  0.085780462  0.084885253            6 
 1691000   0.98683959   -2.4932672    1738.1361  0.085656223  0.084872534            2 
 1692000    0.9896099   -2.5243119    1741.8565  0.085788835  0.084860012            6 
 1693000   0.96029041   -2.5024792    1744.4253  0.085864604  0.084847795            4 
 1694000   0.96871183   -2.5273006    1740.3465   0.08561327  0.084834974            2 
 1695000   0.96396294   -2.5118675    1745.2637  0.085804507   0.08482249            3 
 1696000    0.9936526    -2.522899    1738.7336  0.085433059  0.084809546            2 
 1697000   0.96726409   -2.5040258    1746.9292  0.085785172  0.084797053            2 
 1698000   0.96235587    -2.490104    1745.2081  0.085650183  0.084784283            1 
 1699000   0.97548504   -2.5077928    1742.7999  0.085481652  0.084771494            1 
 1700000   0.96740245   -2.4985356     1749.645  0.085766912   0.08475872            3 
 1701000   0.98199755   -2.5270692    1735.5796  0.085027415  0.084746629            3 
 1702000   0.98767901   -2.5338399    1754.6746  0.085912389  0.084734589            2 
 1703000   0.98624306   -2.5074384    1748.1651  0.085543406   0.08472203            4 
 1704000   0.98212267   -2.5021259     1745.949  0.085384828  0.084709543            2 
 1705000    0.9857669   -2.5164281    1744.9409  0.085285478  0.084697318            1 
 1706000   0.98886873   -2.4760658    1750.4108  0.085502674  0.084684869            2 
 1707000   0.99710019   -2.4790354    1744.4312  0.085160673  0.084672767            3 
 1708000    0.9738763   -2.4934058    1746.3883  0.085206296  0.084660683            2 
 1709000   0.96572464   -2.5066684    1748.8678  0.085277347   0.08464788            2 
 1710000   0.97439273   -2.5067207    1748.6681  0.085217744   0.08463532            2 
 1711000   0.99319651   -2.5075923    1756.4576   0.08554732  0.084622973            4 
 1712000   0.98475255   -2.5185872    1747.5065  0.085061648  0.084610519            2 
 1713000    0.9828586   -2.5118242    1753.2757  0.085292648  0.084597361            2 
 1714000    0.9921462   -2.5044284    1759.4899  0.085545017  0.084584438            1 
 1715000   0.97131849    -2.504836    1749.0072  0.084985774  0.084571506            1 
 1716000   0.97240028   -2.4903983    1751.1652  0.085041045  0.084558512            2 
 1717000   0.97402721   -2.5192752     1756.762  0.085263154  0.084545587            2 
 1718000   0.97614108   -2.4929039    1759.9885  0.085370027  0.084532264            7 
 1719000   0.98321511   -2.5087327    1748.6778  0.084772049  0.084519235            3 
 1720000   0.99268029   -2.5066887     1756.901  0.085121173  0.084505909       -1e+20 
 1721000   0.97464263   -2.5281378    1758.4575  0.085147082  0.084492762            1 
 1722000   0.96811757   -2.5130584    1755.8728  0.084972551  0.084479496            2 
 1723000   0.98252766   -2.5124075    1758.6078  0.085055515  0.084466259            4 
 1724000   0.97525897    -2.527276    1754.0618  0.084786435  0.084453174            2 
 1725000   0.97713878   -2.5204146    1763.4961  0.085193049  0.084440308            2 
 1726000   0.98186799   -2.4965122    1759.7612  0.084963366  0.084427104            1 
 1727000   0.96314302   -2.5032933    1767.4333  0.085284373  0.084414195            2 
 1728000   0.97481318   -2.5200685    1761.4856  0.084948186  0.084401018            2 
 1729000   0.98028124   -2.5322254    1766.4936   0.08514043  0.084387483            2 
 1730000   0.95360906   -2.5185297    1767.2273  0.085126558  0.084374028            3 
 1731000   0.98934004   -2.5064667    1763.1524  0.084881206  0.084360808            2 
 1732000   0.97031914   -2.4958227    1771.9983  0.085257808  0.084347709            2 
 1733000   0.95930051   -2.5108355    1769.4346  0.085085332  0.084334359            1 
 1734000   0.98226643    -2.522828    1769.6781  0.085047968   0.08432103            3 
 1735000   0.99738635    -2.523058     1767.121   0.08487613  0.084307776            4 
 1736000   0.96581929   -2.5041683    1767.8824  0.084863785  0.084294638            1 
 1737000   0.96800728   -2.4940715    1777.1473  0.085259416  0.084281611            1 
 1738000   0.96688709   -2.4816391    1781.2672  0.085407902  0.084268623            1 
 1739000   0.99233152   -2.5098661    1767.8432  0.084715508  0.084255844            1 
 1740000   0.96565194   -2.5212868    1772.5365  0.084891594  0.084242775            1 
 1741000   0.97086219   -2.5187671    1775.1462  0.084967748  0.084229591            3 
 1742000    0.9975501   -2.5141096    1772.6189  0.084798072  0.084216584            1 
 1743000   0.98117893   -2.5186583    1775.0668  0.084866458  0.084203363            2 
 1744000   0.95845895   -2.4993636    1773.4567   0.08474086  0.084189669            3 
 1745000    0.9612356   -2.5105341    1780.7366  0.085039954  0.084176726            2 
 1746000   0.97336534   -2.5095792    1775.0074  0.084717802  0.084163389            2 
 1747000   0.96896668   -2.5161926    1783.4784  0.085073385  0.084150675            2 
 1748000   0.97211994   -2.5369739    1769.1128  0.084339854  0.084137535            4 
 1749000   0.95814712   -2.5189321    1780.9992  0.084857977  0.084124723            1 
 1750000   0.94647477   -2.5162191    1778.4651  0.084688812  0.084112197            3 
 1751000   0.97546858   -2.5267973    1786.7345  0.085034003  0.084099552            2 
 1752000   0.96536463   -2.4997139     1781.263  0.084725219  0.084086926            2 
 1753000   0.95690665   -2.5303483    1786.9775   0.08494854  0.084074595            2 
 1754000   0.97719557   -2.5252366    1787.4526  0.084922684  0.084061986            2 
 1755000   0.99039493   -2.4956111    1787.5765  0.084880176  0.084049445            8 
 1756000   0.98400829   -2.5292257    1791.2141  0.085004465  0.084036784            1 
 1757000   0.99091914   -2.5088614    1783.0207  0.084567478  0.084024281            3 
 1758000   0.95751238   -2.5069284    1794.5764  0.085067139  0.084011635            2 
 1759000   0.95979642   -2.5140708    1794.6034  0.085020057  0.083999277            2 
 1760000   0.99119894   -2.5409631    1783.2075  0.084432174  0.083986199            4 
 1761000   0.97056815   -2.5209521    1787.5002  0.084587365  0.083973513            2 
 1762000   0.98157149   -2.5190952    1788.3221   0.08457823  0.083961085            2 
 1763000    0.9575254   -2.4968979    1794.3793  0.084816569  0.083948504            1 
 1764000   0.95463659   -2.4996273    1794.4438  0.084771532  0.083936468            3 
 1765000    0.9666883   -2.5263626    1797.8433  0.084884009    0.0839239            3 
 1766000    0.9739506   -2.5350525    1791.2716  0.084525839  0.083911456            3 
 1767000   0.97832072    -2.513244     1797.126  0.084754105  0.083898973            2 
 1768000   0.96418415   -2.5103911    1798.6722  0.084779044   0.08388669            2 
 1769000     1.005317   -2.4904922      1797.49  0.084675428  0.083874017            3 
 1770000   0.99154785   -2.5069382    1801.6064  0.084821394  0.083861715            2 
 1771000   0.96420165   -2.5353029    1798.7106  0.084637238  0.083849149            3 
 1772000   0.94459172   -2.5325662    1797.4686  0.084531068  0.083836648            3 
 1773000   0.96302733   -2.5287537    1796.9878  0.084460793  0.083823981            2 
 1774000   0.96543756   -2.5177256     1805.235   0.08480059  0.083811094            2 
 1775000    0.9817627   -2.5253297    1803.7766  0.084684346  0.083798899            3 
 1776000   0.98189532   -2.5279975    1806.4304  0.084761187  0.083786624            2 
 1777000   0.97574204    -2.522429    1806.1026  0.084698116  0.083774271            2 
 1778000   0.97327458   -2.5192276    1802.8477  0.084497922  0.083761549            1 
 1779000   0.98519494   -2.5066701    1812.1503  0.084886185  0.083749218            2 
 1780000   0.95220966   -2.4998074    1807.8049  0.084635059  0.083736923            1 
 1781000   0.96453361   -2.5177677    1804.6942  0.084441991  0.083724122            2 
 1782000   0.96419513   -2.5459161    1799.1145  0.084133677  0.083712044            2 
 1783000   0.97324385   -2.5127679    1814.9962  0.084828762  0.083699369            1 
 1784000    0.9640733    -2.533307    1806.1803   0.08436941  0.083687195            3 
 1785000   0.95898457   -2.5280377    1812.3469  0.084610031  0.083675195            1 
 1786000    0.9793459   -2.5513738    1807.2346  0.084324125  0.083662753            2 
 1787000   0.95141024   -2.5524738    1808.1067  0.084317603  0.083650355            5 
 1788000   0.97321987   -2.5256313    1809.8575  0.084352044   0.08363805            2 
 1789000   0.95785546   -2.5222906    1812.4866  0.084427361  0.083625605            3 
 1790000    0.9365744   -2.5167165    1817.4776  0.084612551  0.083613189            4 
 1791000   0.96632374    -2.527614     1815.017  0.084450817  0.083600883            4 
 1792000     0.973449   -2.5259792    1811.5085  0.084240535   0.08358845            2 
 1793000    0.9581697   -2.5280946    1819.4125  0.084560908  0.083576127            1 
 1794000   0.97185063   -2.5209124    1815.8527  0.084348418  0.083563477            2 
 1795000   0.96206275   -2.5236624    1816.3756  0.084325699  0.083551273            2 
 1796000   0.95121532   -2.5551253     1816.681  0.084292918  0.083538771            2 
 1797000   0.96300596   -2.5278844    1818.6424  0.084336969  0.083526032            1 
 1798000   0.98568036   -2.5282668    1817.2254  0.084224388  0.083513706            3 
 1799000   0.95384126   -2.5388463    1818.0683  0.084216614   0.08350119            2 
 1800000   0.95239414   -2.5172324    1832.1547  0.084821979  0.083488594            1 
 1801000   0.96426521   -2.5199254    1824.4967  0.084420538  0.083476381            2 
 1802000   0.94362905   -2.5377581    1814.4372   0.08390849  0.083464246            2 
 1803000   0.97191222   -2.5220231    1832.1432  0.084680309  0.083451937            1 
 1804000   0.97857816   -2.5350151    1823.1149  0.084216321   0.08343999            2 
 1805000   0.95662817   -2.5200084    1834.9037  0.084713928  0.083427952            2 
 1806000   0.95063223   -2.5292607    1828.3345  0.084363903  0.083415934            3 
 1807000   0.96193159   -2.5370334    1832.1266  0.084492096  0.083404165            2 
 1808000   0.96102204   -2.5565487    1826.0745  0.084166413  0.083391973            2 
 1809000   0.96235306   -2.5412006    1826.8028  0.084153435  0.083379595            2 
 1810000   0.95726261   -2.5316143     1830.745  0.084288445  0.083367331            2 
 1811000   0.94116019   -2.5462902    1832.9802  0.084344756  0.083355162            3 
 1812000   0.97742144   -2.4983873    1834.8732  0.084385263  0.083343357            2 
 1813000   0.95663442   -2.5039839    1832.6634  0.084237146  0.083331224            2 
 1814000   0.97451658     -2.52142    1834.3844  0.084269774  0.083319452            2 
 1815000   0.96753763    -2.531551    1840.4944  0.084503876  0.083307704            3 
 1816000   0.97154162   -2.5295373     1841.013   0.08448114  0.083295598            2 
 1817000   0.96081336     -2.52239    1835.0487  0.084161103  0.083283497            2 
 1818000   0.98332656   -2.5393092     1835.952  0.084156216  0.083271569            4 
 1819000   0.95658699   -2.5146145    1843.0368  0.084434525  0.083259878            3 
 1820000   0.95898682   -2.5093049    1840.4383  0.084269152  0.083248258            3 
 1821000   0.95564736   -2.5355746    1833.1235  0.083888134  0.083236629            1 
 1822000   0.94863143   -2.5527976    1841.0388  0.084204116  0.083224651            2 
 1823000   0.95126902   -2.5397933    1845.9018  0.084380224  0.083212937            2 
 1824000   0.95962544   -2.5091218    1842.7857  0.084191597  0.083201173            2 
 1825000   0.96058293   -2.5260459    1841.0822  0.084067679  0.083189491            2 
 1826000     0.973404   -2.5153583    1851.9266  0.084516549  0.083178314            3 
 1827000   0.93548336   -2.5540072     1844.981  0.084153486  0.083166313            5 
 1828000   0.97318735   -2.5355789    1848.1013  0.084249695  0.083154693            2 
 1829000   0.99003147   -2.5270289    1849.5307  0.084268756  0.083142838            2 
 1830000   0.95975217   -2.5184886    1846.7406  0.084095656   0.08313154            2 
 1831000   0.93356326    -2.490617    1857.4919  0.084539043   0.08312029            2 
 1832000   0.94451539   -2.5251175     1853.091  0.084292714  0.083108883            2 
 1833000   0.93491096   -2.5436639    1853.3158  0.084256949  0.083097471            2 
 1834000   0.95058476   -2.5425895     1851.508  0.084128861  0.083086105            5 
 1835000   0.95956599   -2.5321016    1848.8322  0.083961497  0.083074717            1 
 1836000   0.93476343   -2.5319903    1854.8803  0.084190283  0.083063073            3 
 1837000   0.93707339   -2.5338822    1852.3625  0.084030235  0.083051296            4 
 1838000   0.97082861   -2.5155483    1852.9446  0.084010907  0.083039319            2 
 1839000   0.93180615   -2.5294527    1853.0178  0.083968544  0.083027162            4 
 1840000   0.95276657   -2.5285134    1856.1438  0.084064484   0.08301555            1 
 1841000   0.95708825   -2.5226492    1852.9832  0.083875754  0.083003547            3 
 1842000   0.94718046   -2.5136617    1861.7676  0.084227634   0.08299145            5 
 1843000   0.94327313     -2.51116    1862.8736  0.084231939  0.082979309            3 
 1844000    0.9332709   -2.5283782    1847.4495   0.08348922  0.082967276            3 
 1845000   0.95730385   -2.5188376    1859.4465  0.083985838  0.082955217            2 
 1846000   0.97086245   -2.5341739    1854.9536  0.083737525  0.082943042            2 
 1847000   0.94905078   -2.5566436    1855.3968  0.083712181  0.082931201            2 
 1848000   0.96327732   -2.5388224    1858.8171  0.083821117  0.082918581            3 
 1849000   0.92927437   -2.5129994    1859.1623  0.083791343   0.08290597            1 
 1850000   0.94979688   -2.5214946    1861.4271   0.08384807   0.08289389            2 
 1851000   0.97538362   -2.5494742    1857.6566  0.083633019  0.082881761            4 
 1852000   0.95759423   -2.5341828    1856.8124  0.083549873  0.082869459            1 
 1853000   0.96112623   -2.5498576    1859.7087  0.083635038  0.082856822            2 
 1854000   0.96413994   -2.5380296    1851.1552  0.083205467  0.082844477            1 
 1855000   0.93912086   -2.5350081    1856.0127  0.083378829  0.082832082            1 
 1856000   0.96429386   -2.5015098    1857.1366  0.083384365  0.082819517            5 
 1857000    0.9747155   -2.5387532     1868.272  0.083839168  0.082807155            1 
 1858000   0.94447018   -2.5100613    1854.8015  0.083189875  0.082794631            3 
 1859000   0.94842931   -2.5332925    1865.6278  0.083630438  0.082781775            3 
 1860000   0.93152609   -2.5205358    1859.8911  0.083328453  0.082768978            3 
 1861000   0.94669571   -2.5348559    1868.4009  0.083664738  0.082756272            3 
 1862000   0.95753323   -2.5258442    1868.7176   0.08363398  0.082743363            2 
 1863000   0.95381116   -2.5069103    1860.1694   0.08320672  0.082730306            2 
 1864000   0.94100354    -2.541508    1860.0419  0.083156378  0.082717183            2 
 1865000    0.9638629   -2.5226337    1865.9726  0.083376794  0.082703806            4 
 1866000   0.94998185   -2.5486804    1853.6118  0.082780093  0.082690423            1 
 1867000   0.96410005   -2.5480391     1867.693  0.083364264  0.082677546            1 
 1868000   0.95081693   -2.4971704    1868.4859  0.083355011  0.082664703            3 
 1869000   0.96297855   -2.5338133     1865.441  0.083174649   0.08265147            2 
 1870000   0.94799296   -2.5446279     1869.479  0.083310114  0.082638247            2 
 1871000   0.95057027   -2.5410583    1870.1235  0.083294294  0.082625076            5 
 1872000   0.93820976   -2.5591629     1866.709  0.083097802  0.082611867            2 
 1873000   0.95752028   -2.5446284    1867.4231  0.083085207  0.082598765            3 
 1874000   0.96406758   -2.5216255     1873.592   0.08331519  0.082586048            1 
 1875000   0.91894926   -2.5389342    1878.8624  0.083504995  0.082573182            1 
 1876000   0.95270489   -2.5272964    1874.6807  0.083274728  0.082560457            2 
 1877000   0.95363573   -2.5378605    1872.7899  0.083146419  0.082547423            4 
 1878000   0.97433924   -2.5464042    1867.5855  0.082871205  0.082534301            3 
 1879000   0.94487757   -2.5562603    1875.2942  0.083168982    0.0825212            3 
 1880000    0.9484064   -2.5510959    1876.2327  0.083166341  0.082508186            2 
 1881000   0.96330691   -2.5598325    1874.2951  0.083036286  0.082495061            2 
 1882000   0.94878343   -2.5313974    1876.3615  0.083083664  0.082481581            2 
 1883000   0.95922656   -2.5575493    1869.2352  0.082724165  0.082468511            1 
 1884000   0.94811416   -2.5303643    1876.2212  0.082989262  0.082454906            2 
 1885000   0.95123581   -2.5138397    1879.1098  0.083072937  0.082441425            2 
 1886000   0.93219327   -2.5558425    1874.1315  0.082808922  0.082428002            2 
 1887000   0.94661067   -2.5306391    1882.0065   0.08311281  0.082414847            3 
 1888000   0.93664185   -2.5300964    1879.8697  0.082974474  0.082401848            2 
 1889000   0.93761074   -2.5145977    1880.2586  0.082947706  0.082388535            3 
 1890000    0.9625446    -2.537175     1877.415  0.082778438  0.082375433            2 
 1891000   0.93504361   -2.5443453    1873.6152  0.082567215  0.082362114            3 
 1892000   0.95792718   -2.5256621    1883.6891   0.08296728  0.082348878            2 
 1893000    0.9625868   -2.5040311    1881.6858  0.082835261  0.082335646            4 
 1894000   0.94357271   -2.5553474    1877.7733  0.082619383  0.082322414            4 
 1895000   0.96822461   -2.5554044    1883.5811  0.082831181   0.08230955            2 
 1896000   0.94454741   -2.5308063    1889.4634  0.083046037  0.082296371            2 
 1897000    0.9415985   -2.5281084      1883.37  0.082734581  0.082283223            2 
 1898000   0.94482996   -2.5572207    1890.9175  0.083022372  0.082270198            2 
 1899000   0.96897927    -2.558998     1882.292  0.082600141  0.082257062            4 
 1900000   0.96549603   -2.5379082    1887.3415  0.082778135  0.082243922            3 
 1901000    0.9608006   -2.5392786     1888.012  0.082763983  0.082231212            2 
 1902000   0.92748813   -2.5518095    1886.0791  0.082635783  0.082218219            2 
 1903000   0.95688758   -2.5500161    1885.9639  0.082587314  0.082204909            2 
 1904000    0.9420578   -2.5318282    1884.1886  0.082466239  0.082191815            1 
 1905000   0.93773208   -2.5253838    1891.2601  0.082732289  0.082178679            1 
 1906000   0.92518654   -2.5489821    1895.9913  0.082895736  0.082165412            1 
 1907000    0.9709284   -2.5486624    1889.5891  0.082572498  0.082152212            4 
 1908000   0.94108529   -2.5334399    1893.3914   0.08269529  0.082138979            3 
 1909000   0.96015941   -2.5569173    1896.3603  0.082781574  0.082125547            1 
 1910000   0.95459565   -2.5358429    1891.7663  0.082537797  0.082112321            2 
 1911000   0.92611952   -2.5446203    1901.3906  0.082914292  0.082099147            4 
 1912000   0.94420307   -2.5330796    1891.4962  0.082439686  0.082085788            1 
 1913000   0.94413166    -2.535465    1893.8206  0.082497846   0.08207259            2 
 1914000    0.9525136   -2.5519519    1897.7133  0.082624231  0.082059863            1 
 1915000   0.97820226   -2.5557525    1901.7853   0.08275828   0.08204713            8 
 1916000   0.94344594    -2.563255    1899.0312  0.082595304  0.082034391            3 
 1917000   0.93753569    -2.512366    1895.8722  0.082414893  0.082022038            4 
 1918000   0.94861279   -2.5511822    1900.7427  0.082583537  0.082009143            4 
 1919000    0.9421565   -2.5327107    1904.7269  0.082713516  0.081996238            7 
 1920000   0.93682084   -2.5419375    1899.2668  0.082433453  0.081983011            2 
 1921000   0.96919185   -2.5651474    1901.7677  0.082499031  0.081969687            3 
 1922000    0.9268503   -2.5437239    1900.4539  0.082399144  0.081956471            3 
 1923000   0.96350291   -2.5452218    1904.0036  0.082510124  0.081943498            2 
 1924000    0.9431406   -2.5635613    1899.7759  0.082284126  0.081930467            3 
 1925000   0.95068475   -2.5349611    1907.7007  0.082584444  0.081917361            3 
 1926000   0.96250832   -2.5628736    1902.3143   0.08230851  0.081904078            6 
 1927000   0.94142781   -2.5392514    1910.2068  0.082607109  0.081890905            2 
 1928000   0.94561503   -2.5389565     1896.116  0.081955223  0.081877606            3 
 1929000   0.92720632   -2.5727751    1905.6814  0.082325964  0.081864095            3 
 1930000    0.9505915   -2.5641361    1903.0911  0.082171464  0.081850573            2 
 1931000   0.94810817    -2.558768    1906.4678  0.082274632  0.081837307            4 
 1932000   0.96542746   -2.5493462     1902.559   0.08206345  0.081823692            2 
 1933000   0.94289684   -2.5165799    1907.9014   0.08225131  0.081810081            1 
 1934000   0.93169521   -2.5480261    1907.0416  0.082171732  0.081796547            3 
 1935000   0.93599908   -2.5225863     1917.436  0.082576918  0.081782878            2 
 1936000   0.94052102   -2.5621427    1907.5044  0.082106766  0.081769244            3 
 1937000   0.94959701   -2.5539589     1907.351   0.08205778  0.081755441            3 
 1938000   0.93626775   -2.5399961     1912.238  0.082225576   0.08174193            2 
 1939000   0.93254797   -2.5607494      1911.21   0.08213899  0.081728272            2 
 1940000   0.95333137   -2.5573767    1907.2093    0.0819248  0.081714577            1 
 1941000   0.93954457   -2.5503833    1911.1515  0.082051841  0.081700693            2 
 1942000   0.95165706   -2.5376409    1909.4219  0.081935371  0.081686971            3 
 1943000   0.94902641   -2.5688353    1909.1297  0.081880669  0.081673301            4 
 1944000   0.94429393   -2.5401671    1921.0584  0.082349898  0.081659766            3 
 1945000   0.96040772   -2.5472102    1916.0689  0.082093783  0.081645947            3 
 1946000   0.92626748   -2.5448233    1911.3437  0.081849252  0.081632068            2 
 1947000   0.93095445   -2.5366434    1908.8392  0.081700019  0.081618227            2 
 1948000   0.91314504   -2.5594186    1922.5778  0.082245801  0.081604326            2 
 1949000   0.92804783   -2.5785253     1916.445  0.081941381  0.081590567            2 
 1950000   0.94839858   -2.5522226    1923.8379  0.082215296  0.081577161            3 
 1951000   0.94989101   -2.5468177    1921.2226  0.082061449  0.081563502            3 
 1952000    0.9479868   -2.5755764    1917.4073  0.081856527  0.081550052            2 
 1953000   0.94265918   -2.5575147    1917.4136  0.081814884  0.081536598            4 
 1954000    0.9260979   -2.5498261    1919.1443  0.081846822   0.08152288            2 
 1955000   0.94468174   -2.5498829    1923.7577  0.082001608  0.081509406            3 
 1956000   0.93661749   -2.5431642    1917.5172  0.081693812  0.081495767            1 
 1957000   0.95254826   -2.5305598     1936.953  0.082479689   0.08148226            4 
 1958000   0.94420452   -2.5365278    1916.2258  0.081555405  0.081468744            2 
 1959000   0.92322664   -2.5657919    1924.7381  0.081875877  0.081455097            3 
 1960000   0.93195257   -2.5360434    1926.3326  0.081901898  0.081441707            2 
 1961000   0.92796361   -2.5488744    1931.1878  0.082066454   0.08142815            3 
 1962000   0.93132811   -2.5575403    1924.7165  0.081749765  0.081414857            2 
 1963000   0.92773338   -2.5508816    1930.5012  0.081953692  0.081401306            4 
 1964000    0.9417489   -2.5365814    1920.2928  0.081478818  0.081387737            4 
 1965000   0.93968859   -2.5505906    1927.1972  0.081730162  0.081374193            3 
 1966000   0.93379432   -2.5549368     1931.179  0.081857368  0.081360795            2 
 1967000   0.91782387   -2.5819727    1931.2026  0.081816753  0.081347182            2 
 1968000   0.94441866   -2.5473135    1932.7164  0.081839278  0.081333966            2 
 1969000   0.95489001   -2.5617456    1930.6902   0.08171196  0.081320514            2 
 1970000   0.94959512   -2.5740941    1930.9665  0.081682169   0.08130726            2 
 1971000   0.92661567   -2.5354951     1927.082  0.081476492   0.08129354            3 
 1972000    0.9349858   -2.5501461    1939.2967  0.081951349   0.08127989            4 
 1973000   0.91746629   -2.5739521    1933.4204  0.081661617  0.081266202            4 
 1974000   0.93418191   -2.5653219    1926.9264  0.081346098  0.081252758            2 
 1975000   0.96164711   -2.5829867    1943.3461  0.081997725  0.081239398            2 
 1976000   0.93962264   -2.5774247    1934.4021  0.081579035  0.081226043            5 
 1977000   0.93452955   -2.5424708    1939.3805  0.081747619  0.081212639            2 
 1978000   0.92495676     -2.54987    1940.4619  0.081751848  0.081199149            3 
 1979000   0.94007162     -2.55021    1941.8554  0.081769216   0.08118568            2 
 1980000    0.9576554   -2.5548802    1943.9501  0.081816081  0.081172271            3 
 1981000   0.94457323    -2.557362    1946.0664  0.081863806  0.081159112            1 
 1982000   0.92550882   -2.5760414    1937.8158  0.081475604  0.081146061            2 
 1983000   0.92919969   -2.5520792    1948.0782  0.081865783  0.081132902            1 
 1984000   0.93973407   -2.5798759    1946.3158  0.081750497  0.081120079            4 
 1985000   0.92669361   -2.5552959    1936.8336  0.081311232  0.081106778            3 
 1986000   0.94463384   -2.5752253    1933.4656  0.081128967  0.081093079            3 
 1987000   0.92252913   -2.6036623    1945.4883  0.081592362  0.081079548            2 
 1988000   0.93735148   -2.5467604    1945.3175  0.081544159  0.081066298            1 
 1989000   0.93302932   -2.5560975    1959.0428  0.082078216  0.081052997            2 
 1990000   0.91414042   -2.5683856    1952.8223  0.081776478   0.08103998            2 
 1991000     0.938676   -2.5479605    1946.3844  0.081465945  0.081026959            8 
 1992000   0.92866091   -2.5546648    1940.4199  0.081175529  0.081013835            4 
 1993000   0.94097754   -2.5818656    1945.6136  0.081351963   0.08100041            2 
 1994000   0.96425352   -2.5671916    1954.3739   0.08167728    0.0809872            4 
 1995000   0.94376578   -2.5607169    1948.1594  0.081376749   0.08097421            3 
 1996000   0.95350403   -2.5779696    1955.1379  0.081627334  0.080961309            5 
 1997000   0.92154279   -2.5505718    1954.6387  0.081565629  0.080948094            4 
 1998000   0.94336222   -2.5475353    1954.1815  0.081505735  0.080934801            2 
 1999000   0.92561411   -2.5552764    1957.3553  0.081597268  0.080921817            3 
 2000000   0.94208861   -2.5916937     1949.663  0.081235957   0.08090887            2 
 2001000   0.91411831   -2.5567735    1955.3982  0.081434206  0.080895722            1 
 2002000   0.91416784   -2.5522982    1947.9668  0.081084198  0.080882318            1 
 2003000   0.93366367    -2.567199    1953.8584  0.081288834  0.080869056            2 
 2004000   0.91656058   -2.5694015     1957.704  0.081408182   0.08085603            1 
 2005000   0.93079034   -2.5605703    1963.7317  0.081618108  0.080843296            3 
 2006000   0.92809119   -2.5552232    1964.2944  0.081600797  0.080830655            2 
 2007000   0.93290836   -2.5420322    1957.5779  0.081281262  0.080817982            1 
 2008000   0.93374958   -2.5563686    1961.7974  0.081415895  0.080805016            3 
 2009000   0.93804159   -2.5856997    1965.1143  0.081512952  0.080792009            2 
 2010000   0.91543185   -2.5681624    1961.0262  0.081302909  0.080779066            2 
 2011000   0.92651828   -2.5704572    1954.0539  0.080973559  0.080765997            5 
 2012000   0.93374806   -2.5626243    1962.1121  0.081267068   0.08075325            4 
 2013000   0.92885055   -2.5444791    1968.3045  0.081483048  0.080740632            3 
 2014000   0.92175638    -2.536965    1974.3696  0.081693546  0.080728231            2 
 2015000   0.90976582   -2.5685542    1974.2395   0.08164762  0.080715826            5 
 2016000   0.92173254    -2.559063    1972.4813  0.081534445   0.08070344            2 
 2017000   0.92888468   -2.5390699    1964.6359  0.081169884  0.080690877            5 
 2018000   0.90981471   -2.5606118    1967.2009  0.081235583  0.080678177            3 
 2019000   0.94407108   -2.5853821    1972.7576    0.0814247   0.08066568            7 
 2020000   0.92572649   -2.5348178    1980.3075  0.081695855  0.080653575            3 
 2021000   0.93163114   -2.5683081    1977.4991  0.081539628  0.080641449            2 
 2022000    0.9182164   -2.5610327    1973.9224  0.081351896  0.080629538            4 
 2023000   0.91161061   -2.5555871    1978.1844  0.081487246  0.080617188            2 
 2024000   0.91532301   -2.5544736    1970.0288  0.081111197  0.080604894            1 
 2025000   0.93286736   -2.5688693    1975.4446  0.081294015  0.080592386            3 
 2026000   0.91364098   -2.5531521    1977.7361  0.081348146  0.080580014            2 
 2027000   0.91913705   -2.5576381    1981.7328  0.081472322  0.080567798            1 
 2028000   0.93164712    -2.565279    1978.4849  0.081298687  0.080555573            2 
 2029000   0.93162637   -2.5513007    1980.8527  0.081355869   0.08054347            1 
 2030000   0.93694449   -2.5629559    1977.5732  0.081181166  0.080530694            2 
 2031000   0.92601099    -2.583749    1983.0828  0.081367256  0.080518072            2 
 2032000   0.94802685   -2.5847663    1980.0809  0.081204106  0.080505491            2 
 2033000   0.92639029   -2.5630092    1985.6339  0.081391782   0.08049304            2 
 2034000   0.93821004   -2.5556854    1984.8691  0.081320432  0.080480553            2 
 2035000   0.92783458   -2.5531218    1988.8337  0.081442822  0.080467713            2 
 2036000   0.92298663   -2.5586384    1987.4228   0.08134507  0.080455547            5 
 2037000   0.92689504   -2.5643896    1993.3332  0.081546932  0.080443087            1 
 2038000   0.91206337   -2.5872029    1982.3165  0.081056449  0.080430426            3 
 2039000   0.93100082   -2.5945893    1988.5077  0.081269727  0.080417642            3 
 2040000    0.9426676   -2.5670106    1990.7902  0.081323127  0.080404897            2 
 2041000   0.92774964   -2.5561335    1991.8299  0.081325733  0.080392289            4 
 2042000    0.9254562   -2.5737763    1991.1323  0.081257438  0.080380089            3 
 2043000   0.92389981    -2.571304    1991.0387   0.08121385  0.080367904            4 
 2044000   0.94950963   -2.5654308    1995.0865  0.081339144  0.080355791            3 
 2045000   0.90040362   -2.6042169    1989.4634  0.081070227  0.080343587            2 
 2046000   0.92491922    -2.544647    1997.3858  0.081353284  0.080331527            1 
 2047000   0.91796847   -2.5913196    1999.2784  0.081390588  0.080319463            2 
 2048000   0.92972914   -2.5832015    1991.7082  0.081042814  0.080307554            2 
 2049000    0.9146824   -2.5742794    1997.4532  0.081236911  0.080295807            3 
 2050000   0.91179891   -2.5704304    1997.7552  0.081209562   0.08028418            3 
 2051000   0.92580276   -2.5592214    2003.6741  0.081410452  0.080272401            5 
 2052000   0.93037123   -2.5762697     1997.863  0.081134786   0.08026071            3 
 2053000   0.91222906   -2.5826101    1995.6243  0.081004398  0.080249027            3 
 2054000   0.90122671   -2.5793696    1994.0189  0.080899825  0.080237291            2 
 2055000   0.92635099   -2.5703188    1998.5243   0.08104316  0.080225319            1 
 2056000   0.90054109   -2.5575892    2007.6266  0.081372675  0.080213582            2 
 2057000   0.92646196   -2.5826943    1998.1107  0.080947607  0.080202094            4 
 2058000   0.92070464   -2.5803306    2009.9523  0.081387769  0.080190225            3 
 2059000   0.90585211   -2.5923875    2002.5565  0.081048911  0.080178615            3 
 2060000   0.93209716   -2.5931755    2007.0364  0.081190793  0.080167253            7 
 2061000   0.93324544   -2.5823383    2013.3186  0.081405409   0.08015593            3 
 2062000   0.89380015   -2.5706568    2017.8979     0.081551  0.080144554           10 
 2063000   0.91823875   -2.5766753    2008.9323  0.081149311  0.080133016            2 
 2064000   0.93311534   -2.5726468    2009.9642  0.081151655  0.080121724            3 
 2065000   0.93519886   -2.5541477    2013.3068  0.081247246  0.080110542            1 
 2066000   0.93867702   -2.5594362    2013.8606   0.08123026  0.080099333            3 
 2067000   0.90117906   -2.5809348     2010.527  0.081056565  0.080087876            2 
 2068000   0.92614579   -2.5743964    2007.4161   0.08089201  0.080076469            1 
 2069000   0.92912134    -2.583675    2016.4126  0.081215264  0.080065117            4 
 2070000   0.90570579   -2.5793087    2014.6558  0.081105307  0.080053873            4 
 2071000    0.9160302   -2.5937951    2020.7495  0.081311343  0.080042679            2 
 2072000   0.93430919   -2.6018081    2016.7216  0.081110102  0.080031448            3 
 2073000   0.92879638   -2.5780045    2018.8042  0.081154695  0.080020115            2 
 2074000   0.90193505   -2.5848004    2015.6346   0.08098821  0.080008575            2 
 2075000   0.92320876   -2.6005184     2024.907  0.081321564  0.079997001            5 
 2076000   0.92683749   -2.5780091    2015.9042  0.080921009  0.079985679            4 
 2077000   0.91885464   -2.5708376    2013.2092  0.080773922  0.079974338            3 
 2078000   0.91622263   -2.5703042    2022.7323  0.081116949  0.079962971            2 
 2079000    0.9055592   -2.6039478    2025.5004  0.081188889  0.079951448            2 
 2080000   0.92701156   -2.5770279    2024.5632  0.081112307  0.079940049            1 
 2081000   0.92340617   -2.5877369    2018.8673  0.080845238  0.079928536            5 
 2082000   0.94918501   -2.5731101     2019.301  0.080823766  0.079917292            1 
 2083000   0.91671716   -2.5965788    2027.3805  0.081108197  0.079905709            3 
 2084000   0.92406121   -2.5853686    2023.8464  0.080927958  0.079894058            2 
 2085000    0.9271937   -2.5856469    2019.3106  0.080707859  0.079882572            2 
 2086000   0.93400594   -2.5558607    2030.6581  0.081122488   0.07987126            2 
 2087000    0.9125557   -2.6105583    2017.2217  0.080547106  0.079859552            2 
 2088000   0.92703639   -2.5793648    2028.6815  0.080965895  0.079848103            3 
 2089000   0.91252794   -2.5789423    2029.0043  0.080940016  0.079836781            1 
 2090000   0.89968741   -2.5799041     2033.955  0.081098685  0.079825175            2 
 2091000   0.91364121   -2.5772882    2028.0388  0.080824119  0.079813926            3 
 2092000   0.90735103   -2.6007538    2034.3889  0.081038436   0.07980233            2 
 2093000   0.90912828   -2.5832146    2021.8669  0.080501152   0.07979063            1 
 2094000   0.91519224   -2.5830321     2033.705  0.080933819  0.079778815            1 
 2095000   0.91479876   -2.5853121    2028.0087  0.080668605  0.079766992            1 
 2096000   0.91289509   -2.5703237    2036.7556  0.080977878  0.079755207            4 
 2097000   0.91506303   -2.5627607    2032.5494  0.080772113  0.079743626            3 
 2098000   0.93894957   -2.6018041    2021.9737  0.080313539  0.079731889            4 
 2099000   0.90151552   -2.5736517     2031.417  0.080650192   0.07971981            5 
 2100000   0.92991198   -2.5936344     2030.678  0.080582462  0.079707819            2 
 2101000   0.91850156   -2.5881406    2035.0999  0.080719493  0.079696087            1 
 2102000   0.93419523   -2.5897817    2033.0164  0.080598495   0.07968433            2 
 2103000   0.90322669   -2.5820197    2032.5875  0.080543174  0.079672564            3 
 2104000   0.92809697   -2.5835826    2035.9534  0.080638204  0.079660893            5 
 2105000   0.90857935    -2.581476    2039.9264  0.080757181  0.079649437            2 
 2106000   0.94477192   -2.5561999     2033.538  0.080466049  0.079637681            2 
 2107000   0.94169527    -2.581076    2040.7221  0.080711996  0.079625792            2 
 2108000   0.92438748   -2.5969209    2037.1824  0.080533777  0.079614105            2 
 2109000   0.93176931   -2.5938977    2044.7889  0.080796146  0.079602367            3 
 2110000   0.93364472   -2.5670937    2030.6778  0.080200547  0.079590318            2 
 2111000   0.92376055   -2.5974893    2041.5116  0.080590227  0.079578205            4 
 2112000   0.91615117   -2.5812643    2035.4899  0.080314468  0.079565938            2 
 2113000   0.91653628   -2.5739247    2043.0681  0.080575329  0.079553911            4 
 2114000   0.91294485   -2.5593987    2042.6067   0.08051903  0.079541879            2 
 2115000    0.9092057   -2.5710898    2040.7999  0.080409769   0.07952962            1 
 2116000   0.92652653   -2.5656883    2041.6574  0.080405536  0.079517634            2 
 2117000   0.89966717   -2.5802432    2045.3986  0.080514824  0.079505551            3 
 2118000   0.90798469   -2.5520591    2047.1624  0.080546208  0.079493673            3 
 2119000   0.93242995   -2.5910734    2040.4025  0.080242353   0.07948168            2 
 2120000    0.9100679     -2.56644    2041.1226  0.080232807  0.079469592            2 
 2121000    0.9071971   -2.5806703    2044.5336  0.080328997  0.079457425            2 
 2122000   0.90751559   -2.5858724    2043.5604  0.080252921  0.079444893            7 
 2123000    0.9143478   -2.5760984    2042.2482  0.080163615  0.079432472            1 
 2124000    0.9293408    -2.601301    2038.5792  0.079981923  0.079420178            2 
 2125000    0.9193457     -2.58466    2051.6392  0.080456437  0.079407906            4 
 2126000   0.90967091    -2.586896    2043.8203  0.080112115  0.079395871            3 
 2127000   0.92521859    -2.609289    2046.1834  0.080167035  0.079383525            3 
 2128000   0.89432522   -2.5928316    2043.7064  0.080032361  0.079371134            2 
 2129000   0.90909468   -2.5834207     2053.305  0.080370478   0.07935836            1 
 2130000   0.89323105   -2.5887552     2046.341   0.08006029  0.079346063            2 
 2131000   0.91558515   -2.6009347    2045.5231  0.079990736  0.079333603            2 
 2132000    0.9281673   -2.5875031    2047.3363  0.080024088  0.079321118            1 
 2133000   0.90102848   -2.5868961    2052.4594  0.080186726  0.079308818            3 
 2134000   0.91044178   -2.5774791    2047.9608  0.079973478  0.079296619            4 
 2135000    0.8864407   -2.6242796    2050.6073  0.080039316  0.079284017            1 
 2136000   0.91027441   -2.5849581    2052.1797  0.080063192  0.079271946            2 
 2137000   0.90143089   -2.5901775    2056.3215  0.080187236  0.079259578            2 
 2138000   0.90436349   -2.5827602    2059.2107  0.080262343  0.079247083            2 
 2139000    0.8953027   -2.6081298    2048.5435  0.079809236  0.079234522            2 
 2140000   0.88241477   -2.5733347    2051.6828  0.079894191  0.079222058            1 
 2141000   0.89202793   -2.5910486    2056.8762  0.080059016   0.07920969            2 
 2142000   0.89522968   -2.5845246    2052.6656  0.079857828  0.079197411            2 
 2143000   0.91919255   -2.5885449     2048.223  0.079647807  0.079184819            3 
 2144000   0.90088413   -2.5845458    2056.9915  0.079951475  0.079172384            5 
 2145000   0.88984499    -2.609184    2057.4193  0.079930819  0.079159667            3 
 2146000   0.91551083   -2.5804379    2055.1397  0.079805054  0.079146823            3 
 2147000   0.90135015   -2.5873432    2050.4804  0.079587034  0.079134021            4 
 2148000   0.90480139   -2.5908015    2058.6888  0.079868434  0.079121108            1 
 2149000    0.8952973   -2.5761844    2061.2544  0.079930757  0.079108202            3 
 2150000   0.92731384    -2.592265    2058.5408  0.079788401  0.079095415            3 
 2151000   0.90839024   -2.6064858    2060.9746  0.079845597  0.079082351            3 
 2152000   0.89754442   -2.6098519    2050.9367  0.079419791  0.079069415            6 
 2153000   0.90776032    -2.585018    2056.7551  0.079608109  0.079056469            2 
 2154000   0.91136845   -2.5929558    2058.5879  0.079642056  0.079043568            2 
 2155000   0.90930426   -2.5602704    2058.2148  0.079590672  0.079030702            2 
 2156000   0.88980098   -2.6117041    2049.8101  0.079228899  0.079017804            5 
 2157000   0.92495118   -2.5866934     2057.422  0.079486245  0.079004542            2 
 2158000   0.90993867   -2.6377598    2059.4665  0.079528363  0.078991155            3 
 2159000   0.91209652   -2.6046017    2057.2599  0.079406359  0.078978064            4 
 2160000     0.921741   -2.6222147    2057.3841  0.079374387  0.078964863            5 
 2161000   0.90035686   -2.5847518    2055.6914  0.079272382  0.078951725            4 
 2162000   0.91042013   -2.6013283    2053.6794  0.079158163  0.078938587            3 
 2163000     0.906206   -2.5997892    2058.2377  0.079297183  0.078925138            3 
 2164000   0.93272245   -2.5933478    2063.5635   0.07946563  0.078912043            3 
 2165000   0.91057311   -2.6063349    2064.7864  0.079475998  0.078898679            4 
 2166000    0.8976674   -2.5911382    2060.2873   0.07926621   0.07888544            4 
 2167000   0.88959334   -2.5945018    2060.0067   0.07921884  0.078872206            3 
 2168000   0.91324449   -2.5641546    2063.4206  0.079313521  0.078858879            3 
 2169000   0.91005672   -2.6230973     2062.937  0.079258374  0.078845597            4 
 2170000   0.90908414   -2.5949308    2060.3865  0.079123906  0.078832244            3 
 2171000   0.89662057   -2.6106441    2059.7721  0.079063877  0.078818661            2 
 2172000   0.89021889   -2.6072511    2065.0627  0.079230459  0.078805328            2 
 2173000   0.90046944   -2.5732328    2064.4136  0.079169105    0.0787918            2 
 2174000   0.91563297   -2.5992802     2065.363   0.07916908  0.078778354            3 
 2175000   0.89332634   -2.6019696    2068.2935   0.07924496  0.078764868            1 
 2176000   0.91824594   -2.6201078    2061.7102  0.078956428   0.07875108            2 
 2177000   0.90248929   -2.5982682    2067.5363  0.079143175  0.078737747            2 
 2178000   0.87677576   -2.5965275    2073.5757  0.079337912  0.078724139            3 
 2179000   0.90265989   -2.5912879    2069.6955   0.07915311  0.078710717            2 
 2180000   0.89127739   -2.5857377    2069.2551  0.079099966  0.078696812            4 
 2181000   0.90445838   -2.5767752    2066.0586  0.078941565  0.078683063            2 
 2182000   0.89771605   -2.6163692    2063.9977  0.078826678  0.078669418            2 
 2183000   0.91615406   -2.5914443    2068.8618  0.078976248  0.078655653            3 
 2184000   0.89903477   -2.6011039    2074.3581  0.079149805  0.078642204            4 
 2185000   0.91238042   -2.5914383    2079.3373  0.079303483  0.078628927            2 
 2186000   0.90356528    -2.604408     2068.338  0.078847896  0.078615389            5 
 2187000   0.90190584   -2.6085114    2078.8266  0.079211501  0.078602002            3 
 2188000   0.91908546   -2.5966776    2066.7783  0.078716419   0.07858866            3 
 2189000   0.90236501   -2.5794634    2075.9834  0.079030888   0.07857513            3 
 2190000   0.89395179   -2.5927202    2068.5477  0.078711859  0.078561766            3 
 2191000   0.88886908   -2.6155045    2068.5967    0.0786778  0.078548001            5 
 2192000   0.88700774   -2.5977322    2068.3325  0.078631861  0.078534294            2 
 2193000   0.91429936    -2.616682     2074.345   0.07882448  0.078520729            3 
 2194000   0.90456107   -2.6309063    2068.9114  0.078582173  0.078506908            3 
 2195000   0.90834375    -2.581152    2080.1717  0.078973868  0.078493322            3 
 2196000   0.89272641   -2.5867437    2075.9095  0.078776163  0.078479832            3 
 2197000   0.89778512   -2.5870595    2080.2423  0.078904653  0.078466379            1 
 2198000    0.8583817   -2.6010388    2087.2527  0.079134544  0.078452738            2 
 2199000   0.90722274   -2.6159244    2078.9116  0.078782463  0.078439144            1 
 2200000   0.91155349   -2.5832511    2079.1623  0.078756147  0.078425552            4 
 2201000   0.90869434   -2.5769247    2074.6953  0.078551236  0.078411761            3 
 2202000    0.9048247   -2.6070116    2077.6025  0.078625587  0.078397758            2 
 2203000    0.8891676   -2.6016556     2078.951  0.078640905  0.078384109            2 
 2204000   0.89541928   -2.5822855    2075.6242  0.078479439  0.078370515            1 
 2205000   0.89572364   -2.5702514    2074.3388  0.078395269  0.078356748            1 
 2206000    0.8844902   -2.6117302    2078.8862  0.078531513  0.078342991            5 
 2207000   0.90405844   -2.5870568    2086.2731   0.07877485  0.078329151            4 
 2208000   0.90818567   -2.6131761     2085.223   0.07869954  0.078315529            3 
 2209000   0.87730078    -2.600003    2088.6597  0.078793562   0.07830193            4 
 2210000   0.89478357   -2.5941495    2090.3673  0.078822295  0.078288435            3 
 2211000    0.8973713   -2.6017422    2079.1642  0.078364397  0.078274654            2 
 2212000   0.90558056   -2.6320092    2079.0594  0.078325023  0.078260924            8 
 2213000   0.87992913   -2.6120756    2087.9105  0.078622929   0.07824686            3 
 2214000    0.9070252   -2.6257935    2079.5443   0.07827252  0.078233125            4 
 2215000    0.9149042    -2.599902    2089.7155  0.078619846  0.078219089            3 
 2216000   0.88292381   -2.6062699    2081.2599  0.078266392  0.078204854            5 
 2217000   0.90154937   -2.6386011    2089.9163  0.078556471   0.07819077            3 
 2218000   0.91901022   -2.6218159    2086.5382   0.07839413  0.078176916            3 
 2219000   0.92003757   -2.6047147    2087.1549  0.078381962  0.078163065            4 
 2220000   0.87876244   -2.5818938    2082.2889  0.078163997  0.078148917            1 
 2221000   0.90118848   -2.6040209    2083.6733  0.078180747  0.078134917            2 
 2222000   0.88595713   -2.6260128    2084.6817  0.078183384  0.078120848            4 
 2223000   0.89703635   -2.6091753    2083.4885  0.078103482  0.078106794            4 
 2224000   0.89865946   -2.6056374    2085.2486  0.078134316  0.078092689            5 
 2225000    0.8816749   -2.6168043    2085.9974  0.078127243  0.078078506            2 
 2226000    0.8861347   -2.6003245    2085.0137   0.07805532  0.078064239            3 
 2227000   0.89045664   -2.6096201    2079.2368    0.0778041  0.078050036            3 
 2228000    0.8707247   -2.6142393    2087.2781  0.078069948  0.078035765            2 
 2229000   0.89642558   -2.5948512    2088.2777  0.078072294  0.078021464            4 
 2230000   0.88865743   -2.6007192     2095.274  0.078298729  0.078007105            4 
 2231000   0.90157929   -2.5906972    2093.1136  0.078182937  0.077992983            2 
 2232000   0.89878495   -2.6312158    2086.7609  0.077910728  0.077978627            2 
 2233000   0.89482586    -2.621443    2089.7286  0.077986586  0.077964411            5 
 2234000   0.89668263   -2.6185457    2091.9781   0.07803559  0.077950053            3 
 2235000   0.91704669    -2.602762    2090.4182  0.077942514  0.077935726            1 
 2236000   0.90722957   -2.5619934    2096.3307  0.078128008  0.077921572            2 
 2237000   0.87420778   -2.6190681     2087.507   0.07776438  0.077907432            3 
 2238000   0.86827207   -2.6235932    2095.9693  0.078044733  0.077893069            2 
 2239000   0.90082696   -2.6094226    2089.0046  0.077750656   0.07787867            3 
 2240000   0.88391411   -2.6338549    2096.1236   0.07798079  0.077864207            1 
 2241000    0.8930732   -2.6214183    2088.3883  0.077658347   0.07784998            2 
 2242000   0.89736603   -2.6102407    2093.9766  0.077831424  0.077835679            2 
 2243000   0.89752449   -2.5906298    2091.6835  0.077711528  0.077821273            3 
 2244000   0.89571001   -2.6149158    2095.9282  0.077834528  0.077807205            1 
 2245000   0.92014807    -2.632714    2090.5116  0.077598799     0.077793            6 
 2246000   0.89401041    -2.600745    2095.9538  0.077766168  0.077778803            3 
 2247000   0.89530998   -2.6091445    2100.5698  0.077902751  0.077764399            2 
 2248000   0.91123063   -2.6401027    2096.0413  0.077700225  0.077750231            3 
 2249000   0.90593763   -2.6017371    2102.6489  0.077910514  0.077736207            1 
 2250000   0.90861651   -2.6258841    2097.3341   0.07767904  0.077722282            3 
 2251000   0.88337523   -2.5909966    2104.1664  0.077897466   0.07770816            2 
 2252000   0.89390452   -2.6188398    2103.8105  0.077849708  0.077694201            6 
 2253000   0.90678844   -2.6185382    2110.7718  0.078072635  0.077680025            4 
 2254000   0.88827779   -2.6064298    2109.2294  0.077980975  0.077666041            2 
 2255000   0.90565782   -2.5935783    2105.4398   0.07780635  0.077652272            3 
 2256000   0.90517321    -2.601515    2111.7978  0.078006714  0.077638481            4 
 2257000   0.89339766   -2.6516758    2115.4106  0.078105547  0.077624619            2 
 2258000   0.90059409   -2.6177681    2109.1582  0.077840205  0.077610945            2 
 2259000   0.87596786   -2.6065681    2114.4526  0.078001055   0.07759737            7 
 2260000   0.87066653   -2.6058472    2111.9089  0.077872749  0.077583869            3 
 2261000   0.88990264   -2.6283324    2110.7073  0.077794016  0.077570215            3 
 2262000    0.8871114   -2.6239449     2114.027  0.077881926   0.07755654            2 
 2263000   0.87341285   -2.6124648    2112.6615  0.077797226  0.077543158            4 
 2264000   0.87405467   -2.6144713    2115.7597  0.077876904   0.07752964            5 
 2265000   0.88471356   -2.6032505    2118.3032  0.077936101  0.077516105            4 
 2266000   0.87865293   -2.6220641    2109.6814  0.077584637   0.07750253            3 
 2267000   0.90491977   -2.6150837      2118.33  0.077868329   0.07748887            3 
 2268000   0.89528458   -2.6126265    2112.5922  0.077623168  0.077475096            3 
 2269000   0.89185763   -2.5901921    2112.5548  0.077587587  0.077461505            1 
 2270000   0.89274167   -2.6298575    2122.2804   0.07791044  0.077447904            5 
 2271000   0.87091829   -2.6158088     2127.731  0.078076139  0.077434484            2 
 2272000     0.913265   -2.6144795    2114.7688  0.077566346  0.077420974            3 
 2273000   0.89679128   -2.5747814    2128.5701  0.078038206  0.077407564            3 
 2274000   0.86904296    -2.638913    2127.1063  0.077950245  0.077394389            2 
 2275000   0.85956796   -2.6293452    2122.7517  0.077756474  0.077380978            1 
 2276000   0.88168634   -2.6081005    2125.2028  0.077812052  0.077367473            4 
 2277000   0.87691739    -2.602644    2123.9083  0.077730506  0.077353868            4 
 2278000   0.89294239     -2.58707      2127.04  0.077810944  0.077340241            3 
 2279000   0.87578658   -2.5962912    2129.6636  0.077872738  0.077326674            4 
 2280000   0.89670102   -2.6052006    2119.6676   0.07747323  0.077313333            2 
 2281000   0.89210068   -2.6070121     2135.403   0.07801414  0.077300022            1 
 2282000   0.90297581   -2.5984636    2126.1965  0.077643751  0.077286695            4 
 2283000   0.90271089   -2.6242596    2125.1328  0.077570914  0.077273344            2 
 2284000   0.88803623   -2.6252825    2131.1372  0.077756027  0.077259857            2 
 2285000   0.87997175   -2.6263248    2135.9416  0.077897215  0.077246597            1 
 2286000   0.86628144   -2.6207672    2126.9844  0.077536616   0.07723334            4 
 2287000   0.87995703   -2.6289786    2121.4549  0.077301229  0.077219783            5 
 2288000   0.86821848   -2.6081736    2130.8453  0.077609458  0.077206254            2 
 2289000   0.87928651   -2.6079971    2125.5925  0.077384321  0.077192579            6 
 2290000   0.88882222   -2.6148879    2131.2726  0.077557225  0.077179024            3 
 2291000   0.86921598   -2.6376346    2126.9985  0.077367907  0.077165146            1 
 2292000   0.89318173   -2.6377433    2125.6451  0.077284943  0.077151322            2 
 2293000   0.86344769   -2.6298806    2131.0873  0.077449022   0.07713765            6 
 2294000   0.88126746   -2.6222964    2137.8285  0.077660146  0.077124073            4 
 2295000    0.8812426   -2.6079595    2132.5458  0.077434488  0.077110453            5 
 2296000   0.88079821   -2.6348565    2134.2104  0.077461179  0.077096988            2 
 2297000   0.85869404   -2.6151187    2136.8263   0.07752236  0.077083568            3 
 2298000   0.88054516   -2.6281033    2139.2589  0.077576837  0.077069772            3 
 2299000     0.888426   -2.6264449    2127.3629  0.077111894   0.07705629            3 
 2300000   0.87971085   -2.5956401    2139.0136  0.077500492   0.07704267            2 
 2301000    0.9060871   -2.6333748    2137.0841  0.077396934  0.077028915            1 
 2302000   0.90774466   -2.6227919    2136.1015   0.07732774  0.077015326            4 
 2303000     0.880664   -2.6148208    2135.7684  0.077282109  0.077001725            3 
 2304000   0.88767407   -2.6209629    2141.6919  0.077462814  0.076988017            4 
 2305000   0.91461828   -2.6416365    2136.7443  0.077250335  0.076974705            1 
 2306000   0.87062774   -2.6036184    2139.4784   0.07731564  0.076961409            3 
 2307000   0.90007336   -2.6246471    2141.5578  0.077357238  0.076948234            4 
 2308000   0.86154291   -2.6153705     2155.246  0.077817953  0.076934923            4 
 2309000   0.88132558   -2.6292638    2139.3906  0.077212017   0.07692191            2 
 2310000   0.87265781   -2.5952264    2152.5732  0.077654157   0.07690861            2 
 2311000   0.88424528   -2.6451812    2151.2252  0.077571947  0.076895529            2 
 2312000   0.88337399   -2.6371059    2140.5748  0.077154514  0.076882539            5 
 2313000   0.90567587   -2.6280341    2141.6439  0.077159672   0.07686954            3 
 2314000   0.88253711   -2.5956504    2154.9879  0.077606881  0.076856629            3 
 2315000   0.89013633   -2.6520855    2152.6199  0.077488116  0.076843699            3 
 2316000     0.880086   -2.6252841    2148.2222  0.077296422  0.076830601            3 
 2317000    0.8733555   -2.6031514    2154.0746  0.077473549  0.076817951            3 
 2318000   0.86621281   -2.6059203    2153.4221  0.077416671  0.076805208            1 
 2319000   0.86258867   -2.6211257    2156.3631  0.077488973  0.076792664            4 
 2320000   0.88358634   -2.6406388    2154.2255   0.07737879  0.076779696            3 
 2321000   0.88524992   -2.6237235    2157.2579  0.077454328  0.076767099            4 
 2322000   0.88490894   -2.6166172    2160.5427  0.077538858  0.076754486            4 
 2323000   0.87808967   -2.6408196     2159.341  0.077462369  0.076741946            2 
 2324000   0.86737671   -2.6199072    2160.8929  0.077484685  0.076729413            1 
 2325000   0.88679174   -2.6203642    2159.9662  0.077418144   0.07671697            2 
 2326000   0.88029914   -2.5895693    2160.7318  0.077412287  0.076704704            3 
 2327000   0.87959372   -2.6573813    2166.3212  0.077579188  0.076692404            3 
 2328000   0.88713851   -2.6314078    2163.7646  0.077454345  0.076680197            2 
 2329000    0.8551529   -2.6284827    2166.8341  0.077530918  0.076668073            2 
 2330000   0.87440141   -2.6347251    2165.0049   0.07743222  0.076655865            4 
 2331000   0.87826253   -2.6146668    2164.3176  0.077374431  0.076643803            3 
 2332000   0.88893949   -2.6370938    2163.0693  0.077296645  0.076631731            2 
 2333000   0.86129902   -2.6308832    2170.8462    0.0775413  0.076619452            2 
 2334000   0.88394682   -2.6408793     2169.945  0.077475898  0.076607506            2 
 2335000   0.89036003   -2.6303922    2172.8527  0.077546492  0.076595226            4 
 2336000   0.86229199   -2.6357725    2168.3353  0.077352142  0.076582985           10 
 2337000   0.87226638   -2.6193798     2164.882  0.077195906  0.076570557            4 
 2338000   0.86354138   -2.6324622    2173.6157  0.077474184  0.076558198            1 
 2339000   0.86537331   -2.6372481    2175.4179  0.077505268  0.076545941            4 
 2340000   0.88248671   -2.6183362    2171.7802  0.077342599  0.076533631            2 
 2341000   0.88480533   -2.6242893    2172.8184  0.077346518  0.076521362            2 
 2342000   0.88913971   -2.6186656    2177.0166  0.077462875  0.076509237            3 
 2343000   0.87137131    -2.631305    2170.0902  0.077183463   0.07649667            5 
 2344000   0.88837428   -2.6262517    2175.7085  0.077350272  0.076484464            3 
 2345000   0.87294361   -2.6522756    2188.3056  0.077764947    0.0764723            3 
 2346000   0.88155048   -2.6319429    2172.0784  0.077155384  0.076459949            5 
 2347000   0.88967018   -2.6442977     2175.441  0.077241903  0.076447339            8 
 2348000   0.88936224   -2.6160436    2180.6608  0.077394264  0.076434916            4 
 2349000   0.87505597   -2.6294068    2173.4728  0.077106314  0.076422386            1 
 2350000   0.87757688   -2.6289869    2169.6318    0.0769373  0.076409837            1 
 2351000   0.87501676    -2.659087    2171.7558  0.076979861  0.076397236            4 
 2352000    0.8807535   -2.6254705    2171.9727  0.076954817  0.076384302            2 
 2353000   0.85707307   -2.6298513    2172.8572  0.076953436   0.07637175            2 
 2354000   0.87826386   -2.6438741    2169.3327  0.076795975  0.076359141            5 
 2355000   0.87317626   -2.6602872    2174.6541  0.076951666  0.076346464            3 
 2356000   0.86997992   -2.6424228    2170.2288   0.07676248  0.076333586            3 
 2357000   0.90245518   -2.6118948    2170.8967  0.076753526  0.076320964            2 
 2358000   0.89105846   -2.6200463    2179.6113  0.077028954   0.07630837            2 
 2359000   0.88358637   -2.6435608    2177.2861  0.076914162  0.076295745            1 
 2360000   0.85153782   -2.6404288     2170.771  0.076651517   0.07628313            5 
 2361000   0.87886091   -2.6339715    2170.1629  0.076597591  0.076270206            1 
 2362000   0.89188397   -2.6541056    2177.5017   0.07682408  0.076257841            3 
 2363000   0.87087625   -2.5896359    2187.7172  0.077151827  0.076245424            2 
 2364000   0.87017289   -2.6503419    2181.4609   0.07689865  0.076232739            1 
 2365000   0.88609256   -2.6375335    2181.3738  0.076863067  0.076219977            8 
 2366000   0.86407628    -2.610696    2187.0487  0.077030454  0.076207397            2 
 2367000   0.86924535    -2.632648    2180.1419  0.076754748  0.076194551            4 
 2368000   0.84893068   -2.6181561    2190.1005  0.077072793  0.076181803            2 
 2369000   0.86315918   -2.6274332     2186.516  0.076914168  0.076168967            8 
 2370000   0.86891281   -2.6161442    2188.9075  0.076965804  0.076156351            1 
 2371000   0.88505607   -2.6303881    2184.0319  0.076761982  0.076143729            4 
 2372000   0.86316308   -2.6413359     2186.834  0.076828064  0.076131124            4 
 2373000   0.87418443   -2.6140289    2183.4583  0.076677143  0.076118621            3 
 2374000   0.86621115   -2.6154142    2188.7517  0.076830654    0.0761064            2 
 2375000   0.86294932   -2.6244755    2191.7467  0.076903394    0.0760939            2 
 2376000   0.88163143   -2.6284935    2185.7389  0.076660316  0.076081486            5 
 2377000   0.86750393   -2.6695686     2185.624  0.076624035  0.076068764            5 
 2378000   0.86875286   -2.6137394    2196.6172  0.076977052    0.0760561            2 
 2379000   0.88011074   -2.6158597    2188.5212  0.076661104  0.076043377            3 
 2380000   0.86943838   -2.6402883    2182.3927  0.076414311  0.076030733            2 
 2381000   0.87762812   -2.6281936    2191.9861  0.076717979  0.076018057            2 
 2382000   0.87560356   -2.6298846    2201.3774  0.077014322  0.076005535            2 
 2383000   0.88947923   -2.6566028    2187.5744  0.076499313  0.075992803            3 
 2384000   0.88503415   -2.6549294    2197.1488    0.0768019  0.075980025            2 
 2385000   0.89354216   -2.6188065    2193.4733  0.076641276  0.075967752            3 
 2386000   0.87093766   -2.6340844    2193.3257  0.076604001  0.075955068            2 
 2387000   0.87055568   -2.6410336    2194.5125  0.076613339  0.075942581            5 
 2388000   0.85325878   -2.6483305    2201.6599  0.076830679  0.075930042            4 
 2389000   0.87145628   -2.6130052    2195.6945  0.076590432  0.075917103            7 
 2390000   0.84916478   -2.6459327    2200.0123  0.076708937   0.07590468            4 
 2391000   0.87650709   -2.6624528    2190.2832  0.076337765  0.075891925            5 
 2392000   0.86554425   -2.6484413    2196.3349  0.076516686  0.075879167            4 
 2393000   0.85541811   -2.6350655    2200.5906  0.076632909  0.075866478            4 
 2394000   0.86974781   -2.6622856    2188.9099  0.076194301  0.075853644            4 
 2395000   0.87930241   -2.6409477    2189.4741  0.076182119  0.075840819           11 
 2396000   0.84756144   -2.6614685    2190.5922  0.076189213  0.075827773            2 
 2397000   0.86517338   -2.6492745     2203.379  0.076601967  0.075814929            4 
 2398000   0.87031876   -2.6355116    2197.2119   0.07635571  0.075802291            2 
 2399000   0.85399206   -2.6398732    2195.4085  0.076261238  0.075789667            4 
 2400000   0.86267588   -2.6310705    2203.8235   0.07652165  0.075777142            3 
 2401000   0.82856321   -2.6355928    2198.0453  0.076289229   0.07576438            3 
 2402000   0.87677131   -2.6246625    2211.7276  0.076732152  0.075751801            3 
 2403000   0.85975661   -2.6258953    2209.8626  0.076635548  0.075739123            2 
 2404000   0.87616425   -2.6402526    2203.9506  0.076398731  0.075726726            3 
 2405000   0.86449834   -2.6402013    2197.7908  0.076153529   0.07571409            7 
 2406000    0.8814756   -2.6330452    2201.9002  0.076264209  0.075701524            3 
 2407000   0.87501563   -2.6481153    2200.5173  0.076184645  0.075689052            2 
 2408000   0.85383937   -2.6593756    2202.4578  0.076220163  0.075676396            4 
 2409000   0.84548012   -2.6396939    2203.5089  0.076224883  0.075663781            4 
 2410000   0.88551179   -2.6488635    2201.8707  0.076136608  0.075651096            4 
 2411000   0.86548815   -2.6520511    2205.5093  0.076230793  0.075638646            2 
 2412000   0.87628831   -2.6410106    2209.6938  0.076343761  0.075626137            5 
 2413000   0.86569499   -2.6534081    2200.7688  0.076003896  0.075613524            2 
 2414000   0.85077419   -2.6448019    2204.9189  0.076115676  0.075600704            5 
 2415000   0.88332823   -2.6550784    2210.5026  0.076276833  0.075588095            3 
 2416000   0.84738589   -2.6316475    2207.4023  0.076138326  0.075575446            4 
 2417000   0.85844416   -2.6463173    2212.9049  0.076296543  0.075562853            2 
 2418000     0.849973    -2.645224    2208.3066  0.076106514  0.075550295            7 
 2419000   0.85945969   -2.6593985    2212.4814  0.076218872  0.075537848            2 
 2420000   0.87410852   -2.6399679     2213.026  0.076206128  0.075525378            5 
 2421000   0.86216336   -2.6469278     2213.505  0.076191138  0.075513042            2 
 2422000   0.86559862   -2.6508643    2206.4102  0.075915573  0.075500659            8 
 2423000    0.8552312   -2.6323852     2223.079  0.076457524  0.075487963            2 
 2424000   0.86126776   -2.6702824    2212.1484  0.076050208  0.075475409            3 
 2425000   0.86760578   -2.6392854    2210.7648    0.0759713  0.075462607            2 
 2426000   0.84340023   -2.6371461    2207.7243  0.075835541  0.075449995            3 
 2427000   0.85041395   -2.6426273    2220.0536  0.076227634  0.075437163            1 
 2428000   0.86061521   -2.6269673    2213.0344  0.075955326  0.075424694            5 
 2429000   0.84401551   -2.6257858    2220.0614  0.076165136  0.075412412            4 
 2430000   0.85061647   -2.6463316    2220.4877  0.076148412  0.075400017            7 
 2431000    0.8654555   -2.6625386    2220.5324   0.07611862  0.075387559            2 
 2432000   0.86916647    -2.650457    2219.6832  0.076058225  0.075375188            3 
 2433000   0.85886725   -2.6438222    2223.4676  0.076156582  0.075362807            2 
 2434000    0.8580927   -2.6382683    2215.5438  0.075854005  0.075350396            3 
 2435000   0.86502588    -2.611137    2231.2762  0.076361267  0.075337856            2 
 2436000   0.85179614   -2.6483864    2224.7319  0.076106044  0.075325478            4 
 2437000   0.84416099   -2.6247787    2221.5958  0.075967575  0.075312854            3 
 2438000   0.87361015   -2.6411773    2224.2144  0.076025923  0.075300542            4 
 2439000   0.86330877   -2.6379222    2227.1184  0.076093974  0.075288258            1 
 2440000   0.87176056   -2.6450688    2222.4936  0.075904836  0.075275596            3 
 2441000   0.87951421   -2.6342895    2228.5457  0.076080354  0.075263061            1 
 2442000   0.86785042    -2.645747     2230.933  0.076130665  0.075250812            2 
 2443000   0.85986995    -2.650912    2213.2358  0.075495832  0.075238455            3 
 2444000   0.88127448   -2.6644553    2227.9251  0.075965804  0.075225933            6 
 2445000   0.83959904   -2.6386094    2227.0114  0.075903593   0.07521354            4 
 2446000   0.84510319   -2.6645601    2230.4784   0.07599068  0.075201375            4 
 2447000    0.8642424   -2.6602598    2226.1113    0.0758109  0.075188964            3 
 2448000   0.85918066   -2.6682478    2228.9212  0.075875586  0.075176483            2 
 2449000   0.85054795   -2.6606535    2226.1103  0.075748954  0.075164138            2 
 2450000   0.85866922   -2.6678587    2223.0104  0.075612598  0.075151678            2 
 2451000     0.861743   -2.6229011    2234.1026  0.075958881  0.075139094            1 
 2452000   0.84922064   -2.6558453    2225.3455  0.075630284  0.075126631            4 
 2453000   0.85931308    -2.669023    2220.5095  0.075435165  0.075114091            3 
 2454000   0.87300588   -2.6390792    2235.2853  0.075906185  0.075101574            2 
 2455000   0.85738212   -2.6552439    2229.4863  0.075678421  0.075088967            6 
 2456000   0.87091782   -2.6527334    2239.7085  0.075994451  0.075076359            4 
 2457000   0.85550528   -2.6644259    2231.0573  0.075670104  0.075063727            5 
 2458000   0.85815782   -2.6601032    2228.8818   0.07556556  0.075051159            2 
 2459000   0.86951424   -2.6571578     2233.212  0.075681576  0.075038575            2 
 2460000   0.85591935   -2.6771257    2233.3823  0.075656582  0.075025892            4 
 2461000   0.88060885   -2.6364088    2237.9362   0.07578004  0.075013412            6 
 2462000   0.84478832   -2.6405183    2243.7076  0.075944611  0.075000974            2 
 2463000   0.86214411   -2.6372148    2234.8607   0.07561445  0.074988422            3 
 2464000    0.8508286   -2.6554417     2235.346  0.075600177  0.074975894            5 
 2465000   0.84773171   -2.6802829    2237.1772  0.075631413  0.074963301            2 
 2466000   0.85607418     -2.64664    2243.8325  0.075825645  0.074950415            3 
 2467000   0.86615601   -2.6475963    2228.1229  0.075264251  0.074937804            4 
 2468000   0.84290109   -2.6745117    2230.8386  0.075325454  0.074925057            3 
 2469000   0.86479213   -2.6760643    2241.4254  0.075652268  0.074912269            2 
 2470000    0.8590952   -2.6514943     2240.459  0.075589034  0.074899547            2 
 2471000   0.87396871   -2.6624952    2234.1944  0.075347173  0.074886741            2 
 2472000   0.82698096   -2.6513188    2242.9212  0.075610883   0.07487431            4 
 2473000   0.85730605   -2.6628588    2238.9563  0.075446702  0.074861774            3 
 2474000   0.84812662   -2.6517765    2244.3916  0.075599287  0.074849428            2 
 2475000   0.85043298   -2.6489417    2242.8202  0.075515832  0.074836972            3 
 2476000   0.84018304   -2.6610593    2251.8506  0.075789263  0.074824716            4 
 2477000   0.86830299   -2.6485236    2246.2718  0.075570978  0.074812386            3 
 2478000   0.85822286   -2.6709499    2244.6649  0.075486444  0.074800055            4 
 2479000   0.85060984   -2.6435722    2248.3937  0.075581339  0.074787638            2 
 2480000   0.83288038   -2.6589302    2248.6706  0.075560167  0.074775425            4 
 2481000   0.84481408    -2.650628    2250.3171  0.075585015   0.07476306            2 
 2482000   0.84969289   -2.6330601    2255.0909  0.075714844  0.074750804            2 
 2483000   0.83717642   -2.6689083    2248.2114  0.075453465  0.074738462            3 
 2484000   0.85875882   -2.6820451    2245.7623  0.075340927  0.074726241            2 
 2485000   0.83889734   -2.6077608    2249.6147  0.075439794  0.074714071            2 
 2486000   0.84609274   -2.6396553    2249.0416  0.075390239  0.074701796            3 
 2487000   0.85177798     -2.65264     2253.692  0.075515747  0.074689706            4 
 2488000   0.85864398   -2.6690055     2249.165  0.075333767  0.074677434            3 
 2489000   0.84650202    -2.639445    2258.1118  0.075603047  0.074665347            2 
 2490000   0.87346437   -2.6574933    2254.2792  0.075444419  0.074653299            5 
 2491000   0.84647861    -2.673766    2256.9171  0.075502379  0.074641112            4 
 2492000   0.85225189   -2.6557057    2255.0232   0.07540875   0.07462911            3 
 2493000   0.84284685   -2.6657547    2260.2743  0.075554026   0.07461716            4 
 2494000   0.86496589   -2.6494591     2255.562  0.075366281  0.074605076            2 
 2495000   0.83618778   -2.6676546    2257.5739  0.075403271  0.074593039            3 
 2496000   0.86713517   -2.6497294    2257.0832  0.075356677  0.074581114            3 
 2497000   0.87006681   -2.6701175    2257.6044  0.075343892  0.074569153            3 
 2498000   0.83837966   -2.6532808    2260.5041  0.075410467  0.074557073            2 
 2499000   0.85286399   -2.6374192    2266.4933  0.075580009  0.074544961            2 
 2500000    0.8693179   -2.6723943    2258.0893  0.075269644  0.074532984            3 
 2501000   0.84305122   -2.6240863    2273.4908  0.075752725  0.074521022            8 
 2502000   0.86236674   -2.6508889    2267.8767  0.075535462  0.074509091            3 
 2503000   0.85157328   -2.6626835    2265.5661  0.075428356  0.074497244            2 
 2504000   0.84678708   -2.6755011    2261.0231   0.07524704  0.074485238            4 
 2505000    0.8207182   -2.6573573    2265.1892  0.075355595  0.074473197            3 
 2506000   0.86614105   -2.6611332    2264.4327   0.07530037  0.074461376            4 
 2507000   0.84238943   -2.6764691    2268.5634  0.075407639   0.07444922            2 
 2508000   0.85684674   -2.6600811    2269.0435  0.075393524  0.074437253            4 
 2509000   0.85787424   -2.6767329    2261.9873  0.075129111  0.074425198            3 
 2510000   0.83455044   -2.6816191    2266.2457   0.07524056  0.074413134            4 
 2511000    0.8446354   -2.6634415    2268.4534  0.075283863   0.07440098            2 
 2512000    0.8447213   -2.6786046    2265.8374  0.075167111  0.074388942            4 
 2513000   0.85656733   -2.6688213    2265.0812  0.075112124  0.074376966            2 
 2514000    0.8639624   -2.6551961     2280.485  0.075592845  0.074364987            3 
 2515000   0.85488017   -2.6678966     2273.911  0.075344964  0.074352968            2 
 2516000   0.83163954   -2.6570465    2268.5288  0.075136753  0.074340972            5 
 2517000   0.85168901   -2.6658773    2262.0059  0.074890938  0.074328701            3 
 2518000   0.84564458   -2.6725545    2266.8894  0.075022814  0.074316676            3 
 2519000   0.85426143   -2.6562073    2279.3532   0.07540536  0.074304768            4 
 2520000   0.84147704   -2.6564006    2271.8259  0.075126517  0.074292585            2 
 2521000   0.85158677   -2.6704359    2270.1535  0.075041435  0.074280632            4 
 2522000   0.85264717   -2.6533737     2277.075  0.075240385  0.074268458            4 
 2523000   0.83760916   -2.6856871    2273.4616  0.075091214  0.074256387           10 
 2524000   0.84316187   -2.6639906    2274.7574  0.075104246  0.074244303            3 
 2525000   0.86146184   -2.6752586    2272.1882  0.074989711  0.074232351            4 
 2526000   0.84802329   -2.6401189    2280.9525   0.07524916  0.074220379            3 
 2527000   0.86191018   -2.6790458    2286.4209  0.075399713  0.074208386            2 
 2528000   0.84074396   -2.6652285    2278.8615  0.075120697  0.074196283            3 
 2529000   0.84004056   -2.6451805    2288.9986  0.075425022  0.074184047            3 
 2530000   0.85433292   -2.6436874    2278.8209  0.075059978  0.074172052            6 
 2531000   0.81653943   -2.6824402    2274.8314  0.074898965  0.074159919            3 
 2532000   0.87427055   -2.6598483    2279.1485  0.075011471  0.074148094            3 
 2533000    0.8472792   -2.6641582     2278.244  0.074952097  0.074136307            5 
 2534000   0.84820687   -2.6612086    2282.4495  0.075060822  0.074124691            4 
 2535000   0.83763299   -2.6796105    2289.2122  0.075253525  0.074112873            4 
 2536000   0.85663682   -2.6415746    2283.2724  0.075028667  0.074101123            2 
 2537000    0.8383051   -2.6697038    2286.1891  0.075094899  0.074089499            4 
 2538000   0.84232543   -2.6796624    2292.6649  0.075277938  0.074077745            4 
 2539000   0.83892696   -2.6724967     2283.872  0.074959695  0.074066147            2 
 2540000   0.85082689   -2.6633156    2285.2189  0.074974374  0.074054517            3 
 2541000   0.84148848    -2.654732    2295.1484   0.07527051     0.074043            6 
 2542000    0.8585367   -2.6825885    2295.2966  0.075245758  0.074031337            4 
 2543000   0.84208045   -2.6720466    2289.4633  0.075025012  0.074019665            3 
 2544000   0.84396835   -2.6707083    2295.6494  0.075198159  0.074007958            3 
 2545000   0.85250903   -2.6531664    2289.5954   0.07497038  0.073996246            4 
 2546000   0.85050254   -2.6660044    2290.6973  0.074976999  0.073984721            2 
 2547000   0.83655079   -2.6706096    2288.5824  0.074878365  0.073973119            1 
 2548000   0.85960628   -2.6751805    2291.4077  0.074941382  0.073961396            4 
 2549000   0.84510016   -2.6722853    2291.0021  0.074898723  0.073949562            3 
 2550000    0.8436762   -2.6772068    2299.2662  0.075139419  0.073937764            3 
 2551000   0.84033294   -2.6663758     2291.588  0.074859141  0.073925899            3 
 2552000   0.81387998    -2.662468    2297.2856  0.075015857  0.073914081            3 
 2553000   0.86369791   -2.6817374    2288.7911  0.074709201  0.073902191            4 
 2554000   0.83549521   -2.6575655    2296.0561  0.074916995  0.073890376            3 
 2555000   0.84768565   -2.6728394    2290.3587  0.074701849  0.073878492            3 
 2556000    0.8666037   -2.6770544    2287.3723  0.074575259  0.073866685            3 
 2557000   0.83159667    -2.674032    2288.4668  0.074581764  0.073854779            2 
 2558000   0.83765819   -2.6906285    2289.7681     0.074595  0.073842824            3 
 2559000   0.82970044   -2.6823274    2299.4993  0.074882745  0.073831157            2 
 2560000   0.83906528   -2.6551227    2292.9873  0.074641513  0.073819384            4 
 2561000   0.82789812   -2.6664731    2302.0381  0.074906877  0.073807629            3 
 2562000    0.8577927   -2.6881099    2290.6779  0.074508128  0.073795708            2 
 2563000   0.82614596   -2.6520091    2304.6069  0.074931945  0.073784052            6 
 2564000   0.85539544   -2.6637241    2299.9653  0.074751861   0.07377229            5 
 2565000   0.85305396   -2.6773939    2294.0893  0.074531817  0.073760556            3 
 2566000   0.82063624   -2.6545524    2297.9188  0.074627137  0.073748822            3 
 2567000    0.8509736   -2.6866649    2291.6425  0.074394316  0.073737115            4 
 2568000   0.81584262   -2.6628099    2300.6678  0.074658224  0.073725224            4 
 2569000   0.83982976   -2.6800946    2306.7026   0.07482492  0.073713435            2 
 2570000   0.84135747   -2.6743203    2305.1164  0.074744371  0.073701806            3 
 2571000   0.84484975   -2.6611054    2294.5811  0.074373821  0.073689893            4 
 2572000   0.85517506   -2.6655468    2303.7958  0.074643462  0.073678114            2 
 2573000   0.83531376   -2.6875986    2294.8413  0.074324436  0.073666115            5 
 2574000   0.85562177   -2.6737771    2300.5527  0.074480468  0.073654141            5 
 2575000   0.83571086   -2.6949483    2303.8178  0.074557209  0.073642485            3 
 2576000   0.84824869   -2.6586496    2308.7921  0.074689184  0.073630509            3 
 2577000   0.83359601   -2.6902384    2306.9674  0.074601198  0.073618683            6 
 2578000   0.84934456   -2.6899143    2302.8872  0.074440368  0.073606528            3 
 2579000   0.84255398   -2.6634601    2304.2869  0.074456731  0.073594427            2 
 2580000   0.82499131   -2.6597592    2300.7395  0.074313292  0.073582517            5 
 2581000   0.85020467   -2.6896253    2302.2275  0.074332541  0.073570479            2 
 2582000   0.82713264   -2.6582484    2310.4687  0.074569737  0.073558439            1 
 2583000    0.8601202   -2.6816543    2307.7324  0.074452587  0.073546676            3 
 2584000   0.84350691   -2.6753863    2301.9672  0.074237849  0.073534671            2 
 2585000   0.82247632   -2.6605543    2318.3765   0.07473812  0.073522652            2 
 2586000   0.81575057   -2.6822437    2304.3593  0.074257519  0.073510794            6 
 2587000   0.82337075   -2.6985736    2309.8218  0.074404774  0.073498736            1 
 2588000   0.83559851   -2.6942458    2312.0805  0.074448753   0.07348697            6 
 2589000   0.84130996   -2.6858683    2310.6314  0.074373355  0.073475009            5 
 2590000   0.82184299   -2.6765999    2313.4731  0.074436071  0.073463114            3 
 2591000   0.84131701   -2.6710169    2312.4142  0.074373284  0.073451228            7 
 2592000   0.84406775   -2.6607376    2309.3765  0.074246931  0.073439378            3 
 2593000   0.83604697   -2.6822038    2315.9037  0.074428067   0.07342744            2 
 2594000   0.82247328   -2.6678317    2313.7793  0.074331127  0.073415303            3 
 2595000    0.8288568   -2.6804178    2310.4176  0.074194528  0.073403246            2 
 2596000   0.83348512   -2.6778142    2307.0295  0.074057187  0.073390906            4 
 2597000   0.81376388   -2.6713918    2322.9968  0.074541035  0.073378817            2 
 2598000    0.8161061    -2.668683    2313.0861  0.074194447   0.07336677            3 
 2599000   0.82683754    -2.692295    2314.9857  0.074226807  0.073354718            3 
 2600000   0.83777789   -2.6797939    2311.5858  0.074089288  0.073342695            6 
 2601000    0.8499251   -2.7042427    2307.6132  0.073933524  0.073330715            2 
 2602000   0.83147544    -2.692369    2317.6171  0.074225502  0.073318637            2 
 2603000   0.81836289   -2.6748135    2320.3003  0.074282889  0.073306456            4 
 2604000   0.83807989   -2.6668531    2310.4619  0.073939512   0.07329432            4 
 2605000   0.82524687   -2.6656314    2320.1429  0.074220822  0.073282124            4 
 2606000   0.83037297   -2.6617905    2320.6908  0.074209862  0.073269801            4 
 2607000   0.86030339   -2.6787724    2314.3296   0.07397806  0.073257878            5 
 2608000   0.83830021   -2.6585207    2314.2156  0.073946052  0.073245903            3 
 2609000   0.83742617   -2.6724983    2320.4494  0.074116821  0.073233976            6 
 2610000    0.8346274   -2.6911293     2311.612  0.073806259  0.073221721            2 
 2611000   0.83644446   -2.6980128         2312  0.073790373  0.073209508            3 
 2612000   0.83340556   -2.6818768    2314.9144  0.073855104  0.073197457            5 
 2613000   0.83712937   -2.6857599    2309.8297  0.073664681  0.073185154            2 
 2614000   0.84959656   -2.6830604    2323.0832  0.074059016  0.073172909            3 
 2615000    0.8335352   -2.6810317    2323.8115  0.074053905  0.073160738            3 
 2616000   0.85410991   -2.6780513    2323.8714  0.074027505  0.073148663            2 
 2617000   0.82512571   -2.6712072    2310.7346    0.0735809  0.073136363            2 
 2618000   0.84601417   -2.6700419    2321.9386  0.073909429  0.073124062            2 
 2619000   0.82162825   -2.6390531    2329.3484  0.074116978  0.073111931            4 
 2620000   0.82855631   -2.6822064    2325.9629  0.073981009  0.073099568            2 
 2621000   0.83840838   -2.6713211    2323.8406  0.073885306  0.073087355            3 
 2622000   0.81405565   -2.6933559    2326.0761  0.073928174  0.073075197            2 
 2623000   0.82126146   -2.6932957    2323.2833  0.073811263  0.073062867            4 
 2624000   0.83160428   -2.6735944    2324.6874  0.073827725  0.073050552            2 
 2625000   0.81348716   -2.6790222    2323.0593  0.073747915  0.073038218            2 
 2626000   0.84589122   -2.6886514    2322.5845  0.073704763  0.073025818            6 
 2627000   0.81793662   -2.6708575    2323.6184  0.073709504  0.073013474            2 
 2628000   0.83771759   -2.6988177    2318.8431  0.073530031  0.073001199            2 
 2629000   0.85740185   -2.6898033    2331.3553  0.073898672  0.072988904            6 
 2630000   0.83675475   -2.6789362    2328.4347  0.073778031  0.072976633            3 
 2631000    0.8287156   -2.6930264    2323.2441  0.073585585  0.072964382            3 
 2632000   0.84150002   -2.6756815    2327.2129  0.073683285  0.072952192            4 
 2633000   0.81850163   -2.6899174    2329.5901  0.073730537  0.072940102            5 
 2634000   0.84406223   -2.6878391    2331.8505  0.073774061  0.072927857            2 
 2635000   0.85143891   -2.7010971    2333.1301   0.07378653  0.072915622            4 
 2636000   0.82731524   -2.6945857     2339.083   0.07394673  0.072903514            3 
 2637000   0.83064549   -2.6742771    2330.3333  0.073642184  0.072891323            3 
 2638000   0.82784101   -2.6795635    2334.3163  0.073740089  0.072879152            4 
 2639000   0.82160094   -2.6456084    2330.6217   0.07359548  0.072866873            4 
 2640000   0.81822746   -2.6874732    2328.8699  0.073512309   0.07285471            2 
 2641000   0.82551517   -2.6893086     2330.754  0.073543923  0.072842392            4 
 2642000   0.83601041   -2.6830976    2333.0783  0.073589398  0.072830161            6 
 2643000   0.82340405   -2.6801551    2329.3781   0.07344489  0.072817879            2 
 2644000   0.82044755   -2.6879779    2326.6318  0.073330553  0.072805456            2 
 2645000   0.82504634   -2.6923836    2328.4035  0.073358649  0.072793058            3 
 2646000   0.83451718   -2.7109898    2335.4139  0.073551709  0.072780582            7 
 2647000   0.82404036   -2.6861087    2327.8224  0.073284928  0.072768225            3 
 2648000   0.82398817   -2.6898614    2323.2943  0.073114752  0.072755869            4 
 2649000   0.82649471   -2.6932995    2331.6339  0.073349499  0.072743632            2 
 2650000   0.82483782   -2.6883309    2334.9042  0.073424662  0.072731264            2 
 2651000   0.83559528   -2.7039206    2335.5134  0.073416113  0.072719076            5 
 2652000   0.83224307   -2.6868663    2331.1779  0.073252196  0.072706649            2 
 2653000   0.81021244   -2.7102892     2341.367  0.073544634  0.072694247            5 
 2654000    0.8086541   -2.6822351    2336.7053  0.073370549  0.072681946            1 
 2655000   0.82585533   -2.6873567     2341.357  0.073488919  0.072669773            2 
 2656000   0.83292082   -2.6999105    2342.6574  0.073502051  0.072657416            6 
 2657000   0.83523186   -2.7276913    2337.4588  0.073311342  0.072645105            3 
 2658000   0.82697396   -2.7022043    2338.7064  0.073322875  0.072632681            2 
 2659000   0.82259751   -2.6792767    2344.7834  0.073485751  0.072620201            7 
 2660000   0.84782039   -2.6671994    2354.9078  0.073775306  0.072607995            3 
 2661000   0.82511485   -2.7015387    2334.1375  0.073097128   0.07259565            6 
 2662000   0.84249539   -2.6785783    2347.1467  0.073476919  0.072583352            6 
 2663000    0.8119808    -2.711354    2345.9545   0.07341202  0.072571069            3 
 2664000   0.83029869   -2.7120834    2338.0105  0.073135965  0.072558811            1 
 2665000   0.81108406   -2.7217599     2336.778  0.073069982  0.072546458            5 
 2666000   0.82530283   -2.6934834     2344.804  0.073293448  0.072534283            3 
 2667000   0.84580747    -2.681032    2349.3387  0.073407659  0.072522138            3 
 2668000   0.82702228   -2.6728864     2348.753  0.073361851  0.072510033            5 
 2669000   0.83619317   -2.7109201    2356.8458  0.073587044  0.072498149            1 
 2670000   0.82445007   -2.7007163    2336.4725  0.072923611  0.072486063            2 
 2671000   0.82781955   -2.6890781    2352.7527  0.073404241  0.072474014            5 
 2672000   0.82585895   -2.6975155    2343.2699  0.073081023  0.072461697            5 
 2673000   0.82313128   -2.6881888    2347.4814  0.073184981  0.072449373            4 
 2674000   0.83648155   -2.6943773    2356.3956  0.073435415  0.072437314            3 
 2675000   0.80635857   -2.6984253    2346.5684  0.073101819  0.072425338            4 
 2676000   0.80004866   -2.6772806    2346.1884  0.073062668  0.072413287            2 
 2677000   0.82131661     -2.69323    2360.4781  0.073480205  0.072401301            3 
 2678000   0.81942178   -2.7071289    2347.0339  0.073034413  0.072389293            4 
 2679000   0.81688012   -2.7098841    2351.0213  0.073131183  0.072377412            3 
 2680000   0.81715424   -2.6914967    2351.9961  0.073134207  0.072365061            6 
 2681000   0.81896339   -2.7131111    2350.5905  0.073063237  0.072352787            6 
 2682000   0.82372974     -2.70724    2359.0037  0.073297406  0.072340235            3 
 2683000   0.80418132   -2.6737932    2352.9629  0.073082459   0.07232801            3 
 2684000   0.83644976   -2.6903063    2359.1587  0.073247601  0.072315902            2 
 2685000   0.80693962   -2.6857167    2352.4182  0.073011117  0.072303855            2 
 2686000   0.81829881   -2.6894285    2361.2508  0.073257968  0.072291555            3 
 2687000   0.83953167   -2.7102606    2357.2345  0.073106144  0.072279363            8 
 2688000    0.7941926   -2.6897612    2353.6469  0.072967724  0.072267272            3 
 2689000   0.80331078   -2.6759384    2357.4352   0.07305799  0.072254932            3 
 2690000   0.81375993   -2.6968491    2355.5422  0.072972187  0.072242842            3 
 2691000    0.8247352    -2.723763    2352.0807  0.072837876  0.072230465            5 
 2692000   0.81615941   -2.6901519    2356.2911  0.072941156  0.072218171            5 
 2693000   0.80688208   -2.6723084    2358.0503  0.072968507  0.072205934            3 
 2694000   0.81164931   -2.7073511    2357.4753  0.072923635  0.072193707            4 
 2695000   0.82273536   -2.6970778    2367.1386  0.073195382  0.072181428            3 
 2696000   0.81172087   -2.6875533    2360.6596  0.072967966  0.072169366            3 
 2697000   0.82572954   -2.6963896    2360.0305  0.072921472  0.072157138            3 
 2698000   0.81406389   -2.7076172    2360.0683  0.072895612  0.072145055            2 
 2699000   0.83520439   -2.7213696    2365.4415  0.073034504  0.072132732            3 
 2700000   0.82261911   -2.7046126    2350.3933  0.072543002  0.072120529            3 
 2701000   0.82563062   -2.6950501    2368.7034  0.073081062  0.072108226            2 
 2702000   0.81571643   -2.6955543    2354.1408  0.072604884  0.072095892            2 
 2703000    0.8361578   -2.6961749    2360.9536  0.072788062  0.072083593            4 
 2704000   0.81913944   -2.7233546    2358.4959  0.072685401  0.072071159            4 
 2705000   0.83213829   -2.6886837    2361.8631  0.072762265  0.072058747            3 
 2706000   0.84051535     -2.70841    2362.5973  0.072757985  0.072046529            5 
 2707000   0.82275019   -2.6781727    2374.9167  0.073110352  0.072034267            3 
 2708000   0.81426224   -2.7148648    2356.3364  0.072511584  0.072021939            6 
 2709000   0.80656521   -2.7071864    2360.3843  0.072609336  0.072009589            3 
 2710000   0.82169982   -2.7266123    2368.2741  0.072825158  0.071997136            4 
 2711000   0.81283981   -2.7031507    2366.7184  0.072750475  0.071984801            4 
 2712000    0.8291964    -2.711821    2364.0484  0.072641605  0.071972374            4 
 2713000    0.8209852   -2.7072115     2357.628   0.07241762  0.071960247            5 
 2714000   0.83350196   -2.6753084    2370.5941   0.07278906  0.071947898            5 
 2715000   0.80559313   -2.7213077    2363.8412  0.072554977  0.071935576            3 
 2716000   0.82142541   -2.7030748    2372.2266  0.072785547  0.071923069            3 
 2717000   0.82209067   -2.7105999    2362.0472  0.072446548  0.071910677            8 
 2718000   0.82805235   -2.7281341    2360.0599  0.072358961  0.071898306            4 
 2719000   0.82987618   -2.7188021    2364.4189  0.072465947  0.071885809            2 
 2720000   0.80421854   -2.6872214    2370.7648  0.072633725  0.071873484            3 
 2721000   0.83641734    -2.701789    2360.3917  0.072289344  0.071861089            2 
 2722000   0.82553955   -2.7129471     2366.485  0.072449332  0.071848462            5 
 2723000   0.80819578     -2.71077    2364.5918  0.072364787  0.071835857            3 
 2724000   0.81780979   -2.6915841    2364.7074  0.072341758  0.071823295            2 
 2725000   0.82380925   -2.7147558     2362.586  0.072250335  0.071810768            3 
 2726000    0.8000476    -2.719993    2361.7154  0.072197219  0.071798174            4 
 2727000   0.81820119   -2.7248492    2363.6044  0.072228467  0.071785457            2 
 2728000   0.81066858   -2.7189073    2365.0469  0.072246056  0.071772769            3 
 2729000   0.81841399   -2.6950672    2362.7375  0.072149062  0.071760408            3 
 2730000   0.81153695   -2.6986145    2371.8454  0.072400654  0.071747802            3 
 2731000   0.81720119   -2.7081149    2366.4507  0.072209529  0.071734968            2 
 2732000   0.77161613   -2.7183616    2366.2378  0.072176605  0.071722243            2 
 2733000   0.83099091   -2.7199446    2368.2368  0.072211148  0.071709362            2 
 2734000   0.80963552   -2.6942651    2366.7467  0.072139317  0.071696627            3 
 2735000    0.8188069   -2.7187131    2370.2368  0.072219282  0.071683998            2 
 2736000    0.8147633   -2.7267694    2369.4198     0.072168  0.071671387            5 
 2737000   0.82087537   -2.7058562    2366.9961  0.072067839  0.071658869            5 
 2738000   0.79077834   -2.7046647    2375.6973  0.072306347  0.071646277            3 
 2739000   0.82708409    -2.718739     2365.582  0.071972193   0.07163369            3 
 2740000   0.80886794   -2.7223494    2381.6031  0.072433184   0.07162138            2 
 2741000   0.80743883    -2.715809    2374.9841  0.072205524  0.071609011            3 
 2742000   0.80896792   -2.7262369    2371.5979  0.072076279  0.071596678            4 
 2743000   0.83585261   -2.6925873    2388.7237  0.072570291  0.071584352            3 
 2744000   0.81054472    -2.718482    2377.8151  0.072212557  0.071572073            7 
 2745000   0.80900388   -2.6777896    2380.5358  0.072268848  0.071559592            2 
 2746000   0.80744703   -2.7158092    2394.0922  0.072653927   0.07154735            5 
 2747000   0.81259312   -2.7151921    2374.8034  0.072042331  0.071534963            3 
 2748000   0.81698519   -2.6979972    2384.8317  0.072320222  0.071522666            3 
 2749000   0.79681697   -2.7151581    2376.2341  0.072033288  0.071510292            3 
 2750000   0.82957165   -2.7106449     2375.317  0.071979303  0.071497933            3 
 2751000   0.79520338   -2.7061892    2389.9639  0.072396822  0.071485566            2 
 2752000   0.81383718   -2.7218593    2381.7501  0.072121792  0.071473244            2 
 2753000   0.79877383   -2.7047795    2386.3409   0.07223456   0.07146088            2 
 2754000   0.82263218   -2.7078867    2377.2945  0.071934596  0.071448499            3 
 2755000   0.79666503    -2.698118    2383.9593  0.072110082  0.071436094            3 
 2756000   0.82387768   -2.7361299    2381.6872  0.072015215  0.071423843            2 
 2757000   0.81557712   -2.7048081    2386.0674   0.07212149  0.071411399            2 
 2758000   0.80224022     -2.70482    2386.3876  0.072105015  0.071399072            2 
 2759000   0.80712858   -2.7203356    2387.5878  0.072115134    0.0713868            4 
 2760000   0.81126123    -2.704061    2381.4268  0.071902984  0.071374402            3 
 2761000   0.79999835     -2.69299    2385.9559  0.072013639   0.07136226            4 
 2762000   0.80707564   -2.7354896    2384.4111  0.071940958  0.071350022            2 
 2763000   0.82931113    -2.723308    2389.7338  0.072075456  0.071337942            4 
 2764000   0.83885407     -2.74335    2392.8589    0.0721436  0.071325913            2 
 2765000   0.80585678   -2.7235809    2386.2351  0.071917874  0.071313743            4 
 2766000     0.797459   -2.6987852    2390.0891  0.072007987  0.071301617            6 
 2767000   0.81355117   -2.7152538    2397.0027  0.072190178  0.071289446            3 
 2768000   0.82370057   -2.7085232     2391.931  0.072011411  0.071277332            7 
 2769000   0.81030322   -2.7300844     2392.501  0.072002557  0.071265204            2 
 2770000   0.80918903   -2.7230739    2394.7782  0.072045074     0.071253            3 
 2771000   0.82058214    -2.712549    2383.6547   0.07168455  0.071240808            3 
 2772000   0.81919034   -2.7185563    2390.9122  0.071876869  0.071228698            4 
 2773000   0.80124017   -2.6937835     2391.573  0.071870808  0.071216574            3 
 2774000   0.80739069   -2.7418024    2400.3793  0.072109448  0.071204287            4 
 2775000   0.80227535   -2.7333917    2393.2289  0.071868736  0.071192086            3 
 2776000   0.82112316   -2.7160942    2399.0219  0.072016749  0.071179842            3 
 2777000   0.78445113   -2.7187203    2394.5502  0.071856626  0.071167627            3 
 2778000   0.81379822   -2.7199987    2391.1786   0.07172962  0.071155351            3 
 2779000   0.79571278   -2.7217135    2400.1247  0.071972074  0.071143087            5 
 2780000   0.80027612   -2.7245189    2389.8337  0.071637701  0.071130755            3 
 2781000   0.79827404   -2.7171972    2393.7998  0.071730787  0.071118407            3 
 2782000    0.8153674    -2.715116    2392.8507  0.071676573  0.071106242            3 
 2783000   0.79736073   -2.7218333    2399.8984  0.071861853  0.071094045            2 
 2784000   0.80403612   -2.7177017    2404.8212  0.071983393  0.071081922            5 
 2785000   0.81285776   -2.7311464    2397.9133  0.071750847  0.071069584            3 
 2786000   0.79330855   -2.7111982    2401.2544  0.071825029   0.07105712            6 
 2787000   0.81599375   -2.7309564    2397.6797  0.071692371  0.071044901            2 
 2788000   0.79497674   -2.6954386     2402.291  0.071804489  0.071032556            4 
 2789000   0.81167044   -2.7345583    2395.8907  0.071587506  0.071020338            5 
 2790000   0.82225801   -2.7309027    2403.9402  0.071802275  0.071008123            1 
 2791000   0.80423834   -2.6998519    2403.0222  0.071749141    0.0709958            2 
 2792000   0.79228902   -2.7168263     2401.443  0.071676309  0.070983655            4 
 2793000   0.80124915   -2.7187239    2403.5312  0.071712948    0.0709715            3 
 2794000   0.79695247    -2.719722    2409.9187  0.071877796  0.070959282            3 
 2795000   0.80967128   -2.7130096      2409.34  0.071834824   0.07094712            5 
 2796000   0.80829987   -2.7275598    2394.1388  0.071356069  0.070934997            7 
 2797000   0.79963998   -2.7383711    2401.6618  0.071554697  0.070922716            2 
 2798000   0.79953423    -2.716209    2397.2475   0.07139765  0.070910459            2 
 2799000   0.79631652   -2.7148274    2405.9081  0.071629989  0.070898409            3 
 2800000   0.80749146   -2.7440195    2406.4686  0.071621089  0.070886137            5 
 2801000   0.81055239   -2.6954722    2414.1542  0.071824176  0.070873862            2 
 2802000   0.79415431   -2.7264567    2405.2125  0.071532611  0.070861794            3 
 2803000   0.81247051   -2.7195358      2411.04  0.071680342  0.070849649            5 
 2804000   0.80376794   -2.7286744    2411.4014  0.071665518  0.070837456            3 
 2805000   0.80149443   -2.7214371    2414.3816  0.071728509  0.070825422            4 
 2806000   0.80935889   -2.7272545    2405.3813  0.071435652   0.07081337            2 
 2807000   0.81646226   -2.7399626    2409.9615  0.071546179  0.070801276            3 
 2808000   0.80581625   -2.7502901    2415.3269   0.07167993  0.070789087           17 
 2809000   0.80732492   -2.6985052     2412.145  0.071560015  0.070776994            4 
 2810000   0.81785026    -2.754734    2415.9809  0.071648306    0.0707649            2 
 2811000   0.81840758   -2.6927875    2410.6618   0.07146513  0.070752699            2 
 2812000   0.80799725    -2.726314    2406.9838   0.07133072  0.070740508            3 
 2813000   0.79128896   -2.7350185    2412.6245  0.071472464  0.070728632            2 
 2814000   0.81319691    -2.728353    2407.5898  0.071297967  0.070716429            3 
 2815000   0.82002378   -2.7150907    2414.0459  0.071463764   0.07070445            3 
 2816000   0.80350621   -2.7299569    2409.4825  0.071303341  0.070692353            3 
 2817000   0.79689429    -2.738669    2412.5414  0.071368519  0.070680154            3 
 2818000   0.79293906   -2.7317101    2411.5522  0.071313941  0.070668088            3 
 2819000   0.79923826   -2.7298834    2416.5809  0.071437298   0.07065586            2 
 2820000    0.7706798   -2.7279407    2417.0684  0.071426372  0.070643599            3 
 2821000   0.78703637   -2.7312049    2413.4402  0.071293872  0.070631467            3 
 2822000   0.78971309   -2.7184915    2406.4638  0.071062597  0.070619258            3 
 2823000    0.8034005   -2.7450207    2417.9823  0.071377444   0.07060708            9 
 2824000    0.7934936   -2.7355603    2426.6332  0.071607448    0.0705949            3 
 2825000   0.79800479   -2.7194029    2423.8464  0.071499894  0.070582765            4 
 2826000   0.80095297    -2.709538    2419.3356  0.071341579   0.07057073            2 
 2827000   0.79757787   -2.7184712    2415.5658  0.071205219  0.070558504            5 
 2828000   0.80764032   -2.7259587    2424.7296  0.071450069  0.070546414            3 
 2829000   0.80092325    -2.732747    2422.2866   0.07135285   0.07053422            4 
 2830000   0.79553112   -2.7477871    2411.6761  0.071015197  0.070521946            2 
 2831000   0.80424286   -2.7369336    2410.7687  0.070963403  0.070509803            2 
 2832000   0.80208337   -2.7139099    2422.8712  0.071294469  0.070497692            4 
 2833000   0.80072908   -2.7519163    2421.3378  0.071224197  0.070485528            3 
 2834000   0.81604598   -2.7435911    2418.8386  0.071125576  0.070473229            4 
 2835000   0.80005727   -2.7246825     2420.635  0.071153293  0.070460842            4 
 2836000   0.78285012   -2.7242721    2425.8218  0.071280612  0.070448549            3 
 2837000   0.79290206   -2.7374832    2417.8164  0.071020339  0.070436274            4 
 2838000   0.80267929   -2.7376423    2421.6184  0.071106953  0.070424151            3 
 2839000   0.78615482   -2.7106224     2424.275  0.071159885   0.07041202            2 
 2840000   0.79659549   -2.7421837    2420.6336   0.07102798  0.070399881            4 
 2841000   0.80676265   -2.7360644     2426.981  0.071189166  0.070387644            4 
 2842000   0.79240473   -2.7256462    2430.0074  0.071252856  0.070375578            3 
 2843000   0.80508418   -2.7068796    2429.3633  0.071208914   0.07036343            2 
 2844000   0.77350853   -2.7237642    2422.6455  0.070987034   0.07035145            4 
 2845000   0.78636189   -2.7307366    2433.1853  0.071270805  0.070339429            3 
 2846000   0.79991353   -2.7396793     2430.896  0.071178729  0.070327387            5 
 2847000    0.7917137   -2.7246894    2418.6496  0.070795271    0.0703152            2 
 2848000   0.81254391   -2.7247722    2435.2275  0.071255486  0.070303105            5 
 2849000   0.79708095   -2.7122764    2429.8419  0.071072948   0.07029108            3 
 2850000   0.79291608   -2.7676477    2426.4729  0.070949499  0.070278809            4 
 2851000   0.78712908   -2.7238965     2429.913  0.071025166  0.070266612            5 
 2852000   0.79042798   -2.7339864    2419.6168  0.070699417  0.070254345            4 
 2853000   0.78648941   -2.7279687    2425.9867  0.070860693  0.070242264            2 
 2854000   0.80592341   -2.7250112    2427.1873   0.07087092  0.070230169            3 
 2855000   0.76627105     -2.73033     2423.944  0.070751431  0.070217972            4 
 2856000   0.80278723   -2.7377934    2431.2259  0.070939132  0.070205728            6 
 2857000   0.77370311   -2.7215123     2422.901   0.07067148  0.070193613            8 
 2858000   0.78541057   -2.7368059     2433.121  0.070944747  0.070181395            5 
 2859000    0.8004704   -2.7270513    2424.0305  0.070654962  0.070169303            5 
 2860000   0.79116568   -2.7515901    2431.6083  0.070851059   0.07015708            6 
 2861000   0.79962127   -2.7183203    2427.9128  0.070718652  0.070144712            5 
 2862000   0.79360839   -2.7207542    2437.3867  0.070969796  0.070132326            5 
 2863000   0.80234985   -2.7245722    2436.6518  0.070923617  0.070120035            3 
 2864000   0.78381897   -2.7322866    2433.7925  0.070815657   0.07010777            3 
 2865000    0.7971873   -2.7260307    2434.4946  0.070811362  0.070095554            6 
 2866000   0.76747804   -2.7395348    2422.7504  0.070445173  0.070083318            5 
 2867000   0.78873524   -2.7499189    2436.3221  0.070815084  0.070070904           10 
 2868000   0.79948512   -2.7281869     2426.161  0.070495148  0.070058602            6 
 2869000   0.80049538   -2.7368401    2440.9671  0.070900637  0.070046162            3 
 2870000   0.80618317    -2.735593    2435.2348  0.070709489  0.070033912            5 
 2871000   0.79811562   -2.7281011    2440.9326  0.070850244  0.070021751            5 
 2872000   0.79364149   -2.7279587    2444.1254  0.070918217  0.070009485            5 
 2873000   0.77618367   -2.7435237     2441.456  0.070816104  0.069997272            4 
 2874000   0.80494812   -2.7378377    2446.1251  0.070926847  0.069985047            3 
 2875000   0.79737839   -2.7314747    2439.6128  0.070713413  0.069972812            3 
 2876000   0.79755103      -2.7513    2444.5883  0.070832995  0.069960506            3 
 2877000   0.80346253   -2.7368063    2437.5909  0.070605692  0.069948073            4 
 2878000   0.79965778   -2.7263197    2438.8625  0.070617977  0.069935685            3 
 2879000   0.77278872   -2.7446796    2430.8461  0.070361413  0.069923349            2 
 2880000   0.80434465   -2.7250643    2439.1749  0.070577979  0.069911079            3 
 2881000   0.77651772   -2.7226032    2438.3427  0.070529407  0.069898798            3 
 2882000   0.79932652   -2.7546424    2437.2039  0.070472008    0.0698864            9 
 2883000   0.77827996   -2.7505738    2444.3595  0.070654397  0.069873882            2 
 2884000   0.79798939   -2.7345824    2436.4672  0.070401848  0.069861434            5 
 2885000   0.79247955    -2.730716    2447.5522  0.070697636  0.069849221            6 
 2886000   0.79388425   -2.7460104    2437.9822  0.070396806  0.069836857            3 
 2887000   0.80645302   -2.7483787    2445.6636  0.070594146  0.069824605            6 
 2888000   0.79259804   -2.7516188     2434.857  0.070257877  0.069812268            4 
 2889000   0.78609265   -2.7365528    2438.4299  0.070336618  0.069799996            2 
 2890000   0.78889107   -2.7325784    2433.4355  0.070168267  0.069787693            2 
 2891000    0.7854584    -2.734931     2441.401  0.070373602  0.069775231            5 
 2892000   0.79827309   -2.7451216    2432.2833   0.07008654  0.069762659            2 
 2893000   0.79277058   -2.7438956    2437.7353  0.070219359   0.06975016            2 
 2894000   0.77579898   -2.7260781    2445.0208  0.070404885  0.069737662            3 
 2895000     0.804476   -2.7392783    2447.6117  0.070455145  0.069725193            2 
 2896000   0.78446293   -2.7504721    2445.2795  0.070363705  0.069712751            5 
 2897000   0.79735172   -2.7270163    2452.0054  0.070532891  0.069700431            5 
 2898000    0.7994994   -2.7244841    2447.1707  0.070369527  0.069687972            2 
 2899000   0.79070858   -2.7285087    2444.6606  0.070273099  0.069675695            2 
 2900000   0.78150892   -2.7080694    2451.3369  0.070440717  0.069663277           10 
 2901000   0.75936662   -2.7449361    2455.0928  0.070524324   0.06965092            3 
 2902000   0.78020735   -2.7856924    2441.1763  0.070100398  0.069638464            3 
 2903000   0.78368003   -2.7287571    2447.0429  0.070244659  0.069625974            4 
 2904000   0.79105655   -2.7362268     2454.106  0.070423153    0.0696136            4 
 2905000   0.78975395   -2.7537736    2453.2932  0.070375593  0.069601244            5 
 2906000   0.78588423   -2.7459411    2446.2611  0.070149722  0.069588783            6 
 2907000   0.78842581   -2.7348674    2449.7695  0.070226165  0.069576382            6 
 2908000   0.78832218    -2.759046    2450.5731  0.070225042  0.069563852            5 
 2909000   0.79787719   -2.7433761    2447.9581  0.070125992  0.069551203            2 
 2910000   0.78965958   -2.7400798    2448.9141  0.070129271  0.069538617            4 
 2911000   0.80358844   -2.7403103    2444.4305  0.069976827  0.069526097            5 
 2912000   0.78065253   -2.7409463    2453.3939  0.070209303  0.069513597            3 
 2913000   0.78521664   -2.7397864    2451.8458  0.070140914  0.069501025            9 
 2914000    0.8211879   -2.7432451    2456.8424  0.070259734   0.06948869            3 
 2915000   0.76851499   -2.7343615    2454.8297  0.070178094   0.06947619            3 
 2916000   0.78980988   -2.7204368    2454.6422  0.070148669  0.069463712            5 
 2917000    0.7698659   -2.7264453     2452.822  0.070072619  0.069451443            3 
 2918000   0.78376009   -2.7625585    2445.4581  0.069838306  0.069438765            9 
 2919000   0.77241776   -2.7336291    2447.4612  0.069871567  0.069426289            3 
 2920000   0.78477323    -2.745432    2447.6594  0.069853295  0.069413769            3 
 2921000   0.77450726   -2.7560484    2453.6047  0.069998993  0.069401363            5 
 2922000   0.80478731   -2.7481341    2448.0738    0.0698173  0.069388705            6 
 2923000    0.7828369   -2.7529013     2453.916  0.069959972   0.06937628            3 
 2924000   0.79391031   -2.7351564    2461.8576   0.07016238  0.069363989            4 
 2925000   0.80229529   -2.7524969    2451.0736  0.069831157  0.069351632            3 
 2926000   0.77297081   -2.7472767     2464.522  0.070190306  0.069339367            3 
 2927000   0.78685316   -2.7484493    2460.0892   0.07004012  0.069327117            2 
 2928000    0.7736199   -2.7473956    2458.7653  0.069978519  0.069314793            7 
 2929000   0.79982868    -2.762602    2454.7638  0.069840782  0.069302455            5 
 2930000   0.78828702   -2.7404949    2459.6215  0.069955104  0.069290191            4 
 2931000   0.78806452   -2.7523309    2447.4444  0.069585023  0.069277739            3 
 2932000   0.76913348   -2.7448256    2460.4943  0.069932193  0.069265539            3 
 2933000   0.76853527     -2.77889    2462.1761  0.069956133  0.069253099            2 
 2934000   0.79227061   -2.7116026     2471.577    0.0701993  0.069240639            3 
 2935000   0.78209157   -2.7506556    2461.0967  0.069877815  0.069228392            4 
 2936000    0.7788228   -2.7431963    2469.7139  0.070098601  0.069215971            4 
 2937000   0.79830859   -2.7502485     2456.964  0.069712971  0.069203784            3 
 2938000   0.80135958   -2.7313332    2462.9123  0.069857961   0.06919152            3 
 2939000   0.78408454   -2.7430127    2462.9123  0.069834191  0.069179335            3 
 2940000   0.79190051   -2.7509521    2465.4609  0.069882678  0.069167004            3 
 2941000   0.77785923   -2.7396905    2460.3337  0.069713637  0.069154636            4 
 2942000   0.78754801    -2.747202    2464.0186  0.069794318  0.069142457            5 
 2943000   0.75689439   -2.7556554    2466.0733  0.069828783  0.069130137           14 
 2944000   0.78274021   -2.7479846    2462.1823  0.069694925  0.069117634            4 
 2945000   0.77203754   -2.7459989    2469.8379  0.069887886  0.069105372            4 
 2946000   0.77342008   -2.7550073     2465.888  0.069752432  0.069092941            5 
 2947000   0.76507238   -2.7731552    2457.8714  0.069502075  0.069080438            2 
 2948000   0.77898271   -2.7450986    2465.6263  0.069697712   0.06906785            6 
 2949000   0.77872011   -2.7564921    2465.0178  0.069656884  0.069055475            7 
 2950000   0.77143395   -2.7609625    2459.8419   0.06948706  0.069042917            5 
 2951000   0.75892084   -2.7442708    2467.8048  0.069688377  0.069030457            3 
 2952000   0.78406763    -2.762209    2456.7871  0.069353747  0.069018057            5 
 2953000   0.79064339   -2.7768386    2470.9966   0.06973125  0.069005522            2 
 2954000   0.76557521   -2.7514975    2469.2919  0.069659554   0.06899307            3 
 2955000   0.78657103   -2.7556728    2467.4569  0.069584233  0.068980633            4 
 2956000   0.77595704    -2.762363    2453.4391  0.069165514  0.068968219            6 
 2957000   0.77925273   -2.7804389    2466.6542  0.069514547  0.068955663            2 
 2958000   0.76765801    -2.741139    2478.9304  0.069836893  0.068943139            4 
 2959000   0.78116537   -2.7540712    2465.0044    0.0694211  0.068930759           11 
 2960000   0.79097276   -2.7563973      2463.02  0.069341778  0.068918271            4 
 2961000   0.77742649     -2.75137      2467.05  0.069431779  0.068905871            7 
 2962000   0.79183387   -2.7669548    2467.6354  0.069424808  0.068893333            5 
 2963000   0.78095803   -2.7602061    2468.9946  0.069439606  0.068880863            5 
 2964000   0.77357848   -2.7442119    2460.5852  0.069179747  0.068868498            2 
 2965000    0.7846046   -2.7567939    2471.9104  0.069474715  0.068856187            3 
 2966000   0.77416961   -2.7767333    2467.6804  0.069332445  0.068843739            6 
 2967000   0.78647335   -2.7468612    2471.0148  0.069402731  0.068831315            3 
 2968000   0.78551377   -2.7435509    2473.0215  0.069435689  0.068818919            5 
 2969000   0.78495064   -2.7433739    2479.4471  0.069592655  0.068806563            3 
 2970000   0.78716889   -2.7594375    2478.0259  0.069529345  0.068794083            3 
 2971000   0.76728113   -2.7434067    2475.4796  0.069434522  0.068781617            2 
 2972000   0.78286937   -2.7678393    2469.9912  0.069257268  0.068769146            2 
 2973000    0.7802362   -2.7748874    2474.1387  0.069350227  0.068756541            2 
 2974000   0.77482094   -2.7495327     2481.544  0.069534411  0.068744182            5 
 2975000   0.77303916   -2.7486928    2471.7601  0.069236977  0.068731687            4 
 2976000   0.77428871   -2.7779208    2479.1877  0.069421699  0.068719202            5 
 2977000   0.77594093   -2.7456914    2476.6816  0.069328227  0.068706642            4 
 2978000   0.78335997   -2.7468127    2475.6656  0.069276517  0.068694222            7 
 2979000   0.76340618   -2.7739778    2476.3041  0.069271123  0.068681673            3 
 2980000   0.78471718   -2.7391296    2469.9348  0.069069764  0.068669189            4 
 2981000   0.77218252   -2.7548544    2477.0997  0.069246888  0.068656764            6 
 2982000   0.75931165   -2.7817886    2478.5628  0.069264555   0.06864428            5 
 2983000   0.78712378   -2.7595042    2479.4969   0.06926743  0.068631871            1 
 2984000   0.77920538   -2.7608546    2475.8513  0.069142407  0.068619585            2 
 2985000   0.77536718   -2.7333853    2484.2404  0.069353446  0.068607247            3 
 2986000   0.77433744   -2.7891498    2468.6784  0.068895915  0.068594863            3 
 2987000   0.78049003   -2.7621558    2486.1346  0.069359855  0.068582268            6 
 2988000   0.77998787   -2.7592219    2471.9559  0.068941205  0.068569769            7 
 2989000   0.77679016   -2.7540329    2480.2334  0.069148919  0.068557362            6 
 2990000   0.76906374   -2.7593801    2479.1711  0.069096184    0.0685449            4 
 2991000   0.78267611   -2.7557143    2487.8496  0.069314879  0.068532482            9 
 2992000   0.77365229   -2.7587354    2477.8463  0.069013098  0.068519939            4 
 2993000   0.77577961   -2.7632225    2484.3999   0.06917251  0.068507449            5 
 2994000   0.76294217   -2.7584664    2478.9504  0.068997729  0.068495031            2 
 2995000   0.76621356   -2.7704054    2474.9955  0.068864649  0.068482489            5 
 2996000   0.78339328   -2.7782022    2476.6109  0.068886596  0.068469729            4 
 2997000   0.75284012   -2.7426724    2478.8827   0.06892678  0.068457122            3 
 2998000    0.7788293   -2.7639006    2485.9503  0.069100243   0.06844459            2 
 2999000   0.76971246   -2.7683838    2486.3115  0.069087237  0.068431963            8 
 3000000     0.774361   -2.7709693    2484.8623  0.069023953  0.068419528            3 
 3001000   0.77488393   -2.7665374    2480.3166  0.068874724  0.068407116            4 
 3002000   0.76554767   -2.7448247    2480.9033  0.068868068  0.068394664            6 
 3003000   0.77089158   -2.7464469    2486.0444  0.068987801   0.06838217            3 
 3004000   0.76988224   -2.7365343    2484.9087  0.068933329  0.068369953            4 
 3005000   0.76212066   -2.7813957    2482.7738  0.068851186  0.068357379            3 
 3006000   0.75455697    -2.761407    2492.1133  0.069087194  0.068344886            3 
 3007000   0.77284903   -2.7495952    2484.0473  0.068840687  0.068332439            2 
 3008000   0.76523275   -2.7677132    2485.7031  0.068863672  0.068320024            6 
 3009000   0.77852921   -2.7453951    2487.9073  0.068901832  0.068307641            5 
 3010000   0.76345523   -2.7829711    2493.0108  0.069020232  0.068295242            5 
 3011000   0.77234748   -2.7611239    2484.9083  0.068773063  0.068282961            2 
 3012000   0.77711929   -2.7559783    2484.9439  0.068751215  0.068270465            6 
 3013000   0.75222729   -2.7666268    2486.9118  0.068782823  0.068258067            7 
 3014000   0.76422963   -2.7501716    2485.8711  0.068731229  0.068245564            6 
 3015000   0.76019239   -2.7523909    2490.9966  0.068850099  0.068233206           10 
 3016000   0.76927438   -2.7772534    2493.4712  0.068895645  0.068220879            2 
 3017000   0.79119957   -2.7620265     2488.836  0.068744779  0.068208441            2 
 3018000   0.77915062   -2.7569833    2492.5605  0.068824841  0.068196394            3 
 3019000   0.77641102   -2.7692892    2492.7483  0.068807229  0.068184003            4 
 3020000   0.76525271   -2.7658701    2492.6281  0.068781129  0.068171602            2 
 3021000   0.76354897    -2.771879    2490.9503  0.068712079   0.06815947            2 
 3022000   0.76520845   -2.7604782    2496.8794   0.06885284   0.06814715            6 
 3023000   0.76550616   -2.7452453    2488.4075  0.068596523  0.068134926            5 
 3024000   0.76197881   -2.7631047    2495.1999  0.068761021  0.068122822            3 
 3025000   0.78081236   -2.7576666    2494.8841   0.06872959  0.068110584           11 
 3026000   0.75677228   -2.7529091    2497.3305  0.068774247  0.068098395            5 
 3027000   0.77713084   -2.7695237    2498.2082   0.06877569  0.068086257            3 
 3028000   0.77500745   -2.7434559    2494.3386  0.068646483  0.068073968            3 
 3029000   0.76896904   -2.7700253    2504.3944  0.068900472  0.068061855           11 
 3030000   0.77875856   -2.7565323    2497.7808  0.068695842  0.068049599            6 
 3031000   0.75791873   -2.8027013    2497.8251  0.068674396   0.06803736            3 
 3032000   0.77037183   -2.7756208    2496.1502   0.06860571  0.068025037            4 
 3033000   0.76334612   -2.7912243    2494.5621  0.068539459   0.06801274            7 
 3034000   0.76276573   -2.7862308    2504.5777   0.06879196  0.068000598            3 
 3035000   0.77068668   -2.7725334    2500.1513  0.068647758  0.067988391            5 
 3036000   0.76148114   -2.7872578     2499.379  0.068603947  0.067976116            3 
 3037000   0.76129381   -2.7644409    2501.5746  0.068641603     0.067964            6 
 3038000   0.77460503   -2.7834096    2505.3611  0.068722874  0.067951842            3 
 3039000   0.76931006   -2.7841436    2497.9913  0.068498172  0.067939627            4 
 3040000   0.75332971   -2.7682557    2499.2206  0.068509336  0.067927437            4 
 3041000   0.76647052   -2.7612373    2511.4982  0.068823253   0.06791539            3 
 3042000   0.76725206   -2.7716416    2504.2571  0.068602266  0.067903281            5 
 3043000   0.75083089   -2.7741373    2508.8093  0.068704384   0.06789112            2 
 3044000   0.76700009   -2.7658499     2512.521  0.068783427  0.067879105            3 
 3045000   0.75927514   -2.7401975    2496.1831  0.068313713  0.067866933            3 
 3046000   0.75516523   -2.7738283    2509.6085  0.068658582  0.067854876            2 
 3047000   0.74959647   -2.7733059    2510.7808  0.068668111  0.067842824            4 
 3048000   0.76414617   -2.7868844    2492.6289  0.068149303  0.067830709            4 
 3049000   0.76918062   -2.7893846    2508.8112  0.068569235  0.067818436            5 
 3050000   0.76753668   -2.7784557    2507.3608  0.068507127  0.067806209            4 
 3051000   0.77220512   -2.7628071    2508.2879  0.068509993  0.067794132            3 
 3052000   0.76654327    -2.804097    2511.7743   0.06858274  0.067782009            2 
 3053000   0.76001985   -2.7569884    2508.6477  0.068474933  0.067769878            4 
 3054000   0.74731881   -2.7808352    2515.0279  0.068626607   0.06775782            3 
 3055000   0.75833735   -2.7720322    2512.7724   0.06854262  0.067745848            2 
 3056000   0.74634094   -2.7875807    2501.1922  0.068204413  0.067733667            3 
 3057000   0.76104943   -2.7815473    2511.6242  0.068466476  0.067721529            8 
 3058000   0.76054206   -2.7832172    2510.5047   0.06841358  0.067709337            5 
 3059000   0.77010147   -2.7712013    2514.5023  0.068500116  0.067697267            5 
 3060000   0.76096411    -2.787081    2510.3193  0.068363815  0.067685239            6 
 3061000   0.74594311   -2.8058782    2515.3679  0.068478926  0.067673288            3 
 3062000   0.76113068   -2.7785877    2521.6563  0.068627703  0.067661315            5 
 3063000   0.75526514   -2.7648401    2521.5143  0.068601433    0.0676494            5 
 3064000   0.75181075   -2.7661191    2516.3571   0.06843878  0.067637408            9 
 3065000   0.77165257   -2.7777419    2514.8088  0.068374356  0.067625439            7 
 3066000   0.77519799   -2.7920282     2518.694  0.068457655   0.06761343            4 
 3067000    0.7615638   -2.7723246    2517.1713   0.06839396  0.067601373            9 
 3068000   0.76844118   -2.7829188    2519.8106  0.068443357  0.067589321           15 
 3069000   0.74297527   -2.7785354    2517.7856  0.068366068  0.067577092            2 
 3070000   0.75283841   -2.7646672    2519.0542  0.068378237  0.067564999            7 
 3071000   0.78063517   -2.7773198    2513.0413  0.068192805    0.0675529            3 
 3072000     0.764328   -2.7833721    2517.2278  0.068284174  0.067540797            4 
 3073000   0.74154851   -2.7786554    2517.4151  0.068267033  0.067528859            7 
 3074000   0.74942088   -2.7823328    2523.0478  0.068397523  0.067516891            2 
 3075000   0.75716377   -2.7678151    2513.3371  0.068112116  0.067504829            4 
 3076000   0.77181557   -2.8133187    2520.0802  0.068272654  0.067492805            2 
 3077000   0.76935119    -2.800897    2514.8266  0.068108184  0.067480705            7 
 3078000   0.76448856   -2.7750797    2517.2613  0.068151975  0.067468572            5 
 3079000   0.76636964   -2.7787445     2514.571  0.068057026  0.067456529            3 
 3080000   0.73961919   -2.7860569    2522.5993  0.068252145  0.067444513            8 
 3081000   0.74742881   -2.7987622    2518.6871  0.068124179  0.067432328            8 
 3082000   0.77114571   -2.7735126    2517.1319  0.068060023  0.067420301            3 
 3083000    0.7533958   -2.7805082    2522.2376  0.068175955  0.067408177            5 
 3084000   0.75176312   -2.7949708    2514.3207  0.067939923  0.067396141            5 
 3085000   0.76521185    -2.762914    2526.0625  0.068235077  0.067384187            5 
 3086000   0.76490164   -2.7760062    2524.3752    0.0681674  0.067372254            4 
 3087000   0.76278644   -2.7535756     2526.287  0.068196927  0.067360344            4 
 3088000   0.74131229   -2.7953598    2534.7978  0.068404517  0.067348459            5 
 3089000   0.76052901   -2.8215239    2516.8772  0.067898921  0.067336455            6 
 3090000   0.75576591    -2.781006    2520.6194  0.067977871  0.067324337            6 
 3091000   0.74582351   -2.7960378    2530.6203  0.068225502  0.067312429            4 
 3092000   0.75222083   -2.7887204    2522.8686  0.067994517  0.067300572            4 
 3093000   0.75346784   -2.8209752    2529.4083  0.068148732  0.067288571            4 
 3094000    0.7496942   -2.7560289    2529.7768   0.06813663  0.067276619            3 
 3095000   0.76639185    -2.788953    2520.3689  0.067861305   0.06726463            5 
 3096000   0.75659182   -2.8061175    2525.0796  0.067966182  0.067252782            4 
 3097000   0.76766295   -2.7766533    2539.9055  0.068343168  0.067240869            2 
 3098000   0.74702208   -2.7913031    2525.0458  0.067921395  0.067228928            6 
 3099000   0.76827759    -2.795159    2529.4212  0.068017136   0.06721695            2 
 3100000   0.75552291   -2.7815798     2530.959  0.068036531  0.067204945            6 
 3101000   0.75345408   -2.7901184    2521.8423  0.067769599   0.06719304            3 
 3102000   0.76321625   -2.7853444    2530.2709   0.06797418  0.067181182            2 
 3103000   0.76012516   -2.8006292    2536.7082  0.068125154  0.067169333            6 
 3104000   0.76023099   -2.7661113    2528.2455  0.067876007  0.067157459            2 
 3105000   0.77221306   -2.7891848    2532.9992  0.067981727  0.067145508            7 
 3106000   0.73784863   -2.8170035    2533.0545  0.067961324  0.067133501            4 
 3107000   0.75184522   -2.7991061    2530.6018  0.067873666  0.067121506           11 
 3108000   0.75106467   -2.7811468    2531.8809  0.067886125   0.06710949            4 
 3109000    0.7463072   -2.7932235    2534.7542  0.067941305  0.067097644            3 
 3110000    0.7372183   -2.7814571    2532.1015  0.067848378  0.067085647            5 
 3111000   0.77252737   -2.7905947    2531.7358  0.067816772  0.067073769            3 
 3112000   0.75175773   -2.7923671    2523.7596  0.067581395  0.067061602            5 
 3113000   0.74016328   -2.7777638    2537.1418  0.067917919  0.067049657            6 
 3114000      0.73485   -2.7878018    2535.2884  0.067846509  0.067037604            3 
 3115000   0.73507185   -2.7954966    2537.5406  0.067884981  0.067025432            6 
 3116000   0.75184029   -2.7695731    2533.2139  0.067747483  0.067013387            5 
 3117000   0.74677701   -2.7965145    2539.3786  0.067890563    0.0670014            6 
 3118000   0.74971117   -2.7949836    2531.9033     0.067669    0.0669894            2 
 3119000    0.7498691   -2.7994833    2541.4358  0.067901993  0.066977589            5 
 3120000   0.74824087   -2.7825228    2529.9974  0.067574718  0.066965632            3 
 3121000   0.74088289   -2.7624578    2539.3695  0.067803309  0.066953706            4 
 3122000    0.7569131    -2.776276    2533.9786  0.067637695  0.066941777            5 
 3123000   0.76195089    -2.782669    2538.2757    0.0677307  0.066929913            2 
 3124000   0.74436017   -2.7903936    2542.2814  0.067815872  0.066917963            3 
 3125000   0.76095848   -2.8045942    2545.3167  0.067875112  0.066905976            4 
 3126000   0.76531791    -2.790261    2540.0767   0.06771371  0.066893878            6 
 3127000   0.76516593   -2.8111502    2535.5426  0.067571223  0.066881923            6 
 3128000   0.73897963   -2.7935107    2544.6316  0.067791763  0.066869843            4 
 3129000   0.75769236   -2.8038643    2535.6823  0.067531755  0.066857829            5 
 3130000     0.762574    -2.782148    2548.6863  0.067856397   0.06684578            5 
 3131000   0.74345219   -2.8044429    2542.4905  0.067669821  0.066833883            8 
 3132000   0.73788887   -2.7883294    2544.6553  0.067705813  0.066821866            3 
 3133000   0.75011061   -2.7855608     2542.349  0.067622859  0.066809802            3 
 3134000    0.7424724   -2.7980593    2543.1421   0.06762237  0.066797857            2 
 3135000   0.74536026   -2.7866374    2540.8483  0.067539827  0.066785934           11 
 3136000   0.76145622   -2.7883256    2546.5841  0.067670707  0.066773969            4 
 3137000   0.75292022   -2.8073551    2542.8507  0.067549959  0.066762011            5 
 3138000   0.75354763   -2.8096447    2539.9727  0.067452005  0.066750111            8 
 3139000    0.7542744   -2.7830821    2541.6982  0.067476323  0.066738308            4 
 3140000   0.74441545   -2.7812676    2543.6853  0.067507572   0.06672655            4 
 3141000   0.74592479   -2.7863621     2555.944  0.067811313   0.06671479            5 
 3142000   0.74956272   -2.7771041    2553.3335  0.067720493  0.066703066            3 
 3143000   0.75621861   -2.7996341    2541.9933  0.067398274   0.06669111            4 
 3144000   0.75051609   -2.8085473      2550.84  0.067611324   0.06667928            5 
 3145000   0.76177914    -2.774494    2554.1948  0.067678717  0.066667456            2 
 3146000   0.74281938   -2.8052328    2552.8043  0.067620372  0.066655614            6 
 3147000   0.73994284   -2.8035268     2549.127   0.06750151  0.066643826            9 
 3148000   0.72881308   -2.8123872    2544.0499  0.067345668  0.066631914            5 
 3149000   0.72241543   -2.7980829     2548.095  0.067431326  0.066620114            5 
 3150000   0.75650723   -2.8003261    2551.6684  0.067504456  0.066608386            5 
 3151000   0.75046792    -2.792592    2554.1823  0.067549515  0.066596712            8 
 3152000   0.75272325   -2.7865924    2564.6573  0.067805027  0.066584833            5 
 3153000   0.75211585   -2.8082305    2547.9746    0.0673426  0.066573131            3 
 3154000   0.75839771   -2.7893442    2553.4178  0.067465066  0.066561359            5 
 3155000   0.73904712   -2.7963756    2556.2595  0.067518739  0.066549506            5 
 3156000   0.75945296   -2.7990512    2554.9379  0.067462449   0.06653757            5 
 3157000   0.74508879   -2.7865669    2556.1052  0.067471893  0.066525725            3 
 3158000   0.73808208   -2.8066179    2552.7217  0.067361244  0.066513839            8 
 3159000   0.74060547   -2.8063088    2555.8393  0.067422162  0.066501923            2 
 3160000   0.74898005   -2.8038861    2549.3109  0.067228663  0.066490186            1 
 3161000   0.74492004   -2.8259302    2552.3121  0.067286515  0.066478363            5 
 3162000   0.75896448   -2.7828146    2542.8049  0.067014677  0.066466444            4 
 3163000   0.76152324   -2.8042632    2551.8298  0.067231263  0.066454657            7 
 3164000   0.75122883   -2.8008393    2553.6256   0.06725731  0.066442839            6 
 3165000   0.74185728   -2.7877403    2555.3731  0.067282072  0.066431076            2 
 3166000   0.74571009    -2.780607    2560.7389  0.067402056  0.066419387            3 
 3167000   0.74915256   -2.8066557    2558.4603  0.067320817  0.066407762            4 
 3168000    0.7570604   -2.8079906    2556.0056  0.067234994  0.066395989            6 
 3169000   0.75332035    -2.809811    2560.9979   0.06734506   0.06638419            3 
 3170000   0.73894362   -2.7986163    2559.4216  0.067282378  0.066372373            4 
 3171000   0.74105351   -2.8010386    2557.7216  0.067216484  0.066360601            6 
 3172000   0.74021197   -2.8032039    2551.6801  0.067036573  0.066348666            9 
 3173000    0.7358964    -2.788256    2558.3665  0.067191052  0.066336893            6 
 3174000   0.74019467   -2.7919609     2559.433  0.067197884  0.066325069            5 
 3175000   0.74374019   -2.7870441    2558.8686  0.067161907  0.066313171            5 
 3176000   0.74165601    -2.804313     2565.347  0.067310742  0.066301393            4 
 3177000   0.72514539    -2.802191    2551.8287  0.066934967  0.066289638            2 
 3178000   0.74225398   -2.8091528    2563.4206  0.067217866  0.066277702            8 
 3179000   0.74085459   -2.8169276    2561.4079  0.067143963  0.066265907            4 
 3180000   0.72689032   -2.8027661    2556.9807  0.067006831  0.066254275            3 
 3181000   0.73958523   -2.8063389    2575.8261  0.067479465  0.066242613            2 
 3182000    0.7549886   -2.7975469    2562.9821  0.067121887  0.066230933            8 
 3183000   0.74163576   -2.7986321    2553.6665   0.06685691  0.066219165            4 
 3184000   0.75891794    -2.793921     2568.324  0.067219536   0.06620751            6 
 3185000    0.7452776   -2.8063476     2561.983  0.067032521  0.066195904            4 
 3186000    0.7398343   -2.7859966     2564.727  0.067083254   0.06618434            4 
 3187000   0.75307615    -2.787509    2575.4678  0.067343054  0.066172739            2 
 3188000   0.74170957   -2.7980254    2560.5676  0.066932444  0.066161171            2 
 3189000   0.72088022   -2.8103069    2565.5535  0.067041746  0.066149497            3 
 3190000   0.73832175    -2.808171    2571.3189   0.06717134  0.066137871            5 
 3191000   0.76064524   -2.8138339    2574.5062  0.067233526  0.066126228            4 
 3192000   0.73578893   -2.7973015    2571.0365   0.06712188  0.066114554           10 
 3193000   0.73361501   -2.8263459    2564.4303  0.066928446  0.066102906            2 
 3194000   0.73422571   -2.8023536     2564.013  0.066896603  0.066091185            7 
 3195000   0.72441289   -2.8103058    2580.3262  0.067301153   0.06607955            6 
 3196000   0.73514321   -2.8134109    2564.8028  0.066875335  0.066067837            4 
 3197000   0.74397191   -2.7925129    2569.5735  0.066978768   0.06605602            3 
 3198000   0.74110004   -2.8121109    2569.7747  0.066963068  0.066044333            5 
 3199000   0.74417725   -2.7962303    2562.5143  0.066753005  0.066032752            5 
 3200000   0.73783011   -2.8251827    2574.6171   0.06704732  0.066021112            2 
 3201000   0.72082229   -2.8405948    2564.0747  0.066751918  0.066009318            2 
 3202000   0.74296258   -2.8054656    2572.0181  0.066937802  0.065997512            5 
 3203000   0.74066822   -2.8093464    2578.9987  0.067098519  0.065985786            6 
 3204000   0.73817337   -2.8064685    2571.3737  0.066879258    0.0659741            3 
 3205000   0.75242626   -2.8024827    2572.1336  0.066878149  0.065962276            4 
 3206000   0.74073024   -2.8061851    2573.0831  0.066881969  0.065950361            2 
 3207000   0.72113609   -2.8154123    2569.3897   0.06676514  0.065938533            5 
 3208000   0.71948729   -2.8158263     2568.962   0.06673322  0.065926672            4 
 3209000   0.74764246   -2.8093916     2565.187  0.066614392  0.065914922            3 
 3210000   0.72915343   -2.8137571    2573.8091  0.066817473   0.06590318            3 
 3211000   0.73808871   -2.8098714    2583.6726  0.067052647  0.065891529            6 
 3212000   0.72063148   -2.8247388    2573.9857  0.066780451  0.065879918            4 
 3213000   0.75215278   -2.8306811    2569.2175  0.066635997  0.065868192            6 
 3214000   0.73748965   -2.8303375    2570.0219   0.06663612  0.065856351            3 
 3215000   0.74139062   -2.8171981    2580.9923  0.066899749  0.065844776            4 
 3216000   0.74248835   -2.7952899    2579.6996  0.066845449  0.065833242            9 
 3217000   0.74738294   -2.8073349    2578.1862  0.066785467  0.065821505            3 
 3218000   0.71296068   -2.8000408    2571.8246  0.066599974  0.065809969            2 
 3219000   0.75270869   -2.7889083     2573.915    0.0666334   0.06579835            3 
 3220000   0.73683317   -2.8296923    2577.8331  0.066714106  0.065786624            6 
 3221000   0.73499552    -2.807469    2575.8411  0.066641857  0.065774945            3 
 3222000   0.73705291   -2.8298049    2579.0912  0.066705234  0.065763268            3 
 3223000   0.73526988   -2.8101293    2578.6202  0.066672361  0.065751612            3 
 3224000   0.74195583   -2.8142721     2573.954  0.066531068  0.065739915            5 
 3225000   0.73674234   -2.8241799    2582.5238  0.066731881   0.06572818            2 
 3226000    0.7205298   -2.8088495    2579.3893  0.066630225  0.065716546            6 
 3227000   0.73612295    -2.809767    2584.0719    0.0667305  0.065704924            4 
 3228000   0.74411445    -2.821134    2581.7551  0.066650018  0.065693334            5 
 3229000   0.73347158   -2.8332903    2585.9611  0.066737924  0.065681672            4 
 3230000   0.73922444   -2.8312814    2573.4264   0.06639387  0.065670136            3 
 3231000   0.73458188   -2.8137561     2580.562   0.06655736  0.065658326            4 
 3232000   0.73734332   -2.8121782    2579.0486  0.066497746  0.065646663            4 
 3233000    0.7364548   -2.8136662    2581.9766   0.06655265  0.065634933            8 
 3234000   0.72876274   -2.8130252    2585.0064  0.066610141  0.065623266            4 
 3235000   0.72182987   -2.8089702    2584.6025  0.066579147  0.065611528            5 
 3236000   0.72392565    -2.802002    2579.8955  0.066437358  0.065599888            3 
 3237000   0.72331994   -2.8015815    2582.7566   0.06649049  0.065588113            3 
 3238000   0.71643805   -2.8105141    2579.7824  0.066393411   0.06557646            6 
 3239000   0.73662308   -2.8385234    2582.9013  0.066453157  0.065564722            1 
 3240000   0.72712539   -2.7987655    2594.1736  0.066722571  0.065553011            2 
 3241000   0.72513502   -2.8497599    2580.3871  0.066347504  0.065541239            3 
 3242000   0.72680894   -2.8295781    2585.0301  0.066446383   0.06552957            3 
 3243000   0.74711455   -2.8262329    2578.1554   0.06624924  0.065517766            2 
 3244000   0.72952832   -2.8120655    2592.3185  0.066592645  0.065506092            2 
 3245000   0.73267791   -2.8255062    2583.5716    0.0663475  0.065494453            4 
 3246000   0.72893245   -2.7921783    2584.0362  0.066338987  0.065482828            2 
 3247000   0.72845039   -2.8341033    2586.7092  0.066387159  0.065471258           10 
 3248000   0.73747796   -2.8146375    2591.4505  0.066488364  0.065459675            4 
 3249000   0.74094941   -2.8045587    2588.2781  0.066386532  0.065448087            3 
 3250000   0.72062955   -2.8267073    2591.1617  0.066440043  0.065436526            3 
 3251000   0.72323757   -2.8183625    2591.4859  0.066427916  0.065424906           10 
 3252000   0.72786828   -2.8227277    2592.8273  0.066441865  0.065413389            3 
 3253000   0.73776816   -2.7984598    2597.7425  0.066547353  0.065401957            3 
 3254000    0.7366586    -2.830124    2594.3708  0.066440556   0.06539042            8 
 3255000   0.74362816   -2.8311234     2591.781  0.066353839  0.065378785            6 
 3256000   0.72763853   -2.8260431    2593.4936  0.066377293  0.065367194            9 
 3257000   0.75300313   -2.8202765    2588.2379  0.066222442  0.065355696            4 
 3258000   0.73809048   -2.8206541     2593.303   0.06633167  0.065344164            4 
 3259000   0.72420667   -2.8333145    2600.3822  0.066492334  0.065332596            8 
 3260000   0.72897973   -2.8393513    2593.2047  0.066288465  0.065320918            7 
 3261000   0.71859191    -2.799664    2595.8527  0.066335805  0.065309304            4 
 3262000   0.72650062   -2.8329637    2595.4943  0.066306312  0.065297717            4 
 3263000   0.74604723   -2.8318423    2593.3265  0.066230629  0.065286109            3 
 3264000   0.73816085   -2.8073778    2591.9538   0.06617529  0.065274476            4 
 3265000   0.72402951    -2.812323    2591.4245  0.066141514   0.06526276            5 
 3266000   0.73730488   -2.8193025    2593.1772  0.066165983  0.065251116            4 
 3267000   0.72117451   -2.8073883    2584.8181   0.06593251  0.065239495            7 
 3268000   0.72270121   -2.8143064    2597.1102  0.066225779  0.065227683            6 
 3269000     0.719507   -2.8156142    2589.9254  0.066022367  0.065215995            5 
 3270000   0.71968021   -2.8137953    2595.6635  0.066148407  0.065204335            2 
 3271000   0.74167635   -2.8300539     2592.567  0.066049297  0.065192797            4 
 3272000   0.72838954   -2.8144615    2595.0918  0.066093414  0.065181285            5 
 3273000   0.71054922   -2.8248979     2590.588  0.065958549  0.065169561            9 
 3274000   0.72780873   -2.8283151    2596.3363  0.066084716  0.065157922            4 
 3275000   0.71952853   -2.8252884    2594.9667  0.066029687  0.065146443            3 
 3276000   0.71207539   -2.8124446    2608.2353  0.066347051  0.065134898            5 
 3277000    0.7399947   -2.8251137    2595.9377   0.06601408  0.065123394            6 
 3278000    0.7187989   -2.8033643    2602.4624  0.066159812  0.065111756            7 
 3279000   0.73754641   -2.8089641    2601.9632   0.06612695  0.065100313            2 
 3280000   0.72195161   -2.8236136    2602.9014  0.066130626  0.065088816            3 
 3281000   0.71809278   -2.8293536    2603.6708  0.066130012  0.065077328            6 
 3282000   0.73312199   -2.8389089    2605.9324  0.066167287  0.065065946            8 
 3283000    0.7376055   -2.8241125    2607.0028  0.066174301  0.065054385            3 
 3284000    0.7337925   -2.8266507    2594.7505  0.065843243  0.065042859            6 
 3285000   0.72124264   -2.8007988    2604.4469  0.066069176   0.06503142            3 
 3286000   0.72111957   -2.7990954    2606.8344  0.066109615  0.065019904            4 
 3287000   0.73176989   -2.8381325    2607.4886  0.066106089   0.06500845            8 
 3288000   0.71525306    -2.825864    2602.8432  0.065968249  0.064996998            3 
 3289000   0.72004752   -2.8371022    2608.8552  0.066100518  0.064985425            3 
 3290000   0.73213826   -2.8285558    2601.3017  0.065889101  0.064973963            6 
 3291000   0.73191513   -2.8179934    2603.0646  0.065913719  0.064962368            3 
 3292000   0.72303134   -2.8152568    2596.1652  0.065719046  0.064950774            4 
 3293000   0.72163453   -2.8510126    2607.2822  0.065980417  0.064939239            6 
 3294000    0.7177393   -2.8380475    2605.6277  0.065918531  0.064927677            6 
 3295000   0.73668428    -2.837254     2603.719  0.065850252  0.064916043           14 
 3296000   0.71264261   -2.8379983    2610.4106  0.065999458  0.064904513            3 
 3297000    0.7241563   -2.8189563    2606.3921  0.065877872  0.064893126            7 
 3298000   0.71989187   -2.8377866    2611.4527  0.065985766   0.06488158            8 
 3299000   0.72675017   -2.8404521    2612.8199    0.0660003  0.064869949            4 
 3300000   0.72021222   -2.8159695    2612.1584  0.065963595  0.064858466            5 
 3301000   0.72809138   -2.8254488     2607.313  0.065821291  0.064846859            8 
 3302000   0.71519211   -2.8335756    2606.6769  0.065785305  0.064835314            8 
 3303000   0.72776989   -2.8269623    2609.9094  0.065846942  0.064823587            3 
 3304000   0.72147629    -2.857053    2607.6757  0.065770674  0.064811894            6 
 3305000   0.72314365   -2.8238016    2606.8211  0.065729225  0.064800283            4 
 3306000   0.72741261    -2.828832    2612.1808  0.065844445  0.064788748            4 
 3307000   0.69714744   -2.8461082    2604.5234  0.065631576  0.064777097            4 
 3308000   0.72061063    -2.840283    2601.7214  0.065541148  0.064765407            4 
 3309000   0.72352946   -2.8261704    2607.7981  0.065674375  0.064753682            4 
 3310000   0.72297289   -2.8435944    2609.8152  0.065705317  0.064741997           22 
 3311000   0.72319841   -2.8155304    2613.3152  0.065773562   0.06473033            4 
 3312000   0.71656271   -2.8158689     2606.205  0.065574805  0.064718703            5 
 3313000    0.7180665   -2.8384805    2618.4422  0.065862819    0.0647071            3 
 3314000   0.72993107   -2.8375961    2608.7037   0.06559806   0.06469539            8 
 3315000    0.7168876    -2.860372    2610.2865  0.065618061  0.064683652            4 
 3316000   0.73598818    -2.830625    2603.1595  0.065419168  0.064672045            6 
 3317000   0.71719237   -2.8305847    2612.2411  0.065627602  0.064660304            4 
 3318000   0.70920391   -2.8269686    2613.6427  0.065643024  0.064648623            7 
 3319000   0.74061176    -2.832323    2606.9668  0.065455629  0.064636871            2 
 3320000   0.70235643   -2.8453132     2614.098   0.06561491  0.064625274            3 
 3321000   0.71804922   -2.8321982    2609.7252  0.065485427  0.064613506            4 
 3322000   0.71076323   -2.8443699    2615.0113  0.065598316  0.064601792            3 
 3323000   0.71625205   -2.8148383    2609.7316  0.065446174  0.064590162            5 
 3324000   0.70999826    -2.839455     2607.827  0.065378736  0.064578495           11 
 3325000    0.7141075   -2.8429456    2617.6348  0.065604882  0.064566883            8 
 3326000   0.71581225   -2.8231694    2610.1961  0.065398781  0.064555254           10 
 3327000    0.7415949   -2.8432639    2609.3932  0.065359012  0.064543594            5 
 3328000   0.71390727   -2.8284358    2605.1104  0.065232131  0.064531886            6 
 3329000   0.71830753   -2.8469955     2609.558   0.06532387  0.064520214            5 
 3330000   0.72440431   -2.8453131    2612.1985  0.065370332  0.064508537            4 
 3331000    0.7185641   -2.8380037    2615.4619  0.065432351  0.064496852            6 
 3332000   0.73010266   -2.8213523    2606.1941  0.065180926  0.064485167            3 
 3333000   0.70901662    -2.862509    2610.0352  0.065257407  0.064473388            4 
 3334000   0.69892187   -2.8378351    2608.2489  0.065193184  0.064461583            6 
 3335000   0.71336644   -2.8534758    2611.1364  0.065245788  0.064449756           10 
 3336000   0.71569766   -2.8545941    2610.0313  0.065198623  0.064437941            4 
 3337000   0.70223681   -2.8526796    2606.9015  0.065100927  0.064426054            3 
 3338000   0.71942824   -2.8242493    2609.6443  0.065149898  0.064414254           11 
 3339000   0.71454623   -2.8506311    2616.7002  0.065306483  0.064402568            3 
 3340000   0.73655997   -2.8587248    2615.2171  0.065249929  0.064390658            6 
 3341000   0.71787245   -2.8332778    2619.7472  0.065343389  0.064378867            5 
 3342000   0.72502858   -2.8186528    2617.6866  0.065272458  0.064367218           10 
 3343000    0.7204788   -2.8514159    2616.7058  0.065228482  0.064355374            6 
 3344000   0.72086487   -2.8305936    2613.8077  0.065136755  0.064343659            5 
 3345000   0.72084694   -2.8245028    2613.2511  0.065103416    0.0643319            2 
 3346000   0.71257047   -2.8236514    2619.4177  0.065237539  0.064320085            6 
 3347000   0.70842956   -2.8379556    2624.6178  0.065347519  0.064308324            4 
 3348000   0.71483265   -2.8288145    2622.4618  0.065274337  0.064296701            5 
 3349000   0.71400877   -2.8548143    2615.9901   0.06509381  0.064284933            7 
 3350000   0.72632689   -2.8257041    2626.1874  0.065328045   0.06427329            6 
 3351000   0.70333998   -2.8567162    2626.7142   0.06532165  0.064261532            2 
 3352000   0.70175588   -2.8556549    2616.2142  0.065041124  0.064249813            7 
 3353000   0.71253867   -2.8350949    2616.6129  0.065031637  0.064238097            2 
 3354000   0.71330277   -2.8522364    2615.8223  0.064992604  0.064226405            3 
 3355000   0.70631471   -2.8656906    2616.0163   0.06497805  0.064214666            4 
 3356000   0.72724372   -2.8395014    2624.8047  0.065176915  0.064202966            3 
 3357000   0.70940475   -2.8517224    2621.8729  0.065084721  0.064191276            9 
 3358000   0.71486088   -2.8325583    2625.4042  0.065152973  0.064179638            3 
 3359000     0.715952   -2.8565599    2626.3286  0.065156511  0.064167904            4 
 3360000   0.71860541   -2.8535098    2625.1978  0.065109072  0.064156294           10 
 3361000   0.70907523   -2.8545746    2617.7376  0.064904731  0.064144573            4 
 3362000   0.71904856   -2.8447701    2630.7057  0.065206863  0.064132903            4 
 3363000   0.72541858   -2.8608073     2617.628  0.064863417  0.064121144            2 
 3364000   0.71725017    -2.837736     2625.816  0.065046969  0.064109521            3 
 3365000   0.71482365   -2.8481091    2625.7229  0.065025332   0.06409789            6 
 3366000   0.72134739   -2.8454409    2624.5675   0.06497741  0.064086213            2 
 3367000   0.72258695   -2.8363773    2627.1666  0.065022439  0.064074615            9 
 3368000   0.71964558   -2.8522305    2625.1652  0.064953613  0.064063065            3 
 3369000    0.7311813   -2.8453474    2626.6347  0.064970681  0.064051442            6 
 3370000    0.7191311   -2.8575488    2634.2363  0.065139375  0.064039914            4 
 3371000   0.69734783   -2.8647575    2626.4418  0.064927367  0.064028289            5 
 3372000   0.72175299   -2.8392896    2627.0766    0.0649238  0.064016758            2 
 3373000   0.71225126     -2.84225    2620.5157  0.064742456  0.064005013            3 
 3374000   0.71569698   -2.8396539    2632.1694  0.065011098  0.063993408            5 
 3375000    0.7132208    -2.836265    2615.5361  0.064581139  0.063981773            4 
 3376000   0.71593922   -2.8575156    2628.4464  0.064880688   0.06397015            5 
 3377000   0.71210612   -2.8462712    2630.6741  0.064916447  0.063958492            3 
 3378000   0.71655219    -2.857746    2632.8398  0.064950656  0.063946955            5 
 3379000   0.71723728   -2.8330527    2627.0271   0.06478808  0.063935326            5 
 3380000   0.70048624   -2.8595397     2631.748  0.064885305  0.063923726            5 
 3381000    0.7184816    -2.846485    2625.1607  0.064703754  0.063912122            9 
 3382000   0.71260498   -2.8621494    2635.0635  0.064928629  0.063900511            4 
 3383000   0.72259914   -2.8234732    2627.1512  0.064714532   0.06388894            4 
 3384000   0.71173939   -2.8348338    2632.9149  0.064837344  0.063877304            6 
 3385000   0.70341437    -2.844105    2637.4671   0.06493026  0.063865752            5 
 3386000   0.71718813   -2.8562362    2619.7887  0.064475996  0.063854077            4 
 3387000   0.71522523   -2.8422865    2626.4677  0.064621289  0.063842561           11 
 3388000   0.70597996   -2.8666283     2636.096  0.064839041  0.063831004            4 
 3389000   0.71592513   -2.8469741    2635.4796  0.064804751  0.063819534            3 
 3390000   0.71050568   -2.8420646    2631.9798  0.064699602  0.063808078            7 
 3391000   0.70544485   -2.8579499    2629.9402    0.0646304  0.063796694            8 
 3392000   0.72327152   -2.8560586    2637.2359  0.064790583   0.06378521            4 
 3393000   0.70298254   -2.8484342    2637.0945  0.064768016  0.063773753            4 
 3394000    0.7125943   -2.8539918     2634.413  0.064683093  0.063762352            7 
 3395000    0.7108257   -2.8669422     2637.788  0.064746883  0.063750817            5 
 3396000   0.70607445   -2.8363073    2644.7255  0.064898054   0.06373931            4 
 3397000   0.71358722   -2.8532924    2635.7155   0.06465792  0.063727718            7 
 3398000   0.70699098   -2.8427092    2642.4797   0.06480478  0.063716169            3 
 3399000   0.71278504   -2.8409681    2636.6258  0.064642194  0.063704606            5 
 3400000   0.70509179    -2.874497    2637.6746  0.064648888  0.063693128            4 
 3401000   0.70629602   -2.8610903    2645.6328  0.064824875  0.063681485            6 
 3402000   0.71380256   -2.8580142    2643.5921  0.064755832  0.063669945            4 
 3403000   0.69886444   -2.8342587    2643.8739  0.064743704  0.063658398            7 
 3404000   0.72275988   -2.8529701    2644.2953  0.064735001  0.063646764            4 
 3405000    0.7260029   -2.8463949    2634.0996   0.06446646  0.063635338            4 
 3406000   0.70657709   -2.8517202    2636.2382  0.064499859  0.063623865           10 
 3407000   0.71554303   -2.8371962    2651.6776  0.064858565  0.063612375            3 
 3408000   0.71768245   -2.8812205    2630.6195  0.064324615  0.063600779            3 
 3409000   0.70880745   -2.8547827    2640.8302  0.064555348  0.063589051            6 
 3410000   0.70606926   -2.8564522    2638.4114  0.064477306  0.063577474            6 
 3411000   0.69605105   -2.8390341    2637.1832  0.064428399  0.063565896            7 
 3412000   0.70458854   -2.8744399    2628.2005  0.064190126    0.0635542            5 
 3413000   0.71671267   -2.8646981    2643.9484  0.064555826   0.06354241            5 
 3414000   0.70772865   -2.8464566    2644.1072  0.064540794  0.063530719            5 
 3415000   0.70052897   -2.8414918     2641.677  0.064462592  0.063519118            4 
 3416000   0.70012004   -2.8738322    2642.4011  0.064461384  0.063507457            3 
 3417000   0.69597341   -2.8559493    2641.5779  0.064422444  0.063495768            3 
 3418000    0.7159865    -2.866353    2640.6343  0.064380591  0.063484056            3 
 3419000   0.71399116   -2.8628604    2638.4267  0.064307954  0.063472378            3 
 3420000   0.70764266   -2.8642227    2647.0575  0.064499451  0.063460689            3 
 3421000   0.70016072   -2.8438881    2629.4317  0.064051244  0.063449054            3 
 3422000     0.703972   -2.8823167    2639.8702  0.064286729  0.063437337            6 
 3423000    0.7298976   -2.8475293    2638.9249  0.064244933  0.063425568            4 
 3424000   0.71083234   -2.8631999    2640.5914  0.064266729  0.063413935            4 
 3425000   0.69022612   -2.8098986    2653.2288  0.064555445  0.063402283           11 
 3426000   0.71197866    -2.850188    2640.8613  0.064235779  0.063390721            3 
 3427000   0.68765289   -2.8555953    2639.7381  0.064189722  0.063378972            4 
 3428000   0.70998611   -2.8665568    2630.2033  0.063939209  0.063367368            6 
 3429000    0.7130781   -2.8637408    2644.0039  0.064255953  0.063355504            4 
 3430000   0.70107395   -2.8696446    2643.8013  0.064232296  0.063343667            5 
 3431000   0.70399261   -2.8458935    2649.3576  0.064348528  0.063331934            2 
 3432000    0.7102016    -2.857519    2644.2557  0.064205898  0.063320267            3 
 3433000   0.71184283     -2.86861    2634.9233  0.063960658  0.063308586            7 
 3434000   0.69040552   -2.8534024    2645.6493  0.064202322  0.063296889            4 
 3435000    0.6973201   -2.8589115     2639.722  0.064039834  0.063285156            6 
 3436000   0.69216095   -2.8756714    2644.7281   0.06414261  0.063273529            8 
 3437000   0.71368714    -2.865735    2644.2512  0.064112384  0.063261903            8 
 3438000   0.70672342   -2.8625131    2652.0793  0.064283482  0.063250287            8 
 3439000   0.71032405   -2.8602996    2652.2364  0.064268595   0.06323868            8 
 3440000   0.70929676   -2.8719263    2645.9877  0.064098538   0.06322704            7 
 3441000   0.70541621    -2.848211    2648.2497  0.064134693  0.063215402            4 
 3442000   0.70819176   -2.8514636    2653.9403  0.064253833  0.063203888            3 
 3443000   0.70522158     -2.88171    2645.5831  0.064032896  0.063192265            8 
 3444000   0.71245555   -2.8710911    2642.6594  0.063943559  0.063180485            4 
 3445000   0.68819924   -2.8704082    2638.8676  0.063833276  0.063168749            7 
 3446000   0.70372249   -2.8622244    2654.8387  0.064200975  0.063157206            3 
 3447000   0.69509643   -2.8790595    2644.0629  0.063921837  0.063145555            4 
 3448000   0.69995463   -2.8816563    2655.8609  0.064188441  0.063133962            7 
 3449000   0.70523679   -2.8586036    2653.2154  0.064105909  0.063122427            7 
 3450000   0.68267154   -2.8737122    2660.8912  0.064272734  0.063110953            7 
 3451000   0.70999363   -2.8688556    2657.3844   0.06416943  0.063099436            4 
 3452000   0.69364838   -2.8522565    2654.6283  0.064084307  0.063087947           10 
 3453000   0.69527616    -2.876382    2646.1038   0.06386002  0.063076432            8 
 3454000   0.72113554   -2.8721606    2653.7287  0.064025494  0.063064931            8 
 3455000    0.7025785   -2.8501764     2650.204  0.063921949  0.063053448            6 
 3456000   0.69972208   -2.8703208     2650.253  0.063904634  0.063042003            4 
 3457000    0.6993314   -2.8559548     2658.818  0.064092615  0.063030348            5 
 3458000    0.6989096    -2.870674    2648.1995  0.063818188  0.063018838            5 
 3459000    0.6997467   -2.8642166    2653.7805  0.063934192  0.063007332            3 
 3460000   0.70136778   -2.8669253    2652.4381  0.063883384  0.062995737            7 
 3461000   0.70656674   -2.8586661    2659.6056  0.064037505  0.062984349            6 
 3462000   0.70861839   -2.8836687    2645.3783  0.063676542  0.062972778            5 
 3463000   0.69657975    -2.868673    2654.1107  0.063868291  0.062961189            4 
 3464000   0.69728548   -2.8681547    2658.1446  0.063946898  0.062949656            2 
 3465000   0.70941697      -2.8423    2655.7838  0.063871664  0.062938193           11 
 3466000   0.69687164   -2.8775445    2666.4627  0.064109991  0.062926664            5 
 3467000   0.70746269   -2.8731387    2654.3149  0.063799513  0.062914995            4 
 3468000   0.69583204   -2.8486261    2654.0222  0.063774082  0.062903335            3 
 3469000   0.70627791   -2.8675523    2651.7534  0.063701195  0.062891719            4 
 3470000   0.68675572   -2.8477826     2650.678  0.063657012  0.062880163            4 
 3471000   0.68803301   -2.8500029    2658.5329  0.063827257  0.062868692            6 
 3472000   0.68892986   -2.8414672    2653.5006   0.06368809  0.062857174           10 
 3473000   0.69514853   -2.8679514    2657.5934  0.063767957  0.062845589            4 
 3474000   0.68951958   -2.8671501    2647.6706  0.063511578  0.062834018            3 
 3475000    0.6991751   -2.8623592    2656.2588  0.063699253  0.062822321            8 
 3476000   0.69600031   -2.8918649    2646.5863  0.063449039  0.062810789            6 
 3477000   0.69029208   -2.8766406     2658.932  0.063726679  0.062799193            3 
 3478000   0.69184772   -2.8681002    2667.3518  0.063910098  0.062787746            5 
 3479000   0.70601052   -2.8682345    2655.2065  0.063600807  0.062776307            6 
 3480000   0.69028071   -2.8551545    2664.5391  0.063806012  0.062764762            6 
 3481000   0.69687928   -2.8745232    2657.2509  0.063613208  0.062753281            4 
 3482000   0.68698575   -2.8791415    2656.3309  0.063572919  0.062741724            3 
 3483000   0.71449171   -2.8619773    2658.6926  0.063611173    0.0627301            6 
 3484000   0.70327218    -2.878303     2661.471  0.063659372  0.062718581           12 
 3485000   0.69643171   -2.8607863    2657.6853  0.063550581  0.062707079            5 
 3486000   0.67263033   -2.8789126    2663.3128  0.063666876  0.062695667            7 
 3487000   0.70322284   -2.8759774    2661.6914   0.06360987   0.06268414            5 
 3488000   0.70102989   -2.8757668    2671.5116  0.063826252  0.062672836            6 
 3489000   0.70659587   -2.8751415    2664.9396   0.06365099   0.06266138            8 
 3490000   0.68229056    -2.880799    2662.8705  0.063583346   0.06264999            5 
 3491000   0.69645005   -2.8555928    2660.4102  0.063506402  0.062638621            5 
 3492000   0.69407166   -2.8925883    2664.7644  0.063592125  0.062627238            8 
 3493000   0.68354537   -2.8823497    2658.4798  0.063423987   0.06261582            4 
 3494000   0.68863101   -2.8673152    2672.7712   0.06374669  0.062604307            6 
 3495000   0.69656132   -2.8701069    2664.2853  0.063526115  0.062592868            5 
 3496000   0.69099546   -2.8833264    2666.8094  0.063568111  0.062581319            6 
 3497000   0.68119337   -2.8867328    2669.5036  0.063614135  0.062569846            3 
 3498000   0.68664744   -2.8854484    2663.0958  0.063443297  0.062558302            6 
 3499000   0.68257132   -2.8766975    2670.6154  0.063604254  0.062546686            4 
 3500000   0.69064545   -2.8683752    2671.8757  0.063616088  0.062535248            4 
 3501000   0.67938414   -2.8702694    2674.9319  0.063670662  0.062523796            3 
 3502000   0.68200793   -2.8965556    2670.8422  0.063555164   0.06251239            6 
 3503000   0.70195179   -2.8872816    2669.8433  0.063513258  0.062500837            5 
 3504000   0.68716234   -2.8743422    2669.3992  0.063484571  0.062489406            7 
 3505000   0.70381875   -2.8806833    2666.4641  0.063396675  0.062477931            4 
 3506000   0.67032538   -2.8764188    2670.4668  0.063473732  0.062466499            4 
 3507000   0.70000072   -2.8581078    2673.2801  0.063522481  0.062455017            6 
 3508000   0.68371663   -2.8619946     2673.918  0.063519527   0.06244356            4 
 3509000   0.67777884    -2.902324    2661.5025  0.063206577   0.06243201            5 
 3510000   0.68381947   -2.8553222     2674.663  0.063501022  0.062420624            4 
 3511000    0.6875894   -2.8643519    2678.6517  0.063577606  0.062409228            3 
 3512000   0.67994541   -2.8675083    2666.9151  0.063281016  0.062397883            3 
 3513000   0.68933538   -2.8915939     2667.407  0.063274671  0.062386502            7 
 3514000   0.69331481   -2.8921269    2675.1219  0.063439619  0.062375035            6 
 3515000   0.68499166   -2.8875841     2664.211  0.063162897  0.062363613            4 
 3516000   0.69359615   -2.8830094    2678.8743   0.06349247   0.06235227            3 
 3517000   0.68309996   -2.8944516    2666.5594  0.063182622  0.062340999            4 
 3518000   0.67920341   -2.8846759    2674.5065   0.06335291  0.062329614            4 
 3519000   0.67129575   -2.8602135    2674.4501  0.063333572  0.062318301            3 
 3520000    0.7003916   -2.8964601    2676.4674  0.063363338   0.06230694            3 
 3521000   0.69604721   -2.8875246    2671.5829  0.063229739  0.062295632            4 
 3522000   0.67375889   -2.9074411    2670.5754  0.063187946  0.062284225            9 
 3523000   0.69315038   -2.8826899    2674.8074  0.063270115   0.06227288            4 
 3524000   0.70110179   -2.8672018    2678.7282  0.063344877  0.062261646            4 
 3525000    0.6889671   -2.8784423    2679.9446  0.063355663  0.062250412            6 
 3526000   0.68566386   -2.8805754    2674.0897  0.063199321   0.06223915            6 
 3527000   0.67989992    -2.893236    2687.1536  0.063490067  0.062227907            5 
 3528000   0.68594568   -2.9010219    2668.2782  0.063026223  0.062216556            8 
 3529000   0.68336894   -2.8804054    2670.8168  0.063068311  0.062205162            4 
 3530000   0.67419156   -2.8729744    2679.8688  0.063264137  0.062193864            5 
 3531000   0.68938471   -2.8638178    2679.9591  0.063248351  0.062182539            7 
 3532000   0.67410609   -2.8801891    2675.1013   0.06311583  0.062171271            4 
 3533000   0.70541686     -2.87068    2689.3836  0.063434843  0.062159883            3 
 3534000   0.68746178    -2.873579    2681.3895  0.063228387  0.062148635            3 
 3535000     0.678368   -2.8906905    2681.4939  0.063212964  0.062137318            4 
 3536000   0.67468561   -2.8865722     2673.543  0.063007706  0.062125912            9 
 3537000   0.68068829   -2.8867995    2677.6183  0.063085909  0.062114635            5 
 3538000   0.68666319   -2.8722176    2685.0176  0.063242359  0.062103407            6 
 3539000   0.68849506   -2.8859867    2680.8301  0.063125885  0.062092075            6 
 3540000   0.68311659   -2.8850322      2677.93  0.063039784  0.062080674            9 
 3541000   0.68023615   -2.8979025    2680.9102  0.063092117  0.062069305            3 
 3542000   0.67930168   -2.8988214    2679.0354  0.063030194  0.062057877            7 
 3543000   0.68798523   -2.8818914    2686.9536  0.063198645  0.062046612            6 
 3544000     0.696484       -2.886    2686.4537  0.063169058  0.062035334            3 
 3545000   0.69113459   -2.8787846    2680.1819  0.063003806  0.062023973            5 
 3546000   0.67993067   -2.8667801    2688.9967  0.063193192  0.062012665            6 
 3547000   0.68526118   -2.8958011    2680.7714   0.06298213  0.062001366            6 
 3548000   0.67091238   -2.8909691    2684.5595  0.063053351  0.061989959            6 
 3549000   0.68675882   -2.8778689    2678.2384  0.062887161  0.061978537            4 
 3550000   0.68079648   -2.8774611    2681.8599  0.062954457  0.061967219            5 
 3551000   0.68465712   -2.8759568    2683.2288  0.062968854  0.061955786            8 
 3552000   0.67435724   -2.8909581    2691.1933   0.06313798  0.061944433            8 
 3553000   0.67782217   -2.8829358    2679.1849   0.06283856  0.061933136            6 
 3554000   0.68696042   -2.8951074    2681.3966   0.06287274  0.061921871            4 
 3555000   0.68619372   -2.8862898    2685.4889  0.062950982  0.061910545            6 
 3556000    0.6709242    -2.898155    2681.8041  0.062846928  0.061899216            7 
 3557000   0.67176815   -2.8826122    2672.7655  0.062617504  0.061887826            6 
 3558000   0.68044037   -2.8977951    2688.4179  0.062966505  0.061876492            5 
 3559000   0.67454898    -2.881726    2682.3467  0.062806656  0.061865221            8 
 3560000   0.69234558   -2.8950665    2688.4363  0.062931561  0.061853803            4 
 3561000   0.67907238   -2.8791384    2695.5888  0.063081269  0.061842525            8 
 3562000   0.67341945   -2.8852461    2684.3565  0.062800779  0.061831376            3 
 3563000   0.67690603   -2.8966822     2684.679  0.062790696  0.061820092            6 
 3564000   0.69971516   -2.8752511    2689.3517  0.062882336  0.061808847            4 
 3565000   0.68350901    -2.889477    2692.7033  0.062943041  0.061797533            5 
 3566000   0.68361632   -2.8980464    2690.1262  0.062865165  0.061786164            4 
 3567000   0.69247914   -2.8981275    2691.7824  0.062886236  0.061774898            3 
 3568000    0.6800713   -2.8959369    2685.9055  0.062731351  0.061763497            7 
 3569000   0.67896407   -2.9049228    2682.1974  0.062627192  0.061752073           13 
 3570000   0.68065377   -2.9051944    2685.2179  0.062680157  0.061740616            3 
 3571000   0.67268005   -2.8896119    2690.9618  0.062796644  0.061729153            5 
 3572000   0.69206523   -2.8818652    2689.5367  0.062745817  0.061717705            7 
 3573000   0.68678101   -2.8802797    2699.3951  0.062958185  0.061706267            5 
 3574000   0.68153476   -2.8901329    2693.3175  0.062798859  0.061694946            4 
 3575000    0.6804136   -2.9069263    2681.1661  0.062498044  0.061683559            7 
 3576000   0.67949129   -2.8747688    2693.2331   0.06276177  0.061672193            7 
 3577000   0.67418282   -2.8927838    2687.6372  0.062613857  0.061660866            4 
 3578000    0.6897355   -2.9064739    2690.7756  0.062669451  0.061649459            5 
 3579000   0.66576382   -2.8760355    2693.3029  0.062710788  0.061638085            7 
 3580000   0.67728105   -2.8772017    2685.2537  0.062505906  0.061626726           11 
 3581000   0.66703281   -2.8798122    2695.8288  0.062734544  0.061615327            9 
 3582000   0.68377535   -2.8906326       2683.3  0.062425553  0.061604005            3 
 3583000   0.65660773   -2.8788654     2696.806  0.062722254  0.061592606            3 
 3584000   0.67401895   -2.8994901    2685.0897  0.062432331  0.061581282            4 
 3585000   0.68841929   -2.8871191    2697.2772  0.062698215  0.061569984            7 
 3586000   0.68056373   -2.8909164    2694.7528  0.062622068  0.061558615            2 
 3587000   0.67862097   -2.8913184    2698.3051  0.062687135   0.06154734            4 
 3588000   0.68547246   -2.9063131    2692.3155  0.062530553  0.061535963            5 
 3589000   0.68077948    -2.892623    2694.9295  0.062573826    0.0615246           12 
 3590000   0.69012327   -2.9150944    2685.4103  0.062335429  0.061513162            5 
 3591000   0.68885474   -2.9077682    2691.4631  0.062458532  0.061501772            3 
 3592000   0.68600591   -2.9093364    2696.4364  0.062556525  0.061490377           10 
 3593000   0.68641728   -2.9117601    2688.4744  0.062354448  0.061479052            3 
 3594000     0.686635    -2.891173    2691.7561  0.062413191  0.061467583            5 
 3595000   0.67172828   -2.9059634    2697.7608  0.062535021  0.061456159            7 
 3596000   0.68019108   -2.9263805    2691.1079  0.062363456   0.06144472            9 
 3597000   0.68736447   -2.8913805     2695.768  0.062454081  0.061433252            5 
 3598000   0.69797644   -2.9078932    2691.3829  0.062335161  0.061421773            7 
 3599000   0.66576511   -2.8940563    2691.7916  0.062327303  0.061410306            5 
 3600000   0.68464922   -2.8877604    2690.8574  0.062288365   0.06139885            3 
 3601000   0.67039376   -2.9061163    2690.7896    0.0622695  0.061387292            7 
 3602000   0.67728089   -2.9002857    2692.4947  0.062291659  0.061375774            4 
 3603000   0.70100327   -2.9104063     2687.762  0.062164908  0.061364312            7 
 3604000   0.68088816   -2.9144243    2693.3085  0.062275909  0.061352918            6 
 3605000   0.68512876   -2.8729942    2688.4039  0.062145258  0.061341494           11 
 3606000   0.66866559   -2.8971358    2693.4634  0.062244948  0.061330056            7 
 3607000   0.67469096   -2.8997598    2696.9351  0.062307898  0.061318549            4 
 3608000    0.6649528   -2.9141346    2698.7065  0.062331544  0.061307038            3 
 3609000   0.68196926   -2.9006271    2699.9263  0.062342437  0.061295558            4 
 3610000   0.67233207    -2.874169    2692.4267  0.062152048  0.061284102            5 
 3611000   0.67793567   -2.8797583    2705.2479   0.06243072  0.061272579            5 
 3612000   0.67618385   -2.8880864    2690.7218  0.062078299  0.061261161            5 
 3613000   0.67454817   -2.8776824    2698.8823  0.062249337  0.061249736            5 
 3614000   0.69058755   -2.9106839    2693.5331  0.062108769  0.061238347            4 
 3615000   0.66004161    -2.895532    2700.3984  0.062249847  0.061226814            9 
 3616000   0.66373976   -2.8996205    2689.9755   0.06199243  0.061215412            5 
 3617000   0.67143501   -2.9181682     2698.098  0.062162428  0.061203921            7 
 3618000   0.66331383   -2.8938879    2698.0917  0.062145101  0.061192464            5 
 3619000   0.68841908   -2.9068402    2692.9626  0.062009823  0.061181097            4 
 3620000   0.68180434   -2.8972876    2707.8815  0.062336129  0.061169745            5 
 3621000   0.67405926   -2.8931736    2696.4432  0.062055674  0.061158454            3 
 3622000   0.66178433   -2.9263052    2705.9265   0.06225673  0.061147258            5 
 3623000   0.66534084   -2.8988185    2704.7263  0.062211939  0.061135927            3 
 3624000   0.67064231   -2.9108581    2705.2131  0.062205968  0.061124581            6 
 3625000   0.66849779   -2.9169656    2708.5781  0.062266163   0.06111331            7 
 3626000   0.68710601   -2.8989147    2710.2104  0.062286504  0.061102099            8 
 3627000   0.66647259   -2.8766893    2702.8009  0.062099092  0.061090844            9 
 3628000   0.65637936   -2.8992852     2711.799  0.062288657   0.06107959            4 
 3629000   0.68453133   -2.8958231    2707.0222  0.062161803  0.061068319           10 
 3630000   0.68641891    -2.904653    2702.7577  0.062046778  0.061057095            5 
 3631000   0.67392168   -2.8848214    2706.5932  0.062117717  0.061045916            5 
 3632000   0.67081013   -2.8973193    2709.6926  0.062171729  0.061034745            5 
 3633000   0.65976751   -2.9060052    2703.0755  0.062002833  0.061023547            7 
 3634000   0.66371375   -2.9142273    2707.8566  0.062095409  0.061012315            8 
 3635000   0.69031459   -2.8842014    2706.7079  0.062051992  0.061001072            4 
 3636000   0.66609683   -2.9112647    2709.0496  0.062088596  0.060989858            6 
 3637000   0.68138124   -2.8863443      2712.57  0.062152185  0.060978626            5 
 3638000   0.67617472   -2.9137534    2710.1515  0.062079703  0.060967386            3 
 3639000    0.6749016    -2.916398    2713.0194  0.062128318  0.060956067            9 
 3640000   0.65665015   -2.9098342    2703.5364  0.061894148  0.060944868            7 
 3641000   0.67185398   -2.9196464    2716.1704   0.06216631  0.060933704            6 
 3642000   0.66615708   -2.8849431    2707.1845  0.061943633  0.060922539            4 
 3643000   0.67755339   -2.8931556     2707.192  0.061926801  0.060911285            6 
 3644000   0.65276343   -2.9183721    2705.1183  0.061862384  0.060900044            5 
 3645000   0.65953918   -2.9180528    2709.3726  0.061942674  0.060888859            6 
 3646000   0.67027938   -2.8977206    2699.0446  0.061689627  0.060877638           14 
 3647000    0.6566657    -2.916932    2717.0803  0.062084824  0.060866335            4 
 3648000   0.68240599   -2.9148371    2711.6423  0.061943583  0.060855122            6 
 3649000   0.66661205   -2.8916602    2709.0395  0.061867168  0.060843953            3 
 3650000   0.67570163   -2.9054548    2711.3942  0.061903977  0.060832669            7 
 3651000   0.67212641   -2.9036944    2711.7544  0.061895243  0.060821361            5 
 3652000   0.67628906   -2.9108023    2704.5981  0.061714998   0.06080995            8 
 3653000   0.64837378   -2.9028169    2713.1371  0.061892899  0.060798528            8 
 3654000   0.65815214   -2.9298305     2700.468  0.061587028  0.060787139            8 
 3655000   0.66099194   -2.9039212    2711.3164   0.06181752  0.060775702            6 
 3656000   0.66241696   -2.9052168    2698.3481  0.061505017  0.060764379            4 
 3657000   0.66201277   -2.9281609    2714.1296  0.061847816  0.060753051           12 
 3658000   0.66695725   -2.9205749    2725.3898   0.06208743  0.060741702            7 
 3659000   0.68553149   -2.9079936    2715.2348  0.061839182  0.060730431            5 
 3660000   0.67378258   -2.9248119    2700.0514   0.06147658  0.060719186            5 
 3661000   0.66342151   -2.9135267    2713.1572  0.061758108  0.060707839            5 
 3662000   0.68010808   -2.9093966    2710.2376  0.061674805  0.060696581            6 
 3663000   0.65828904   -2.9298683    2719.3337  0.061864905  0.060685384            8 
 3664000   0.65580758   -2.9172302    2712.4381  0.061691186  0.060674047            4 
 3665000   0.67888632   -2.9128929    2715.2418  0.061738103  0.060662715           10 
 3666000   0.65435388   -2.9110528    2720.4913  0.061840591  0.060651348            4 
 3667000   0.67114067   -2.9131533    2702.0157  0.061403866   0.06063994            4 
 3668000   0.66680994   -2.9025726    2716.5954   0.06171836  0.060628577            4 
 3669000   0.65939392   -2.9248881    2715.6354  0.061679736  0.060617352            5 
 3670000   0.66314104   -2.9149315    2714.4712  0.061636495  0.060606057            8 
 3671000   0.65872001   -2.9198595    2723.2237   0.06181839   0.06059474            4 
 3672000   0.66272539   -2.8892188     2711.678  0.061539534  0.060583376            4 
 3673000   0.66873079    -2.911605    2711.2388  0.061512814  0.060572116            5 
 3674000   0.66505041    -2.903188    2718.5651  0.061662247  0.060560869            4 
 3675000     0.668637   -2.9158513    2715.6549  0.061579476  0.060549585            3 
 3676000    0.6558957   -2.8872756    2718.7462  0.061632804  0.060538279            6 
 3677000   0.65944459    -2.930428    2706.6526  0.061341958  0.060527007            4 
 3678000   0.66478931   -2.9081849    2713.2264  0.061474225    0.0605157            7 
 3679000   0.66199037   -2.9027703    2722.7513  0.061673264  0.060504395            4 
 3680000   0.64950242   -2.9313623     2710.953  0.061389334  0.060493094            5 
 3681000    0.6682672    -2.909206    2716.3646  0.061495169  0.060481761            8 
 3682000   0.67871412   -2.9031557    2719.4082  0.061547352   0.06047051            3 
 3683000    0.6604933   -2.9298201    2718.2431  0.061504278  0.060459334            8 
 3684000   0.65058019   -2.9019631    2713.7188  0.061385243  0.060448034            6 
 3685000   0.66213333    -2.906776    2720.1385   0.06151376  0.060436821            9 
 3686000   0.65983417   -2.9276691    2725.7811   0.06162464  0.060425709            7 
 3687000   0.66978445   -2.9243696     2722.201  0.061527008   0.06041452            5 
 3688000   0.65593272   -2.9229843     2724.676  0.061566251  0.060403436            4 
 3689000   0.66589262   -2.9133798     2733.784  0.061755308  0.060392383           10 
 3690000   0.66191472   -2.9431223    2718.3444  0.061389891  0.060381289           13 
 3691000   0.65678429   -2.9341766    2718.8482  0.061384634  0.060369991            8 
 3692000   0.66793459   -2.8937997    2725.4717  0.061517509  0.060358858            4 
 3693000   0.65447089   -2.9241971    2722.9424  0.061443775  0.060347667            4 
 3694000   0.66434303   -2.9307151    2716.6852  0.061285986  0.060336508            9 
 3695000    0.6660193   -2.9058722    2725.8786  0.061476738  0.060325276            7 
 3696000   0.66511397   -2.9421998    2719.3154  0.061312126  0.060314047            9 
 3697000   0.66526357   -2.9291206    2727.8579  0.061488096  0.060302818            6 
 3698000   0.65846756   -2.9330759    2718.4962  0.061260506  0.060291477            3 
 3699000     0.661442   -2.9160371    2726.2669  0.061419008  0.060280331            4 
 3700000   0.65761942   -2.9320692    2721.6897  0.061299318  0.060269188            6 
 3701000   0.65469861   -2.9287976    2726.4822  0.061390666  0.060258012           10 
 3702000   0.65772705    -2.920728    2724.6337  0.061332472  0.060246847            4 
 3703000   0.63350746   -2.9134685    2725.9523  0.061345581  0.060235723            6 
 3704000   0.66541137   -2.9044824    2736.4339  0.061564837  0.060224694           11 
 3705000   0.66395694   -2.9433083    2726.7952  0.061331426    0.0602136            5 
 3706000   0.64697546   -2.9227539    2737.4956  0.061555487  0.060202494            4 
 3707000    0.6684755   -2.9301101    2720.8236  0.061164095  0.060191401            4 
 3708000   0.65896158   -2.9293766    2725.2878  0.061247927  0.060180293            9 
 3709000   0.68849731   -2.9258421    2727.1694   0.06127369  0.060169227            4 
 3710000   0.65715771   -2.9244381    2732.1949  0.061370056  0.060158134            4 
 3711000   0.64801486   -2.9132826    2726.9104  0.061234852  0.060147019            9 
 3712000   0.66283964   -2.9339723    2723.7147  0.061146613  0.060135863           12 
 3713000   0.65364668   -2.9412313    2732.4102  0.061325303   0.06012476           10 
 3714000   0.65413877   -2.9181354    2729.4698  0.061242815  0.060113522            5 
 3715000   0.65822955   -2.9140483    2731.2168  0.061265518  0.060102402           11 
 3716000    0.6482923   -2.9155792    2737.4622  0.061389087  0.060091291           12 
 3717000   0.66809428   -2.9333529    2728.3006  0.061167174  0.060080247            4 
 3718000   0.65364958   -2.9492966    2735.7553  0.061317807  0.060069126            5 
 3719000   0.65418021   -2.9210552    2731.6391  0.061209087  0.060057906            4 
 3720000   0.67237928    -2.912283     2732.039   0.06120159  0.060046794            4 
 3721000   0.65906546   -2.9466502    2723.4014    0.0609917  0.060035695            7 
 3722000   0.65112485   -2.9493447    2724.9843  0.061010754  0.060024485           11 
 3723000   0.65750736   -2.9345299    2734.1304  0.061199088  0.060013314            9 
 3724000    0.6542441   -2.9405924    2730.6945  0.061105766  0.060002175            4 
 3725000     0.666149   -2.9518116    2722.6446  0.060909275  0.059991036            4 
 3726000   0.66487663   -2.9135338    2733.1712   0.06112836  0.059980016            4 
 3727000   0.64866778   -2.9140268    2736.5262  0.061186973  0.059969004            4 
 3728000   0.66014512   -2.9272057    2738.1273  0.061206351  0.059957918            9 
 3729000   0.65176198   -2.9012032    2731.6837   0.06104594  0.059946855            8 
 3730000   0.66027212   -2.9350794    2735.7165  0.061119672  0.059935827            8 
 3731000   0.65358311   -2.9456865     2738.949   0.06117549    0.0599248            8 
 3732000   0.66309069   -2.9200678    2729.7092  0.060952778  0.059913696           10 
 3733000   0.66333433   -2.9136335    2740.0736  0.061167818  0.059902759            7 
 3734000   0.64545876   -2.9197401    2741.5221  0.061183764  0.059891637            8 
 3735000   0.63926159   -2.9169995    2730.2693  0.060916316   0.05988053            9 
 3736000   0.66270145   -2.9390247    2733.9453  0.060982005  0.059869483            6 
 3737000   0.65218868   -2.9276283    2734.8637  0.060986167  0.059858449            6 
 3738000   0.65430722   -2.9341833    2740.6623  0.061099124  0.059847421            9 
 3739000   0.65855028   -2.9067779    2726.8526  0.060774999  0.059836226            3 
 3740000   0.65633383   -2.9327771    2733.4724  0.060906247    0.0598251            5 
 3741000   0.64980299   -2.9393368    2734.4875  0.060912578  0.059814042            6 
 3742000   0.65825466   -2.9286157    2733.9627  0.060884613  0.059802908            3 
 3743000    0.6701012   -2.9169245    2737.0078  0.060936142  0.059791808            4 
 3744000   0.65503134   -2.9166496    2738.6572  0.060956579  0.059780723            5 
 3745000   0.65838824   -2.9272531    2734.3163  0.060843709  0.059769616            5 
 3746000   0.66959116    -2.953414    2729.0686  0.060710727  0.059758502            6 
 3747000   0.65096657   -2.9221505    2740.5651  0.060950208  0.059747309            6 
 3748000   0.65218727   -2.9448272     2731.518  0.060732791  0.059736135            6 
 3749000   0.63195567   -2.9294031    2741.5827  0.060940311  0.059725105            6 
 3750000   0.64566977   -2.9334028    2736.7632  0.060816961  0.059714001            8 
 3751000   0.66128256   -2.9233179    2737.1004  0.060808238  0.059702941            9 
 3752000   0.64204492   -2.9350375    2742.2587  0.060906599  0.059691929            5 
 3753000    0.6380962   -2.9311624    2732.5423  0.060674622  0.059680816            5 
 3754000   0.65467309   -2.9162026    2739.9458  0.060822806  0.059669769            3 
 3755000    0.6451008   -2.9517261    2739.8258  0.060803947  0.059658719            5 
 3756000    0.6605618   -2.9460027    2737.3389  0.060732581  0.059647473            8 
 3757000   0.66546618   -2.9313775    2739.5105  0.060764585  0.059636327            4 
 3758000   0.63582645   -2.9467942    2735.2578  0.060654111  0.059625192            5 
 3759000   0.64802191    -2.930204     2740.714  0.060758935  0.059613989            6 
 3760000   0.64108584   -2.9301936    2737.7804  0.060677757   0.05960289            5 
 3761000   0.64568464   -2.9173705    2746.8449  0.060862469  0.059591864            8 
 3762000   0.66120005   -2.9168668    2746.7161  0.060843437  0.059580844            2 
 3763000   0.65177529   -2.9279699    2742.1174  0.060725428  0.059569782            3 
 3764000   0.63580681   -2.9445816    2733.8607  0.060526493  0.059558733           12 
 3765000   0.66135917   -2.9414146    2733.4399  0.060501103  0.059547683            8 
 3766000   0.65502509   -2.9398711    2747.4301  0.060794612  0.059536583           17 
 3767000   0.66362376   -2.9565565    2733.8819  0.060478762  0.059525514            9 
 3768000   0.65385953    -2.937822    2740.9741  0.060619562  0.059514336            8 
 3769000   0.64805347   -2.9326343    2738.9329  0.060558346  0.059503165            5 
 3770000   0.64773331   -2.9271499    2746.9229  0.060718897   0.05949212            6 
 3771000   0.64412672   -2.9235655    2742.0164   0.06059437  0.059480998            6 
 3772000   0.63921827   -2.9357093    2741.0867  0.060557765  0.059469915            7 
 3773000   0.65584538   -2.9215987    2733.1436  0.060366278  0.059458798            6 
 3774000   0.63595433   -2.9239337    2747.8462  0.060674929  0.059447637            5 
 3775000   0.63774303   -2.9458358    2747.1286  0.060643014  0.059436489            7 
 3776000    0.6441536   -2.9441872    2731.6287  0.060284884  0.059425207           16 
 3777000   0.64193016    -2.953501    2739.1665  0.060435234  0.059414025            6 
 3778000   0.63966318   -2.9219928    2741.8517  0.060478465  0.059402952            3 
 3779000   0.65283786   -2.9410194    2745.2337   0.06053704  0.059391874            8 
 3780000   0.65874839   -2.9470751      2743.46  0.060481923  0.059380712            6 
 3781000   0.63804337   -2.9330548    2744.7116  0.060493512  0.059369563            5 
 3782000   0.65977117   -2.9355842    2752.8265  0.060656321  0.059358484            2 
 3783000   0.65806114   -2.9163498     2741.295  0.060386267  0.059347389           15 
 3784000   0.65573218    -2.934317    2745.1859  0.060455997  0.059336317            4 
 3785000   0.64769322   -2.9553816    2744.7041  0.060429417  0.059325267            7 
 3786000   0.64157247   -2.9339559    2747.6406  0.060478091  0.059314182            9 
 3787000   0.65340677   -2.9510846    2750.6393  0.060528106   0.05930308            4 
 3788000   0.65152117   -2.9493545    2743.7944  0.060361545  0.059291942            4 
 3789000   0.65054436   -2.9258956    2746.3327  0.060401441  0.059280783            4 
 3790000   0.65704409   -2.9285107    2751.6067  0.060501466  0.059269672            3 
 3791000   0.64686998   -2.9338446    2742.5211   0.06028579  0.059258567            7 
 3792000   0.64301333   -2.9522076    2748.3643  0.060398301  0.059247568            7 
 3793000   0.67035832   -2.9346455    2751.1041  0.060442573  0.059236441            7 
 3794000    0.6533737   -2.9527726    2746.5123  0.060325783  0.059225338           12 
 3795000   0.64253104   -2.9544081    2748.4489  0.060352414  0.059214138            7 
 3796000   0.64426147   -2.9547077    2744.3647  0.060246853   0.05920304            9 
 3797000   0.64123181    -2.944492    2741.9871  0.060178806   0.05919187            9 
 3798000   0.65761661   -2.9493491    2748.1669  0.060298554  0.059180774            5 
 3799000   0.64981367   -2.9629541    2757.7166  0.060492161  0.059169667            7 
 3800000   0.63667531   -2.9290639    2747.0467  0.060242253  0.059158553            3 
 3801000   0.64437694   -2.9522707    2746.6521  0.060217753  0.059147441            8 
 3802000   0.64827516   -2.9572311    2750.1497  0.060278576  0.059136285            5 
 3803000   0.63839085   -2.9309353    2752.2896  0.060309615  0.059125065            7 
 3804000   0.64743748   -2.9565423    2750.8717  0.060262699  0.059114005            8 
 3805000   0.63969277   -2.9444043    2746.6894  0.060155265  0.059102873            5 
 3806000    0.6303495   -2.9482203    2760.4142  0.060439968  0.059091758            9 
 3807000   0.62666349   -2.9335922    2746.6813  0.060123485  0.059080739            6 
 3808000   0.64662391   -2.9505615    2742.6205  0.060018831  0.059069697            7 
 3809000   0.65585523   -2.9469259    2750.7667  0.060181297  0.059058597            5 
 3810000   0.63130408   -2.9392823    2755.5242  0.060269558  0.059047544            4 
 3811000   0.64776687   -2.9330427    2751.3964  0.060163483  0.059036366            5 
 3812000   0.63520174   -2.9444529    2743.2913  0.059970517   0.05902526           11 
 3813000   0.65170256   -2.9607368     2741.335  0.059912034  0.059014068           10 
 3814000   0.64613863   -2.9461296    2742.3222  0.059917894  0.059002871            5 
 3815000   0.63305981   -2.9541196    2749.3769  0.060056288  0.058991639            5 
 3816000    0.6424892    -2.922692    2744.5599  0.059935358  0.058980509            5 
 3817000   0.64163627   -2.9545143    2747.9593  0.059993872  0.058969348           11 
 3818000   0.63878145   -2.9485467    2746.6784  0.059950202  0.058958082           10 
 3819000   0.63159391   -2.9400818    2749.9987  0.060006955  0.058946963            6 
 3820000   0.65390599   -2.9497694    2746.8735  0.059923069  0.058935753           11 
 3821000   0.63684616   -2.9384129    2756.1067  0.060108756  0.058924539            7 
 3822000   0.66436211   -2.9517098    2758.5871  0.060147111  0.058913322            6 
 3823000   0.65236592   -2.9117878    2751.6528  0.059980226  0.058902173            4 
 3824000   0.63653334    -2.947753    2750.0887  0.059930454   0.05889097            4 
 3825000    0.6375106   -2.9412334    2758.0885  0.060089074  0.058879724           10 
 3826000   0.63848596   -2.9683147    2750.5084  0.059908268  0.058868492            4 
 3827000    0.6456324   -2.9521277    2748.7558  0.059854451  0.058857224            5 
 3828000   0.64134853    -2.959188    2750.9143  0.059885805  0.058845935            7 
 3829000   0.63481806   -2.9482968    2752.7403  0.059909904  0.058834805           11 
 3830000   0.64986027   -2.9574524    2756.8149  0.059982917   0.05882365            8 
 3831000   0.64767992   -2.9475923    2759.8733  0.060033787  0.058812566            6 
 3832000   0.63890823   -2.9525478    2748.5632  0.059772164  0.058801459            7 
 3833000   0.63989965   -2.9358947    2755.1991  0.059900841  0.058790279            6 
 3834000   0.62860123   -2.9635075    2754.2715  0.059865056  0.058779099            4 
 3835000   0.64044683   -2.9346239    2754.5219  0.059854887   0.05876803            6 
 3836000   0.62982762   -2.9240498    2755.7101  0.059865095  0.058756887            3 
 3837000   0.64015154   -2.9429568    2759.6419  0.059934887  0.058745814            9 
 3838000   0.64141017   -2.9592091    2750.9952  0.059731527  0.058734614            6 
 3839000    0.6422277   -2.9592585    2754.1136  0.059783659   0.05872344            6 
 3840000   0.62565197   -2.9470867    2753.4141  0.059752911   0.05871231            4 
 3841000   0.64211595   -2.9404685    2757.4256  0.059824386  0.058701197            5 
 3842000   0.64466426   -2.9667375    2750.0746  0.059649372  0.058690062            5 
 3843000   0.63000199   -2.9648363    2749.6734   0.05962515  0.058678854            8 
 3844000   0.64611007   -2.9630146    2753.8113  0.059699344  0.058667637            3 
 3845000   0.64018627   -2.9676421    2754.3335  0.059695134  0.058656413            6 
 3846000   0.63635089   -2.9365084    2761.6096  0.059837269  0.058645304            5 
 3847000   0.64005499    -2.973681    2758.4545  0.059753368  0.058634141            4 
 3848000   0.63820018   -2.9507706    2755.1736  0.059666789  0.058622971            4 
 3849000   0.63375811   -2.9729969    2763.7893  0.059837822  0.058611849           11 
 3850000    0.6393259   -2.9527986    2761.8873   0.05978111  0.058600766            6 
 3851000   0.63059618   -2.9485961    2751.7234  0.059545645  0.058589623            4 
 3852000   0.62349089   -2.9465579    2761.7713  0.059747563  0.058578573           10 
 3853000   0.64309325   -2.9697989    2757.8209  0.059646615  0.058567488            7 
 3854000   0.62910235   -2.9648858    2767.5656  0.059841843  0.058556469            6 
 3855000   0.64196114   -2.9502079    2759.7598  0.059657583  0.058545362           12 
 3856000   0.63262289   -2.9484985    2761.2914  0.059675211  0.058534397            8 
 3857000    0.6268774   -2.9614385    2750.3731  0.059423842  0.058523344           11 
 3858000   0.62474596   -2.9572429    2760.4838  0.059626832  0.058512282            6 
 3859000   0.64246183   -2.9507252    2767.5768  0.059764551  0.058501331            9 
 3860000   0.63291422   -2.9708572    2763.7725  0.059666937  0.058490244            6 
 3861000   0.62882206   -2.9640337    2751.1074  0.059378127  0.058479185            8 
 3862000   0.62153818   -2.9661505    2754.6608  0.059439426  0.058468017            8 
 3863000   0.63509527   -2.9529985    2761.3316  0.059567944  0.058456894           11 
 3864000   0.63714472   -2.9522498    2761.3329  0.059552556  0.058445843            5 
 3865000   0.64331571   -2.9640134    2762.2586  0.059557107  0.058434689           11 
 3866000   0.63987447   -2.9850095    2765.0246  0.059601324   0.05842359            3 
 3867000    0.6350331   -2.9676464    2756.0494  0.059392497    0.0584125            3 
 3868000   0.63192642   -2.9632104    2765.0463  0.059570974  0.058401416            5 
 3869000   0.64164847   -2.9600412     2754.188  0.059321702  0.058390335            7 
 3870000   0.63513778   -2.9439374    2761.5395  0.059464674  0.058379264            6 
 3871000   0.61725029   -2.9645375    2763.9026  0.059500185  0.058368165            4 
 3872000   0.65087508   -2.9467085     2761.088  0.059424242  0.058357031            5 
 3873000   0.62763999   -2.9476561    2763.7579  0.059466347  0.058345963            7 
 3874000   0.64338044   -2.9473402    2765.9754  0.059498697  0.058334928           11 
 3875000   0.63023689   -2.9826599    2764.9164  0.059460568  0.058323823            7 
 3876000   0.63569521   -2.9592026    2758.2364  0.059301608  0.058312631            5 
 3877000   0.64473632   -2.9581838    2760.4624  0.059334158  0.058301586            5 
 3878000   0.63166914   -2.9575062    2763.5569  0.059385356  0.058290474           10 
 3879000   0.63796003   -2.9622352    2768.9907  0.059486781  0.058279374            8 
 3880000   0.63569537    -2.944269    2774.1945  0.059583216  0.058268399           10 
 3881000   0.64108149   -2.9636125    2757.4001   0.05920725  0.058257259            8 
 3882000   0.61261072   -2.9732357    2762.0057  0.059290866  0.058246117           10 
 3883000   0.63827097   -2.9754691    2760.6766  0.059247073  0.058234929            5 
 3884000   0.61263731   -2.9516486    2761.1118  0.059241155  0.058223852            6 
 3885000   0.61983665   -2.9836665    2763.7454  0.059282398  0.058212756           13 
 3886000   0.62019136   -2.9519094    2761.5945  0.059221018  0.058201604           13 
 3887000    0.6348545   -2.9553041     2764.293  0.059263635  0.058190571            6 
 3888000   0.62808544    -2.965139     2766.332  0.059292094  0.058179509            9 
 3889000   0.61274721   -2.9704517    2766.7762  0.059286368  0.058168395            6 
 3890000   0.63870027   -2.9743691    2766.3549  0.059262102  0.058157383            5 
 3891000   0.62398746   -2.9739358    2762.8817  0.059172485  0.058146324            7 
 3892000    0.6297185   -2.9669948    2759.4323  0.059083425  0.058135244           10 
 3893000   0.62338273   -2.9729208    2763.6452  0.059158429  0.058124131            7 
 3894000   0.63215394   -2.9558195    2770.6181  0.059292462  0.058113053            6 
 3895000   0.64301678   -2.9717617    2765.5345  0.059168475   0.05810205            5 
 3896000   0.63424152   -2.9536338    2767.7155  0.059199939  0.058090965            5 
 3897000   0.63080585   -2.9814761    2760.2455   0.05902501   0.05807991            6 
 3898000   0.62599639   -2.9594169    2766.9266  0.059152699  0.058068843            8 
 3899000   0.62757723   -2.9630476     2759.645  0.058981897  0.058057756            8 
 3900000   0.64785555   -2.9451145    2769.3624   0.05917441  0.058046667            5 
 3901000   0.63001235   -2.9686998    2773.5487  0.059248669  0.058035671            3 
 3902000   0.63108887    -2.980793    2767.7464  0.059109568  0.058024613            4 
 3903000    0.6405654   -2.9560694      2771.04  0.059164745  0.058013477            5 
 3904000   0.64208565   -2.9704659    2769.9875  0.059127124  0.058002521            5 
 3905000   0.61084618   -2.9706545     2767.897  0.059067371  0.057991509            4 
 3906000   0.63975058   -2.9823215    2766.1116  0.059014157  0.057980528            5 
 3907000   0.62918652   -2.9776344    2772.9581  0.059145083  0.057969452            7 
 3908000   0.63540745   -2.9892097    2762.1825  0.058900172  0.057958382            3 
 3909000   0.62996795   -2.9735325    2765.3538  0.058952711  0.057947319           11 
 3910000   0.62216571   -2.9559954    2770.6061  0.059049576  0.057936216            5 
 3911000   0.63723135   -2.9568097    2781.4483  0.059265497  0.057925183            6 
 3912000   0.60842593   -2.9741077    2768.3284  0.058970867  0.057914109            6 
 3913000   0.62080671   -2.9761751    2773.3879  0.059063547  0.057903038           13 
 3914000   0.62360985   -2.9695292    2769.5237  0.058966183  0.057892015            4 
 3915000   0.64044185   -2.9647336    2775.8591  0.059085974  0.057881044           10 
 3916000   0.63343909    -2.978054    2766.8367  0.058878888  0.057869944            5 
 3917000   0.62720991   -2.9802854    2774.2263  0.059021068   0.05785894            3 
 3918000   0.62313228   -2.9754919    2768.4748  0.058883674  0.057847966            8 
 3919000   0.62348545   -2.9891763    2774.6379  0.058999701  0.057836819            8 
 3920000   0.62068914   -2.9870911    2764.5366   0.05876991  0.057825757           14 
 3921000    0.6322952   -2.9748924    2764.0116  0.058743764  0.057814618            6 
 3922000   0.62668507   -2.9774205    2766.3763  0.058779031  0.057803392            7 
 3923000    0.6233616   -2.9581918    2766.9532  0.058776302   0.05779229            6 
 3924000   0.61020737   -2.9703344    2778.8422  0.059013809  0.057781155           19 
 3925000   0.62609876   -2.9893623    2766.2555   0.05873154  0.057770014            5 
 3926000   0.62720044   -2.9749101    2777.2029  0.058948949  0.057758807            9 
 3927000   0.62943815   -2.9754085    2775.2108  0.058891665   0.05774763            9 
 3928000   0.64282255   -2.9493796    2766.3166   0.05868798  0.057736443            6 
 3929000   0.62779458   -2.9832633    2773.8473  0.058832766  0.057725339            5 
 3930000    0.6234781   -2.9595714     2774.194  0.058825147  0.057714175            6 
 3931000   0.63081894    -2.998272    2756.2449  0.058429681  0.057703007            6 
 3932000   0.62678423   -2.9812383    2766.2372  0.058626595   0.05769175            4 
 3933000   0.62113405   -2.9827171    2766.8468  0.058624605  0.057680555           13 
 3934000   0.63806648   -2.9819123    2772.8509  0.058736885  0.057669331            6 
 3935000   0.63013118   -2.9869375    2769.4477  0.058649888   0.05765825           11 
 3936000   0.60577783   -2.9906084    2778.6391  0.058829588  0.057647151            5 
 3937000   0.61138557   -2.9718892    2768.9763  0.058610115  0.057636032            7 
 3938000    0.6244183   -2.9856079    2774.2296  0.058706398  0.057624892            8 
 3939000   0.61585365   -2.9547734    2774.4878  0.058696957  0.057613754           10 
 3940000   0.61493049    -3.001164    2773.9443  0.058670565  0.057602623            6 
 3941000   0.62951697   -2.9833049    2771.0707  0.058594915  0.057591446           10 
 3942000   0.61222464   -3.0039309    2768.3472  0.058522477  0.057580327            7 
 3943000   0.61884465   -2.9659991    2771.9013  0.058582747  0.057569187           10 
 3944000   0.61324086   -2.9873913    2768.1786  0.058489238  0.057558067           11 
 3945000   0.62294035   -2.9971977     2767.713  0.058464574  0.057546912            5 
 3946000    0.6065788   -2.9880757    2777.5708  0.058657941  0.057535674            5 
 3947000   0.60948141   -2.9969469    2773.1718  0.058550202   0.05752446            9 
 3948000   0.62162628   -2.9525039    2780.3431  0.058686742  0.057513313            5 
 3949000   0.61689742   -3.0046995    2772.1364  0.058498701  0.057502245            9 
 3950000   0.61717312   -2.9902738    2775.1454  0.058547372  0.057491095            7 
 3951000   0.62761729    -3.000577    2772.6819  0.058480594  0.057479934            9 
 3952000   0.61904821   -2.9946225    2766.7702  0.058341139  0.057468821            7 
 3953000   0.59982996   -2.9782427     2774.932  0.058498439  0.057457756            6 
 3954000   0.62115764   -2.9848304    2776.1307  0.058508908   0.05744669           14 
 3955000   0.61662125   -2.9836413    2777.9835  0.058533155  0.057435625            8 
 3956000   0.62209161   -2.9843577    2782.7026  0.058617767  0.057424511            9 
 3957000   0.61861423   -2.9847998    2768.4916  0.058303673  0.057413383            8 
 3958000     0.623411   -2.9652075    2783.3019  0.058600765  0.057402269           14 
 3959000   0.61355611   -2.9976233    2779.5743  0.058507499  0.057391151            6 
 3960000   0.61693086   -2.9949769    2767.5786  0.058240291  0.057379996           28 
 3961000   0.61555218   -2.9820575    2776.9986   0.05842377  0.057368949            5 
 3962000   0.61317612   -2.9813686    2775.4208  0.058375837  0.057357821            5 
 3963000   0.62741848   -2.9822918    2774.4761  0.058341242  0.057346678            5 
 3964000   0.62736077   -2.9863028    2781.7729  0.058479922  0.057335556            4 
 3965000   0.62232596   -2.9875623    2779.8879  0.058425554  0.057324481            3 
 3966000   0.61532085   -2.9777542    2781.2665  0.058439789  0.057313411            7 
 3967000   0.60800207    -2.985053    2781.7779  0.058435801  0.057302327            5 
 3968000   0.62808681   -2.9713684    2775.7589  0.058294668  0.057291226            8 
 3969000   0.62982761   -2.9978698     2788.841  0.058554652  0.057280205            9 
 3970000   0.60979818   -2.9709855    2782.4026  0.058404757  0.057269216            9 
 3971000   0.62919544   -2.9767509    2782.4433  0.058390904  0.057258094            7 
 3972000   0.60880764   -2.9930369    2785.5317  0.058440998  0.057246957            6 
 3973000   0.62178844   -2.9794035    2772.8785  0.058160889  0.057235786            8 
 3974000   0.60480143   -2.9941446    2775.5534  0.058202344  0.057224699           14 
 3975000   0.62238552   -3.0074999    2771.7673  0.058108328   0.05721356            5 
 3976000   0.61754451   -2.9719423    2783.1364     0.058332  0.057202341            4 
 3977000   0.62378402   -2.9869562    2793.2825  0.058529933  0.057191257            7 
 3978000   0.61502646    -2.965772     2777.626  0.058187239  0.057180201            6 
 3979000   0.61456741   -2.9813776    2775.3883   0.05812575  0.057169042            8 
 3980000   0.60015766   -2.9940157    2778.9158  0.058185005  0.057157927            5 
 3981000   0.61935264     -2.97911    2782.1202  0.058237465  0.057146872            4 
 3982000   0.61671155   -2.9826634    2778.3367  0.058143662  0.057135752            8 
 3983000   0.60292424   -3.0132941     2775.977  0.058079693   0.05712456            5 
 3984000   0.62176167   -2.9942846    2786.2097  0.058279151   0.05711345            8 
 3985000   0.62079788   -2.9896325    2781.3372  0.058162636    0.0571023           12 
 3986000   0.61046124   -2.9862754    2785.1111  0.058226941  0.057091152            7 
 3987000     0.604031   -2.9787227    2787.1596  0.058255155  0.057080032            6 
 3988000    0.6351478   -2.9897738    2784.5305  0.058185609  0.057068931            6 
 3989000    0.6106351   -3.0041094    2779.2334  0.058060362  0.057057768            6 
 3990000   0.62151773   -2.9961949    2786.5489  0.058198599  0.057046597            4 
 3991000   0.61781609   -2.9794557    2782.4238  0.058097884  0.057035463           11 
 3992000   0.61716045   -2.9811466    2780.6305  0.058045893  0.057024287            4 
 3993000   0.61353576   -3.0018683    2766.7953  0.057742619  0.057013079           11 
 3994000   0.61214029   -2.9720966    2779.5445  0.057994168  0.057001866            9 
 3995000   0.61413852     -2.99555    2777.4746  0.057936475  0.056990658           10 
 3996000   0.59955693   -2.9968683    2776.1498  0.057894348  0.056979476            6 
 3997000   0.60761393   -2.9959264    2781.0964  0.057982996  0.056968284            5 
 3998000   0.61855941    -2.962487    2779.4514  0.057934204   0.05695719            5 
 3999000   0.60554356   -2.9909729    2782.4296  0.057981779  0.056946105            8 
 4000000   0.60996359   -2.9843286    2777.9509  0.057873977  0.056934941            4 
 4001000     0.619689   -2.9897767    2784.8782  0.058003796  0.056923744            4 
 4002000   0.62351189     -2.98978    2782.6135  0.057942144  0.056912611            7 
 4003000   0.59179682   -3.0004191    2778.7015   0.05784623  0.056901472           12 
 4004000   0.61201606    -2.988325    2778.7683  0.057833173  0.056890288            5 
 4005000   0.60620595   -3.0103648    2789.8726  0.058049784  0.056879083           14 
 4006000   0.61702147   -3.0018849    2782.9256  0.057890781  0.056867885            9 
 4007000    0.5986546   -2.9951013    2787.5463   0.05797243  0.056856755            5 
 4008000   0.60698386   -2.9991696    2786.5906  0.057938094  0.056845611            6 
 4009000   0.61715805    -2.983683    2781.5067  0.057817966  0.056834423            6 
 4010000   0.60542322   -2.9929663    2789.0161  0.057959604  0.056823296            4 
 4011000   0.61358625   -2.9944947     2786.416  0.057891133  0.056812036            6 
 4012000   0.60719154    -2.977353    2782.3198  0.057791621  0.056800798            7 
 4013000   0.60769347   -3.0090578    2787.1905  0.057878364  0.056789661            7 
 4014000   0.60191579    -2.991359    2780.1268  0.057717297  0.056778444            6 
 4015000   0.61604084   -2.9918513    2784.6365  0.057796524  0.056767278            6 
 4016000   0.62906714    -2.999358    2779.6938  0.057679568  0.056756059            5 
 4017000   0.61270843   -2.9925656     2791.189  0.057903681   0.05674484            6 
 4018000   0.61514547   -3.0232162    2789.1551  0.057847087  0.056733631           23 
 4019000   0.61157157   -3.0181726     2785.766  0.057762421  0.056722431           11 
 4020000   0.61174845   -2.9986418    2777.7364    0.0575816  0.056711218            6 
 4021000   0.61963397   -3.0046167    2785.3661  0.057725403  0.056700012            7 
 4022000    0.6130347   -2.9935787    2780.0498  0.057600899  0.056688786            6 
 4023000   0.60707116   -3.0139615    2795.6631  0.057909999  0.056677608           12 
 4024000   0.60720306   -2.9903881    2788.5005  0.057747277  0.056666335            6 
 4025000   0.60572289   -3.0023409    2773.5025  0.057422411  0.056655084            4 
 4026000   0.59523814   -3.0015305    2786.0601  0.057668076  0.056643789           12 
 4027000   0.61294934   -2.9886264    2779.2685  0.057513212  0.056632547            3 
 4028000   0.58579908   -3.0163814    2781.2348  0.057539615  0.056621325            4 
 4029000   0.61572292   -3.0172765    2778.3786  0.057466256  0.056610101           12 
 4030000   0.59736197   -2.9999973    2780.1419   0.05748846  0.056598943            8 
 4031000   0.63561417   -2.9767702    2787.4494  0.057625266  0.056587827           12 
 4032000   0.60669312   -3.0041032    2784.8195   0.05755662  0.056576638            6 
 4033000   0.62829339   -3.0150412    2793.9408  0.057730821   0.05656541            5 
 4034000   0.60509914   -2.9998002    2779.1067   0.05741007  0.056554264            5 
 4035000   0.60574812   -3.0014103    2786.7689  0.057554088  0.056543143           15 
 4036000   0.60125451   -2.9898816    2786.5409  0.057535119  0.056531923            9 
 4037000   0.60862527   -3.0039873    2795.3555  0.057702821  0.056520864            5 
 4038000   0.59800521    -3.001637    2783.4697  0.057443241  0.056509668           12 
 4039000   0.62220845   -2.9976218    2789.5124  0.057553693  0.056498535            3 
 4040000   0.60469015   -3.0032552    2786.5125  0.057477568  0.056487436            5 
 4041000   0.61559805   -2.9934185    2786.7474  0.057468188  0.056476226           10 
 4042000   0.61431797   -3.0011204    2787.9999  0.057479793  0.056464986            3 
 4043000   0.60440565   -2.9922751    2788.6472  0.057478918  0.056453836           13 
 4044000   0.61324981   -3.0178061    2792.8492  0.057551293  0.056442681            5 
 4045000   0.59498303   -3.0033052    2790.8322  0.057495512  0.056431491            5 
 4046000   0.62013448   -2.9803477    2778.1467  0.057220026  0.056420431            4 
 4047000   0.59148451    -3.004243    2789.7625  0.057445073  0.056409286            6 
 4048000   0.59534924   -3.0073927    2790.7688  0.057451597  0.056398125            4 
 4049000    0.5894641   -3.0205193    2780.5523   0.05722714  0.056386972            5 
 4050000   0.61289891   -3.0219485    2787.5705  0.057357417   0.05637575           13 
 4051000    0.5970158   -2.9974595    2797.4797  0.057547102   0.05636456            4 
 4052000   0.60860916   -3.0086742    2783.3496  0.057242301  0.056353403            8 
 4053000   0.61467168   -3.0072341    2787.9246  0.057322244  0.056342172            5 
 4054000   0.60224822    -3.006149     2782.664  0.057199968  0.056330982            9 
 4055000   0.59028396   -3.0075165    2787.0041  0.057275054   0.05631978            4 
 4056000   0.60208996   -3.0111029    2783.8041  0.057195186  0.056308523            5 
 4057000   0.60690374   -3.0040697    2790.4294  0.057317177  0.056297229           10 
 4058000   0.60247765   -3.0158729     2790.883  0.057312367  0.056285978           10 
 4059000   0.60084036    -3.030317    2791.1308  0.057303334  0.056274744            6 
 4060000   0.58138903   -3.0012795    2782.6851  0.057115869  0.056263488            7 
 4061000   0.59933222   -2.9935173    2794.4526  0.057343277  0.056252238            5 
 4062000   0.60849942   -3.0068354    2778.7871  0.057007777  0.056241031            9 
 4063000   0.59456468   -3.0133846    2784.1704  0.057104159  0.056229789            9 
 4064000   0.59904013    -3.040158    2786.0654  0.057128965  0.056218552            8 
 4065000    0.5856464   -2.9762213    2790.4219   0.05720422  0.056207311           10 
 4066000   0.61073962    -3.017762    2791.8673  0.057219776  0.056196103            8 
 4067000   0.59155868   -3.0225879    2795.1066  0.057272079  0.056184927            6 
 4068000   0.60138364   -3.0113522    2793.8876   0.05723303  0.056173704            5 
 4069000   0.59254701   -2.9988503    2792.5665  0.057191908  0.056162501            5 
 4070000   0.60807265   -3.0260553     2792.963  0.057185974  0.056151198           15 
 4071000   0.60451709   -3.0159776    2792.5328   0.05716312  0.056139927            7 
 4072000   0.59895302   -2.9995645    2787.5286  0.057046673  0.056128657            6 
 4073000     0.613189   -3.0096927    2788.6573  0.057055759  0.056117397            8 
 4074000   0.58210546   -2.9927448    2786.5269  0.056998178  0.056106165            6 
 4075000   0.59923408   -3.0213884    2787.8719  0.057011696   0.05609498            6 
 4076000   0.60142063   -3.0118244    2794.9917  0.057143272   0.05608381            7 
 4077000   0.60652934   -3.0304224    2789.3969  0.057014899  0.056072601            6 
 4078000   0.60121026   -3.0248798    2789.2685  0.056998294   0.05606142            9 
 4079000   0.60925859   -3.0068769    2796.8419  0.057139043  0.056050281            9 
 4080000   0.60097573   -3.0282556     2797.916  0.057146977  0.056039172           12 
 4081000   0.58808392   -3.0309955    2795.1414  0.057076318  0.056027978            5 
 4082000   0.60468386   -3.0165921    2802.2966  0.057208407  0.056016826            6 
 4083000   0.60128267   -3.0174735    2798.4976   0.05711686  0.056005713            6 
 4084000   0.57963404   -3.0199008    2794.1961  0.057015102  0.055994628            4 
 4085000   0.59872058    -3.012861     2801.901  0.057158323  0.055983578            4 
 4086000   0.61053065    -2.999679    2794.7255  0.056997991  0.055972576            7 
 4087000    0.5885463   -2.9971288      2798.29  0.057056726  0.055961541            6 
 4088000   0.59850484   -3.0087355    2794.4276  0.056964032   0.05595053            8 
 4089000   0.59983099   -3.0174591    2804.3109  0.057151522  0.055939468            3 
 4090000   0.58982001   -3.0280568    2798.1751  0.057012533  0.055928366           19 
 4091000   0.59957252   -3.0446524    2793.1588  0.056896416  0.055917239            5 
 4092000   0.60201851    -3.010509    2800.9997  0.057042189  0.055906142            9 
 4093000   0.60701274   -3.0161862    2798.4619  0.056976584  0.055895073           10 
 4094000   0.58694582   -3.0183262    2800.9815  0.057013954  0.055883996           21 
 4095000    0.5912898   -3.0073818    2797.7694  0.056934664   0.05587297            5 
 4096000   0.59441002   -3.0124251    2799.2895   0.05695169  0.055861951            7 
 4097000   0.59095871   -3.0257112    2797.3015  0.056897354  0.055850853            5 
 4098000   0.60012993   -3.0432811    2798.7389    0.0569127  0.055839787            5 
 4099000   0.59526689   -3.0163647    2796.7414  0.056858205  0.055828631           11 
 4100000   0.59645353   -3.0198928    2809.4963  0.057103582  0.055817549            5 
 4101000   0.59696224   -3.0257958    2801.7695  0.056932648  0.055806479            7 
 4102000   0.58662625   -3.0287487    2798.6635  0.056855671  0.055795447           24 
 4103000   0.59647809   -3.0118241    2808.5517  0.057042646  0.055784395            7 
 4104000   0.60427383   -3.0130925    2804.5086   0.05694665  0.055773363           22 
 4105000   0.61473499   -3.0272026    2812.4499  0.057093989   0.05576235            6 
 4106000   0.60243389   -3.0257133    2801.8864  0.056865692   0.05575137            4 
 4107000   0.58803295   -3.0157582    2802.6333  0.056867002  0.055740328            9 
 4108000   0.58702595   -3.0098491    2803.3164  0.056867015  0.055729305           14 
 4109000   0.57988946    -3.017428    2805.6229  0.056899953  0.055718252            9 
 4110000   0.60019738   -3.0053893    2804.0425  0.056854066  0.055707248            9 
 4111000    0.5903441   -3.0207901     2801.444  0.056787561  0.055696282            5 
 4112000   0.57868827   -3.0366465    2805.2495  0.056850873  0.055685322            9 
 4113000   0.60304382   -3.0210254    2808.4541  0.056901981  0.055674288            4 
 4114000   0.58820586   -3.0278613     2795.836  0.056632556  0.055663311            6 
 4115000   0.60668486   -3.0195118    2802.6528   0.05675684  0.055652225            7 
 4116000   0.59841249   -3.0199694    2814.1527   0.05697588  0.055641206            5 
 4117000   0.59798793   -3.0278747    2802.9944  0.056736184  0.055630199           13 
 4118000   0.60233195   -3.0404183    2797.6693  0.056614644  0.055619178            8 
 4119000   0.60051375   -3.0293283    2796.3163  0.056573528  0.055608145           10 
 4120000   0.58083754   -3.0288994    2810.1092  0.056838779  0.055597079            7 
 4121000   0.59656109   -3.0237823    2801.2599  0.056646038  0.055586108           12 
 4122000   0.60578797   -3.0232526    2806.4756  0.056737741  0.055575131            8 
 4123000   0.58686656    -3.032963     2805.851  0.056711354  0.055564168            7 
 4124000   0.59204481     -3.03237    2807.6105  0.056733158  0.055553182           14 
 4125000   0.58970607   -3.0317029    2801.4811  0.056595578  0.055542159           15 
 4126000   0.59604354   -3.0417649    2803.9899  0.056632532  0.055531125           18 
 4127000   0.58919587   -3.0253479    2808.1739  0.056703293  0.055520127            4 
 4128000   0.57963889    -3.029359    2806.9518  0.056664887  0.055509203           11 
 4129000   0.58548434   -3.0279335     2802.924  0.056569872  0.055498174            4 
 4130000   0.59058783   -3.0176496    2799.0362  0.056477729  0.055487125            7 
 4131000    0.5914725   -3.0345755     2803.866  0.056561486  0.055476075           16 
 4132000   0.59278532   -3.0479279    2805.6134  0.056583038  0.055465106            9 
 4133000   0.59103653   -3.0308225    2809.6583  0.056650905  0.055454126            6 
 4134000   0.57014069   -3.0338874    2801.4951  0.056472648  0.055443086            6 
 4135000   0.59947555   -3.0160027     2798.513  0.056398891   0.05543211            8 
 4136000   0.58976104   -3.0515368    2802.1062  0.056457652  0.055421177           10 
 4137000   0.58902205    -3.024581    2807.9075  0.056560864  0.055410083            8 
 4138000   0.58714855   -3.0156661    2802.1759   0.05643177  0.055399084            7 
 4139000   0.57893719   -3.0250441     2804.938  0.056473746  0.055388099           14 
 4140000   0.60887682   -3.0300066    2799.5631  0.056351914  0.055377058           11 
 4141000   0.58496741   -3.0367244    2805.4216  0.056456201   0.05536602            5 
 4142000   0.58338315   -3.0243395    2800.7645  0.056348876  0.055354976            4 
 4143000   0.58355138    -3.009549    2807.5325  0.056471408  0.055344014            4 
 4144000   0.58916493   -3.0213941    2808.8349  0.056483971  0.055333043            9 
 4145000    0.5909456   -3.0408501    2804.1443  0.056376042  0.055321998           10 
 4146000    0.5809843   -3.0417474    2798.0596  0.056240142  0.055310924            7 
 4147000   0.58009514   -3.0326443    2807.6281  0.056418859  0.055299895           12 
 4148000    0.5843771   -3.0255878    2801.7647  0.056287462  0.055288862            5 
 4149000   0.58405137   -3.0285467    2803.6157  0.056311072  0.055277853            8 
 4150000   0.58807374   -3.0138469    2816.5375  0.056556979  0.055266829           26 
 4151000   0.59182189   -3.0523126    2804.0173  0.056292004   0.05525581            8 
 4152000   0.59042686   -3.0418424    2802.4867  0.056247726  0.055244782           12 
 4153000   0.60153899   -3.0246726    2803.1729  0.056247951   0.05523377            5 
 4154000   0.59338378   -3.0318522    2808.5726  0.056342734  0.055222755            7 
 4155000   0.58876189   -3.0401004    2804.9605  0.056256729   0.05521168            6 
 4156000   0.59278399   -3.0352325    2799.7832   0.05613938  0.055200631            3 
 4157000    0.5914996   -3.0280358    2803.3645  0.056197668  0.055189535            5 
 4158000   0.57183774   -3.0183127    2809.4037  0.056305189  0.055178483           16 
 4159000    0.5879442   -3.0233569    2813.5805  0.056375341  0.055167463           10 
 4160000   0.59869902   -3.0441961    2801.9732  0.056129271  0.055156385            8 
 4161000   0.58171389   -3.0382606    2803.7838  0.056152043  0.055145319            8 
 4162000   0.58348761    -3.029165    2803.2182  0.056127227  0.055134223           10 
 4163000   0.57912419   -3.0385679    2806.0679  0.056170789  0.055123197            7 
 4164000   0.57803734   -3.0240586    2800.0173  0.056036209   0.05511208           21 
 4165000   0.59294357   -3.0563923    2807.5432  0.056173333  0.055100901            8 
 4166000   0.57151722    -3.031063    2804.9879  0.056108735  0.055089808            5 
 4167000   0.59195134   -3.0322549    2804.8978  0.056093469  0.055078748            9 
 4168000   0.57134839   -3.0183269     2807.475  0.056131538  0.055067669            7 
 4169000   0.59621065   -3.0382834    2801.3246  0.055995135  0.055056615           11 
 4170000    0.5793903   -3.0478461    2803.2122  0.056019429  0.055045557            4 
 4171000   0.57254755   -3.0425005    2809.2705  0.056127038  0.055034477           10 
 4172000   0.59870483   -3.0363284    2802.3749  0.055975849  0.055023338           12 
 4173000   0.58514058   -3.0338677    2805.3105  0.056021057  0.055012252            6 
 4174000   0.58963704   -3.0343108    2806.3137  0.056027665   0.05500112            5 
 4175000   0.58403188   -3.0388267    2805.7495  0.056002985  0.054989996            8 
 4176000   0.57943004   -3.0514303    2801.6408  0.055907582  0.054978878            5 
 4177000   0.57592708   -3.0284693    2804.6484  0.055954202  0.054967781            6 
 4178000   0.58719324   -3.0382102    2805.1863  0.055951539   0.05495663            6 
 4179000   0.58575232   -3.0252862      2812.71  0.056088179  0.054945559            9 
 4180000   0.57893835   -3.0394635    2804.0914  0.055902939   0.05493448           13 
 4181000   0.59380266   -3.0406907    2811.8703  0.056044613   0.05492332           10 
 4182000   0.57981774    -3.037075      2806.14  0.055917024  0.054912243            6 
 4183000    0.5885947   -3.0360446    2812.0643  0.056021681  0.054901188           11 
 4184000   0.59219363   -3.0247659    2808.2634  0.055932589  0.054890054           11 
 4185000   0.58114766   -3.0487545    2808.0176  0.055914329  0.054878883            5 
 4186000   0.59024573   -3.0507603     2812.181  0.055983854  0.054867701            6 
 4187000   0.58336466   -3.0393211    2808.0861  0.055888984  0.054856517            7 
 4188000   0.58116861   -3.0371405    2811.2502  0.055938598  0.054845407            7 
 4189000   0.57309944   -3.0408017    2799.2475   0.05568647  0.054834249            3 
 4190000   0.57231296   -3.0703013    2805.3375  0.055794301  0.054823111            7 
 4191000   0.58023072   -3.0318869    2801.0005  0.055694753  0.054811946            9 
 4192000   0.57631628   -3.0356783    2811.8462   0.05589707   0.05480078            9 
 4193000   0.57590934   -3.0542155    2805.5029   0.05575767  0.054789618            6 
 4194000   0.57798944   -3.0447104    2800.3577  0.055642142  0.054778459            6 
 4195000   0.55570948   -3.0446437    2803.8757  0.055698762  0.054767307            3 
 4196000    0.5887209   -3.0507369    2802.6868  0.055661877   0.05475614            8 
 4197000   0.58501343   -3.0310783    2808.1355    0.0557568  0.054745001           10 
 4198000    0.5866355   -3.0554575    2800.9937  0.055601749  0.054733839           10 
 4199000   0.57480294    -3.047797    2802.1954  0.055612356  0.054722663            7 
 4200000   0.58246205   -3.0319758    2815.4665   0.05586243  0.054711566           24 
 4201000   0.58211008   -3.0546469    2806.9347  0.055679893  0.054700481           10 
 4202000   0.57839938   -3.0414654    2812.6845   0.05578067  0.054689415           11 
 4203000   0.58066027    -3.038312    2806.7777  0.055650283  0.054678335            9 
 4204000   0.58471272   -3.0559431    2814.4407  0.055788945  0.054667266            8 
 4205000   0.58027204   -3.0384615    2812.2291   0.05573185  0.054656217            6 
 4206000   0.58488092   -3.0494309    2804.2234  0.055559981  0.054645159           10 
 4207000   0.58215296   -3.0671782    2810.3688  0.055668505  0.054634014           23 
 4208000    0.5685604   -3.0704759    2812.8218  0.055703853  0.054622874            6 
 4209000   0.57447188   -3.0422411    2808.9551  0.055614064  0.054611772            5 
 4210000   0.58830996   -3.0273131    2805.2977  0.055528459  0.054600723            7 
 4211000   0.57201115   -3.0402176    2811.5683  0.055639363  0.054589663           10 
 4212000   0.58219522   -3.0501703    2813.1818  0.055658077  0.054578618            5 
 4213000   0.58250886   -3.0477909    2805.6509  0.055495903  0.054567537            5 
 4214000   0.57142965   -3.0527135    2810.4294   0.05557723  0.054556419           10 
 4215000   0.58047382   -3.0376749    2815.1354  0.055657086  0.054545384            5 
 4216000   0.57242202   -3.0683834    2806.2759  0.055468767    0.0545343           19 
 4217000   0.58150776   -3.0434317    2808.1593  0.055492832  0.054523188            9 
 4218000   0.57887325   -3.0316793    2811.5926  0.055547507  0.054512056            6 
 4219000   0.58731992   -3.0443256    2807.8569  0.055460554  0.054500951            9 
 4220000   0.59248899   -3.0587272    2809.1419  0.055472787  0.054489796           14 
 4221000   0.57561933    -3.048286      2815.23  0.055579839  0.054478679            8 
 4222000    0.5721147    -3.036737    2812.3662  0.055510149  0.054467587            4 
 4223000   0.58270314    -3.048382    2807.9919  0.055410685  0.054456545            3 
 4224000   0.58295601   -3.0683709    2804.7125   0.05533287  0.054445457            8 
 4225000   0.58483501   -3.0683015    2819.6553  0.055614503  0.054434348            7 
 4226000   0.58798935   -3.0510541    2815.4119  0.055517666  0.054423208            9 
 4227000   0.57452298    -3.046382    2810.6606  0.055410863  0.054412132            9 
 4228000   0.56577195   -3.0395313    2813.7659  0.055458962  0.054401063           11 
 4229000   0.58047112   -3.0405901    2814.3884  0.055458114  0.054390007            9 
 4230000   0.57239825   -3.0536742    2809.7896  0.055354406  0.054378949            6 
 4231000   0.58515769   -3.0674621    2815.4301  0.055452416  0.054367837           23 
 4232000    0.5838322   -3.0503808    2807.2835  0.055278896  0.054356678            4 
 4233000    0.5682361   -3.0556049    2812.4494  0.055367537  0.054345615            4 
 4234000   0.57826252   -3.0703038    2807.0476  0.055248143  0.054334439            6 
 4235000    0.5627859   -3.0557702    2806.9846  0.055233857  0.054323224           10 
 4236000   0.57482378   -3.0522495    2811.7527  0.055314618  0.054312086           10 
 4237000   0.56659548   -3.0741774    2813.2352  0.055330721  0.054300999            7 
 4238000   0.58378445   -3.0581602    2813.3616  0.055320151   0.05428988           16 
 4239000   0.56576081   -3.0560974    2806.9729  0.055181507  0.054278763            7 
 4240000   0.56397763   -3.0643592    2812.2743  0.055272687  0.054267581           11 
 4241000   0.56409981   -3.0607007    2807.3536  0.055162966  0.054256395            9 
 4242000   0.57806243   -3.0498802    2814.4602  0.055289569  0.054245263            9 
 4243000   0.57070856   -3.0520764    2814.2143  0.055271709  0.054234113           12 
 4244000   0.56585001   -3.0632252    2810.8498  0.055192621  0.054223011           12 
 4245000    0.5760071   -3.0475713    2819.2503  0.055344529  0.054211879           10 
 4246000   0.57540405   -3.0492071    2820.8003  0.055361915  0.054200796            9 
 4247000   0.57219365   -3.0533471    2814.4686   0.05522464   0.05418971           16 
 4248000   0.56570299   -3.0654908     2812.984  0.055182517  0.054178633           29 
 4249000   0.58371021   -3.0478994    2811.3498   0.05513748  0.054167482            8 
 4250000   0.57136361     -3.06824    2818.4436    0.0552636  0.054156368           12 
 4251000   0.57748175   -3.0448709    2809.0979  0.055067393  0.054145196            7 
 4252000   0.57489326   -3.0610351    2808.4751  0.055042238  0.054134002            3 
 4253000   0.56508055   -3.0563223    2815.2886  0.055162799  0.054122848           19 
 4254000   0.56766677   -3.0507447    2816.7307  0.055178081  0.054111684            5 
 4255000   0.57247989   -3.0499083    2811.1165  0.055055162  0.054100593            6 
 4256000   0.57419683   -3.0546957    2809.0702  0.055002157  0.054089488            8 
 4257000   0.57320138   -3.0665212    2813.6229   0.05507836  0.054078321            6 
 4258000   0.57213823   -3.0619384    2806.3974  0.054924013  0.054067132            9 
 4259000   0.56715577   -3.0408326     2809.352  0.054968929  0.054055999            9 
 4260000   0.57863093   -3.0783645    2812.7738  0.055022961  0.054044859           16 
 4261000    0.5627247    -3.070233    2809.9341  0.054954512  0.054033603           13 
 4262000   0.57843871    -3.066711    2805.2184  0.054849413  0.054022443           10 
 4263000   0.56255883   -3.0518512    2807.9449  0.054889845  0.054011233            5 
 4264000   0.56725976   -3.0657683    2809.5726  0.054908782  0.054000051           13 
 4265000   0.55872015   -3.0576121    2814.1819  0.054985969  0.053988913            7 
 4266000   0.55713141   -3.0397642    2825.6607   0.05519731  0.053977731            9 
 4267000   0.57712961   -3.0508989    2825.1031  0.055173485   0.05396667           14 
 4268000   0.57326426   -3.0713945    2811.2487  0.054890047  0.053955477           10 
 4269000   0.56488415   -3.0780252    2802.2995  0.054702498   0.05394424           25 
 4270000   0.56970947   -3.0688112    2810.2674  0.054845187  0.053933081           10 
 4271000    0.5811135   -3.0541769    2818.3113  0.054989295  0.053921964            5 
 4272000   0.57274157   -3.0752819    2811.5508  0.054844546  0.053910782            5 
 4273000   0.56359252   -3.0726479    2812.1322  0.054843049   0.05389958           15 
 4274000   0.56920363    -3.074541    2809.1824  0.054772703  0.053888413            5 
 4275000   0.56132582   -3.0753476    2814.8962  0.054871271  0.053877208           17 
 4276000   0.58124641   -3.0473928    2813.5873  0.054832929  0.053866023            7 
 4277000   0.57498877   -3.0654113    2812.2955  0.054794939  0.053854801            5 
 4278000   0.56220152   -3.0562048     2812.648  0.054788998  0.053843607            6 
 4279000   0.56641299   -3.0768083    2816.2673   0.05484668  0.053832418           22 
 4280000   0.56421819   -3.0669233     2813.657  0.054783041   0.05382125            5 
 4281000   0.56972898   -3.0594026    2815.9766  0.054815397  0.053810116            7 
 4282000    0.5776366   -3.0704404    2816.4871  0.054812531  0.053798889            5 
 4283000   0.55586215   -3.0631946    2809.3536  0.054660939  0.053787679           13 
 4284000   0.57323803   -3.0626039    2808.9741  0.054640798   0.05377654            8 
 4285000   0.55492125   -3.0720846    2821.6446  0.054874457  0.053765365           14 
 4286000   0.56031893   -3.0827359     2811.152  0.054657644  0.053754126           16 
 4287000   0.57335674   -3.0722403    2813.8662  0.054697656  0.053742982            5 
 4288000   0.56945792   -3.0511403     2815.782  0.054722132  0.053731814            7 
 4289000   0.56429087   -3.0490156    2813.9763  0.054674289  0.053720726           13 
 4290000   0.57415216   -3.0602681    2810.6409  0.054596754  0.053709527           14 
 4291000   0.57494444   -3.0736184    2816.8192  0.054704016  0.053698311           12 
 4292000   0.57461192   -3.0761749    2806.0783  0.054482725  0.053687084           14 
 4293000   0.54433098   -3.0767868    2811.8278  0.054581641  0.053675876           12 
 4294000   0.54942534   -3.0675839    2813.8629  0.054608425  0.053664664            8 
 4295000    0.5634245    -3.074704    2815.0056  0.054617881  0.053653501            7 
 4296000   0.55830658   -3.0823848    2819.2817  0.054688115  0.053642408            6 
 4297000   0.57370257   -3.0667871     2814.758  0.054587659  0.053631322            6 
 4298000   0.56529795   -3.0741362    2818.2431  0.054642529  0.053620183            5 
 4299000   0.55363211   -3.0813463    2816.9202  0.054604175  0.053609059           21 
 4300000   0.57573691   -3.0499459    2815.3897  0.054561817  0.053597914           10 
 4301000   0.56576194   -3.0712661    2816.3026  0.054566818  0.053586772            8 
 4302000   0.55660197   -3.0694365    2816.5568  0.054559057  0.053575589            7 
 4303000   0.57613713   -3.0742628    2812.5534  0.054468848  0.053564387           29 
 4304000   0.55638089   -3.0792536    2814.9689  0.054502961  0.053553226           37 
 4305000   0.56285119   -3.0678652    2822.2461  0.054631167  0.053542124           15 
 4306000   0.56270889   -3.0656381     2814.791  0.054474203  0.053531033           14 
 4307000    0.5623883   -3.0762157    2820.7328  0.054576519  0.053519848            7 
 4308000   0.56048883   -3.0546692    2818.7852  0.054526177  0.053508835            9 
 4309000   0.56450302   -3.0779628    2817.4643  0.054487976  0.053497729            5 
 4310000   0.55543242   -3.0747358    2816.4483   0.05445569  0.053486621            7 
 4311000   0.57442254   -3.0865818    2819.0604  0.054493552   0.05347548           25 
 4312000   0.54716793   -3.0691151    2823.7917   0.05457235  0.053464405            5 
 4313000   0.55925987   -3.0816476    2818.5084  0.054457616   0.05345332            7 
 4314000   0.55984294   -3.0686205    2818.8862  0.054452292  0.053442177           13 
 4315000   0.57267549   -3.0586395    2824.0603  0.054539596   0.05343108           11 
 4316000   0.56078545   -3.0771326     2820.715  0.054462369  0.053419956           16 
 4317000    0.5696916   -3.0630193    2820.9179  0.054453669  0.053408864            8 
 4318000   0.56314688   -3.0774687    2822.0193  0.054462315  0.053397755            6 
 4319000   0.55124635   -3.0679655    2821.8493  0.054446426  0.053386641            9 
 4320000   0.56290982   -3.0407488    2819.5675  0.054389805  0.053375549            9 
 4321000   0.56146947   -3.0890694    2819.4589  0.054375123  0.053364392           10 
 4322000   0.58025416   -3.0703546    2819.9423  0.054371863  0.053353274            8 
 4323000   0.55596467   -3.0765702    2823.1561  0.054421238  0.053342194            7 
 4324000   0.56709137   -3.0720168    2816.9459  0.054288967  0.053331116           13 
 4325000   0.56327137   -3.0700387    2822.3031  0.054379637  0.053320036            4 
 4326000   0.56712459   -3.0816886    2813.1081  0.054189938  0.053308943            7 
 4327000    0.5478792    -3.071735    2823.6002  0.054379481  0.053297842            9 
 4328000   0.55317964   -3.0549294    2824.8712  0.054391389  0.053286739            7 
 4329000    0.5447734    -3.077862    2809.5819  0.054084506  0.053275586           16 
 4330000    0.5617009   -3.0814934    2821.0497  0.054292719  0.053264481            7 
 4331000    0.5499086   -3.0735641    2817.0606  0.054203428  0.053253339            6 
 4332000   0.57008702   -3.0849014    2813.6878  0.054126035  0.053242243            8 
 4333000   0.56421537   -3.0805686    2819.1727  0.054219031  0.053231165           12 
 4334000     0.545031   -3.0890754    2819.9097  0.054220692  0.053220068           13 
 4335000   0.58047893   -3.0771187    2821.9321   0.05424706  0.053208956            8 
 4336000   0.56123727   -3.0782135     2816.725  0.054134476  0.053197818           11 
 4337000   0.56159192   -3.0843771    2817.9056  0.054144677  0.053186722            9 
 4338000   0.56201262   -3.0732083     2820.016  0.054172737  0.053175539            7 
 4339000    0.5547374    -3.081197    2824.9067  0.054254181  0.053164371            8 
 4340000   0.57067648   -3.0613204    2825.0479  0.054244391   0.05315327            5 
 4341000   0.56124877    -3.064157    2822.0814  0.054174947  0.053142188           10 
 4342000   0.55869244   -3.0973306    2818.7666  0.054098852  0.053131093           18 
 4343000   0.56415823   -3.0724783    2813.4227  0.053983857  0.053119954            6 
 4344000   0.55918485   -3.0634402    2815.2607  0.054006689  0.053108807            4 
 4345000   0.55436557   -3.0858415    2816.5885  0.054019726  0.053097653           10 
 4346000   0.55074294   -3.0837797    2820.7431  0.054086959  0.053086517            3 
 4347000   0.55434914   -3.0967263    2818.6447   0.05403429  0.053075333            5 
 4348000    0.5546895    -3.089587    2817.2393  0.053994927  0.053064135           10 
 4349000   0.55194539   -3.0654888    2827.3733  0.054176693  0.053052987           13 
 4350000   0.55031913   -3.0712297    2816.9895  0.053965316  0.053041857            9 
 4351000   0.55062656   -3.0913329    2815.8875  0.053931806  0.053030748            9 
 4352000   0.55953651    -3.075788    2815.1962  0.053906178  0.053019595           26 
 4353000   0.54848916   -3.0786643    2821.7077   0.05401845  0.053008476            6 
 4354000   0.55371027   -3.0799629    2815.6056  0.053889252  0.052997316            7 
 4355000   0.55156486   -3.0808164       2820.2  0.053964791  0.052986176           13 
 4356000   0.55544496   -3.0523991    2821.1742  0.053971041  0.052975064           13 
 4357000   0.55983136   -3.0801312    2818.2719  0.053903143   0.05296406            8 
 4358000    0.5560386   -3.0817427    2826.6476  0.054050934  0.052952926            7 
 4359000   0.56130475   -3.0845166    2814.8013  0.053812061  0.052941798           10 
 4360000    0.5574289   -3.0752383    2819.8084   0.05389542  0.052930698           13 
 4361000   0.56379278   -3.0799473    2820.9387   0.05390466   0.05291959            6 
 4362000   0.55921602   -3.0863947    2817.0089  0.053817227  0.052908491           13 
 4363000   0.56179754   -3.0851804    2823.2622  0.053924329  0.052897344            9 
 4364000   0.55726017   -3.0595487    2814.7176  0.053748809  0.052886197            6 
 4365000   0.55114832    -3.085198    2815.6031  0.053753401  0.052875029           12 
 4366000   0.54908451   -3.0832119    2820.5797  0.053836077  0.052863889           16 
 4367000   0.54521807   -3.1011765    2821.0014  0.053831795   0.05285277           12 
 4368000   0.55447378   -3.0858415    2818.5057  0.053771858  0.052841661           15 
 4369000   0.55254617   -3.0849601    2820.1486  0.053790887   0.05283053            8 
 4370000   0.54261417   -3.0822943    2809.4837  0.053575205  0.052819333            8 
 4371000   0.55839032   -3.0722162    2822.7091   0.05381509  0.052808246            9 
 4372000   0.54863354   -3.0714693    2827.3853  0.053891913  0.052797192           15 
 4373000    0.5519829   -3.1080359    2813.3896  0.053612881  0.052786152            9 
 4374000   0.55928259   -3.0888378    2819.8061  0.053722871   0.05277508           12 
 4375000   0.54946969   -3.0856765    2829.9017   0.05390289  0.052763985            7 
 4376000    0.5475912    -3.096706      2817.62  0.053656688  0.052752927           19 
 4377000    0.5461362   -3.0994468    2824.0825  0.053767468  0.052741839            7 
 4378000   0.54091796   -3.1001608    2825.0124  0.053772888  0.052730812           30 
 4379000   0.54954768    -3.080217    2822.7206  0.053716994    0.0527198            5 
 4380000   0.55522252    -3.084187    2820.7308  0.053666872  0.052708798            8 
 4381000   0.53311702   -3.0659685    2826.0671  0.053756127  0.052697739           22 
 4382000   0.54223404   -3.0837406    2825.6763  0.053736427  0.052686726           11 
 4383000   0.54660876   -3.0924387    2829.9124  0.053804708  0.052675687            8 
 4384000    0.5495932   -3.0939154    2821.3766  0.053630182  0.052664638            8 
 4385000   0.55510278   -3.0896184    2827.1213  0.053727124  0.052653663           14 
 4386000   0.55991761   -3.0952849    2826.4358   0.05370185  0.052642597            6 
 4387000   0.55801148    -3.075281       2825.7  0.053675633  0.052631582            7 
 4388000    0.5490812   -3.0948036     2825.276  0.053655348  0.052620616            6 
 4389000   0.55971664   -3.0959113    2831.4515  0.053760376  0.052609594            6 
 4390000   0.53555438   -3.0884015    2829.9028  0.053718732  0.052598636           15 
 4391000   0.54391977   -3.0940199    2822.6485  0.053568824  0.052587682            5 
 4392000   0.54486658   -3.0924262    2833.1047  0.053755022  0.052576691           11 
 4393000   0.55475558   -3.0979317    2826.1936  0.053611685  0.052565718           22 
 4394000   0.53973803   -3.0897704    2823.8216  0.053554499   0.05255471           13 
 4395000   0.55078757   -3.1027704    2820.4311  0.053478027  0.052543685            8 
 4396000   0.55122927   -3.1080434    2828.3861  0.053616662  0.052532699            9 
 4397000   0.54855444   -3.0858095    2828.6266  0.053609025  0.052521718            4 
 4398000    0.5561583   -3.1068213    2825.2908  0.053533629  0.052510757            5 
 4399000   0.54659386   -3.0739724    2837.4607  0.053752003  0.052499804            5 
 4400000   0.54986569   -3.0884544    2829.7608  0.053593955  0.052488797           14 
 4401000    0.5415769   -3.1035428    2834.0149  0.053662329  0.052477765            4 
 4402000   0.54159145   -3.0982695    2829.5404  0.053565433  0.052466713            6 
 4403000   0.53588209   -3.0976299    2825.3376  0.053473723  0.052455637            7 
 4404000   0.54922815    -3.094105    2828.4586  0.053520636  0.052444552            6 
 4405000   0.54908902   -3.0801816    2827.5943  0.053492136   0.05243353           11 
 4406000   0.54054376    -3.080176    2817.0009  0.053279637  0.052422559           12 
 4407000   0.54819585   -3.1065566    2824.8617  0.053416189  0.052411525           13 
 4408000   0.54198634   -3.0973528    2823.8874   0.05338565   0.05240046            6 
 4409000   0.54752824   -3.0967317    2821.3163  0.053324947  0.052389398            8 
 4410000   0.53985953   -3.1041238    2827.5239  0.053430157  0.052378373           10 
 4411000   0.55083042   -3.1009782    2817.9449  0.053237075  0.052367327           18 
 4412000   0.54797278   -3.0950886    2825.0515  0.053359238  0.052356172            9 
 4413000   0.55517482   -3.1102428    2823.6559  0.053320793  0.052345033            7 
 4414000   0.54764544   -3.0982214    2835.0354  0.053523549  0.052333947           17 
 4415000   0.56230575   -3.1051179    2821.3378  0.053252883   0.05232292           14 
 4416000   0.55367953    -3.097948    2825.0904   0.05331164  0.052311821            6 
 4417000   0.53556506   -3.1000712     2821.113   0.05322453  0.052300695           18 
 4418000    0.5423751   -3.1090045    2827.1562  0.053326471  0.052289617           19 
 4419000   0.52911741   -3.0926267    2826.9972  0.053311406  0.052278554            7 
 4420000   0.54416076   -3.1053684    2823.0709  0.053225318  0.052267411            6 
 4421000    0.5440213   -3.0962916    2821.4158  0.053182081  0.052256308            8 
 4422000   0.53996337   -3.0951339    2829.9056  0.053330047  0.052245263           23 
 4423000   0.54226868   -3.1016171    2826.4068  0.053252069  0.052234202           23 
 4424000    0.5454929   -3.0804669    2824.0018  0.053194729  0.052223156           15 
 4425000   0.54295375   -3.0896848    2826.8083  0.053235561  0.052212099           12 
 4426000   0.53985612   -3.1226883    2832.6065  0.053332703  0.052201073           13 
 4427000   0.53965664   -3.1082208    2824.6249   0.05317041  0.052190027            9 
 4428000   0.54313489   -3.0974722    2820.8009  0.053086437  0.052179004           11 
 4429000   0.53616508   -3.0885358    2836.3862  0.053367695  0.052168035            9 
 4430000   0.53956492   -3.0844271    2820.2763  0.053052602  0.052157048           10 
 4431000   0.53292658   -3.0939542    2824.2104  0.053114616   0.05214602            8 
 4432000   0.55288607   -3.1022998    2829.1539  0.053195583  0.052134959            7 
 4433000   0.54215893   -3.1038806    2828.1152  0.053164058  0.052123874            5 
 4434000   0.55640377   -3.1025065    2826.0511  0.053113275  0.052112802           10 
 4435000   0.54145682    -3.105692    2828.0245  0.053138378  0.052101717            8 
 4436000   0.53032837   -3.1078371    2826.3899  0.053095693  0.052090647           17 
 4437000   0.54916205   -3.1074222    2828.4251   0.05312195  0.052079563           13 
 4438000     0.548303   -3.0864768    2822.1243  0.052991668  0.052068511           15 
 4439000   0.54819328   -3.0969158    2821.7935  0.052973522  0.052057461           12 
 4440000   0.52689963   -3.0977296     2826.681  0.053053322  0.052046405            9 
 4441000   0.54962613   -3.0989554    2830.3678  0.053110556  0.052035307           13 
 4442000   0.53850505   -3.1101106    2827.2449  0.053040014   0.05202428            7 
 4443000   0.53211039   -3.1147981    2820.4343  0.052900335  0.052013207           16 
 4444000   0.54894509   -3.1028449    2829.2861   0.05305442  0.052002102           17 
 4445000   0.54627915   -3.1229216    2827.3678  0.053006521   0.05199107           20 
 4446000   0.52279688   -3.1149787     2835.973   0.05315589  0.051980044           11 
 4447000   0.55389645   -3.1128952    2830.4784  0.053040971  0.051968992           14 
 4448000   0.54263276    -3.104368    2832.3292  0.053063722  0.051957943           18 
 4449000   0.55700079   -3.1165186    2821.8927  0.052856311  0.051946899           17 
 4450000   0.53663674   -3.1002043     2827.949  0.052957846  0.051935869           27 
 4451000   0.54932174    -3.115558    2828.6364  0.052958819   0.05192485            5 
 4452000   0.52634691   -3.0910461     2828.444  0.052943322  0.051913822            5 
 4453000   0.54986804   -3.0976255    2819.3354  0.052760974  0.051902803            6 
 4454000   0.55667373   -3.0990797    2829.6337  0.052941807  0.051891728           11 
 4455000   0.53224769   -3.1038996    2837.2563  0.053072508  0.051880685           15 
 4456000   0.52827595   -3.1250254    2819.4928  0.052728397  0.051869642            8 
 4457000   0.54472951   -3.1088806    2833.3423  0.052975513   0.05185868           19 
 4458000   0.52848351   -3.1001017    2827.1175  0.052847269  0.051847628           11 
 4459000   0.53894866   -3.1228772    2826.3145   0.05282041  0.051836652           17 
 4460000   0.53918314    -3.121765      2832.22  0.052918909  0.051825584           13 
 4461000   0.54301172   -3.1237741    2833.5231  0.052931389  0.051814536           14 
 4462000   0.53741643   -3.1058276    2830.2071  0.052857596  0.051803571           19 
 4463000   0.55146141   -3.1171311    2825.8839   0.05276503  0.051792557           17 
 4464000   0.52860537   -3.0834434    2834.0861  0.052906326  0.051781553           10 
 4465000   0.55680079   -3.1144891    2824.5717  0.052716903  0.051770562           11 
 4466000   0.54297968   -3.1110467    2829.7177  0.052801121  0.051759554           13 
 4467000   0.52957829   -3.1241271    2832.1355  0.052834406  0.051748525           18 
 4468000   0.53581447   -3.1156936    2829.9899  0.052782563  0.051737497           13 
 4469000   0.53391665   -3.1157266    2824.7179  0.052672446   0.05172642           26 
 4470000   0.53847552   -3.1144533    2829.0895   0.05274216  0.051715405           16 
 4471000   0.54615954   -3.0965649    2832.2959  0.052790127  0.051704368            9 
 4472000   0.52097365   -3.0943648    2837.4468  0.052874308  0.051693402            9 
 4473000   0.51774896   -3.0987443    2829.4735  0.052713941   0.05168235            5 
 4474000   0.53387391   -3.1296258    2824.6776  0.052612829  0.051671327            6 
 4475000   0.53024426   -3.1077033    2824.5278  0.052598283  0.051660346           25 
 4476000   0.54394842   -3.0990602    2836.5448  0.052810263  0.051649329            7 
 4477000   0.53711549   -3.1196626     2838.566  0.052836087  0.051638339            8 
 4478000   0.53265489   -3.1048405    2828.7293  0.052641234  0.051627382           12 
 4479000   0.51960776   -3.1098707    2824.9358    0.0525589  0.051616403           14 
 4480000   0.53208239   -3.1108143    2832.6576  0.052690803  0.051605446           11 
 4481000   0.53013789   -3.1214348    2836.6949  0.052754127  0.051594462            7 
 4482000   0.53937609   -3.1118636    2833.1135  0.052675768  0.051583504            5 
 4483000   0.52973525   -3.0992856    2829.1151  0.052589693  0.051572548           15 
 4484000   0.53914371   -3.1204632    2835.0666   0.05268857  0.051561603           11 
 4485000   0.52547059   -3.1261392    2828.8748  0.052561776  0.051550623            7 
 4486000   0.53504507   -3.1212909    2828.7733  0.052548174  0.051539658           14 
 4487000   0.53937086   -3.1293547    2830.2486  0.052563862  0.051528768           17 
 4488000   0.53492438   -3.1270398    2829.7807  0.052543462  0.051517869           19 
 4489000   0.54160057   -3.1274986    2828.9809   0.05251691  0.051506877           11 
 4490000   0.53710341   -3.1170239     2837.929  0.052671289  0.051495954            7 
 4491000   0.52793543      -3.1274    2833.8508  0.052583886  0.051485005           15 
 4492000   0.53492649   -3.1125981    2829.7207   0.05249556  0.051474036           17 
 4493000   0.55550895   -3.1254191    2829.3439  0.052476888  0.051463067           10 
 4494000    0.5225715   -3.1215244    2833.4753   0.05254182  0.051452081           10 
 4495000   0.52975272   -3.1248566    2839.0112  0.052632763  0.051441129           13 
 4496000   0.54317947   -3.1346654    2832.9202  0.052508159  0.051430187            9 
 4497000   0.51654248   -3.1268131    2841.2687  0.052651187  0.051419288            7 
 4498000   0.53963889   -3.1172843    2836.9585  0.052559627  0.051408405            7 
 4499000   0.54178455   -3.1218218    2829.2996  0.052406082  0.051397491           11 
 4500000   0.53256115   -3.1215879    2829.8579  0.052404777  0.051386509           10 
 4501000   0.54381602   -3.1135271    2829.7631  0.052391378  0.051375538           13 
 4502000   0.52382913   -3.1158029    2845.4644  0.052670376  0.051364678            7 
 4503000   0.53786747   -3.1193037    2832.0603  0.052410621  0.051353794           14 
 4504000   0.52635139    -3.131062    2829.2224  0.052346477  0.051342847            8 
 4505000   0.53076727   -3.1142515    2833.1914  0.052408276  0.051331889            7 
 4506000   0.53421168   -3.1214532    2834.8141  0.052426655  0.051320983           14 
 4507000    0.5361658   -3.1368594    2832.2639  0.052367871  0.051310054           14 
 4508000   0.53366574   -3.1404465    2835.4707  0.052415534  0.051299087            9 
 4509000   0.53165153   -3.1172423    2837.3345  0.052438355  0.051288159            7 
 4510000    0.5318666    -3.151262    2833.3319  0.052352771  0.051277192           17 
 4511000   0.52610161   -3.1366211    2838.1561  0.052430284  0.051266261           13 
 4512000     0.540145   -3.1380612    2838.2484  0.052420369  0.051255287           14 
 4513000   0.53253261   -3.1176748    2831.7402  0.052288577  0.051244374           12 
 4514000   0.53518535   -3.1220298    2836.6456  0.052367552  0.051233424           12 
 4515000   0.52931868   -3.1203858    2839.2865  0.052404698  0.051222556            9 
 4516000   0.53769026   -3.1018338    2838.0229  0.052369776   0.05121174            6 
 4517000   0.53736204   -3.1349835     2832.115  0.052249189  0.051200835           17 
 4518000   0.52250185   -3.1214526    2828.3852  0.052168828  0.051189916           10 
 4519000   0.53261881   -3.1319429    2838.9921  0.052352883  0.051179004            6 
 4520000   0.53753335   -3.1280248    2838.1495  0.052325766  0.051168078           12 
 4521000    0.5259701   -3.1248957    2840.4793  0.052357135  0.051157229           17 
 4522000   0.52365315   -3.1126121    2841.6572  0.052367263  0.051146285           12 
 4523000    0.5218236   -3.1293982     2832.046  0.052178606  0.051135311           15 
 4524000   0.52522092   -3.1288034    2826.5378   0.05206561  0.051124367            7 
 4525000   0.52297352   -3.1256542    2831.1787  0.052139571  0.051113454           11 
 4526000   0.50898935   -3.1222506    2834.4695  0.052188642  0.051102538            9 
 4527000   0.53971698   -3.1232482    2834.3712  0.052175304  0.051091639           12 
 4528000   0.51876702   -3.1494738    2837.2825   0.05221736  0.051080695           18 
 4529000   0.52096086   -3.1433639    2829.0381  0.052054134  0.051069705           17 
 4530000   0.52215273    -3.113894     2829.846  0.052057505  0.051058714            7 
 4531000   0.52422938   -3.1239942     2822.742  0.051915361  0.051047761            8 
 4532000   0.52090551   -3.1291022    2833.2147  0.052096476  0.051036811           16 
 4533000   0.52065033   -3.1328794    2834.6652  0.052111647  0.051025903            6 
 4534000   0.52204213   -3.1264091    2837.4279  0.052150932  0.051015017           22 
 4535000   0.52181256   -3.1430696    2834.1795  0.052079741  0.051004056           17 
 4536000     0.533536   -3.1290369    2833.5847  0.052057332   0.05099311           16 
 4537000     0.539628   -3.1306527    2833.7093  0.052048147  0.050982193            9 
 4538000   0.52597713   -3.1512854    2829.2054  0.051953971  0.050971241           13 
 4539000   0.51750862     -3.12755    2836.7184  0.052080458  0.050960274           12 
 4540000   0.53496957    -3.155839    2832.2046  0.051986134  0.050949352           11 
 4541000   0.51568793    -3.138208    2835.3298  0.052032038  0.050938457           10 
 4542000   0.52602788   -3.1346731    2834.7632  0.052010185  0.050927564           18 
 4543000   0.51649915   -3.1168431    2834.4655  0.051993277  0.050916662           11 
 4544000   0.52716935   -3.1282741    2835.1292  0.051994007  0.050905769           11 
 4545000   0.53498288   -3.1351097    2839.6718  0.052065856   0.05089488            8 
 4546000   0.52513151   -3.1257627    2842.9465  0.052114433  0.050884038            9 
 4547000    0.5218542   -3.1248726    2836.3939   0.05198288  0.050873172           11 
 4548000   0.51572337   -3.1386776    2838.9696  0.052018645  0.050862311           21 
 4549000   0.53226162   -3.1322107    2832.7108  0.051892555  0.050851369           10 
 4550000   0.53429124   -3.1171946    2830.2273  0.051835664  0.050840456           19 
 4551000   0.51639358   -3.1314711     2846.193  0.052116622  0.050829596           16 
 4552000   0.51455394   -3.1274333    2833.0128  0.051863884  0.050818723            8 
 4553000   0.52617634   -3.1464183    2833.9095  0.051868906  0.050807866            8 
 4554000   0.52326991   -3.1389288    2835.1714  0.051880606  0.050796977            7 
 4555000   0.52677782   -3.1358167    2839.4135  0.051946826  0.050786061           16 
 4556000   0.51483409   -3.1415357    2839.7184  0.051941001  0.050775178           11 
 4557000   0.52395384   -3.1405252    2835.3072  0.051848935  0.050764273           18 
 4558000   0.52005292   -3.1290115    2836.4393  0.051858259  0.050753393           12 
 4559000     0.521224   -3.1351682    2839.3446  0.051899988   0.05074257           34 
 4560000   0.51630439   -3.1444359    2838.9445  0.051881296  0.050731661           14 
 4561000   0.52849945   -3.1396301    2836.5476  0.051826126  0.050720793           20 
 4562000   0.52125928   -3.1422547    2837.3119  0.051828728  0.050709959           10 
 4563000   0.51259304   -3.1320446    2834.3767  0.051763765  0.050699093            5 
 4564000   0.51208191   -3.1233084    2837.0102  0.051800507  0.050688206           17 
 4565000   0.51276376   -3.1525663    2837.7999  0.051803576  0.050677319            6 
 4566000   0.50993032   -3.1295484    2832.2574  0.051691075  0.050666448           18 
 4567000   0.52303944   -3.1442747     2834.869   0.05172741  0.050655575           13 
 4568000   0.52990432   -3.1393677    2839.5696  0.051801839  0.050644705           10 
 4569000   0.51533734   -3.1369671    2832.9632  0.051670008   0.05063384            9 
 4570000   0.52146533   -3.1278374    2836.6659   0.05172622  0.050623029           11 
 4571000   0.51723554   -3.1304695    2838.9396  0.051756356   0.05061217           19 
 4572000    0.5265749   -3.1306246    2842.6775  0.051813166  0.050601341            7 
 4573000   0.53141275   -3.1431144    2840.6473  0.051764839  0.050590478           14 
 4574000   0.52350128   -3.1560146    2841.4055  0.051767336  0.050579607           10 
 4575000   0.52520209   -3.1199543    2836.9279  0.051674462  0.050568726           15 
 4576000   0.52071139    -3.121655    2843.5974  0.051784626  0.050557925            6 
 4577000   0.51827451   -3.1485448    2836.9856  0.051652932  0.050547059           36 
 4578000   0.52521884   -3.1529156    2831.0146  0.051532959  0.050536142           27 
 4579000    0.5225514   -3.1456738    2839.5518  0.051677073  0.050525241           28 
 4580000   0.51426092   -3.1464142    2841.1187    0.0516943  0.050514358           11 
 4581000   0.51379772   -3.1498586    2833.0213  0.051535715  0.050503481            7 
 4582000   0.51609476   -3.1504302    2835.9147   0.05157709  0.050492606           15 
 4583000   0.52664771   -3.1528101    2830.2611  0.051463036  0.050481739            7 
 4584000    0.5245514   -3.1418465    2845.6647  0.051731834  0.050470866           22 
 4585000    0.5251756   -3.1416033    2842.1291   0.05165629  0.050460076            8 
 4586000   0.52460966   -3.1396641    2832.4343   0.05146886  0.050449229            8 
 4587000    0.5127626   -3.1252159    2837.5589   0.05155074  0.050438421           18 
 4588000   0.51538022   -3.1527999    2839.9222  0.051582429  0.050427622           16 
 4589000   0.51640393   -3.1573551    2843.8382    0.0516423  0.050416793           19 
 4590000   0.51956882   -3.1389074    2838.3847  0.051532038  0.050405974            8 
 4591000   0.51929439   -3.1275516    2846.1126  0.051661088  0.050395154           15 
 4592000   0.51267716   -3.1454618    2836.0846  0.051467853  0.050384334           11 
 4593000    0.5114082   -3.1130431    2839.7556  0.051523253  0.050373555           11 
 4594000   0.51284723   -3.1449606    2842.5087  0.051561977  0.050362719           15 
 4595000   0.51904433   -3.1440884    2833.8759  0.051394195  0.050351838           13 
 4596000   0.50632018   -3.1584451    2833.7616   0.05138094  0.050340946           10 
 4597000   0.51607697   -3.1430815    2839.3853  0.051471709  0.050330099           11 
 4598000   0.51540399   -3.1519187    2842.4275   0.05151565  0.050319263            7 
 4599000    0.5208978   -3.1612802    2838.1401  0.051426761  0.050308423            8 
 4600000   0.52189896   -3.1312605    2841.6371  0.051478934  0.050297628            9 
 4601000   0.51358549   -3.1366887     2835.616   0.05135869  0.050286832            9 
 4602000   0.51686861   -3.1451381    2842.8004  0.051477625  0.050276007           11 
 4603000   0.51458392   -3.1492073     2833.202  0.051292672  0.050265151           10 
 4604000   0.51453409   -3.1413692    2844.1827  0.051480284  0.050254331           10 
 4605000   0.51594617    -3.143741    2843.7727  0.051461685  0.050243511           16 
 4606000   0.51762625   -3.1533247    2833.8421  0.051270844  0.050232675           20 
 4607000   0.50675306   -3.1527079    2842.9951  0.051425279  0.050221857           11 
 4608000   0.52069864   -3.1518885    2837.5945  0.051316452   0.05021104           10 
 4609000    0.5216748   -3.1684331    2836.6766  0.051288721  0.050200227            8 
 4610000   0.50844692   -3.1447578    2839.6191  0.051330786  0.050189421           13 
 4611000   0.51746773    -3.135395    2837.3881  0.051279333  0.050178587           13 
 4612000   0.51032912   -3.1449466    2841.1143  0.051335542  0.050167731           12 
 4613000   0.51252484   -3.1580685    2837.4724  0.051258624  0.050156881           15 
 4614000    0.5267907    -3.149475    2837.7929  0.051253304  0.050146045            9 
 4615000   0.50902999    -3.152045    2839.8382  0.051279129   0.05013519            8 
 4616000   0.51241928   -3.1427807    2840.1993   0.05127454  0.050124342           14 
 4617000   0.51930512   -3.1567344     2832.094   0.05111714  0.050113478           19 
 4618000   0.51698834   -3.1473514    2837.8583   0.05121009  0.050102572           10 
 4619000   0.50531937   -3.1597782    2841.2383  0.051259983   0.05009172           13 
 4620000   0.50371766   -3.1523225    2834.4428  0.051126313  0.050080844           18 
 4621000   0.51495933    -3.139288    2830.3058  0.051040644  0.050069971           13 
 4622000   0.50450573   -3.1574432    2833.6863  0.051090551  0.050059103           12 
 4623000   0.51700867   -3.1693843    2842.8768  0.051245165  0.050048198           11 
 4624000   0.51747117   -3.1621982    2843.6884  0.051248709   0.05003733            5 
 4625000   0.52153367   -3.1581466    2833.5261  0.051054524  0.050026536           12 
 4626000   0.50749406   -3.1532872    2841.6857  0.051190477  0.050015699            8 
 4627000   0.52578298   -3.1526255    2834.3976  0.051048152   0.05000483           15 
 4628000   0.50775735   -3.1519301    2833.6029  0.051022813  0.049993964           12 
 4629000   0.51319172   -3.1525782    2835.2828  0.051042033  0.049983064           21 
 4630000   0.49852081    -3.150269    2839.4705   0.05110638   0.04997217           12 
 4631000   0.50640992   -3.1586446     2840.108  0.051106816  0.049961266            5 
 4632000    0.5140996   -3.1458054    2834.0472  0.050986744  0.049950384           12 
 4633000   0.51496956   -3.1377008    2838.3476   0.05105309  0.049939556           23 
 4634000   0.50199542   -3.1499908    2839.3777  0.051060598  0.049928747           14 
 4635000    0.5181778   -3.1390038     2840.541  0.051070496  0.049917882           10 
 4636000   0.51030404   -3.1477531    2835.4878  0.050968647  0.049907015            9 
 4637000   0.52886991   -3.1631364    2835.1027  0.050950735  0.049896107           10 
 4638000   0.49685486   -3.1660447    2830.9148  0.050864503  0.049885174           15 
 4639000   0.51689504   -3.1563383    2833.4629  0.050899313   0.04987424           11 
 4640000   0.51038612   -3.1664892    2841.5101  0.051032868  0.049863313           16 
 4641000   0.51121991   -3.1668615    2840.9851  0.051012445  0.049852399            9 
 4642000   0.51467602   -3.1554906    2839.7109  0.050978582   0.04984148           23 
 4643000   0.50574213   -3.1544846    2837.5092  0.050928085  0.049830622           16 
 4644000   0.49734765   -3.1700523    2842.5884  0.051008261  0.049819731           18 
 4645000   0.50311406   -3.1574961    2830.1083  0.050773382  0.049808822           13 
 4646000   0.49864482   -3.1696883    2836.2925  0.050873377  0.049797861           12 
 4647000   0.51675876   -3.1464722    2835.1161  0.050841333  0.049786958           12 
 4648000   0.51379507    -3.154851    2843.0337  0.050972348  0.049776072           11 
 4649000   0.49394455   -3.1524811    2843.6176   0.05097185  0.049765223           12 
 4650000   0.50980355   -3.1735125    2845.7463  0.050999037  0.049754434           18 
 4651000   0.50812226   -3.1674443    2843.8339  0.050953808  0.049743524           14 
 4652000   0.51351205   -3.1666739    2834.6141  0.050777696    0.0497327            9 
 4653000   0.50559601   -3.1496822    2838.6529  0.050839116  0.049721822            7 
 4654000    0.5077502   -3.1659747    2836.9886  0.050798393  0.049710949           15 
 4655000   0.49856425   -3.1596983    2836.4966  0.050778672  0.049700044            8 
 4656000    0.5028412   -3.1671953    2829.2461  0.050637995  0.049689135           21 
 4657000   0.50376801   -3.1735966    2830.9913  0.050658351  0.049678274            7 
 4658000   0.51006968   -3.1657823    2839.6958  0.050803202  0.049667431           10 
 4659000   0.51320081   -3.1651812    2839.8187  0.050794496  0.049656615            8 
 4660000   0.50131261   -3.1606452    2837.3729  0.050739859  0.049645828           20 
 4661000   0.50545578   -3.1522119    2839.9027  0.050774203  0.049635042           10 
 4662000   0.49668524   -3.1666496    2836.2342  0.050697737  0.049624192            3 
 4663000    0.4865525   -3.1620892    2841.7014   0.05078457  0.049613331           11 
 4664000   0.52102872   -3.1653638    2837.5452  0.050699421  0.049602482           21 
 4665000   0.50581852   -3.1597932    2839.6112  0.050725459  0.049591624           23 
 4666000   0.50358866   -3.1382872    2841.2657  0.050744136  0.049580871           15 
 4667000   0.50879484   -3.1696428    2835.8141  0.050635921  0.049570067            8 
 4668000    0.4987655   -3.1659346    2842.6496    0.0507471  0.049559177           14 
 4669000   0.50445493   -3.1604246    2833.1084  0.050565938  0.049548359           12 
 4670000   0.49721389   -3.1793949    2843.9218  0.050748069  0.049537574           14 
 4671000   0.50422107   -3.1690855    2840.0065  0.050667354  0.049526758           17 
 4672000   0.51039323   -3.1716855     2833.746  0.050544842  0.049515978            7 
 4673000   0.50754389   -3.1711899    2844.8236  0.050731571  0.049505204            9 
 4674000   0.51137846   -3.1576807    2841.0319  0.050653116  0.049494409           11 
 4675000   0.50245985   -3.1786777    2835.5945  0.050545357  0.049483582           25 
 4676000   0.48626314   -3.1572741    2843.9832  0.050684045  0.049472809           18 
 4677000   0.50797396   -3.1642813    2842.9943  0.050655589  0.049462049           15 
 4678000    0.5015574   -3.1677323    2838.6375  0.050567149   0.04945128           10 
 4679000   0.50129344   -3.1606233    2839.7954  0.050576964   0.04944051           18 
 4680000   0.49634686   -3.1523992    2838.8622   0.05054954  0.049429755            7 
 4681000   0.49390398   -3.1613118    2842.2392   0.05059886  0.049418987           17 
 4682000   0.50750497   -3.1742553    2843.8383  0.050616515  0.049408263           14 
 4683000   0.48881386   -3.1642927    2834.5648  0.050440686  0.049397533            9 
 4684000   0.50036958     -3.16472    2838.8652  0.050506427   0.04938678           14 
 4685000   0.49826073   -3.1709095    2845.1349  0.050607167  0.049376022           32 
 4686000   0.50441034   -3.1757021      2840.58  0.050515365  0.049365253           88 
 4687000   0.50241457   -3.1717195    2844.7922  0.050579479    0.0493545           15 
 4688000   0.50381324    -3.167554    2841.3344  0.050507225  0.049343747           21 
 4689000    0.5021789   -3.1692651     2838.875  0.050452744  0.049333008           12 
 4690000   0.50045701   -3.1730828     2841.976  0.050497086  0.049322222           14 
 4691000   0.50328555   -3.1758544    2842.4912  0.050495474  0.049311447           12 
 4692000   0.49783803    -3.182157    2841.3817  0.050465007  0.049300658           21 
 4693000    0.5034344    -3.153812    2839.8123  0.050426386  0.049289853           10 
 4694000   0.50861627   -3.1693086    2840.1443  0.050421536   0.04927905           21 
 4695000   0.49479616   -3.1888951    2842.6668   0.05045557  0.049268263           13 
 4696000    0.5068773   -3.1760897    2839.6408  0.050391127  0.049257452           10 
 4697000   0.49256712   -3.1820134    2840.2959  0.050392022  0.049246698           20 
 4698000   0.49465791   -3.1653595    2840.8236  0.050390655  0.049235927           10 
 4699000   0.50077833   -3.1766082    2844.7445  0.050449466  0.049225178           11 
 4700000   0.50931171   -3.1744597    2845.9178  0.050459535  0.049214422           16 
 4701000   0.49296107   -3.1677288    2837.8822  0.050306357  0.049203667           19 
 4702000   0.50365931    -3.185667    2841.2942  0.050356128  0.049192864           29 
 4703000   0.52065708   -3.1693852    2833.5193  0.050207657  0.049182058           16 
 4704000   0.49391793   -3.1927646    2842.3336  0.050353132  0.049171235            9 
 4705000   0.49164075   -3.1749045    2843.1191  0.050356343  0.049160409           16 
 4706000   0.49848286   -3.1729229    2842.1758  0.050328938  0.049149692           16 
 4707000   0.49283456   -3.1815139    2838.1188   0.05024642  0.049138903           14 
 4708000   0.50004117   -3.1704957    2842.9184  0.050320702  0.049128104           10 
 4709000   0.49022774   -3.1650872    2838.9301  0.050239438   0.04911734           15 
 4710000   0.50754276   -3.1745341    2847.7483  0.050384789  0.049106583           17 
 4711000   0.48605971   -3.1913481    2839.6187  0.050230288  0.049095813           15 
 4712000   0.51645919    -3.183774    2839.1125  0.050210676  0.049084978           17 
 4713000   0.49332675   -3.1829676    2840.3291  0.050221534  0.049074113           32 
 4714000   0.49563441   -3.1835707    2841.3116   0.05022825  0.049063349           13 
 4715000   0.49272368   -3.1772861    2838.0108  0.050159258  0.049052557            9 
 4716000   0.50048195   -3.1868951    2845.9374  0.050288687  0.049041814            9 
 4717000   0.50464095   -3.1938498    2847.0273  0.050297281  0.049031039            9 
 4718000    0.4996061   -3.1873739    2840.0418  0.050163236  0.049020228           18 
 4719000   0.49503326   -3.1703546     2839.537  0.050143693   0.04900947           26 
 4720000    0.4886979   -3.1831561    2839.1118  0.050125561  0.048998713           43 
 4721000   0.48390433   -3.1926517    2838.9415  0.050111937  0.048987891           19 
 4722000   0.49854331    -3.171652    2843.5927   0.05018341  0.048977112           13 
 4723000   0.50091525   -3.1815084    2838.7324  0.050087029  0.048966327           11 
 4724000   0.48547264   -3.1799161    2838.6755  0.050075421  0.048955522           12 
 4725000   0.49442912   -3.1797586    2845.4202  0.050183778  0.048944753           11 
 4726000   0.48992443   -3.1760871    2840.5964  0.050088102  0.048934001           12 
 4727000   0.49121797   -3.1873583    2835.4323  0.049986467  0.048923308           12 
 4728000   0.49496018   -3.1875814    2838.7953  0.050035167  0.048912548           15 
 4729000   0.48735069   -3.1764334    2840.3792  0.050052498  0.048901789           22 
 4730000   0.49639407   -3.1828146     2838.523  0.050009215  0.048891019           12 
 4731000   0.49842371   -3.1825043    2839.9817  0.050024339  0.048880243           14 
 4732000   0.50322234   -3.1883278     2844.228  0.050088546  0.048869517           16 
 4733000   0.48846396   -3.1889917    2843.0646   0.05005748  0.048858809           23 
 4734000   0.48792025   -3.1891717    2841.2378  0.050014748  0.048848098           21 
 4735000    0.4994891   -3.1845369    2842.3455  0.050023681  0.048837375           13 
 4736000   0.49666344   -3.1784763    2838.8436    0.0499515  0.048826647            9 
 4737000   0.49360089   -3.1755032    2839.9896  0.049961114  0.048815936           44 
 4738000   0.50025996   -3.1666824    2837.2268  0.049901977  0.048805204           11 
 4739000   0.48906931   -3.1836918    2840.3771  0.049946844  0.048794524           16 
 4740000   0.48266439   -3.1771338    2842.1357  0.049967225  0.048783849           10 
 4741000    0.4922873   -3.1780922    2840.8349  0.049933821  0.048773141           14 
 4742000   0.48996549   -3.1829257    2841.0126  0.049926413  0.048762388           12 
 4743000   0.48804022   -3.1844626    2845.8931  0.050001636  0.048751642           14 
 4744000   0.49531932   -3.1772714    2840.4347  0.049895213  0.048740931           11 
 4745000   0.49432084   -3.1776425    2843.2094  0.049933428  0.048730179           19 
 4746000   0.50253389   -3.1864334    2848.0531  0.050007957  0.048719462           10 
 4747000   0.49508033   -3.1956011    2840.9315  0.049872401   0.04870871           10 
 4748000    0.4956053   -3.1777413    2846.7135   0.04996338  0.048697978           18 
 4749000   0.48573002   -3.1688809    2836.4435  0.049772645  0.048687271           10 
 4750000   0.49059027   -3.1997485    2838.4321  0.049797055  0.048676492           12 
 4751000   0.49229138   -3.1847191    2837.9551  0.049778207  0.048665678           15 
 4752000   0.47820373   -3.1755049    2846.9383  0.049925265  0.048654976            9 
 4753000   0.48158037   -3.1993999    2846.0723  0.049899578  0.048644276           18 
 4754000   0.49287655   -3.1878528     2848.347  0.049928954  0.048633571           16 
 4755000   0.50671106    -3.185047    2843.0873  0.049826275  0.048622913           20 
 4756000   0.49712031   -3.1959941    2847.3811  0.049891033  0.048612206           17 
 4757000   0.48952428   -3.2029596    2840.1659  0.049754149  0.048601528           17 
 4758000   0.50032906   -3.1879992    2843.0795  0.049794723  0.048590787           24 
 4759000   0.49787705   -3.1925143    2842.2716  0.049770113  0.048580077           30 
 4760000   0.50314692    -3.181391    2853.2346  0.049951586    0.0485694           11 
 4761000   0.49430825   -3.1979475    2854.1404  0.049956948  0.048558781            9 
 4762000   0.49418397   -3.1987699    2846.4408  0.049811717  0.048548108           10 
 4763000   0.48191469   -3.2032597     2841.669  0.049717772  0.048537413           45 
 4764000   0.50126324   -3.1964297    2849.0614  0.049836646  0.048526747           20 
 4765000   0.49008311   -3.1774824    2845.0539  0.049756102  0.048516104           15 
 4766000   0.48481814   -3.1891374    2843.6852  0.049721731  0.048505451           18 
 4767000   0.49332975   -3.1911803    2848.0718  0.049787983   0.04849482            7 
 4768000   0.49033233    -3.187407    2851.0909  0.049830307  0.048484234           20 
 4769000   0.48828277   -3.2108989    2849.4058  0.049790414  0.048473626           19 
 4770000   0.48505892    -3.180426    2840.8948  0.049631285   0.04846302           18 
 4771000   0.47658923   -3.1972968     2843.424   0.04966506  0.048452401           18 
 4772000   0.49145829   -3.2113529    2846.2437  0.049703892  0.048441775           24 
 4773000   0.47303157   -3.2077752     2846.512  0.049698163   0.04843119           12 
 4774000   0.47844215   -3.1945766    2844.8327   0.04965844  0.048420587           32 
 4775000    0.4838531   -3.1843162    2840.5378  0.049573086  0.048409951           43 
 4776000   0.47866745   -3.1900697    2852.1744  0.049765745  0.048399352           13 
 4777000   0.48792928    -3.194999    2848.5614  0.049692299  0.048388781           10 
 4778000   0.48821854   -3.1854884    2845.5404   0.04962921  0.048378153           13 
 4779000   0.48199656   -3.1856486    2838.8915  0.049502886  0.048367549            9 
 4780000   0.48581732    -3.193316    2846.2429  0.049620693   0.04835695           14 
 4781000   0.48005572   -3.1970435    2851.8996  0.049708911  0.048346372           12 
 4782000   0.48559809   -3.1992985    2849.8391  0.049662609  0.048335779           38 
 4783000   0.48086852   -3.1985587    2846.9541  0.049601961  0.048325148           28 
 4784000   0.48923662     -3.19841    2850.9349  0.049660933  0.048314522           27 
 4785000   0.47796666   -3.1908714    2851.1068  0.049653549  0.048303921           38 
 4786000   0.49378468   -3.1996442    2853.9968  0.049693495  0.048293355           16 
 4787000    0.4935551   -3.1980507     2845.944  0.049542928  0.048282756           22 
 4788000   0.49302244   -3.2160158    2843.3098  0.049486734  0.048272135           10 
 4789000   0.48762322   -3.2006912     2848.276  0.049562818  0.048261496           15 
 4790000   0.47738385   -3.2183841     2839.143  0.049393581  0.048250866           13 
 4791000   0.49524668   -3.1965373    2837.4193   0.04935329   0.04824022           28 
 4792000   0.48133962   -3.2092159    2845.2519  0.049479199  0.048229555           15 
 4793000   0.48130051   -3.1965289    2847.4258  0.049506673  0.048218887           31 
 4794000   0.48302884   -3.1961054    2842.1922  0.049405371   0.04820829           32 
 4795000    0.4856462   -3.2083063    2844.8984  0.049442099  0.048197682           23 
 4796000   0.48703999   -3.1956791    2848.1502  0.049488293  0.048187033           28 
 4797000   0.48589756   -3.2002111    2851.0057  0.049527582  0.048176414           21 
 4798000   0.47811022   -3.1758302    2849.0135  0.049482658  0.048165831           14 
 4799000   0.47632611   -3.1880602    2854.4885  0.049567419  0.048155244           20 
 4800000   0.48679942   -3.1939709    2844.9765  0.049391954  0.048144632           18 
 4801000   0.48204246     -3.21565    2847.7449  0.049429718  0.048134035           12 
 4802000   0.48507648      -3.2046    2848.5897  0.049434084  0.048123419           23 
 4803000   0.48379167   -3.2037996    2850.2579  0.049452737   0.04811282           14 
 4804000   0.49368405   -3.1891897    2847.4062  0.049392974  0.048102231           14 
 4805000   0.50207029   -3.2164091    2847.9411  0.049391973  0.048091655           23 
 4806000   0.49241566   -3.1985823    2843.1281  0.049298241  0.048081077           82 
 4807000   0.47781062   -3.2030901    2847.0408  0.049355814  0.048070433           25 
 4808000   0.47385302   -3.2175526     2844.196  0.049296243  0.048059836           47 
 4809000   0.48556117   -3.2008882    2853.1291  0.049440789  0.048049219           14 
 4810000   0.47899213   -3.2037736    2846.5493  0.049316516  0.048038602           17 
 4811000   0.48857239   -3.1963075    2846.5607  0.049306463  0.048027974           29 
 4812000   0.49205814   -3.2003063    2844.9432  0.049268204  0.048017346           16 
 4813000   0.48206257   -3.2017901    2848.6098  0.049321452  0.048006737           27 
 4814000   0.48305673   -3.1999311    2851.1614  0.049355376  0.047996142           27 
 4815000   0.49189121   -3.1964824    2853.0002  0.049376951  0.047985558           31 
 4816000   0.48972688   -3.2228866    2849.7333  0.049310169  0.047974989           22 
 4817000   0.47717684   -3.2038593    2844.7517  0.049213751  0.047964436           23 
 4818000   0.47667267   -3.2006074    2848.0759  0.049261033  0.047953867            9 
 4819000   0.47467167   -3.1936839    2839.1926  0.049097195  0.047943341           11 
 4820000   0.48804836   -3.2089757    2843.1573  0.049155554  0.047932759            7 
 4821000   0.49075218   -3.2086351    2848.1425   0.04923153  0.047922169           17 
 4822000   0.47656744   -3.2040636    2849.1006  0.049237878  0.047911561            7 
 4823000   0.47800512   -3.2084566    2845.4766  0.049165053  0.047901004           13 
 4824000   0.47790317   -3.2170847    2855.8124  0.049333409  0.047890438           12 
 4825000   0.46985909   -3.2002846    2848.9752  0.049205098  0.047879898            7 
 4826000   0.48148455   -3.2112638    2857.5966  0.049343773    0.0478694           20 
 4827000   0.47595256   -3.2029719    2851.0836  0.049221111  0.047858846           24 
 4828000   0.47673558   -3.1981602    2848.5353   0.04916693  0.047848302           13 
 4829000   0.48280562   -3.1993035     2845.806   0.04910965  0.047837763           12 
 4830000   0.48558766   -3.2196033    2844.0031  0.049068376  0.047827242           15 
 4831000   0.47937724   -3.2044353    2855.4563  0.049255783  0.047816708           18 
 4832000   0.46587349   -3.2066304    2849.4059  0.049141245  0.047806219           12 
 4833000   0.47366935   -3.2049295    2850.1832  0.049144479  0.047795723           16 
 4834000   0.48100254   -3.2173378    2852.0376  0.049166281  0.047785203            9 
 4835000   0.47962472   -3.2073387    2850.8979  0.049136468  0.047774651            8 
 4836000   0.47508379   -3.1959867    2846.6167  0.049052535  0.047764097           18 
 4837000   0.46271115    -3.199551     2855.802   0.04920064  0.047753558           26 
 4838000   0.47311603   -3.2249161    2850.7276  0.049103065  0.047743038           22 
 4839000   0.48221048   -3.2356015    2846.0563  0.049012473  0.047732456           38 
 4840000    0.4731292   -3.2335271    2846.4418  0.049008984  0.047721846           27 
 4841000   0.47494617   -3.2217384    2849.8732  0.049057929  0.047711287           24 
 4842000   0.48312332   -3.2147486    2850.5669  0.049059735  0.047700746           56 
 4843000   0.47261315   -3.2039707    2844.7251  0.048949086  0.047690171           27 
 4844000   0.47727379   -3.2165157    2853.3424  0.049087229   0.04767966           38 
 4845000   0.47456971   -3.2157554    2847.9293  0.048983993  0.047669105           15 
 4846000   0.47780342   -3.2082713    2847.3477  0.048963883  0.047658561           17 
 4847000    0.4761251   -3.2109513    2849.8803  0.048997323  0.047648035           24 
 4848000   0.48064294   -3.2075613    2849.2629  0.048976603  0.047637531            9 
 4849000    0.4822241   -3.1975948    2849.0104  0.048962165  0.047627025           17 
 4850000   0.46657762   -3.2088625    2849.0844   0.04895334  0.047616495           62 
 4851000   0.46818677   -3.1964222    2855.9942   0.04906195  0.047605979           10 
 4852000   0.46933407    -3.207718    2849.5493  0.048941145  0.047595473           15 
 4853000   0.47092038   -3.2268412    2842.9189  0.048817208  0.047584912           22 
 4854000   0.48014678   -3.2105277    2842.2887  0.048796331   0.04757437           10 
 4855000   0.48111341   -3.2269825    2845.7116  0.048845033  0.047563787           13 
 4856000   0.48280427   -3.2306081    2845.4914  0.048831196  0.047553195           33 
 4857000   0.47870959   -3.2279669     2840.971  0.048743583  0.047542631           21 
 4858000   0.47283836   -3.2044873    2847.3745  0.048843395   0.04753209           30 
 4859000   0.47583719   -3.1987599    2848.5687  0.048853822   0.04752157           16 
 4860000   0.47714863   -3.2347271    2841.9158  0.048729695  0.047510976           47 
 4861000   0.46920008   -3.2184035    2848.2998  0.048829112   0.04750041           25 
 4862000   0.46498306   -3.2151786    2844.4877  0.048753731  0.047489826           17 
 4863000   0.47449511   -3.2119512    2844.9542    0.0487517  0.047479246           27 
 4864000   0.48023249   -3.2258805    2845.8352   0.04875677  0.047468701           10 
 4865000     0.472805   -3.2288784    2849.7618  0.048814008  0.047458158           12 
 4866000   0.46474574   -3.2093971    2847.7506  0.048769533  0.047447602           14 
 4867000   0.47703723   -3.2125562    2838.8697  0.048607453  0.047437061           17 
 4868000   0.46829815   -3.2193634    2842.6066  0.048661439  0.047426527           25 
 4869000   0.46478115   -3.2147639    2856.6831  0.048892364  0.047416016            7 
 4870000   0.46991263   -3.2032985    2852.0735  0.048803448  0.047405527            8 
 4871000   0.46840477   -3.2334684    2853.7984  0.048822938   0.04739495           20 
 4872000   0.46599126   -3.2184418    2848.7154  0.048725975  0.047384402           11 
 4873000   0.48969435   -3.2334521    2847.7935   0.04870021   0.04737381           40 
 4874000   0.47589728    -3.226872    2839.9986  0.048556945  0.047363247           14 
 4875000    0.4604866   -3.2324397    2846.5077  0.048658251  0.047352673           29 
 4876000   0.47462726   -3.2127656    2843.4737   0.04859642  0.047342071           11 
 4877000   0.47411681   -3.2320372     2839.967  0.048526535  0.047331486           11 
 4878000   0.47297835   -3.2388054    2843.3533  0.048574438  0.047320912           18 
 4879000   0.46351279   -3.2302374    2848.5217  0.048652758  0.047310306           13 
 4880000   0.46833646   -3.2089852     2852.599  0.048712415  0.047299729           24 
 4881000   0.48148427   -3.2395279    2845.6807  0.048584319  0.047289116           18 
 4882000   0.48026641   -3.2254886    2845.6089  0.048573142  0.047278497           33 
 4883000   0.47323821   -3.2186198    2845.1115  0.048554705  0.047267909           13 
 4884000   0.48585031   -3.2284644    2845.8688  0.048557685   0.04725734           27 
 4885000   0.45087135   -3.2312012    2839.1294  0.048432777   0.04724671           35 
 4886000   0.46569722   -3.2084909    2837.1695  0.048389438  0.047236115           24 
 4887000   0.47214205   -3.2242405     2844.872  0.048510879  0.047225535           14 
 4888000   0.47210571    -3.229569    2854.5054   0.04866519   0.04721495           15 
 4889000   0.46533277   -3.2283252    2846.4821  0.048518479   0.04720439           36 
 4890000   0.46072982   -3.2250282    2843.5095  0.048457899  0.047193842           18 
 4891000    0.4631053   -3.2104467    2849.6743  0.048553028  0.047183299           16 
 4892000   0.47602189   -3.2313038    2845.4787  0.048471632  0.047172746           14 
 4893000   0.46982297   -3.2354308    2842.0992   0.04840417   0.04716215           12 
 4894000   0.48050856    -3.241335    2849.4222  0.048518972  0.047151566           15 
 4895000   0.46046012   -3.2403604     2840.628  0.048359346  0.047140977           36 
 4896000   0.47384562   -3.2395661    2844.5445  0.048416131  0.047130447           10 
 4897000   0.46995504   -3.2340071    2842.0804  0.048364312  0.047119849           29 
 4898000   0.46259914   -3.2401001    2844.5262   0.04839605  0.047109254           29 
 4899000   0.47107904   -3.2299486    2839.6354  0.048302976   0.04709867           14 
 4900000   0.45568615   -3.2422122    2838.4682   0.04827327  0.047088086           17 
 4901000   0.46307805   -3.2311022    2838.2814  0.048260242  0.047077475           32 
 4902000   0.46463089   -3.2294648    2847.2349  0.048402605  0.047066893           26 
 4903000   0.47507339   -3.2276591    2850.0507  0.048440593  0.047056371           10 
 4904000   0.47296002   -3.2430358    2848.1594  0.048398576  0.047045847           26 
 4905000   0.47101133   -3.2104594    2843.5023  0.048309588   0.04703531           35 
 4906000   0.46990172   -3.2384982    2852.1513  0.048446652  0.047024778           15 
 4907000   0.47553526   -3.2322068    2844.2291   0.04830224  0.047014238           10 
 4908000   0.46298971   -3.2070841    2839.6483   0.04821462  0.047003701           31 
 4909000    0.4670405   -3.2314487    2843.3945  0.048268394  0.046993154           28 
 4910000     0.463627   -3.2212613     2840.818  0.048214833  0.046982578           17 
 4911000   0.47302419    -3.233712    2843.8909  0.048257158  0.046972007           30 
 4912000    0.4558677   -3.2305521    2840.9997  0.048198286  0.046961412           21 
 4913000   0.46571805   -3.2286702    2843.7582  0.048235263  0.046950878           45 
 4914000   0.46220203   -3.2351904    2847.8716  0.048295203   0.04694036           19 
 4915000   0.45626471   -3.2345138    2847.7315  0.048283002  0.046929787           95 
 4916000   0.47527529   -3.2385029    2838.1156  0.048110177  0.046919246           74 
 4917000    0.4709372   -3.2333927    2848.6758  0.048279367  0.046908699           18 
 4918000   0.47451442   -3.2401826    2849.1518  0.048277616  0.046898161           29 
 4919000     0.465155   -3.2305631    2839.3344  0.048101485  0.046887595           13 
 4920000   0.45990802   -3.2379225    2843.5959  0.048163887  0.046877049           11 
 4921000   0.46724451   -3.2250145    2842.7603  0.048139949  0.046866469           23 
 4922000   0.45380724   -3.2370963     2846.956  0.048201206  0.046855919           29 
 4923000   0.46028776   -3.2304313    2843.2849  0.048129272  0.046845346           48 
 4924000   0.46791537   -3.2358476    2840.3235   0.04806938  0.046834832           15 
 4925000   0.46420632   -3.2228182    2842.2198  0.048091705  0.046824322           45 
 4926000   0.46621908   -3.2391643    2846.4005  0.048152669  0.046813804           47 
 4927000   0.47354516   -3.2543282    2851.0588  0.048221683   0.04680327           18 
 4928000   0.46389181   -3.2427026    2846.9778  0.048142887    0.0467927           32 
 4929000   0.46109215   -3.2294423    2846.6134  0.048126959  0.046782172           12 
 4930000    0.4634327   -3.2320808    2847.0209  0.048124085  0.046771651           19 
 4931000   0.46704656   -3.2425099      2847.25  0.048118197  0.046761121           11 
 4932000   0.46424817   -3.2357886    2842.0368  0.048020356  0.046750593           16 
 4933000   0.46348137   -3.2331823    2849.7604  0.048141097  0.046740088           27 
 4934000   0.45674056   -3.2413562     2850.384  0.048141873  0.046729574           11 
 4935000   0.45862025   -3.2442625    2843.7366  0.048019868  0.046719085           15 
 4936000   0.47121193   -3.2454208    2850.2115  0.048119453  0.046708592           12 
 4937000    0.4575678    -3.248764    2843.0155  0.047988244  0.046698103           15 
 4938000   0.46844939   -3.2204189    2837.8615  0.047891547  0.046687638           18 
 4939000   0.46247056   -3.2505752    2842.1754  0.047954636  0.046677142           20 
 4940000   0.46559514   -3.2435137    2842.2646  0.047946433  0.046666645           25 
 4941000   0.47052849   -3.2581364    2842.1578   0.04793493  0.046656132           29 
 4942000   0.46741416   -3.2633507    2847.1895  0.048010075  0.046645601           36 
 4943000   0.46855902   -3.2335651    2852.5195   0.04809022   0.04663509           15 
 4944000   0.47348672   -3.2489082    2848.0833  0.048005718  0.046624608           43 
 4945000   0.45514313    -3.267029    2842.2275  0.047897329  0.046614092           27 
 4946000   0.45074804   -3.2530171    2845.2744  0.047938981  0.046603572           36 
 4947000   0.45684733    -3.238045    2843.8112  0.047904643  0.046593081           11 
 4948000   0.46475418   -3.2400404    2840.9382  0.047846574  0.046582618           22 
 4949000   0.45657673   -3.2422069    2842.2937  0.047859732  0.046572108           32 
 4950000   0.45544446   -3.2443668    2849.9817  0.047979489  0.046561669           19 
 4951000    0.4658294   -3.2339189    2844.1614  0.047871835  0.046551255           14 
 4952000   0.46065785     -3.23418    2846.1049  0.047894872   0.04654086           20 
 4953000   0.46774653   -3.2392485     2850.325  0.047956204  0.046530422           27 
 4954000   0.45593424   -3.2602154    2846.4604  0.047881516  0.046519922           20 
 4955000   0.46219286    -3.248793    2855.0391  0.048016131  0.046509423           24 
 4956000   0.45746619   -3.2436098    2843.4331   0.04781129  0.046498966           67 
 4957000   0.45844052   -3.2582784    2849.3997  0.047901952  0.046488521           67 
 4958000   0.45030981   -3.2448531    2852.7621  0.047948805  0.046478029           37 
 4959000   0.45795133   -3.2511942    2845.5558  0.047818038  0.046467572           22 
 4960000   0.46068616   -3.2568178    2850.5626  0.047892517  0.046457135           45 
 4961000   0.46495525   -3.2452479     2842.542  0.047748135  0.046446661           34 
 4962000   0.45942996   -3.2447855    2844.1364  0.047765289  0.046436206           44 
 4963000   0.46456197   -3.2203068    2846.8532  0.047801284  0.046425773           42 
 4964000    0.4642356   -3.2499906    2846.2849  0.047782113  0.046415293           33 
 4965000   0.45601071   -3.2555033    2843.5758  0.047727019  0.046404796           83 
 4966000   0.45371214   -3.2420694    2838.6449  0.047634664  0.046394342           49 
 4967000   0.46084774   -3.2499739    2838.9332   0.04762991  0.046383865           73 
 4968000   0.45300185   -3.2395408    2847.6257  0.047766131   0.04637343           11 
 4969000   0.45808843   -3.2417922    2844.4382  0.047703063  0.046362983           18 
 4970000   0.46283715   -3.2411786    2840.3889  0.047625569  0.046352535           35 
 4971000   0.45599356     -3.24946     2846.293  0.047714963  0.046342104           69 
 4972000   0.45572559   -3.2467009    2844.3477  0.047672762  0.046331649           41 
 4973000   0.45359989   -3.2489092    2840.8502  0.047604568  0.046321181           42 
 4974000   0.45422672   -3.2341981    2846.5827  0.047691039  0.046310761           43 
 4975000   0.45255938   -3.2531297     2841.424  0.047595043  0.046300295           63 
 4976000     0.454252   -3.2461511    2855.7951  0.047826151  0.046289852           58 
 4977000   0.45662952   -3.2568798    2843.1599  0.047604981  0.046279378           32 
 4978000   0.44913434    -3.261472    2849.5424  0.047702264  0.046268906           40 
 4979000   0.46195475   -3.2490638    2847.0121  0.047650333  0.046258462           13 
 4980000   0.44786478   -3.2428825    2846.0117  0.047624024  0.046247997           35 
 4981000   0.45021696   -3.2539549    2844.0619  0.047581843  0.046237508           18 
 4982000   0.45482776   -3.2546621    2842.8118  0.047551381  0.046227039           26 
 4983000   0.46077218   -3.2558435      2839.91   0.04749331   0.04621659           18 
 4984000   0.45871934   -3.2540886    2839.9766  0.047484894  0.046206093           43 
 4985000   0.45934134   -3.2649711    2848.0688  0.047610645   0.04619559           22 
 4986000   0.45090715   -3.2450661    2845.4968   0.04755811  0.046185084           20 
 4987000   0.45504497   -3.2576178     2845.294  0.047545185    0.0461746           20 
 4988000   0.44525956   -3.2580646    2843.3081  0.047502474  0.046164138           15 
 4989000   0.45101896   -3.2610409    2839.3661  0.047427108  0.046153666           14 
 4990000   0.45246454   -3.2311688     2847.738  0.047557415  0.046143216           24 
 4991000   0.45353407   -3.2420865    2849.3093  0.047574122  0.046132751           24 
 4992000   0.45283499   -3.2482728    2841.2093  0.047429375  0.046122325           29 
 4993000   0.45519815    -3.251132    2846.3063  0.047504945  0.046111882           23 
 4994000   0.45292844   -3.2529382    2838.8474  0.047370969  0.046101438           17 
 4995000   0.44650319   -3.2537914    2839.8377  0.047378007  0.046090978           30 
 4996000   0.45288433   -3.2465094    2845.8785  0.047469283   0.04608054           20 
 4997000   0.45400259   -3.2548053    2845.7402  0.047457478  0.046070083           30 
 4998000   0.44930744   -3.2540506    2846.1187  0.047454293  0.046059597           23 
 4999000   0.46312462   -3.2327264    2839.4882  0.047334271  0.046049145           83 
 5000000   0.44913057   -3.2454778      2839.29  0.047321499  0.046038696           61 
 5001000    0.4557795   -3.2532205    2840.6436  0.047334593  0.046028238           18 
 5002000   0.44013266   -3.2536859    2842.7733   0.04736061  0.046017774           45 
 5003000   0.44230757   -3.2663207    2843.8995  0.047369904  0.046007324           35 
 5004000   0.43979235   -3.2518172     2843.732  0.047357648  0.045996876           56 
 5005000   0.45411252   -3.2615382    2847.2833  0.047407314  0.045986417           35 
 5006000   0.45394273   -3.2563979     2843.302  0.047331569  0.045975973           16 
 5007000    0.4541794   -3.2324064    2845.0454  0.047351131  0.045965536           15 
 5008000   0.44776701   -3.2550068    2841.3943  0.047280922  0.045955101           11 
 5009000   0.45356567   -3.2502542    2843.3674  0.047304308  0.045944626           16 
 5010000    0.4566086   -3.2729589    2833.0511  0.047123272  0.045934107           30 
 5011000   0.44762535   -3.2532755    2841.9879  0.047262488  0.045923601            9 
 5012000    0.4496608   -3.2586041    2842.8689  0.047267706  0.045913144           21 
Loop time of 12125.7 on 48 procs for 5000000 steps with 4000 atoms

Performance: 71253.536 tau/day, 412.347 timesteps/s
99.4% CPU use with 48 MPI tasks x no OpenMP threads

MPI task timing breakdown:
Section |  min time  |  avg time  |  max time  |%varavg| %total
---------------------------------------------------------------
Pair    | 798.23     | 848.28     | 909.69     |  93.3 |  7.00
Neigh   | 80.153     | 83.574     | 86.358     |  19.1 |  0.69
Comm    | 769.46     | 828.86     | 886.27     |  99.2 |  6.84
Output  | 14.002     | 14.008     | 14.097     |   0.4 |  0.12
Modify  | 10222      | 10243      | 10261      |   9.6 | 84.47
Other   |            | 107.9      |            |       |  0.89

Nlocal:        83.3333 ave          89 max          77 min
Histogram: 3 1 2 5 7 14 5 6 2 3
Nghost:        2156.98 ave        2176 max        2140 min
Histogram: 4 4 5 10 3 2 10 4 3 3
Neighs:        14213.4 ave       16008 max       12649 min
Histogram: 2 2 8 3 10 11 7 3 0 2
FullNghs:      28427.5 ave       30451 max       26166 min
Histogram: 3 1 2 6 10 7 8 6 2 3

Total # of neighbors = 1364521
Ave neighs/atom = 341.13025
Neighbor list builds = 271725
Dangerous builds = 0

#clear
#
#next RN
#
#jump SELF
Total wall time: 3:22:08
