
units lj                  # Use reduced LJ style units
atom_style atomic         # Uncharged point particles
atom_modify map hash      # Needed for indexing of clusters etc
                          # Used to be able to find where atoms are in relation to each other.

lattice fcc 1.0 spacing 1 1 1
Lattice spacing in x,y,z = 1.5874011 1.5874011 1.5874011
region box block 0 10 0 10 0 10 units lattice
create_box 2 box
Created orthogonal box = (0.0000000 0.0000000 0.0000000) to (15.874011 15.874011 15.874011)
  3 by 4 by 4 MPI processor grid
create_atoms 1 box
Created 4000 atoms
  using lattice units in orthogonal box = (0.0000000 0.0000000 0.0000000) to (15.874011 15.874011 15.874011)
  create_atoms CPU = 0.008 seconds
set type 1 type/fraction 2 0.46 78393
Setting atom values ...
  1843 settings made for type/fraction
mass 1 1.0
mass 2 1.0
pair_style lj/cut  3.5
pair_modify tail  yes
pair_coeff 1  1  1.0  1.0   # Intearaction between 1 and 1 set with epsilon = 1 and sigma = 1
pair_coeff 1  2  1.5  0.8
pair_coeff 2  2  0.5  0.88

write_data data.0
System init for write_data ...
Neighbor list info ...
  update every 1 steps, delay 10 steps, check yes
  max neighbors/atom: 2000, page size: 100000
  master list distance cutoff = 3.8
  ghost atom cutoff = 3.8
  binsize = 1.9, bins = 9 9 9
  1 neighbor lists, perpetual/occasional/extra = 1 0 0
  (1) pair lj/cut, perpetual
      attributes: half, newton on
      pair build: half/bin/atomonly/newton
      stencil: half/bin/3d
      bin: standard
WARNING: Not all mixed pair coeffs generated from mixing. Use write_data with 'pair ij' option to store all pair coeffs. (../write_data.cpp:312)


#############################
#   M E L T   S Y S T E M   #
#############################

velocity all create 2.4 6229865 mom yes dist gaussian # Assign velocities
                                                    # Temperature 2.4, random number seed, zero linear momentum
                                                                                # Gaussian distribution

timestep 0.002   # simulation timestep
thermo 1000       # output thermodynamic data every 1000 steps bf 100

# Define a fix  in this case with index 1 applied to all
# particles in the simulation. This fix is for simulations
# in the anisotropic NPT ensemble. Note that we use the MTK
# correction.
fix 1 all npt temp 2.4 2.4 0.1 iso 5.68 5.68 0.5 mtk yes tchain 5 pchain 5 # Use NPT ensemble
                                                                         # Set temperature and pressure and damping
                                                                         # Numbers of thermostats in chain and in barostat
run 10000          # run for 10000 steps
Per MPI rank memory allocation (min/avg/max) = 3.642 | 3.644 | 3.648 Mbytes
Step Temp E_pair E_mol TotEng Press Volume 
       0          2.4   -5.5244938            0   -1.9253938   -4.2019961         4000 
    1000     2.434053   -5.0297732            0   -1.3796064    5.6817362     3746.128 
    2000    2.3973812    -4.942729            0   -1.3475563    5.5725374    3791.1037 
    3000    2.4253954   -4.9344405            0   -1.2972569    5.6700717    3782.7881 
    4000    2.3628262   -5.0183795            0   -1.4750263    5.2851988    3777.7911 
    5000    2.4298536   -4.9947505            0   -1.3508813    6.1056234    3730.7389 
    6000    2.4345706   -4.9960274            0   -1.3450844    5.7838784    3752.9356 
    7000    2.4113181   -4.9987032            0   -1.3826303    5.5014713    3770.0371 
    8000     2.452336   -4.9778074            0    -1.300223    5.7864363    3753.3201 
    9000    2.4122527   -4.9907568            0   -1.3732824    5.8992937    3735.3248 
   10000    2.4200215   -4.9482948            0     -1.31917    5.5406755    3787.6814 
Loop time of 2.70379 on 48 procs for 10000 steps with 4000 atoms

Performance: 639103.658 tau/day, 3698.517 timesteps/s
99.5% CPU use with 48 MPI tasks x no OpenMP threads

MPI task timing breakdown:
Section |  min time  |  avg time  |  max time  |%varavg| %total
---------------------------------------------------------------
Pair    | 1.1584     | 1.2207     | 1.3131     |   2.5 | 45.15
Neigh   | 0.21104    | 0.21877    | 0.23563    |   0.8 |  8.09
Comm    | 0.77089    | 0.89289    | 0.97213    |   3.6 | 33.02
Output  | 0.00024605 | 0.00025101 | 0.00032351 |   0.0 |  0.01
Modify  | 0.32355    | 0.35178    | 0.37191    |   2.2 | 13.01
Other   |            | 0.01936    |            |       |  0.72

Nlocal:        83.3333 ave          94 max          72 min
Histogram: 1 5 1 4 7 14 9 2 3 2
Nghost:        1702.10 ave        1729 max        1678 min
Histogram: 5 3 5 6 7 7 4 4 5 2
Neighs:        10082.0 ave       11631 max        8370 min
Histogram: 1 2 7 3 7 9 11 3 3 2

Total # of neighbors = 483937
Ave neighs/atom = 120.98425
Neighbor list builds = 902
Dangerous builds = 187

# Equilibrate just above the melting temperature to avoid step fn in T

fix 1 all npt temp 1.25 1.25 0.1 iso 5.68 5.68 0.5 mtk yes tchain 5 pchain 5
run 2000
Per MPI rank memory allocation (min/avg/max) = 3.644 | 3.645 | 3.649 Mbytes
Step Temp E_pair E_mol TotEng Press Volume 
   10000    2.4200215   -4.9482948            0     -1.31917    5.5406755    3787.6814 
   11000    1.2423609   -7.0298835            0   -5.1668081    5.6991903    2962.2049 
   12000     1.240228    -7.121985            0   -5.2621081     5.920445     2932.181 
Loop time of 0.630011 on 48 procs for 2000 steps with 4000 atoms

Performance: 548562.083 tau/day, 3174.549 timesteps/s
99.6% CPU use with 48 MPI tasks x no OpenMP threads

MPI task timing breakdown:
Section |  min time  |  avg time  |  max time  |%varavg| %total
---------------------------------------------------------------
Pair    | 0.27758    | 0.30479    | 0.33506    |   2.0 | 48.38
Neigh   | 0.04       | 0.042393   | 0.046708   |   0.6 |  6.73
Comm    | 0.20031    | 0.23382    | 0.26716    |   2.7 | 37.11
Output  | 5.2089e-05 | 5.3539e-05 | 6.8178e-05 |   0.0 |  0.01
Modify  | 0.03898    | 0.044124   | 0.049333   |   1.4 |  7.00
Other   |            | 0.004822   |            |       |  0.77

Nlocal:        83.3333 ave          90 max          77 min
Histogram: 3 1 3 11 6 8 11 2 1 2
Nghost:        2028.94 ave        2059 max        2007 min
Histogram: 5 3 8 8 5 8 6 2 2 1
Neighs:        13009.8 ave       15139 max       11507 min
Histogram: 1 4 8 12 6 11 5 0 0 1

Total # of neighbors = 624468
Ave neighs/atom = 156.11700
Neighbor list builds = 143
Dangerous builds = 14

#############################
# L I N E A R  Q U E N C H  #
#############################

# Define solid atoms. This closely follows ten Wolde  Ruiz-Montero and Frenkel  Faraday Discuss  1996  104  93-110
# Compute components of the per-atom q6 vector
compute q6 all orientorder/atom degrees 1 6 components 6 nnn NULL cutoff 1.3 # compute the Q6 parameter.
                                                                             # Use all neighbours within 1.3 unit cell.

# get number of connections
compute coord_number all coord/atom orientorder q6 0.5

# An atom is solid if it has 8 or more connections (of a possible 14)
variable is_solid atom c_coord_number>=8
group solid dynamic all var is_solid    # Must be dynamic to update
dynamic group solid defined

# do clustering
compute cluster solid cluster/atom 1.3 # Create a cluster where all atoms within are solid and max 1.3 units from another member

# define chunks one chunk per cluster
compute clus_chunks solid chunk/atom c_cluster nchunk every compress yes  # Says which atoms are in which chunk

# count the size of each chunk
compute size_chunks solid property/chunk clus_chunks count


# Find the maximum entry in the vector of chunk sizes
variable max_n equal max(c_size_chunks)


# Thermo style which includes this variable
# thermo_style custom step temp pe vol v_max_n

thermo ${N}  # Print the thermo information every 100 steps
thermo 1000  

# Reset the npt fix at a lower temperature (below freezing)
fix 1  all npt temp  ${temp} ${temp}  0.1  iso  5.68  5.68  0.5  mtk yes tchain  5  pchain  5
fix 1  all npt temp  0.45 ${temp}  0.1  iso  5.68  5.68  0.5  mtk yes tchain  5  pchain  5
fix 1  all npt temp  0.45 0.45  0.1  iso  5.68  5.68  0.5  mtk yes tchain  5  pchain  5

dump dmp2 all dcd ${N} traj.dcd
dump dmp2 all dcd 1000 traj.dcd


compute msd all msd com yes
variable twopoint equal c_msd[4]/6/(step*dt+1.0e-6)
fix 9 all vector 10 c_msd[4]
variable fit equal slope(f_9)/6/(10*dt)
thermo_style custom step temp pe c_msd[4] v_twopoint v_fit v_max_n

fix 1 all npt temp 1.25 ${temp} 0.1 iso 5.68 5.68 0.5 mtk yes tchain 5 pchain 5
fix 1 all npt temp 1.25 0.45 0.1 iso 5.68 5.68 0.5 mtk yes tchain 5 pchain 5
run 5000000 # 5000000  # Run for this many steps
Neighbor list info ...
  update every 1 steps, delay 10 steps, check yes
  max neighbors/atom: 2000, page size: 100000
  master list distance cutoff = 3.8
  ghost atom cutoff = 3.8
  binsize = 1.9, bins = 8 8 8
  4 neighbor lists, perpetual/occasional/extra = 1 3 0
  (1) pair lj/cut, perpetual
      attributes: half, newton on
      pair build: half/bin/atomonly/newton
      stencil: half/bin/3d
      bin: standard
  (2) compute orientorder/atom, occasional
      attributes: full, newton on
      pair build: full/bin/atomonly
      stencil: full/bin/3d
      bin: standard
  (3) compute coord/atom, occasional
      attributes: full, newton on
      pair build: full/bin/atomonly
      stencil: full/bin/3d
      bin: standard
  (4) compute cluster/atom, occasional
      attributes: full, newton on
      pair build: full/bin/atomonly
      stencil: full/bin/3d
      bin: standard
Per MPI rank memory allocation (min/avg/max) = 9.835 | 9.840 | 9.845 Mbytes
Step Temp PotEng c_msd[4] v_twopoint v_fit v_max_n 
   12000     1.240228    -7.121985 7.6618115e-31 5.3207022e-33 8.3333333e+20            1 
   13000    1.2387511   -7.1413299   0.47994017 0.0030765395  0.039267866            1 
   14000    1.2617647   -7.1985615   0.88944917 0.0052943401  0.036481402            2 
   15000    1.2681135   -7.1241429    1.2843783 0.0071354345  0.034603351            1 
   16000    1.2666556   -7.1405714    1.6717802 0.0087071883  0.034166724            2 
   17000     1.228434   -7.1789445    2.0959584  0.010274305  0.033776585            2 
   18000    1.2566101   -7.1084814     2.489826  0.011526972  0.033851559            1 
   19000    1.2516039   -7.1851587    2.9726664   0.01303801  0.034221974            2 
   20000    1.2490638   -7.1101153    3.3499491  0.013958121  0.034435133            2 
   21000    1.2477763   -7.1436982    3.7669313   0.01494814  0.034453142            1 
   22000    1.2242198   -7.1441392    4.1908545  0.015874449  0.034473495            2 
   23000    1.2332657   -7.1631974    4.5177122  0.016368522  0.034270218            3 
   24000    1.2280903   -7.1133283     4.904383  0.017029107   0.03391182            2 
   25000    1.2451657   -7.1230723    5.2880047  0.017626682  0.033700814            1 
   26000    1.2512952   -7.1279693    5.6963473  0.018257523  0.033553746            2 
   27000    1.2448058   -7.1159808    6.0483986  0.018667897  0.033403076            1 
   28000    1.2345963   -7.1709276    6.4317401  0.019142083  0.033299783            1 
   29000    1.2611646   -7.2022325    6.8361817    0.0196442  0.033232413            1 
   30000    1.2570656   -7.1767698    7.1015161  0.019726433  0.033085437            2 
   31000    1.2241939   -7.1805546    7.5001555  0.020161708   0.03286632            1 
   32000    1.2235662   -7.1238453    7.9179629  0.020619695   0.03268814            3 
   33000    1.2374248   -7.1603384    8.2676271  0.020877846  0.032572255            1 
   34000    1.2522683   -7.1458474    8.7262803  0.021387941  0.032514267            1 
   35000    1.2482335   -7.1583408    9.1117631  0.021694674  0.032471045            3 
   36000    1.2736975   -7.1742704    9.5635828  0.022137923  0.032465662            2 
   37000    1.2582073   -7.1713599    9.9248324  0.022353226  0.032507886            2 
   38000     1.254556   -7.1322915    10.403123  0.022813866  0.032564308            3 
   39000    1.2468082   -7.1707445    10.930112  0.023354939  0.032676207            1 
   40000    1.2480774   -7.1145913    11.385124  0.023719008  0.032814162            1 
   41000    1.2443497   -7.1440892    11.734362  0.023850329  0.032944378            5 
   42000    1.2465049   -7.1787715    12.076361  0.023961033  0.033039265            2 
   43000    1.2245864   -7.1629719    12.482997  0.024191854   0.03308681            2 
   44000    1.2190559   -7.1478404     12.95669  0.024539185   0.03313504            2 
   45000    1.2431642   -7.1617752    13.349237   0.02472081  0.033205122            1 
   46000    1.2523524   -7.1693196    13.736581  0.024885111  0.033253483            4 
   47000    1.2351458   -7.1678652    14.119098  0.025033861   0.03327567            1 
   48000    1.2167728     -7.16521    14.381589  0.024968037  0.033277454            2 
   49000    1.2233848   -7.1551551    14.808001  0.025183675  0.033270078            1 
   50000    1.2147272   -7.1568013    15.123378  0.025205631  0.033241342            2 
   51000    1.2479748   -7.1230974     15.61348  0.025512221  0.033216018            2 
   52000    1.2402797   -7.1197133    15.871177  0.025434579  0.033162656            2 
   53000    1.2557201   -7.1740071    16.189083  0.025454533  0.033107453            3 
   54000    1.2538488   -7.1143414    16.623597  0.025653698  0.033045944            2 
   55000     1.255951   -7.1600969    16.973756  0.025717812  0.033008722            5 
   56000    1.2789094   -7.1401075    17.445329  0.025960311  0.032976838            2 
   57000    1.2377074   -7.1638155    17.896722  0.026164798  0.032960604            1 
   58000    1.2414128   -7.1461711    18.292626  0.026282508  0.032959038            2 
   59000    1.2655141   -7.1795074    18.553545  0.026205572  0.032946101            1 
   60000    1.2353524   -7.1231873    19.072718  0.026489885   0.03293418            1 
   61000    1.2800675   -7.1455258    19.402679  0.026506392  0.032916907            2 
   62000    1.2500022   -7.1517897    19.829969  0.026653184  0.032907174            1 
   63000    1.2599994   -7.1783944    20.265046  0.026805616  0.032899739            1 
   64000    1.2500038   -7.1760866    20.731717  0.026994423  0.032910049            1 
   65000    1.2368208   -7.1063287     21.13047  0.027090346   0.03291738            1 
   66000    1.2750641   -7.1523594    21.524967  0.027177989  0.032921059            1 
   67000    1.2469279   -7.1864543    21.965331  0.027320063  0.032930256            2 
   68000    1.2249302   -7.1665032    22.387824  0.027436059  0.032944631            4 
   69000    1.2557812   -7.1284306    22.947027  0.027713801  0.032969406            1 
   70000    1.2657519     -7.14519     23.35443  0.027802892  0.033004779            4 
   71000    1.2629908   -7.1368222     23.66752  0.027778779  0.033034506            1 
   72000    1.2407948   -7.1421856     24.15318  0.027955069  0.033059147            1 
   73000    1.2134025   -7.1819141    24.434606  0.027893385  0.033081667            1 
   74000    1.2233756   -7.2042482    24.836396  0.027968915  0.033098349            6 
   75000    1.2422022   -7.1436037     25.26933  0.028077033  0.033115684            1 
   76000    1.2153236   -7.1572921    25.811552   0.02830214  0.033141448            3 
   77000      1.26254   -7.1751439    26.255437  0.028414975  0.033176571            2 
   78000    1.2604712   -7.1560593     26.66416   0.02848735  0.033214676            2 
   79000    1.2486731   -7.1710008     26.83833  0.028310475  0.033236789            1 
   80000    1.2477522   -7.1875297    27.326101  0.028464688   0.03324992            1 
   81000    1.2295459   -7.1997059    27.719461  0.028517964  0.033266295            2 
   82000    1.2334821   -7.1684906    28.255146  0.028714579  0.033289548            2 
   83000    1.2562008   -7.1620351    28.641877  0.028756904  0.033309027            1 
   84000      1.23029   -7.1795802    28.961932  0.028732075  0.033327387            3 
   85000    1.2256745     -7.15605    29.307661  0.028733001  0.033329948            1 
   86000    1.2353763   -7.1420282    29.728229  0.028806423   0.03333521            1 
   87000    1.2249072   -7.1705738     30.15874  0.028887682  0.033339463            1 
   88000    1.2370436   -7.1663286    30.605719  0.028982689  0.033345423            4 
   89000    1.2359369   -7.1789118    30.920223  0.028951519  0.033349251            3 
   90000     1.236143   -7.1989106    31.399783  0.029073873  0.033362492            2 
   91000     1.266075   -7.1778936    31.878106  0.029192404  0.033380432            1 
   92000    1.2284573   -7.2269087    32.042888  0.029024355  0.033387597            2 
   93000    1.2236817   -7.1906697    32.589718  0.029202256  0.033393955            1 
   94000    1.2403945   -7.1771721    33.086428   0.02933194  0.033403259            1 
   95000     1.259807   -7.1604209    33.580805  0.029456846  0.033421345            2 
   96000    1.2332566   -7.2080301      33.9972  0.029511459  0.033448366            1 
   97000    1.2462078   -7.1618788    34.395651  0.029549528  0.033472571            2 
   98000    1.2167016   -7.1840653    34.857584  0.029640803  0.033487925            2 
   99000     1.219878   -7.2266255    35.203051  0.029632198  0.033508851            2 
  100000    1.2466005   -7.1686056    35.616939  0.029680782  0.033523223            1 
  101000    1.2386302   -7.2183591    35.796056    0.0295347  0.033534587            1 
  102000    1.2284508   -7.1213662    36.368325  0.029712684  0.033533827            1 
  103000    1.2370748   -7.2089642    36.489601  0.029522331  0.033538076            2 
  104000    1.2357638   -7.1591325    36.950147  0.029607489   0.03353811            2 
  105000    1.2413573    -7.174779    37.188354  0.029514567  0.033536272            3 
  106000    1.2372163   -7.1678922    37.564669  0.029531972  0.033522424            2 
  107000    1.2422252   -7.2065743    37.780948  0.029424414  0.033507395            2 
  108000    1.2362079   -7.2059106    38.100956  0.029398886  0.033488937            2 
  109000    1.2453505   -7.1834293    38.575919  0.029492293  0.033472558            4 
  110000    1.2291991   -7.1340395    39.196548  0.029694355  0.033454824            2 
  111000    1.2629145   -7.1546004    39.413678  0.029589848  0.033436196            3 
  112000    1.2242198   -7.2066583    39.534958  0.029415891  0.033410476            5 
  113000    1.2356825   -7.1815044    39.699403  0.029276845   0.03337955            3 
  114000    1.2220337   -7.1749607    40.282131  0.029446002  0.033348808            5 
  115000    1.2251418    -7.193988    40.521481  0.029363392  0.033316833            2 
  116000    1.2275847   -7.1710057    40.826363  0.029329284  0.033281823            1 
  117000    1.2319097   -7.1466377    41.115675  0.029284669  0.033246449            3 
  118000     1.215044   -7.2135325    41.222693  0.029112071  0.033204661            1 
  119000      1.25105   -7.1376938    41.921519  0.029356806  0.033163815            2 
  120000    1.2279127    -7.133975    42.223826  0.029322101  0.033129448            3 
  121000    1.2456407   -7.2111126    42.455599  0.029239393  0.033092733            1 
  122000    1.2289528   -7.2056818    42.870309  0.029282998  0.033052165            2 
  123000    1.2103458   -7.1892909    43.318375  0.029348493  0.033017397            1 
  124000    1.2591022    -7.208837    43.706035  0.029372335  0.032988423            2 
  125000    1.2300316   -7.1894753    44.351907  0.029567938  0.032962115            2 
  126000    1.2420828   -7.1732611    44.636322  0.029521377  0.032942867            2 
  127000     1.214179    -7.157751    45.260009  0.029698169  0.032924385            3 
  128000    1.2456908   -7.1675516    45.733417   0.02977436  0.032906135            3 
  129000    1.2388358   -7.1927868    45.920206  0.029664216  0.032885321            3 
  130000    1.2335826   -7.1517492    46.172229  0.029597582  0.032860805            3 
  131000    1.2120721   -7.1736109    46.445726  0.029545627  0.032833913            3 
  132000     1.200191   -7.1876589    46.647082  0.029448916  0.032807453            3 
  133000    1.2122625   -7.2298955    47.213414   0.02958234  0.032782941            1 
  134000     1.226046   -7.1762894    47.621485  0.029615351  0.032761556            2 
  135000    1.2583878   -7.2000304    47.845477  0.029534245  0.032740276            2 
  136000    1.2383679   -7.1757966     48.55471   0.02975166  0.032718455            5 
  137000    1.2152498   -7.1728551    48.878787  0.029731622  0.032701212            4 
  138000    1.2290784   -7.1861032    49.145385  0.029677165  0.032681517            1 
  139000    1.2406713   -7.1228659    49.540898  0.029700778  0.032661893            3 
  140000     1.220033   -7.1768315    49.642849  0.029549315   0.03263693            2 
  141000    1.2246273   -7.1897831    49.808359  0.029437564   0.03261011            2 
  142000    1.2297359   -7.1686545    50.436033  0.029598611  0.032583094            2 
  143000    1.2186354   -7.2275282    50.405305  0.029373721  0.032557114            1 
  144000    1.2199862   -7.1984785    51.104001  0.029574075  0.032530935            2 
  145000    1.2294193   -7.1881922    51.489579  0.029591712  0.032504031            2 
  146000    1.2267726   -7.1388711    51.615345  0.029460813  0.032478037            4 
  147000    1.1935717   -7.1794252    51.917497  0.029431687  0.032449648            3 
  148000    1.2388235     -7.20789    52.419756  0.029515628  0.032421417            4 
  149000    1.2405541   -7.2128175    52.550344  0.029390573  0.032392739            2 
  150000    1.2414119   -7.1750973    53.203001  0.029557222   0.03236442            2 
  151000    1.2150098   -7.1531427     53.48688  0.029518146   0.03233982            2 
  152000    1.2152742   -7.1601498    53.874776  0.029536609    0.0323162            2 
  153000    1.2049062   -7.2012346    54.106717  0.029469889   0.03229138            1 
  154000    1.2075871   -7.2034061    54.680818  0.029589187  0.032268663            3 
  155000     1.237133   -7.2043615    55.190319  0.029672214  0.032249983            4 
  156000    1.2302937   -7.2646102    55.378147  0.029582343  0.032232456            2 
  157000    1.2407337   -7.1890326    56.045384   0.02974808  0.032218255            3 
  158000    1.2436833   -7.1918111    56.543686  0.029822619  0.032204903            2 
  159000    1.2301096    -7.229697    56.693881  0.029713774   0.03219207            3 
  160000    1.2236538   -7.1775697    57.266875  0.029826497  0.032178517            1 
  161000    1.2346558   -7.1971589    57.533995    0.0297795  0.032166162            2 
  162000    1.1925266    -7.191912    58.112595   0.02989331  0.032152979            2 
  163000    1.2206271   -7.1890845    58.070479  0.029688384   0.03213817            1 
  164000    1.2200711   -7.2132051    58.309605  0.029628864  0.032121329            1 
  165000    1.2464993   -7.2079549    58.871288  0.029732974  0.032106523            2 
  166000    1.2363915   -7.2070301    59.147664  0.029692602  0.032091358            1 
  167000    1.2312253   -7.1879084    59.878316  0.029879399  0.032078112            1 
  168000    1.2521056   -7.1977844    60.165554  0.029844025  0.032067147            4 
  169000    1.2210529   -7.1270533    60.653062  0.029907821  0.032056566            3 
  170000    1.2155784   -7.2054054    60.801421  0.029804618  0.032043584            2 
  171000    1.2335235    -7.262562    60.720516  0.029590895  0.032029752            2 
  172000    1.2456011   -7.2089853    61.461988  0.029778095  0.032013603            2 
  173000    1.2236005    -7.163335    62.055203  0.029891716  0.032000019            1 
  174000    1.2198579   -7.2022823    62.430397  0.029899615  0.031990421            1 
  175000    1.2388104   -7.1752538    63.068721  0.030032724  0.031981284            1 
  176000    1.2310457   -7.1622846    62.979312   0.02981975  0.031970262            3 
  177000    1.2170398   -7.2094218    63.350918  0.029826233  0.031957131            2 
  178000    1.2167574   -7.2064759    63.697859  0.029821095  0.031945721            1 
  179000    1.2512007   -7.1932667    64.140017  0.029860343  0.031935389            2 
  180000    1.2280451   -7.1765741    64.230205  0.029736206   0.03192169            2 
  181000    1.2336392    -7.206738    64.920355  0.029889666  0.031908646            2 
  182000    1.2049799   -7.2212395    65.178777  0.029843762  0.031896305            2 
  183000    1.2079519   -7.1787765    65.710741  0.029922924  0.031884343            2 
  184000    1.2417978   -7.2210688    66.155275  0.029961628  0.031873933            2 
  185000    1.2030451   -7.1771758    66.442152  0.029928897  0.031864535            3 
  186000    1.2140319   -7.2036388    66.638701  0.029856049  0.031853983            6 
  187000    1.2310413   -7.2385698    67.072888  0.029889879  0.031846702            2 
  188000    1.1955808   -7.2129109    67.469525  0.029906704  0.031838722            3 
  189000    1.2351534   -7.2270836    67.888564  0.029933229  0.031830405            3 
  190000    1.2088903   -7.2229284     68.31468  0.029962579  0.031823844            4 
  191000    1.2355924   -7.2448519    68.605477  0.029932581  0.031814949            2 
  192000    1.2131353   -7.2226805    68.837081  0.029877205  0.031805448            1 
  193000    1.2060476    -7.234015    69.337255  0.029938366  0.031798667            1 
  194000    1.2113618   -7.2374799     69.62447  0.029907418  0.031789665            1 
  195000    1.2396771   -7.2526044    69.650525  0.029765182  0.031779538            2 
  196000    1.2331154   -7.2086414    70.054327  0.029785003  0.031766095            1 
  197000    1.2214584   -7.1930869    70.399593  0.029779862  0.031752908            1 
  198000    1.2284145     -7.23416    71.333931  0.030022698  0.031742355            4 
  199000    1.2074989   -7.2171894    71.750328  0.030046201  0.031735817            3 
  200000    1.1854037   -7.2033913    71.993345  0.029997227  0.031728849            1 
  201000    1.2159527   -7.1967221    72.535143  0.030072613  0.031721545            2 
  202000    1.2068635   -7.2338954    72.660498  0.029975453  0.031714086            1 
  203000    1.2037136   -7.2218252    72.814884  0.029891167  0.031705899            2 
  204000    1.2450167   -7.2183559    73.137135   0.02987628  0.031694764            2 
  205000    1.2107068    -7.168557    73.674564   0.02994901  0.031686693            1 
  206000    1.2431196    -7.192364    74.227785  0.030027421  0.031678407            1 
  207000     1.211803   -7.2280911    74.659842  0.030056297  0.031672031            2 
  208000    1.2203951   -7.1835264    74.744072  0.029945541  0.031667508            1 
  209000     1.207698   -7.1963199    75.271243  0.030012457   0.03166351            4 
  210000    1.2159798   -7.2048417    75.763418  0.030064848   0.03165597            1 
  211000    1.2295836   -7.2218559    75.935429  0.029990296  0.031646364            4 
  212000    1.2445876   -7.1984875     76.12502  0.029923357  0.031636667            2 
  213000    1.2241182   -7.2292215    76.673931  0.029997625  0.031625404            3 
  214000    1.2300745   -7.2519574     76.64924  0.029847835  0.031616877            1 
  215000    1.1950317   -7.2254643    77.268894  0.029949184  0.031605844            2 
  216000    1.2108309   -7.2557588    77.235662  0.029797709  0.031595665            2 
  217000     1.220488    -7.188908    77.941559  0.029931474  0.031586838            1 
  218000    1.2301646   -7.2652561    78.201997   0.02989373  0.031579496            1 
  219000    1.2161148   -7.2148285    79.085655  0.030093476  0.031572719            1 
  220000    1.2232662   -7.2132685    79.702964  0.030190517  0.031568696            2 
  221000    1.2109305   -7.2427603    79.876114  0.030119198  0.031566614            1 
  222000    1.2542498   -7.2515867    80.459219   0.03020241  0.031565265            2 
  223000    1.2275731   -7.2311766    81.000032   0.03026907  0.031565964            1 
  224000    1.2367876   -7.1853305    81.499719  0.030319836  0.031567594            2 
  225000    1.1870974   -7.2746091    81.653119  0.030241896  0.031569256            2 
  226000    1.2300274   -7.1823509    82.251725  0.030328807  0.031571754            2 
  227000    1.2400323   -7.2464589    82.761543  0.030382358  0.031575705            2 
  228000    1.2151441   -7.1979247    83.384071  0.030476634   0.03158025            4 
  229000    1.2276814   -7.2163468    83.553681  0.030405269  0.031583776            1 
  230000    1.2377131   -7.2546913    83.870274   0.03038778  0.031587135            2 
  231000    1.2035359   -7.2667026    84.457873  0.030468208  0.031591538            3 
  232000    1.2062217   -7.2859354     84.63786   0.03040153  0.031598209            1 
  233000    1.2254619   -7.1883831    85.818582  0.030693341  0.031604363            1 
  234000    1.2283517   -7.2173178    85.907915  0.030593987  0.031612894            1 
  235000    1.2080913   -7.2027083     86.62177   0.03071694  0.031621444            2 
  236000    1.2050039   -7.1937516    87.001061  0.030720714  0.031630758            2 
  237000    1.2232737   -7.2183086       87.104  0.030627285  0.031638439            2 
  238000    1.2022894   -7.2419559    87.795217  0.030740622  0.031647405            2 
  239000    1.1619736   -7.1998048    88.213298  0.030757775  0.031655478            1 
  240000    1.1858964   -7.2679596     88.11761  0.030596392  0.031663058            2 
  241000    1.2172128   -7.1628678    89.220733  0.030850876  0.031670682            1 
  242000    1.1949798     -7.24876     88.52866  0.030485076  0.031677648            1 
  243000    1.1721824   -7.2550962    89.072339  0.030546069  0.031680693            2 
  244000    1.1796142   -7.2003864    89.575453  0.030592709  0.031683595            2 
  245000    1.2282249   -7.2640957    89.861926  0.030565281  0.031687641            1 
  246000    1.1942437   -7.2432737    90.461393  0.030644103  0.031689596            1 
  247000     1.186496   -7.1899253    91.044616  0.030716807  0.031691991            2 
  248000    1.2193354   -7.2436842    91.051912    0.0305954  0.031694332            2 
  249000    1.2183918   -7.2377587    91.518844  0.030628797  0.031696732            1 
  250000    1.2150077   -7.1984623     92.04823  0.030682743  0.031699548            1 
  251000    1.2249461   -7.2847534    91.819073   0.03048442  0.031701483            1 
  252000    1.2188932   -7.2302462     92.10339   0.03045747  0.031702867            1 
  253000    1.2047034   -7.2413988    92.412392  0.030438864  0.031702372            1 
  254000    1.2222813   -7.2460789    92.767242  0.030435447   0.03169879            2 
  255000    1.2123625   -7.2237042    93.147128  0.030440238  0.031695525            2 
  256000    1.2182727   -7.2498769    92.983152  0.030267953  0.031692087            2 
  257000    1.2157131   -7.1961437     93.85012  0.030431297  0.031689524            2 
  258000    1.2215499   -7.2330154    94.119093  0.030400224  0.031688404            1 
  259000    1.2098397   -7.2356465    94.840133  0.030514843  0.031686787            3 
  260000    1.2031789   -7.2098494    95.278083  0.030537847  0.031686189            1 
  261000    1.2047946   -7.2581818    95.381661  0.030453915  0.031684468            2 
  262000    1.2234308    -7.252566    95.570286  0.030397674  0.031682213            2 
  263000    1.2375674   -7.2696085    95.697309  0.030322341  0.031678581            1 
  264000    1.2235332   -7.2171442    96.472866  0.030452294  0.031674913            2 
  265000    1.2309642   -7.2315683    96.959567   0.03049043  0.031673056            1 
  266000    1.2361573   -7.2661328    96.904753  0.030358632  0.031670476            1 
  267000    1.2015648   -7.2057887      97.5019  0.030431304  0.031666844            1 
  268000    1.2118056   -7.2016636    97.918216  0.030447207  0.031664329            1 
  269000    1.2095582   -7.2200081    97.992191  0.030356936  0.031660781            2 
  270000    1.1919669   -7.2747762     98.58049  0.030426077   0.03165807            2 
  271000    1.1937139   -7.2624683    99.073413  0.030465379  0.031655195            2 
  272000    1.2130896   -7.2782064    98.827536  0.030278044  0.031651033            1 
  273000    1.2228164   -7.3047042    98.960708  0.030207786  0.031645224            2 
  274000     1.237769   -7.2967964    99.483334  0.030256488  0.031639279            1 
  275000    1.2093439   -7.2458537    99.993667  0.030301111  0.031632888            3 
  276000    1.1975114   -7.2601675    100.45244  0.030329844  0.031627003            1 
  277000    1.2261659   -7.2724267    100.63788  0.030276136   0.03162085            9 
  278000    1.1869626   -7.2014412    100.92989  0.030254762  0.031614268            2 
  279000    1.2059321   -7.2538301     100.9961    0.0301661  0.031608832            2 
  280000    1.2095828   -7.2925811    101.71827  0.030273293   0.03160186            3 
  281000    1.2156989   -7.2530219    101.86824  0.030210034  0.031595974            2 
  282000    1.2272818   -7.2202494    102.79893  0.030377935  0.031591217            3 
  283000     1.213289    -7.234844    103.09124  0.030356665  0.031586064            1 
  284000    1.2048827   -7.2489888    103.70576  0.030430093  0.031581976            1 
  285000    1.2229973    -7.234484     103.5169  0.030268099  0.031577971            1 
  286000    1.2016527   -7.2361998    104.66836  0.030497774  0.031573613            1 
  287000    1.2062015    -7.321785      104.182  0.030250291  0.031568729            2 
  288000    1.2045582    -7.239858    105.20032  0.030439909  0.031564243            1 
  289000    1.2009465   -7.2560756    105.44281  0.030404501  0.031559801            3 
  290000    1.2183544   -7.1896826    105.96766  0.030450476  0.031555199            2 
  291000    1.1997898   -7.2804598    105.53831  0.030222882  0.031549964            4 
  292000    1.2067956   -7.3082916    105.89426  0.030220964  0.031543891            3 
  293000     1.176662   -7.2630639    106.35453  0.030248729  0.031538218            2 
  294000    1.2090371   -7.2302356    107.13138  0.030366036  0.031533054            5 
  295000    1.1947749    -7.215328    107.35632  0.030326643   0.03152688            3 
  296000     1.236695   -7.2370993    107.33203  0.030217351  0.031519982            1 
  297000    1.1791899   -7.2646258    107.50978  0.030165482  0.031512445            2 
  298000    1.2078067    -7.264568    108.28269  0.030280394     0.031504            2 
  299000    1.1961909   -7.2976911    108.37915  0.030206006  0.031496522            2 
  300000     1.244088   -7.2635541     108.3789  0.030105249  0.031488789            1 
  301000    1.2162763   -7.3117071    108.45616  0.030026622  0.031479463            3 
  302000    1.2204619   -7.2677631    109.52073  0.030220951  0.031470457            1 
  303000    1.2006094   -7.2727113    109.74781  0.030183667  0.031461748            2 
  304000    1.1944106   -7.2486276    109.95542  0.030141288    0.0314536            2 
  305000      1.20403   -7.2652683    110.22267  0.030115483  0.031444342            2 
  306000     1.197728   -7.2241987    110.78847  0.030171152  0.031435514            3 
  307000     1.196872   -7.2566391    111.05714  0.030145805   0.03142734            2 
  308000    1.2087974   -7.3016864    111.09307  0.030057649   0.03141891            1 
  309000    1.2159739   -7.2718971    111.27007   0.03000811  0.031410928            1 
  310000    1.1811094   -7.2728516    111.35271  0.029933523   0.03140221            2 
  311000    1.1997385    -7.270418    111.46875  0.029868369  0.031390351            5 
  312000    1.1933288    -7.221143    112.41293   0.03002482  0.031378971            3 
  313000    1.2086814   -7.2507716    112.41357  0.029929065  0.031368322            4 
  314000    1.2125057   -7.2671124    112.31716  0.029808165  0.031355683            2 
  315000    1.2217025   -7.2634532    112.93659  0.029877405  0.031343248            4 
  316000    1.1756351   -7.2097952    113.38902  0.029902168  0.031330376            1 
  317000    1.2137857   -7.2425944    113.47775  0.029831165  0.031317055            1 
  318000    1.2160788   -7.2559175    113.84901  0.029834647  0.031303402            1 
  319000      1.21776    -7.247304    113.93828   0.02976444  0.031288675            2 
  320000    1.2045063   -7.2922425    113.70365  0.029610324  0.031274307            2 
  321000    1.1996496   -7.2052317    114.91116  0.029831557  0.031259496            2 
  322000    1.1940707   -7.2508834    115.30806   0.02984163  0.031245761            4 
  323000     1.180509   -7.2672966     115.4608  0.029788649  0.031230559            1 
  324000    1.1922932   -7.2532371    115.64583  0.029744297  0.031216328            3 
  325000    1.1968619   -7.2904327    115.43615  0.029599012  0.031201604            2 
  326000    1.1991494    -7.266144    116.34609  0.029740821  0.031186569            3 
  327000    1.1850029   -7.2674891    116.76411  0.029756398  0.031171864            2 
  328000    1.1900402   -7.2423007    117.23607  0.029785587  0.031158338            3 
  329000    1.2029372   -7.2330151    117.55841    0.0297767  0.031145302            1 
  330000    1.2148802    -7.243154    118.15869  0.029838053  0.031132805            1 
  331000    1.2041065   -7.2731342    118.06037  0.029723155  0.031119486            2 
  332000    1.1720437     -7.25308    118.23768  0.029678133  0.031107421            1 
  333000    1.1920265   -7.2427867    118.90822  0.029756811  0.031095283            2 
  334000    1.1974647   -7.2952211    118.66212  0.029606317  0.031082293            1 
  335000    1.2085261   -7.2880627    119.81992   0.02980595  0.031069755            1 
  336000    1.1986877   -7.2639546    119.99703  0.029761168   0.03105819            4 
  337000    1.2033734    -7.238992    120.12184  0.029703718  0.031045878            4 
  338000    1.1802384   -7.2756368    120.84554  0.029794265  0.031034052            2 
  339000    1.2046226   -7.2765333    121.01658  0.029748422  0.031022162            3 
  340000    1.1880246   -7.2722966    121.43895  0.029764447   0.03101046            3 
  341000    1.2078465   -7.2936165    121.56902  0.029708949   0.03099894            5 
  342000    1.1946251   -7.2873654    122.61588  0.029877165  0.030989338            2 
  343000    1.2205586    -7.292933    122.41478    0.0297412  0.030979105            1 
  344000    1.1985768   -7.2573656    123.28186  0.029864792  0.030969198            2 
  345000     1.193035   -7.2632256    123.42861  0.029813674  0.030959839            1 
  346000    1.2128972   -7.2698711    123.56402   0.02976012  0.030948735            3 
  347000    1.1921646   -7.3029422     123.5133  0.029662176  0.030937517            2 
  348000    1.2116222   -7.2284722     124.4313  0.029796768  0.030926722            2 
  349000    1.1855945   -7.2820756    124.27279  0.029673542  0.030915757            3 
  350000    1.2019327   -7.2201737    124.87514  0.029732177  0.030903994            4 
  351000    1.1948663   -7.3033186    124.91993  0.029658102  0.030892827            4 
  352000    1.1918434   -7.2333141    125.15152  0.029628674  0.030882356            1 
  353000    1.2243159    -7.307626    125.63696  0.029659338  0.030871639            2 
  354000    1.1928408   -7.3012556    126.05146   0.02967313   0.03086011            1 
  355000    1.1941626   -7.2862253    125.93611  0.029562468  0.030847982            3 
  356000    1.2098666   -7.3203573    126.40994  0.029590343  0.030835587            1 
  357000    1.2067752   -7.3015421    126.58463  0.029548233  0.030824375            3 
  358000    1.2039945   -7.2963406    127.18391  0.029605193  0.030814113            2 
  359000    1.1999488   -7.2651736    127.78921  0.029663233  0.030802919            2 
  360000    1.2065543   -7.2624979    127.93879  0.029615461  0.030792476            1 
  361000    1.1906789   -7.2799165     128.4409   0.02964933  0.030782004            2 
  362000    1.1960952   -7.2637755    128.73819  0.029635863  0.030771896            3 
  363000    1.1877989   -7.2190914    129.46172  0.029720322  0.030762096            1 
  364000    1.2106106    -7.291564    129.64003  0.029679494  0.030752607            1 
  365000    1.1987086   -7.2750548    130.23488  0.029733991  0.030743973            2 
  366000    1.1990402   -7.2639149    130.69657  0.029757872  0.030736405            1 
  367000     1.158442   -7.3026595    130.59718  0.029654218   0.03072743            2 
  368000    1.2043311   -7.2773746    131.31193  0.029735492  0.030718036            3 
  369000     1.198088   -7.3117501    131.14718  0.029617701  0.030709666            1 
  370000    1.1922583    -7.268209    132.11942  0.029756627   0.03070166            1 
  371000     1.192785   -7.2787227    132.29394  0.029715621  0.030694219            2 
  372000    1.1815103   -7.2800926    132.69906  0.029726492   0.03068588            2 
  373000    1.1861925   -7.3242904    132.53421  0.029609967  0.030676907            2 
  374000    1.2107217   -7.2938172    133.16119  0.029670498  0.030667886            2 
  375000    1.1913075   -7.2113483    133.67263  0.029705028  0.030659159            1 
  376000    1.1753592   -7.2635022    133.71116  0.029634565   0.03065057            2 
  377000    1.1925214   -7.3177408    133.77865  0.029570877  0.030642125            1 
  378000    1.2144223   -7.3116802    134.16581     0.029578  0.030633514            2 
  379000    1.2033589   -7.3127089    135.13865  0.029713863  0.030624921            2 
  380000    1.2152212   -7.3424131    134.43765  0.029481941   0.03061573            5 
  381000    1.1942795   -7.3050166      135.618  0.029662731  0.030606343            2 
  382000    1.1669471   -7.2899613    136.10661   0.02969167  0.030598291            1 
  383000    1.1940355   -7.2332608    136.55599  0.029711922  0.030590552            3 
  384000    1.2070595   -7.3008576    136.49844  0.029622057  0.030582493            3 
  385000    1.1916317   -7.2855901     137.1322  0.029682294  0.030575064            5 
  386000    1.1927387   -7.2696518    137.45887  0.029675922  0.030568955            1 
  387000    1.1788017   -7.2580039    138.00129  0.029716041  0.030563197            1 
  388000    1.1917336   -7.3235873    138.69299  0.029788014  0.030557229            1 
  389000    1.1756407   -7.2993363    138.73403   0.02972023  0.030551766            2 
  390000    1.1965436   -7.3104828    138.64841  0.029625729  0.030545914            2 
  391000    1.2036105   -7.3005014    139.60043  0.029752862  0.030540448            4 
  392000    1.1955323   -7.3283356    139.58964  0.029674669  0.030534645            2 
  393000    1.1656489   -7.2973902    140.28291  0.029746164  0.030528875            3 
  394000    1.1649926   -7.2956802    140.87762  0.029796451  0.030523704            1 
  395000    1.1738178   -7.2283343    141.57488  0.029868119  0.030519313            3 
  396000    1.1944447   -7.2783449     142.1691   0.02991774  0.030515512            2 
  397000     1.198542    -7.303981    142.04017  0.029815316  0.030511614            2 
  398000    1.1659275   -7.2590173     142.3601  0.029807392  0.030507678            3 
  399000    1.1916765   -7.2805642    142.74252  0.029812557  0.030502852            2 
  400000     1.206676   -7.3117943    143.55226   0.02990672  0.030498792            4 
  401000    1.1911484   -7.3157534    143.05484  0.029728771  0.030493836            5 
  402000    1.1761275   -7.2822494    144.22138  0.029896637  0.030489841            1 
  403000    1.1729292   -7.3131073    144.12959  0.029803472  0.030485693            3 
  404000    1.1875401   -7.3192017    144.96967  0.029902985  0.030481698            1 
  405000    1.1926649   -7.2757477    145.68748  0.029976847  0.030478179            2 
  406000    1.2156881   -7.3320522    145.08147  0.029778628  0.030474356            3 
  407000    1.1812006   -7.3082961    145.19672  0.029729058  0.030469939            5 
  408000    1.1819127   -7.2978224     145.5859  0.029735683  0.030464537            2 
  409000    1.1884549   -7.3277371    145.57256   0.02966026  0.030459404            2 
  410000     1.213001   -7.3006631     146.4662  0.029769553  0.030454598            4 
  411000    1.1836949   -7.3124395    146.76501  0.029757706  0.030449369            1 
  412000    1.1933331   -7.3108958    147.22138  0.029777788  0.030444084            2 
  413000    1.1664543   -7.3201248    147.45856  0.029753543  0.030440229            2 
  414000    1.2146935   -7.2956092    148.70346  0.029932259  0.030436957            1 
  415000    1.1939258   -7.2891156    148.95247  0.029910135  0.030434141            2 
  416000     1.178578   -7.3412302    148.37124  0.029721802  0.030430345            1 
  417000    1.2021644   -7.2427227    149.11722  0.029799603  0.030426572            4 
  418000    1.2122312   -7.3416397    149.43957  0.029792578  0.030422614            1 
  419000    1.1877513   -7.2712355    149.86012  0.029805114  0.030417372            2 
  420000    1.1565403   -7.2942356    150.22916  0.029807374  0.030412793            2 
  421000    1.1925933   -7.2425767    151.48934  0.029986013  0.030409523            2 
  422000    1.1979309   -7.3479586    150.68661   0.02975644  0.030406706            1 
  423000    1.1975029   -7.3309392    150.93555  0.029735135   0.03040338            2 
  424000    1.1691924   -7.2862592    151.50552  0.029777029  0.030399068            2 
  425000    1.1709167   -7.3440424    151.56529  0.029718685  0.030395185            2 
  426000    1.1855931   -7.3024544    152.61599  0.029854459  0.030391227            2 
  427000    1.1866179   -7.3309288    152.34927  0.029732488  0.030386983            2 
  428000    1.1835097   -7.3367891     152.6899  0.029729342  0.030382666            2 
  429000    1.1684317    -7.334533      152.869  0.029694834   0.03037831            2 
  430000    1.1624875    -7.310405    153.72914  0.029792469  0.030373853            4 
  431000    1.1815859   -7.3105182     153.7198   0.02972154  0.030369382            1 
  432000    1.2065453   -7.3026885    154.21688  0.029748626  0.030365197            2 
  433000    1.1715983   -7.3101233    153.89888  0.029618722  0.030359994            3 
  434000    1.1608309   -7.3066457    154.63838  0.029692469  0.030354847            1 
  435000    1.1660709   -7.3040702    154.75844   0.02964721  0.030349337            1 
  436000    1.1857436   -7.2965176    155.55863  0.029732154  0.030344653            1 
  437000    1.1515233    -7.333886    155.33406  0.029621293  0.030339608            2 
  438000     1.181835   -7.2731602    156.47487  0.029770714   0.03033475            2 
  439000    1.1955106   -7.2884523    156.77545  0.029759955  0.030330053            2 
  440000    1.1817078   -7.3176872    156.65187  0.029668914  0.030325143            5 
  441000    1.1638756   -7.3016395    157.28544  0.029721361  0.030320319            2 
  442000    1.1871658    -7.337801    157.34619   0.02966557  0.030315468            3 
  443000    1.1718242   -7.3034462    157.86106  0.029695459  0.030310031            4 
  444000    1.1682396   -7.2971647    158.09198  0.029671918  0.030304961            4 
  445000    1.2007986   -7.2914444    157.95243  0.029579106  0.030299384            1 
  446000    1.1906967   -7.3056205    158.65381  0.029643836  0.030294603            4 
  447000    1.1905506     -7.29685    159.07173  0.029655431  0.030289461            2 
  448000    1.2076421    -7.323254    158.81235  0.029540988   0.03028378            3 
  449000    1.1691741   -7.3406855    159.06816  0.029522672  0.030277953            2 
  450000    1.1672175   -7.3337855    159.87721  0.029606891   0.03027173            2 
  451000    1.2033057   -7.3304828    159.73592  0.029515136  0.030265241            3 
  452000    1.1763683   -7.3082139    160.46041  0.029583409  0.030258963            4 
  453000      1.15858   -7.3480025     160.2856  0.029485946  0.030252489            2 
  454000    1.1660467   -7.3625715     160.3341  0.029429902  0.030246206            2 
  455000    1.1825891   -7.3186587     161.0691  0.029499835  0.030240275            5 
  456000    1.1798799   -7.2979785    162.24675  0.029650356  0.030234919            2 
  457000    1.1636511   -7.2889702    162.07763  0.029554637  0.030229971            4 
  458000    1.2039034   -7.3337905    162.17152   0.02950719  0.030224023            1 
  459000     1.171205   -7.2842743    163.01998  0.029596946  0.030218324            2 
  460000    1.2026908   -7.3453741    162.75861  0.029485256  0.030211995            1 
  461000    1.1627822   -7.3184446    163.28033  0.029515606  0.030205592            3 
  462000    1.1726735   -7.3062302    163.66986  0.029521981  0.030199857            1 
  463000     1.188498   -7.3672651    164.10333  0.029536236    0.0301936            1 
  464000    1.1981452   -7.3509422    164.40919  0.029527513   0.03018758            1 
  465000    1.1762397   -7.3152293    164.19842   0.02942624   0.03018117            2 
  466000    1.1785756   -7.3530924    164.85174  0.029479925  0.030175134            1 
  467000    1.1697403   -7.3274787    164.90489  0.029426284  0.030168724            1 
  468000    1.1728677   -7.3361964     164.6998  0.029326887  0.030161129            7 
  469000    1.1619458   -7.2924441     166.0497  0.029504212    0.0301544            1 
  470000    1.2084137   -7.2940356    165.96536  0.029426483   0.03014757            2 
  471000     1.170093   -7.3521353    166.51831  0.029461838  0.030141929            3 
  472000    1.1716555   -7.2918806    167.00999  0.029486227  0.030136575            1 
  473000    1.1687205   -7.3434538    167.66104  0.029538591  0.030131501            1 
  474000    1.1604994   -7.3112828    167.47448  0.029443475  0.030126012            2 
  475000    1.1746763   -7.3226867    168.05654  0.029483603  0.030119906            4 
  476000    1.1887188   -7.3110711    168.66707  0.029528548  0.030113762            1 
  477000    1.1443735   -7.3456794    168.14725   0.02937583   0.03010715            1 
  478000    1.1848988   -7.3188416    168.22085  0.029327206  0.030100222            3 
  479000    1.1723154   -7.3182801    168.55781  0.029324602   0.03009279            1 
  480000     1.187174   -7.3228923    169.37237  0.029404925  0.030085378            3 
  481000    1.1651224   -7.2925716    169.63546  0.029389373  0.030078363            4 
  482000    1.1886016   -7.3574641    169.61129  0.029324221   0.03007113            3 
  483000    1.2070758   -7.3420142    169.13982  0.029182164  0.030063929            3 
  484000    1.1738845   -7.3621051     169.8502   0.02924418  0.030055533            2 
  485000    1.1637989   -7.3106808    170.13321   0.02923251  0.030046766            3 
  486000    1.1819336    -7.328526    170.09267  0.029165409  0.030037704            3 
  487000    1.1748973   -7.3209076    169.63267  0.029026809  0.030028581            2 
  488000    1.1744415    -7.344536    170.51075  0.029117273  0.030019227            1 
  489000    1.1856133   -7.3000687    171.85758   0.02928725  0.030010309            3 
  490000    1.1748091   -7.3010088    171.32704  0.029137251   0.03000185            5 
  491000    1.1571294   -7.3427029      171.938  0.029181601  0.029993452            2 
  492000    1.1628517   -7.2982988    172.34395  0.029191049  0.029985314            2 
  493000    1.1686921   -7.3341762    172.28945  0.029122626  0.029976545            1 
  494000     1.167831   -7.3219626    172.82621  0.029154219  0.029968112            2 
  495000    1.1634928   -7.3309438    172.84473  0.029098439  0.029959369            1 
  496000    1.1751066   -7.3466714    172.62688  0.029003172  0.029949778            3 
  497000    1.1991822    -7.332185    173.08354  0.029021385  0.029940293            1 
  498000    1.1488907   -7.3484034    173.55401  0.029041835  0.029931121            2 
  499000    1.1942086   -7.3392915    174.09409  0.029073829  0.029921922            3 
  500000    1.1593113   -7.3488775    173.71279  0.028952131  0.029911809            3 
  501000    1.1714413   -7.3485945    174.13348  0.028964318  0.029901971            1 
  502000    1.1588617   -7.3254062    174.28068  0.028931056  0.029892104            2 
  503000    1.1693801   -7.3539147    174.52047  0.028913266  0.029882575            3 
  504000     1.154906   -7.2757625    174.82257  0.028905848  0.029872825            2 
  505000    1.1653012   -7.3145722     175.4502  0.028952178  0.029863184            3 
  506000    1.1806885   -7.3172591    176.27896   0.02903145   0.02985336            1 
  507000    1.1791121   -7.3631958    175.26792  0.028808008  0.029842972            2 
  508000    1.1668993   -7.3226699    176.19938  0.028904098  0.029832399            2 
  509000    1.1593539   -7.3444979    176.58139  0.028909854  0.029821643            3 
  510000    1.1660001   -7.3131146    177.11469  0.028940309  0.029811229            4 
  511000     1.173471   -7.3768105    177.14283  0.028888263  0.029800478            2 
  512000    1.1593733   -7.3740598    177.27429  0.028853237  0.029789811            2 
  513000    1.1645083   -7.3076629    177.94383  0.028905756   0.02977901            2 
  514000    1.1680869   -7.3441778    178.08823   0.02887293  0.029768815            2 
  515000    1.1764574   -7.3879943    177.43989  0.028711956  0.029758425            1 
  516000    1.1600131   -7.3592948    178.95305  0.028900686  0.029748437            1 
  517000    1.1754673   -7.3423476    178.69237  0.028802768  0.029738268            2 
  518000    1.1587057   -7.3420874    179.81345  0.028927518  0.029728408            1 
  519000    1.1505274   -7.2978871    179.42214  0.028808951  0.029718379            1 
  520000    1.1631801   -7.3394445    179.25602  0.028726927  0.029707651            3 
  521000    1.1854088   -7.3669261    179.44394  0.028701846  0.029696655            4 
  522000    1.1702219   -7.4188778    180.00568  0.028736539  0.029685916            2 
  523000    1.2068116   -7.3335548    180.51344  0.028762498  0.029675035            1 
  524000    1.1514714   -7.3403398    180.59414  0.028720443  0.029664546            3 
  525000    1.2125967    -7.370419    181.14832  0.028753701  0.029654071            3 
  526000    1.1819269   -7.3724862    181.46341  0.028748955  0.029643969            3 
  527000    1.1730697   -7.3373281    181.96265  0.028773347  0.029634359            3 
  528000    1.1813561   -7.3473595    182.10592  0.028741464  0.029624601            2 
  529000    1.1547244   -7.3792065    181.72347  0.028626886  0.029613879            2 
  530000    1.1644473   -7.3420508    183.35792  0.028829861  0.029603679            1 
  531000    1.1707915   -7.3601496    183.59416  0.028812642  0.029594152            1 
  532000    1.1871901   -7.3262437    184.15799  0.028846803  0.029584777            1 
  533000    1.1614159   -7.3819464     184.2058  0.028800156  0.029575043            3 
  534000    1.1582177   -7.3249593    184.53295  0.028797278  0.029565699            2 
  535000    1.1792395   -7.3544394    184.46228  0.028732443  0.029556365            2 
  536000    1.1868176   -7.3500529    184.59284  0.028699136  0.029546993            2 
  537000    1.1710076   -7.3200373    185.43814  0.028776869  0.029538423            1 
  538000    1.1635907   -7.3220465    185.72358  0.028767593  0.029529408            2 
  539000    1.1470432   -7.3337265    186.01539  0.028759337  0.029520535            2 
  540000    1.1685394   -7.3630198    186.63242    0.0288013  0.029511732            1 
  541000    1.1770472    -7.354306    187.48094  0.028878765  0.029503344            2 
  542000    1.1435895   -7.3076524    186.90073  0.028736274  0.029494936            1 
  543000     1.160628   -7.3387266    188.06096  0.028861412  0.029486709            1 
  544000    1.1739952   -7.3634146     187.3683  0.028702252  0.029478038            2 
  545000    1.1792496   -7.3636864    188.14992  0.028769101  0.029469115            1 
  546000     1.178934   -7.3893369    187.52159  0.028620511  0.029460078            4 
  547000    1.1601924   -7.3400104    188.11796  0.028659043  0.029450674            1 
  548000    1.1692607   -7.3269875    189.02054     0.028744  0.029441479            4 
  549000    1.1491604   -7.3400621    188.54031  0.028618747  0.029432608            4 
  550000    1.1824517   -7.3374154      189.955   0.02878106  0.029423146            2 
  551000    1.1631861   -7.3332014    189.07089  0.028595114  0.029413855            4 
  552000    1.1940363   -7.3394397    189.86491   0.02866318  0.029404745            2 
  553000    1.1625616   -7.3919278    189.68777  0.028584656  0.029395603            4 
  554000    1.1593219   -7.3940161    190.38606  0.028638096  0.029386898            3 
  555000    1.1627869   -7.3142852    191.83289  0.028803737  0.029378279            2 
  556000    1.1748897   -7.3554573    191.96983  0.028772457  0.029370261            1 
  557000    1.1526673   -7.3736891     191.0578   0.02858435  0.029361998            1 
  558000    1.1383248   -7.3545756    191.87486  0.028655147   0.02935335            2 
  559000    1.1516278   -7.3360572    192.58903   0.02871035  0.029344955            1 
  560000    1.1378323   -7.3372577    191.93323  0.028561493  0.029336325            3 
  561000    1.1640304   -7.3278362    193.04132  0.028675181  0.029327789            2 
  562000    1.1568864   -7.3296572    193.83169  0.028741353  0.029320203            2 
  563000    1.1539283    -7.346423    193.97448  0.028711438  0.029312196            3 
  564000    1.1584979   -7.3463139      194.514  0.028740248  0.029305064            2 
  565000    1.1479329   -7.3478746    194.50481  0.028688025  0.029297839            2 
  566000    1.1579773      -7.3615     194.8339  0.028685792   0.02929053            3 
  567000    1.1644151   -7.3293998    195.32758  0.028707757  0.029283183            2 
  568000     1.176858   -7.3659127    195.29781  0.028652847   0.02927604            6 
  569000    1.1379717   -7.3385441    195.53263  0.028636882  0.029268804            2 
  570000     1.144909   -7.3494444    196.31367  0.028700829  0.029261277            3 
  571000     1.164246   -7.3876025    196.19669  0.028633492  0.029253745            4 
  572000     1.158247   -7.3118609    197.24446  0.028736081  0.029246514            2 
  573000    1.1542444   -7.3670132    197.25583  0.028687585  0.029238991            3 
  574000    1.1681079   -7.4178737    196.73177  0.028561523  0.029230859            1 
  575000    1.1831704   -7.3652492    196.80163  0.028521975  0.029222979            3 
  576000    1.1716083   -7.3676941    198.04281  0.028652027  0.029215027            1 
  577000    1.1428196   -7.3626763    197.70243  0.028553211    0.0292074            2 
  578000     1.169948   -7.3373138    198.86246  0.028671058  0.029199655            1 
  579000     1.164563   -7.3682627     199.1469  0.028662479  0.029191796            3 
  580000     1.163825   -7.4177656    199.10908  0.028607626  0.029184151            2 
  581000    1.1713275   -7.3913324    199.75486  0.028651012   0.02917689            2 
  582000    1.1855304   -7.3734384    200.49357  0.028707556  0.029170525            3 
  583000    1.1623343   -7.3925658     200.1874  0.028614551  0.029163787            2 
  584000    1.1548041    -7.341621    201.40922    0.0287399  0.029157543            4 
  585000    1.1794701     -7.36679    202.00086  0.028775052  0.029150834            1 
  586000    1.1417975   -7.3628626    201.39594  0.028639922  0.029144868            3 
  587000     1.141826   -7.3896595    201.96514  0.028671939  0.029137666            1 
  588000    1.1733426   -7.3478478    202.30262  0.028671006  0.029131231            4 
  589000    1.1420523   -7.3505594    202.36232  0.028630775  0.029124694            1 
  590000    1.1474894   -7.4218338      201.317  0.028434604  0.029117588            2 
  591000    1.1596391   -7.3626847    202.80748  0.028596655  0.029110808            4 
  592000    1.1518988   -7.3559666     203.1924  0.028602533  0.029104419            2 
  593000    1.1363884   -7.3806646    203.33528  0.028574379  0.029098445            7 
  594000    1.1531986   -7.3745935    203.82384  0.028594814   0.02909174            1 
  595000    1.1585954   -7.3684464    204.00255  0.028571786   0.02908535            5 
  596000    1.1777578   -7.4027851    204.13689   0.02854263  0.029078953            7 
  597000    1.1515552   -7.3475595    205.15441  0.028636852  0.029072415            2 
  598000    1.1479984   -7.3632176    204.95278  0.028560867  0.029065693            1 
  599000    1.1599772   -7.3182445    206.16606  0.028681979  0.029058951            1 
  600000    1.1669506   -7.4222259    206.01296   0.02861291   0.02905251            6 
  601000    1.1585519   -7.4483437     205.2192  0.028455241  0.029045979            1 
  602000    1.1602175   -7.4076215    206.95555  0.028648333  0.029039463            2 
  603000    1.1694507   -7.3907945    206.57906  0.028548792  0.029032434            2 
  604000     1.160715   -7.3965825     206.3305  0.028467232  0.029025222            3 
  605000    1.1475155    -7.395342    206.18823  0.028400583  0.029018383            2 
  606000    1.1607306   -7.3604603    207.87084  0.028585099  0.029011415            2 
  607000    1.1383584   -7.3957568    207.35919  0.028467764  0.029005015            3 
  608000    1.1415117   -7.4027439    207.79627  0.028480849  0.028998566            2 
  609000    1.1449341   -7.3775166    208.64278  0.028549916  0.028991957            1 
  610000    1.1613021   -7.3588077    208.64635    0.0285036  0.028985506            3 
  611000    1.1467594   -7.3490952    208.92759  0.028495307  0.028978834            1 
  612000    1.1456339   -7.3933675    208.95727  0.028452788   0.02897239            2 
  613000    1.1517617   -7.3867128    209.53254  0.028484576  0.028965703            3 
  614000    1.1301588   -7.3701066    209.70042   0.02846097  0.028958894            1 
  615000    1.1505522    -7.391394    210.02701  0.028458945  0.028951498            2 
  616000    1.1513897   -7.3542357    210.55146  0.028483693  0.028944234            3 
  617000    1.1640832   -7.4367611    209.83713  0.028341049  0.028937085            1 
  618000    1.1486531   -7.3497884    211.32117  0.028495304  0.028930336            3 
  619000    1.1567656   -7.3876786    211.14234  0.028425194  0.028923341            1 
  620000    1.1552023   -7.3283734    212.09142  0.028506911  0.028916584            2 
  621000    1.1525566   -7.3817143    212.08593   0.02846027  0.028910319            3 
  622000    1.1362037   -7.3925889    212.28894  0.028441712  0.028903914            2 
  623000    1.1755623   -7.3967971    212.56771  0.028433348  0.028897579            1 
  624000    1.1676444   -7.4006627    212.90533  0.028432869  0.028891061            1 
  625000     1.145262   -7.3816277    213.48183  0.028464243  0.028884814            3 
  626000    1.1542067   -7.3901336    213.23656  0.028386123  0.028878605            1 
  627000    1.1445469   -7.3341692    214.29208  0.028481138  0.028872439            2 
  628000    1.1543336    -7.363589    213.86793  0.028379502  0.028866136            1 
  629000    1.1456637    -7.394518    214.15753  0.028372752   0.02885939            1 
  630000    1.1281599   -7.3908643    214.57078  0.028382379   0.02885248            1 
  631000    1.1435688   -7.3984473    214.75596  0.028361854  0.028845456            4 
  632000    1.1537659   -7.4046413    215.17606   0.02837237  0.028838625            1 
  633000    1.1608113   -7.3946924    215.63085  0.028387421   0.02883204            2 
  634000     1.149033   -7.3847117    216.31009  0.028431926   0.02882569            3 
  635000    1.1355389   -7.3353761    216.69558   0.02843774  0.028819256            1 
  636000    1.1546816   -7.4011602    216.52457   0.02837062  0.028812477            2 
  637000    1.1611824   -7.3884953    216.62388  0.028339074  0.028805465            3 
  638000    1.1380357   -7.3644558    217.17235  0.028366294  0.028798774            1 
  639000     1.138276   -7.3802452    217.18561  0.028323632  0.028791908            3 
  640000    1.1460664   -7.3744082     218.0768  0.028395417  0.028784657            2 
  641000    1.1349326   -7.4216787    217.21002  0.028238433  0.028777377            3 
  642000    1.1513665   -7.4147106    217.67097  0.028254279  0.028770058            2 
  643000    1.1386635   -7.3821398    218.04339  0.028258604  0.028763341            2 
  644000    1.1407732   -7.4405772    217.96395  0.028204445  0.028756135            3 
  645000    1.1589288    -7.413728    219.10508   0.02830815  0.028748974            1 
  646000    1.1591335   -7.4187955    219.51342  0.028317005  0.028742201            2 
  647000    1.1656537   -7.3740481    219.91766  0.028325304  0.028735152            1 
  648000    1.1566212   -7.3703408    219.77904  0.028263765   0.02872828            2 
  649000    1.1592533   -7.4456227    219.91655  0.028237873  0.028721316            2 
  650000     1.145236   -7.4038878    220.65433  0.028289017  0.028714903            2 
  651000    1.1618445   -7.4074356    221.16565  0.028311015  0.028708571            3 
  652000    1.1347402   -7.3359515    222.04744  0.028380296  0.028702388            2 
  653000     1.148162    -7.385401    222.15703  0.028350821  0.028696642            3 
  654000    1.1612931   -7.3918825    222.12652  0.028303583  0.028690021            3 
  655000    1.1507568   -7.4095643    221.74322  0.028211605  0.028683008            1 
  656000    1.1363671   -7.4203895    221.14789  0.028092974  0.028675648            4 
  657000    1.1645936   -7.3996951    222.61589  0.028236414  0.028668276            3 
  658000    1.1657833   -7.4259038    222.85533  0.028223826  0.028661024            2 
  659000    1.1366982   -7.3851053    223.87574  0.028310033  0.028654047            1 
  660000    1.1574181   -7.3811366    223.46825  0.028215689  0.028647022            2 
  661000     1.132321   -7.3784928    224.99269   0.02836519  0.028640511            3 
  662000    1.1554913   -7.4047878    224.23928  0.028227503  0.028633543            1 
  663000    1.1474956   -7.3763606    224.67756  0.028240015  0.028627228            2 
  664000    1.1424204   -7.3524927    225.44916  0.028294323  0.028620573            1 
  665000    1.1598931   -7.3857619    225.16851  0.028216605  0.028614254            3 
  666000    1.1561478   -7.4280133    224.90195  0.028140885   0.02860747            3 
  667000    1.1309065   -7.4181081    225.69317  0.028197547  0.028601109            3 
  668000    1.1495837   -7.4158907    225.81326  0.028170317  0.028594559            2 
  669000    1.1444046   -7.4159556    225.76192  0.028121813  0.028588146            3 
  670000    1.1553203   -7.4267668    226.47778  0.028168878  0.028581826            2 
  671000    1.1518255   -7.3920888    227.89472  0.028302871    0.0285758            1 
  672000    1.1317068   -7.3631127    227.44807  0.028205366  0.028569855            1 
  673000    1.1174931   -7.3849849    227.64672  0.028188053  0.028563906            3 
  674000     1.157976   -7.3863165    228.81431  0.028290592  0.028558013            3 
  675000    1.1412073   -7.3987312    228.12196  0.028163205   0.02855185            1 
  676000    1.1398541   -7.3909781     228.8212  0.028207741  0.028545846            1 
  677000    1.1442805   -7.3983712    228.18575  0.028087857   0.02853968            4 
  678000    1.1410569   -7.4342456    228.44889  0.028078772  0.028533628            6 
  679000    1.1565673   -7.4376533    229.47693   0.02816359  0.028527636            3 
  680000    1.1638399   -7.4678911    229.16914  0.028084453   0.02852159            2 
  681000    1.1353718   -7.3641778    230.16867  0.028165525  0.028515552            1 
  682000    1.1522023   -7.3795802    230.73051  0.028192877  0.028509611            2 
  683000    1.1269367   -7.4196144    230.19065  0.028085731  0.028503348            3 
  684000     1.125754   -7.4567926    230.73746   0.02811129  0.028496759            1 
  685000    1.1269028   -7.4898915    230.93688  0.028094511  0.028490029            2 
  686000    1.1484892   -7.3676327     231.4556   0.02811657  0.028483707            2 
  687000    1.1378526   -7.4305513    231.23674  0.028049095  0.028477298            3 
  688000    1.1444714   -7.3946929    231.58792  0.028050863    0.0284706            4 
  689000    1.1650471   -7.3958288     232.4244  0.028111321  0.028464008            5 
  690000    1.1266381   -7.4269083    232.15494  0.028038036  0.028457537            3 
  691000    1.1788401   -7.4253218    233.01716  0.028101442  0.028451151            2 
  692000    1.1379402   -7.4225072    232.80369  0.028035126  0.028445293            5 
  693000    1.1480056   -7.4151039    233.40511  0.028066992  0.028438829            4 
  694000    1.1551286   -7.4226658    234.14841  0.028115803  0.028432566            3 
  695000    1.1303616   -7.4720415    234.45091   0.02811162  0.028426489            3 
  696000    1.1432482   -7.3938854    235.21449  0.028162655  0.028420789            1 
  697000    1.1507152   -7.4213513     235.1143   0.02811027  0.028415184            1 
  698000    1.1176012    -7.420756    234.87066   0.02804091  0.028409225            4 
  699000    1.1277348    -7.455644    235.26309  0.028047579   0.02840296            1 
  700000    1.1348266   -7.4749754    234.30861  0.027893883  0.028396386            2 
  701000    1.1600324   -7.4326954    235.79231  0.028030469  0.028389855            3 
  702000    1.1608037   -7.4027444    235.78125  0.027989227  0.028383472            1 
  703000    1.1576697   -7.3872198    236.40723  0.028023616  0.028377076            2 
  704000    1.1130286   -7.4287299    236.33179   0.02797488  0.028370741            5 
  705000    1.1334091   -7.4298283    236.77388  0.027987456  0.028364626            4 
  706000    1.1684566   -7.4405048    236.95444  0.027969127  0.028358255            4 
  707000    1.1165703   -7.4361578    236.90619  0.027923879   0.02835188            2 
  708000    1.1372945   -7.3859216    237.02875  0.027898864  0.028344975            3 
  709000     1.139067   -7.4150823    237.32141  0.027893913  0.028338141            2 
  710000    1.1600267   -7.3876232    238.78311  0.028026187  0.028331439            2 
  711000    1.1363771   -7.3903037    237.86603  0.027879282  0.028324686            3 
  712000    1.1243865   -7.4331471    237.87037  0.027840633  0.028317875            2 
  713000    1.1244612   -7.4154705    238.49676  0.027874796  0.028310731            4 
  714000    1.1409743   -7.4382905    238.97528  0.027891606  0.028303196            1 
  715000    1.1366331   -7.4183805    239.19417  0.027878109  0.028296424            2 
  716000     1.143497   -7.4486611    239.29118  0.027850463  0.028289262            2 
  717000    1.1380218   -7.4108399    239.12819  0.027792677  0.028281836            1 
  718000    1.1429796   -7.4064083    239.50182  0.027797333  0.028274042            2 
  719000    1.1346186   -7.4184006    239.20415  0.027724171  0.028266396            3 
  720000    1.1262892   -7.4195196    240.58892  0.027845939  0.028259071            2 
  721000    1.0870578   -7.4146188    240.28375  0.027772046   0.02825163            3 
  722000    1.1355243   -7.4065525    240.58204   0.02776801  0.028244127            1 
  723000      1.14167   -7.4301242    240.24498  0.027690754  0.028236349            1 
  724000    1.1680077   -7.4415625    240.53266  0.027685619  0.028228339            2 
  725000    1.1317501   -7.4601782    240.12325  0.027600374  0.028220664            3 
  726000    1.1521554   -7.4038123    242.13558   0.02779334  0.028213013            1 
  727000    1.1494368   -7.4905535    241.18553  0.027646209  0.028205567            4 
  728000    1.1208217   -7.4180675    242.05566  0.027707837  0.028197914            3 
  729000    1.1327132   -7.4567467    242.36606  0.027705311  0.028190697            2 
  730000    1.1645899   -7.4151952    243.47385  0.027793819  0.028183517            2 
  731000    1.1454083   -7.4482422    242.92181  0.027692865  0.028176459            3 
  732000    1.1236024   -7.4327334    244.11152  0.027790474   0.02816971            5 
  733000    1.1207504   -7.4254106    243.93017  0.027731943  0.028163034            1 
  734000    1.1516524   -7.4150031    244.98787  0.027814244  0.028156282            2 
  735000    1.1381891   -7.4031963    244.90165  0.027766627  0.028149527            2 
  736000    1.1013078   -7.4269073    245.64418  0.027812973  0.028142746            1 
  737000    1.1348377   -7.4313337    245.42115  0.027750017  0.028135773            3 
  738000    1.1633384   -7.3989997    246.84553  0.027873253   0.02812896            2 
  739000    1.1320828    -7.396764    246.61665  0.027809726  0.028122473            1 
  740000    1.0976447   -7.4563144    246.32401   0.02773919  0.028115915            3 
  741000       1.1064   -7.3996303    246.37398  0.027707375  0.028109028            1 
  742000    1.1485189   -7.4066537    246.65255   0.02770132    0.0281022            1 
  743000    1.1188991   -7.4017212    247.85007  0.027798348  0.028095393            3 
  744000    1.1279662   -7.4282109    247.21498   0.02768985  0.028088681            1 
  745000    1.1319869     -7.42508    247.08284  0.027637901  0.028081793            3 
  746000    1.1419095    -7.408159      248.197  0.027725312  0.028074845            2 
  747000    1.1251403   -7.4422149    247.84033  0.027648408  0.028068121            2 
  748000    1.1249982   -7.4710154    248.30164  0.027662838  0.028061103            3 
  749000    1.1348935   -7.4265865    248.32084  0.027628042  0.028054095            1 
  750000    1.1441509   -7.4650186    248.83668   0.02764852   0.02804718            2 
  751000    1.1331772   -7.4388964     248.8331  0.027611308  0.028040425            1 
  752000     1.140301   -7.4126595    249.47515  0.027645739  0.028033939            3 
  753000    1.1308457    -7.407121    250.79339  0.027754913  0.028027559            2 
  754000    1.1035639   -7.4664653    249.70887  0.027598239  0.028020801            2 
  755000     1.134437   -7.3963194    250.51089  0.027650208  0.028014004            1 
  756000    1.1288533   -7.4717943    250.16622  0.027575642   0.02800736            3 
  757000    1.1329006   -7.4056138     250.9919  0.027630108  0.028000843            1 
  758000    1.1379337   -7.4568046    251.81564  0.027684217  0.027994101            3 
  759000    1.1574635   -7.4340193    251.46121  0.027608828  0.027987796            4 
  760000    1.1183522   -7.4028646    252.44176  0.027680018  0.027981433            2 
  761000     1.140935   -7.4748877    252.19985  0.027617154  0.027974724            1 
  762000    1.1245737   -7.4325703    252.75293  0.027641397  0.027968495            4 
  763000    1.1258795   -7.4741331    252.23463  0.027548561  0.027961568            1 
  764000    1.1433105   -7.4325793    251.78793   0.02746378  0.027954533            3 
  765000    1.1395836   -7.4209496    253.50268  0.027614671  0.027947516            4 
  766000    1.1283163   -7.4749899     253.1818  0.027543712  0.027940665            1 
  767000     1.101826   -7.4434718    254.03097  0.027600062   0.02793408            3 
  768000    1.1285393   -7.4262955    254.72871  0.027639834  0.027927642            2 
  769000    1.1291253   -7.4576912    255.24577  0.027659923  0.027921318            2 
  770000    1.1434636   -7.4306717    254.80476  0.027576273  0.027915096            3 
  771000    1.1381095   -7.4371183    254.85402   0.02754583  0.027908387            2 
  772000    1.1177862   -7.5121298    253.23334  0.027335205  0.027901298            2 
  773000     1.140077    -7.436263    255.49843  0.027544031  0.027894208            4 
  774000    1.1532924    -7.421675    255.25998  0.027482771  0.027887243            3 
  775000    1.1631289   -7.4593694    255.59645   0.02748349  0.027880133            4 
  776000    1.1394189   -7.4388572    256.22822  0.027515917  0.027873381            2 
  777000    1.1519859   -7.4340768    256.30331  0.027488558  0.027866381            2 
  778000    1.1297263   -7.4504903    256.41435  0.027465119  0.027859502            3 
  779000    1.1068513    -7.469777    256.89716  0.027481511  0.027852405            2 
  780000    1.1121111   -7.4712812    257.15558  0.027473887  0.027845533            2 
  781000    1.1198153   -7.4904713    256.62451  0.027382044  0.027839005            1 
  782000    1.1435625   -7.4195125    257.43724  0.027433636  0.027832278            2 
  783000    1.1312644   -7.4618943    257.52286  0.027407712  0.027825555            2 
  784000    1.1244493   -7.4569256    258.82187  0.027510828  0.027818789            5 
  785000    1.1183878   -7.4800668    258.24288  0.027414319  0.027811812            3 
  786000    1.1313529   -7.4362484    257.87681  0.027340629  0.027804783            2 
  787000    1.1064077   -7.4600466    258.45057  0.027366643  0.027797902            2 
  788000    1.1223419   -7.4548791     259.4706  0.027439785  0.027790542            1 
  789000    1.1208743   -7.4493211    259.25871  0.027382627  0.027783424            1 
  790000    1.1213096   -7.4110272    259.89095  0.027414657  0.027776233            2 
  791000    1.1344051   -7.5195034    259.57744   0.02734697  0.027769006            1 
  792000    1.1348436   -7.3847816    261.29761  0.027493435  0.027762024            3 
  793000    1.1377916    -7.441142    260.90509  0.027417517  0.027755162            2 
  794000    1.1461235   -7.4533036    260.84249  0.027376416  0.027748473            2 
  795000    1.1032692   -7.4559946    260.84472  0.027342213  0.027741729            2 
  796000    1.1381909    -7.461091    260.23304  0.027243828  0.027734807            2 
  797000    1.1412861   -7.4332732    262.11762  0.027406694  0.027727944            2 
  798000    1.0988492   -7.4559521    262.02546  0.027362725  0.027721161            3 
  799000    1.1320726   -7.4375757    262.28732  0.027355791  0.027714301            1 
  800000    1.1169362    -7.410056    263.13571  0.027409969  0.027707727            3 
  801000    1.1405151   -7.4596367    262.26502  0.027285167  0.027701039            2 
  802000    1.1168665   -7.4651608    262.61121  0.027287117   0.02769419            1 
  803000    1.1130109   -7.4459917    263.54486  0.027350026   0.02768708            2 
  804000    1.1312109   -7.4312622    262.91624  0.027250854  0.027679993            1 
  805000    1.1195816   -7.5020724     263.5657  0.027284234  0.027672775            3 
  806000    1.1162422   -7.4498374    263.78351  0.027272902  0.027665307       -1e+20 
  807000    1.1316149   -7.5059753    264.20601  0.027282736  0.027658236            2 
  808000    1.1029801   -7.4840441    263.12386  0.027137362   0.02765084            2 
  809000    1.1250437   -7.4533855    263.84168  0.027177758  0.027643211            5 
  810000    1.1247957   -7.4221414    264.75509  0.027238178  0.027635821            2 
  811000    1.1180116   -7.4373777    265.46188  0.027277218  0.027628508            3 
  812000    1.1174613   -7.4498356    264.90798   0.02718678  0.027621141            2 
  813000    1.1217717   -7.4487732     264.5872  0.027120459  0.027613595            5 
  814000     1.133111   -7.4334716    265.77277  0.027208515  0.027606245            2 
  815000    1.1293688    -7.474583    265.31792  0.027128621  0.027598941            1 
  816000    1.1189915   -7.4652405    265.95318  0.027160251  0.027591333            1 
  817000    1.1380229   -7.4313966    266.51769  0.027184587  0.027584014            3 
  818000     1.107405   -7.4815852    266.75541  0.027175572  0.027576757       -1e+20 
  819000    1.1151756   -7.4702316    266.10575  0.027076287  0.027569336            4 
  820000    1.1250509   -7.4381346    266.34099  0.027067174  0.027561712            4 
  821000    1.1303328   -7.5047996    266.49099  0.027049431  0.027553879            3 
  822000    1.1174172   -7.4683773    268.17183  0.027186926  0.027545924            4 
  823000    1.1474486   -7.4746129    267.27741  0.027063326  0.027538368            3 
  824000    1.1025752   -7.4682418    268.20314  0.027124104   0.02753104            2 
  825000    1.1100518   -7.4552596    267.97742  0.027068427   0.02752381            3 
  826000    1.1087727   -7.4429589    269.44389  0.027183605  0.027516527            4 
  827000    1.0784103   -7.4924899    268.60337  0.027066039  0.027508883            3 
  828000    1.1297938    -7.509864    268.86055  0.027059234  0.027501283            4 
  829000    1.1143336   -7.4820202     269.0927   0.02704993  0.027493893            1 
  830000    1.1093432    -7.482564    268.62278  0.026970159  0.027486082            4 
  831000    1.1200766   -7.4876056    269.44775  0.027020433  0.027478157            2 
  832000    1.1405665   -7.4605229    270.94069  0.027137489  0.027470507            2 
  833000    1.1260262    -7.446386    270.86855  0.027097694   0.02746322            3 
  834000    1.1477911   -7.4760057    269.54346    0.0269328  0.027455681            1 
  835000    1.1319254   -7.5263956    269.78228   0.02692438  0.027447747            3 
  836000    1.1088068   -7.4511962    271.78919  0.027092224  0.027439943            3 
  837000    1.1111828   -7.5240949     270.2148  0.026903106   0.02743228            2 
  838000    1.1054388   -7.4720855    271.11384  0.026960405  0.027424523            1 
  839000    1.1358045   -7.4147735     271.9646  0.027012773  0.027416896            1 
  840000     1.123164   -7.4705276    272.12454  0.026996482  0.027409181            2 
  841000    1.1178385   -7.4844883    271.10362   0.02686322  0.027401425            1 
  842000    1.1148814   -7.4896883    271.86625  0.026906794  0.027393586            2 
  843000    1.1068464   -7.4611523    272.21962  0.026909808   0.02738593            3 
  844000    1.0889735   -7.4833784    272.72351  0.026927677  0.027377939            5 
  845000    1.1093514   -7.4769569    272.52139  0.026875876  0.027369835            2 
  846000    1.1238439   -7.5011618    272.72522  0.026864186  0.027361985            2 
  847000    1.1080499   -7.4274539    273.50204  0.026908898  0.027354106            1 
  848000    1.1333921   -7.5036784    273.48812  0.026875798   0.02734596            2 
  849000     1.125465    -7.463562    274.69429  0.026962533  0.027338226            1 
  850000    1.1163343   -7.4765235    274.71903  0.026933239  0.027330739            2 
  851000    1.1142368   -7.4850365    275.61479  0.026989306  0.027323396            2 
  852000    1.1243132   -7.5126994    274.41739  0.026840512  0.027315842            2 
  853000    1.1065636   -7.4031481    275.37564  0.026902661  0.027308405            1 
  854000    1.1129485   -7.4512386    274.87251  0.026822064  0.027300829            2 
  855000    1.1426601   -7.4423358    275.53605  0.026855365  0.027293026            3 
  856000    1.1178975   -7.4434556    276.46269  0.026914203  0.027285204            2 
  857000    1.1119218   -7.4804601    276.18586  0.026855879  0.027277616            2 
  858000    1.1134857   -7.4761859    276.42943  0.026848235   0.02726982            3 
  859000    1.1060726   -7.5087166    275.67449  0.026743742  0.027262022            2 
  860000    1.1162861   -7.4866254     277.1042  0.026851182  0.027254193            2 
  861000    1.0870802   -7.4535401    277.46459  0.026854878  0.027246623            1 
  862000    1.1195635   -7.4561188    277.06576  0.026785166   0.02723896            1 
  863000    1.1343403   -7.4898964    276.71491   0.02672025  0.027231121            1 
  864000     1.131665   -7.4795451    277.70929  0.026785232  0.027223417            2 
  865000    1.1250878     -7.47544    277.80896  0.026763869  0.027216052            2 
  866000    1.1028091   -7.4674563    278.54147  0.026803452  0.027208459            3 
  867000    1.0960585   -7.4731278    279.70513  0.026884384  0.027200966            2 
  868000    1.1209693   -7.4783765    278.13422  0.026702594  0.027193549            1 
  869000    1.1021833   -7.5225624     278.5827  0.026714873  0.027185932            2 
  870000    1.1037165   -7.4895369    279.54015  0.026775877  0.027178179            2 
  871000    1.1201052   -7.4637551    280.09119  0.026797856  0.027170618            1 
  872000    1.1281476   -7.4859375    281.21884  0.026874889  0.027163244            2 
  873000    1.1039232   -7.4746334     280.7963  0.026803771  0.027155841            2 
  874000    1.1333453   -7.4775311    280.60527  0.026754888  0.027148551            1 
  875000    1.1068668   -7.4716256    280.85567  0.026748159  0.027141013            2 
  876000     1.113398   -7.4770918    280.49737   0.02668354  0.027133417            1 
  877000    1.1285576   -7.5152183     280.0613  0.026611678  0.027125675            3 
  878000    1.1149585   -7.5068307     281.5594  0.026723557  0.027118162            1 
  879000    1.0894796   -7.5195977    281.46433  0.026684142  0.027110878            3 
  880000    1.1277935   -7.4677714    282.80745  0.026781008  0.027103411            3 
  881000    1.1123438   -7.4462086    283.36254  0.026803116  0.027096356            2 
  882000     1.106109   -7.4755563     283.6836  0.026803061  0.027089242            3 
  883000    1.1153673   -7.5279909    283.72244  0.026776372  0.027082388            2 
  884000    1.0969125   -7.4697789    284.06471  0.026778348  0.027075324            2 
  885000    1.1170504   -7.4850365    283.53141  0.026697873   0.02706823            2 
  886000    1.0931444   -7.5089508    284.08026  0.026719362  0.027061421            3 
  887000    1.0892112   -7.4961106    284.62491  0.026740409  0.027054731            1 
  888000    1.1108494   -7.5255111    285.51611  0.026793929  0.027048077            4 
  889000    1.1122988   -7.4604422    285.69022  0.026780111  0.027041475            2 
  890000    1.1086107    -7.497491    286.88969   0.02686233  0.027035065            3 
  891000    1.0932862   -7.4832044    286.47406  0.026793309  0.027028563            2 
  892000    1.1192406   -7.5595161    285.51756  0.026673913  0.027022023            2 
  893000     1.126339   -7.4794181     288.0502  0.026880384  0.027015711            2 
  894000    1.1559159   -7.5023013    286.74661  0.026728804  0.027009378            2 
  895000    1.0952126   -7.4676571    288.57997  0.026869644  0.027003097            3 
  896000    1.1196518   -7.4563794    288.76823  0.026857164  0.026996961            5 
  897000    1.1237095   -7.4959223    286.90609  0.026654226  0.026990581            4 
  898000    1.0942034   -7.4900792    288.61805  0.026783412  0.026984102            4 
  899000    1.1007297   -7.4896005    288.68904    0.0267602  0.026977348            2 
  900000    1.1058802   -7.4758689    288.13508  0.026679174  0.026970488            1 
  901000    1.1153575   -7.4752748    288.71925  0.026703593    0.0269634            2 
  902000    1.1103255   -7.4914578    288.38583  0.026643185  0.026956488            2 
  903000    1.1064258   -7.5054933    288.31174  0.026606842  0.026949353            2 
  904000    1.1162547   -7.4764661    288.68113  0.026611461  0.026942273            3 
  905000    1.1370109   -7.4441693    288.74619  0.026588047  0.026935212            2 
  906000    1.1040098    -7.445087    288.94039  0.026576563  0.026928179            2 
  907000    1.1097205   -7.4772519    289.43747  0.026592932  0.026920956            2 
  908000    1.1205337   -7.4934276    290.69216  0.026678796  0.026914132            3 
  909000    1.1133257   -7.5126319    289.10869   0.02650428  0.026907024            2 
  910000    1.1019843    -7.486543    289.82098  0.026540383  0.026899802            2 
  911000    1.0960662   -7.4994236    291.26817  0.026643631  0.026892843            5 
  912000    1.1084362   -7.4595111    291.60906  0.026645564  0.026885906            2 
  913000    1.1057812   -7.4800171    290.79727  0.026542285  0.026879127            2 
  914000    1.0886983   -7.4795264     290.9915  0.026530954  0.026871848            2 
  915000    1.1074926   -7.5127409    291.25375  0.026525843  0.026864472            2 
  916000    1.1159905   -7.5617725    290.33938  0.026413699  0.026857198            2 
  917000    1.1162152    -7.503989     291.6779  0.026506534  0.026850052            1 
  918000    1.1234414   -7.4746942     293.5057  0.026643582  0.026843076            2 
  919000    1.1032876   -7.5426006    291.63503  0.026444961  0.026835882            4 
  920000    1.1072579   -7.5174023    292.75472  0.026517638  0.026828527            1 
  921000    1.1109233   -7.4589946    293.08521  0.026518749  0.026821534            2 
  922000    1.0682582   -7.4818874    293.94711  0.026567888   0.02681438            3 
  923000    1.1110713   -7.4997669    293.86353  0.026531557  0.026807535            2 
  924000    1.1331402   -7.5162526    293.68887  0.026487091   0.02680052            4 
  925000    1.1309792   -7.5304106    294.15847  0.026500763  0.026793646            4 
  926000    1.1235874   -7.4770646    293.42879  0.026406479  0.026786488            2 
  927000    1.1016524   -7.5378902    294.33686  0.026459624   0.02677929            3 
  928000    1.1116976   -7.5258903    295.71736  0.026555079  0.026772293            2 
  929000     1.087383    -7.514102    295.12777  0.026473607   0.02676528            1 
  930000    1.0882577   -7.4753943    296.16367  0.026537964  0.026758406            4 
  931000    1.1170178   -7.5341781    296.34551  0.026525735  0.026751827            3 
  932000    1.1131016   -7.5051416    296.06887  0.026472538  0.026745378            2 
  933000     1.103059   -7.5411243    296.14828  0.026451257  0.026738822            5 
  934000    1.0901833   -7.5213528    296.04405  0.026413638  0.026732156            1 
  935000    1.0725978   -7.4824997    297.60833  0.026524807  0.026725025            1 
  936000      1.10171   -7.5028447    296.34114  0.026383649  0.026718119            3 
  937000    1.1124959   -7.4579756    297.37111  0.026447093  0.026711529            4 
  938000    1.1073885   -7.4819275    298.33047  0.026504129  0.026704921            2 
  939000    1.0917442   -7.5226352    298.33536  0.026476336  0.026698108            3 
  940000    1.1066821    -7.522105     297.0245  0.026331959  0.026691061            3 
  941000    1.0936881   -7.5203866    297.98088  0.026388672  0.026683959            2 
  942000    1.0846486   -7.4988643    298.10666  0.026371786  0.026677089       -1e+20 
  943000    1.0768923   -7.5035791    299.00935   0.02642359   0.02667022            4 
  944000    1.0949806   -7.5337734    298.98843  0.026393752  0.026663678            3 
  945000    1.0917678   -7.5158789    298.74311   0.02634419  0.026656893            3 
  946000    1.0749415   -7.5171741     299.2418  0.026360271   0.02664991            2 
  947000    1.1009092    -7.462842    300.28856  0.026424547  0.026643083            2 
  948000    1.0837368   -7.5382015    300.60247  0.026424267  0.026636663            4 
  949000    1.0831113   -7.5073763    300.37149   0.02637614  0.026630165            3 
  950000     1.099575   -7.4849093    301.43898  0.026442016  0.026623643            2 
  951000    1.0861593   -7.5589899    299.73783  0.026265145  0.026616768            1 
  952000    1.0856754   -7.5099199    300.96607  0.026345069  0.026609929            2 
  953000    1.1092104   -7.5183692    300.76901  0.026300193  0.026603033            1 
  954000    1.0914859   -7.5181794    301.87634  0.026369352   0.02659614            3 
  955000    1.0865746   -7.4965463    301.89603  0.026343458  0.026589436            3 
  956000     1.077611   -7.5245969     302.0351  0.026328025  0.026582399            3 
  957000    1.0984399   -7.5075122    301.77443  0.026277816  0.026575465            4 
  958000    1.0846282   -7.4986564     301.8046   0.02625301  0.026568395            2 
  959000    1.1061866   -7.5157442    301.84085  0.026228784  0.026560989            1 
  960000    1.1005298   -7.5220829    302.06476  0.026220899  0.026553708            3 
  961000    1.0959048   -7.4820347    302.74066  0.026252225  0.026546438            1 
  962000    1.0943195   -7.5051474    302.66253  0.026218168  0.026538954            1 
  963000     1.109173   -7.5450145    301.81847  0.026117901  0.026531539            4 
  964000    1.1116982   -7.4979496      302.997  0.026192687  0.026524067            5 
  965000    1.1209549   -7.5491406     302.6067  0.026131839  0.026516675            3 
  966000    1.0931835   -7.5358995    302.35329  0.026082927  0.026509049            2 
  967000    1.0987846   -7.5243796    303.38673  0.026145013  0.026501399            4 
  968000    1.1079363   -7.5397093    303.18248   0.02610042  0.026493947            3 
  969000    1.0848066   -7.5358218     303.3287   0.02608606   0.02648664            2 
  970000    1.0913616   -7.5531186    303.54218  0.026077507  0.026479136            2 
  971000    1.0948887   -7.4909414     305.5376  0.026221902  0.026471877            2 
  972000    1.1039067   -7.4887591    305.04034  0.026152293  0.026464495            2 
  973000     1.105795    -7.573159    304.09253  0.026044239  0.026457229            2 
  974000    1.1176747   -7.5138383    306.13681  0.026192403  0.026450013            2 
  975000    1.1005238   -7.5464166    305.09277  0.026076305  0.026442733            2 
  976000    1.1197186   -7.5025887    305.97287  0.026124733  0.026435572            3 
  977000    1.0904622   -7.5090895    305.64808   0.02607029   0.02642824            1 
  978000    1.0926817   -7.5210327    306.14536  0.026086005  0.026421008            4 
  979000    1.1170255   -7.5347736    305.87249  0.026036133  0.026413684            2 
  980000    1.0948714   -7.5268388    306.30374  0.026046237   0.02640629            1 
  981000    1.1258147   -7.5594947    306.73327  0.026056173  0.026398901            3 
  982000     1.085832   -7.5651693    306.56868  0.026015672  0.026391439            3 
  983000    1.0858043   -7.5292055    307.41512  0.026060963   0.02638422            2 
  984000    1.1009485   -7.5473644    307.24614  0.026020168  0.026377123            2 
  985000    1.0906319   -7.5488483    306.68021  0.025945873  0.026369813            2 
  986000    1.0872637   -7.5336765    308.56307  0.026078691  0.026362769            3 
  987000    1.0928032   -7.5477935     308.8624  0.026077541  0.026355605            3 
  988000     1.074649   -7.5231058    309.12403  0.026073214   0.02634852            3 
  989000    1.0737904   -7.5292549     308.8566  0.026024318  0.026341352            2 
  990000    1.1024086   -7.5533427    309.04026   0.02601349  0.026334067            2 
  991000     1.117558   -7.5570325    308.98324  0.025982445  0.026326408            3 
  992000    1.0910725   -7.5433627    308.76926  0.025938278  0.026319085            2 
  993000    1.1018406   -7.5911353    309.27896  0.025954932  0.026311782            4 
  994000    1.0937285    -7.549086    309.46841  0.025944703   0.02630454            1 
  995000    1.0936397   -7.5274073    311.73443  0.026108411  0.026297531            2 
  996000    1.0797455   -7.5199794    310.93818  0.026015577  0.026290555            3 
  997000     1.099552    -7.542703    311.11095  0.026003924  0.026283672            1 
  998000    1.0716545   -7.5391248    311.99863   0.02605199  0.026276692            2 
  999000    1.0982045   -7.5104812    312.11234  0.026035397  0.026269906            1 
 1000000    1.0816958   -7.5179541    312.93316  0.026077763  0.026263005            1 
 1001000    1.0819016   -7.6045385    311.31373  0.025916894  0.026255979            2 
 1002000    1.1185383   -7.5546835    311.92041  0.025941484  0.026248853            2 
 1003000    1.0898645   -7.5588842    312.60704  0.025972669  0.026241573            3 
 1004000    1.0815263   -7.5423764    312.64662  0.025950085  0.026234458            1 
 1005000    1.0909582   -7.5585763    311.66279  0.025842685  0.026227264            1 
 1006000    1.1129019   -7.5251329    313.39247  0.025960277  0.026220296            2 
 1007000     1.093308   -7.5078345    314.53051  0.026028675  0.026213576            4 
 1008000    1.1093067   -7.5582201    314.50829  0.026001016  0.026206758            4 
 1009000    1.1040696   -7.5638562    313.89158  0.025924313  0.026200032            4 
 1010000    1.0913836   -7.5436376    314.52501  0.025950908  0.026193195            1 
 1011000    1.1099889   -7.5348212    314.68535  0.025938456  0.026186249            3 
 1012000    1.0950321   -7.5476685    315.31197  0.025964424  0.026179532            3 
 1013000    1.0805566   -7.5546987     315.9729  0.025993164  0.026172935            2 
 1014000    1.0746192   -7.5349631    316.61831  0.026020571  0.026166318            3 
 1015000     1.092714   -7.5587764     316.0986  0.025952266  0.026159634            2 
 1016000    1.0904157   -7.5708904    316.87122  0.025990093  0.026153156            4 
 1017000    1.0964912   -7.5396582    316.77703   0.02595682  0.026146615            3 
 1018000     1.095565   -7.5527491    316.42019  0.025902111  0.026140188            2 
 1019000    1.0952318   -7.5492415    317.06541  0.025929458  0.026133584            5 
 1020000    1.0873651   -7.5329088    316.01146  0.025817929  0.026127182            2 
 1021000    1.0755102   -7.5785815    317.05258  0.025877619  0.026120426            4 
 1022000    1.1032252    -7.545498      317.398  0.025880463  0.026113509            1 
 1023000    1.1096704   -7.5708317    317.55125  0.025867648  0.026106682            3 
 1024000    1.0772639    -7.551225    318.13355  0.025889775   0.02609985            2 
 1025000    1.0697122   -7.5378537    317.98542  0.025852473   0.02609297            3 
 1026000    1.0836017   -7.5527277    318.70524  0.025885741  0.026085966            2 
 1027000    1.0933703   -7.5568469    318.89451  0.025875894  0.026079072            2 
 1028000    1.1070286   -7.5327397    319.03574  0.025862171  0.026072193            1 
 1029000    1.0881781   -7.5666983    318.91828  0.025827525  0.026065202            4 
 1030000    1.0619442   -7.5306114    319.23609  0.025828162   0.02605828            3 
 1031000    1.0939609   -7.5709925    318.98268  0.025782629  0.026051445            3 
 1032000    1.0942619   -7.5467816    319.31364   0.02578437  0.026044353            1 
 1033000    1.0796452   -7.5471471    319.75787  0.025795246  0.026037589            1 
 1034000    1.0991264   -7.5477884    319.56071  0.025754409  0.026030646            4 
 1035000    1.1151119    -7.521824    319.98074  0.025763345  0.026023688            4 
 1036000    1.0649818   -7.5577301    319.44505  0.025695387  0.026016864            3 
 1037000    1.0658505   -7.5160454    320.66639  0.025768756  0.026009867            3 
 1038000    1.0842018     -7.56059     321.4197  0.025804408  0.026002923            1 
 1039000    1.0883637    -7.562592    321.31723  0.025771353  0.025995737            1 
 1040000    1.0581817   -7.5393777    320.79453   0.02570469  0.025988632            2 
 1041000     1.081904   -7.5871899    320.68581  0.025671295  0.025981349            4 
 1042000    1.0917476   -7.5916124    320.33497    0.0256186  0.025974094            3 
 1043000    1.0746634   -7.5736264    321.28773   0.02567016  0.025966909            6 
 1044000    1.0679059   -7.5816931    322.19748   0.02571819  0.025959864            3 
 1045000    1.0881318   -7.5476845    322.31246  0.025702748  0.025953017            2 
 1046000    1.0875872   -7.5805805    321.67502  0.025627391  0.025945977            1 
 1047000    1.0883568   -7.5332682    322.27727  0.025650849  0.025939265            6 
 1048000    1.0958805   -7.5700663     323.0575  0.025688414  0.025932474            4 
 1049000    1.0936176   -7.5422686    323.83971  0.025726065  0.025925574            3 
 1050000    1.0859208   -7.5560872    322.98034  0.025633361  0.025918744            1 
 1051000    1.0646576   -7.5160094    324.59234  0.025736785  0.025911911            3 
 1052000    1.0904758   -7.5977373     323.4425  0.025621237  0.025905136            7 
 1053000    1.0955466   -7.5476086    323.87487  0.025631123  0.025898175            1 
 1054000    1.0831697   -7.5970305    324.41114  0.025649205  0.025891393            3 
 1055000    1.0792177   -7.5700841    323.33958  0.025540251  0.025884464            4 
 1056000    1.0652127   -7.5195646    324.97768  0.025645334   0.02587749            2 
 1057000    1.0798177   -7.5682423    325.33474  0.025649222  0.025870522            2 
 1058000    1.0972697   -7.5762399    325.17097  0.025612081  0.025863437            3 
 1059000    1.0716023    -7.586916    324.99266  0.025573864  0.025856478            4 
 1060000    1.0682833   -7.5421075    325.55082  0.025593618  0.025849423            1 
 1061000    1.1038808   -7.5065579    326.17994  0.025618909  0.025842407            3 
 1062000     1.120614   -7.5463052    325.68729  0.025556128  0.025835384            2 
 1063000    1.0724287   -7.5541622    326.37507  0.025586004  0.025828414            2 
 1064000    1.0797165   -7.5314569    325.88012  0.025523193  0.025821302            2 
 1065000    1.0668549   -7.5814009    325.72191  0.025486848  0.025814102            2 
 1066000    1.0716723    -7.570535    326.31808  0.025509544  0.025806788            4 
 1067000    1.0773019   -7.5716577    326.47178   0.02549764  0.025799631            1 
 1068000    1.1078365   -7.5363681    327.37416  0.025544176  0.025792494            1 
 1069000    1.0995034   -7.5255599     326.9907  0.025490388  0.025785248            1 
 1070000    1.0833869   -7.5953452     327.4926  0.025505654  0.025778045            3 
 1071000    1.0891699   -7.5915535    327.30496  0.025467239  0.025770662            1 
 1072000    1.0777169   -7.5732128    328.22669  0.025515135   0.02576341            2 
 1073000    1.0780654   -7.5634781    328.38181  0.025503402  0.025756309            2 
 1074000    1.0845111   -7.5351857    328.89642  0.025519586  0.025749346            3 
 1075000    1.0990416    -7.570259    329.00469  0.025504239  0.025742193            3 
 1076000    1.0762138   -7.5757865    329.90051  0.025549916  0.025735202            6 
 1077000    1.0772862   -7.5812698    329.59184  0.025502309  0.025728127            2 
 1078000    1.0687304   -7.5728047    329.67657  0.025485202  0.025721234            3 
 1079000    1.0612842   -7.5710312    329.73186  0.025465853  0.025714296            2 
 1080000    1.0754693   -7.5825563    329.84881  0.025451297  0.025707498            1 
 1081000    1.0583576    -7.537518    331.02637   0.02551853  0.025700977            2 
 1082000    1.0830839   -7.5523656    331.64412  0.025542523  0.025694346            2 
 1083000    1.0558377   -7.5687154    330.57077  0.025436347  0.025687525            4 
 1084000    1.0679528   -7.5996597    330.71153  0.025423703  0.025680466            2 
 1085000    1.1002157   -7.5578954      331.411  0.025453994   0.02567372            3 
 1086000     1.089851     -7.59775    331.32365  0.025423852  0.025666942            4 
 1087000    1.0815446   -7.5302918    332.57816  0.025496639  0.025660205            3 
 1088000    1.0747666   -7.5340702    332.50018  0.025467232  0.025653377            2 
 1089000    1.0760981   -7.5932588    331.51245  0.025368262  0.025646604            3 
 1090000    1.0905097   -7.5904943     332.1965  0.025397286  0.025639753            3 
 1091000    1.0852077   -7.5530063    332.38285  0.025388241  0.025632838            2 
 1092000    1.0755864    -7.580531    333.67832  0.025463853  0.025625983            2 
 1093000    1.0731149   -7.5850945    333.49481  0.025426564  0.025619039            2 
 1094000    1.0674713   -7.5959508    332.45477  0.025324099  0.025611992            5 
 1095000    1.0724378   -7.5653777    333.06988  0.025347784  0.025604841            2 
 1096000    1.0704354    -7.568753    333.69368  0.025372086  0.025597847            3 
 1097000    1.0382914   -7.5525299    334.66105  0.025422444  0.025590748            3 
 1098000    1.0648045   -7.5640836    332.97414  0.025271261  0.025583802            3 
 1099000    1.0845114   -7.5929985    333.07184  0.025255675  0.025576525            2 
 1100000    1.0682532   -7.5648884    334.65676  0.025352785  0.025569331            2 
 1101000      1.07263   -7.5717839     334.5351  0.025320549  0.025562388            1 
 1102000    1.0771396   -7.5919416    335.48973  0.025369762  0.025555611            2 
 1103000    1.0932882   -7.5907567    335.00253  0.025309953  0.025548673            8 
 1104000    1.0793485   -7.5744049    335.82289   0.02534895  0.025541915            1 
 1105000    1.0604558   -7.5540117    335.77546  0.025322433     0.025535            3 
 1106000    1.1031156   -7.5719793    336.11556  0.025325163  0.025528031            1 
 1107000    1.0860681   -7.5771098    335.61658  0.025264723  0.025521208            6 
 1108000     1.088046   -7.5936552    336.26488   0.02529068  0.025514273            2 
 1109000    1.0733196   -7.6510298    334.99027  0.025172097  0.025507127            3 
 1110000    1.0689138   -7.5605723    336.47379  0.025260795  0.025499878            1 
 1111000    1.0540491   -7.6430792    337.27316  0.025298017  0.025492864            2 
 1112000    1.0798571   -7.5693197    336.12912  0.025189532  0.025485464            3 
 1113000     1.084701   -7.6163611    337.05098  0.025235923  0.025478381            3 
 1114000    1.0425875   -7.5709666    337.56449  0.025251683  0.025471339            3 
 1115000      1.08363   -7.5754756    336.53787  0.025152307  0.025464173            2 
 1116000     1.085743   -7.6033416    337.27492  0.025184806  0.025456995            3 
 1117000      1.06522    -7.541093     338.5478  0.025257222  0.025449966            2 
 1118000    1.0764097   -7.6035455    338.32554  0.025218063  0.025443018            3 
 1119000    1.0734013   -7.5751463    338.59189  0.025215363   0.02543599            2 
 1120000    1.0540901   -7.6122866    338.40516  0.025178955  0.025428937            1 
 1121000    1.0595394   -7.5981037    339.55501  0.025241973  0.025421969            3 
 1122000    1.0971622   -7.5669214    339.61079  0.025223618  0.025415073            1 
 1123000    1.0747879   -7.6172017    338.80163  0.025141113  0.025408268            3 
 1124000    1.0739033   -7.5509513    340.52986  0.025246876  0.025401418            5 
 1125000     1.088004   -7.5723809    341.90144  0.025326033  0.025394668            2 
 1126000    1.0662851   -7.5361964    341.62718  0.025283243  0.025388135            4 
 1127000    1.0748895   -7.5448153    341.28173  0.025235265  0.025381475            3 
 1128000    1.0721377   -7.5756487    340.50555  0.025155552  0.025374735            4 
 1129000    1.0704165   -7.5763194    341.48959  0.025205904  0.025367938            3 
 1130000    1.0642755   -7.5770172    340.55786  0.025114886  0.025361266            2 
 1131000    1.0536768   -7.5788825    342.16872   0.02521137  0.025354704            2 
 1132000    1.0791413   -7.6130771    341.04381  0.025106287  0.025347912            2 
 1133000    1.0782492   -7.6026859    341.61346  0.025126027  0.025341199            3 
 1134000    1.0679257   -7.5724092    342.75325  0.025187629  0.025334538            2 
 1135000    1.0999861   -7.5810027    342.11511  0.025118583  0.025327897            1 
 1136000    1.0598262   -7.5897567    342.52449  0.025126503   0.02532132            2 
 1137000    1.0604489   -7.6081858    342.50469  0.025102953  0.025314471            1 
 1138000     1.050563   -7.5955037    342.32252  0.025067555   0.02530753            2 
 1139000    1.0839426   -7.5459251    342.88309  0.025086559  0.025300622            5 
 1140000    1.0678892   -7.5956316    342.68921  0.025050381  0.025293673            3 
 1141000    1.0580247   -7.5532099    344.30892  0.025146722  0.025286877            2 
 1142000    1.0626689   -7.5514968     343.8953   0.02509452  0.025280163            3 
 1143000     1.067344   -7.6307084    343.71542  0.025059451  0.025273277            2 
 1144000    1.0717438   -7.6415138    343.79736  0.025043514   0.02526634            2 
 1145000     1.070492   -7.6316027     343.1592  0.024975197  0.025259254            4 
 1146000    1.0481475   -7.6232743    344.00404  0.025014837  0.025252213            3 
 1147000    1.0841837   -7.5938096    344.03774  0.024995477  0.025245232            3 
 1148000    1.0699384    -7.582138    344.20747  0.024986024  0.025238328            3 
 1149000    1.0856408   -7.5758424    345.08614  0.025028006  0.025231334            3 
 1150000    1.0587642   -7.6394366    343.75319  0.024909651  0.025224253            2 
 1151000    1.0510089   -7.6111956    344.49887  0.024941998  0.025217119            2 
 1152000    1.0585245   -7.5997348    344.60382  0.024927938  0.025209784            3 
 1153000    1.0459603   -7.6223528    344.48413  0.024897667   0.02520268            3 
 1154000    1.0519506   -7.6067769    344.90078   0.02490618  0.025195476            2 
 1155000    1.0547317   -7.5593184    345.48698  0.024926911  0.025188397            2 
 1156000    1.0917094   -7.5709097    345.95721  0.024939245   0.02518128            3 
 1157000    1.0551554   -7.5739161    347.12204  0.025001588  0.025174158            3 
 1158000    1.0904206   -7.6298382    345.74479  0.024880886  0.025166964            3 
 1159000    1.0579518   -7.5814782    346.17502  0.024890353  0.025159724            2 
 1160000    1.0606303   -7.5603158    347.42321  0.024958564  0.025152555            2 
 1161000    1.0699749    -7.632603    345.87043  0.024825612  0.025145092            8 
 1162000    1.0675648   -7.5730004    346.60113   0.02485665  0.025137819            2 
 1163000    1.0894577    -7.646444    346.44184  0.024823864  0.025130412            2 
 1164000    1.0546704   -7.6116577    346.00424  0.024771208  0.025122945            2 
 1165000    1.0917736    -7.586242    347.56857  0.024861844  0.025115499            1 
 1166000    1.0746905   -7.5926222     347.8201  0.024858498  0.025108287            2 
 1167000    1.0461268    -7.564571    348.73591  0.024902593  0.025101079            1 
 1168000    1.0845396   -7.6031792    348.08567  0.024834879  0.025093882            1 
 1169000    1.0627695   -7.6195093    347.98306  0.024806321   0.02508669            2 
 1170000    1.0716929   -7.5693442    349.29589  0.024878625  0.025079306            2 
 1171000    1.0576676   -7.5675433    348.25007  0.024782954  0.025071983            2 
 1172000    1.0511592   -7.6520274    347.65114  0.024719222  0.025064553            5 
 1173000     1.071102   -7.6175652    347.74723  0.024704975  0.025057159            2 
 1174000    1.0648328   -7.6137027    347.96053  0.024699072  0.025049905            3 
 1175000     1.063527    -7.623655    348.46817  0.024714055  0.025042469            3 
 1176000    1.0853068   -7.6051134    348.92398  0.024725339  0.025035194            5 
 1177000    1.0777695   -7.5782572    350.73043  0.024832231  0.025028019            4 
 1178000    1.0643156   -7.6208996    349.65475  0.024735056    0.0250208            1 
 1179000    1.0592157   -7.5685382    350.25843  0.024756745  0.025013493            2 
 1180000    1.0620211   -7.6214507     350.3808  0.024744407  0.025006334            2 
 1181000    1.0628448   -7.6135143    350.78794  0.024752183  0.024999096            1 
 1182000    1.0586615   -7.6025562    351.72171  0.024797075  0.024991933            5 
 1183000    1.0747321   -7.6182709    350.53776  0.024692713  0.024984817            2 
 1184000    1.0827321    -7.584676     350.6324  0.024678519  0.024977514            3 
 1185000    1.0921603    -7.646758    350.52517  0.024650153  0.024970255            1 
 1186000    1.0951904   -7.5947748    351.65407   0.02470869  0.024962924            3 
 1187000    1.0406713   -7.6230846    351.82164  0.024699638  0.024955665            4 
 1188000    1.0730216   -7.5827504    353.44492  0.024792713  0.024948567            2 
 1189000    1.0763567   -7.5853997    353.24685  0.024757979  0.024941517            2 
 1190000    1.0725298   -7.5942038     354.0085  0.024790511  0.024934487            5 
 1191000    1.0596055   -7.5637711    353.81486  0.024756148  0.024927847            2 
 1192000    1.0412184   -7.6374798    352.60802  0.024651008  0.024920993            4 
 1193000    1.0513929   -7.5769681    354.22576  0.024743347  0.024914119            3 
 1194000     1.076923   -7.6276072    353.75992  0.024690112  0.024907262            2 
 1195000    1.0832886   -7.6305511    354.23293  0.024702436  0.024900382            2 
 1196000    1.0556018   -7.5594824    355.39457  0.024762721  0.024893365            4 
 1197000    1.0493209   -7.6391108    354.12132  0.024653392  0.024886308            2 
 1198000    1.0778788   -7.6153388    354.16282    0.0246357  0.024879236            1 
 1199000    1.0593468   -7.5850762    355.17477  0.024685486  0.024872292            3 
 1200000    1.0475012   -7.5874246    354.97448  0.024651006  0.024865436            1 
 1201000     1.043612   -7.6346517    355.27571  0.024651381  0.024858433            5 
 1202000    1.0570551   -7.5927457    355.43211  0.024641716  0.024851435            1 
 1203000    1.0689225   -7.6079599    355.48775  0.024625087  0.024844371            2 
 1204000    1.0612826   -7.6160725    355.61351  0.024613338  0.024837249            5 
 1205000    1.0052811    -7.633384    354.91718  0.024544757  0.024829921            2 
 1206000    1.0850829   -7.6224079    355.86397  0.024589826  0.024822564            4 
 1207000     1.050268   -7.6238257    355.63695   0.02455378  0.024815209            3 
 1208000    1.0716674   -7.6352936    354.75059  0.024472309  0.024807561            6 
 1209000    1.0463601   -7.6112032    356.21124  0.024552746  0.024800189            1 
 1210000     1.060729   -7.6253325    355.58978  0.024489654  0.024792714            2 
 1211000     1.056441   -7.6468443      356.236    0.0245139  0.024785228            3 
 1212000    1.0448886   -7.6254189    355.50613  0.024443491  0.024777594            1 
 1213000     1.049067   -7.6106593      356.241  0.024473825  0.024770072            4 
 1214000        1.061   -7.6256387    356.13641  0.024446486  0.024762479            2 
 1215000    1.0460406   -7.6060288    356.65165  0.024461704  0.024755024            1 
 1216000    1.0457828   -7.6125735    357.36743  0.024490641  0.024747582            5 
 1217000    1.0383912   -7.6047584     356.1368   0.02438625  0.024740256            3 
 1218000    1.0528412   -7.6137971    357.16993  0.024436913  0.024732756            7 
 1219000    1.0460044   -7.6184281        356.5  0.024371069  0.024725326            2 
 1220000    1.0593202   -7.6559119    356.82688  0.024373421  0.024717776            2 
 1221000    1.0724022   -7.6495806     357.2888  0.024384985  0.024710426            2 
 1222000    1.0397551   -7.5950691    359.14395   0.02449154  0.024702939            1 
 1223000    1.0408264   -7.6657055    357.21069  0.024339785  0.024695455            3 
 1224000    1.0494963   -7.6476136    358.41789   0.02440209  0.024688017            5 
 1225000    1.0594758   -7.5929736    359.01521  0.024422804  0.024680546            5 
 1226000    1.0455921   -7.6504667     357.2967  0.024286073  0.024672897            6 
 1227000    1.0749566   -7.6118281    359.46925  0.024413831  0.024665328            4 
 1228000    1.0624731   -7.6291538    358.83862  0.024351155  0.024657836            2 
 1229000    1.0684012   -7.6483833    358.41744  0.024302783  0.024650183            4 
 1230000    1.0574914   -7.6582916    358.71541  0.024303212  0.024642583            3 
 1231000    1.0664737   -7.6432585    359.34071    0.0243258  0.024634985            4 
 1232000    1.0674486    -7.679992    359.16009  0.024293837  0.024627387            2 
 1233000    1.0603666   -7.6474854    358.74716  0.024246226  0.024619906            1 
 1234000    1.0367007     -7.64433    359.98969  0.024310487  0.024612379           11 
 1235000    1.0783243   -7.6311243    360.48777  0.024324411  0.024604773            6 
 1236000    1.0214081   -7.6382216    360.30975  0.024292729  0.024597152            1 
 1237000    1.0200846   -7.6169762    360.68189   0.02429816  0.024589585            1 
 1238000    1.0619659   -7.6258714    360.46309  0.024263805    0.0245819            3 
 1239000    1.0552065   -7.6373945    360.53104  0.024248792  0.024574267            2 
 1240000     1.062535   -7.6731014    359.57502  0.024164988  0.024566385            2 
 1241000       1.0511   -7.6115026    360.79864  0.024227682  0.024558651            1 
 1242000    1.0731666   -7.6884755    359.56705   0.02412554   0.02455091            2 
 1243000    1.0611409   -7.6497682    360.61109  0.024176125   0.02454305            2 
 1244000    1.0708227   -7.6688502    360.75088  0.024166056  0.024535168            5 
 1245000    1.0409706   -7.6559874    361.24893  0.024179982   0.02452749            5 
 1246000    1.0430161   -7.6456742    362.17656  0.024222617  0.024519893            2 
 1247000     1.042699   -7.6335915    361.43834  0.024153859    0.0245123            5 
 1248000    1.0436693   -7.6506652     362.9685  0.024236679  0.024504591            4 
 1249000    1.0297802   -7.6105524     362.5926  0.024192193  0.024496947            1 
 1250000    1.0476706   -7.6600067    361.73118  0.024115412  0.024489227            4 
 1251000    1.0621163   -7.6239735    362.14651  0.024123802  0.024481512            2 
 1252000    1.0347008   -7.6349067    362.53212    0.0241302   0.02447376            2 
 1253000    1.0494223   -7.6309078    362.31832  0.024096723  0.024465899            4 
 1254000    1.0244545   -7.6502018    362.32333  0.024077839  0.024457962            2 
 1255000    1.0445614   -7.6755422    363.05397  0.024107169  0.024450037            2 
 1256000    1.0567494   -7.6586267    362.99266  0.024083908  0.024442225            4 
 1257000    1.0723836   -7.6461189    362.67659  0.024043794  0.024434353            2 
 1258000    1.0491022   -7.6768105    363.30901  0.024066575  0.024426391            5 
 1259000    1.0603628   -7.6353099    363.67047  0.024071384  0.024418512            3 
 1260000     1.061898   -7.6777307    363.80227  0.024060997  0.024410778            4 
 1261000    1.0740732   -7.6921002    363.56614  0.024026311  0.024403054            2 
 1262000    1.0539398   -7.6510296    364.47051  0.024066991   0.02439526            2 
 1263000    1.0465585   -7.6443999    364.33795  0.024039189  0.024387505            2 
 1264000    1.0574369   -7.6695318    364.08305  0.024003366  0.024379649            5 
 1265000    1.0692857   -7.6395329     365.0881    0.0240506  0.024371911            1 
 1266000     1.050849   -7.6486201    364.59313  0.023999021  0.024364127            4 
 1267000    1.0518605   -7.5932566    365.93153  0.024068109   0.02435639            3 
 1268000    1.0389704   -7.6828753    364.66479  0.023965877  0.024348659            3 
 1269000    1.0789555   -7.6157746    365.57352  0.024006667  0.024341011            1 
 1270000    1.0467239   -7.6715665     366.1439  0.024025191  0.024333413            1 
 1271000    1.0279754    -7.630351    366.78039  0.024048019  0.024325816            5 
 1272000    1.0645067   -7.6364982    365.85953  0.023968784   0.02431815            3 
 1273000    1.0390951   -7.6543756    366.70739  0.024005459  0.024310643            2 
 1274000    1.0443639    -7.629411     366.7746  0.023991012  0.024303034            4 
 1275000      1.03682   -7.6106244    366.92353   0.02398193  0.024295431            2 
 1276000    1.0558492   -7.6548698    367.31502  0.023988703  0.024287806            2 
 1277000    1.0502113   -7.6567126    367.20237  0.023962566  0.024280138            4 
 1278000    1.0552373   -7.6119512    367.56682  0.023967581  0.024272561            5 
 1279000    1.0665844   -7.6792408    367.17711   0.02392345  0.024265017            4 
 1280000    1.0620144   -7.6993442    367.21508  0.023907232  0.024257492            4 
 1281000    1.0546946    -7.638378    368.48404  0.023971119  0.024249925            4 
 1282000    1.0533921   -7.6561327    368.29314  0.023940012  0.024242401            1 
 1283000    1.0517073     -7.66434    368.32935  0.023923704   0.02423485            2 
 1284000    1.0264674   -7.6204306    369.39793  0.023974424   0.02422743            1 
 1285000    1.0632799   -7.6447615    369.40404  0.023956164  0.024219986            1 
 1286000    1.0431319   -7.6119632    369.67918  0.023955364  0.024212534            4 
 1287000    1.0453892   -7.6473054    369.59078  0.023931027  0.024205146            1 
 1288000    1.0628177   -7.6161506    370.80194  0.023990809  0.024197683            2 
 1289000    1.0138733   -7.6216821    369.68582   0.02390004   0.02419016            2 
 1290000    1.0570449   -7.6365617    371.15964  0.023976721  0.024182748            1 
 1291000    1.0214375   -7.6735851    369.95228  0.023880214  0.024175178            2 
 1292000    1.0404573   -7.6641528    370.11483  0.023872215   0.02416765            3 
 1293000    1.0451429   -7.6671959    370.15219  0.023856161  0.024160091            8 
 1294000    1.0514772   -7.6990439    371.23454  0.023907428  0.024152585            2 
 1295000    1.0461836   -7.6494303    371.02073  0.023875208  0.024145083            8 
 1296000    1.0463481   -7.6533452    371.07871  0.023860514  0.024137611            5 
 1297000    1.0619263   -7.6587402    371.32968  0.023858242  0.024130086            3 
 1298000    1.0418835   -7.6776699    371.85209  0.023873401  0.024122555            5 
 1299000    1.0455643   -7.6484957    371.67349  0.023843565  0.024115135            2 
 1300000    1.0517369   -7.6430275    372.50093  0.023878265  0.024107688            2 
 1301000    1.0290286   -7.6647676     371.7016  0.023808712  0.024100293            4 
 1302000    1.0333798   -7.6721137    371.29412  0.023764345  0.024092837            2 
 1303000    1.0365335   -7.6694058    373.36348  0.023878452  0.024085315            2 
 1304000    1.0467805   -7.6980971    372.22424  0.023787336  0.024077903            3 
 1305000     1.037106   -7.6882571    372.16785  0.023765508   0.02407038            4 
 1306000    1.0611328   -7.6476556     373.0051  0.023800734  0.024063032            3 
 1307000    1.0335759   -7.6224417    374.36752   0.02386939  0.024055539            3 
 1308000    1.0402793   -7.6507305    373.06745  0.023768313  0.024048085            2 
 1309000    1.0289945   -7.6665852    372.98063  0.023744629  0.024040691            2 
 1310000    1.0604959   -7.6702096    373.14052  0.023736674  0.024033166            2 
 1311000    1.0457462   -7.6465045    374.01031  0.023773856  0.024025691            2 
 1312000    1.0586583   -7.6916159    373.52389  0.023724841  0.024018152            3 
 1313000    1.0419463   -7.6828356    373.68311  0.023716877  0.024010578            2 
 1314000    1.0106312   -7.6923222      374.588  0.023756215   0.02400296            5 
 1315000    1.0308074   -7.6850561    374.23008  0.023715468  0.023995387            2 
 1316000    1.0241349   -7.6488528    374.50873  0.023715092  0.023987825            2 
 1317000    1.0214543   -7.6602926    374.27913  0.023682557  0.023980338            2 
 1318000    1.0120347   -7.6694101    374.41264   0.02367303   0.02397274            4 
 1319000     1.043774   -7.6878846    374.90979  0.023686492  0.023965277            2 
 1320000    1.0527892   -7.6499541    376.15224  0.023746985   0.02395777            4 
 1321000    1.0442819   -7.6759255    375.13563  0.023664877  0.023950397            1 
 1322000    1.0248596   -7.6583489    375.56566  0.023674084  0.023942904            3 
 1323000    1.0509046   -7.6912034    375.50292  0.023652237  0.023935221            7 
 1324000    1.0342185   -7.7036222    374.94414  0.023599203  0.023927545            2 
 1325000    1.0204342   -7.6615172    376.11655  0.023655129  0.023919927            2 
 1326000    1.0171831   -7.6711978     376.0279  0.023631718  0.023912179            2 
 1327000    1.0085282   -7.6637739    375.73185  0.023595318  0.023904466            4 
 1328000    1.0457988   -7.6656285     376.0506  0.023597553  0.023896763            3 
 1329000    1.0341536    -7.619991    376.57356  0.023612588   0.02388909            1 
 1330000    1.0326127   -7.6508832     377.9657  0.023682062  0.023881575            1 
 1331000     1.038431   -7.6904415    376.93727  0.023599879   0.02387401            6 
 1332000    1.0272133    -7.693268    376.11743   0.02353087  0.023866319            1 
 1333000    1.0599246   -7.6840459    377.54668  0.023602568  0.023858704            2 
 1334000    1.0506246   -7.6810365    376.93617  0.023546738  0.023850995            2 
 1335000    1.0523525   -7.6524239    377.70895  0.023577338  0.023843457            2 
 1336000    1.0145812   -7.6673791    377.19902  0.023527883  0.023835747            3 
 1337000    1.0242045   -7.6382863    378.19825  0.023572566  0.023828046            2 
 1338000     1.042485   -7.6728238    378.13869  0.023551239  0.023820424            1 
 1339000    1.0349936   -7.6685292    377.59932  0.023500082  0.023812701            2 
 1340000    1.0585829   -7.7007608    378.60014  0.023544785  0.023805134            3 
 1341000    1.0202412   -7.6562125    378.42799  0.023516529  0.023797603            2 
 1342000    1.0352525   -7.7162269    377.91165  0.023466943   0.02378995            2 
 1343000    1.0531809   -7.6680929     378.0797  0.023459897  0.023782106            3 
 1344000    1.0354076   -7.7076314    378.11518  0.023444641  0.023774337            2 
 1345000    1.0492676   -7.6718739    378.48421  0.023450075  0.023766595            4 
 1346000    1.0245882   -7.7011039    378.79317  0.023451781  0.023758901            3 
 1347000    1.0364914   -7.6892749    379.20934  0.023460118  0.023751315            2 
 1348000    1.0282484   -7.6474413    380.98364  0.023552401   0.02374372            3 
 1349000    1.0332719   -7.6837586    379.04237  0.023415021  0.023736122            3 
 1350000    1.0498454   -7.6410484    380.12187  0.023464313   0.02372854            4 
 1351000    1.0511132   -7.7023568    380.11868  0.023446748  0.023721056            2 
 1352000    1.0350596   -7.6921332    378.98838  0.023359737  0.023713515            2 
 1353000    1.0614889   -7.6837781    381.30152  0.023484942  0.023705892            4 
 1354000    1.0396501    -7.711884    379.79407  0.023374819  0.023698315            2 
 1355000    1.0399028   -7.7297361    379.53272  0.023341496  0.023690678            3 
 1356000    1.0385575   -7.7504234    379.98551  0.023352109  0.023682879            2 
 1357000    1.0219536   -7.6789496    379.85396  0.023326822  0.023675114            3 
 1358000    1.0225467   -7.6952491    380.59835  0.023355324  0.023667332            3 
 1359000    1.0356036   -7.7290268    380.53303  0.023334133  0.023659575            2 
 1360000    1.0121119   -7.6834113    381.68726    0.0233877  0.023651808            2 
 1361000    1.0578625   -7.6850108    380.44413    0.0232944  0.023644236            4 
 1362000    1.0295795   -7.6983211    381.93543   0.02336854  0.023636654            1 
 1363000     1.055561   -7.6863108    381.82431  0.023344602  0.023629048            3 
 1364000    1.0198046   -7.7010443    380.34848  0.023237322   0.02362131            2 
 1365000    1.0277703   -7.6849528    380.41567    0.0232244  0.023613534            5 
 1366000    1.0561579   -7.7266689    381.80233  0.023291992  0.023605776            1 
 1367000    1.0495447   -7.6478309    381.33897  0.023246706  0.023598183            2 
 1368000      1.01427   -7.7164924    381.19857   0.02322116  0.023590504            2 
 1369000    1.0290073   -7.6860668    382.62063  0.023290762  0.023582916            7 
 1370000    1.0356108    -7.657124    384.15906  0.023367339  0.023575348            4 
 1371000    1.0296165   -7.6628818    384.71227  0.023383921  0.023567926            5 
 1372000    1.0277813   -7.6686506    383.79092  0.023310916  0.023560426            5 
 1373000    1.0306907   -7.6877834    383.89932  0.023300517  0.023552856            5 
 1374000    1.0409776   -7.7145153    383.03732  0.023231278  0.023545188            2 
 1375000    1.0057763   -7.7431034    382.68778  0.023193199  0.023537471            2 
 1376000    1.0080906   -7.6641685     384.2937  0.023273601  0.023529827            2 
 1377000    1.0294133   -7.6666158    384.79635  0.023287119  0.023522342            4 
 1378000    1.0197448   -7.6942098     383.8332  0.023211974  0.023514811            2 
 1379000    1.0165259   -7.6957085    385.22074  0.023278991    0.0235073            2 
 1380000    1.0175149   -7.6933004    385.36968  0.023271116  0.023499716            2 
 1381000    1.0509738   -7.7100158    384.70833  0.023214357  0.023492147            8 
 1382000    1.0155005   -7.6946825    385.09182  0.023220684  0.023484533            5 
 1383000     1.033974   -7.6836775    385.61107  0.023235181  0.023477019            4 
 1384000    1.0200106   -7.7198164    384.64399  0.023160163  0.023469366            2 
 1385000    1.0391903    -7.730513    384.62134  0.023142078   0.02346184            4 
 1386000    1.0334583   -7.7175291    384.80893   0.02313666  0.023454298            1 
 1387000    1.0326369    -7.658076     386.2654  0.023207486   0.02344689            1 
 1388000    1.0356155   -7.7234951    385.99619  0.023174603  0.023439375            2 
 1389000     1.024113   -7.6854927    386.48327  0.023187141  0.023431799            3 
 1390000    1.0332845    -7.767312     383.3238  0.022981043  0.023424083            8 
 1391000    1.0156493   -7.7130002     386.4053  0.023149131  0.023416396            3 
 1392000    1.0306762   -7.6644258    387.13896  0.023176422  0.023408801            3 
 1393000    1.0268659   -7.6687115    387.01502   0.02315237  0.023401175            4 
 1394000     1.040885   -7.6794498    387.35703  0.023156207  0.023393575            2 
 1395000    1.0221254   -7.6644086    389.09798  0.023243607  0.023386075            4 
 1396000    1.0319693   -7.6303415    388.24819  0.023176229  0.023378729            3 
 1397000    1.0562427   -7.6786076    388.34526  0.023165429  0.023371354            2 
 1398000    1.0207917   -7.6887406    387.11029  0.023075244  0.023363842            1 
 1399000    1.0219125   -7.7186563    386.70241  0.023034454  0.023356042            5 
 1400000    1.0354195   -7.7035999    387.69503  0.023077085  0.023348383            2 
 1401000    1.0307378   -7.6649715    387.07121  0.023023508  0.023340665            3 
 1402000    1.0349298   -7.6905062    387.36391  0.023024484  0.023332925            1 
 1403000    1.0347495   -7.6902267    386.60801  0.022963174  0.023325157            1 
 1404000    1.0222201   -7.7123824    387.61255  0.023006443   0.02331742            2 
 1405000     1.013503   -7.6899519    387.33878  0.022973831  0.023309609            6 
 1406000    1.0336507   -7.6859336    387.30529  0.022955505  0.023301733            4 
 1407000    1.0392829    -7.693125     387.8312  0.022970339  0.023293897            3 
 1408000    1.0257842   -7.6989822    389.59019  0.023058132   0.02328613            2 
 1409000    1.0372058   -7.7301173    388.04137  0.022950164  0.023278358            3 
 1410000    1.0416565   -7.7108048    388.85355  0.022981888  0.023270712            2 
 1411000    1.0326984   -7.6829285    389.43994  0.023000233  0.023263111            3 
 1412000    1.0399777   -7.7305802    387.99249  0.022898518  0.023255403            3 
 1413000    1.0213897   -7.6812949    389.27197  0.022957771  0.023247662            2 
 1414000    1.0296678   -7.7214013    388.78792  0.022913008  0.023239845            3 
 1415000    1.0165875   -7.6836062    389.57064  0.022942912  0.023232059            2 
 1416000    1.0154285   -7.7315923    389.17151   0.02290322  0.023224245            3 
 1417000    1.0380253   -7.7380156    389.46947   0.02290458  0.023216355            1 
 1418000    1.0350464   -7.6734443    390.34397   0.02293982  0.023208578            3 
 1419000     1.024685   -7.7152571    389.55094  0.022877081  0.023200783            3 
 1420000    1.0298844   -7.7235738    390.12677  0.022894764  0.023192885            5 
 1421000    1.0140833   -7.7746986    389.39523  0.022835751  0.023185046            2 
 1422000    1.0006698   -7.7216105    390.39046  0.022878016  0.023177007            3 
 1423000    1.0397815   -7.7298768    391.17118  0.022907659  0.023169214            5 
 1424000    1.0127734   -7.7190344    391.14341  0.022889947  0.023161451            4 
 1425000    1.0253864   -7.7961347    391.21153  0.022877868  0.023153558            4 
 1426000    1.0300685    -7.720962    391.41661  0.022873808  0.023145757            4 
 1427000     1.033243   -7.7221452    392.04139  0.022894265  0.023138122            4 
 1428000    1.0243383   -7.7217721    392.78366  0.022921549  0.023130482            1 
 1429000     1.035624   -7.7114619    391.94113  0.022856375  0.023122878            7 
 1430000     1.043853   -7.6951307    392.77926  0.022889234  0.023115265            2 
 1431000    1.0516704   -7.7118148    392.20543  0.022839822  0.023107719            2 
 1432000    1.0411189   -7.7523359    390.94061  0.022750268  0.023100045            2 
 1433000   0.99542231   -7.6851369     392.8531  0.022845609  0.023092385            5 
 1434000    1.0200566   -7.6951725    393.68324   0.02287792  0.023084819            2 
 1435000    1.0283019   -7.6704248    393.11216  0.022828813  0.023077221            2 
 1436000    1.0244875   -7.6885927      393.461   0.02283316  0.023069635            2 
 1437000    1.0139226   -7.7156303    392.58473  0.022766454  0.023062117            3 
 1438000    1.0193756   -7.7206939     393.6707  0.022813555  0.023054422            3 
 1439000    1.0245766   -7.7500262    393.00919  0.022759393  0.023046761            4 
 1440000    1.0274113   -7.7074272    393.31547  0.022761312  0.023039104            3 
 1441000     1.045464   -7.7206705    393.81003  0.022774117  0.023031517            3 
 1442000    1.0184538   -7.6918428    394.54097  0.022800565   0.02302396            2 
 1443000    1.0416806   -7.7264637    393.79555  0.022741716  0.023016366            3 
 1444000    1.0148453   -7.7115863    394.51979  0.022767763  0.023008987            1 
 1445000    1.0123759   -7.7143508    395.93626  0.022833694  0.023001618            3 
 1446000    1.0039182   -7.7125786    395.02412  0.022765337  0.022994128            2 
 1447000    1.0108425   -7.7694584    394.18008  0.022700995  0.022986496            4 
 1448000    1.0041773   -7.7447065    395.67968  0.022771621  0.022978949            5 
 1449000    1.0484085   -7.7324773    395.21977  0.022729456  0.022971437            2 
 1450000    1.0293053   -7.7042208    395.97012  0.022756904  0.022963913            4 
 1451000    1.0266058   -7.7257661    396.75969  0.022786566  0.022956496            6 
 1452000    1.0169644   -7.7442005    395.34759  0.022689829  0.022949105            2 
 1453000    1.0185432   -7.7278691    396.70886  0.022752286  0.022941766            2 
 1454000    1.0314935   -7.6882265    396.43922  0.022721184  0.022934437            3 
 1455000    1.0210999   -7.7255892    395.76947  0.022667209  0.022927034            1 
 1456000    1.0173279   -7.7752365    395.63294  0.022643827  0.022919627            2 
 1457000    1.0140197   -7.7613888    396.54405  0.022680397  0.022912139            4 
 1458000    1.0217296   -7.7204591    397.80511  0.022736917  0.022904764            3 
 1459000     1.014065   -7.6923796    399.23765  0.022803156  0.022897574            2 
 1460000    1.0161009   -7.7554103    396.96746   0.02265796    0.0228903            4 
 1461000    1.0308549   -7.7514261     397.3787  0.022665908  0.022882929            2 
 1462000    1.0128389   -7.7069596    397.88343  0.022679174  0.022875629            1 
 1463000     1.024936   -7.7506293    397.27407  0.022628963  0.022868396            6 
 1464000   0.99213014   -7.6821395    398.94872   0.02270883  0.022861208            3 
 1465000   0.99380977   -7.6681518     399.2561  0.022710814   0.02285402            5 
 1466000    1.0199169   -7.7522231    397.53807  0.022597662   0.02284666            4 
 1467000    0.9985251   -7.7483311    398.17046  0.022618181  0.022839238            1 
 1468000    1.0243651   -7.7215531    399.08558  0.022654722  0.022831823            2 
 1469000    1.0236082    -7.734818    399.00304  0.022634618  0.022824438            2 
 1470000    1.0083935   -7.6673628     399.5833  0.022652114   0.02281708            3 
 1471000    1.0421939   -7.7242849    398.91108  0.022598634  0.022809749            2 
 1472000    1.0250899   -7.7502305    399.30927  0.022605824  0.022802268            6 
 1473000   0.97302251   -7.6936643    400.11334  0.022635966  0.022794888            4 
 1474000     1.022548   -7.7134849    399.36942  0.022578551   0.02278754            4 
 1475000    1.0543734   -7.7808771    398.95876  0.022540043  0.022780052            2 
 1476000    1.0306384   -7.7636065    398.69138  0.022509676  0.022772606            2 
 1477000    1.0113025   -7.7621189    400.05953  0.022571628  0.022765078            2 
 1478000    1.0347289   -7.7114689    400.48458  0.022580321  0.022757532            2 
 1479000    1.0079946   -7.7335652    399.83623  0.022528523  0.022749985            3 
 1480000    1.0326243   -7.7336375     400.0632  0.022526081   0.02274248            3 
 1481000    1.0285962   -7.7629046    399.71557   0.02249131  0.022734977            3 
 1482000     1.019206   -7.7459472    400.61364  0.022526633  0.022727429            3 
 1483000    1.0274699   -7.7073853    400.90594  0.022527868  0.022719948            3 
 1484000    1.0277947   -7.7538573    400.15939  0.022470765   0.02271241            3 
 1485000    1.0246979   -7.7409931    401.13573  0.022510423  0.022704814            5 
 1486000    1.0126325   -7.7380617    401.17228  0.022497324  0.022697444            2 
 1487000     1.033805   -7.7465256    400.69347  0.022455362   0.02268997            2 
 1488000     1.022358   -7.7385768     401.1152  0.022463889  0.022682542            2 
 1489000    1.0258745   -7.7277862    402.53466  0.022528244   0.02267506            2 
 1490000    1.0072957   -7.7717057    401.29911  0.022444022  0.022667565            2 
 1491000    1.0112328   -7.7208868    401.47981  0.022439068  0.022660082            4 
 1492000    1.0356516   -7.7370777    401.65591  0.022433865   0.02265261            3 
 1493000     1.009274   -7.7191566    402.43385   0.02246226  0.022645124            6 
 1494000    1.0100464   -7.7530299    400.63572  0.022346928  0.022637631            2 
 1495000    1.0219066    -7.732978    402.30557   0.02242506  0.022630223            3 
 1496000   0.98311742   -7.7263201    402.94308  0.022445582   0.02262272            6 
 1497000    1.0165237   -7.7732809    401.55363  0.022353242   0.02261515            2 
 1498000    1.0081522   -7.7401296    402.20213  0.022374395  0.022607665            3 
 1499000    1.0012501   -7.6898106    403.91061  0.022454448  0.022600318            2 
 1500000   0.99875648   -7.7677398    402.03142  0.022335079   0.02259283            2 
 1501000   0.99380266   -7.7761064    402.42207  0.022341887  0.022585289            2 
 1502000   0.99503003   -7.7054768    403.40039  0.022381291  0.022577803            3 
 1503000    1.0147268   -7.7406397    402.78918  0.022332512  0.022570344            3 
 1504000    1.0204328   -7.7214534    403.68498  0.022367297  0.022562953            2 
 1505000    1.0035547   -7.7843589    403.13606  0.022322041   0.02255557            2 
 1506000    1.0106619   -7.7803784    402.84508  0.022291118  0.022548113            2 
 1507000     1.037369   -7.7609796    404.02732  0.022341701  0.022540536            3 
 1508000    1.0089021   -7.7995094    402.49206  0.022242046  0.022532957            5 
 1509000   0.98313412   -7.7804528     403.2469  0.022268992  0.022525522            2 
 1510000    1.0155616   -7.7690728    403.95842  0.022293511  0.022518125            2 
 1511000     1.000465   -7.7525239    404.87927  0.022329543  0.022510779            2 
 1512000    1.0235058    -7.776855    403.99909  0.022266264  0.022503381            1 
 1513000    1.0131633    -7.725841    406.28039  0.022377197  0.022496098            3 
 1514000    1.0039654    -7.765624    405.04732  0.022294546  0.022488875            2 
 1515000    1.0201641   -7.7513127    404.62553   0.02225663  0.022481493            2 
 1516000    1.0005411   -7.7633017    405.33398  0.022280891  0.022473931            1 
 1517000    1.0178879   -7.7395024    404.86382  0.022240377  0.022466466            5 
 1518000    0.9993589   -7.7755825     405.7333  0.022273457  0.022458934            2 
 1519000    1.0080187   -7.7706137    404.50527  0.022191424  0.022451427            3 
 1520000   0.99994259    -7.794196    404.95948  0.022201726  0.022443932            2 
 1521000    1.0186206   -7.7750474    404.74325  0.022175282  0.022436344            1 
 1522000   0.98342337   -7.7598872    406.50972  0.022257431  0.022428799            6 
 1523000    1.0016522   -7.7798906    405.66788  0.022196754  0.022421333            2 
 1524000    0.9747941   -7.7594869    406.37509   0.02222086  0.022413853            2 
 1525000    1.0246603   -7.7406551    406.58734  0.022217888  0.022406303            1 
 1526000   0.99656999   -7.7498973     405.7629  0.022158306  0.022398712            1 
 1527000    1.0099611   -7.7840519     406.1559  0.022165242  0.022391134            3 
 1528000   0.98923804   -7.7630975    406.13348  0.022149513  0.022383639            2 
 1529000    1.0071442   -7.7244068    407.14903  0.022190377  0.022376339            3 
 1530000   0.98482698   -7.7301189     407.9193  0.022217827  0.022368918            2 
 1531000    1.0194119   -7.7487746    407.06603  0.022156871  0.022361588            2 
 1532000    1.0104273   -7.7864835    407.54038   0.02216821  0.022354145            9 
 1533000    1.0269895   -7.7617042    407.52752  0.022153051  0.022346825            2 
 1534000    1.0285614   -7.7832522    407.56758  0.022140785  0.022339382            2 
 1535000    1.0138762   -7.7789457    408.13978  0.022157426  0.022331954            2 
 1536000    1.0348161   -7.7426334    408.78188  0.022177837  0.022324674            1 
 1537000     1.006934   -7.7242292    409.35991  0.022194747  0.022317444            3 
 1538000   0.98981439   -7.7583057    407.91008   0.02210176  0.022310156            2 
 1539000    1.0017154   -7.7550912    408.05213  0.022095091  0.022302813            3 
 1540000     1.028252   -7.7492996    408.45785  0.022102697  0.022295535            2 
 1541000    1.0238834   -7.7736309    409.01377  0.022118417  0.022288231            2 
 1542000   0.99818734   -7.7333793    409.92561  0.022153351  0.022280943            2 
 1543000   0.98300749   -7.7744769    407.55437  0.022010929  0.022273614            1 
 1544000    1.0212376   -7.7637315     409.9666  0.022126868  0.022266333            4 
 1545000    1.0020926   -7.7757502    408.96898  0.022058737   0.02225904            2 
 1546000    1.0124014   -7.7436749    410.44885  0.022124237  0.022251824            3 
 1547000    1.0108174    -7.771652    411.21197  0.022151043  0.022244569            1 
 1548000   0.99806834    -7.779318    409.28137  0.022032804   0.02223729            4 
 1549000   0.97238713   -7.7759586    409.42771  0.022026453  0.022229853            2 
 1550000    1.0213339   -7.7590631    410.18056  0.022052718   0.02222241            1 
 1551000   0.99393392   -7.7852777    409.99154  0.022028344  0.022215042            2 
 1552000    1.0095657   -7.7517404    410.80758  0.022057967   0.02220767            8 
 1553000   0.97915419    -7.783465    410.55665  0.022030299  0.022200349            3 
 1554000   0.99975836   -7.7866293    410.91382  0.022035275   0.02219299            2 
 1555000   0.99267005   -7.7826319    410.09793  0.021977381  0.022185606            4 
 1556000    1.0153057   -7.8039617    410.96572  0.022009732  0.022178149            1 
 1557000   0.98400616   -7.7547747    410.21099  0.021955202  0.022170805            4 
 1558000    1.0167047   -7.7779658    411.07999  0.021987591  0.022163456            3 
 1559000    1.0285016   -7.7512654    413.32375  0.022093423   0.02215627            1 
 1560000   0.98704761   -7.7760566    412.45008   0.02203259  0.022149047            3 
 1561000    0.9716936   -7.7740611    411.32201  0.021958254  0.022141875            2 
 1562000    1.0077285   -7.7853103     411.1318  0.021934048  0.022134601            4 
 1563000    1.0039116   -7.8166308     411.9495  0.021963612  0.022127302            2 
 1564000    1.0008604   -7.8017693    412.38443  0.021972743  0.022120097            3 
 1565000   0.98567016   -7.7423425    412.52679  0.021966283  0.022112918            2 
 1566000   0.99992935   -7.7818684    411.71427  0.021909018  0.022105754            2 
 1567000    1.0076665   -7.7498126    412.71405  0.021948205  0.022098525            2 
 1568000   0.99609626   -7.7366394    413.42787  0.021972144  0.022091354            5 
 1569000    1.0000688   -7.7559284     414.6315  0.022022068  0.022084326            2 
 1570000    1.0041356   -7.7775447    413.56237  0.021951294  0.022077287            3 
 1571000   0.97423661    -7.811411    412.84302  0.021899163   0.02207008            3 
 1572000   0.98624244   -7.7666775    413.77418  0.021934594  0.022062857            4 
 1573000    1.0090172   -7.7639581    415.21007  0.021996719  0.022055775            1 
 1574000   0.95551306   -7.7787278    413.44305  0.021889191  0.022048685            3 
 1575000    1.0104815    -7.752018    415.67611  0.021993445  0.022041613            4 
 1576000   0.99918069   -7.7972993    415.54362  0.021972484   0.02203456            5 
 1577000   0.99227955   -7.7646569    415.53596  0.021958146  0.022027503            4 
 1578000    1.0004443   -7.8015349    414.89748  0.021910513  0.022020468            7 
 1579000    1.0085806   -7.7561121    416.07719  0.021958898  0.022013368            4 
 1580000    1.0025376   -7.7587139    416.39639  0.021961835  0.022006354            5 
 1581000   0.99008485   -7.7811347    414.45949  0.021845851  0.021999405            2 
 1582000   0.99436857   -7.7917828    414.94987  0.021857873  0.021992275            1 
 1583000    1.0176663   -7.7959901    414.29096  0.021809379  0.021985254            5 
 1584000    1.0205229   -7.7950619    416.16464  0.021894184  0.021978204            2 
 1585000   0.99520637   -7.7766839    416.69579  0.021908296  0.021971171            1 
 1586000   0.98232317   -7.7738806    416.41207  0.021879575  0.021964088            3 
 1587000   0.99542822   -7.7950248    414.72694  0.021777302  0.021956837            2 
 1588000   0.99069836   -7.7693816    415.73744  0.021816616  0.021949606            3 
 1589000   0.99208285   -7.7458623    417.44236  0.021892299   0.02194244            2 
 1590000   0.99573871   -7.7840722    416.99647  0.021855161   0.02193533            2 
 1591000   0.99902052   -7.7763327    415.62353  0.021769512  0.021928044            3 
 1592000   0.98196274    -7.757586    415.45014  0.021746762  0.021920823            3 
 1593000    1.0002387    -7.752689    416.26104  0.021775531  0.021913652            2 
 1594000   0.96200242   -7.7796795    416.36722  0.021767421  0.021906395            9 
 1595000   0.98844226   -7.7810153    416.23349  0.021746786  0.021899074            5 
 1596000   0.99009539   -7.8041574    415.90935  0.021716236  0.021891804            1 
 1597000    1.0207148    -7.764471    417.09311  0.021764408  0.021884608            3 
 1598000   0.98746275   -7.7907434    415.67838  0.021677012  0.021877369            3 
 1599000   0.99137988   -7.7742769    416.88768  0.021726479  0.021870106            3 
 1600000     1.011916   -7.7817706    416.14994  0.021674476  0.021862888            2 
 1601000     1.006395   -7.8019511    417.24107  0.021717732   0.02185557            5 
 1602000   0.97356682   -7.8604268    414.98847  0.021586999  0.021848185            3 
 1603000    1.0027105   -7.7565241    416.77962  0.021666647  0.021840827            2 
 1604000   0.98081623   -7.7738024    416.34302  0.021630456  0.021833563            4 
 1605000   0.99159343   -7.8159355    417.31257  0.021667319  0.021826137            2 
 1606000   0.99695983    -7.792563    417.95981  0.021687412  0.021818755            2 
 1607000    1.0101436   -7.7594217     418.0679  0.021679522  0.021811469            2 
 1608000   0.98062356   -7.8231756    417.30306  0.021626402  0.021804126            5 
 1609000   0.97862601   -7.8025982    417.82733  0.021640114  0.021796848            3 
 1610000   0.98552009    -7.782078    418.20468  0.021646205  0.021789616            3 
 1611000    1.0152289   -7.8117709     418.2122  0.021633158  0.021782411            2 
 1612000   0.99563719   -7.7914604    419.49822  0.021686219    0.0217752            2 
 1613000    1.0089653   -7.8043224    418.05386  0.021598153  0.021767959            3 
 1614000   0.98299455   -7.8021234    417.70295  0.021566654  0.021760756            2 
 1615000    1.0047912   -7.8225896    417.28807  0.021531892  0.021753453            3 
 1616000   0.99462587   -7.7563179    418.55187  0.021583739  0.021746039            4 
 1617000    1.0031299   -7.7937439      419.512  0.021619872  0.021738787            1 
 1618000   0.99964705   -7.7766513     420.1103  0.021637325  0.021731554            3 
 1619000   0.98934481   -7.7829141     419.2619  0.021580291  0.021724284            3 
 1620000   0.96865277   -7.8111856    420.49666  0.021630487  0.021717122            1 
 1621000   0.99428348   -7.7797419    420.40599  0.021612481  0.021710014            2 
 1622000   0.98870742    -7.826162    419.98445  0.021577499  0.021702823            4 
 1623000   0.98972301   -7.8279056    419.18017  0.021522909   0.02169551            3 
 1624000    1.0005178   -7.8005743    420.25115  0.021564611   0.02168838            2 
 1625000   0.97136206   -7.7750643    421.05402  0.021592514  0.021681284            3 
 1626000   0.98888749   -7.7993481    420.18286  0.021534587  0.021674079            2 
 1627000   0.99700312   -7.8282943    420.80533  0.021553233  0.021666964            3 
 1628000   0.99973598   -7.8196099    420.18833  0.021508412  0.021659777            2 
 1629000    1.0028205   -7.7867902    421.40297  0.021557345  0.021652669            2 
 1630000   0.99352156   -7.8072262    422.02153  0.021575743   0.02164552            7 
 1631000   0.95955309   -7.8395298    420.04141  0.021461343  0.021638339            3 
 1632000   0.98120279   -7.7985289     421.3652  0.021515788  0.021631119            2 
 1633000    1.0045401   -7.7923304    421.02573  0.021485289  0.021623891            4 
 1634000     0.999383   -7.7718309    421.33279    0.0214878  0.021616767            2 
 1635000    1.0008374   -7.7876914    423.83276  0.021602078  0.021609701            2 
 1636000   0.98206087   -7.7922618    421.72439  0.021481479  0.021602653            5 
 1637000   0.99236816   -7.8203197    421.81565  0.021473002   0.02159562            3 
 1638000    1.0026437   -7.7997629     422.2753  0.021483277  0.021588508            3 
 1639000   0.98479212   -7.7971497    423.31062   0.02152281  0.021581477            2 
 1640000   0.98928005   -7.7666157    422.38241  0.021462521   0.02157442            4 
 1641000    0.9853067   -7.7959055    423.82676  0.021522789  0.021567432            2 
 1642000   0.97870625   -7.8289588    422.81339  0.021458252  0.021560378            4 
 1643000   0.98848684   -7.7716613    422.96802  0.021453034   0.02155348            3 
 1644000   0.98420235   -7.7970006    424.07116  0.021495902  0.021546524            2 
 1645000   0.98038715   -7.7994029     424.3657  0.021497756  0.021539502            1 
 1646000    1.0009395   -7.8351712    422.57965  0.021394271  0.021532347            1 
 1647000   0.99712928   -7.8031556    424.52285  0.021479602  0.021525364            3 
 1648000   0.98471654    -7.812823    423.94851  0.021437526  0.021518264            4 
 1649000   0.99617977   -7.8229419    424.36192  0.021445417  0.021511197            2 
 1650000    1.0010897   -7.8208063    425.14741  0.021472092   0.02150426            3 
 1651000   0.97899412   -7.7958302    424.21422  0.021411984  0.021497328            5 
 1652000   0.96991879   -7.7589671    425.23864  0.021450698  0.021490427            5 
 1653000   0.96686259   -7.7999715      425.514  0.021451603  0.021483561            4 
 1654000   0.98339717   -7.8157319    425.50999  0.021438432   0.02147666            4 
 1655000   0.99000655   -7.8334698    424.80216  0.021389837  0.021469683            5 
 1656000   0.99189237   -7.8006884    425.38223   0.02140611  0.021462641            1 
 1657000   0.99460782    -7.841957    425.40282  0.021394228   0.02145565            2 
 1658000   0.98838924   -7.8028154    426.35211  0.021429037  0.021448748            3 
 1659000   0.95386655   -7.7434183    426.97952  0.021447635  0.021441827            2 
 1660000   0.99089823    -7.793906    424.95319  0.021332992  0.021434936            3 
 1661000   0.99123928   -7.8364204    426.61123  0.021403333  0.021427979            2 
 1662000   0.99443782   -7.8045572    426.35031  0.021377372  0.021420965            2 
 1663000    1.0007794   -7.8228546    425.32018  0.021312897  0.021414011            2 
 1664000    0.9887375   -7.8263782    425.46937   0.02130756  0.021407077            3 
 1665000   0.96571031   -7.8280516    425.83943  0.021313285  0.021400059            3 
 1666000   0.97353648   -7.8042076    427.28134  0.021372616  0.021393205            5 
 1667000    1.0018397   -7.8445356    427.23394  0.021357426  0.021386196            4 
 1668000   0.99692004   -7.8215452    425.66047  0.021266011  0.021379302            3 
 1669000   0.96936603    -7.865492    426.19307  0.021279862  0.021372339            2 
 1670000   0.99975362   -7.8207477    426.88941  0.021301867  0.021365412            4 
 1671000    1.0058045   -7.8146356    427.76234  0.021332652  0.021358484            2 
 1672000   0.99262524   -7.8269475    428.36861   0.02135011  0.021351709            5 
 1673000   0.97474983     -7.83471    426.97544  0.021267954  0.021344996            3 
 1674000   0.99322437   -7.8275272    428.78596  0.021345378  0.021338188            3 
 1675000   0.97678412   -7.8335098    428.37766  0.021312322  0.021331324            5 
 1676000   0.97713993   -7.8740346    426.51712  0.021207096  0.021324449            3 
 1677000   0.98284721   -7.8272602     427.7192  0.021254184    0.0213176            3 
 1678000   0.99572028   -7.8530329    428.89324  0.021299823  0.021310723            3 
 1679000     1.007085   -7.8227425    428.72581  0.021278827  0.021303836            2 
 1680000   0.97572959   -7.8382491    429.01463  0.021280488  0.021296953            2 
 1681000   0.98744905   -7.7765049     428.8912  0.021261709  0.021290035            1 
 1682000   0.98426032   -7.8553322    427.51647  0.021180958  0.021283064            1 
 1683000   0.97031217   -7.8299435    428.32654  0.021208484  0.021276023            2 
 1684000    1.0031403   -7.8483723    428.62967   0.02121089  0.021269024            2 
 1685000   0.98136763   -7.8248479    427.47566  0.021141229  0.021262015            2 
 1686000   0.97568303   -7.8452676    428.19823  0.021164405  0.021254941            2 
 1687000   0.98206698   -7.8282601    429.85104  0.021233503  0.021247882            2 
 1688000   0.99635006   -7.8313756    429.24948  0.021191226    0.0212409            3 
 1689000   0.99014983   -7.8116185    429.85862  0.021208734  0.021233974            4 
 1690000   0.97081561   -7.7709384    430.63889  0.021234659  0.021227084            2 
 1691000   0.99103467   -7.8210701    430.77406  0.021228763  0.021220215            2 
 1692000   0.98965189   -7.8134803    429.00177  0.021128929  0.021213344            3 
 1693000   0.99125558   -7.8245362    430.25881  0.021178323  0.021206399            4 
 1694000   0.97718501   -7.7996473     430.8628  0.021195533  0.021199468            2 
 1695000   0.97743485   -7.8312303    429.50276  0.021116163  0.021192521            1 
 1696000   0.97640076   -7.8293193    430.40782  0.021148183  0.021185626            4 
 1697000   0.96703678   -7.8106607    430.80641  0.021155294  0.021178794            3 
 1698000   0.97623799   -7.8154267    430.30818  0.021118383  0.021171886            3 
 1699000    0.9982026   -7.8144959    431.53034  0.021165899  0.021165045            2 
 1700000   0.99139658   -7.8363653    430.66954  0.021111252  0.021158142            4 
 1701000   0.96978304   -7.8455869     430.6733  0.021099025  0.021151242            4 
 1702000   0.98875351   -7.8389766    430.64552  0.021085268   0.02114431            5 
 1703000   0.98827786   -7.8738797    430.71856  0.021076461  0.021137429            7 
 1704000   0.97434938   -7.8552027    431.35983  0.021095453  0.021130487            4 
 1705000   0.99176121   -7.8322541    431.47289  0.021088607  0.021123547            8 
 1706000   0.97568163   -7.8158645    430.69083  0.021038044  0.021116592            3 
 1707000    1.0035051   -7.8330255    431.81918  0.021080804  0.021109674            2 
 1708000   0.97841098   -7.8393616    431.78345  0.021066718   0.02110279            4 
 1709000    1.0044388   -7.8388974    431.79087  0.021054753  0.021095896            3 
 1710000   0.97080647   -7.8156253    432.31192  0.021067832  0.021089032            2 
 1711000   0.99573645   -7.8242392    431.88104  0.021034533  0.021082139            1 
 1712000    0.9746831   -7.8530245    430.54404  0.020957167  0.021075165            1 
 1713000   0.99786197   -7.8258464      432.073  0.021019313  0.021068134            2 
 1714000   0.97121434   -7.8677681    431.80143  0.020993846   0.02106108            6 
 1715000    0.9863009   -7.8242407    431.82559  0.020982779  0.021054023            3 
 1716000    1.0022572   -7.8344873    433.17842  0.021036248   0.02104703            3 
 1717000   0.99245527   -7.8254743    433.39427  0.021034473  0.021040185            5 
 1718000    0.9889667   -7.8217203    433.01055  0.021003616  0.021033309            5 
 1719000    1.0031288   -7.8667457    431.39143  0.020912906  0.021026336            3 
 1720000   0.98439531   -7.8597841    431.16752  0.020889899  0.021019331            3 
 1721000   0.95557782   -7.8535354    432.55168  0.020944784  0.021012305            4 
 1722000    0.9852059   -7.8369657    432.72508  0.020941012  0.021005345            3 
 1723000   0.99059764   -7.8353977    433.36675  0.020959893  0.020998387            9 
 1724000   0.98112116   -7.8001096    434.73709  0.021013974  0.020991525            3 
 1725000   0.96402185   -7.8183916    433.41509  0.020937927  0.020984632            5 
 1726000   0.94914927    -7.861378    434.75363  0.020990423  0.020977698            4 
 1727000     0.944466   -7.8192454    434.21027  0.020952049  0.020970771            4 
 1728000   0.96644016   -7.8534528     434.2079   0.02093981  0.020963822            7 
 1729000   0.94457912   -7.8617971    433.00068  0.020869514  0.020956848            2 
 1730000   0.95247694   -7.8551218    433.29995  0.020871866  0.020949892            1 
 1731000   0.94750062   -7.8245093    433.75808  0.020881864  0.020942934            4 
 1732000   0.98293119   -7.8461847    433.81242  0.020872422  0.020935911            2 
 1733000   0.97696547   -7.8369633    433.04872  0.020823655  0.020928968            2 
 1734000   0.95046066   -7.8640092    433.03989  0.020811221  0.020921893            2 
 1735000   0.98220692   -7.8181556    433.54915  0.020823686   0.02091484            2 
 1736000   0.97401844    -7.860663    434.16799  0.020841398  0.020907797            5 
 1737000   0.98774576    -7.857566    433.49651  0.020797184  0.020900663            3 
 1738000    0.9784098   -7.8713335    433.75087  0.020797414  0.020893617            5 
 1739000   0.96808874   -7.8583381    435.20683  0.020855225  0.020886562            2 
 1740000     0.985543   -7.8463559    433.83519  0.020777547   0.02087946            3 
 1741000   0.99213215   -7.8864169     433.8963  0.020768538  0.020872398            4 
 1742000   0.95540177   -7.8431773    433.80123  0.020752068  0.020865289            6 
 1743000   0.96229208   -7.9061596    434.50517  0.020773818  0.020858119            1 
 1744000   0.97333225   -7.8552607      435.304  0.020800076  0.020851053            2 
 1745000   0.96574002   -7.8566728    433.92977   0.02072253  0.020844018            5 
 1746000   0.96542829   -7.8442566    435.73946  0.020797034  0.020836993            5 
 1747000   0.96642099   -7.8552259    434.05116  0.020704596   0.02082989            4 
 1748000   0.96935949   -7.8833363    435.68876  0.020770822  0.020822729            9 
 1749000   0.95489327   -7.8750557    434.61283  0.020707682  0.020815559            4 
 1750000   0.97512361   -7.8707245    434.41091  0.020686234  0.020808387            3 
 1751000   0.98478157   -7.8851213    434.31779  0.020669988   0.02080122            1 
 1752000   0.95047988   -7.8393006    435.00931  0.020691082  0.020794081            3 
 1753000   0.97624059   -7.8242533     436.8383  0.020766225  0.020787037            2 
 1754000   0.95227423    -7.876323    435.15152  0.020674246  0.020779907            2 
 1755000   0.96399761   -7.8708631     435.1663  0.020663167  0.020772764            5 
 1756000     0.969891   -7.8204646    437.38964  0.020756912  0.020765699            1 
 1757000   0.97699362   -7.8589062    435.43568  0.020652423   0.02075867            4 
 1758000      1.01122   -7.8455286    436.60775  0.020696234  0.020751624            1 
 1759000   0.96058711   -7.8603117    435.94923   0.02065327   0.02074456            6 
 1760000   0.96290942   -7.8520353    436.83769  0.020683603  0.020737516            2 
 1761000   0.96954509   -7.8065531    437.81272  0.020717998  0.020730531            3 
 1762000   0.97016565   -7.8302286    438.17809  0.020723519  0.020723682            5 
 1763000   0.97768333   -7.8244374    438.28276  0.020716712  0.020716851            5 
 1764000   0.97290843   -7.8433278    438.01623  0.020692377  0.020710009            2 
 1765000   0.95638384   -7.9257026    436.18628  0.020594253  0.020703075            3 
 1766000   0.98775934   -7.8607564    437.35957  0.020637956  0.020696105            5 
 1767000   0.95803575   -7.8392303    437.97319  0.020655215  0.020689232            3 
 1768000   0.95987667   -7.8349801    437.98612  0.020644142  0.020682256            4 
 1769000   0.98188291   -7.8657327    437.37985  0.020603912  0.020675286            3 
 1770000    0.9644894   -7.8652899    438.12963  0.020627572  0.020668325            2 
 1771000   0.96460058   -7.8632924    437.39139  0.020581187  0.020661333            3 
 1772000   0.95285253   -7.8538483    437.80353  0.020588955  0.020654342            6 
 1773000   0.96763801   -7.8404359    438.82208  0.020625215  0.020647361            2 
 1774000   0.96149221   -7.8304462    438.92001  0.020618189  0.020640427            2 
 1775000   0.96631931   -7.8538951    438.11593  0.020568823  0.020633522            2 
 1776000   0.96641022   -7.8702631    438.26738  0.020564348   0.02062652            3 
 1777000   0.97456129    -7.837262     438.5477  0.020565921  0.020619617            2 
 1778000   0.96278708   -7.8827277    439.53594  0.020600672  0.020612641            5 
 1779000   0.98111303   -7.9005386    438.27605  0.020530075  0.020605671            3 
 1780000   0.96486636   -7.8789792    439.97755    0.0205982  0.020598806            2 
 1781000   0.96538433   -7.8900127    438.69494  0.020526621  0.020591964            1 
 1782000   0.97326861   -7.8714338    439.39645  0.020547907   0.02058509            2 
 1783000   0.98146911   -7.8783165    441.19316  0.020620357  0.020578247            1 
 1784000   0.95377095   -7.8649399    440.32608  0.020568296  0.020571452            2 
 1785000   0.95808513   -7.8815411     440.3358  0.020557227  0.020564605            5 
 1786000   0.98173713   -7.8554854    441.30598  0.020590984  0.020557825            4 
 1787000   0.96005787   -7.8892389    440.91268  0.020561121  0.020551037            7 
 1788000   0.95687463   -7.8874235    441.89333  0.020595327  0.020544195            5 
 1789000   0.94528088   -7.8794873    441.34445  0.020558247  0.020537381            3 
 1790000   0.96892071   -7.9046367    440.80195  0.020521506  0.020530517            6 
 1791000   0.96281612   -7.8462045    441.29195  0.020532847  0.020523779            3 
 1792000    0.9666309    -7.875858    441.91627  0.020550422  0.020517037            2 
 1793000   0.98736163   -7.9072151    441.70285  0.020529041  0.020510291            3 
 1794000   0.97483265   -7.8547153    443.03962  0.020579692  0.020503577            3 
 1795000   0.93814769    -7.874769    442.46949  0.020541759  0.020496898            1 
 1796000    0.9398683   -7.8907425    442.09185  0.020512799  0.020490206            4 
 1797000   0.96555347   -7.8726678    442.86773  0.020537365  0.020483513            3 
 1798000   0.97069594   -7.8830732    442.05823  0.020488424  0.020476759            5 
 1799000   0.95289493   -7.9149804    441.80956  0.020465516  0.020469966            5 
 1800000    0.9854173   -7.8852979    441.48783  0.020439251  0.020463264            3 
 1801000   0.96281643   -7.8841946    442.98344  0.020497105   0.02045666            2 
 1802000   0.96344652   -7.9310557    442.59837  0.020467923  0.020449961            6 
 1803000   0.94377204    -7.897752     441.8052  0.020419911  0.020443233            2 
 1804000   0.95699477   -7.8895429    443.30542  0.020477893   0.02043646            6 
 1805000   0.97687826   -7.9113171    443.72493  0.020485916  0.020429765            5 
 1806000   0.96039082   -7.8948515    442.73229   0.02042877  0.020423058            5 
 1807000    0.9506416   -7.9118156    441.31178  0.020351954   0.02041629            6 
 1808000   0.98107329   -7.8906323    442.96253  0.020416783  0.020409593            6 
 1809000    0.9561285   -7.8765118    444.52782  0.020477604  0.020402915            2 
 1810000   0.96844891   -7.8395227    445.08109  0.020491763  0.020396294            2 
 1811000   0.96246787   -7.9057816     442.5107  0.020362171  0.020389672            5 
 1812000   0.94724031   -7.8637933    443.60987  0.020401484  0.020383012            2 
 1813000   0.97250591   -7.8667776    444.55244  0.020433556  0.020376479            1 
 1814000   0.96290119   -7.8382441    446.28685  0.020501969  0.020369911            3 
 1815000   0.94990828   -7.8583201    444.48521  0.020407953  0.020363311            4 
 1816000   0.95979966   -7.8695129    444.83341  0.020412693  0.020356783            3 
 1817000   0.97246116   -7.8837024    444.91733  0.020405308  0.020350204            5 
 1818000   0.97029992    -7.879418    445.18681  0.020406436  0.020343613            3 
 1819000   0.96294907    -7.878243    445.58571  0.020413492   0.02033702            2 
 1820000   0.94252905   -7.8698671    445.52729  0.020399601  0.020330439            4 
 1821000   0.94066091   -7.9215562    445.20797  0.020373786  0.020323851            3 
 1822000   0.95950096   -7.8783525    445.66841  0.020383663  0.020317179            2 
 1823000   0.94833717   -7.8959402    446.09032  0.020391768  0.020310521            2 
 1824000   0.93763366   -7.9044873     445.1263  0.020336545  0.020303872            2 
 1825000   0.97717977   -7.8453347    445.50892  0.020342873  0.020297291            2 
 1826000   0.94009224   -7.9036086    445.37708  0.020325715  0.020290669            4 
 1827000    0.9752744   -7.9209214    445.74363   0.02033131  0.020283956            3 
 1828000   0.97609077   -7.9043459    445.77962  0.020321828  0.020277302            8 
 1829000   0.93627882   -7.8739034    446.25032  0.020332163  0.020270728            3 
 1830000   0.94380144   -7.8889743    446.17457  0.020317604  0.020264164            4 
 1831000   0.95758553   -7.8328414     446.6218  0.020326861  0.020257607            3 
 1832000   0.95027297   -7.8611941    445.92772  0.020284194  0.020251077            2 
 1833000   0.97568116   -7.9038812    446.02929  0.020277745  0.020244485            5 
 1834000    0.9325879      -7.8872    446.16789  0.020272987  0.020237849            5 
 1835000   0.96608446   -7.9290652    445.68873  0.020240179  0.020231293            4 
 1836000   0.97835408   -7.8731151    447.47965  0.020310442  0.020224772            5 
 1837000   0.95250866    -7.920288    447.33604   0.02029287  0.020218235            2 
 1838000   0.94176147   -7.9203245    446.41945  0.020240273  0.020211622            4 
 1839000   0.95615419   -7.8902378    448.99449  0.020345953  0.020205163            3 
 1840000    0.9794306   -7.9340892    447.88255  0.020284536  0.020198673            5 
 1841000   0.95864858   -7.8960736    449.30625  0.020337962  0.020192249            4 
 1842000   0.95383643   -7.8638429    449.41222  0.020331715  0.020185925            4 
 1843000   0.93888869   -7.8841572    449.93671  0.020344398  0.020179546            4 
 1844000   0.96675539   -7.8609614    449.13927  0.020297328  0.020173215            2 
 1845000   0.95574292   -7.8867771    450.17879  0.020333279   0.02016681            4 
 1846000   0.97593125   -7.9165301    448.32406  0.020238536  0.020160423            2 
 1847000   0.95992732   -7.9421426     448.5613  0.020238283  0.020154024            2 
 1848000   0.94487879    -7.883328    449.46951  0.020268286  0.020147658            1 
 1849000   0.97647246   -7.9153017     449.8902  0.020276285   0.02014132            2 
 1850000   0.96649352    -7.896293    449.67566   0.02025566  0.020134999            3 
 1851000   0.94204073   -7.8995231    450.00087  0.020259358  0.020128643            2 
 1852000   0.96404348   -7.9056105    449.73776   0.02023658  0.020122277            2 
 1853000   0.95484969   -7.8858631    451.10623  0.020287202  0.020115967            2 
 1854000   0.97364767   -7.9316988    449.73881  0.020214797  0.020109604            2 
 1855000   0.93700933   -7.8528444    451.51077  0.020283503  0.020103254            2 
 1856000   0.95247292   -7.8776308    450.36832  0.020221279  0.020096938            3 
 1857000   0.95121097   -7.9179713    450.64763  0.020222923  0.020090611            3 
 1858000   0.96829107   -7.9396545    450.83257  0.020220334  0.020084182            2 
 1859000    0.9496631   -7.8970411    452.51854  0.020285034  0.020077848            5 
 1860000   0.95552761   -7.9028322     451.1483  0.020212738  0.020071563            2 
 1861000   0.94846133   -7.9279348    450.78366  0.020185548  0.020065239            2 
 1862000   0.97081383   -7.9094206    450.97415  0.020183233  0.020058863            3 
 1863000   0.96063126   -7.9076434    451.88408  0.020213101  0.020052518            3 
 1864000   0.95736914   -7.9556981    449.94075  0.020115377  0.020046085            2 
 1865000   0.94986097   -7.9134849    451.06501  0.020154826  0.020039617            3 
 1866000   0.97785611   -7.9439802    449.94692  0.020094093  0.020033195            2 
 1867000   0.95839981   -7.9257357    450.70922  0.020117355  0.020026835            3 
 1868000   0.94154531   -7.9099445    452.42019  0.020182914  0.020020449            3 
 1869000   0.94364397   -7.9108642    452.15125  0.020160124  0.020014096            1 
 1870000   0.94525618   -7.8975927    452.53103  0.020166267  0.020007755            3 
 1871000   0.96167068   -7.9218084    450.60363  0.020069643  0.020001403            3 
 1872000   0.96330942   -7.8992868    453.68356  0.020196027  0.019995132            2 
 1873000   0.96755063   -7.8969549    452.31894   0.02012453  0.019988819            3 
 1874000   0.96061314   -7.9103433    453.20317  0.020153111  0.019982504            5 
 1875000   0.95304792   -7.9023078    453.84664  0.020170962  0.019976141            2 
 1876000   0.95452216   -7.8910344     453.6445  0.020151231   0.01996982            3 
 1877000    0.9429226   -7.9038504    451.28145  0.020035582  0.019963469            5 
 1878000   0.95395793   -7.9094638    452.95883  0.020099345  0.019957146            4 
 1879000   0.95198889   -7.9200731    452.48749  0.020067744  0.019950773            3 
 1880000    0.9452149   -7.8923233    452.61255  0.020062613  0.019944418            2 
 1881000   0.95203266    -7.906906    453.18734  0.020077412  0.019938059            6 
 1882000    0.9429202   -7.9126968    453.03086  0.020059815  0.019931698            3 
 1883000   0.95378819   -7.9319345    452.91536   0.02004405  0.019925387            4 
 1884000   0.95579258   -7.9454202    453.86156  0.020075264  0.019919078            3 
 1885000   0.96021522   -7.9195528    452.68516  0.020012606  0.019912737            2 
 1886000   0.94308672    -7.928141    453.06428  0.020018747  0.019906313            7 
 1887000   0.96498237   -7.9313417    451.95048  0.019958951  0.019899905            3 
 1888000   0.94328103   -7.9407189    452.24307  0.019961294  0.019893488            2 
 1889000   0.95255124   -7.9129657    453.31721  0.019998113  0.019887067            3 
 1890000   0.94817233   -7.9097018     453.8188  0.020009647  0.019880723            4 
 1891000   0.95363179    -7.924395    454.23324  0.020017329  0.019874328            3 
 1892000   0.96866176   -7.9442687    452.90459  0.019948229  0.019867917            5 
 1893000   0.95008919   -7.9567832    453.39134  0.019959119  0.019861457            8 
 1894000   0.94159529   -7.9204104    453.95812  0.019973518  0.019855061            3 
 1895000   0.95268144   -7.9424661    453.85181  0.019958303  0.019848665            5 
 1896000   0.95357987   -7.9112905    454.90072  0.019993878  0.019842341            5 
 1897000   0.95408184   -7.9280302    454.16391  0.019950971  0.019835989            3 
 1898000   0.95723135   -7.9437753    453.65146   0.01991796   0.01982958            2 
 1899000   0.94331802   -7.9566975    454.73887   0.01995519   0.01982315            5 
 1900000   0.94275039   -7.9419156    452.76797  0.019858244  0.019816667            7 
 1901000    0.9358177   -7.9412367    454.74115  0.019934295  0.019810268            3 
 1902000   0.94387106   -7.9138119    454.17987  0.019899223  0.019803863            3 
 1903000   0.93922623   -7.9214262    455.71413  0.019955953  0.019797475            1 
 1904000   0.95210656   -7.9014377    455.48211  0.019935316  0.019791053            4 
 1905000   0.96891389   -7.9310634    455.05981  0.019906378  0.019784627            5 
 1906000   0.96747387   -7.9102195    455.31999   0.01990731  0.019778211            2 
 1907000   0.93269316   -7.9089049    455.50706  0.019905045  0.019771804            5 
 1908000   0.95929805   -7.9351587    455.79991  0.019907404  0.019765341            3 
 1909000   0.93574412   -7.9077125    456.17941  0.019913541  0.019758911            7 
 1910000   0.94574879   -7.9167715    454.89062  0.019846886  0.019752489            3 
 1911000   0.94194382   -7.9237658    455.30562  0.019854597     0.019746            2 
 1912000   0.95762144   -7.9395908    454.73017  0.019819132  0.019739515            1 
 1913000   0.93900699   -7.9270671    454.71957   0.01980831  0.019733007            3 
 1914000   0.95336548   -7.9104356    456.33426  0.019868263  0.019726489            3 
 1915000   0.94755402   -7.9663833    455.15659   0.01980664   0.01971999            6 
 1916000   0.94439378   -7.9343306    454.92238  0.019786116  0.019713472            1 
 1917000   0.93669603    -7.918196    455.68758  0.019809059  0.019706998            1 
 1918000    0.9312494   -7.9181228    454.57585  0.019750428  0.019700476            7 
 1919000   0.94314975   -7.8874783    456.39605  0.019819179  0.019693978            4 
 1920000    0.9478606   -7.9185338    456.26367  0.019803111  0.019687535            4 
 1921000   0.95536904   -7.9481329    455.24152  0.019748461  0.019681068            6 
 1922000   0.93733584   -7.9387002    455.77082  0.019761135  0.019674572            3 
 1923000   0.95510201   -7.9429789    455.41425  0.019735407  0.019668046            1 
 1924000   0.95776044    -7.945377     455.9159  0.019746877  0.019661509            4 
 1925000   0.94986325   -7.9141079    454.91124  0.019693127  0.019654936            2 
 1926000   0.95018667   -7.9055596    456.07247  0.019733146  0.019648398            7 
 1927000   0.95287418   -7.9580569    455.86606  0.019713979   0.01964188            3 
 1928000   0.95020505   -7.9512978    456.33228  0.019723906  0.019635409            2 
 1929000   0.93993707   -7.8940964    455.65272  0.019684324  0.019628857            3 
 1930000   0.96857108   -7.9404527    455.10019  0.019650267  0.019622286            2 
 1931000   0.93380413   -7.9316849     456.3491  0.019693988  0.019615704            4 
 1932000   0.94408209   -7.9454389    455.86795  0.019663041  0.019609172            5 
 1933000   0.96014117   -7.9589745     456.1626  0.019665572  0.019602596            3 
 1934000   0.94911722   -7.9815849    455.50837  0.019627213  0.019596022            2 
 1935000   0.94213373   -7.9570844     456.7477  0.019670443  0.019589396            2 
 1936000   0.95224419   -7.9598166    455.15829  0.019591868  0.019582768            2 
 1937000   0.93257612   -7.9583359    455.48174   0.01959567  0.019576122            1 
 1938000   0.95145117   -7.9210688    456.83872  0.019643908  0.019569468            6 
 1939000    0.9535133   -7.9570824    457.22458   0.01965036  0.019562823            3 
 1940000   0.93904864   -7.9943319    455.61538  0.019571107  0.019556189            2 
 1941000   0.94722899   -7.8908989    457.26389    0.0196318  0.019549619            4 
 1942000   0.94698827   -7.9368149    456.35637  0.019582749  0.019543087            2 
 1943000   0.94444447   -7.9670731    456.77906  0.019590799  0.019536491            3 
 1944000   0.94729303   -7.9384196    457.29083  0.019602659  0.019529925            1 
 1945000    0.9317086    -7.951008    456.65775  0.019565456  0.019523353            3 
 1946000   0.94996121   -7.9362966    458.67626  0.019641841  0.019516775            2 
 1947000   0.94704484   -7.9436294    457.98859  0.019602319  0.019510233            3 
 1948000   0.93558818    -7.913604    457.74575  0.019581868  0.019503713            7 
 1949000   0.92143257   -7.9339597     456.7449  0.019529028  0.019497258            3 
 1950000     0.940381   -7.9441395    457.27665  0.019541737   0.01949077            3 
 1951000   0.93442337   -7.9486227    458.62642  0.019589374  0.019484306            8 
 1952000   0.92447614   -7.9381939    459.26763  0.019606712  0.019477874            3 
 1953000   0.93900943   -7.9501001    459.68173  0.019614342   0.01947137            2 
 1954000   0.91812437   -7.9801483    458.23982   0.01954281  0.019464879            4 
 1955000   0.92398296   -7.9815192    458.87607  0.019559935  0.019458386            4 
 1956000   0.94138876    -7.954548    458.25775  0.019523592  0.019451903            2 
 1957000   0.94318451   -7.9763207    458.80415  0.019536882  0.019445452            3 
 1958000   0.93736158   -7.9493625    459.22747  0.019544921  0.019439017            3 
 1959000   0.92966476   -7.9616259    457.81926  0.019475041  0.019432501            4 
 1960000   0.91499225   -7.9858795    459.80284   0.01954944  0.019425959            5 
 1961000    0.9404145   -7.9553716    459.10656  0.019509883  0.019419489            3 
 1962000   0.93996817   -7.9393257    459.65909  0.019523407  0.019412977            6 
 1963000   0.93888294   -7.9396547    460.84312  0.019563726  0.019406596            3 
 1964000   0.93998426   -7.8902028    460.26169  0.019529094  0.019400242            3 
 1965000   0.93674329   -7.9525603    460.31024  0.019521215  0.019393905            3 
 1966000   0.92998803   -7.9403826    459.57581  0.019480155  0.019387544            2 
 1967000   0.94515008    -7.965774    460.40948   0.01950557  0.019381189            7 
 1968000   0.90501578   -7.9594351    461.69199  0.019549966  0.019374829            3 
 1969000   0.95524701   -7.9312394    461.62785  0.019537322   0.01936854            3 
 1970000   0.92902525   -7.9592862    460.28444  0.019470577  0.019362239            4 
 1971000   0.93124645   -7.9573175    460.74987  0.019480377  0.019355951            4 
 1972000   0.92509256   -7.9430856    461.88948  0.019518656  0.019349673            2 
 1973000   0.93271338   -7.9415263    462.84711  0.019549211  0.019343448            3 
 1974000   0.95783016   -7.9646426    462.05143  0.019505717  0.019337253            3 
 1975000   0.93365828   -7.9502416    462.27056  0.019505087  0.019331039            3 
 1976000   0.92711276   -7.9870024    462.23244  0.019493608  0.019324814            2 
 1977000   0.92831311   -7.9735543     461.7015  0.019461368  0.019318572            2 
 1978000   0.93173633   -7.9794755    462.00531  0.019464329  0.019312332            2 
 1979000    0.9552076   -7.9275711    463.51386  0.019518017  0.019306148            3 
 1980000    0.9497621   -7.9824734    462.48111  0.019464693  0.019299937            3 
 1981000   0.92257849   -7.9255592    464.65882  0.019546476  0.019293777            1 
 1982000   0.93731342   -7.9873626    462.52179  0.019446762  0.019287569            2 
 1983000   0.94265016   -7.9776104    462.66251  0.019442869  0.019281348            3 
 1984000   0.93559572   -7.9746901     463.4103  0.019464478  0.019275062            2 
 1985000   0.92208809   -8.0113915    461.72369  0.019383866  0.019268805            1 
 1986000   0.93433877   -7.9904387    463.12363  0.019432848  0.019262529           16 
 1987000   0.91899118   -7.9845203    462.78411  0.019408828  0.019256292            3 
 1988000   0.94300453   -7.9551334    465.09719  0.019496026    0.0192501            1 
 1989000    0.9278136   -7.9482213    463.81772  0.019432618  0.019243942            4 
 1990000    0.9652901   -7.9462045    464.99552  0.019472174  0.019237824            2 
 1991000    0.9344127   -7.9954588    463.47035  0.019398558  0.019231625            3 
 1992000   0.93189779   -7.9836896    463.32281  0.019382648  0.019225446            2 
 1993000   0.95617787   -7.9606843    465.21076  0.019451863  0.019219276            6 
 1994000   0.90715602   -7.9676961    465.46783  0.019452852  0.019213117            4 
 1995000   0.93496337   -7.9592085    464.82931  0.019416429  0.019206983            3 
 1996000   0.93615419   -7.9723096      465.615  0.019439504  0.019200853            3 
 1997000   0.94150165   -7.9963227    464.66246  0.019390021  0.019194748            4 
 1998000   0.94667398   -7.9756462    464.61747   0.01937844  0.019188567            7 
 1999000    0.9393642   -7.9827963    466.01568  0.019427034  0.019182469            3 
 2000000   0.92408501   -8.0096656    463.58913  0.019316214  0.019176339            6 
 2001000   0.91596503    -7.958569    465.53092  0.019387428  0.019170246            3 
 2002000   0.94426585    -7.901506    467.59037  0.019463469  0.019164214            4 
 2003000   0.91852126   -7.9584959    465.67941  0.019374248  0.019158206            2 
 2004000    0.9260544   -8.0057798    465.90447  0.019373938  0.019152155            2 
 2005000   0.92227363   -8.0186668    466.36418  0.019383383  0.019146089            3 
 2006000   0.91024309   -7.9678743    466.73902  0.019389291  0.019140048            2 
 2007000   0.94065766   -7.9820978    466.57396  0.019372777  0.019133964            3 
 2008000   0.92613788    -7.995314    465.55102  0.019320676  0.019127919            5 
 2009000   0.92162429   -7.9871821    465.32853   0.01930183  0.019121776            6 
 2010000   0.93548043   -7.9953929    466.53819  0.019342379   0.01911564            5 
 2011000   0.92613125   -7.9636225    466.08151  0.019313837  0.019109482            5 
 2012000   0.93089713   -7.9909919    466.19192   0.01930881  0.019103333            4 
 2013000    0.9148177   -7.9710654    466.85621  0.019326719  0.019097216            4 
 2014000   0.91868539   -8.0057668    466.04457  0.019283539  0.019091118            4 
 2015000   0.94019406   -7.9943029    467.04008   0.01931514  0.019084993            3 
 2016000   0.93836689   -7.9556239    467.99295  0.019344947   0.01907891            6 
 2017000   0.91867712   -7.9615343    467.14589  0.019300359  0.019072815            5 
 2018000   0.92554371   -7.9708549    466.63547  0.019269717  0.019066732            6 
 2019000   0.91776523   -7.9548939    467.08811  0.019278855  0.019060632            3 
 2020000   0.92661871   -7.9708067    466.73179  0.019254612  0.019054471           15 
 2021000   0.92839284   -8.0202971    466.56599  0.019238248  0.019048283            4 
 2022000   0.91219181    -8.006385    466.74528  0.019236123  0.019042054            3 
 2023000   0.92595915   -7.9737178    466.66892  0.019223468  0.019035863            8 
 2024000   0.92226396   -7.9909818    465.53669  0.019167354  0.019029654            4 
 2025000   0.93100737   -7.9988142    467.04194  0.019219833  0.019023455            1 
 2026000   0.92002677   -8.0063586    465.20725  0.019134882  0.019017205            3 
 2027000   0.92549626   -8.0198475     464.6163  0.019101147  0.019010918            1 
 2028000   0.92057773   -8.0314165     465.1486  0.019113601  0.019004675            2 
 2029000    0.9353582   -8.0150767    465.58379  0.019122055  0.018998424            3 
 2030000   0.91720844   -7.9724916    466.60779  0.019154671   0.01899221            3 
 2031000   0.92128833   -7.9407177    468.30022  0.019214682  0.018986081            3 
 2032000     0.906886   -7.9551748    468.24432  0.019202933  0.018980004            3 
 2033000   0.91367844   -7.9653742    468.16411    0.0191902  0.018973921            4 
 2034000   0.93879096   -8.0010883    466.48663  0.019112038  0.018967843            1 
 2035000   0.92774443    -7.987646    467.71353  0.019152888  0.018961704            4 
 2036000   0.92830339   -8.0090825    467.78266  0.019146311  0.018955589            5 
 2037000   0.94074892   -7.9892824     468.6124  0.019170856  0.018949498            2 
 2038000   0.91752141   -7.9675516    469.11285  0.019181912  0.018943377            3 
 2039000   0.92078013   -7.9594052    468.46045  0.019145841  0.018937281            6 
 2040000   0.92245531   -7.9645312    469.63395  0.019184393  0.018931279            3 
 2041000   0.93996733    -7.967244    468.86668  0.019143667  0.018925193            6 
 2042000    0.9221637   -7.9626285    469.09895   0.01914377  0.018919119            6 
 2043000   0.95045341   -7.9731673    469.99376  0.019170899  0.018913115            2 
 2044000   0.92542482   -7.9935775    468.98603  0.019120435  0.018907122            2 
 2045000   0.92430548   -7.9935149    469.56286  0.019134591  0.018901095            1 
 2046000   0.90725258    -8.013746    468.95671   0.01910055  0.018895044            7 
 2047000   0.93385145   -7.9974153    469.44216  0.019110982  0.018888949            4 
 2048000   0.93687293   -7.9690933    469.79826   0.01911614  0.018882818            2 
 2049000   0.91438916   -7.9769026    469.62704  0.019099847   0.01887668            2 
 2050000   0.95358604   -7.9909168    469.21227  0.019073669  0.018870566            2 
 2051000   0.91240824   -7.9428146    471.38383  0.019152602  0.018864462            6 
 2052000   0.93712745   -7.9860512    470.15099  0.019093201  0.018858422            3 
 2053000   0.90651322   -7.9814771    471.07081  0.019121238  0.018852347            2 
 2054000   0.92844732    -7.982155    470.55806  0.019091125  0.018846276            4 
 2055000   0.94031374   -7.9906118    471.46313  0.019118537   0.01884023            3 
 2056000   0.93316727    -7.994784    469.90179  0.019045954  0.018834191            2 
 2057000    0.9385198   -7.9810734    471.21476  0.019089886    0.0188282            1 
 2058000   0.92590207   -7.9596922    471.27117  0.019082895  0.018822216            1 
 2059000   0.94212594   -7.9994425      470.741  0.019052169  0.018816236            2 
 2060000   0.94049844   -7.9819858    470.59031  0.019036825  0.018810232            4 
 2061000   0.92706952   -8.0265886    469.93514  0.019001097  0.018804185            3 
 2062000   0.91454012   -8.0045874    471.49014  0.019054726   0.01879817            4 
 2063000   0.91493232   -7.9807347      470.931  0.019022904  0.018792164            2 
 2064000   0.91938853   -8.0064232    471.27996  0.019027776  0.018786121            2 
 2065000    0.9113018   -7.9911498      471.795  0.019039346  0.018780028            2 
 2066000   0.92539965   -8.0205672    471.35511  0.019012387  0.018773991            7 
 2067000   0.93783738   -7.9976734     471.2461  0.018998795  0.018767933            2 
 2068000   0.90958004   -8.0047934    471.74356  0.019009653  0.018761905            4 
 2069000   0.90875871   -8.0302842    471.91762  0.019007476  0.018755836            2 
 2070000   0.92471497   -7.9909533    471.04915  0.018963331  0.018749805            3 
 2071000   0.93587392   -7.9982212    471.00398  0.018952357  0.018743762            6 
 2072000   0.91629332   -7.9917723    471.95189  0.018981334  0.018737676           14 
 2073000   0.93655642    -8.017115    471.33005   0.01894718  0.018731641            2 
 2074000   0.93086161   -8.0187446    470.63153  0.018909978  0.018725618            4 
 2075000   0.92722883   -7.9953753    471.36024   0.01893013  0.018719577            7 
 2076000   0.90183008   -8.0136726    472.39273  0.018962457  0.018713528            5 
 2077000   0.91286316   -8.0081735    472.02609  0.018938617  0.018707534            6 
 2078000   0.90106792   -7.9637986    472.64446  0.018954302  0.018701487            4 
 2079000   0.91867638   -8.0095601    471.39066  0.018894928  0.018695421            6 
 2080000   0.90290313   -7.9796573    471.74975  0.018900231   0.01868937            2 
 2081000   0.91952279   -7.9920793    471.76059  0.018891582  0.018683276            3 
 2082000   0.90205427   -7.9812143    472.18764  0.018899601  0.018677188            3 
 2083000   0.91186048   -7.9956238     472.8359  0.018916463   0.01867109            2 
 2084000    0.9216381   -8.0438365    472.39994  0.018889953  0.018664983            3 
 2085000   0.90051501   -8.0022412    471.99724  0.018864798  0.018658904            2 
 2086000   0.92210373   -8.0178643    472.04175  0.018857532  0.018652821            5 
 2087000   0.92176161   -8.0102706    471.70418  0.018835017  0.018646719            2 
 2088000   0.91999562    -7.980383    472.42352  0.018854706  0.018640663            4 
 2089000   0.92672304    -8.001012    472.29582  0.018840586  0.018634598            5 
 2090000   0.91365604   -8.0213398    472.78329  0.018851008  0.018628543            5 
 2091000   0.92631987    -7.999447     472.5276  0.018831803  0.018622509            5 
 2092000   0.91644887    -8.016025    472.56944  0.018824468  0.018616464            4 
 2093000   0.91880001   -8.0080935    472.17275  0.018799679  0.018610379            3 
 2094000   0.91069052   -8.0138819    472.19849  0.018791726  0.018604329            7 
 2095000   0.92886326   -7.9993603    474.03152  0.018855669  0.018598261            2 
 2096000    0.9214967   -8.0284099    472.63103  0.018790992  0.018592252            6 
 2097000   0.90888507   -7.9673823    473.10002  0.018800668  0.018586265            3 
 2098000   0.89999104   -7.9990108    473.79522  0.018819321  0.018580276            4 
 2099000    0.9023556   -8.0086956    473.35469  0.018792865  0.018574247            3 
 2100000   0.90423826    -7.995756    473.97129  0.018808384    0.0185682            4 
 2101000    0.9107013   -8.0611787    473.22741  0.018769927  0.018562139            4 
 2102000   0.91019085   -7.9808652    474.23444  0.018800921  0.018556112            1 
 2103000   0.93548759   -8.0333272     474.5957  0.018806297  0.018550088            2 
 2104000    0.9173737    -7.979895     475.5082    0.0188335  0.018544093            2 
 2105000   0.93050786   -8.0050382    473.90065  0.018760912  0.018538062            4 
 2106000   0.90047952   -7.9970872    474.70223  0.018783722  0.018532054            2 
 2107000   0.90552829   -8.0037931    474.10465  0.018751173  0.018525972            2 
 2108000   0.91350997   -8.0439048    474.02668  0.018739195  0.018519947            3 
 2109000   0.92123691   -7.9915476    474.63774  0.018754455  0.018513929            3 
 2110000   0.93955348   -7.9832293    475.27377  0.018770686  0.018507918            2 
 2111000   0.91780345   -8.0045798     476.2624  0.018800821  0.018501926            4 
 2112000   0.91457785   -7.9638711    475.52418  0.018762791  0.018495952            4 
 2113000   0.91986431   -8.0287954    473.34022   0.01866778  0.018489954            2 
 2114000   0.89891723   -8.0387377    474.06081  0.018687355  0.018483905            2 
 2115000   0.91614476   -7.9849288    475.15149  0.018721493  0.018477827            2 
 2116000   0.91546776   -8.0055345    473.65488  0.018653705  0.018471731            2 
 2117000   0.89442576   -8.0183412    474.58918  0.018681671  0.018465656            1 
 2118000   0.92986123    -8.011854    474.87125  0.018683949  0.018459526            9 
 2119000   0.91943633   -8.0159907    475.23617  0.018689483  0.018453407            3 
 2120000   0.91056441   -8.0464042    474.28449  0.018643258  0.018447355            1 
 2121000   0.92403066   -8.0136848    473.97333  0.018622243  0.018441241            4 
 2122000   0.91724901   -8.0410905    474.56098  0.018636545   0.01843514            4 
 2123000   0.91371684   -7.9934164    475.03689  0.018646447  0.018429083            3 
 2124000   0.90968341   -8.0285927     474.4545  0.018614819  0.018423057            5 
 2125000   0.90794998   -8.0278856    474.17927  0.018595265  0.018417007            4 
 2126000   0.90767311   -8.0193505    474.41943  0.018595933  0.018410913            4 
 2127000   0.91410087   -7.9960115    473.73549  0.018560394    0.0184048            3 
 2128000   0.91050786   -8.0107122    474.64851  0.018587426   0.01839862            2 
 2129000   0.91965589   -8.0086631    475.26639   0.01860288  0.018392514            3 
 2130000   0.91011222   -7.9943529    475.18652  0.018591022  0.018386415            3 
 2131000    0.9152163   -8.0284465    475.42394  0.018591582  0.018380314            4 
 2132000   0.91812337   -8.0754526    473.60502  0.018511766  0.018374254            2 
 2133000   0.92504029    -8.056505    475.12574    0.0185625  0.018368172            6 
 2134000   0.92823765   -8.0619319    474.89743  0.018544886  0.018362063           12 
 2135000   0.92119877   -8.0117674     475.9497  0.018577272  0.018356011            1 
 2136000   0.92697923   -8.0167415    476.29109  0.018581893  0.018350003            2 
 2137000   0.90331442   -8.0283774     476.5479  0.018583212  0.018343949            2 
 2138000    0.9198141   -8.0306357    475.76679  0.018544075  0.018337861            2 
 2139000   0.88802359   -8.0545369    474.81287  0.018498242  0.018331762            5 
 2140000   0.91341487   -8.0216539    475.68872  0.018523704  0.018325658            4 
 2141000   0.90520014   -8.0245869    476.89049  0.018561828    0.0183196            3 
 2142000   0.88904416   -8.0648523    474.89078  0.018475365  0.018313491            2 
 2143000   0.90565262   -8.0404122    475.24124  0.018480372  0.018307365            5 
 2144000    0.9138543   -8.0205256    476.17451  0.018508027  0.018301227            1 
 2145000   0.90943582   -8.0292284    475.12659  0.018458686  0.018295051            3 
 2146000   0.89715866   -8.0492094    475.43834  0.018462191  0.018288864            2 
 2147000   0.92295421   -8.0157409    476.57635  0.018497762  0.018282691            3 
 2148000   0.91988634   -8.0362495    476.21522   0.01847514  0.018276527            5 
 2149000    0.9070088   -8.0251898    477.20318  0.018504854  0.018270412            4 
 2150000   0.88889062    -8.048894    476.50903  0.018469342  0.018264263            5 
 2151000   0.88403306   -8.0245168    476.61927  0.018465027  0.018258121            3 
 2152000   0.92231737   -8.0302288    476.83449   0.01846478  0.018251922            4 
 2153000   0.89396578     -8.01471    476.54889   0.01844515  0.018245775            2 
 2154000   0.91471694   -8.0193856    475.91959  0.018412241  0.018239567            3 
 2155000   0.93313209   -8.0157084      476.359  0.018420688  0.018233433            5 
 2156000    0.9113436   -8.0067957    476.76569  0.018427864   0.01822725            3 
 2157000   0.89795632   -8.0196984    475.93133  0.018387086  0.018221008            5 
 2158000   0.89145917   -8.0467225    475.76053   0.01837197  0.018214812            3 
 2159000   0.91724782   -8.0565769    476.36383  0.018386746  0.018208605            3 
 2160000   0.89670082   -8.0617788    476.07086  0.018366931   0.01820243            4 
 2161000   0.90076318   -8.0477955    477.91706  0.018429626  0.018196264            3 
 2162000   0.89281132   -8.0465968    476.34323  0.018360439  0.018190065            3 
 2163000   0.90798812   -8.0616975    476.17714  0.018345552  0.018183877            7 
 2164000   0.92951543   -8.0596091    476.12809  0.018335185  0.018177688            7 
 2165000   0.91028386   -8.0578935    476.50084  0.018341064   0.01817147            2 
 2166000   0.90596879   -8.0538248    475.79553   0.01830546  0.018165289            1 
 2167000   0.89823718   -8.0771767    475.43231  0.018283045  0.018159131            5 
 2168000   0.90701703   -8.0675357     475.9239  0.018293508  0.018152924            4 
 2169000   0.91490074   -8.0588065    476.61162  0.018311496  0.018146664            7 
 2170000    0.9164743   -8.0345119    477.06297   0.01832039  0.018140425           16 
 2171000   0.88628473   -8.0915154    476.70188  0.018298092  0.018134188            8 
 2172000   0.89486281   -8.0749638    476.47891  0.018281112  0.018127979            4 
 2173000   0.91166948   -8.0393482    476.44532  0.018271411    0.0181217            2 
 2174000   0.90291871   -8.0456062    476.94175  0.018282036  0.018115439            4 
 2175000   0.87307285   -8.0642518    476.80839  0.018268521  0.018109239           12 
 2176000   0.93051961   -8.0694417    476.57149  0.018251053  0.018103044            4 
 2177000   0.89649343   -8.0598436    477.16078  0.018265227  0.018096859           10 
 2178000   0.90339838   -8.0789871    476.62662  0.018236403  0.018090688            9 
 2179000   0.91017956   -8.0460614    478.26938  0.018290859   0.01808451            6 
 2180000   0.89623211   -8.0837864    475.75928  0.018186517  0.018078339            4 
 2181000   0.90149744   -8.0262494    477.69103  0.018251988  0.018072198            4 
 2182000   0.90601525   -8.0524775    478.26971  0.018265724  0.018066013            4 
 2183000    0.8921247   -8.0518203     477.8514  0.018241388  0.018059815            3 
 2184000   0.90077355   -8.0650621    477.93102  0.018236074  0.018053642            3 
 2185000     0.913232   -8.1075812    477.14606   0.01819779  0.018047435            3 
 2186000   0.90390697   -8.0576503    478.05069  0.018223951  0.018041209            4 
 2187000   0.88330872   -8.0917886    477.86299  0.018208466  0.018035005            7 
 2188000   0.87400719   -8.0662381       478.13  0.018210314  0.018028876            4 
 2189000    0.9008854   -8.0375479    478.64908  0.018221756  0.018022705            8 
 2190000   0.88622941   -8.0507279    478.64243  0.018213182    0.0180166            3 
 2191000   0.88705409     -8.10038    478.19626    0.0181879  0.018010496            7 
 2192000   0.89184049   -8.0502718    479.02769  0.018211211   0.01800442            2 
 2193000   0.90177227   -8.0596719    477.38355   0.01814043  0.017998292            7 
 2194000   0.91125261   -8.0550034    480.12154  0.018236157   0.01799212            2 
 2195000   0.90393941   -8.0460093    479.99508  0.018223048  0.017986005            4 
 2196000   0.89399888   -8.0237627    478.64142  0.018163381  0.017979893            3 
 2197000   0.89521888   -8.0488799    478.85391  0.018163174  0.017973768            3 
 2198000   0.89939795   -8.0562729    479.72832  0.018188062  0.017967604            3 
 2199000   0.90521975   -8.0730779    478.63499  0.018138358  0.017961408            4 
 2200000   0.90428628     -8.06396    478.14046  0.018111381  0.017955215            3 
 2201000   0.89353016   -8.0789139    478.05489  0.018099913  0.017949022            5 
 2202000   0.89462646     -8.04782     477.8572  0.018084211  0.017942802            3 
 2203000    0.9019987   -8.0579175    478.77635  0.018110771  0.017936612            2 
 2204000    0.9120652   -8.0719316    478.65651  0.018098023  0.017930444            4 
 2205000   0.90354651   -8.0785794    479.42132   0.01811872  0.017924271            4 
 2206000   0.91179003   -8.0514914    478.34275  0.018069762  0.017918046            4 
 2207000   0.92354072   -8.0550661    479.11583  0.018090765  0.017911804            5 
 2208000   0.90181102   -8.1007819    478.08137   0.01804353  0.017905558            3 
 2209000   0.90635264   -8.0494145    479.02566  0.018070985  0.017899352            3 
 2210000   0.90249156   -8.0879506    478.59652  0.018046626  0.017893121            4 
 2211000    0.8767992   -8.0649349    478.30077  0.018027317  0.017886917            5 
 2212000   0.90731274   -8.0516535    479.59513   0.01806793   0.01788071           11 
 2213000   0.88398322   -8.0629153    479.78913  0.018067071  0.017874509            5 
 2214000   0.90387354   -8.1067974    477.81506  0.017984608  0.017868291            4 
 2215000    0.8936796   -8.1040892    479.11273   0.01802531  0.017862051            3 
 2216000   0.90373528   -8.0197732    479.48507  0.018031177  0.017855811            4 
 2217000   0.88291591   -8.0854022    479.53237  0.018024822  0.017849626            5 
 2218000   0.90460091   -8.1078581    477.67424  0.017946883  0.017843422            2 
 2219000   0.90927526   -8.0732081     478.3221  0.017963125  0.017837224            8 
 2220000   0.90402222   -8.0154007    480.80082  0.018048079  0.017831046           10 
 2221000   0.90353852   -8.0949053    479.71697  0.017999286  0.017824927            1 
 2222000   0.88682012   -8.0881219    481.01763  0.018039965  0.017818758            3 
 2223000   0.89403955   -8.0643636    480.45149  0.018010627  0.017812592            2 
 2224000   0.87586289   -8.0562467    481.12519  0.018027773  0.017806435            7 
 2225000   0.89588103   -8.0843428    479.86029  0.017972296  0.017800308            2 
 2226000   0.89312442   -8.0950719    479.31412  0.017943775  0.017794189            3 
 2227000   0.90009425   -8.0984699    479.85144  0.017955824  0.017788012            3 
 2228000   0.91062975   -8.1136373     479.3301  0.017928265   0.01778186            5 
 2229000   0.90425469   -8.0990392    479.80027    0.0179378  0.017775716            2 
 2230000   0.89430617   -8.1069345    480.04294  0.017938824  0.017769621            2 
 2231000   0.89097577   -8.0685185    480.94233  0.017964378  0.017763556           17 
 2232000   0.89555102   -8.1012302    480.08045  0.017924151  0.017757457            2 
 2233000   0.91612282   -8.0838756    480.29744  0.017924221  0.017751399            3 
 2234000   0.89373802   -8.0714283    481.26656  0.017952349  0.017745304            2 
 2235000   0.88390129   -8.0671094     481.0784  0.017937301  0.017739232            5 
 2236000   0.87512474   -8.0677239    481.00535  0.017926556  0.017733124            8 
 2237000   0.89667745   -8.1072564    481.44635   0.01793497  0.017727015            8 
 2238000   0.90490948   -8.0912127    481.49554  0.017928788  0.017720968            4 
 2239000   0.89359163   -8.0756428     480.5496  0.017885574  0.017714855            3 
 2240000   0.90172521   -8.0248021    481.61852  0.017917356  0.017708752            3 
 2241000   0.89386512   -8.0211074    483.48622  0.017978812  0.017702687            3 
 2242000   0.88514409   -8.0755871    482.96513  0.017951425   0.01769663            8 
 2243000   0.89678626   -8.0750464     481.7898  0.017899755  0.017690533            2 
 2244000   0.87596043   -8.0849863    481.27908  0.017872812  0.017684437            2 
 2245000   0.89521948   -8.0563715    481.57626  0.017875882  0.017678362            3 
 2246000   0.89899458   -8.0837337    482.35244  0.017896722  0.017672292            5 
 2247000   0.91654624   -8.0527753    481.84588   0.01786997  0.017666219            3 
 2248000   0.90006993   -8.0677899    482.04523  0.017869411  0.017660193            4 
 2249000   0.88650916   -8.1005961    482.95981  0.017895354  0.017654112            4 
 2250000   0.88894384   -8.1121415    482.30065  0.017862987  0.017648027            2 
 2251000   0.88977769   -8.1044882    480.79624  0.017799357  0.017641933            4 
 2252000   0.87491657   -8.0878038    481.19109  0.017806064  0.017635803            3 
 2253000   0.88476895   -8.1125669    480.56898  0.017775151  0.017629671            2 
 2254000   0.88020409   -8.1138558    480.84265  0.017777383  0.017623538            3 
 2255000   0.87538632   -8.0862994    482.31463  0.017823896   0.01761742            3 
 2256000   0.87051091   -8.0933879    482.30181  0.017815522  0.017611313            4 
 2257000   0.89792267    -8.100959    481.28776  0.017770187  0.017605193            7 
 2258000   0.88607973   -8.0890732     483.1396  0.017830661  0.017599093            5 
 2259000   0.87193974   -8.0946528    482.32924  0.017792874   0.01759302            2 
 2260000    0.8991827   -8.0795978    483.38626  0.017823977  0.017586941            3 
 2261000   0.87090139   -8.1182479    482.45914  0.017781923  0.017580887            7 
 2262000   0.90541117   -8.0891815    483.64529   0.01781776  0.017574851            3 
 2263000   0.88006792   -8.0936028    482.43138  0.017765186  0.017568806            5 
 2264000   0.90105999    -8.116369    482.80783  0.017771195  0.017562764            5 
 2265000   0.87936294   -8.1322672    483.12887  0.017775161  0.017556701           11 
 2266000   0.88635678   -8.1378825    484.42568  0.017815008  0.017550618            7 
 2267000   0.90075912   -8.1012297    483.68133  0.017779787  0.017544542            2 
 2268000   0.87063406   -8.0826149    482.80286   0.01773967   0.01753849            4 
 2269000   0.87601584    -8.094325    484.84311  0.017806784  0.017532472            7 
 2270000    0.8869582    -8.105171    483.58862  0.017752886  0.017526385            2 
 2271000    0.8863904   -8.1099714    484.13948  0.017765283   0.01752034            4 
 2272000   0.88323016   -8.1167661    481.78369  0.017671057  0.017514337            3 
 2273000   0.87417664    -8.108748    483.21743  0.017715846   0.01750832            7 
 2274000   0.88286927   -8.0756588    484.38116  0.017750702  0.017502297            6 
 2275000   0.88426923   -8.1163811    484.31904  0.017740624  0.017496251            7 
 2276000   0.90535577   -8.0969713    484.73265  0.017747973  0.017490227            3 
 2277000    0.8760292    -8.124293    482.99118  0.017676445   0.01748419            3 
 2278000   0.90367188   -8.1322846    482.19203  0.017639451  0.017478118            1 
 2279000   0.89057484   -8.0828008    484.11505  0.017702028  0.017472061            1 
 2280000   0.88155518   -8.1020151    484.46597   0.01770709  0.017466011            3 
 2281000    0.9006034   -8.0836851    484.16244  0.017688238  0.017459957            2 
 2282000   0.89202053   -8.1043157    484.07894  0.017677437  0.017453934            4 
 2283000   0.89807007   -8.0706831    484.87229  0.017698653  0.017447937            2 
 2284000   0.87057814    -8.081307    483.41777  0.017637835   0.01744195            5 
 2285000   0.90165021    -8.113082    483.96665  0.017650133   0.01743592            9 
 2286000   0.89656941   -8.0953592     483.7894  0.017635951  0.017429893            3 
 2287000   0.86730825   -8.1119297    484.60958  0.017658125  0.017423846            3 
 2288000   0.90032731   -8.0599712    486.33909  0.017713399  0.017417865            3 
 2289000   0.90221281   -8.0881077    485.13823  0.017661942  0.017411836            4 
 2290000   0.88511559   -8.0951741    484.06988  0.017615352  0.017405793            4 
 2291000   0.88253726   -8.1227476    484.00782  0.017605406  0.017399742            4 
 2292000    0.9071486   -8.0799496    484.50987  0.017615978  0.017393677            4 
 2293000   0.87862188   -8.1338721    483.58065  0.017574526  0.017387623            3 
 2294000    0.8853931   -8.1338312    484.01502  0.017582644  0.017381548            3 
 2295000    0.9106295   -8.1186133     484.1003  0.017578079  0.017375469            6 
 2296000   0.89083085   -8.1225475    484.04442  0.017568395  0.017369437            1 
 2297000    0.8894323   -8.1347417    484.63263  0.017582086  0.017363413            1 
 2298000   0.88859123    -8.096014    485.09884  0.017591342  0.017357377            2 
 2299000   0.88150726   -8.1225725    484.38178  0.017557698  0.017351371            3 
 2300000   0.89424356   -8.1131478    484.21644  0.017544074  0.017345379            4 
 2301000   0.87938223   -8.0689707    485.53425  0.017584176  0.017339374            2 
 2302000   0.90075264   -8.1147167    485.63033  0.017580015  0.017333398            6 
 2303000   0.88508414   -8.1415491    484.54837  0.017533231  0.017327389            7 
 2304000   0.87485466    -8.123899    484.99829  0.017541894  0.017321388            4 
 2305000   0.88329289   -8.1089427    485.72481   0.01756055  0.017315422            1 
 2306000   0.87425203   -8.0989713     486.2768  0.017572882  0.017309486            3 
 2307000   0.87613514   -8.0589348    486.97522  0.017590494   0.01730358            5 
 2308000   0.89180167   -8.1058317    486.19325  0.017554638  0.017297683            3 
 2309000   0.89945284   -8.0753597    486.38632  0.017554003  0.017291774            2 
 2310000   0.89005562   -8.0828323    487.79698  0.017597294  0.017285911            2 
 2311000   0.88422255   -8.0565315    487.26444  0.017570476  0.017280122            5 
 2312000   0.89428561   -8.0544846     487.8188  0.017582858  0.017274284            4 
 2313000   0.87703464   -8.0870932    487.41272  0.017560625  0.017268469            5 
 2314000   0.86718386   -8.1372738    487.08704  0.017541308  0.017262585            8 
 2315000   0.86324803   -8.1353878    487.25129  0.017539643  0.017256692            3 
 2316000   0.87871334   -8.0687614    488.97107   0.01759395  0.017250879            7 
 2317000   0.87440782   -8.0857869    487.26155  0.017524872  0.017245071            6 
 2318000   0.86538882   -8.1425852    485.92517  0.017469268  0.017239227            4 
 2319000   0.87713236   -8.1315467    487.73926  0.017526925  0.017233388            5 
 2320000   0.88901902   -8.0740534    488.10722  0.017532587   0.01722753            3 
 2321000   0.86593224   -8.0984106    488.61919  0.017543415  0.017221695            4 
 2322000   0.86311967     -8.11981     486.5037  0.017459938   0.01721583            3 
 2323000   0.87243362   -8.1390429     488.3053   0.01751705  0.017209911            6 
 2324000   0.86855083   -8.1249313    487.65337  0.017486136  0.017204013            4 
 2325000   0.88076052   -8.1071123    487.79721  0.017483771  0.017198114            3 
 2326000   0.88620211    -8.128966     485.9644  0.017410591  0.017192238            4 
 2327000   0.85980432    -8.106702    488.17662  0.017482331  0.017186354            3 
 2328000   0.90343841   -8.1277653    487.00245  0.017432791  0.017180487           10 
 2329000   0.89651551   -8.1240882    487.71622  0.017450845  0.017174588            6 
 2330000   0.87945212   -8.1192115     487.1306  0.017422411  0.017168712            4 
 2331000    0.8663268   -8.1370559    487.43559   0.01742584  0.017162826            3 
 2332000     0.879874   -8.1479351    486.35868  0.017379884  0.017156915            6 
 2333000   0.86887541    -8.121922    487.56767  0.017415619  0.017151055            3 
 2334000   0.89561602   -8.0992782    489.24379  0.017468002  0.017145217            7 
 2335000   0.88211093   -8.1221659    488.29114  0.017426522  0.017139422            3 
 2336000   0.87670862   -8.1240191    488.61808  0.017430725  0.017133592            6 
 2337000   0.88919211   -8.1080628    488.43461  0.017416724  0.017127739            4 
 2338000   0.88347743   -8.1310678    488.44146  0.017409519  0.017121906            3 
 2339000   0.88665056   -8.1099783    489.58142   0.01744269  0.017116078            7 
 2340000   0.88748152   -8.1125868    488.59441  0.017400086  0.017110276           11 
 2341000   0.89169992   -8.1357031    488.75402  0.017398335  0.017104477            4 
 2342000     0.881694   -8.1079848    488.14883  0.017369372  0.017098656            8 
 2343000     0.872687   -8.1124454    488.63675  0.017379313  0.017092842            7 
 2344000   0.86945219   -8.1524237    489.30395  0.017395618  0.017087044            4 
 2345000   0.87058531   -8.1162862    489.97183  0.017411934  0.017081271            6 
 2346000   0.86738098   -8.1055542    489.31973  0.017381349  0.017075513            6 
 2347000   0.88398558   -8.1375104    490.44292  0.017413823  0.017069769            3 
 2348000   0.88316254   -8.1263258    489.75555  0.017382011   0.01706399            3 
 2349000   0.87798379    -8.107239     489.6912  0.017372329  0.017058246            5 
 2350000    0.8683416   -8.1071242    490.42638  0.017391007  0.017052499            2 
 2351000   0.87844437   -8.1130753     490.8201  0.017397565  0.017046797            4 
 2352000   0.88545611   -8.1360602    490.51436  0.017379335   0.01704106            3 
 2353000   0.88439517   -8.1256383     490.7484  0.017380238  0.017035301            6 
 2354000   0.90037549   -8.1266309    490.81969  0.017375378   0.01702956            5 
 2355000   0.87370776   -8.1256137    489.91041  0.017335825  0.017023805            7 
 2356000   0.87846119   -8.1399885    490.69492  0.017356215  0.017018038            3 
 2357000   0.90138454   -8.1138089    490.31112  0.017335282  0.017012284            5 
 2358000   0.86178244   -8.1168536    490.79445  0.017345012  0.017006591            2 
 2359000   0.86951364   -8.1033894    490.14544  0.017314732  0.017000854            3 
 2360000   0.86928395    -8.139778    490.86811  0.017332913  0.016995146            2 
 2361000     0.870837   -8.0933494    491.54646  0.017349515  0.016989474            7 
 2362000   0.86862422   -8.0985254    490.66831  0.017311188  0.016983767            3 
 2363000   0.88716316   -8.1381324    491.33851  0.017327497  0.016978052            4 
 2364000   0.85906235    -8.164544    491.22334  0.017316107  0.016972317            3 
 2365000   0.85015899   -8.0978733    492.12207  0.017340454  0.016966588            6 
 2366000     0.867122   -8.1383965    491.02797  0.017294589  0.016960906            3 
 2367000   0.86424844   -8.1549674    491.31084  0.017297241  0.016955211            2 
 2368000   0.88398425   -8.1248838    492.16638  0.017320044  0.016949534            2 
 2369000   0.88254033    -8.140371    491.09456   0.01727503  0.016943855            8 
 2370000   0.86352703   -8.1278481     491.9265  0.017296994  0.016938158            2 
 2371000   0.88901184   -8.1386561    491.95088  0.017290555  0.016932496            3 
 2372000   0.87510162   -8.1315667    491.32388  0.017261238  0.016926802            5 
 2373000   0.85602387   -8.1503695    492.30615  0.017288459  0.016921084            2 
 2374000   0.86718112   -8.1389691    491.58808   0.01725597  0.016915384            3 
 2375000   0.87066207    -8.115155    492.55177  0.017282518  0.016909692            3 
 2376000   0.89195086   -8.1290523    492.08728  0.017258953  0.016904015            4 
 2377000   0.87017509   -8.1414702    492.51262  0.017266604  0.016898358            3 
 2378000    0.8728033   -8.1325232    492.33718  0.017253195  0.016892678            3 
 2379000    0.8787436   -8.0895906    492.91389  0.017266144  0.016887021            2 
 2380000   0.86583475   -8.1092557    492.75152  0.017253205  0.016881404            1 
 2381000   0.87976204   -8.1193364    492.27982  0.017229449  0.016875744            3 
 2382000   0.86753455   -8.1695078    492.43826  0.017227759  0.016870064            2 
 2383000   0.87215072   -8.1267654    492.25212   0.01721402  0.016864342            4 
 2384000   0.88230625   -8.1445214     491.2368  0.017171309  0.016858601            5 
 2385000   0.86703179   -8.1630023     491.0287  0.017156838  0.016852905            6 
 2386000   0.88640119   -8.0999127    492.97849  0.017217746  0.016847224            6 
 2387000   0.88344385    -8.116704    492.42048  0.017191052  0.016841633            4 
 2388000   0.88476653   -8.1491635    492.75333  0.017195468  0.016836001            5 
 2389000   0.87429161   -8.1547715    492.54926  0.017181152   0.01683033            5 
 2390000   0.85754391   -8.1361374    492.90153  0.017186246  0.016824687           12 
 2391000   0.85165895   -8.1188036    493.28966  0.017192585  0.016819022            4 
 2392000   0.89012307   -8.1298669    493.19746  0.017182186  0.016813334            4 
 2393000   0.88984138   -8.1265824    492.99341    0.0171679  0.016807722            4 
 2394000    0.8672062   -8.1492205    493.43695  0.017176168   0.01680209            5 
 2395000   0.86388223   -8.1374726     492.5984  0.017139819  0.016796433            4 
 2396000   0.86031889   -8.1384718    493.50641  0.017164246  0.016790758            5 
 2397000   0.86580105   -8.1552778    491.20731  0.017077156  0.016785117            8 
 2398000   0.86472969   -8.1654988    492.94403  0.017130388  0.016779476            3 
 2399000   0.87808463   -8.1425153    493.25626  0.017134093  0.016773783            8 
 2400000    0.8722906   -8.1530897    492.72175  0.017108394  0.016768137            6 
 2401000   0.87158501   -8.1201699    494.68536  0.017169421  0.016762513            6 
 2402000   0.84957935   -8.1654621     493.9772  0.017137705  0.016756877           12 
 2403000   0.86133057   -8.1542214    493.91032  0.017128254  0.016751207            3 
 2404000   0.88054042   -8.1249103    492.47855  0.017071497  0.016745553            3 
 2405000   0.85177305   -8.1580208    492.93335  0.017080158  0.016739889            5 
 2406000   0.86119504   -8.1761336    493.35967  0.017087825  0.016734239            4 
 2407000   0.85323564   -8.1735619    492.08974  0.017036759  0.016728534            3 
 2408000   0.88038426   -8.1713163    492.66742  0.017049675  0.016722808            2 
 2409000   0.85590371   -8.1547986    493.26238  0.017063179  0.016717153            3 
 2410000   0.88062141   -8.1498281    493.14763  0.017052131  0.016711491           11 
 2411000   0.85170159   -8.1481757      494.225  0.017082296  0.016705831            2 
 2412000   0.85772701   -8.1506674    493.32129  0.017043992  0.016700188            5 
 2413000   0.86408606   -8.1443307    493.92344  0.017057724  0.016694538            5 
 2414000   0.86083964   -8.1684006    492.29218  0.016994345  0.016688872            4 
 2415000   0.86804864    -8.151266     494.1224  0.017050462   0.01668322            4 
 2416000   0.84840535   -8.1736865     492.7239  0.016995167  0.016677533            3 
 2417000   0.86442652   -8.1665698    494.01098  0.017032512  0.016671793            2 
 2418000   0.86052445   -8.1618021    494.50202  0.017042391  0.016666071            7 
 2419000   0.86450679   -8.1718939     492.7981  0.016976647  0.016660367            6 
 2420000   0.86290239   -8.2230138    492.06857   0.01694451  0.016654653            4 
 2421000   0.87147321   -8.1657835    493.79694  0.016997003  0.016648961            3 
 2422000   0.85036368   -8.1577855    494.46306  0.017012905  0.016643272            3 
 2423000   0.88734862   -8.1566543    493.96762  0.016988844  0.016637627            4 
 2424000   0.87484469   -8.1516483    493.72122  0.016973364  0.016632014            3 
 2425000   0.87625902   -8.1649655    494.06485  0.016978174  0.016626349            1 
 2426000   0.86208506   -8.1560434    495.00225  0.017003375  0.016620731            3 
 2427000   0.86650207   -8.1603054    493.89306  0.016958284  0.016615086            7 
 2428000   0.85430209   -8.1707618    494.28957  0.016964908  0.016609446            3 
 2429000   0.86227554   -8.1443716    494.67621  0.016971189  0.016603789            3 
 2430000   0.85660372    -8.133563    494.70876  0.016965321  0.016598161            4 
 2431000   0.86268144   -8.1316456    494.51938   0.01695185  0.016592563            3 
 2432000   0.85686116   -8.1687802    495.01617  0.016961903   0.01658694            3 
 2433000      0.84669   -8.1603315    494.73743  0.016945384  0.016581314            2 
 2434000   0.85547008   -8.1628641    494.98936  0.016947047  0.016575684            6 
 2435000   0.86462787   -8.1626053    495.32758  0.016951663   0.01657004            7 
 2436000   0.86417313   -8.1585006    494.12659  0.016903619  0.016564436            4 
 2437000   0.86352398      -8.2086    494.26802  0.016901519  0.016558812            1 
 2438000   0.87049207   -8.1856042    494.68755  0.016908926  0.016553191            2 
 2439000   0.84079418   -8.1426613    495.19505  0.016919333  0.016547556            2 
 2440000    0.8575289    -8.179425    495.45278  0.016921201  0.016541928            2 
 2441000   0.87748871   -8.1876734    495.95523  0.016931422  0.016536311            5 
 2442000   0.85673819   -8.1741642    496.56429  0.016945273  0.016530682            3 
 2443000   0.87165166   -8.1048196    496.17381  0.016925018  0.016525157            6 
 2444000    0.8513049   -8.1520609    496.29126  0.016922097  0.016519576           10 
 2445000   0.83754866   -8.1799542    496.74778  0.016930736  0.016513976            4 
 2446000   0.86316647   -8.1816169    494.61013  0.016850986  0.016508394            3 
 2447000   0.86058829   -8.2004247    494.99274  0.016857129  0.016502778            4 
 2448000   0.86385813   -8.1881161    495.22522  0.016858157   0.01649715            5 
 2449000   0.84011815   -8.1774754    494.44119  0.016824595  0.016491513            5 
 2450000   0.85485995   -8.1798977    495.75082  0.016862273  0.016485916            8 
 2451000   0.85960392    -8.159788    497.21883  0.016905305   0.01648035            5 
 2452000   0.85827315   -8.1812925    496.41446  0.016871073  0.016474776            4 
 2453000   0.86194757   -8.1495941     496.6879  0.016873485   0.01646918            7 
 2454000   0.86263463   -8.1746777    496.39826  0.016856773  0.016463592            9 
 2455000   0.85707776   -8.1739678    496.11613   0.01684033   0.01645804            7 
 2456000   0.86263875   -8.1947701    496.52664  0.016847402  0.016452419            6 
 2457000   0.85311246   -8.1795349    495.68215  0.016811903  0.016446794            6 
 2458000   0.86438148   -8.1635031    494.92439  0.016779373  0.016441241            2 
 2459000   0.85475326   -8.1735255    495.25416  0.016783725  0.016435649            2 
 2460000   0.86971571   -8.1833527    494.86077  0.016763576  0.016430073            8 
 2461000    0.8527482   -8.1627055    495.85644   0.01679048  0.016424535            4 
 2462000   0.83865473   -8.1468753    495.82737  0.016782676   0.01641897            5 
 2463000   0.84413697   -8.1511945    497.11459  0.016819414  0.016413412            4 
 2464000   0.84325113   -8.1575901    496.57376  0.016794297  0.016407833            4 
 2465000   0.88233519   -8.1767143    496.89156  0.016798227  0.016402239            9 
 2466000   0.85940925   -8.1546801    496.77723  0.016787552  0.016396633            3 
 2467000   0.86245998   -8.2060566    495.49246  0.016737348   0.01639101            3 
 2468000   0.85834615   -8.1995585    496.51133  0.016764969  0.016385347            4 
 2469000   0.84662637   -8.1862877    496.68825  0.016764151  0.016379679            3 
 2470000   0.82696596   -8.1918839    495.99431  0.016733951  0.016374024            5 
 2471000   0.82977845   -8.1742219    496.47484  0.016743385  0.016368409            9 
 2472000   0.85030305   -8.1645604    496.84302  0.016749023  0.016362808           15 
 2473000   0.84936097     -8.19714    495.86015   0.01670913  0.016357211            7 
 2474000   0.85465099   -8.1833188    496.40723  0.016720804  0.016351619            3 
 2475000   0.86470036   -8.1707887    496.21953  0.016707728  0.016346051            2 
 2476000   0.84345415   -8.1844552    497.09087  0.016730306  0.016340501            4 
 2477000   0.86687252   -8.1569214    497.26945   0.01672956  0.016334948            2 
 2478000   0.85997257   -8.1942057    496.41585  0.016694103  0.016329383            3 
 2479000   0.85281411   -8.2008304    495.90633  0.016670241  0.016323795            3 
 2480000   0.84865495   -8.1664642    496.81548  0.016694069  0.016318232            4 
 2481000   0.84072548   -8.1523059    496.48055   0.01667609  0.016312672            4 
 2482000    0.8423025   -8.1914468    496.66658  0.016675617  0.016307079            3 
 2483000   0.86639515   -8.2100958    495.72454  0.016637285  0.016301478            2 
 2484000   0.83379568   -8.2211704     497.0304  0.016674396  0.016295874            5 
 2485000   0.84530764   -8.1889077    496.18578  0.016639362  0.016290265            8 
 2486000   0.84828981    -8.232406    497.10705  0.016663551  0.016284669            5 
 2487000   0.87123139   -8.2091406    497.00336  0.016653376  0.016279089            3 
 2488000   0.85209077   -8.1757676     497.6407   0.01666803  0.016273538            3 
 2489000   0.82993743    -8.192043    496.15362  0.016611545  0.016268005            4 
 2490000   0.86092712    -8.205892    496.12026  0.016603757  0.016262453            7 
 2491000    0.8466256   -8.1483083     497.1252  0.016630711  0.016256934           10 
 2492000   0.87361158   -8.2174457    496.60035  0.016606486  0.016251391            3 
 2493000   0.86236486   -8.2269507    496.52053  0.016597156  0.016245831            5 
 2494000   0.86275173   -8.1702523    498.17092  0.016645647  0.016240292            2 
 2495000   0.86367282   -8.1974482    497.66136  0.016621956  0.016234755            3 
 2496000   0.83750307   -8.2030349    497.24285  0.016601324  0.016229211            1 
 2497000    0.8628553   -8.2042246    496.94031  0.016584579  0.016223649            6 
 2498000   0.83659258   -8.2115512     497.6231  0.016600717  0.016218093            5 
 2499000   0.85023107   -8.2086701    497.45069  0.016588325    0.0162125            4 
 2500000   0.86593898    -8.238715    497.69553  0.016589851   0.01620691            3 
 2501000    0.8612125    -8.200835    497.43428  0.016574513  0.016201338            5 
 2502000    0.8532277   -8.2205431    497.39427  0.016566556  0.016195752            3 
 2503000   0.87998195   -8.2154561    497.03038  0.016547822  0.016190174            4 
 2504000   0.84429922   -8.1966959     497.4642  0.016555651  0.016184628            4 
 2505000   0.82749057   -8.1602738    499.94322  0.016631511   0.01617911            4 
 2506000   0.84971961   -8.1777823    498.09719  0.016563487  0.016173618            5 
 2507000   0.85249134     -8.17974    497.68315  0.016543118  0.016168101            3 
 2508000   0.85045758   -8.1847606    499.33562  0.016591428  0.016162543            4 
 2509000   0.86104957   -8.2231241     497.5789  0.016526468  0.016156941            6 
 2510000   0.85359343   -8.2022643    496.75528  0.016492539  0.016151338            6 
 2511000   0.86095512   -8.2117708    496.92217   0.01649151  0.016145744           13 
 2512000   0.83815516   -8.2162297    497.00359  0.016487646  0.016140137            5 
 2513000   0.84224381   -8.2106214    497.31664  0.016491466  0.016134565            4 
 2514000   0.83658624   -8.2282284    497.44173  0.016489052  0.016128972           10 
 2515000   0.84326115   -8.2361009    497.33107  0.016478829  0.016123382            4 
 2516000    0.8495307   -8.2096321    497.63732  0.016482423  0.016117815            3 
 2517000   0.84229055   -8.2443855    498.06542  0.016490048  0.016112202            5 
 2518000   0.86360022   -8.1986924    499.16906  0.016520024  0.016106631            5 
 2519000   0.85678181    -8.182347    497.76309  0.016466954  0.016101047            2 
 2520000   0.84320079   -8.1987005    496.52634  0.016419522   0.01609547            4 
 2521000   0.86431476   -8.2196316     497.6375  0.016449739   0.01608988            3 
 2522000   0.83352538   -8.2096952    499.27783  0.016497417  0.016084341            8 
 2523000   0.85555367   -8.2121501    498.63374  0.016469604  0.016078807            4 
 2524000   0.85202539   -8.1904352      498.304  0.016452192  0.016073217            3 
 2525000   0.83236995   -8.2139415    498.11651  0.016439489  0.016067681            5 
 2526000   0.87020463   -8.2011752    498.16902  0.016434713  0.016062132            3 
 2527000   0.85553753   -8.2160059    498.25934  0.016431188  0.016056587            3 
 2528000   0.84141839   -8.2335062    499.22388  0.016456483  0.016051038            3 
 2529000   0.84344379   -8.1918662    497.64983   0.01639811  0.016045468            4 
 2530000    0.8297627   -8.2046496    497.33495  0.016381257  0.016039878            6 
 2531000   0.83400604   -8.1933959    499.97277  0.016461635  0.016034312            3 
 2532000   0.85612546   -8.2020264    498.39296  0.016403139  0.016028739            5 
 2533000   0.85139124   -8.2292837    497.82045  0.016377828  0.016023154           11 
 2534000   0.84059474   -8.1799551     499.7655   0.01643533  0.016017589            5 
 2535000   0.83483839   -8.2120148    499.41459  0.016417311  0.016012023            3 
 2536000   0.85608846   -8.2327131    498.33162   0.01637525  0.016006462            3 
 2537000   0.86410418   -8.2547774    499.30714  0.016400839  0.016000852            5 
 2538000   0.85277865   -8.2596564    498.10059  0.016354761  0.015995216           13 
 2539000   0.83003667   -8.2187939    497.70149   0.01633522  0.015989602            2 
 2540000   0.86466835    -8.249974    498.33724  0.016349647  0.015984016            3 
 2541000   0.86365041    -8.230255    498.52663  0.016349424  0.015978463            5 
 2542000   0.84653912   -8.2328748    499.10308   0.01636189  0.015972916            5 
 2543000   0.85309114   -8.2166484    499.17674  0.016357869  0.015967374            2 
 2544000   0.84391099   -8.2424029    497.36014  0.016291933  0.015961834            3 
 2545000   0.83583424   -8.2097153    499.60675  0.016359095  0.015956295            5 
 2546000   0.84694723   -8.2128982    499.70265  0.016355808  0.015950772            4 
 2547000   0.84466461   -8.1872173    501.90838  0.016421554  0.015945269            6 
 2548000   0.84288519   -8.2096426    499.90823  0.016349694  0.015939774            7 
 2549000   0.83383738   -8.1899288    499.53951  0.016331225  0.015934282            9 
 2550000   0.83369315   -8.2026401    500.02085  0.016340551  0.015928779            8 
 2551000   0.83812921   -8.1923277    500.19057  0.016339689  0.015923287            4 
 2552000   0.84358179   -8.2088827     499.4814  0.016310129  0.015917789            5 
 2553000   0.84871737   -8.2294464    500.29975  0.016330453  0.015912291            3 
 2554000   0.84698001   -8.2337623     499.3568  0.016293291  0.015906769            7 
 2555000   0.83494245   -8.1961452    499.97456  0.016307063  0.015901278            3 
 2556000   0.83656722    -8.219174     499.3428  0.016280086   0.01589579            4 
 2557000   0.83310166   -8.2044728     500.0253  0.016295962  0.015890305            8 
 2558000   0.84832776   -8.2199854     499.5611  0.016274469  0.015884796            3 
 2559000   0.85044498   -8.2127281    500.74715  0.016306733  0.015879312            4 
 2560000   0.84219486   -8.2123144    500.17751   0.01628182   0.01587383            5 
 2561000   0.83719756    -8.224426    500.03711  0.016270894  0.015868342           13 
 2562000   0.84175549   -8.2411734    499.96611  0.016262234  0.015862832            1 
 2563000   0.86059541   -8.2296861    500.18093  0.016262873   0.01585732            5 
 2564000   0.85192249   -8.2669335    499.26122  0.016226639   0.01585181            7 
 2565000   0.84045279    -8.252784    499.92953  0.016242025  0.015846269           11 
 2566000   0.83593602   -8.2341692    499.97966  0.016237323  0.015840719            5 
 2567000   0.86046033   -8.2590676    499.92502  0.016229224  0.015835196           10 
 2568000   0.82620816   -8.2680071    499.52407  0.016209893  0.015829662            2 
 2569000    0.8527288   -8.2375833    501.09156   0.01625443  0.015824145            2 
 2570000   0.81002886   -8.2355186    500.16438  0.016218041  0.015818648           10 
 2571000   0.83073282   -8.2411396    499.22272  0.016181211  0.015813132            5 
 2572000   0.82997936     -8.24957    499.37041  0.016179705  0.015807604            9 
 2573000   0.84567804    -8.242726    500.18244  0.016199716  0.015802068            4 
 2574000   0.83431245   -8.2207336    500.58648  0.016206503  0.015796548            4 
 2575000   0.82108571   -8.2226803     501.1853  0.016219589  0.015791045            5 
 2576000   0.84420681   -8.2469969    500.30133  0.016184696  0.015785536            4 
 2577000   0.83719198    -8.247918    500.45203  0.016183289  0.015780009            4 
 2578000   0.82999307   -8.2764265    500.07963  0.016164974  0.015774466            5 
 2579000   0.83613931   -8.2475004    499.20256  0.016130366   0.01576888            6 
 2580000   0.84059352   -8.2706681    500.13825  0.016154336  0.015763306            2 
 2581000   0.85010424   -8.2506341    500.78874   0.01616908  0.015757733            4 
 2582000   0.84007125   -8.2789236    499.37571  0.016117213  0.015752174            4 
 2583000   0.83589949   -8.3035411    498.68369  0.016088647  0.015746602            8 
 2584000   0.83119485   -8.2709517    499.64885  0.016113546  0.015741065           12 
 2585000   0.84049004    -8.247376    500.41125  0.016131891  0.015735538            4 
 2586000   0.82651343   -8.2595574    500.04863  0.016113967  0.015730011            3 
 2587000   0.83471584   -8.2402294    500.63892  0.016126753   0.01572449            9 
 2588000    0.8230688   -8.2701151    499.98309  0.016099404  0.015718981            6 
 2589000   0.83678686   -8.2705086    499.90155  0.016090561   0.01571345            8 
 2590000   0.84512156   -8.2501432    500.33828    0.0160984  0.015707944            3 
 2591000   0.83814953   -8.2309417    501.47818  0.016128849  0.015702462            7 
 2592000   0.83732207   -8.2500357    500.92822  0.016104945  0.015696976            3 
 2593000   0.83654628   -8.2275897    501.03952  0.016102311  0.015691512            2 
 2594000   0.84305811   -8.2234695    502.58893  0.016145879  0.015686064            4 
 2595000   0.82752792   -8.2284524    502.20925  0.016127465  0.015680642            2 
 2596000   0.82974816   -8.2307088    501.24951  0.016090444  0.015675224            3 
 2597000   0.82447442   -8.2452719    501.57914  0.016094825  0.015669773            4 
 2598000   0.82704204   -8.2588743    500.47305  0.016053152  0.015664297            2 
 2599000   0.84715753    -8.262037    500.83801  0.016058677  0.015658843            3 
 2600000   0.84624992   -8.2706201    499.88309  0.016021894   0.01565338            5 
 2601000   0.84074873    -8.267611     501.1384  0.016055953  0.015647908            4 
 2602000    0.8395855   -8.2276011    502.20578  0.016083967  0.015642472            7 
 2603000   0.84234122   -8.2213806    502.14303  0.016075779  0.015637051           13 
 2604000   0.84308266   -8.2301206    501.93197  0.016062851  0.015631663            6 
 2605000   0.83100188   -8.2303874    501.56009  0.016044788   0.01562626           13 
 2606000   0.84604539   -8.2200761     502.5757  0.016071108   0.01562087            6 
 2607000   0.83180069   -8.1964605    501.80783  0.016040399  0.015615504            4 
 2608000   0.84451701   -8.2147571    503.15403  0.016077263  0.015610143            4 
 2609000   0.83051465   -8.1890224    502.37797  0.016046313  0.015604766           10 
 2610000   0.83641334   -8.2226475    502.66429  0.016049307  0.015599399            5 
 2611000   0.84335133   -8.2457715    502.96657  0.016052808   0.01559405            3 
 2612000   0.84645071   -8.2276735    502.27278  0.016024527  0.015588682            4 
 2613000   0.84205228   -8.2418499    502.80578  0.016035393   0.01558332            8 
 2614000   0.83562378   -8.2429815    501.72837  0.015994911  0.015577962            8 
 2615000   0.83543545   -8.2257381    503.53306  0.016046305  0.015572563            4 
 2616000   0.85061827    -8.223509    501.98695   0.01599092  0.015567202            9 
 2617000   0.82643351   -8.2431615    503.60792  0.016036426  0.015561826            5 
 2618000   0.83029794   -8.2902219      500.989  0.015946938  0.015556432            9 
 2619000   0.81488495   -8.2759295    503.12127  0.016008695  0.015551031            4 
 2620000   0.82881157   -8.2915975    501.60294  0.015954292  0.015545628            5 
 2621000    0.8346755   -8.2468472    502.09927  0.015963985  0.015540243            7 
 2622000   0.83739529   -8.2795413    502.54902  0.015972191  0.015534859            4 
 2623000   0.85738927   -8.2720899    501.47454  0.015931965  0.015529474            8 
 2624000    0.8409931   -8.2745005     503.2257  0.015981507  0.015524082            2 
 2625000   0.84246516   -8.2766933    503.53479  0.015985231  0.015518699            7 
 2626000   0.82627866   -8.2715766    503.39688  0.015974768  0.015513326            2 
 2627000    0.8179706   -8.2864814    501.24254  0.015900347  0.015507931            6 
 2628000   0.83077829   -8.2955373    501.95759  0.015916971  0.015502466            5 
 2629000   0.84546014   -8.2795382    501.82933  0.015906851  0.015497043            2 
 2630000   0.83405539    -8.271268    502.85247  0.015933221  0.015491658            2 
 2631000    0.8294632   -8.2690282    501.89331  0.015896786  0.015486277            2 
 2632000   0.81747663   -8.2503646    501.43572  0.015876258   0.01548088            3 
 2633000   0.82871894   -8.2905905    502.73267  0.015911276  0.015475483            2 
 2634000   0.80894963   -8.2283639    503.89448  0.015941992  0.015470112            2 
 2635000   0.82070277   -8.2363674    503.71092  0.015930137  0.015464736            3 
 2636000   0.84515792   -8.2911766     502.8594  0.015897174  0.015459389            3 
 2637000   0.81919153   -8.2836358    502.33337  0.015874522  0.015453998            4 
 2638000   0.82220385   -8.2504942    503.45004  0.015903779  0.015448624            2 
 2639000   0.84498405   -8.2449639     504.6572  0.015935872  0.015443302            8 
 2640000   0.81208462   -8.2325138    505.36209  0.015952086  0.015437988            5 
 2641000   0.83346351   -8.2230367    503.78655  0.015896332  0.015432679            7 
 2642000   0.84181077   -8.2475588    505.16232  0.015933709  0.015427369            4 
 2643000    0.8160682   -8.2676444    503.98202  0.015890466  0.015422044           10 
 2644000   0.84392667   -8.2803104    504.67826    0.0159064  0.015416713            4 
 2645000   0.84527093   -8.2646004    504.20906  0.015885604  0.015411394            7 
 2646000   0.82079263     -8.26752    503.40712  0.015854344  0.015406052            3 
 2647000   0.81501017   -8.2929513    502.89918  0.015832363  0.015400676            5 
 2648000   0.82608173   -8.3086591     502.7298  0.015821054  0.015395306            5 
 2649000   0.83371956   -8.2934707    503.85525  0.015850486   0.01538996            3 
 2650000    0.8402463   -8.2883084     503.2457  0.015825336  0.015384607            4 
 2651000   0.82274408   -8.2788233    504.80126  0.015868265  0.015379251            6 
 2652000   0.84346608   -8.2930746    503.59253    0.0158243  0.015373901            7 
 2653000    0.8316768   -8.2966024    503.86563  0.015826914  0.015368568            4 
 2654000   0.82124486   -8.3260243    502.62026  0.015781847  0.015363209            8 
 2655000   0.82161874   -8.2735939    503.06321  0.015789806  0.015357854            4 
 2656000   0.79994636   -8.2993916     503.6972  0.015803753  0.015352471            5 
 2657000   0.81223417   -8.2779469    504.45831  0.015821676  0.015347095           22 
 2658000   0.83492078   -8.2938937    502.27446  0.015747256  0.015341702            6 
 2659000   0.83120613   -8.3176528    504.27375  0.015803991  0.015336322            5 
 2660000   0.82864737   -8.2821879    504.04149  0.015790773  0.015330946            3 
 2661000   0.82682518   -8.2606819    503.80565  0.015777454  0.015325585            3 
 2662000   0.81883903   -8.3201216     503.5162  0.015762465  0.015320209            4 
 2663000   0.83167099   -8.2847279      504.253  0.015779603  0.015314848           12 
 2664000   0.83936938   -8.2978793     504.2821   0.01577459  0.015309483            3 
 2665000   0.83836903   -8.2699781    504.46671  0.015774444  0.015304121            3 
 2666000   0.82035043   -8.3001364    504.32312  0.015764039  0.015298792            5 
 2667000    0.8253928   -8.3017379    504.05544  0.015749764   0.01529347            4 
 2668000   0.81081944    -8.288324     504.5549  0.015759461  0.015288141            3 
 2669000   0.81639475   -8.2993306    504.05439  0.015737929  0.015282846            4 
 2670000   0.82990096   -8.3056012    503.30958  0.015708788  0.015277574            6 
 2671000   0.83275855   -8.2602244    505.50412  0.015771375  0.015272314            5 
 2672000   0.81220504   -8.2763346    505.04261   0.01575108   0.01526704            3 
 2673000   0.82617915   -8.2768826    504.47634  0.015727533  0.015261754            4 
 2674000   0.83097052   -8.2662687     503.8724   0.01570283  0.015256478            9 
 2675000   0.82832124   -8.2875356    505.81893  0.015757599  0.015251218            7 
 2676000   0.81468484   -8.2724598    504.64361   0.01571511  0.015245938            4 
 2677000   0.82422449   -8.2927097    504.71825  0.015711563   0.01524066            8 
 2678000   0.81757099   -8.2848317    504.89453  0.015711181  0.015235378            9 
 2679000   0.81280144   -8.2964319    504.60838  0.015696416  0.015230126            3 
 2680000   0.83780758   -8.2626223     504.9562  0.015701374  0.015224902            7 
 2681000   0.81611644    -8.312278    504.25212  0.015673633  0.015219629            6 
 2682000    0.8308055   -8.2949515    505.49594  0.015706436  0.015214341           15 
 2683000   0.81829221   -8.3072491    505.39114  0.015697327  0.015209037            7 
 2684000   0.81853952   -8.2960502    504.36147  0.015659509  0.015203714            6 
 2685000   0.81191316     -8.28818    504.63826  0.015662267  0.015198398            5 
 2686000   0.81914784   -8.2986373    505.28221  0.015676415  0.015193092            3 
 2687000   0.82469832   -8.3057797    505.31971  0.015671744  0.015187813            7 
 2688000   0.80710707   -8.2900536    504.73574  0.015647809  0.015182544            1 
 2689000   0.83740807   -8.2887853    506.24558  0.015688781  0.015177303           13 
 2690000    0.8140113   -8.2810177     506.1625  0.015680375  0.015172047           12 
 2691000   0.82014781   -8.2950959    505.08888  0.015641301  0.015166814           12 
 2692000   0.82792532   -8.2820614    505.29114  0.015641751  0.015161589            9 
 2693000   0.81296186   -8.2540252    505.36569   0.01563825  0.015156357           12 
 2694000   0.83843187   -8.3108253     504.5871  0.015608361  0.015151074            4 
 2695000   0.82267291   -8.3176026    504.87678  0.015611527  0.015145764            5 
 2696000   0.83209952   -8.3146423    504.05362  0.015580292  0.015140484            5 
 2697000   0.82517142   -8.2872844    504.78486   0.01559711  0.015135206           11 
 2698000   0.82126628   -8.3045256     505.3603  0.015609102  0.015129905            6 
 2699000   0.84169592   -8.3048044    505.36932  0.015603598  0.015124636            3 
 2700000   0.81851702   -8.3047679     505.0984  0.015589457  0.015119354            5 
 2701000   0.81794943   -8.2653033    505.47238  0.015595224  0.015114109            2 
 2702000   0.82488409   -8.2887671    505.88251  0.015602101  0.015108884            2 
 2703000   0.82180274    -8.278382    504.84706  0.015564406  0.015103609            3 
 2704000   0.81582463   -8.3178185     505.2266  0.015570347  0.015098361            2 
 2705000   0.81294008    -8.287159    506.08868  0.015591149  0.015093103            3 
 2706000   0.82724393   -8.2995663    505.81781  0.015577045   0.01508785            9 
 2707000   0.83606308   -8.3205692    505.83872  0.015571934  0.015082603            3 
 2708000   0.81485613   -8.3025718    506.19267  0.015577076  0.015077347            4 
 2709000   0.81424154   -8.2745178    505.00411  0.015534764  0.015072091            6 
 2710000   0.81813598   -8.2940657     503.5496  0.015484305  0.015066827            5 
 2711000   0.81227351   -8.2601879    507.38814  0.015596586   0.01506158            2 
 2712000   0.81981628   -8.2801607    506.58527  0.015566165  0.015056354            4 
 2713000    0.8126909   -8.2942991    505.61786  0.015530712  0.015051131            4 
 2714000   0.81204402   -8.2702499    505.89219  0.015533413  0.015045912            2 
 2715000   0.81860993   -8.2821178    506.12163  0.015534734  0.015040693            5 
 2716000   0.83963809   -8.2932837    506.72826  0.015547627  0.015035467            6 
 2717000   0.80646048   -8.2780389    507.52851  0.015566449  0.015030249            4 
 2718000   0.84004651   -8.2880021    506.69757  0.015535246  0.015025059            4 
 2719000   0.79523835    -8.297531    506.46742  0.015522478  0.015019872            4 
 2720000     0.842466   -8.2739705    506.47156  0.015516898   0.01501469            2 
 2721000   0.80703491   -8.2805157    506.66008  0.015516969  0.015009493            9 
 2722000   0.81839617   -8.2877991      507.382   0.01553337  0.015004303            3 
 2723000   0.81317357   -8.3175908    506.15691  0.015490173  0.014999063            5 
 2724000    0.8313841   -8.3391727    505.67811  0.015469839  0.014993828            8 
 2725000   0.80951751   -8.3282102      505.212  0.015449908  0.014988587            5 
 2726000   0.81315195   -8.3105637     505.0768  0.015440108  0.014983348            4 
 2727000   0.83342393   -8.3039511    505.30597  0.015441449  0.014978096            3 
 2728000   0.79818875   -8.3214704    505.61306  0.015445169  0.014972866            6 
 2729000   0.80913269   -8.3115992    506.28223  0.015459944  0.014967637            5 
 2730000   0.81984688    -8.310568    506.82215  0.015470762  0.014962408            6 
 2731000   0.82670309   -8.2849923     506.8428  0.015465727  0.014957211            5 
 2732000   0.79664381   -8.3130593    505.93402  0.015432346  0.014952006            4 
 2733000   0.79919815   -8.2952336    506.95376  0.015457792  0.014946837           14 
 2734000   0.80586195   -8.2940878    506.89097  0.015450225  0.014941656           11 
 2735000   0.80538509   -8.3197502    506.25806  0.015425291  0.014936461            6 
 2736000   0.79770864   -8.3304251    506.34145  0.015422193  0.014931236            3 
 2737000    0.7889599   -8.3160487    505.94757  0.015404566  0.014926004           10 
 2738000   0.81097292   -8.3189056    506.50123  0.015415791  0.014920767           18 
 2739000   0.81871365   -8.3304789    506.08129  0.015397386  0.014915538           14 
 2740000   0.82510891   -8.3183136    506.76806  0.015412654   0.01491033           20 
 2741000   0.81758555   -8.3271009    506.34175   0.01539407  0.014905112           21 
 2742000   0.80098443   -8.2919077    507.16584  0.015413501  0.014899912            7 
 2743000   0.81769184   -8.3221196    506.72601   0.01539452  0.014894714           15 
 2744000   0.80033343   -8.2878668    507.58962  0.015415137  0.014889508           23 
 2745000   0.80609483   -8.3387716    505.71679  0.015352665  0.014884297           33 
 2746000   0.81204316   -8.3116423    507.20504  0.015392238  0.014879061           25 
 2747000   0.80104817    -8.328071     506.0664  0.015352093  0.014873859           18 
 2748000   0.80750557   -8.3435138    505.55407   0.01533097  0.014868634           12 
 2749000   0.81673139    -8.329396    505.19555  0.015314525  0.014863412            5 
 2750000   0.83034693   -8.3293779    507.22992  0.015370604  0.014858187            6 
 2751000   0.79275394   -8.3401699     506.4237  0.015340594  0.014852966           10 
 2752000   0.80958269   -8.3394003    505.85122  0.015317685  0.014847757            7 
 2753000   0.81134675   -8.3328049    506.54724  0.015333189  0.014842523            5 
 2754000   0.81180275   -8.3551945    504.77097  0.015273874  0.014837303           12 
 2755000   0.79564464   -8.3016534    507.33971  0.015346029  0.014832111           12 
 2756000   0.80498691    -8.286733    507.86579  0.015356368  0.014826927           10 
 2757000   0.80868278   -8.3257475    506.71818   0.01531611  0.014821744            7 
 2758000   0.79991325   -8.3058885    507.27232    0.0153273   0.01481654            5 
 2759000   0.79703476   -8.3036989     505.7516  0.015275813  0.014811335            4 
 2760000   0.80780523   -8.3306767    506.87176  0.015304099  0.014806132            6 
 2761000   0.81238808   -8.3322708    507.45683  0.015316215  0.014800929            4 
 2762000    0.8075599   -8.3089282    506.72258  0.015288516  0.014795716            3 
 2763000   0.82364713   -8.3474334    507.01774  0.015291885  0.014790511            9 
 2764000   0.79846985   -8.3443878     507.1216  0.015289484  0.014785305            4 
 2765000   0.79518733   -8.3319303     507.5026  0.015295437  0.014780107            6 
 2766000   0.81476417   -8.3111233    506.69431  0.015265555  0.014774905            6 
 2767000   0.79737813   -8.3199421    506.25032  0.015246667  0.014769705           11 
 2768000   0.80156702   -8.3829239    507.04413  0.015265057  0.014764491            5 
 2769000    0.8091605   -8.3269173    506.15639  0.015232827  0.014759267            9 
 2770000   0.79097125   -8.2909267    508.04662  0.015284194  0.014754074            5 
 2771000   0.79891735   -8.3425183    507.68116  0.015267688  0.014748885            7 
 2772000   0.82703708   -8.3088284    507.91838  0.015269312  0.014743698            5 
 2773000   0.81159345   -8.3678909    506.42182  0.015218831  0.014738512            6 
 2774000   0.79975855   -8.3461081    506.77025  0.015223812  0.014733297            4 
 2775000   0.79851045   -8.3299346    507.47045  0.015239353  0.014728088            5 
 2776000   0.79287454   -8.3384822    507.50323  0.015234847  0.014722886            2 
 2777000   0.80387382   -8.3659491    507.04784  0.015215696  0.014717719            6 
 2778000   0.79437018   -8.3119259      507.266  0.015216763  0.014712549            5 
 2779000   0.81757703   -8.3513542    507.85893  0.015229067  0.014707372            4 
 2780000   0.81460414   -8.3008228    507.52567  0.015213599  0.014702174            8 
 2781000   0.79981605   -8.3076794    507.83675   0.01521745  0.014697013            4 
 2782000   0.82322599   -8.2899531    508.19228   0.01522263  0.014691863           11 
 2783000   0.80185577   -8.3560447     507.9266  0.015209205  0.014686691            4 
 2784000   0.79954454   -8.3492233    507.26599  0.015183968  0.014681508           13 
 2785000   0.79554993   -8.3222624    507.99499  0.015200329  0.014676321            5 
 2786000   0.78006162   -8.3480009    507.78886  0.015188707  0.014671162            3 
 2787000   0.81206069   -8.3430374    506.79211  0.015153454  0.014665984            2 
 2788000   0.79441804   -8.3684549    507.87955  0.015180522  0.014660807            3 
 2789000   0.81447143   -8.3624514    507.42502  0.015161498  0.014655649            7 
 2790000   0.81384522   -8.3365253    507.85967  0.015169046  0.014650481            7 
 2791000   0.80363438    -8.353717     508.1171  0.015171298  0.014645296            7 
 2792000   0.80309001   -8.3347812    507.32221  0.015142138  0.014640096            7 
 2793000    0.8005703   -8.3471731    506.66092  0.015116987  0.014634891            4 
 2794000   0.79338427   -8.3323972    506.43516  0.015104842  0.014629672           17 
 2795000   0.81095874   -8.3481002    507.59442  0.015134002  0.014624483            3 
 2796000   0.78429337   -8.3279107    507.97628   0.01513997  0.014619316            7 
 2797000   0.81286637   -8.3471697    506.96529  0.015104436  0.014614141            6 
 2798000   0.81616842   -8.3678826    506.82779  0.015094942  0.014608966            7 
 2799000   0.80100371   -8.3495402    507.31612  0.015104088  0.014603772            6 
 2800000   0.82828368   -8.3679186    507.97778  0.015118386  0.014598575            5 
 2801000   0.77821227   -8.3670466    506.28231  0.015062546  0.014593367            7 
 2802000   0.78640879   -8.3633248    507.00173  0.015078567  0.014588162            3 
 2803000   0.79436451   -8.3525107    507.90316  0.015099987  0.014582972            4 
 2804000   0.79363666   -8.3276649    507.81813  0.015092075  0.014577796            3 
 2805000    0.8217882   -8.3582277    507.23951  0.015069504  0.014572597            5 
 2806000   0.80207533   -8.3743657    508.28724  0.015095249  0.014567406            4 
 2807000   0.82560692   -8.3668582    507.46086  0.015065338  0.014562183            5 
 2808000   0.81061395   -8.3713612    507.29568  0.015055071   0.01455696            4 
 2809000   0.80912201   -8.3683369    506.53316   0.01502709  0.014551755            5 
 2810000   0.77970233   -8.3696524    506.83945  0.015030826  0.014546543            9 
 2811000   0.78777079   -8.3387714    507.30004  0.015039133  0.014541359            7 
 2812000   0.78836827   -8.3684598    507.89637  0.015051457  0.014536177            7 
 2813000   0.79942365   -8.3343777    507.04166  0.015020786  0.014530988            6 
 2814000   0.78153892    -8.326279     507.6247  0.015032715  0.014525837            5 
 2815000   0.79276336    -8.338795    507.88538  0.015035091    0.0145207            4 
 2816000   0.81261683   -8.3433408    508.37341  0.015044194  0.014515561            7 
 2817000   0.78804212   -8.3609894    506.64034  0.014987585  0.014510408            4 
 2818000    0.8025927   -8.3317644    507.42273  0.015005404   0.01450527            4 
 2819000     0.802924   -8.3604173    508.73535  0.015038884  0.014500133            7 
 2820000    0.7979409   -8.3592601    508.10624   0.01501496  0.014494952            7 
 2821000   0.80447523   -8.3624767    506.52474  0.014962919  0.014489783            4 
 2822000   0.79451686   -8.3480654    508.15072  0.015005632  0.014484603            3 
 2823000   0.80918407   -8.3409516    506.29211  0.014945451  0.014479444            7 
 2824000   0.79335788    -8.370425    507.69228  0.014981477   0.01447429            5 
 2825000   0.80521175   -8.3394916    507.95816  0.014984016  0.014469123            3 
 2826000   0.80135289    -8.346982    507.67673  0.014970415  0.014463972            5 
 2827000   0.80518439   -8.3767133    507.21432  0.014951489  0.014458815            2 
 2828000   0.79630753   -8.3639193    507.77114   0.01496261  0.014453658            7 
 2829000   0.79110931   -8.3755511    506.73161    0.0149267  0.014448492           13 
 2830000   0.79782846   -8.3996753    507.79224  0.014952657  0.014443333            9 
 2831000   0.80505031   -8.3709868    508.14286  0.014957696  0.014438162            5 
 2832000   0.79255322   -8.3634954    508.39728  0.014959901  0.014433007            6 
 2833000   0.80355303   -8.3919802    506.42019  0.014896464  0.014427845            7 
 2834000   0.78155887   -8.3520895    506.80307  0.014902466    0.0144227            6 
 2835000   0.80869533   -8.3762565    507.16801  0.014907937  0.014417562            9 
 2836000   0.80210839   -8.3478668    507.73536  0.014919351  0.014412419            8 
 2837000    0.7985508   -8.3510801    509.02617  0.014952008  0.014407279            9 
 2838000   0.78814083   -8.3912916    507.32696  0.014896845  0.014402136           28 
 2839000   0.77806176   -8.3741672    507.94371  0.014909702  0.014396982            9 
 2840000   0.79873991   -8.4020391    508.25262  0.014913516  0.014391836           12 
 2841000   0.78310875   -8.3287458    508.64461  0.014919765  0.014386713           17 
 2842000      0.80191   -8.3914727    509.09217  0.014927638  0.014381602           19 
 2843000   0.78458277   -8.3644877    508.17581  0.014895527  0.014376488           12 
 2844000   0.79224874   -8.3718113    508.13629  0.014889132  0.014371348           18 
 2845000   0.79145682   -8.3848367    508.03485  0.014880927  0.014366225           10 
 2846000   0.79410922   -8.3654176    507.93067  0.014872648  0.014361108           18 
 2847000   0.79754702   -8.3628473    508.40766  0.014881386  0.014355975           14 
 2848000   0.80353335   -8.3989472    507.52231  0.014850255   0.01435086           24 
 2849000   0.79056157     -8.38322    506.95154  0.014828347  0.014345743           13 
 2850000   0.78151468   -8.3624936    507.83031   0.01484884  0.014340599           21 
 2851000   0.78956314   -8.3893248    508.49279  0.014862995  0.014335466           12 
 2852000   0.78634335   -8.3968182    507.31018  0.014823229  0.014330309           17 
 2853000   0.78029366   -8.3693717    508.50931  0.014853059  0.014325185           10 
 2854000   0.80254873   -8.3890247    507.24826  0.014811033  0.014320057           13 
 2855000   0.79895483    -8.367961    507.09318  0.014801319  0.014314941           12 
 2856000     0.783544   -8.3671936    508.81179  0.014846282   0.01430982           18 
 2857000   0.78986827   -8.3748027    508.87435  0.014842911  0.014304686           27 
 2858000   0.79131123   -8.3834047    508.63169  0.014830642  0.014299591           15 
 2859000   0.78937431   -8.4172306    508.45029  0.014820167  0.014294469           24 
 2860000   0.80198809   -8.3763881    508.83097  0.014826077  0.014289343           18 
 2861000   0.80819832   -8.3816939    508.72801  0.014817896   0.01428422           13 
 2862000   0.81044433   -8.3945138    507.78784  0.014785344  0.014279113           19 
 2863000   0.80430518   -8.3925973    509.14248  0.014819609  0.014273987           13 
 2864000   0.78774596   -8.3646397    508.77811  0.014803832  0.014268863            7 
 2865000   0.78356848   -8.4165464    508.21668  0.014782335  0.014263735           18 
 2866000   0.79373558   -8.4074173    507.11973  0.014745282  0.014258607           13 
 2867000   0.78630726   -8.3799717     507.9111  0.014763141   0.01425348           21 
 2868000   0.80136158   -8.3915913    509.04913   0.01479106  0.014248349           12 
 2869000   0.80462215   -8.4000858    506.75227   0.01471919  0.014243229           20 
 2870000   0.80056658   -8.3974214      508.674  0.014769861  0.014238102            8 
 2871000   0.80324289   -8.3832497     507.9605  0.014744006  0.014232965           13 
 2872000   0.78930324   -8.4089782    508.06671  0.014741954   0.01422784            6 
 2873000   0.80434629   -8.3832363    508.62589  0.014753043  0.014222722           12 
 2874000    0.8063839     -8.38663    508.31034   0.01473876  0.014217595            8 
 2875000   0.79105741   -8.3870543    507.63772  0.014714137  0.014212478           12 
 2876000   0.79938041   -8.4172679    506.89756  0.014687574  0.014207355            8 
 2877000    0.8132303   -8.3656795    507.97519  0.014713683  0.014202233           10 
 2878000   0.79979025   -8.3936044    507.91458  0.014706815  0.014197113            5 
 2879000   0.78907163    -8.384182    508.41501  0.014716192  0.014191976            6 
 2880000   0.77335207   -8.3868278     508.4593  0.014712364   0.01418684            1 
 2881000   0.79677071    -8.386704    507.73033  0.014686172  0.014181712            5 
 2882000   0.81729945   -8.3881815    508.24649  0.014696001  0.014176599            3 
 2883000   0.78340104   -8.3673354    507.63303  0.014673171    0.0141715            5 
 2884000    0.7837664   -8.3799513    507.77193  0.014672097  0.014166415            4 
 2885000   0.77493066   -8.3899663    507.96573  0.014672609  0.014161317           10 
 2886000   0.78926661   -8.3809396    507.48213  0.014653561  0.014156213            7 
 2887000   0.78121614   -8.4011151      508.861  0.014688286  0.014151119            5 
 2888000   0.77836931   -8.3672164     507.6092   0.01464708   0.01414602            6 
 2889000   0.79073542   -8.4076389    508.84735  0.014677724  0.014140936            8 
 2890000   0.78969128   -8.3977347    507.68004  0.014638986  0.014135847           14 
 2891000   0.79207072   -8.3740108    508.26799   0.01465087  0.014130744           16 
 2892000   0.78131758   -8.3813452    508.91539  0.014664459  0.014125638           10 
 2893000   0.78636374   -8.3875908    508.91526  0.014659386  0.014120519           11 
 2894000   0.78585018   -8.3531763    509.29467  0.014665246  0.014115452            9 
 2895000    0.7831052    -8.371866    510.21597    0.0146867  0.014110379           12 
 2896000   0.78309835   -8.3878651    507.84262  0.014613335  0.014105307            7 
 2897000   0.78306976   -8.3843443    507.61728  0.014601809  0.014100237           11 
 2898000    0.7865549   -8.3876963    509.23231  0.014643211  0.014095173            7 
 2899000   0.79208957   -8.3902341    509.76692  0.014653528  0.014090128            3 
 2900000   0.77806113   -8.3893575    507.81044  0.014592254  0.014085084            9 
 2901000   0.78038453   -8.3900305    509.11743  0.014624768  0.014080009            5 
 2902000   0.76957448   -8.3805607    509.66936  0.014635578  0.014074952            4 
 2903000   0.79103091   -8.4132778    507.68572  0.014573594  0.014069889            6 
 2904000   0.79300309    -8.391325    508.14837  0.014581852   0.01406481           10 
 2905000   0.79327713   -8.3872236    509.76913  0.014623325  0.014059727           28 
 2906000    0.8003032    -8.423535    508.93483  0.014594369  0.014054653           13 
 2907000   0.76526982   -8.3885236     509.0971     0.014594  0.014049595           25 
 2908000   0.79270389   -8.3858351    509.50041  0.014600539  0.014044513           16 
 2909000   0.78963501   -8.4131302    508.37395  0.014563251  0.014039456           14 
 2910000   0.79178675   -8.3948679    508.35848  0.014557803  0.014034389           11 
 2911000   0.77971505   -8.4163393    508.39146  0.014553746  0.014029317           10 
 2912000   0.78667304   -8.3960953    508.75495   0.01455915  0.014024254            9 
 2913000   0.77686002   -8.3830888    508.93913  0.014559421  0.014019195           11 
 2914000   0.76389752   -8.4131965    508.57542  0.014544024  0.014014139            9 
 2915000   0.77373322   -8.4012937    509.11059  0.014554334  0.014009078           17 
 2916000   0.76235678   -8.4301264    508.14669  0.014521796  0.014004022            7 
 2917000   0.78457917   -8.4046105    508.67656  0.014531955  0.013998973           13 
 2918000     0.783115   -8.4058834    509.03989  0.014537351  0.013993927            7 
 2919000    0.7801804   -8.4110923    509.12153  0.014534702    0.0139889           10 
 2920000   0.78110909   -8.4011256    508.75188  0.014519175  0.013983874           27 
 2921000    0.7900674   -8.4147789    509.20735  0.014527198  0.013978855            8 
 2922000   0.79021558   -8.3835873    510.36232  0.014555165  0.013973836            7 
 2923000   0.78869259   -8.3816123    509.81385  0.014534549  0.013968823            7 
 2924000   0.77731394   -8.3831837     509.0958  0.014509114  0.013963794           15 
 2925000   0.78380267   -8.3868364    509.99712  0.014529832  0.013958772            6 
 2926000   0.79238874   -8.3617739    510.32999  0.014534347  0.013953759            9 
 2927000   0.78209884    -8.424432    509.91932  0.014517689  0.013948733            8 
 2928000   0.78792732   -8.3744931    508.87784   0.01448309  0.013943725            7 
 2929000   0.78294008   -8.4153979    508.27991  0.014461133  0.013938717           13 
 2930000   0.79283516   -8.4145861    509.20215  0.014482427  0.013933661           10 
 2931000   0.79465212   -8.4278112    509.86761  0.014496406  0.013928651           18 
 2932000   0.78466196    -8.423847    508.14714  0.014442563   0.01392363           20 
 2933000    0.7812958   -8.3930901    508.74653  0.014454669  0.013918598           23 
 2934000   0.77159447   -8.4220133    509.68956  0.014476527  0.013913574           17 
 2935000   0.76822027   -8.4091698    508.77514  0.014445631  0.013908543           16 
 2936000    0.7637674   -8.3853161    509.49739  0.014461211  0.013903523           13 
 2937000   0.78431696   -8.4160955    509.93078  0.014468584  0.013898489            8 
 2938000   0.78262175    -8.432205    508.88718  0.014434059  0.013893423            6 
 2939000   0.78980787   -8.4206678    509.41431  0.014444094  0.013888377           14 
 2940000   0.79071082   -8.4150097    510.82852  0.014479267  0.013883339           14 
 2941000   0.78251711    -8.434636    508.70685  0.014414226  0.013878306            9 
 2942000   0.78709283   -8.3961756    509.24157  0.014424472    0.0138733            9 
 2943000   0.76570561   -8.3945983    510.78809  0.014463362  0.013868303            4 
 2944000   0.78105451   -8.4029585    510.06108   0.01443787  0.013863327            4 
 2945000   0.76206283   -8.3738858    511.11564  0.014462808  0.013858353            7 
 2946000   0.77398764   -8.3934615    511.01721  0.014455115  0.013853393            6 
 2947000   0.76855119   -8.3936289    511.33312  0.014459143  0.013848433           13 
 2948000   0.78719254   -8.3925122    511.27638  0.014452634  0.013843491           14 
 2949000   0.76287257   -8.3925038    511.46284  0.014453002  0.013838554           23 
 2950000   0.77614573   -8.3692899    511.38444  0.014445888  0.013833608            8 
 2951000   0.78849185   -8.3866088    511.63517  0.014448073  0.013828662           13 
 2952000    0.7759572   -8.4102652    509.72075  0.014389136  0.013823701           24 
 2953000   0.78328989   -8.4154679    509.89034  0.014389049  0.013818751            9 
 2954000    0.7787727   -8.4035706    511.49293  0.014429388  0.013813799           13 
 2955000   0.78633384   -8.4278137    511.32939  0.014419893   0.01380883           15 
 2956000   0.77954476   -8.4412959    510.36281  0.014387765  0.013803867            7 
 2957000   0.79079497   -8.4209026    511.22086  0.014407081  0.013798913            7 
 2958000    0.7676202   -8.4085543    510.72164  0.014388146  0.013793941            9 
 2959000   0.77990176   -8.4159725    509.59417  0.014351531  0.013788974            7 
 2960000   0.76684449   -8.4447488    510.27807  0.014365937  0.013784013            6 
 2961000   0.76800198   -8.4108943    511.30807  0.014390073  0.013779051           10 
 2962000   0.75968934   -8.3910313    511.33575  0.014385993  0.013774106           12 
 2963000   0.77126072   -8.4135664    510.36232  0.014353761  0.013769157            7 
 2964000   0.77885519   -8.4105424    512.02767   0.01439574  0.013764235            6 
 2965000    0.7844373   -8.4023726     511.4868  0.014375683  0.013759324            8 
 2966000   0.79261598   -8.3959935    512.03523  0.014386245  0.013754395            9 
 2967000   0.78646148   -8.4221068    510.44932  0.014336853  0.013749467            6 
 2968000   0.77659025   -8.3885222    511.23228  0.014354006   0.01374454            7 
 2969000   0.76602122   -8.3790297    510.86829  0.014338955  0.013739602            3 
 2970000   0.80164654   -8.4127668    510.44537  0.014322261  0.013734664            6 
 2971000   0.76897976   -8.3937161    510.94701   0.01433151  0.013729724            8 
 2972000   0.76991935   -8.3927034    512.04241  0.014357403   0.01372478            3 
 2973000   0.75391894   -8.4033372     510.2281  0.014301718  0.013719813            8 
 2974000   0.79670065   -8.4213516    510.71348   0.01431051  0.013714855           14 
 2975000   0.77220943   -8.4243332    510.20104  0.014291346  0.013709907            5 
 2976000   0.78087815   -8.4271509    510.54586  0.014296199   0.01370494            8 
 2977000   0.76135791   -8.4133358    510.20452  0.014281842  0.013699972           13 
 2978000    0.7572932    -8.420541    510.44943    0.0142839  0.013695022            8 
 2979000   0.77511631   -8.4580654    510.40394  0.014277832  0.013690044            4 
 2980000   0.77683402   -8.4646286    510.16772  0.014266435   0.01368506            4 
 2981000   0.79525561   -8.4468566    509.46702  0.014242061  0.013680072            3 
 2982000   0.77218659   -8.4435819    509.55649  0.014239786  0.013675083           12 
 2983000   0.78448823   -8.4404663    509.00072  0.014219486  0.013670107           11 
 2984000   0.77352544   -8.4603244    508.25647  0.014193936  0.013665112            3 
 2985000   0.76769965   -8.4313859    509.69712    0.0142294  0.013660135            7 
 2986000   0.76727528   -8.4310747    510.75174  0.014254067  0.013655173            6 
 2987000   0.77065554   -8.4478033    508.54966   0.01418786  0.013650199            7 
 2988000   0.79720052   -8.4216364    509.40384  0.014206934  0.013645215            6 
 2989000   0.76765288   -8.4473033     509.5389  0.014205947  0.013640231            4 
 2990000   0.73705205   -8.4435297    509.57936  0.014202323  0.013635238            9 
 2991000   0.77179414   -8.4701908    509.23297  0.014187924  0.013630255            8 
 2992000   0.76248086   -8.4708292    508.45718  0.014161575  0.013625248           12 
 2993000   0.76469328   -8.4416135    510.73418  0.014220241  0.013620279            6 
 2994000   0.75261654   -8.4537249    508.55583  0.014154861  0.013615293            4 
 2995000   0.76649793   -8.4298186    509.82813  0.014185535   0.01361029            9 
 2996000   0.77457952    -8.427636    509.86859  0.014181926  0.013605332           13 
 2997000   0.77045159   -8.4126608    509.88932   0.01417777  0.013600366           15 
 2998000    0.7824884    -8.421055    509.26821  0.014155776  0.013595407           13 
 2999000   0.78261148   -8.4123474    510.86426  0.014195406  0.013590444            9 
 3000000    0.7816134   -8.4309537    508.95428  0.014137619  0.013585493           10 
 3001000   0.78668343   -8.4355175    509.89436  0.014159012  0.013580541           16 
 3002000   0.78353483   -8.4497712    509.91169  0.014154777  0.013575577            8 
 3003000    0.7572172   -8.4629868    509.00684  0.014124954  0.013570614           16 
 3004000    0.7667303   -8.4463299    509.26806  0.014127498  0.013565638            9 
 3005000   0.76090183   -8.4662559    509.49311  0.014129038  0.013560678            9 
 3006000   0.77946443   -8.4545509    509.11031  0.014113726  0.013555703           10 
 3007000   0.80235318   -8.4751706    509.36174     0.014116  0.013550734            5 
 3008000    0.7546142   -8.4530086    509.52649  0.014115871   0.01354578           15 
 3009000   0.76038957   -8.4402233    509.11347  0.014099742  0.013540822           11 
 3010000   0.76684548   -8.4650642     508.4769  0.014077433  0.013535856            8 
 3011000   0.76688282   -8.4478695    510.14173  0.014118834  0.013530902            8 
 3012000   0.78520379   -8.4527763    510.28025  0.014117979  0.013525945           12 
 3013000   0.79404743   -8.4408607    509.85309  0.014101479   0.01352099            7 
 3014000   0.77219677   -8.4423643    509.61594  0.014090244  0.013516071            5 
 3015000   0.75919838    -8.431523    510.39966  0.014107232   0.01351114            8 
 3016000   0.77372066    -8.439527    511.07356  0.014121175  0.013506223            3 
 3017000    0.7527686   -8.4275694    510.45141   0.01409931    0.0135013            3 
 3018000   0.77671188   -8.4177917    510.93917  0.014108106  0.013496381            6 
 3019000   0.76999617   -8.4497374    510.97493   0.01410442  0.013491458           13 
 3020000   0.76271722   -8.4231403    509.79296  0.014067135  0.013486514            6 
 3021000   0.77210026   -8.4090372    510.34713  0.014077765  0.013481575            5 
 3022000   0.76573017   -8.4450676    511.23476  0.014097583   0.01347666            5 
 3023000   0.76112805   -8.4277755    509.94587   0.01405739  0.013471743            3 
 3024000   0.77354412   -8.4288262    509.31512  0.014035359  0.013466818            3 
 3025000   0.78305887   -8.4279143    510.65861   0.01406773  0.013461896            4 
 3026000   0.76786814   -8.4353661    509.65086  0.014035329  0.013456966            3 
 3027000   0.75698809   -8.4297013    510.14129  0.014044194  0.013452042            4 
 3028000   0.75753625   -8.4257585    510.05496   0.01403718  0.013447114            6 
 3029000   0.76498628   -8.4434357    510.33686  0.014040301  0.013442207            8 
 3030000   0.77741841    -8.434632    510.18647  0.014031531  0.013437287            4 
 3031000   0.77026761   -8.4643131    510.00816  0.014021999  0.013432352            5 
 3032000    0.7782694   -8.4415881    510.50429  0.014031011  0.013427408            8 
 3033000   0.75916066   -8.4260142    511.11614  0.014043195  0.013422468            9 
 3034000   0.76070425   -8.4365377    510.93457   0.01403358  0.013417555            4 
 3035000   0.76960121    -8.453962    508.67406  0.013966888  0.013412617            9 
 3036000   0.78026135   -8.4526335    509.60999  0.013987977  0.013407666            6 
 3037000   0.77044629   -8.4498654    509.58421  0.013982664  0.013402717            4 
 3038000    0.7836991   -8.4683578    509.81172  0.013984302  0.013397776            6 
 3039000   0.77185287   -8.4536689    509.06765  0.013959297  0.013392818            7 
 3040000   0.76085309   -8.4771856    509.37354   0.01396309  0.013387865            3 
 3041000   0.75001077     -8.48989    509.52895  0.013962757  0.013382912            6 
 3042000   0.76009993   -8.4805236    508.64374  0.013933918  0.013377959            5 
 3043000   0.75452335   -8.4552579    509.85779  0.013962586  0.013373011           18 
 3044000   0.76594881   -8.4341251    509.47457  0.013947508  0.013368067           11 
 3045000   0.77494294    -8.428965    510.65184  0.013975146  0.013363134           10 
 3046000   0.74855471   -8.4460173    508.57093  0.013913628  0.013358214            6 
 3047000   0.76820828   -8.4746961    509.64623   0.01393847  0.013353303            5 
 3048000   0.76762347   -8.4411835    509.45742  0.013928735  0.013348392            8 
 3049000   0.75565916   -8.4500458    509.15387  0.013915871  0.013343478           10 
 3050000   0.75588952   -8.4656308    508.82864  0.013902422  0.013338551           25 
 3051000   0.76715402   -8.4148849    509.69954  0.013921653  0.013333624           13 
 3052000   0.76159445   -8.4471007    508.24584  0.013877398  0.013328706           21 
 3053000    0.7653663   -8.4509692    509.76067  0.013914201  0.013323788           12 
 3054000   0.76164788   -8.4372565     509.6878  0.013907657  0.013318891           16 
 3055000   0.74492534   -8.4200128    510.13397  0.013915275  0.013313995            8 
 3056000      0.75205   -8.4519336    510.64431  0.013924637  0.013309094            5 
 3057000   0.75981829   -8.4507199    510.81683  0.013924785  0.013304187            6 
 3058000   0.76662416    -8.465197    509.10701  0.013873638  0.013299273           17 
 3059000   0.75480307   -8.4608348    509.23821  0.013872676  0.013294364            6 
 3060000   0.76163932   -8.4466884     509.5803  0.013877459  0.013289427           23 
 3061000   0.76422682   -8.4548325    510.30699  0.013892709  0.013284502           13 
 3062000   0.75022476   -8.4475123    509.96877  0.013878967  0.013279606            5 
 3063000   0.75852778   -8.4632553    510.02671  0.013876012  0.013274706           14 
 3064000   0.76063689   -8.4130258    510.75302  0.013891237  0.013269799           14 
 3065000   0.76360469   -8.4603278    508.72475  0.013831559   0.01326489            7 
 3066000   0.75345088   -8.4483011    509.64781  0.013852136  0.013259962           11 
 3067000   0.75875508   -8.4890593    508.80903   0.01382483  0.013255035           18 
 3068000   0.77241219   -8.4718271    508.38943  0.013808926  0.013250113           10 
 3069000   0.75253397   -8.4804946    509.21726  0.013826905  0.013245184            5 
 3070000   0.75731038   -8.4929055    509.92598  0.013841639  0.013240247           17 
 3071000    0.7606973   -8.4724323    509.78334  0.013833261  0.013235303            4 
 3072000   0.76153993   -8.4749733    509.23935  0.013814001  0.013230379            4 
 3073000   0.75603541   -8.4597023    508.87418  0.013799604   0.01322547            8 
 3074000   0.75967578   -8.4845283     509.3751  0.013808694  0.013220555           11 
 3075000   0.74772023   -8.5045333    508.75209   0.01378732  0.013215637           13 
 3076000    0.7617822   -8.4826132    508.67177  0.013780661  0.013210723            9 
 3077000   0.76434362   -8.4851989    509.39883  0.013795874  0.013205813            9 
 3078000   0.75023481   -8.4514677    509.96722   0.01380678  0.013200911           21 
 3079000   0.75947488   -8.4689481    510.30076  0.013811323  0.013196016           13 
 3080000   0.74806376   -8.4636193     510.3856  0.013809134  0.013191117           13 
 3081000   0.75916793   -8.4870783    508.75273  0.013760487  0.013186212            5 
 3082000   0.77075888   -8.4730427    508.58193  0.013751404  0.013181325            7 
 3083000   0.77243792   -8.4716516    510.31775  0.013793863  0.013176433            4 
 3084000    0.7457917   -8.4204098    510.98995  0.013807554  0.013171566           10 
 3085000   0.75997507   -8.4289605    510.58039  0.013792015  0.013166713            8 
 3086000   0.76256442   -8.4516741    509.11896  0.013748082   0.01316186            6 
 3087000   0.73514245    -8.473214    510.29065  0.013775258  0.013156989            7 
 3088000   0.75907099   -8.4636427    509.24016  0.013742448  0.013152117            5 
 3089000   0.75819211   -8.4629792    510.42976  0.013770092  0.013147252            5 
 3090000   0.76777011   -8.4787499    509.12482  0.013730443  0.013142382           16 
 3091000   0.74838701   -8.4744126    509.11084  0.013725624  0.013137505            6 
 3092000   0.76577701   -8.4625139    510.42457  0.013756592  0.013132634            5 
 3093000   0.76342502   -8.4780416    509.33904  0.013722897  0.013127759            4 
 3094000   0.75774878   -8.4745651    509.37077  0.013719316  0.013122869           16 
 3095000   0.76439292   -8.4668966    509.58297  0.013720597  0.013117983            9 
 3096000   0.75010812   -8.4714494    510.13335  0.013730979  0.013113114           18 
 3097000   0.75820268   -8.4859852    510.08869  0.013725344  0.013108255            9 
 3098000   0.75616498   -8.4794669    508.72317  0.013684183  0.013103385           10 
 3099000    0.7528949    -8.459895    510.39849  0.013724817  0.013098518            8 
 3100000   0.75226826   -8.4748227    510.97132  0.013735788  0.013093663           10 
 3101000   0.75174576   -8.4898284     509.3892  0.013688842  0.013088793           13 
 3102000   0.75459419   -8.4780603    509.79317  0.013695282  0.013083928            6 
 3103000   0.76016443   -8.4502158    509.76888  0.013690216  0.013079071            4 
 3104000   0.75497407   -8.4533475    509.55761  0.013680134  0.013074216           10 
 3105000   0.76615804   -8.4709076    509.55222  0.013675583  0.013069365           11 
 3106000   0.76025821   -8.4635466    509.44711   0.01366836  0.013064511           21 
 3107000   0.74998888   -8.4505496    510.50114  0.013692231  0.013059662            6 
 3108000   0.76075615   -8.4740815    509.51543  0.013661396  0.013054814            8 
 3109000   0.74668425   -8.4988308    509.51758   0.01365706  0.013049952           29 
 3110000   0.75129936   -8.4462963    510.16726  0.013670077  0.013045081           21 
 3111000   0.75634554   -8.4598143    510.44565   0.01367314  0.013040235           10 
 3112000   0.74637227   -8.4626024    509.41439  0.013641131  0.013035386           14 
 3113000   0.75938548   -8.4798491    510.83064  0.013674661  0.013030555            6 
 3114000   0.75945811   -8.4535812    509.89725  0.013645291  0.013025714           16 
 3115000   0.75293596   -8.5031273    510.12309  0.013646953  0.013020864           14 
 3116000   0.75988273   -8.4381791    510.82328  0.013661299  0.013016033           12 
 3117000    0.7549116   -8.4666375    510.23001  0.013641055  0.013011216            5 
 3118000   0.75392514   -8.4627696    510.44475  0.013642419  0.013006398            8 
 3119000   0.75731875   -8.4675554    509.86996  0.013622688  0.013001577            7 
 3120000   0.75135575   -8.4767752    508.64812  0.013585687  0.012996759            9 
 3121000    0.7396479   -8.4799676    509.88192  0.013614278  0.012991926           11 
 3122000   0.74929392   -8.4344183    510.74273  0.013632894  0.012987092           13 
 3123000   0.73261711   -8.4655688    509.96543  0.013607787  0.012982267            6 
 3124000   0.74582039   -8.4651587    509.11594  0.013580771  0.012977428           11 
 3125000   0.75572063   -8.4615052    509.44959  0.013585322  0.012972593           11 
 3126000   0.76412835   -8.4859502    509.11867  0.013572155  0.012967744            9 
 3127000   0.75780777   -8.4796438    508.97783  0.013564061  0.012962904           15 
 3128000   0.75867514   -8.4852935    509.43997  0.013572037  0.012958051            6 
 3129000   0.74304749   -8.4862957    509.61754  0.013572428  0.012953223            5 
 3130000   0.74714592   -8.5025013    508.51382  0.013538707  0.012948379            2 
 3131000   0.74612751   -8.4772765     509.9068  0.013571457  0.012943523           12 
 3132000    0.7605717    -8.504849    508.49716  0.013529618  0.012938684           12 
 3133000   0.75331205   -8.5271531    508.51161  0.013525684  0.012933827            6 
 3134000   0.75532529   -8.4807945    510.05517  0.013562411   0.01292897            4 
 3135000   0.73486611   -8.4883663    509.31264  0.013538348  0.012924139            2 
 3136000   0.76073922   -8.4754179    508.95621  0.013524559  0.012919286            4 
 3137000   0.74440247   -8.5075636    508.72556  0.013514121  0.012914433            4 
 3138000   0.75233504   -8.4807348    509.83565  0.013539294  0.012909583            4 
 3139000   0.74676425    -8.478516    509.36215   0.01352241  0.012904738            7 
 3140000   0.75447572   -8.4946055    509.92233  0.013532971  0.012899892            4 
 3141000   0.75339513   -8.5082542    509.12893  0.013507612  0.012895033            7 
 3142000   0.74263528   -8.4810479    509.46059   0.01351211   0.01289018            9 
 3143000   0.76984213   -8.5205215    509.31909  0.013504059  0.012885324            8 
 3144000   0.75362325   -8.4974123    508.48644  0.013477694  0.012880484            4 
 3145000   0.73474293   -8.4942117    508.78994   0.01348145  0.012875655            4 
 3146000   0.74119055   -8.5313777    508.64274  0.013473266  0.012870819           10 
 3147000   0.74686848   -8.5103231    509.11485  0.013481486  0.012865964            7 
 3148000   0.75166666   -8.4695273    508.92886   0.01347228  0.012861137            7 
 3149000   0.75637946   -8.5144457    507.78116   0.01343763  0.012856313           11 
 3150000   0.74405096   -8.4919575     509.6586  0.013483032  0.012851493            5 
 3151000   0.73661109   -8.4739244    510.14802  0.013491696  0.012846683            5 
 3152000   0.73544666   -8.4706247    509.98167  0.013483018  0.012841879            7 
 3153000   0.74326433   -8.4982973    508.89904  0.013450128  0.012837056            5 
 3154000   0.74123186   -8.4939868    508.80184  0.013443295  0.012832222            9 
 3155000   0.73547717   -8.5002412    508.79923  0.013438965  0.012827407            4 
 3156000   0.74123402   -8.4957023       508.79  0.013434464  0.012822578            6 
 3157000   0.75300661   -8.4993981    509.96184   0.01346114  0.012817751            5 
 3158000   0.75620402   -8.4931524    510.57098  0.013472952  0.012812942            3 
 3159000   0.75336356   -8.5114448    509.35186  0.013436527  0.012808125            6 
 3160000   0.74668649   -8.5193979    509.33185  0.013431747  0.012803301            5 
 3161000   0.73647707   -8.4985946    509.23265  0.013424883  0.012798487            6 
 3162000   0.74482246   -8.5049699    508.60828  0.013404182  0.012793669            8 
 3163000   0.73884402    -8.515487    509.03724  0.013411246  0.012788855            3 
 3164000   0.72740066   -8.4964277    510.10827  0.013435216  0.012784045            5 
 3165000   0.74864019   -8.5042373    509.04631   0.01340301  0.012779251            7 
 3166000   0.74882757   -8.5026743    509.50959  0.013410971  0.012774468            3 
 3167000   0.76022802   -8.5168543    509.20289  0.013398666   0.01276969            6 
 3168000    0.7471418   -8.5088121    509.72075  0.013408058    0.0127649            6 
 3169000   0.74473076   -8.5030768    510.07028  0.013413019  0.012760113           15 
 3170000   0.74631778   -8.4923503    509.49143  0.013393571  0.012755321           12 
 3171000   0.74797366   -8.5500371    508.49012  0.013363033  0.012750536           14 
 3172000   0.73828334   -8.5373325    509.91033  0.013396131   0.01274574            6 
 3173000   0.74527417   -8.5382667    509.09377  0.013370463  0.012740944           14 
 3174000   0.75194335   -8.5256931    509.56651  0.013378663  0.012736153           12 
 3175000   0.76828202   -8.5149248    509.10108  0.013362233  0.012731356           15 
 3176000   0.75455803   -8.5473923    508.80718  0.013350314  0.012726568            7 
 3177000   0.75263449   -8.5422677    509.01622  0.013351595  0.012721772            9 
 3178000   0.74418625   -8.5208977    508.13864  0.013324382  0.012716979            6 
 3179000   0.74863527   -8.5263314    508.42058  0.013327581  0.012712193            5 
 3180000   0.74608725   -8.5260393    509.34307  0.013347565  0.012707404           10 
 3181000   0.75063335   -8.5420781    508.58926  0.013323621  0.012702632            6 
 3182000   0.74533011   -8.5005866    510.30961  0.013364488  0.012697868            6 
 3183000   0.74584717   -8.5376987    509.46119  0.013338077  0.012693108           10 
 3184000   0.74037464   -8.5390514    509.51505  0.013335298  0.012688332            4 
 3185000   0.73530569   -8.5453213    508.95592  0.013316481  0.012683569            7 
 3186000   0.74164198   -8.5239727    509.21501  0.013319079  0.012678797            6 
 3187000   0.74614549   -8.5196396    509.41089  0.013320021  0.012674023           14 
 3188000   0.73498685   -8.5546804    508.70578  0.013297412  0.012669262            8 
 3189000   0.73926323    -8.530721    510.02256  0.013327651  0.012664502            8 
 3190000   0.74259684   -8.5331461    509.49462  0.013309682  0.012659733            5 
 3191000   0.73879271   -8.5248953     510.3857  0.013328781  0.012654964            9 
 3192000   0.76038542   -8.4943441    510.72492  0.013333462  0.012650198            5 
 3193000    0.7476154   -8.5208361    508.72884  0.013277191  0.012645442            3 
 3194000   0.73447421   -8.5382058    509.58841   0.01329546   0.01264069            4 
 3195000   0.74533806   -8.5201549    509.58653   0.01329125  0.012635943            9 
 3196000   0.74773279   -8.4920749    509.70349  0.013290141    0.0126312           13 
 3197000   0.74128488   -8.5156137    508.35757  0.013250901  0.012626449            4 
 3198000   0.74019002   -8.5275977    508.85092  0.013259613  0.012621709            8 
 3199000   0.72919085   -8.5217999    508.83007  0.013254925  0.012616958            5 
 3200000   0.74685523   -8.4960123    510.28528  0.013288679  0.012612215            7 
 3201000   0.74362401   -8.5452503    508.12015  0.013228162  0.012607479            8 
 3202000   0.72916166   -8.5356958    509.17379  0.013251452  0.012602733           16 
 3203000   0.75204551    -8.510524    509.09511  0.013245268  0.012597988            6 
 3204000   0.75517215   -8.5115229    509.02287  0.013239255  0.012593253            4 
 3205000   0.74602716   -8.5077165    510.01866  0.013261016  0.012588525           12 
 3206000   0.74749849   -8.5212102    509.17867  0.013235046  0.012583802            8 
 3207000   0.74652236   -8.5185874    509.54323  0.013240392  0.012579072           14 
 3208000   0.74754417   -8.4944927    509.91534  0.013245931  0.012574356           15 
 3209000    0.7337098   -8.4941984    510.31536  0.013252191  0.012569641            5 
 3210000   0.72424823   -8.5367069    509.75864   0.01323361  0.012564928            7 
 3211000   0.75020091   -8.5455741    509.59392  0.013225213  0.012560208            8 
 3212000   0.74160466    -8.537318    510.62188  0.013247766  0.012555485            7 
 3213000   0.74371513   -8.5300948    508.66054  0.013192773  0.012550757           11 
 3214000   0.73480597   -8.5126534     508.1131  0.013174474  0.012546028            6 
 3215000   0.73051822   -8.5138062    509.17683  0.013197948  0.012541294            5 
 3216000   0.73333293   -8.5291884    508.65652  0.013180362  0.012536567            9 
 3217000   0.74497931    -8.497232    510.89844  0.013234339  0.012531862            8 
 3218000   0.75867904   -8.5003026    509.29989  0.013188831  0.012527155            7 
 3219000   0.73373936   -8.5352005     509.5991   0.01319248   0.01252245           14 
 3220000   0.73324869   -8.5236987    510.00352  0.013198849  0.012517747           11 
 3221000   0.74137509   -8.5411082    510.15281  0.013198614  0.012513045            7 
 3222000   0.72260392   -8.5131963    508.86257  0.013161147  0.012508345           11 
 3223000   0.71602253   -8.5218198    509.66569  0.013177828  0.012503646            9 
 3224000   0.72495931   -8.5433498    509.32039  0.013164816  0.012498943            7 
 3225000    0.7374473   -8.5190504    509.54669  0.013166581   0.01249424           12 
 3226000   0.73507683   -8.5205934    509.89371  0.013171464  0.012489544           10 
 3227000   0.70930632   -8.5538784    508.37648  0.013128202  0.012484842            5 
 3228000   0.73349692   -8.5193501    508.54989  0.013128611  0.012480141           19 
 3229000   0.74420977   -8.5200606    509.37621  0.013145871  0.012475442            5 
 3230000   0.73276797   -8.5158749    509.39958  0.013142404  0.012470743            4 
 3231000   0.72308203   -8.5473951    507.83196  0.013097905  0.012466053           12 
 3232000    0.7435647   -8.5401926    510.08647  0.013151982  0.012461361            6 
 3233000   0.74166786   -8.5510778    508.73679  0.013113125  0.012456667            3 
 3234000   0.75118224   -8.5699966    508.61656  0.013105972  0.012451981           12 
 3235000   0.73479881   -8.5527134    509.13593    0.0131153  0.012447291           11 
 3236000   0.72401767   -8.5435743    509.57584  0.013122575  0.012442598            6 
 3237000   0.73970433   -8.5316322    509.73428    0.0131226  0.012437904            6 
 3238000   0.72976097   -8.5330755    508.10153  0.013076527  0.012433211            6 
 3239000   0.73530722   -8.5524986     508.4172  0.013080611   0.01242853            3 
 3240000   0.73190164   -8.5441851     509.3064  0.013099444  0.012423833            8 
 3241000   0.72688196   -8.5424513    509.55959  0.013101913  0.012419151            5 
 3242000   0.71877735   -8.5564537    509.61097  0.013099192  0.012414457            6 
 3243000   0.72520418   -8.5539973    509.00771  0.013079651  0.012409764            7 
 3244000   0.73540036   -8.5350928    508.89424  0.013072704  0.012405074           12 
 3245000   0.73467438   -8.5533933    509.41788  0.013082123  0.012400394            5 
 3246000   0.73226135   -8.5635931    509.64223  0.013083853  0.012395716            4 
 3247000   0.72976694   -8.5588725    508.87428  0.013060114  0.012391027            3 
 3248000   0.72585688   -8.5387536    509.29868  0.013066982  0.012386345            2 
 3249000   0.73586683   -8.5463522    509.32334  0.013063592   0.01238167            9 
 3250000   0.72534327   -8.5705299    509.08997  0.013053589  0.012376996           11 
 3251000   0.71938138   -8.5481204    509.19843  0.013052354  0.012372319           14 
 3252000   0.73844755   -8.5721576    509.09235  0.013045622   0.01236765            6 
 3253000   0.72219426    -8.570444    509.13792  0.013042779  0.012362977            3 
 3254000    0.7314141   -8.5232292    509.76053  0.013054715  0.012358308            6 
 3255000    0.7371766   -8.5353886    510.27176  0.013063793  0.012353642            5 
 3256000   0.72434109   -8.5638808     509.8419  0.013048779  0.012348978            7 
 3257000   0.73972589   -8.5572305    509.63053  0.013039365  0.012344316            6 
 3258000   0.70718403   -8.5429257     508.6675   0.01301073  0.012339663            4 
 3259000   0.73070731   -8.5599069     508.6031  0.013005091   0.01233501            5 
 3260000   0.73063209   -8.5353204    509.30094   0.01301894  0.012330345            4 
 3261000   0.74506892   -8.5549414    510.05233  0.013034149  0.012325688            8 
 3262000   0.73225366   -8.5651345    508.32725  0.012986084  0.012321027           10 
 3263000   0.72881317   -8.5463607    509.59048  0.013014365  0.012316377           11 
 3264000   0.73821313   -8.5681729     508.3048  0.012977553  0.012311728           13 
 3265000   0.72692787   -8.5424656    508.85383  0.012987591  0.012307073           18 
 3266000   0.72345288   -8.5492013    508.95174  0.012986113  0.012302427           12 
 3267000   0.72374643   -8.5479455    508.99431  0.012983224  0.012297778           11 
 3268000   0.72255588   -8.5785228    508.87848  0.012976297  0.012293119            7 
 3269000   0.72847432   -8.5339766    509.45129   0.01298693  0.012288482            7 
 3270000   0.72825753   -8.5518886    509.83484  0.012992733   0.01228384           13 
 3271000   0.73534167   -8.5298402    510.02434  0.012993588  0.012279211            8 
 3272000   0.72650768   -8.5388517    509.07956  0.012965555  0.012274581            5 
 3273000   0.72121378   -8.5485661    509.53773  0.012973259  0.012269952            5 
 3274000   0.73558891   -8.5125661    510.06865   0.01298281  0.012265334            5 
 3275000   0.71949276   -8.5265347    509.72463  0.012970092  0.012260718           11 
 3276000   0.73214764   -8.5183987    510.00887  0.012973364  0.012256118            6 
 3277000   0.73649904   -8.5164941    509.96627  0.012968321  0.012251515            4 
 3278000   0.72345575   -8.5378205    510.28104  0.012972367  0.012246909            5 
 3279000   0.71777005   -8.5419525    510.25237  0.012967682  0.012242303            5 
 3280000   0.71656775   -8.5443428    509.51786  0.012945068  0.012237698            7 
 3281000   0.72460933   -8.5607602    509.16081  0.012932053  0.012233075            6 
 3282000    0.7151475   -8.5759384    509.43951   0.01293519  0.012228456            9 
 3283000    0.7356928   -8.5473334    508.55113    0.0129087  0.012223841            5 
 3284000    0.7203747   -8.5392005    508.94282  0.012914708  0.012219224            6 
 3285000   0.73184762   -8.5803117    509.57637  0.012926849  0.012214624            9 
 3286000   0.71914873   -8.5292169    509.14653  0.012912014  0.012210019            9 
 3287000   0.73400913   -8.5538293    509.40738  0.012914699  0.012205427           10 
 3288000   0.73122194   -8.5414699    509.67683    0.0129176  0.012200838            8 
 3289000   0.73638222   -8.5202414    510.15132  0.012925695  0.012196256           11 
 3290000    0.7293521   -8.5291124    510.77366  0.012937529  0.012191668            4 
 3291000   0.73691082   -8.5452094    509.53452  0.012902221  0.012187076            6 
 3292000    0.7248111   -8.5606818    509.42614  0.012895558   0.01218248            9 
 3293000   0.72037028   -8.5488745    509.65492  0.012897432  0.012177875           10 
 3294000   0.72473797   -8.5643461    508.80987  0.012872138  0.012173282            7 
 3295000   0.74115798   -8.5789084    509.09161  0.012875357  0.012168687            9 
 3296000   0.73651309   -8.5513399    509.28197  0.012876263  0.012164089            8 
 3297000   0.71935621   -8.5624103    509.15768  0.012869217  0.012159494           10 
 3298000   0.71933289   -8.5460633    509.40879  0.012871659  0.012154894            5 
 3299000   0.73026996   -8.5460267    508.60015  0.012847331  0.012150294           16 
 3300000   0.72010515     -8.55921    509.34717  0.012862302  0.012145714           19 
 3301000   0.73749737   -8.5689493    509.09084  0.012851935  0.012141133           18 
 3302000   0.71303224   -8.5540719    509.52495  0.012858998  0.012136539           15 
 3303000   0.72699641   -8.5579905    509.62888  0.012857727  0.012131957           11 
 3304000   0.73188414   -8.5361536    508.81522  0.012833314  0.012127391            6 
 3305000    0.7141535   -8.5325067    509.36204  0.012843218  0.012122821           18 
 3306000   0.71775627   -8.5597356    508.49932  0.012817587  0.012118246           24 
 3307000   0.72854887   -8.5754958    508.95533  0.012825202  0.012113671           19 
 3308000   0.72921149   -8.5776185    509.30165   0.01283005  0.012109099           21 
 3309000   0.73981487   -8.5650857    508.64459  0.012809625  0.012104524           10 
 3310000   0.73058757   -8.5555625    509.35691  0.012823689  0.012099944           11 
 3311000   0.70761694   -8.5627581    508.71033  0.012803542   0.01209536           22 
 3312000   0.71061954   -8.5694645    509.12712  0.012810163  0.012090792           15 
 3313000   0.71876908   -8.5363118    509.01058  0.012803365  0.012086211           12 
 3314000   0.71329208   -8.5688433    508.56785  0.012788369  0.012081631            7 
 3315000   0.70955748   -8.5794008    508.39851  0.012780254  0.012077052           18 
 3316000   0.72068036   -8.5686619    509.77016  0.012810871  0.012072463           16 
 3317000   0.72238482   -8.5672388    509.33346  0.012796037  0.012067877           11 
 3318000   0.71885628   -8.5616277    508.53893  0.012772226  0.012063306           13 
 3319000   0.73291803   -8.5530208    508.97568  0.012779343  0.012058725            9 
 3320000   0.73605303   -8.5425003    509.49213  0.012788457  0.012054154           19 
 3321000   0.71759122   -8.5703375    509.32676  0.012780457   0.01204959           15 
 3322000   0.72956207   -8.5950801    508.47724  0.012755299  0.012045012           16 
 3323000   0.70658616   -8.5659366    509.23246    0.0127704  0.012040433           25 
 3324000   0.72362148   -8.5918254    509.14579  0.012764385  0.012035864           13 
 3325000   0.71598777   -8.5695028    510.66204  0.012798547  0.012031303           12 
 3326000   0.72610096   -8.5797238    508.43371  0.012738868  0.012026746           18 
 3327000   0.71382113   -8.5729801    508.34459  0.012732807  0.012022176           21 
 3328000   0.71949382   -8.5761741    509.02246  0.012745955   0.01201761           17 
 3329000   0.71555614   -8.5784309    508.69403  0.012733905  0.012013041           17 
 3330000   0.71609063   -8.5799819    509.45912  0.012749227  0.012008482           25 
 3331000   0.71658678   -8.5670639    509.44821  0.012745127   0.01200394            7 
 3332000   0.71950163   -8.5905404    509.07054  0.012731856  0.011999386           14 
 3333000   0.71855301   -8.5546816    509.28388   0.01273337  0.011994847           27 
 3334000   0.73155242   -8.5816971    509.41977  0.012732948  0.011990307            9 
 3335000   0.71455228   -8.5790493     508.3449  0.012702271  0.011985763            6 
 3336000   0.72080377   -8.5830899    508.73504  0.012708209  0.011981214           10 
 3337000   0.71846425   -8.5680805    508.66692    0.0127027  0.011976667            6 
 3338000   0.71878147   -8.5793119    508.74915  0.012700947  0.011972121           15 
 3339000   0.71011753    -8.585709    508.62938  0.012694154  0.011967572            4 
 3340000   0.70973763   -8.5995535    508.07502  0.012676522  0.011963025            8 
 3341000    0.7131153   -8.5972376    508.07737  0.012672787  0.011958466            6 
 3342000   0.70684388   -8.5739104    508.78237  0.012686574  0.011953926            8 
 3343000    0.7089054   -8.5886179    509.30624  0.012695838  0.011949399            7 
 3344000   0.71312706   -8.5867462    508.83819  0.012680377  0.011944874            5 
 3345000   0.71863954   -8.5743565    508.24083  0.012661705  0.011940338            7 
 3346000   0.71866645   -8.6075918    508.64519  0.012667991  0.011935789            9 
 3347000   0.71757697   -8.5932718    508.92138  0.012671083  0.011931244            8 
 3348000   0.70677781   -8.6111865     507.5281  0.012632619  0.011926704            7 
 3349000   0.71141291   -8.6226262    508.85846   0.01266195  0.011922164           10 
 3350000   0.70951283    -8.612563    508.35482  0.012645642  0.011917617            6 
 3351000   0.70730496   -8.6053254    508.21837  0.012638475  0.011913069            5 
 3352000   0.70291096   -8.5859082    509.23092  0.012659878  0.011908526            9 
 3353000   0.69708947   -8.5927248    508.51444  0.012638295  0.011903974            7 
 3354000   0.69965313    -8.601171    508.40508   0.01263181  0.011899433            8 
 3355000   0.72922921   -8.5961073    508.36549  0.012627061  0.011894901            5 
 3356000    0.7143302   -8.6046466    508.35117  0.012622943  0.011890365            4 
 3357000    0.7016126   -8.6038349    507.92538  0.012608613  0.011885824           12 
 3358000   0.70606094   -8.6116795    508.13253  0.012609999  0.011881289            9 
 3359000   0.71230669   -8.5866981    509.33126  0.012635985   0.01187677            5 
 3360000   0.72133689   -8.6066501      508.519  0.012612078   0.01187225            7 
 3361000   0.71121144   -8.5902791       509.06  0.012621739  0.011867744           22 
 3362000   0.70790365   -8.5737293    509.17459  0.012620826  0.011863239            7 
 3363000   0.71411822   -8.5882172    508.70487  0.012605433  0.011858726           10 
 3364000   0.71065449   -8.5887667    508.22454  0.012589788  0.011854215            9 
 3365000   0.71749759   -8.5995954    508.36504  0.012589526  0.011849712           12 
 3366000   0.71391435   -8.5865231    509.60774  0.012616551   0.01184522           25 
 3367000   0.72331347   -8.5829997    510.09654  0.012624902   0.01184072           12 
 3368000   0.69729885   -8.6003429    508.07515  0.012571139  0.011836221            6 
 3369000   0.71617914   -8.5611967    510.10482  0.012617612  0.011831725           10 
 3370000   0.71032943   -8.5825623     508.2014    0.0125668  0.011827228            9 
 3371000   0.73381827   -8.6107308    508.94375  0.012581424  0.011822731            6 
 3372000   0.71475833   -8.6084146    507.49723  0.012541944  0.011818238           13 
 3373000   0.70923285   -8.5991445     508.5885  0.012565187  0.011813741           10 
 3374000   0.70039699   -8.6091673    508.31913   0.01255481  0.011809242            7 
 3375000   0.72284008   -8.5913686     509.5709  0.012581998  0.011804749           10 
 3376000   0.73040832   -8.6137069    509.27051  0.012570856  0.011800254           15 
 3377000   0.68979231   -8.5585106    509.13805  0.012563865  0.011795764           18 
 3378000   0.71207808   -8.5988912    508.75096  0.012550596  0.011791275           15 
 3379000   0.70741988   -8.5975748    509.38233  0.012562453   0.01178679           16 
 3380000   0.71601733   -8.5906821    509.34377  0.012557785  0.011782306           14 
 3381000   0.72030424   -8.6141489    508.62285  0.012536302  0.011777815           14 
 3382000   0.71800156   -8.5779584      509.385  0.012551375  0.011773334            5 
 3383000   0.71457688   -8.5929986    506.89443  0.012486315  0.011768853            6 
 3384000   0.72094456   -8.6062388    509.15288  0.012538241  0.011764366            9 
 3385000   0.70490299   -8.5993658    508.54415  0.012519551  0.011759878           11 
 3386000   0.70944285    -8.614517    508.04179   0.01250349  0.011755397            9 
 3387000   0.70698165   -8.5815715    509.46761  0.012534879  0.011750913            6 
 3388000   0.71579164   -8.6148971     506.9205  0.012468529  0.011746426           12 
 3389000   0.72412041    -8.614705    507.83674  0.012487379  0.011741949           13 
 3390000   0.71478679   -8.6209281    508.73567  0.012505793  0.011737471           11 
 3391000   0.70763678   -8.6141547    508.50708  0.012496488  0.011733006           14 
 3392000   0.71024521   -8.5805382    509.61779  0.012520091  0.011728542           11 
 3393000   0.70699962   -8.5846459     509.5577  0.012514925  0.011724081            9 
 3394000    0.7161393   -8.5990759    508.10801  0.012475644  0.011719625           19 
 3395000   0.71197675   -8.6063773    508.73275  0.012487304  0.011715159           25 
 3396000   0.70927328   -8.6317286    508.36075  0.012474498  0.011710693            5 
 3397000   0.70630318   -8.5936146    509.16365  0.012490522  0.011706238           18 
 3398000    0.7160224   -8.5837971    508.23491   0.01246407  0.011701784           14 
 3399000   0.70250548   -8.6117535     507.7873  0.012449429  0.011697338           11 
 3400000   0.68835347   -8.6134467     508.2402  0.012456868  0.011692896           10 
 3401000   0.70344174   -8.5710142    509.06892  0.012473511  0.011688449           19 
 3402000   0.72404393   -8.5865103    508.78699  0.012462938  0.011684001           10 
 3403000   0.72331868   -8.5958436     508.5834   0.01245429  0.011679557           17 
 3404000   0.70995444   -8.6077203    508.41384  0.012446481  0.011675118           10 
 3405000   0.69819006   -8.5944567    507.91435  0.012430601  0.011670673            5 
 3406000   0.70306888   -8.6017419    508.78328  0.012448211  0.011666232           12 
 3407000   0.71550748   -8.6158222    508.05513  0.012426747  0.011661783           10 
 3408000   0.70347485   -8.5958823    508.37083   0.01243082  0.011657331            4 
 3409000   0.69944039   -8.6246865    507.77747  0.012412669  0.011652882            9 
 3410000   0.71403855   -8.6105331     508.0853  0.012416552  0.011648434           13 
 3411000   0.69023855   -8.6143579    508.05188  0.012412095  0.011643981           11 
 3412000   0.69123173   -8.6357443    507.65419  0.012398744  0.011639522            5 
 3413000   0.70767399   -8.6209401    508.20659  0.012408599   0.01163507           12 
 3414000   0.70971978   -8.6338659    507.83279   0.01239584  0.011630633            5 
 3415000   0.68951621    -8.652375    507.93448  0.012394692  0.011626189            5 
 3416000   0.69169811   -8.6268961    507.56984  0.012382168  0.011621738           11 
 3417000   0.69912888   -8.6154044    507.40862  0.012374613  0.011617292           15 
 3418000   0.71645958   -8.6024283    508.61578  0.012400424  0.011612856           12 
 3419000    0.6955818   -8.6236636    507.80774  0.012377102  0.011608427            6 
 3420000    0.7028308   -8.6236143    508.94443   0.01240118  0.011603999           17 
 3421000   0.69898906   -8.6119895    508.29177  0.012381657  0.011599568           17 
 3422000   0.68660924   -8.6376982    507.73796  0.012364552  0.011595134            4 
 3423000   0.69474131   -8.6192653    508.42774  0.012377733    0.0115907            6 
 3424000   0.69711761   -8.6208371    508.04523  0.012364808   0.01158628           18 
 3425000   0.69125016   -8.6412237    508.45702  0.012371217  0.011581863           11 
 3426000   0.71265122   -8.6491411    508.18502   0.01236099  0.011577433           10 
 3427000   0.68999866   -8.6425253    508.45279  0.012363894  0.011573016            6 
 3428000   0.70743942   -8.6250757    508.70498  0.012366418    0.0115686            7 
 3429000   0.68962883   -8.6328822    508.12541  0.012348727  0.011564176            8 
 3430000   0.69755795    -8.632608    507.02462  0.012318382  0.011559755            6 
 3431000   0.70479292   -8.6056052     508.7207  0.012355987  0.011555339           10 
 3432000   0.70018591    -8.639575     508.6003  0.012349463  0.011550918            7 
 3433000   0.70395616   -8.6072777    508.33323  0.012339383  0.011546499           11 
 3434000   0.69805425   -8.6384114    508.59737    0.0123422  0.011542084            7 
 3435000   0.70359639   -8.6471341    507.97643  0.012323543  0.011537663            6 
 3436000    0.7171767   -8.6671789    508.12194  0.012323485  0.011533246            9 
 3437000   0.72046765   -8.6574139    506.61813  0.012283438  0.011528824           11 
 3438000   0.70351773   -8.6320496    507.85167  0.012309765  0.011524396            9 
 3439000   0.68877782   -8.6663967    508.22132  0.012315143  0.011519967           10 
 3440000   0.71534124   -8.6798973     507.3287  0.012289939  0.011515537            5 
 3441000   0.69999009   -8.6639922    506.87636  0.012275413  0.011511104            9 
 3442000   0.70452272    -8.649945    506.93479  0.012273261  0.011506676            6 
 3443000   0.69724245   -8.6679431     506.4576  0.012258147  0.011502244           10 
 3444000   0.70276764   -8.6685438    506.61148  0.012258311   0.01149781            7 
 3445000   0.70990594   -8.6534384    506.47479  0.012251446  0.011493393            6 
 3446000   0.71580973   -8.6715136    506.59765  0.012250862  0.011488963           10 
 3447000   0.69553974   -8.6456011    507.72783  0.012274631  0.011484535            7 
 3448000   0.70763691    -8.657806    507.29308  0.012260564  0.011480114            4 
 3449000    0.7269042   -8.6642415    506.80345  0.012245178  0.011475696            8 
 3450000   0.70696143   -8.6629708    507.46058  0.012257502  0.011471275            5 
 3451000   0.69027806   -8.6377321    507.81935  0.012262614  0.011466873            5 
 3452000   0.69674064   -8.6303211    507.80244  0.012258653  0.011462464            4 
 3453000   0.69778885   -8.6654813    507.10941  0.012238377  0.011458075            7 
 3454000   0.71157447   -8.6526367    508.04293  0.012257357  0.011453679            2 
 3455000   0.73081795   -8.6618174    506.99289  0.012228483  0.011449296            4 
 3456000   0.68733487   -8.6358752    507.38145  0.012234313  0.011444917            7 
 3457000   0.69349771   -8.6679493    508.21401  0.012250844  0.011440524            8 
 3458000   0.69936744     -8.63223    508.39154  0.012251579  0.011436141            4 
 3459000   0.71675004   -8.6458792    507.82373  0.012234358  0.011431763            4 
 3460000   0.68579841   -8.6358723    507.13956  0.012214344  0.011427379           10 
 3461000   0.68613587    -8.643761    507.37198  0.012216411  0.011423002            9 
 3462000    0.6951624   -8.6571515    507.83057  0.012223921  0.011418629            4 
 3463000   0.69906608   -8.6650012    506.97554  0.012199816  0.011414257            6 
 3464000   0.70385997   -8.6577358    507.16388  0.012200825  0.011409878           11 
 3465000   0.69884909    -8.651093    507.84989  0.012213802  0.011405501            6 
 3466000   0.69955269     -8.65147    507.60003  0.012204271  0.011401133            5 
 3467000   0.71066508   -8.6537584    507.77642   0.01220499  0.011396751            6 
 3468000   0.69522965   -8.6677051    508.16609  0.012210834  0.011392381            5 
 3469000   0.70061751    -8.666679    507.49963  0.012191305  0.011388012            3 
 3470000    0.6790864   -8.6579726    508.59382  0.012214069   0.01138365            4 
 3471000   0.68095305      -8.6564     506.9941  0.012172143  0.011379288            4 
 3472000   0.68274634   -8.6478683    508.04957   0.01219397  0.011374928            4 
 3473000   0.69150495   -8.6487912    507.42712  0.012175523  0.011370569           12 
 3474000   0.69534009   -8.6551411    508.64296  0.012201184  0.011366216            2 
 3475000   0.69209266   -8.6347396     508.0244  0.012182839  0.011361871            4 
 3476000   0.71083119   -8.6314387     508.7099  0.012195769  0.011357533            4 
 3477000    0.6966882    -8.644327    508.40445   0.01218494  0.011353197            4 
 3478000   0.70538032    -8.655539    508.05219  0.012172997   0.01134886            4 
 3479000   0.69531498   -8.6648055    507.34664  0.012152598  0.011344524            4 
 3480000   0.69842072   -8.6530836    509.06208  0.012190184  0.011340188            4 
 3481000   0.68379464   -8.6235902     507.8966  0.012158781   0.01133584            9 
 3482000   0.67845015    -8.638312    507.25701  0.012139982  0.011331495            9 
 3483000    0.6931041   -8.6878658    508.29954   0.01216144  0.011327155            4 
 3484000   0.69360781   -8.6760357    507.28247  0.012133622  0.011322806           10 
 3485000   0.68891166   -8.6616716    507.70658  0.012140282  0.011318469            4 
 3486000    0.6919677   -8.6718224    507.42365  0.012130036  0.011314127            5 
 3487000   0.70119736   -8.6681012    507.93965  0.012138888  0.011309787            5 
 3488000   0.71136441   -8.6770087    507.67755  0.012129146   0.01130545            5 
 3489000   0.67748061    -8.686609    507.29502  0.012116533  0.011301098            9 
 3490000   0.69161845   -8.6425507    508.32539  0.012137665  0.011296756            3 
 3491000   0.68871219   -8.6413988    507.51213  0.012114774  0.011292415            6 
 3492000   0.71094993   -8.6573013    506.34796  0.012083523  0.011288082            2 
 3493000    0.6876888   -8.6842854    506.88915  0.012092975  0.011283745            6 
 3494000   0.68540661   -8.6796284    507.08443  0.012094172  0.011279411           18 
 3495000    0.6846091   -8.6864675    506.91484  0.012086668  0.011275073           12 
 3496000   0.69759691   -8.6886791    507.53219  0.012097926  0.011270744            9 
 3497000   0.68967303   -8.6821057    507.73796   0.01209937  0.011266422           10 
 3498000    0.6969588    -8.669922    507.59739  0.012092562  0.011262099            3 
 3499000   0.70111605   -8.6842021    507.48457  0.012086419  0.011257784           11 
 3500000    0.6868482   -8.6592481    507.43379  0.012081757  0.011253458            6 
 3501000   0.69358502   -8.6694271    508.28378  0.012098538  0.011249139           10 
 3502000   0.69994905   -8.6791211    507.12409  0.012067487  0.011244831            9 
 3503000   0.68906503   -8.6739189    507.37096  0.012069915  0.011240527            4 
 3504000   0.69648824   -8.6567534    507.27439  0.012064174  0.011236223            3 
 3505000   0.70178422   -8.6247757    506.99061  0.012053985  0.011231922            3 
 3506000   0.69392196   -8.6851055    506.44534  0.012037587  0.011227618            4 
 3507000   0.70019417   -8.6489063    507.55081  0.012060422  0.011223317            3 
 3508000   0.68953248   -8.6601521    507.00011  0.012043902  0.011219012            6 
 3509000   0.68556365   -8.6971358    506.59371  0.012030819  0.011214703            4 
 3510000   0.68134541   -8.6652886    507.42259   0.01204707  0.011210397            5 
 3511000   0.68247508   -8.6815034    507.47899  0.012044977  0.011206091            4 
 3512000    0.6894115   -8.6557617    506.92089  0.012028305  0.011201779           10 
 3513000   0.68951163   -8.6971658    505.93832  0.012001573  0.011197462            3 
 3514000   0.70800456   -8.6759893    507.66827  0.012039183  0.011193149            8 
 3515000   0.69000831   -8.6974454    506.85784  0.012016544  0.011188843            6 
 3516000   0.69342013   -8.6766414    507.24928  0.012022404  0.011184535           12 
 3517000    0.6722703   -8.6935604    506.73875  0.012006889  0.011180234            6 
 3518000   0.68059047   -8.6759829    507.23444  0.012015218  0.011175936            4 
 3519000   0.71073763   -8.6873243    506.49111  0.011994201  0.011171649            9 
 3520000   0.69083658   -8.6781697    507.24374  0.012008611  0.011167361            5 
 3521000   0.68233882   -8.6693708    506.99276  0.011999261  0.011163064            4 
 3522000   0.69217539    -8.704728    507.58896   0.01200996  0.011158775           11 
 3523000   0.67917636   -8.6966364    506.89631  0.011990167  0.011154488            9 
 3524000   0.69446132   -8.6865367    507.28657  0.011995993  0.011150204            6 
 3525000   0.69557048   -8.6772162      507.834  0.012005532  0.011145926           10 
 3526000   0.70262871   -8.6903154    507.35006   0.01199069  0.011141647            4 
 3527000   0.70207676   -8.6862887    507.58465  0.011992833  0.011137378            6 
 3528000   0.67576868   -8.6839449    507.17752  0.011979817  0.011133101            8 
 3529000   0.68595487   -8.6753573    506.63446  0.011963598  0.011128824           12 
 3530000   0.68568233   -8.6919404    507.12654  0.011971826  0.011124544            7 
 3531000   0.70319099   -8.7104588    506.95977  0.011964499  0.011120268            9 
 3532000   0.68935946   -8.6972091    506.72851  0.011955656  0.011115994            9 
 3533000   0.68455232   -8.7153479    506.66686  0.011950818  0.011111723            7 
 3534000   0.67868046   -8.6951273    505.98877  0.011931446  0.011107458           10 
 3535000   0.68821042   -8.6937227    506.83841    0.0119481  0.011103194           10 
 3536000   0.69616484   -8.6946331      507.037  0.011949401  0.011098924            9 
 3537000   0.70316117   -8.6869757    506.79996  0.011940438  0.011094665           16 
 3538000   0.67759476   -8.6701498    507.45938  0.011952595  0.011090411           11 
 3539000   0.68468943   -8.6980129    506.97734  0.011937867  0.011086151           12 
 3540000   0.69986055   -8.6855884    507.37963  0.011943965   0.01108189           10 
 3541000   0.69191279   -8.7166348    506.13014  0.011911186  0.011077635           15 
 3542000    0.6735977   -8.7062454    506.25216  0.011910694  0.011073365           10 
 3543000    0.6967455   -8.7066577     506.8384  0.011921121  0.011069109           16 
 3544000   0.68116633   -8.7035865      506.558  0.011911165  0.011064854           10 
 3545000   0.69247757   -8.6859762    507.41348  0.011927914  0.011060602           33 
 3546000   0.69110655   -8.7209966    505.56693  0.011881156  0.011056351           10 
 3547000   0.68846473   -8.6898281    507.82899  0.011930951  0.011052105           18 
 3548000   0.68441338   -8.7119227    507.77535  0.011926328  0.011047861           12 
 3549000   0.69075519   -8.6667556    507.63503  0.011919673  0.011043609           10 
 3550000   0.68598079   -8.6828131    506.83853  0.011897618  0.011039362            7 
 3551000   0.69392053   -8.6842693    507.48907  0.011909534   0.01103512            7 
 3552000   0.67918837    -8.702089    506.53241  0.011883737  0.011030887            5 
 3553000    0.6749369   -8.7042087    507.39672  0.011900664  0.011026647            7 
 3554000   0.68928221   -8.6943127    507.47855  0.011899234  0.011022414            8 
 3555000   0.67589188   -8.6886672    506.81619  0.011880361  0.011018177            5 
 3556000   0.67764571   -8.6929325    507.88235  0.011902005  0.011013941            9 
 3557000   0.69317632   -8.6911376    506.82847  0.011873969  0.011009716            7 
 3558000   0.68508481   -8.6964586    507.28197  0.011881253  0.011005493            9 
 3559000   0.67555921   -8.6889186    506.57363  0.011861329  0.011001266            6 
 3560000   0.68212277   -8.7094442    506.78671  0.011862985   0.01099705            7 
 3561000   0.68780193   -8.6924673    506.94282  0.011863307  0.010992848            5 
 3562000   0.69665653   -8.6672034     507.8789  0.011881876  0.010988636            5 
 3563000   0.68474156   -8.6692706    507.40724   0.01186751  0.010984433            8 
 3564000   0.66388853   -8.6904993    507.99264  0.011877868   0.01098023            9 
 3565000   0.67872973   -8.6953046    506.97999  0.011850865  0.010976024            8 
 3566000   0.67529913   -8.6722214    507.03171   0.01184875  0.010971811            8 
 3567000   0.69609551   -8.6903199    507.41538  0.011854392  0.010967602           12 
 3568000   0.69140389   -8.7135981    506.20404  0.011822777  0.010963389            7 
 3569000   0.67893214   -8.6953891    506.34614  0.011822783  0.010959176            8 
 3570000   0.68972934   -8.7017266    506.89198  0.011832212  0.010954968            6 
 3571000   0.68040267   -8.7120671    506.30899  0.011815294  0.010950765            6 
 3572000   0.69641892   -8.7155354    506.36012  0.011813179   0.01094656            4 
 3573000    0.6749048    -8.689571    506.69034  0.011817575  0.010942354            8 
 3574000    0.6769823   -8.6888463    506.81915  0.011817272  0.010938155            5 
 3575000   0.67959217   -8.7114617     506.1982  0.011799492  0.010933952           12 
 3576000   0.67821976   -8.7122203      507.335  0.011822684  0.010929755           13 
 3577000   0.67441731   -8.6859597     507.3428   0.01181956  0.010925554            8 
 3578000    0.6856481   -8.6994506    507.17476  0.011812343  0.010921367            5 
 3579000   0.68101889   -8.6985851    507.88379  0.011825552  0.010917184            5 
 3580000   0.67955615   -8.6812389    507.53795  0.011814198  0.010913009           10 
 3581000   0.66686365     -8.71362    506.64071  0.011790019  0.010908831            5 
 3582000   0.67171003   -8.6938977    508.19516  0.011822891  0.010904654           11 
 3583000    0.6818845   -8.7172137    506.69665  0.011784739  0.010900481            7 
 3584000   0.67011113   -8.7272937    507.33547  0.011796305  0.010896311           13 
 3585000   0.67751794   -8.7227809    507.89382  0.011805993  0.010892136           10 
 3586000   0.68471319   -8.6879259    507.16619  0.011785792  0.010887966           21 
 3587000   0.69296809   -8.6925088    507.43167  0.011788674  0.010883797           12 
 3588000   0.67747143   -8.7180901    506.79228  0.011770538  0.010879636           13 
 3589000   0.66052591   -8.7114858    505.88961  0.011746299  0.010875469            8 
 3590000   0.67036227   -8.6981392    506.89378  0.011766337    0.0108713            7 
 3591000   0.67746153   -8.7080924     506.6104  0.011756484  0.010867136            5 
 3592000   0.67566897   -8.6903768    507.00968  0.011762474   0.01086298           10 
 3593000    0.6914972   -8.7043195    507.52942  0.011771255  0.010858827            6 
 3594000   0.66589976   -8.7015029    507.10647  0.011758173  0.010854672            9 
 3595000    0.6841313   -8.7181661    506.87087  0.011749441  0.010850518            8 
 3596000   0.66551879   -8.6833947    507.27866  0.011755623  0.010846377            5 
 3597000   0.66238683     -8.71594     506.9897  0.011745661   0.01084222            9 
 3598000    0.6764757   -8.7197057    506.63272  0.011734128  0.010838069           10 
 3599000   0.67231752   -8.6903376    507.29546  0.011746213  0.010833921           11 
 3600000   0.68787356   -8.7223387    506.67947  0.011728691  0.010829767           16 
 3601000   0.67846844   -8.7193625    506.36089  0.011718062  0.010825628            7 
 3602000   0.67087071   -8.7108235    506.35039  0.011714566  0.010821483           11 
 3603000   0.67962739   -8.7152442    507.07083  0.011727977  0.010817335            3 
 3604000   0.67285823   -8.7077523    507.89175  0.011743705  0.010813191           10 
 3605000   0.68453723   -8.7144642    507.35331  0.011728001  0.010809049           12 
 3606000   0.67355188   -8.7130093    507.42638  0.011726437  0.010804907           13 
 3607000   0.66711117   -8.7341567    507.02447  0.011713901  0.010800767           13 
 3608000   0.67795883   -8.6960381    506.81917  0.011705912  0.010796629           10 
 3609000   0.67687079   -8.7084425    506.35143  0.011691868  0.010792495            7 
 3610000   0.66170058   -8.7297477    506.57373  0.011693761  0.010788362           12 
 3611000   0.67347342   -8.7218777    507.80406  0.011718916  0.010784229           15 
 3612000   0.66127842   -8.7171039    505.97727  0.011673525  0.010780099           14 
 3613000   0.67596123   -8.7239783    506.89348  0.011691426   0.01077597           11 
 3614000   0.66744161   -8.7325457    506.88704  0.011688043   0.01077184           14 
 3615000   0.68287431   -8.7259796    507.00562  0.011687543  0.010767715            9 
 3616000   0.67650474   -8.6923457     506.2332   0.01166651  0.010763594            8 
 3617000   0.68117497   -8.7091731    507.58514  0.011694432   0.01075947            7 
 3618000   0.67281198   -8.7022029    506.40832  0.011664094  0.010755355            5 
 3619000   0.67335269   -8.7154304    506.62699  0.011665907  0.010751235           15 
 3620000   0.67149623    -8.726406    507.14737  0.011674663  0.010747113           15 
 3621000   0.66676499   -8.7113208    506.58488  0.011658494  0.010743003           11 
 3622000   0.68998513    -8.712085    507.01358  0.011665138    0.0107389            5 
 3623000   0.66826277   -8.7079694     507.3822  0.011670398  0.010734798            5 
 3624000   0.66696346   -8.7242966    507.61828  0.011672606  0.010730695            7 
 3625000   0.68479042   -8.7000624    507.23533  0.011660582   0.01072661            7 
 3626000    0.6742732   -8.7013651    507.68668   0.01166774  0.010722516            7 
 3627000   0.66671365   -8.7042954    507.10641   0.01165119   0.01071843           20 
 3628000   0.67454721   -8.7230148    507.80973  0.011664134  0.010714341           10 
 3629000   0.67373596   -8.7309194    506.54674  0.011631917  0.010710247           10 
 3630000   0.68767941   -8.7166445    506.74287  0.011633216  0.010706162            9 
 3631000   0.66874641    -8.725919    507.34896  0.011643922  0.010702082            6 
 3632000   0.67991574   -8.7131783    506.14383  0.011613065  0.010697999           11 
 3633000   0.67136666    -8.723701    506.05728  0.011607883  0.010693923            7 
 3634000   0.66890877    -8.732294     506.9825  0.011625906  0.010689841            9 
 3635000   0.67361826   -8.7364643    507.49007  0.011634344  0.010685768           15 
 3636000   0.67028007   -8.7060576    507.89021  0.011640315  0.010681689            7 
 3637000   0.67955981   -8.7362671    507.35355  0.011624818  0.010677614            6 
 3638000   0.66617515   -8.7192178    506.75804  0.011607981  0.010673544            6 
 3639000   0.66730673   -8.7455277    506.87926  0.011607568  0.010669462           11 
 3640000   0.66365162   -8.7133424    506.42837  0.011594056  0.010665389            6 
 3641000   0.66363785   -8.7174854    505.84802  0.011577589  0.010661306            6 
 3642000   0.68076065   -8.7354998    506.51191  0.011589601  0.010657234           10 
 3643000   0.67786469   -8.7568807    506.35211  0.011582764  0.010653169           10 
 3644000   0.67880799    -8.765315    506.47586  0.011582415  0.010649092            9 
 3645000   0.67412476   -8.7264294    506.18483  0.011572584  0.010645008            8 
 3646000   0.67040774   -8.7486974    506.66538  0.011580394  0.010640937           10 
 3647000   0.67973719   -8.7176414    506.70196  0.011578054  0.010636864            9 
 3648000   0.67190846   -8.7285031    506.28932  0.011565454  0.010632794           18 
 3649000   0.66719228   -8.7603822    505.32941  0.011540363   0.01062872            9 
 3650000   0.68631273   -8.7284673    507.09468  0.011577504  0.010624652            6 
 3651000   0.65244017   -8.7391522    506.00783  0.011549526  0.010620583            7 
 3652000   0.66667674   -8.7603335     505.3728  0.011531873  0.010616516            7 
 3653000   0.67163133   -8.7604623    506.38916  0.011551902  0.010612447            8 
 3654000   0.67155562   -8.7299595    506.66527  0.011555037  0.010608375            5 
 3655000   0.66666718   -8.7347333    507.10645  0.011561935  0.010604316            8 
 3656000   0.65949855   -8.7471302    505.53341  0.011522917  0.010600254           13 
 3657000   0.68845545   -8.7596635    505.56036   0.01152038  0.010596196           22 
 3658000   0.66926537   -8.7495686    505.35837  0.011512629  0.010592137            8 
 3659000   0.66601536   -8.7484638    505.61494  0.011515326   0.01058808            8 
 3660000   0.66165268   -8.7543237    507.30165  0.011550584  0.010584031            6 
 3661000   0.65945365   -8.7453204    505.96433  0.011516988  0.010579982           13 
 3662000   0.68280652   -8.7327115    505.93484  0.011513172  0.010575929            3 
 3663000   0.66306201   -8.7537931    506.02446  0.011512068  0.010571873            8 
 3664000   0.67914182   -8.7619476     504.9341  0.011484127  0.010567824           12 
 3665000   0.66712062   -8.7574724    506.16257  0.011508926   0.01056378           16 
 3666000   0.66962773   -8.7686507    506.12791  0.011504999  0.010559731            4 
 3667000   0.68262183   -8.7414259    506.47466  0.011509741  0.010555682            7 
 3668000   0.68482981   -8.7411063    506.50669  0.011507331  0.010551634           12 
 3669000   0.67481136   -8.7709429    505.74984  0.011487005  0.010547589           25 
 3670000   0.66687409    -8.772138    506.16344  0.011493266  0.010543544            8 
 3671000   0.65419507   -8.7610611    506.94556   0.01150789  0.010539499           15 
 3672000   0.66998349   -8.7592958    506.95026  0.011504862  0.010535459           11 
 3673000   0.65409575   -8.7631916    505.99607  0.011480082  0.010531431            9 
 3674000   0.65908361   -8.7436748    506.03238   0.01147778  0.010527395            7 
 3675000   0.65899339   -8.7668558     505.6919  0.011466937  0.010523359            9 
 3676000   0.65519946   -8.7585823    506.81279  0.011489227  0.010519323           13 
 3677000   0.67257219   -8.7260765    506.57423  0.011480696  0.010515295            9 
 3678000   0.66272542   -8.7456902    506.28688  0.011471064  0.010511272           10 
 3679000   0.66640728   -8.7612756    505.61299  0.011452682   0.01050725            9 
 3680000   0.66296339   -8.7494855     506.7775   0.01147594  0.010503223           11 
 3681000   0.68576731   -8.7449116    506.84976  0.011474458    0.0104992            9 
 3682000   0.66380558   -8.7628125    506.36693  0.011460414  0.010495178           16 
 3683000   0.66128386   -8.7470284    505.62464  0.011440507  0.010491156           18 
 3684000   0.66947772   -8.7504991    505.29686  0.011429987  0.010487131           14 
 3685000   0.65710585   -8.7723517    506.55832  0.011455412  0.010483112           10 
 3686000   0.67429058   -8.7704769    506.34786  0.011447546  0.010479094           12 
 3687000   0.66753475   -8.7711654    505.51114   0.01142553   0.01047508            6 
 3688000   0.65301972    -8.757105    506.36588  0.011441745  0.010471064            6 
 3689000   0.65951376   -8.7724574    505.77423  0.011425279  0.010467055           10 
 3690000   0.66052604   -8.7498407    506.47073  0.011437912  0.010463039            6 
 3691000   0.66660631   -8.7780931    505.39218  0.011410462  0.010459027           12 
 3692000   0.66399116   -8.7885231    505.78184  0.011416166  0.010455015           12 
 3693000   0.65042976    -8.774076    506.17265  0.011421894  0.010451007           12 
 3694000   0.66127985   -8.7529281    506.38682  0.011423633  0.010447005            6 
 3695000   0.66394024   -8.7727309    506.22421  0.011416874   0.01044301           12 
 3696000   0.65607622   -8.7695954     506.1056  0.011411111  0.010439007            7 
 3697000   0.66762416   -8.7786634    505.80377  0.011401221  0.010435016           10 
 3698000   0.66855447   -8.7717344    506.14619  0.011405854  0.010431024           18 
 3699000    0.6722004   -8.7670552    505.91748  0.011397618  0.010427037            6 
 3700000   0.67550981   -8.7699275    505.51494  0.011385472  0.010423043            9 
 3701000   0.66975554   -8.7732304    505.58701  0.011384018  0.010419064            5 
 3702000   0.66996943   -8.7374586    505.72092  0.011383957  0.010415078            5 
 3703000   0.65485295   -8.7654448    506.59857  0.011400634  0.010411096            5 
 3704000   0.64915567    -8.780552    506.84651  0.011403134  0.010407112            8 
 3705000    0.6576136   -8.7773962    506.52321  0.011392785  0.010403129            8 
 3706000   0.64035096   -8.7735789    506.65235  0.011392614  0.010399151           12 
 3707000   0.65780455   -8.7763981    505.74299  0.011369099  0.010395167           15 
 3708000   0.67148986   -8.7513378    505.82992  0.011367986  0.010391188            6 
 3709000   0.63814681   -8.7714903     505.4748  0.011356943  0.010387215            8 
 3710000   0.65206068   -8.7958647    506.05084   0.01136682  0.010383236           17 
 3711000   0.66538293   -8.7590874    506.87961  0.011382368   0.01037926           11 
 3712000   0.64661686   -8.7805573    506.27962  0.011365832  0.010375287           17 
 3713000   0.66324571   -8.7707728    506.80287  0.011374515  0.010371318           15 
 3714000   0.64204863   -8.7622071    506.62173  0.011367388  0.010367348           22 
 3715000   0.66396409   -8.7775996    506.20315  0.011354938  0.010363375           15 
 3716000   0.65632308   -8.7678773    506.06133  0.011348702  0.010359414           16 
 3717000   0.64948187   -8.7905309    505.52006  0.011333514  0.010355451           17 
 3718000   0.64840356   -8.7617776    505.03084  0.011319501  0.010351493            7 
 3719000   0.65002039   -8.7681304    506.18601  0.011342341  0.010347531            7 
 3720000    0.6522155   -8.7714128    505.88191   0.01133248  0.010343569           12 
 3721000   0.64812025   -8.7756705    504.58404  0.011300368  0.010339608           27 
 3722000   0.64803772   -8.7726151    505.95991  0.011328137  0.010335644            8 
 3723000   0.65864826      -8.7674    505.29298  0.011310166  0.010331679           11 
 3724000   0.64754696   -8.7997085    505.19369  0.011304907  0.010327717           12 
 3725000   0.66338591   -8.7758009    505.37368  0.011305899  0.010323763           15 
 3726000   0.65920965   -8.7414343    506.81819  0.011335172  0.010319809           14 
 3727000   0.64746897   -8.7836012    505.59737  0.011304833  0.010315858           14 
 3728000   0.64770469   -8.7485547    505.20192  0.011292961   0.01031191            6 
 3729000   0.63815003   -8.7821612    504.94813  0.011284261  0.010307965           18 
 3730000   0.65188134   -8.7589607    505.88545  0.011302177  0.010304018           16 
 3731000   0.66646253   -8.7502644    506.54861   0.01131396  0.010300084           11 
 3732000   0.64363965   -8.7704699    506.88002  0.011318328  0.010296154            8 
 3733000    0.6469689   -8.7433229    506.35948  0.011303676  0.010292218           15 
 3734000   0.65433615   -8.7677838    505.72632  0.011286519   0.01028828           18 
 3735000    0.6569471   -8.7601103    506.14341  0.011292803  0.010284345            6 
 3736000   0.64503226   -8.7623239    505.55512  0.011276658  0.010280414           12 
 3737000   0.66963602   -8.7794836    506.15415  0.011286998  0.010276488            4 
 3738000    0.6495705   -8.7637063    505.10558  0.011260602  0.010272562            9 
 3739000   0.65043961   -8.7707835    504.37868   0.01124139  0.010268627            7 
 3740000   0.66416198   -8.7730309    506.12296   0.01127725  0.010264699           19 
 3741000   0.64049172   -8.7663119    505.68505   0.01126448  0.010260775           18 
 3742000   0.66014827   -8.7760219    505.45755  0.011256404  0.010256855            6 
 3743000   0.64635182   -8.7674401    505.40658  0.011252262  0.010252937            9 
 3744000   0.64674541   -8.7524544      505.802  0.011258057  0.010249014           12 
 3745000   0.64519403   -8.7848022    506.09392  0.011261547  0.010245098            9 
 3746000   0.64957302   -8.7804403    505.57974  0.011247102  0.010241177           10 
 3747000   0.63518682   -8.7687386    506.36915  0.011261657  0.010237253           11 
 3748000   0.66406775   -8.8069106    505.58203  0.011241152   0.01023333           13 
 3749000   0.64765473   -8.7874631    505.28236  0.011231492  0.010229417            6 
 3750000   0.65645321   -8.7931372    505.17067  0.011226015  0.010225496            8 
 3751000   0.65389299   -8.7998823    504.38833  0.011205641   0.01022157           11 
 3752000   0.64983653    -8.787323     506.1006  0.011240685  0.010217658            7 
 3753000   0.64857325   -8.7975743    504.76024  0.011207928  0.010213745            3 
 3754000   0.65474671   -8.7857327    505.89019  0.011230025  0.010209834            9 
 3755000   0.64419269    -8.789755    506.17911  0.011233447   0.01020592            9 
 3756000   0.65684199   -8.7691408    505.93104  0.011224952  0.010202015            5 
 3757000   0.65620789   -8.8209584    504.90152  0.011199129  0.010198107           12 
 3758000   0.65584914    -8.788589    504.47241  0.011186633  0.010194199            8 
 3759000   0.66256878   -8.7843465      505.485  0.011206105  0.010190302            7 
 3760000   0.65660758   -8.7846948    505.71798  0.011208289  0.010186396            8 
 3761000   0.64757616   -8.7876365    505.14153  0.011192536  0.010182497            6 
 3762000   0.66482409   -8.7795109    504.42884  0.011173774  0.010178601           14 
 3763000   0.63815249   -8.7913614    504.98808  0.011183189  0.010174705            9 
 3764000   0.65453576   -8.7982438    505.32964   0.01118778  0.010170806           12 
 3765000   0.65818939   -8.7990233    504.82872  0.011173721  0.010166915            9 
 3766000   0.64893381   -8.7948456    505.38843  0.011183139   0.01016302            6 
 3767000   0.65365231   -8.7965918    505.31757  0.011178603  0.010159124           10 
 3768000   0.63411869   -8.8091674    505.05781  0.011169892  0.010155234            5 
 3769000   0.64743777   -8.7873253    504.36954   0.01115171  0.010151345            8 
 3770000   0.64180151   -8.8106764    504.86374  0.011159676  0.010147456            8 
 3771000   0.65913998   -8.7980136    504.33974  0.011145137  0.010143578            7 
 3772000   0.66173915   -8.7928971    505.37104  0.011164966  0.010139694            8 
 3773000   0.64994087   -8.7859895     505.8154  0.011171822  0.010135815            5 
 3774000   0.64515128   -8.7882785    506.01256  0.011173215  0.010131932            5 
 3775000   0.64283591   -8.7821491    504.43468  0.011135423  0.010128051            9 
 3776000   0.64676768   -8.7976037    505.13095   0.01114784  0.010124174            3 
 3777000   0.65174691   -8.8275855    505.57101  0.011154598   0.01012029           12 
 3778000   0.62784443   -8.7983417     505.0199   0.01113949   0.01011641            8 
 3779000   0.63649061   -8.8001226    504.38987  0.011122649  0.010112534            7 
 3780000   0.64600378     -8.78482    504.75611   0.01112778  0.010108661            5 
 3781000    0.6519801   -8.8009497    505.15219  0.011133567  0.010104795           11 
 3782000   0.65157743   -8.8044702    505.20673  0.011131825  0.010100926           13 
 3783000   0.64551611   -8.8156287    504.87667  0.011121611  0.010097058           11 
 3784000   0.63960904   -8.8160389    505.46002  0.011131519  0.010093192            6 
 3785000   0.64271929   -8.7963562    504.70254  0.011111901  0.010089328            3 
 3786000   0.65111928   -8.7999135    504.32287  0.011100609  0.010085467            5 
 3787000   0.64566555   -8.8251057    505.46236  0.011122752  0.010081607            7 
 3788000   0.64479753   -8.7942028       505.24  0.011114924  0.010077748            7 
 3789000   0.64511454   -8.7927687    506.13482  0.011131671  0.010073897            5 
 3790000   0.62748086   -8.8046546    505.15846  0.011107266  0.010070045            6 
 3791000   0.65421856   -8.8119643    505.46088  0.011110984  0.010066197            6 
 3792000    0.6516746   -8.7920759    505.02055  0.011098377  0.010062345           10 
 3793000   0.63826194   -8.7936102    505.38738   0.01110351  0.010058499            9 
 3794000   0.65526668   -8.8021911    505.18141   0.01109606  0.010054654           17 
 3795000   0.64504406     -8.79069    505.35736  0.011096999  0.010050811           14 
 3796000    0.6484749   -8.8298625    505.01275  0.011086511  0.010046966            8 
 3797000   0.64002481   -8.8053159    504.93834  0.011081958  0.010043127           10 
 3798000   0.64311269   -8.8006353     505.5868  0.011093268  0.010039293           12 
 3799000   0.64204721   -8.7892306     505.8002  0.011095029  0.010035464           14 
 3800000   0.63372543   -8.7987672    505.59852  0.011087687   0.01003164           10 
 3801000   0.64109581    -8.789907    504.99232  0.011071479  0.010027814           13 
 3802000   0.64236228   -8.8191438    505.48138  0.011079287  0.010023987           13 
 3803000   0.63050096   -8.8131861    505.43245  0.011075301  0.010020159            7 
 3804000   0.63970892   -8.8009539    504.71793  0.011056737  0.010016333           10 
 3805000   0.65315785   -8.8029702    505.08229  0.011061811  0.010012512           10 
 3806000   0.64107447    -8.800582    505.77244  0.011074016  0.010008685           15 
 3807000    0.6510618   -8.8147217    505.26874  0.011060081  0.010004865            7 
 3808000   0.63977982   -8.8093381    505.41669  0.011060414  0.010001052            8 
 3809000   0.63705228   -8.8014312    505.41626  0.011057501 0.0099972314            7 
 3810000    0.6405181   -8.7958342    505.04687  0.011046519 0.0099934176           13 
 3811000   0.65238147   -8.7947324    506.27215  0.011070413 0.0099896008            8 
 3812000   0.64821942   -8.7853265    505.50095   0.01105065 0.0099857902           12 
 3813000   0.65011198   -8.8045224    505.14241  0.011039916 0.0099819824            5 
 3814000   0.63075187   -8.8127505    505.80831  0.011051571 0.0099781762           11 
 3815000   0.64151891   -8.7958352    506.02306  0.011053365 0.0099743721           11 
 3816000    0.6355671   -8.7983116    505.97688   0.01104946 0.0099705713           10 
 3817000   0.64664896    -8.792923    505.14403  0.011028383 0.0099667731           11 
 3818000     0.637093   -8.7980622    505.44203  0.011031998   0.00996297            9 
 3819000   0.63876091    -8.785629     505.2042   0.01102392 0.0099591782            6 
 3820000   0.62940924   -8.8025605    505.21581  0.011021287  0.009955377            7 
 3821000   0.64909597   -8.8144172    505.06856  0.011015191 0.0099515849           12 
 3822000   0.64978396   -8.7994461    505.27214  0.011016748 0.0099477883            4 
 3823000   0.63245398   -8.8089187    505.18282   0.01101192 0.0099439881           16 
 3824000   0.63287632   -8.7929365    505.12877  0.011007862 0.0099401946            9 
 3825000   0.63906923   -8.8304903    504.91669  0.011000364 0.0099364049           15 
 3826000    0.6305183   -8.8213456    504.27747  0.010983566 0.0099326113           11 
 3827000   0.64169078   -8.8099971    503.92699  0.010973064 0.0099288191           14 
 3828000   0.62880423   -8.8029998    504.50705  0.010982825 0.0099250287            9 
 3829000   0.64198733   -8.8220621    505.42365  0.010999905 0.0099212412            9 
 3830000   0.63839757   -8.8097989    504.31585   0.01097293 0.0099174509           11 
 3831000   0.65134966   -8.8176997    504.62345  0.010976756 0.0099136615           11 
 3832000   0.65236053   -8.8217291    504.31521  0.010967189 0.0099098835           13 
 3833000   0.64928062   -8.7789231    505.41684  0.010988278 0.0099061046            9 
 3834000   0.63417353   -8.8240835    504.73212   0.01097053 0.0099023268           13 
 3835000   0.63874715   -8.8182945    504.63715  0.010965605 0.0098985538           12 
 3836000   0.64978906   -8.8032709    504.82547  0.010966838 0.0098947805            6 
 3837000   0.63063628   -8.8248115    505.59026  0.010980589 0.0098910063           11 
 3838000   0.63371346   -8.8138111    505.27159  0.010970809 0.0098872385           13 
 3839000   0.65204588   -8.8165676    504.90519  0.010959998 0.0098834752            6 
 3840000   0.62222644    -8.814175     503.8395  0.010934017 0.0098797105           13 
 3841000   0.63478993   -8.8002324    505.04779  0.010957385 0.0098759488           10 
 3842000   0.63801981   -8.7944962    504.52375  0.010943167 0.0098721916           15 
 3843000   0.63430426   -8.8228047     505.3094  0.010957355 0.0098684322            9 
 3844000   0.64116807   -8.8219509    506.06463  0.010970877  0.009864679            7 
 3845000   0.62261333     -8.82048    504.60705  0.010936434 0.0098609217            6 
 3846000    0.6448078   -8.8089003     504.2193  0.010925188 0.0098571646            8 
 3847000   0.62930557   -8.8196789     504.2309    0.0109226 0.0098534114           11 
 3848000   0.65025743   -8.8139081    505.43957  0.010945937 0.0098496656            8 
 3849000   0.64037673   -8.8197868    504.70225  0.010927129 0.0098459198           13 
 3850000   0.64096289   -8.7891694    505.74811  0.010946929  0.009842176            8 
 3851000   0.63979364   -8.7943361     504.5969  0.010919175 0.0098384343            7 
 3852000   0.63945136   -8.8097929    504.27056   0.01090928 0.0098346934            6 
 3853000   0.63553022    -8.789011    505.69285   0.01093721 0.0098309561            5 
 3854000    0.6409035   -8.8013889    505.09955  0.010921544 0.0098272213            6 
 3855000   0.63023893   -8.8313326    505.07598  0.010918201 0.0098234836            5 
 3856000   0.62009527   -8.8028706    504.89937  0.010911553  0.009819748            5 
 3857000    0.6412262   -8.8074867    504.93545  0.010909503 0.0098160185           11 
 3858000   0.63920343   -8.8211259    505.77619  0.010924836 0.0098122839            8 
 3859000   0.63870256   -8.7999811    505.20041  0.010909571  0.009808552            8 
 3860000   0.63853766   -8.7977049    504.07354  0.010882417 0.0098048222            4 
 3861000   0.63938757   -8.8209732    504.41293  0.010886923 0.0098010964            6 
 3862000   0.62707259   -8.8064973    505.13787  0.010899747 0.0097973721            8 
 3863000   0.61832939   -8.8014858    505.40163  0.010902615 0.0097936486            4 
 3864000   0.61189901   -8.8253509    504.73317  0.010885377 0.0097899237           10 
 3865000   0.63941209    -8.823313    504.98244  0.010887935 0.0097861986            5 
 3866000   0.63240308   -8.8220478    504.82924  0.010881817 0.0097824779           10 
 3867000   0.63869449   -8.8106141    503.51822   0.01085075 0.0097787569            6 
 3868000   0.63068468   -8.8189148    504.12824  0.010861088 0.0097750349            8 
 3869000   0.63914945    -8.794248    504.64631  0.010869439 0.0097713223           13 
 3870000   0.64678876   -8.8174794     505.1245  0.010876927 0.0097676134           11 
 3871000   0.63818471   -8.8227071    505.49722  0.010882141 0.0097639088            9 
 3872000    0.6414991   -8.8060517     504.8849  0.010866152 0.0097601992            8 
 3873000    0.6180479   -8.8330472     503.9325  0.010842854 0.0097564905           18 
 3874000   0.65100727    -8.827175    505.20999  0.010867535 0.0097527839           10 
 3875000   0.63022968   -8.8305494    504.82442  0.010856439 0.0097490832            8 
 3876000   0.63748907   -8.8223365    505.54293  0.010869086 0.0097453836            8 
 3877000   0.62769045    -8.814582    504.77552  0.010849788 0.0097416897            6 
 3878000   0.64614693   -8.8166997    504.57999  0.010842788 0.0097379944            4 
 3879000   0.63289589   -8.8364719    504.33055  0.010834634 0.0097342994            7 
 3880000   0.62582967   -8.8137566    504.80322  0.010841994 0.0097306069            5 
 3881000   0.64312925   -8.7943451    505.19477  0.010847607 0.0097269153            7 
 3882000   0.63998068   -8.8212445    504.73912  0.010835032 0.0097232234            6 
 3883000   0.63105664   -8.8228191    504.67258  0.010830813  0.009719537           12 
 3884000   0.64337957   -8.8329148    504.60782  0.010826635  0.009715845           17 
 3885000   0.62744444   -8.8476142    505.22865  0.010837165 0.0097121631            7 
 3886000   0.62529695   -8.8271979    504.78142  0.010824786 0.0097084767            9 
 3887000    0.6343457   -8.8048618    505.25329  0.010832118 0.0097047941            8 
 3888000   0.62347542   -8.8395824    503.84015  0.010799043 0.0097011089            6 
 3889000    0.6392753   -8.8297581    505.12114  0.010823715 0.0096974314           11 
 3890000   0.62564407   -8.8228719    505.18771  0.010822359 0.0096937544            5 
 3891000   0.61744058   -8.8247592    504.95489  0.010814591 0.0096900745           14 
 3892000   0.63524319   -8.8224763     504.5197  0.010802495 0.0096863951            7 
 3893000   0.63771253   -8.8114518    505.14747  0.010813158 0.0096827193           14 
 3894000   0.63150698   -8.8383421    504.18733  0.010789833  0.009679044           10 
 3895000   0.62824941   -8.8231078    505.31948  0.010811285 0.0096753638           10 
 3896000   0.63549785    -8.841084    505.20911   0.01080615 0.0096716922           12 
 3897000   0.63863908   -8.8294964    505.32691  0.010805896 0.0096680178            7 
 3898000   0.64386192   -8.8240839    505.24066   0.01080128 0.0096643473           11 
 3899000   0.63737599   -8.8387892    504.24709  0.010777274 0.0096606841            9 
 3900000   0.63334208   -8.8308379     503.4182  0.010756799 0.0096570164            8 
 3901000   0.64798004   -8.8502254    504.28479  0.010772554 0.0096533532            9 
 3902000   0.62470086   -8.8225323    504.97992  0.010784639 0.0096496867            5 
 3903000    0.6194161    -8.844896     504.6052  0.010773875 0.0096460248            7 
 3904000   0.63259641   -8.8417675    504.24035  0.010763327 0.0096423581           13 
 3905000   0.63285923   -8.8373003    504.10332  0.010757647 0.0096386933           12 
 3906000   0.62598886   -8.8536981    504.98021  0.010773601  0.009635038           14 
 3907000   0.61342027    -8.828305    504.09549  0.010751973 0.0096313852           13 
 3908000   0.62033466   -8.8279768    504.30072  0.010753598 0.0096277333            8 
 3909000   0.62649858   -8.8314273    504.65861  0.010758476 0.0096240793            6 
 3910000   0.62851599    -8.846452    505.09981  0.010765128 0.0096204314            9 
 3911000   0.63098449   -8.8463773    505.13298  0.010763082 0.0096167801           12 
 3912000   0.63972503    -8.836028    505.71065  0.010772637 0.0096131314           10 
 3913000   0.62959274   -8.8347477    505.07326  0.010756309   0.00960949           13 
 3914000   0.64034584   -8.8348398    504.04664  0.010731703  0.009605845           13 
 3915000   0.64405143   -8.8349889    505.91772  0.010768789 0.0096022074            7 
 3916000   0.61359958   -8.8245868    505.49292  0.010756999 0.0095985669           13 
 3917000    0.6302756   -8.8321778    505.09901  0.010745873 0.0095949325           16 
 3918000   0.63172036    -8.822397    504.62694   0.01073309  0.009591297           16 
 3919000   0.62534419   -8.8516624    503.13514  0.010698629 0.0095876614           10 
 3920000   0.62024747   -8.8377943     504.6828  0.010728801 0.0095840239           11 
 3921000   0.62081027    -8.841112    504.18218  0.010715425 0.0095803922           13 
 3922000    0.6294268   -8.8291093    504.66954  0.010723048 0.0095767585           16 
 3923000   0.62569008   -8.8426379    504.76775  0.010722401 0.0095731347           13 
 3924000   0.63627605   -8.8508999     504.9784  0.010724142 0.0095695071            6 
 3925000   0.61897425   -8.8350319    504.85238  0.010718734 0.0095658818           11 
 3926000   0.61938472   -8.8302991    504.62769  0.010711235  0.009562253            8 
 3927000   0.63584958   -8.8568295    505.04778  0.010717422 0.0095586355           11 
 3928000   0.61932305   -8.8266595    504.54818  0.010704094 0.0095550103           13 
 3929000   0.62636459   -8.8326104     504.9783  0.010710492 0.0095513902            7 
 3930000   0.64195563   -8.8789378    503.68249   0.01068029  0.009547771           10 
 3931000   0.62369097   -8.8521408    504.45035  0.010693851 0.0095441471           13 
 3932000   0.62820502   -8.8230701    504.35194  0.010689046 0.0095405338           13 
 3933000   0.61274418   -8.8476728    504.60626  0.010691717 0.0095369199           22 
 3934000   0.62723433   -8.8294769    504.05171  0.010677252 0.0095333082           11 
 3935000   0.61631086   -8.8358372    504.44346  0.010682835 0.0095296992            5 
 3936000   0.62483581   -8.8415211     504.8798  0.010689359 0.0095260926           22 
 3937000   0.60496533   -8.8401766    504.90996  0.010687282 0.0095224883           15 
 3938000   0.61222535   -8.8609986     504.3861  0.010673483  0.009518877            7 
 3939000   0.62606529   -8.8330783    504.30805  0.010669122 0.0095152698            5 
 3940000   0.62797646   -8.8482928    505.47644  0.010691126 0.0095116685            5 
 3941000   0.63678217   -8.8411688    504.86465  0.010675477 0.0095080696           12 
 3942000   0.62305338   -8.8478935    505.39277  0.010683933 0.0095044684            6 
 3943000   0.62911474   -8.8593772    504.44696  0.010661234 0.0095008695           10 
 3944000     0.614568   -8.8492014    504.08598  0.010650904 0.0094972691           15 
 3945000   0.62823715   -8.8673154     504.1457  0.010649466 0.0094936688            6 
 3946000   0.62513359   -8.8473419    504.59603  0.010656277 0.0094900711            6 
 3947000   0.63172034   -8.8307045    504.07557  0.010642589 0.0094864724            8 
 3948000   0.60664553   -8.8566845    505.03241   0.01066009 0.0094828783            7 
 3949000   0.64386514   -8.8607447    504.30433  0.010642026 0.0094792949            6 
 3950000   0.61399862   -8.8450671    503.99308  0.010632765  0.009475707            6 
 3951000   0.62622415   -8.8414555    504.65345  0.010644003 0.0094721161            6 
 3952000   0.63178432   -8.8334159    504.04453  0.010628469 0.0094685316            4 
 3953000   0.60810338   -8.8412533    504.27468  0.010630632 0.0094649463            7 
 3954000   0.60470786   -8.8358972    505.31766  0.010649925 0.0094613607            8 
 3955000    0.6289355   -8.8602989    504.46638  0.010629296 0.0094577765           10 
 3956000   0.63329811   -8.8543312    504.96678   0.01063715 0.0094541963            8 
 3957000   0.61675991    -8.850249    504.26003  0.010619578 0.0094506165            9 
 3958000   0.61806419   -8.8578596    505.00663  0.010632614 0.0094470427            7 
 3959000   0.61812243   -8.8607252    504.54989  0.010620314 0.0094434658           10 
 3960000   0.60337467   -8.8507054    502.62188   0.01057706 0.0094398944            9 
 3961000   0.61206843   -8.8469638    503.57016   0.01059434 0.0094363204           11 
 3962000   0.61400809     -8.87456    503.50617   0.01059032 0.0094327506            9 
 3963000   0.61777185   -8.8507291    504.47767  0.010608076  0.009429187            6 
 3964000    0.6372992    -8.859181    503.52366  0.010585344 0.0094256217            9 
 3965000   0.61360886   -8.8576838    504.15745  0.010595995 0.0094220541            8 
 3966000   0.62102765   -8.8480755    504.77867  0.010606377 0.0094184894           10 
 3967000   0.61065851   -8.8406564    504.26511  0.010592915 0.0094149337            9 
 3968000   0.62333118   -8.8557505    504.55825  0.010596401 0.0094113756           10 
 3969000   0.61019047   -8.8324608    504.29377  0.010588179 0.0094078154           14 
 3970000   0.61308665   -8.8458037    504.88681   0.01059796 0.0094042631           16 
 3971000    0.6187208   -8.8442712    503.73979   0.01057122 0.0094007083           10 
 3972000   0.60513951   -8.8457798     503.9196  0.010572331 0.0093971567           10 
 3973000   0.61974732   -8.8573836    504.65935  0.010585187 0.0093936052           13 
 3974000   0.60238307   -8.8525726    504.78032   0.01058506 0.0093900569            9 
 3975000   0.60238235   -8.8258995    504.22007  0.010570651  0.009386514           16 
 3976000    0.6257472   -8.8460003      503.911  0.010561515 0.0093829692            8 
 3977000   0.62320342   -8.8687504    504.58967   0.01057308 0.0093794264            8 
 3978000    0.6147577   -8.8490318    502.94985   0.01053607 0.0093758891            8 
 3979000   0.60472412   -8.8526052    504.68276  0.010569715 0.0093723527            7 
 3980000   0.61635195   -8.8611702    504.57205  0.010564741 0.0093688152           12 
 3981000   0.61203147   -8.8661754    504.26166   0.01055559 0.0093652762           20 
 3982000   0.62497001   -8.8534057    504.20637  0.010551782 0.0093617432           15 
 3983000   0.61480165   -8.8540492    505.03781  0.010566529 0.0093582118            9 
 3984000   0.60988077   -8.8620219    503.17093  0.010524827 0.0093546863           11 
 3985000   0.61399371   -8.8591554    503.91799  0.010537808 0.0093511578           11 
 3986000   0.62776022    -8.831344    504.28967  0.010542935  0.009347635            5 
 3987000   0.63129409   -8.8581204    504.40265  0.010542652 0.0093441152            7 
 3988000   0.62064647   -8.8738749    505.11167  0.010554824  0.009340595            9 
 3989000   0.60919769    -8.857279    504.19315   0.01053299 0.0093370769            9 
 3990000   0.61970855   -8.8482332    504.51017  0.010536971 0.0093335595            5 
 3991000    0.6142478   -8.8514032     504.3954  0.010531934 0.0093300384           14 
 3992000   0.61820318   -8.8662148    503.57656  0.010512203 0.0093265235           24 
 3993000    0.6063529    -8.869414     504.4617  0.010528043 0.0093230082            9 
 3994000   0.62070033   -8.8578465    504.28949  0.010521814 0.0093194941           16 
 3995000   0.61134125   -8.8595669    504.60251  0.010525709 0.0093159823           12 
 3996000   0.60770262   -8.8771061    504.39877  0.010518827 0.0093124731           12 
 3997000   0.59864523   -8.8600171    503.91018  0.010506008 0.0093089684           10 
 3998000   0.61920162   -8.8655282    504.30651  0.010511641 0.0093054638            9 
 3999000   0.61560352   -8.8646962    503.80359  0.010498533 0.0093019573           15 
 4000000   0.63086423   -8.8765255    504.00901  0.010500188 0.0092984595           12 
 4001000   0.61110014   -8.8651845    504.54598  0.010508747 0.0092949572           24 
 4002000   0.61520605   -8.8811491    503.79397  0.010490462 0.0092914558            7 
 4003000   0.61123251   -8.8747295    503.57777  0.010483341 0.0092879608           15 
 4004000   0.60889446   -8.8685067    503.57678  0.010480702 0.0092844606            7 
 4005000   0.60145957   -8.8622126     504.7043  0.010501546 0.0092809698           16 
 4006000   0.61739301   -8.8468238      504.156  0.010487519  0.009277479            6 
 4007000   0.59582661   -8.8945523    503.76778  0.010476828 0.0092739826           14 
 4008000   0.60471117   -8.8630054    503.84134  0.010475743   0.00927049            9 
 4009000   0.61178066   -8.8729581    504.40648  0.010484877 0.0092670003           12 
 4010000   0.60105437   -8.8707181    503.50793   0.01046359 0.0092635158            5 
 4011000   0.60963712   -8.8819538    504.49541  0.010481497 0.0092600295            8 
 4012000   0.60917583   -8.8733947    503.81198  0.010464689  0.009256547            7 
 4013000   0.60293207    -8.861992    504.28348  0.010471872 0.0092530647            9 
 4014000   0.60695518   -8.8704587    503.38114   0.01045053 0.0092495836           14 
 4015000   0.61593782   -8.8588466    504.05144   0.01046184 0.0092461063            5 
 4016000   0.61147505   -8.8673183    504.49071   0.01046835 0.0092426274            9 
 4017000    0.6099744   -8.8823066    503.39567  0.010443027 0.0092391528           14 
 4018000   0.60379879   -8.8652704    505.14292  0.010476666 0.0092356739            9 
 4019000   0.60230487    -8.879961    503.89049   0.01044809 0.0092321974           11 
 4020000   0.61065997   -8.8673523    503.00981  0.010427235 0.0092287233           12 
 4021000   0.62117394   -8.8709548    504.16683   0.01044862 0.0092252554           16 
 4022000   0.61370693   -8.8844772    504.09343  0.010444502 0.0092217852            9 
 4023000   0.61198402   -8.8578716    504.45469  0.010449389 0.0092183166           11 
 4024000   0.61156469   -8.8928559    503.93867  0.010436106 0.0092148496           15 
 4025000   0.60644417   -8.8945296    504.37646  0.010442577 0.0092113876           10 
 4026000   0.61396138   -8.8670516    504.39774  0.010440423 0.0092079226            8 
 4027000   0.60324417   -8.8645124    504.07089  0.010431067 0.0092044614           16 
 4028000   0.61456657   -8.8928757    504.13862  0.010429879  0.009201003            9 
 4029000   0.60561421   -8.8732962    503.55367  0.010415191 0.0091975404           16 
 4030000   0.62009473    -8.878371    504.66048  0.010435494 0.0091940799            7 
 4031000   0.62487923   -8.8810234     503.9675  0.010418579 0.0091906229           11 
 4032000   0.61191265   -8.8781091    504.50295  0.010427062 0.0091871668           13 
 4033000   0.60313045   -8.8723205    503.53969  0.010404572 0.0091837125           11 
 4034000   0.60123728    -8.872346    504.31644  0.010418039 0.0091802592            6 
 4035000   0.61557668    -8.879742    504.36952  0.010416553 0.0091768059            9 
 4036000   0.59640445   -8.8898532    503.52089   0.01039645 0.0091733572           11 
 4037000   0.59466878    -8.875388    503.88453  0.010401382 0.0091699116            8 
 4038000   0.59498319   -8.8903976    504.23625  0.010406064 0.0091664662            8 
 4039000   0.59926341   -8.8815897    504.16178  0.010401951 0.0091630226           18 
 4040000   0.61635784   -8.8689968    504.38382  0.010403957 0.0091595818            5 
 4041000    0.5988656   -8.8535875    504.12856  0.010396118 0.0091561405            4 
 4042000   0.61220605   -8.8763591     503.5199  0.010380997 0.0091527007            8 
 4043000   0.60143378   -8.8891307     504.1739   0.01039191 0.0091492645           12 
 4044000   0.60552663   -8.8525869    503.65476  0.010378642  0.009145831            6 
 4045000   0.60229765   -8.8726757    503.40881   0.01037101 0.0091423938           11 
 4046000   0.60373068   -8.8767182    503.86706  0.010377885 0.0091389606           17 
 4047000   0.61626873   -8.8877855    503.49164   0.01036759 0.0091355232           13 
 4048000   0.58764366   -8.8948334    503.88576  0.010373142 0.0091320902            8 
 4049000   0.59780861   -8.8860277    504.34642  0.010380061 0.0091286603            7 
 4050000   0.60535426   -8.8762953    504.30613  0.010376669 0.0091252357            7 
 4051000   0.59837083   -8.8843065    503.84011  0.010364521 0.0091218119            8 
 4052000   0.60246231    -8.889945    503.51655  0.010355309 0.0091183886           11 
 4053000   0.60927041   -8.8593173    504.51886  0.010373362 0.0091149659           10 
 4054000   0.59912911   -8.8726284    503.80303  0.010356089  0.009111542           11 
 4055000   0.59888395   -8.8693582    503.78572   0.01035318 0.0091081247           16 
 4056000   0.59890784   -8.8729048    504.05841   0.01035623 0.0091047034           10 
 4057000   0.61761413   -8.8832533    503.52643   0.01034275 0.0091012853           10 
 4058000   0.59856883    -8.882537    503.26673  0.010334868 0.0090978703           10 
 4059000   0.59799093    -8.887452    502.69867  0.010320659 0.0090944581           15 
 4060000   0.60272591   -8.8768698    504.00481  0.010344926 0.0090910457           10 
 4061000   0.59435723   -8.8941536    503.61635  0.010334408 0.0090876407           10 
 4062000   0.58780268   -8.8918135    504.14706  0.010342751 0.0090842294           11 
 4063000   0.60090773   -8.8678074    504.96048  0.010356889 0.0090808236           17 
 4064000   0.61239244   -8.8756054    504.39806  0.010342808 0.0090774165           10 
 4065000   0.61166523   -8.8802965    504.08597  0.010333866 0.0090740132            9 
 4066000   0.61256409    -8.869904    503.61824  0.010321738 0.0090706122           15 
 4067000   0.60120361   -8.8992087    503.36836   0.01031408 0.0090672094           20 
 4068000   0.59622572   -8.8813222    502.94727  0.010302918 0.0090638063            6 
 4069000   0.57946927   -8.8911076    503.99989  0.010321944 0.0090604065           15 
 4070000    0.5953889    -8.866223    504.31517  0.010325863 0.0090570086           11 
 4071000   0.58973588   -8.9064715    503.25769   0.01030168 0.0090536124            9 
 4072000   0.59977692   -8.8881177    503.63789  0.010306931 0.0090502138           10 
 4073000   0.61444066   -8.8739328    504.42796  0.010320566 0.0090468217           13 
 4074000   0.59660266   -8.8912924    502.72685  0.010283236 0.0090434283           15 
 4075000   0.59888967    -8.886163    503.83056  0.010303283 0.0090400341           13 
 4076000   0.59437815   -8.8746238     503.4206  0.010292374 0.0090366348            8 
 4077000   0.59748899   -8.8878617      503.752  0.010296623 0.0090332401            7 
 4078000   0.59343721   -8.8715183    503.51823  0.010289321 0.0090298453           28 
 4079000    0.6054165   -8.8978361    503.44424  0.010285287 0.0090264569           11 
 4080000   0.59191982   -8.8906683    503.76796  0.010289378  0.009023071           10 
 4081000   0.58626864   -8.8901865    503.79831  0.010287477 0.0090196869            7 
 4082000   0.59580113   -8.8833181    504.71484  0.010303667 0.0090163006            8 
 4083000   0.60042913   -8.8800397    503.66335  0.010279683 0.0090129191            9 
 4084000   0.59535195   -8.8859767    504.20303  0.010288178 0.0090095408            9 
 4085000   0.59793972   -8.8815418    503.38029  0.010268876 0.0090061671           12 
 4086000   0.60335798   -8.8882566    504.07537  0.010280539 0.0090027888           15 
 4087000   0.59991931   -8.9028929    503.24896  0.010261173 0.0089994147            7 
 4088000   0.59870095   -8.8867535     503.8091  0.010270081 0.0089960367           11 
 4089000   0.60999629   -8.8820266     504.0706  0.010272899  0.008992667            8 
 4090000   0.58534755   -8.8837684    503.38122  0.010256341 0.0089892966           13 
 4091000   0.58905662   -8.8912801    502.80003  0.010241995 0.0089859284           13 
 4092000   0.59851144   -8.8922803    503.50531  0.010253855 0.0089825595           15 
 4093000   0.60803862   -8.8742915    503.10453   0.01024319 0.0089791924           10 
 4094000   0.60245167   -8.8803462    503.46992  0.010248126 0.0089758316           13 
 4095000   0.59770449   -8.8770004     503.6375  0.010249033 0.0089724696            9 
 4096000   0.59009239   -8.8933369    502.90968  0.010231724 0.0089691085            8 
 4097000   0.60540089   -8.9012023    502.29875    0.0102168 0.0089657477           11 
 4098000   0.59799052     -8.89129    504.09124  0.010250757 0.0089623869           10 
 4099000   0.59529177   -8.8889203    503.14147  0.010228948 0.0089590307            6 
 4100000   0.58464214   -8.8799864    503.53607  0.010234473  0.008955672           15 
 4101000   0.60427903   -8.8996752    503.62059  0.010233695  0.008952313            7 
 4102000   0.59809923   -8.8936113    503.00221  0.010218638 0.0089489563           15 
 4103000   0.59297617   -8.8973026    503.18983  0.010219958 0.0089456031           11 
 4104000   0.59763097   -8.8949829    502.76058  0.010208751 0.0089422536           10 
 4105000   0.60010502    -8.889918     503.9638   0.01023069 0.0089389025            8 
 4106000   0.58080358   -8.8890623    502.72208  0.010202997 0.0089355539           14 
 4107000   0.59729554   -8.8984806    503.66878  0.010219722 0.0089322076           11 
 4108000    0.5943265    -8.882876    503.63177  0.010216484 0.0089288623           13 
 4109000   0.58726452   -8.8864176    503.75323   0.01021646 0.0089255192           11 
 4110000   0.58801296   -8.8982704    502.68796  0.010192375 0.0089221745           22 
 4111000   0.59201733   -8.8842976     502.8307   0.01019279 0.0089188339           18 
 4112000   0.59264156   -8.8982667    503.25949  0.010199001 0.0089154973           12 
 4113000   0.58362811   -8.8833441     502.6159  0.010183481 0.0089121637            9 
 4114000   0.58766939   -8.8902125    504.09417   0.01021095 0.0089088242           11 
 4115000   0.59921873   -8.8766472    503.03989  0.010187118 0.0089054941           12 
 4116000   0.58181393   -8.9047224    502.81332  0.010180056  0.008902161           12 
 4117000   0.59476773   -8.9079743     502.8783  0.010178899 0.0088988269           12 
 4118000   0.58931545   -8.9020087    503.81021  0.010195285 0.0088954958            9 
 4119000   0.59322562   -8.8985464    503.30342  0.010182557 0.0088921701           10 
 4120000   0.60056027   -8.9050106    502.44061  0.010162634 0.0088888476            6 
 4121000   0.58620666   -8.9028133    502.34147  0.010158163 0.0088855237           17 
 4122000   0.59040116   -8.8962606    502.61545  0.010161237 0.0088821968           11 
 4123000   0.60299211   -8.8866121    502.98593  0.010166261 0.0088788742           13 
 4124000   0.59825761   -8.8859576    503.03878  0.010164864 0.0088755574           11 
 4125000   0.59888598   -8.8874903    502.98014  0.010161215 0.0088722371           12 
 4126000   0.59223362   -8.8926989    502.29396  0.010144893 0.0088689249            8 
 4127000   0.59759958   -8.9241676     502.7066  0.010150767 0.0088656101            5 
 4128000   0.59754684    -8.893882    503.31202   0.01016053 0.0088622968           18 
 4129000   0.59736362   -8.8928698    502.63496  0.010144405 0.0088589859            5 
 4130000   0.58277332   -8.9103517    503.45311  0.010158457 0.0088556751            9 
 4131000   0.59726122   -8.9324326    502.06391  0.010127974 0.0088523641           12 
 4132000   0.59416065   -8.9012039    502.63784  0.010137097 0.0088490537           15 
 4133000    0.5946255   -8.9127002    503.26874  0.010147366 0.0088457457           10 
 4134000   0.58261339   -8.9197501    502.81518  0.010135768   0.00884244            7 
 4135000   0.59800605   -8.9078065    503.01768  0.010137398 0.0088391309           13 
 4136000   0.58163873   -8.8927394    503.33289  0.010141298 0.0088358255           13 
 4137000   0.57905235   -8.9192911     503.1277  0.010134713 0.0088325243           22 
 4138000   0.58909861   -8.9033738     502.9039  0.010127757 0.0088292241           12 
 4139000   0.58717798   -8.8893347    502.47407  0.010116656 0.0088259261            9 
 4140000   0.58152602   -8.8923069    503.21765   0.01012918 0.0088226304            5 
 4141000    0.5934403   -8.8823394    502.72516  0.010116823 0.0088193366            9 
 4142000   0.60061343   -8.8997848    502.94058  0.010118714 0.0088160474            9 
 4143000     0.577748   -8.9094175    502.88951  0.010115245 0.0088127577            9 
 4144000   0.57835561   -8.9108466    502.88557  0.010112725 0.0088094676           14 
 4145000   0.59312182   -8.8949974    503.26674  0.010117948 0.0088061786           12 
 4146000    0.5972915   -8.9320316    501.84412  0.010086913 0.0088028902           14 
 4147000   0.59556818   -8.9107988    502.48689  0.010097397 0.0087996037           17 
 4148000   0.58537138   -8.9197508    502.91333   0.01010353 0.0087963196           14 
 4149000   0.60096296   -8.9026947    502.78099  0.010098437 0.0087930361            8 
 4150000   0.58647326   -8.8933471    503.19699  0.010104357 0.0087897553            9 
 4151000   0.58690369   -8.9110497     503.8224  0.010114478 0.0087864756            7 
 4152000   0.59608603   -8.9183396     503.4767  0.010105104 0.0087832016           10 
 4153000   0.58263293   -8.9300491    503.30904  0.010099307 0.0087799297           15 
 4154000   0.59039494   -8.9235633    502.51692  0.010080985 0.0087766528            8 
 4155000   0.59196481   -8.8955643    502.60044  0.010080233 0.0087733794           11 
 4156000   0.58462475   -8.9032876    502.62677  0.010078336 0.0087701116            8 
 4157000   0.58484527   -8.8794874    503.91854  0.010101807 0.0087668472           11 
 4158000   0.59549334     -8.89216    503.42458  0.010089478 0.0087635806            7 
 4159000   0.59434713   -8.8914702    503.76577  0.010093888  0.008760315           11 
 4160000   0.60574585   -8.9193508    502.56158  0.010067339 0.0087570493           13 
 4161000   0.58264323   -8.9263175      502.151  0.010056697 0.0087537851           11 
 4162000   0.58349156   -8.9247604    502.93108    0.0100699  0.008750521           11 
 4163000   0.57052413   -8.9171019    502.94633  0.010067786 0.0087472585           10 
 4164000   0.59473373   -8.9061237    502.77998  0.010062039 0.0087439948           13 
 4165000   0.58880423   -8.9011907    501.80564  0.010040129 0.0087407322            9 
 4166000    0.5770555   -8.9053844    502.98154  0.010061241  0.008737478           11 
 4167000   0.58423092   -8.9137081    502.42185  0.010047633 0.0087342196            5 
 4168000   0.58348024   -8.9112349    501.64762  0.010029743 0.0087309633            7 
 4169000   0.58420212   -8.9158261    502.46567  0.010043689 0.0087277105           16 
 4170000   0.58484935   -8.9134657    502.67833   0.01004553  0.008724459           17 
 4171000    0.5911351   -8.9170049    502.04734  0.010030515 0.0087212062            8 
 4172000   0.58187676   -8.9180424    502.59037  0.010038958 0.0087179561           11 
 4173000    0.5808479   -8.9315968    502.91516  0.010043038 0.0087147083           12 
 4174000   0.57919227   -8.9225767     502.5246  0.010032834 0.0087114604           11 
 4175000   0.57947943   -8.9311026    502.25922  0.010025134 0.0087082151           16 
 4176000   0.58617323   -8.9123649    502.18856  0.010021323 0.0087049646            7 
 4177000   0.57077978   -8.9204372    502.67145  0.010028558 0.0087017245           12 
 4178000   0.59090283   -8.9232803    502.95401  0.010031794 0.0086984797           11 
 4179000   0.56806044   -8.8951515    502.41228  0.010018591 0.0086952388           14 
 4180000   0.58070646   -8.8908491    502.34246  0.010014802 0.0086919981           15 
 4181000   0.57867161    -8.927174    501.35386 0.0099927023 0.0086887607           20 
 4182000   0.57036621   -8.9118452    503.12019   0.01002551 0.0086855241            6 
 4183000   0.58835745   -8.9197811    502.51898  0.010011136 0.0086822886           16 
 4184000   0.58429346   -8.9234182    502.50509  0.010008467  0.008679056           13 
 4185000    0.5825762   -8.9195677    503.51309  0.010026147 0.0086758273           12 
 4186000   0.57586958   -8.9285613    502.46308  0.010002848 0.0086725992            7 
 4187000   0.58046665   -8.9065934    502.29071 0.0099970286 0.0086693712            7 
 4188000   0.58558257   -8.9258387    501.69861   0.00998286 0.0086661456           11 
 4189000   0.58221542   -8.9074504    502.14115 0.0099892805 0.0086629218            9 
 4190000   0.57730769   -8.9175118    503.28622   0.01000967 0.0086597048           17 
 4191000   0.58933094   -8.9134665    502.90724 0.0099997463 0.0086564871           14 
 4192000   0.58832085   -8.9060407    503.18879  0.010002958  0.008653269           15 
 4193000   0.57902138   -8.8929387    502.97091  0.009996242 0.0086500554            6 
 4194000   0.57267177   -8.9413011    502.25474 0.0099796283 0.0086468382           18 
 4195000   0.59052199   -8.9141661    502.50444 0.0099822097 0.0086436218           16 
 4196000   0.57795989   -8.9069604    503.65021  0.010002586 0.0086404121           19 
 4197000    0.5817447    -8.914325    502.30696 0.0099735319  0.008637199           17 
 4198000   0.57812418   -8.9106404    501.85907 0.0099622652 0.0086339902           13 
 4199000   0.58342387   -8.9155058    503.29802 0.0099884501 0.0086307827           14 
 4200000   0.59278265   -8.9300636    502.24968 0.0099652714 0.0086275753           14 
 4201000   0.58195395   -8.9021759    503.21022 0.0099819531 0.0086243655           10 
 4202000   0.57673527    -8.907496     503.1113 0.0099776159 0.0086211623           21 
 4203000   0.59075487   -8.9241987    502.55118 0.0099641363 0.0086179563           14 
 4204000    0.5752449    -8.929322    502.50604 0.0099608714 0.0086147584           12 
 4205000   0.58104078   -8.9233077    502.28726 0.0099541668 0.0086115569           11 
 4206000   0.58900691   -8.9309259    502.42209 0.0099544716 0.0086083592           12 
 4207000   0.58435465   -8.9287003    502.72459 0.0099580974 0.0086051624           12 
 4208000   0.58449435   -8.9167271    501.99844 0.0099413507  0.008601963           15 
 4209000   0.57727896   -8.9146259    501.91529 0.0099373424  0.008598766           12 
 4210000   0.57861445   -8.9139086    502.28881 0.0099423755  0.008595573           14 
 4211000   0.57096217   -8.8912106    503.01541 0.0099543934 0.0085923859           13 
 4212000   0.58645412   -8.9189049    502.87752  0.009949302 0.0085891937            7 
 4213000   0.57432772   -8.9346685    502.15811 0.0099327104 0.0085860014           22 
 4214000   0.58574609   -8.9262423    502.39674 0.0099350723 0.0085828104           17 
 4215000    0.5702605   -8.9234426    502.27096 0.0099302286 0.0085796248           14 
 4216000   0.58329368   -8.9151015    502.26997 0.0099278537 0.0085764364           12 
 4217000     0.580219    -8.937978    502.74956 0.0099349766 0.0085732533            9 
 4218000   0.58239538   -8.9207886    502.34952 0.0099247179 0.0085700722           11 
 4219000   0.57752925   -8.9453124    502.76442 0.0099305605 0.0085668898            9 
 4220000   0.57806383   -8.9500813    501.83655 0.0099098845 0.0085637072           25 
 4221000   0.56476052   -8.9051056    503.37139 0.0099378383 0.0085605266            9 
 4222000   0.56386462   -8.9326522    502.16497 0.0099116725 0.0085573488           16 
 4223000   0.57009918   -8.9447393    502.82704   0.00992239 0.0085541718           11 
 4224000   0.57358462   -8.9205208     503.5674 0.0099346473 0.0085509935            9 
 4225000   0.57206281   -8.9414039    502.24722 0.0099062567 0.0085478186           19 
 4226000    0.5706109   -8.9227483    502.38162 0.0099065629 0.0085446475           13 
 4227000   0.59085577   -8.9345756    502.60078 0.0099085399 0.0085414791           12 
 4228000   0.56371021   -8.9072099    502.07805 0.0098958934 0.0085383119            8 
 4229000   0.59489526   -8.9210109    502.16231 0.0098952139 0.0085351425           17 
 4230000   0.58830483   -8.9400793    502.53629 0.0099002421 0.0085319758           12 
 4231000   0.56487641   -8.9221852    502.04879 0.0098883004 0.0085288082            9 
 4232000   0.57104108   -8.9403741    502.29451 0.0098908024 0.0085256418           13 
 4233000   0.56094234   -8.9259658    502.83458  0.009899098 0.0085224777            8 
 4234000   0.58360084   -8.9422902    503.60307 0.0099118853 0.0085193143            9 
 4235000   0.58257202   -8.9340585    502.29512  0.009883808 0.0085161533           16 
 4236000   0.57083691   -8.9564921    501.77263  0.009871196 0.0085129917           16 
 4237000   0.56139257   -8.9329003    501.61658  0.009865797   0.00850983           10 
 4238000   0.56984905   -8.9311706    502.22665  0.009875465 0.0085066702           13 
 4239000   0.55907069    -8.937703    502.15969 0.0098718191 0.0085035145            9 
 4240000   0.57833028   -8.9230068     502.2079 0.0098704383  0.008500359           10 
 4241000   0.57477352   -8.9464764    501.47451 0.0098537002 0.0084972046            9 
 4242000   0.57081321   -8.9317685    503.23013 0.0098858662 0.0084940505            7 
 4243000   0.56612183   -8.9309633    501.72465 0.0098539684 0.0084908983           13 
 4244000    0.5637956   -8.9349119    503.21696 0.0098809487 0.0084877494           16 
 4245000   0.56994621   -8.9406491    501.93079 0.0098533725 0.0084846014           10 
 4246000   0.56832881     -8.93365    501.67818 0.0098460941 0.0084814576           35 
 4247000    0.5768815   -8.9619774    501.81749 0.0098465092 0.0084783122           14 
 4248000   0.56652384   -8.9364494     501.8344 0.0098445229 0.0084751672            9 
 4249000   0.56123314    -8.913918    501.59566 0.0098375238 0.0084720245            7 
 4250000   0.57208206   -8.9293881    501.59139 0.0098351253  0.008468881           10 
 4251000   0.56844266   -8.9598448    501.75235  0.009835967 0.0084657441           15 
 4252000   0.56771682   -8.9361152    502.00607 0.0098386264 0.0084626076            9 
 4253000   0.58000735   -8.9389966    501.94814 0.0098351779 0.0084594724           11 
 4254000    0.5742364   -8.9490965    502.96776 0.0098528396 0.0084563407            9 
 4255000   0.56658155   -8.9496832    502.65435  0.009844386 0.0084532068           11 
 4256000   0.56450669   -8.9434429    502.47255 0.0098385132 0.0084500731            8 
 4257000   0.57632317   -8.9490779    502.46847 0.0098361223 0.0084469438           12 
 4258000   0.57145006   -8.9494151    501.78149 0.0098203673 0.0084438132           12 
 4259000   0.58651398   -8.9195192    501.86978 0.0098197891 0.0084406855            8 
 4260000   0.57208837   -8.9369054    502.38932 0.0098276471 0.0084375621           18 
 4261000   0.56425784   -8.9427597    502.28983  0.009823395 0.0084344348           16 
 4262000   0.58239462    -8.946126    501.40098 0.0098037108 0.0084313105            9 
 4263000   0.56266429   -8.9435957    502.50499 0.0098229922 0.0084281868            8 
 4264000    0.5798324   -8.9362108    501.60505 0.0098031005 0.0084250654            9 
 4265000   0.57725772   -8.9396325    501.54344 0.0097995982 0.0084219431           11 
 4266000   0.56824402   -8.9531118    501.01178 0.0097869155  0.008418822           15 
 4267000   0.57883319   -8.9416302    502.84528 0.0098204296 0.0084157085           20 
 4268000   0.57080289   -8.9513213    502.24788 0.0098064644 0.0084125909            9 
 4269000   0.56486819   -8.9508306    502.14105 0.0098020818 0.0084094793           12 
 4270000    0.5717106   -8.9566758    501.88488 0.0097947869 0.0084063653           10 
 4271000   0.57064333   -8.9575141    502.51407 0.0098047699 0.0084032552           10 
 4272000   0.58168445   -8.9329704    501.72509 0.0097870843 0.0084001491            8 
 4273000    0.5750421   -8.9466617    501.80929 0.0097864359  0.008397046           13 
 4274000   0.56486325   -8.9551338    503.06318 0.0098085943 0.0083939366           10 
 4275000   0.56799406   -8.9506198    502.53057 0.0097959176 0.0083908291           10 
 4276000   0.57560193   -8.9467348    502.34785 0.0097900658 0.0083877266           10 
 4277000   0.57432792   -8.9332933    502.06684 0.0097823015 0.0083846283           20 
 4278000   0.57686157   -8.9526583    501.88578 0.0097764879  0.008381524           14 
 4279000   0.57729348   -8.9458904    502.41541 0.0097845175  0.008378427           16 
 4280000   0.56616676    -8.943914    501.59427 0.0097662436 0.0083753281            8 
 4281000   0.57025864   -8.9667029    501.59594 0.0097639948 0.0083722314           12 
 4282000   0.56861923   -8.9408043    501.20195  0.009754047 0.0083691342           11 
 4283000   0.57212096   -8.9655751    502.47465 0.0097765322 0.0083660375           13 
 4284000   0.56775316   -8.9508271    502.22504 0.0097693946 0.0083629431            9 
 4285000   0.57380596   -8.9552301    500.99183 0.0097431317 0.0083598476            7 
 4286000   0.57154225   -8.9532914    502.43842 0.0097689846 0.0083567573            9 
 4287000   0.55909514   -8.9426257    502.25676 0.0097631748 0.0083536654            8 
 4288000   0.57789029   -8.9408374    501.65244 0.0097491535 0.0083505792           17 
 4289000     0.575281    -8.956564    501.62765 0.0097463987 0.0083474937            9 
 4290000   0.56107705   -8.9408176    502.64916 0.0097639696 0.0083444122           11 
 4291000   0.56647454   -8.9501623    502.88969 0.0097663654 0.0083413304            7 
 4292000   0.56849272   -8.9520923    501.93021 0.0097454608 0.0083382478            6 
 4293000   0.56586915   -8.9557684    501.97656 0.0097440904  0.008335163            8 
 4294000    0.5678106   -8.9455834     501.2879 0.0097284564 0.0083320829           12 
 4295000   0.56937192   -8.9550437    502.01641 0.0097403262 0.0083290057           12 
 4296000   0.56115521   -8.9440638     502.0019 0.0097377775 0.0083259278           11 
 4297000   0.55634382   -8.9513312    500.89507 0.0097140459   0.00832285            7 
 4298000   0.56784714   -8.9518163    501.56612 0.0097247967 0.0083197747            7 
 4299000   0.56815225    -8.955136    501.28455 0.0097170767 0.0083166989            4 
 4300000   0.57154254   -8.9558276    502.49845  0.009738342  0.008313629           34 
 4301000   0.56387344   -8.9472987    501.53376 0.0097173867 0.0083105594           13 
 4302000   0.56720439   -8.9377795    501.79906 0.0097202668  0.008307493            6 
 4303000   0.57122509   -8.9555277    501.92873 0.0097205192 0.0083044275           19 
 4304000   0.56017849   -8.9658234    501.12759 0.0097027493 0.0083013626           10 
 4305000   0.56111195   -8.9598897    502.35791 0.0097243111 0.0082982969           13 
 4306000   0.56245853   -8.9530545    501.83663 0.0097119646 0.0082952335           10 
 4307000    0.5527168   -8.9530555    501.71451 0.0097073468 0.0082921697           15 
 4308000    0.5688772   -8.9575613     501.2093 0.0096953206 0.0082891076           15 
 4309000   0.56124015   -8.9648628    502.24591 0.0097131181 0.0082860484           10 
 4310000   0.56698222   -8.9367375    501.92758 0.0097047096 0.0082829869            8 
 4311000   0.55615281   -8.9490263    501.69634 0.0096979885 0.0082799318           10 
 4312000   0.56165678   -8.9621711     501.6311 0.0096944786 0.0082768774           12 
 4313000    0.5525711   -8.9542803    501.82355 0.0096959492  0.008273824           16 
 4314000   0.56805084   -8.9645325    501.75939 0.0096924623  0.008270773            9 
 4315000   0.55034125   -8.9734029    502.06236 0.0096960671 0.0082677214           10 
 4316000   0.56373594   -8.9704703    502.03207 0.0096932358 0.0082646705            7 
 4317000   0.54952816   -8.9548955    501.34168 0.0096776635 0.0082616258            9 
 4318000   0.56671848   -8.9524239    502.32208 0.0096943431 0.0082585843           14 
 4319000   0.56365263   -8.9675168    501.16494  0.009669772  0.008255541           10 
 4320000   0.57073812   -8.9572692    500.66084 0.0096578094 0.0082524945           16 
 4321000   0.56213602   -8.9513874     502.6239 0.0096934333 0.0082494494           12 
 4322000   0.57182371   -8.9660478    501.41285 0.0096678398 0.0082464106            6 
 4323000   0.53937004   -8.9599801    501.82155 0.0096734819 0.0082433688           12 
 4324000   0.55812543   -8.9586995    501.95607 0.0096738373 0.0082403291           15 
 4325000   0.55003397   -8.9711289    501.14656 0.0096560031  0.008237291           17 
 4326000   0.56318643    -8.977162    501.54067 0.0096613628 0.0082342559           10 
 4327000   0.56092615   -8.9692037    501.07054 0.0096500758 0.0082312198            6 
 4328000   0.55058298    -8.943101    501.83382 0.0096625428  0.008228188            6 
 4329000   0.56370775   -8.9508835    501.52182 0.0096543048 0.0082251578           10 
 4330000    0.5630661   -8.9682019      502.487 0.0096706504 0.0082221272           10 
 4331000   0.56853313   -8.9628355    501.69899 0.0096532554 0.0082191002           10 
 4332000   0.55218545    -8.944554    501.54884 0.0096481386 0.0082160714            9 
 4333000   0.55798265   -8.9883888    501.79225 0.0096505933 0.0082130457           14 
 4334000   0.56386414   -8.9587173       500.86 0.0096304415 0.0082100228           13 
 4335000   0.54410956    -8.975629    501.60186 0.0096424809 0.0082069998            5 
 4336000   0.56308258   -8.9534357     500.9339 0.0096274197  0.008203979           17 
 4337000   0.54869628   -8.9556922     502.2708 0.0096508878 0.0082009576           10 
 4338000   0.56160136     -8.96752    501.35576  0.009631085 0.0081979392            8 
 4339000   0.55354353   -8.9584035    501.62514 0.0096340389 0.0081949199           10 
 4340000   0.56112054   -8.9798865    501.05707 0.0096209116 0.0081919036           12 
 4341000   0.56713211    -8.961502    501.58819  0.009628891 0.0081888901            7 
 4342000   0.55589447    -8.966719    501.88283 0.0096323282 0.0081858748           11 
 4343000   0.55807406   -8.9734452    501.59814 0.0096246477 0.0081828639           16 
 4344000   0.55228458   -8.9499548    501.06267 0.0096121598 0.0081798569            9 
 4345000   0.57153294   -8.9707833    501.40464 0.0096165063 0.0081768494            8 
 4346000   0.55078321   -8.9728862    501.47132 0.0096155722 0.0081738386           11 
 4347000   0.54483139    -8.965614     501.1113 0.0096064585 0.0081708363           17 
 4348000   0.54380393   -8.9802769    501.28001 0.0096074825 0.0081678333           15 
 4349000   0.55643234     -8.99295    501.08396 0.0096015168 0.0081648297            9 
 4350000   0.55916618   -8.9587345    500.63484 0.0095907057  0.008161827           11 
 4351000   0.55071931   -8.9691087    500.83096 0.0095922576 0.0081588231           11 
 4352000   0.56334691   -8.9801743     501.5467 0.0096037589 0.0081558196           16 
 4353000   0.55760857   -8.9643163    500.80202 0.0095872965 0.0081528188           11 
 4354000   0.56925825   -8.9630342    501.48348 0.0095981373  0.008149822           11 
 4355000   0.55888702   -8.9880909    501.63361 0.0095988062 0.0081468257            8 
 4356000     0.559845   -8.9595745    501.66005 0.0095971085 0.0081438332           13 
 4357000   0.56125907     -8.95237    501.19577 0.0095860257 0.0081408412           12 
 4358000   0.55563469   -8.9552581    501.27115 0.0095852675 0.0081378518           11 
 4359000   0.56179361   -8.9482476     501.0946 0.0095796934 0.0081348643           13 
 4360000   0.55694915   -8.9765615    500.73611 0.0095706444 0.0081318754           11 
 4361000   0.55250083   -8.9707642    500.94627 0.0095724656 0.0081288877           13 
 4362000   0.55441265   -8.9845246    501.19119 0.0095749501 0.0081259039           11 
 4363000   0.56081823   -8.9651183    500.39176 0.0095574865 0.0081229187           12 
 4364000   0.54753087   -8.9577093    500.92928 0.0095655606  0.008119937           18 
 4365000    0.5679898   -8.9510597    500.91892 0.0095631715 0.0081169573           15 
 4366000   0.55155118   -8.9818316    500.95569 0.0095616828 0.0081139789           19 
 4367000   0.55441687   -8.9698124    501.24949 0.0095650997 0.0081110006            8 
 4368000   0.55596724   -8.9882902     500.6935 0.0095523028 0.0081080228           22 
 4369000   0.55638185   -8.9632422    500.95936 0.0095551872 0.0081050467            9 
 4370000   0.55056049   -8.9758714    501.34168 0.0095602914 0.0081020725           14 
 4371000   0.56265838   -8.9639131    500.33604 0.0095389315 0.0080990996           10 
 4372000   0.54736929   -8.9752466    501.44042    0.0095578 0.0080961304           14 
 4373000   0.54482676     -8.98463    501.87427 0.0095638819 0.0080931566           17 
 4374000   0.55899922   -8.9766132    501.81156 0.0095605006 0.0080901835            9 
 4375000   0.54813726   -8.9678054    501.01036 0.0095430544 0.0080872114           10 
 4376000   0.55295858    -8.967194    500.90354 0.0095388395 0.0080842444           12 
 4377000   0.56205622   -8.9801158    501.17232 0.0095417775 0.0080812783           19 
 4378000   0.55107225   -8.9715681    501.61043 0.0095479372 0.0080783137           18 
 4379000   0.54043544   -8.9692258    500.79489 0.0095302369 0.0080753483           17 
 4380000   0.54497834   -8.9821126    501.84937 0.0095481235 0.0080723885           13 
 4381000   0.54415134   -8.9783029    501.17733 0.0095331608 0.0080694258            8 
 4382000   0.54779372   -8.9713653    500.20998 0.0095125889 0.0080664653            8 
 4383000   0.55682253   -8.9927558    500.48614 0.0095156692  0.008063507            9 
 4384000   0.55883119   -8.9978408     500.7455 0.0095184288 0.0080605511            6 
 4385000   0.54711338   -8.9771737    500.75842 0.0095165036 0.0080575954           12 
 4386000   0.55430026   -8.9579422    500.96776 0.0095183112 0.0080546423           22 
 4387000     0.546722   -8.9696863    500.93117 0.0095154465 0.0080516883           10 
 4388000   0.55172038   -8.9941659    499.55724 0.0094871856 0.0080487364           11 
 4389000   0.56278985   -8.9692587    500.94247  0.009511325 0.0080457869           10 
 4390000    0.5550303   -8.9728204    500.75881 0.0095056722 0.0080428386            8 
 4391000   0.54713192   -8.9870356    500.49461 0.0094984933 0.0080398901           13 
 4392000   0.54584441   -8.9712459    500.47127 0.0094958878 0.0080369435           12 
 4393000   0.54611579   -8.9822865     500.9066 0.0095019843 0.0080339995            6 
 4394000   0.53230843   -8.9819946    500.98842 0.0095013735 0.0080310556           17 
 4395000   0.54933754   -8.9826337     500.8377 0.0094963538 0.0080281145           14 
 4396000    0.5600606   -8.9907666    500.91634 0.0094956844 0.0080251738           18 
 4397000   0.54539329   -8.9762765    501.25605  0.009499963 0.0080222352           13 
 4398000    0.5565553   -8.9717959    500.82689 0.0094896712 0.0080192963           13 
 4399000   0.54590964    -8.982938    502.00719 0.0095098733 0.0080163588           10 
 4400000   0.54723174   -8.9754917    501.10256 0.0094905788 0.0080134217           16 
 4401000   0.55353284   -8.9801528    500.39298 0.0094749863 0.0080104877           13 
 4402000    0.5469672   -8.9734752    501.11439 0.0094864909 0.0080075566           11 
 4403000   0.55864285   -8.9725516    500.36287 0.0094701126 0.0080046277            9 
 4404000    0.5493205   -8.9799727    500.48735 0.0094703177 0.0080017011           16 
 4405000   0.54621165   -8.9910687    500.83936 0.0094748271 0.0079987729           19 
 4406000   0.54199468   -9.0018183    500.89871 0.0094737991  0.007995845           10 
 4407000   0.54344657   -8.9721868    501.80243 0.0094887382 0.0079929168            6 
 4408000   0.54717252   -9.0017301    501.41235 0.0094792112  0.007989994           14 
 4409000   0.54740156   -8.9878163      499.987 0.0094501209  0.007987072           13 
 4410000     0.542999   -8.9911494    500.82789 0.0094638679 0.0079841474           10 
 4411000    0.5412186   -8.9948601    501.04023  0.009465734 0.0079812275            9 
 4412000   0.54334809   -8.9795939    501.14002 0.0094654734 0.0079783082           13 
 4413000   0.55350927   -8.9894942    502.52322 0.0094894481 0.0079753913           12 
 4414000   0.55661763   -9.0039742    501.50241 0.0094680261 0.0079724741            8 
 4415000   0.56621663   -8.9935582    501.04372 0.0094572239 0.0079695583           14 
 4416000   0.54189905   -8.9777315    501.32701 0.0094604282 0.0079666433            9 
 4417000   0.54510098   -8.9831517    500.60055 0.0094445806 0.0079637332           15 
 4418000    0.5372312   -9.0020605    500.65036 0.0094433823 0.0079608228           19 
 4419000   0.55062578   -8.9822042    500.81089 0.0094442727  0.007957913           16 
 4420000   0.54630403   -8.9929436    500.50172  0.009436307 0.0079550054           13 
 4421000    0.5469562    -9.005286    501.10857 0.0094456114 0.0079521011           11 
 4422000   0.54465445   -8.9798206    500.13104 0.0094250536 0.0079491931           35 
 4423000   0.53997371   -8.9954226    500.73404 0.0094342837 0.0079462911            8 
 4424000   0.54070902   -8.9808759    500.85791 0.0094344845 0.0079433871           10 
 4425000   0.54585318   -8.9831853    500.82354 0.0094317052 0.0079404837           17 
 4426000   0.54590672   -8.9802395    501.78829 0.0094477385  0.007937584           13 
 4427000    0.5444974   -8.9897793    500.86667  0.009428256 0.0079346842           18 
 4428000   0.53809315   -8.9933912    500.82907 0.0094254191 0.0079317875           16 
 4429000    0.5452314   -8.9959106    501.20998  0.009430458 0.0079288937           12 
 4430000   0.54597751   -8.9945617    500.90021 0.0094225021 0.0079260001            8 
 4431000   0.54751934   -8.9899914    501.17349 0.0094255151 0.0079231044           12 
 4432000   0.54264733   -8.9781768     500.9117  0.009418466 0.0079202105            9 
 4433000   0.53565095   -8.9847111    500.84177 0.0094150269 0.0079173182           11 
 4434000   0.54329663    -8.976806    501.73872  0.009429761 0.0079144294           17 
 4435000   0.54462616    -8.988074    500.31726 0.0094009257 0.0079115409            8 
 4436000    0.5418424   -8.9887329    500.92136 0.0094101547  0.007908653            8 
 4437000    0.5426823   -8.9857752    500.41134  0.009398455 0.0079057664           12 
 4438000   0.54262148   -8.9737539     501.4479  0.009415801 0.0079028832           18 
 4439000   0.53628649   -8.9887134    501.50205 0.0094146964 0.0078999982            7 
 4440000   0.54392207   -8.9740831    500.76269 0.0093986992  0.007897116           16 
 4441000   0.55074257   -8.9747075    500.93931 0.0093998969  0.007894238           12 
 4442000   0.54719138    -9.004501     500.9288 0.0093975837 0.0078913581           15 
 4443000   0.54452575   -8.9963478    500.83918 0.0093937876 0.0078884814            8 
 4444000   0.54341627   -8.9782055    500.78216 0.0093906045 0.0078856083           10 
 4445000     0.543592   -8.9924964    501.10062 0.0093944623  0.007882732            8 
 4446000   0.54605124    -8.987798    500.62961  0.009383521 0.0078798595           11 
 4447000   0.53364135   -8.9918503    501.26078 0.0093932385 0.0078769896           17 
 4448000    0.5304585   -8.9961316    500.38299 0.0093746813 0.0078741203           18 
 4449000   0.53515888   -8.9693588    500.57986 0.0093762617 0.0078712535           11 
 4450000   0.54381735   -8.9904275    501.09754 0.0093838491 0.0078683861           10 
 4451000   0.52690135   -8.9971842    501.89695 0.0093967076 0.0078655205           13 
 4452000   0.54478644   -8.9912032    500.75375 0.0093731984 0.0078626563           24 
 4453000   0.54363668   -8.9897678    499.96551 0.0093563423 0.0078597893           15 
 4454000   0.54653476    -8.997586     501.3792 0.0093806915  0.007856926            9 
 4455000   0.52852722   -8.9911564    501.12262 0.0093737865 0.0078540671            7 
 4456000   0.53189835   -8.9917868    501.15728  0.009372331 0.0078512069           11 
 4457000    0.5455429   -9.0170713    499.71614 0.0093432829  0.007848348           11 
 4458000   0.53802034    -8.995879    500.86984 0.0093627531 0.0078454899           11 
 4459000   0.52980381   -9.0050573    500.07032 0.0093457113 0.0078426326           12 
 4460000   0.53244245   -8.9849522    501.64262 0.0093729937 0.0078397759            8 
 4461000   0.54173832   -8.9807226    501.51761 0.0093685573 0.0078369233           26 
 4462000   0.52437676   -8.9900721    501.31898  0.009362748 0.0078340706           12 
 4463000   0.53264907   -8.9852641    500.60079 0.0093472402 0.0078312209           12 
 4464000   0.54735858   -9.0036405    500.92615 0.0093512199 0.0078283731            9 
 4465000   0.53372349   -9.0202173    500.13677 0.0093343929 0.0078255243           21 
 4466000   0.53062087   -9.0116956    499.81517 0.0093263019 0.0078226758            9 
 4467000   0.53762564   -9.0014881    499.63311 0.0093208176 0.0078198274           10 
 4468000   0.54290347    -8.985109    500.62097 0.0093371562 0.0078169834           11 
 4469000   0.53526102   -8.9983977    500.26652 0.0093284575  0.007814137            8 
 4470000   0.54861996   -8.9972281    500.15154  0.009324227 0.0078112936           14 
 4471000   0.54091308   -8.9903334    500.84905 0.0093351422 0.0078084495            8 
 4472000   0.54528224   -9.0069451    500.87499 0.0093335381 0.0078056101           17 
 4473000   0.53204464   -8.9900398    500.11931 0.0093173729 0.0078027721           14 
 4474000   0.53060508   -9.0003783    500.28776  0.009318428 0.0077999349           10 
 4475000    0.5303885   -9.0121253     500.8314 0.0093264694  0.007797099            8 
 4476000   0.53767844   -8.9868177      501.553 0.0093378202 0.0077942658           14 
 4477000   0.54128753   -8.9904512    500.97328 0.0093249438 0.0077914316           14 
 4478000   0.54212332   -9.0149972     500.4835 0.0093137469 0.0077885983           13 
 4479000   0.52112454   -8.9800895    501.95552 0.0093390549 0.0077857687           14 
 4480000   0.53641734   -8.9916625    500.85841 0.0093165627 0.0077829423           17 
 4481000   0.54284463   -8.9881323    500.50352 0.0093078837  0.007780115           12 
 4482000   0.54203129   -8.9975397    501.05853 0.0093161262 0.0077772905           10 
 4483000   0.54927382   -9.0066253    500.19243 0.0092979483 0.0077744653           27 
 4484000   0.53827287   -9.0098336    500.11431 0.0092944229 0.0077716413           12 
 4485000   0.54208571   -8.9975481    500.37307 0.0092971584 0.0077688163           14 
 4486000   0.52803122   -8.9944953    500.93244 0.0093054771 0.0077659909           10 
 4487000   0.53361747   -9.0253548    500.48998 0.0092951857 0.0077631697            9 
 4488000   0.52909816   -9.0007586    499.38304 0.0092725608 0.0077603476            8 
 4489000   0.53627093   -9.0165373    499.36647 0.0092701877 0.0077575285           10 
 4490000   0.52624095   -9.0138269    500.09835 0.0092817066  0.007754708           12 
 4491000   0.52986689   -9.0087746    498.89299 0.0092572737 0.0077518892           17 
 4492000   0.53253675   -9.0002822    500.07542 0.0092771487 0.0077490762           13 
 4493000   0.52430952   -9.0025842    500.85432 0.0092895304 0.0077462598           15 
 4494000   0.52037437   -8.9973554    500.44329 0.0092798415 0.0077434478           10 
 4495000   0.53856311    -9.003072    500.55569 0.0092798608 0.0077406359           14 
 4496000   0.52943144   -8.9956162    500.23364 0.0092718276 0.0077378241            9 
 4497000   0.53264156   -9.0000794    500.67052 0.0092778615 0.0077350117           16 
 4498000    0.5280508   -9.0118972     499.9656 0.0092627389 0.0077322031           11 
 4499000   0.53397586   -9.0010886    499.89791 0.0092594264 0.0077293953            6 
 4500000   0.52902203   -9.0093297    500.76724 0.0092734673 0.0077265867           14 
 4501000   0.53279157   -9.0002458     500.7114 0.0092703733 0.0077237822           10 
 4502000   0.53577931   -9.0064323    499.84717  0.009252317 0.0077209782           18 
 4503000   0.53074314   -9.0050129    500.13917 0.0092556661 0.0077181764           11 
 4504000   0.52777171     -9.00181    501.12902 0.0092719253 0.0077153735           20 
 4505000   0.52943267   -9.0248336    499.77408 0.0092448036 0.0077125757           12 
 4506000   0.53260127   -9.0049587    500.72032 0.0092602514 0.0077097796            9 
 4507000     0.537531   -9.0225191    500.52024 0.0092544974 0.0077069818           20 
 4508000   0.51824026   -8.9906853    500.45251 0.0092511924  0.007704188           20 
 4509000   0.53266359   -9.0076619    500.75025 0.0092546435 0.0077013957           21 
 4510000   0.53708981   -9.0174792    500.26057 0.0092435434 0.0076986029           14 
 4511000   0.53049732   -9.0080666    499.68374 0.0092308383 0.0076958105           11 
 4512000   0.51917871   -9.0014795    501.08799  0.009254728 0.0076930196           21 
 4513000   0.52678057   -9.0198577      499.997 0.0092325319 0.0076902314           24 
 4514000   0.52028803   -9.0054285    499.95565 0.0092297233 0.0076874454           11 
 4515000   0.53168121   -9.0056714    499.85113 0.0092257499 0.0076846592           20 
 4516000   0.53401941   -9.0200876    500.39065 0.0092336627 0.0076818749           13 
 4517000   0.52686873   -9.0164019    500.02047 0.0092247892 0.0076790944           12 
 4518000   0.51817809   -9.0117602    499.06469 0.0092051182 0.0076763148           13 
 4519000   0.51815888   -9.0143326    500.34983   0.00922678 0.0076735366           17 
 4520000   0.52640199   -9.0130603    500.14168 0.0092209012 0.0076707576           11 
 4521000   0.52452629   -9.0173643    500.98624 0.0092344289 0.0076679803           21 
 4522000   0.53451069   -9.0067832    499.44503 0.0092039847 0.0076652046           10 
 4523000   0.53618411   -9.0191363    500.41912 0.0092198968 0.0076624319           11 
 4524000   0.53039913   -9.0037789    500.38896 0.0092173032 0.0076596577           20 
 4525000   0.53326879   -9.0219282    500.82525 0.0092233011 0.0076568873           19 
 4526000   0.52837026   -8.9960687     500.2581 0.0092108208 0.0076541177           14 
 4527000   0.52687205   -9.0119384    499.85507 0.0092013672 0.0076513513           15 
 4528000   0.51289949   -9.0168369    500.00559 0.0092021053  0.007648583           15 
 4529000   0.53124188   -9.0270461    500.12838 0.0092023327 0.0076458181            7 
 4530000   0.52167714   -9.0150774    500.44175 0.0092060661 0.0076430514           23 
 4531000   0.51651302   -9.0288331    500.27547 0.0092009761 0.0076402882           14 
 4532000   0.52293751   -9.0106924    500.97273 0.0092117669 0.0076375254           29 
 4533000   0.52210143   -9.0172964    499.56326 0.0091838235 0.0076347657           20 
 4534000   0.52000342   -9.0260978    499.77136 0.0091856227 0.0076320066           22 
 4535000   0.52299092   -9.0348847    499.74868 0.0091831805 0.0076292481           12 
 4536000   0.52066311   -9.0060996    499.93353  0.009184552 0.0076264928           18 
 4537000    0.5220005    -9.022188     500.5866 0.0091945229 0.0076237351           13 
 4538000   0.52670677   -9.0078217    499.97605 0.0091812849 0.0076209795           14 
 4539000   0.52433604   -9.0236566    500.19757 0.0091833291  0.007618226           14 
 4540000   0.52841874   -9.0094719    499.40259 0.0091667142  0.007615474           12 
 4541000   0.52911339   -9.0206337    500.57893 0.0091862829 0.0076127232            9 
 4542000   0.53400522   -9.0250675    499.87711  0.009171384  0.007609973            8 
 4543000   0.52492256   -9.0178118     500.3556 0.0091781423 0.0076072267           13 
 4544000   0.52538562    -9.018399    500.13773 0.0091721268 0.0076044839            9 
 4545000   0.52331271   -9.0129432    499.81942 0.0091642724 0.0076017356           12 
 4546000   0.52843202   -9.0228247    500.00865 0.0091657254 0.0075989913           12 
 4547000   0.53233689   -9.0220332    500.58415 0.0091742569 0.0075962488           13 
 4548000   0.52776061   -9.0123358    500.76304 0.0091755175 0.0075935087           18 
 4549000   0.51777627   -9.0055862    500.26988 0.0091644663  0.007590768           16 
 4550000   0.51305118   -9.0261431    499.94455 0.0091564935 0.0075880312           21 
 4551000   0.51231391   -9.0262497    499.41019  0.009144697 0.0075852919           18 
 4552000   0.52562825   -9.0444059    499.98688 0.0091532455  0.007582554           20 
 4553000   0.52391421   -9.0163401    500.40652 0.0091589157 0.0075798168           14 
 4554000   0.51924638   -9.0397216     499.8266 0.0091462926 0.0075770801           13 
 4555000   0.52166557    -9.017976    500.53038 0.0091571602 0.0075743447           11 
 4556000   0.50814904   -9.0463602    500.16476 0.0091484628 0.0075716117           13 
 4557000   0.51091433   -9.0256066    500.21716 0.0091474136 0.0075688792           14 
 4558000     0.528073   -9.0236727    499.93698 0.0091402841 0.0075661485           17 
 4559000   0.51824124   -9.0258731      499.916 0.0091378957 0.0075634196           15 
 4560000   0.50997525   -9.0250508     500.6847 0.0091499397 0.0075606927           14 
 4561000   0.51781648   -9.0305903    499.77996 0.0091314032 0.0075579683           12 
 4562000   0.51698444   -9.0187804    499.23097 0.0091193732 0.0075552408           13 
 4563000   0.51817532   -9.0267162    500.04182 0.0091321831 0.0075525157            8 
 4564000   0.51904336   -9.0260454    499.34636 0.0091174839 0.0075497942           12 
 4565000   0.52476011   -9.0251919    500.86285 0.0091431699 0.0075470741           13 
 4566000   0.52702645   -9.0326833    499.85313 0.0091227393 0.0075443548           10 
 4567000   0.51657915   -9.0313707    499.73484 0.0091185833 0.0075416378           12 
 4568000   0.52040227   -9.0185953    499.53257 0.0091128972 0.0075389179           20 
 4569000   0.51878976   -9.0267269     499.8921   0.00911746 0.0075362039           18 
 4570000   0.52544815   -9.0442144    499.86565 0.0091149827 0.0075334885           16 
 4571000   0.51207194   -9.0255127    500.68769 0.0091279752 0.0075307721           11 
 4572000   0.51878494   -9.0239358    500.02794 0.0091139533 0.0075280577           12 
 4573000   0.52600622    -9.019428     499.9365  0.009110294  0.007525347           15 
 4574000   0.52758229   -9.0219039    499.39153 0.0090983736 0.0075226358            7 
 4575000   0.51851382   -9.0237444    499.13433 0.0090916999 0.0075199287           11 
 4576000   0.51763089   -9.0115906    499.75759 0.0091010633 0.0075172213           13 
 4577000   0.51853492   -9.0212192    500.10727 0.0091054415 0.0075145137            8 
 4578000   0.52059741   -9.0348585    499.61611  0.009094512 0.0075118066           11 
 4579000   0.52014555   -9.0147404    500.11509 0.0091016069 0.0075091031           14 
 4580000   0.52558106   -9.0230906    500.29447 0.0091028833 0.0075063994           30 
 4581000   0.53411251   -9.0221905    499.71511 0.0090903572 0.0075036982           16 
 4582000     0.526312   -9.0397426    500.74728 0.0091071454 0.0075009988           31 
 4583000   0.51454935   -9.0333332    499.83188 0.0090885134 0.0074983001           17 
 4584000   0.51052976   -9.0315493    499.92392 0.0090882039  0.007495602           11 
 4585000   0.51095205   -9.0371904    499.97607 0.0090871696 0.0074929032           24 
 4586000   0.52633549   -9.0192994    499.98786 0.0090854023 0.0074902067           24 
 4587000   0.51968064   -9.0297145    499.73265 0.0090787851 0.0074875138           18 
 4588000   0.52380986   -9.0392568    499.55248 0.0090735339  0.007484824           24 
 4589000   0.51796845   -9.0160867    500.48512 0.0090884929 0.0074821341           10 
 4590000   0.51165575   -9.0357673    499.66532 0.0090716289 0.0074794452           30 
 4591000    0.5198808   -9.0377459    500.38007 0.0090826267 0.0074767557           12 
 4592000   0.52924494   -9.0229446    499.72063 0.0090686816 0.0074740701           14 
 4593000   0.52229812   -9.0223258    499.51224 0.0090629262 0.0074713852           19 
 4594000   0.53127253   -9.0323687    499.83539 0.0090668152  0.007468702           22 
 4595000   0.51495952   -9.0196838    499.54543 0.0090595834 0.0074660182           19 
 4596000    0.5184492   -9.0238952    499.26712  0.009052566 0.0074633353           20 
 4597000   0.52854607   -9.0316963    500.31001 0.0090695021  0.007460655           22 
 4598000   0.51195139   -9.0498887    499.69668 0.0090564137 0.0074579755           12 
 4599000   0.52054379   -9.0337234    499.91497 0.0090583999 0.0074552965           17 
 4600000   0.51951982   -9.0344072     499.2961 0.0090452192 0.0074526184           13 
 4601000   0.51925142   -9.0225001    499.61042 0.0090489462 0.0074499433           12 
 4602000   0.52459383   -9.0318099     500.2237 0.0090580852 0.0074472689            7 
 4603000   0.51099005   -9.0060516    500.66971 0.0090641919 0.0074445961           19 
 4604000   0.50440046   -9.0354891     500.2104 0.0090539096 0.0074419283            9 
 4605000   0.50862111   -9.0503884    499.59524 0.0090408114 0.0074392565           15 
 4606000   0.50743625   -9.0192818    500.09768 0.0090479389  0.007436588           19 
 4607000   0.50806502   -9.0450557     499.4269 0.0090338415 0.0074339216           16 
 4608000   0.51947392   -9.0340541    500.03343 0.0090428499 0.0074312559           11 
 4609000   0.51133235   -9.0243511    499.92024 0.0090388413 0.0074285902           12 
 4610000   0.50784501   -9.0494571    500.24955 0.0090428336 0.0074259265           10 
 4611000   0.50669709   -9.0467275    498.99205 0.0090181459 0.0074232629            7 
 4612000   0.52298713   -9.0207142    499.93493 0.0090332273 0.0074205994            8 
 4613000   0.50858843   -9.0419155    499.24585 0.0090188208 0.0074179396            9 
 4614000   0.52370419   -9.0281551    499.46639 0.0090208493 0.0074152797           17 
 4615000   0.51045865   -9.0527855    499.49316 0.0090193782 0.0074126187           10 
 4616000   0.51087579   -9.0212028     500.3504    0.0090329 0.0074099598           17 
 4617000   0.50925706   -9.0368532    500.32575 0.0090304987 0.0074073037           22 
 4618000   0.52151687    -9.046351    499.11698 0.0090067306 0.0074046476           14 
 4619000   0.51530657    -9.055918    499.55915 0.0090127579  0.007401993           12 
 4620000   0.50684308   -9.0459536    498.80868 0.0089972706 0.0073993392           14 
 4621000   0.52301432   -9.0435917    500.36897 0.0090234611 0.0073966884           13 
 4622000   0.50672424   -9.0514545    499.07575 0.0089981925 0.0073940358           20 
 4623000   0.50719237   -9.0280894    499.30766 0.0090004265 0.0073913831           14 
 4624000   0.51560656   -9.0404141    499.97395 0.0090104879  0.007388737           17 
 4625000   0.51731547   -9.0533069    500.13749 0.0090114864 0.0073860895            7 
 4626000   0.50716353   -9.0554623    499.94604 0.0090060895 0.0073834439           13 
 4627000   0.51518839   -9.0446423    499.51399 0.0089963618 0.0073807986           24 
 4628000   0.49889808   -9.0335512    499.36257 0.0089916914 0.0073781547           15 
 4629000   0.50909562   -9.0376438    499.46067 0.0089915149 0.0073755124           35 
 4630000   0.50771904   -9.0453419    499.59522 0.0089919946 0.0073728701           24 
 4631000   0.51784036    -9.053433    499.54227 0.0089891001 0.0073702298           19 
 4632000   0.51619507   -9.0447667    500.39811 0.0090025566 0.0073675913           16 
 4633000    0.5132398   -9.0467504    499.77686 0.0089894393 0.0073649531            5 
 4634000   0.49740314   -9.0399456    499.72981 0.0089866532 0.0073623163            7 
 4635000   0.51199054    -9.046684    499.13148 0.0089739569 0.0073596787           11 
 4636000   0.50680225   -9.0398458    499.29024 0.0089748748 0.0073570427           14 
 4637000   0.50815554   -9.0361878    499.27993 0.0089727542 0.0073544093           11 
 4638000   0.52925037   -9.0457367     499.5423 0.0089755337 0.0073517763           11 
 4639000   0.51272594   -9.0435257    498.91731 0.0089623718 0.0073491447           20 
 4640000   0.51088943   -9.0409556    499.90611 0.0089781987 0.0073465129           17 
 4641000   0.51845464   -9.0389082    499.32538 0.0089658367 0.0073438847           12 
 4642000   0.50966467   -9.0356065    499.33867 0.0089641439 0.0073412584           14 
 4643000   0.50292947   -9.0480126    498.89875 0.0089543174 0.0073386298           18 
 4644000   0.50062985   -9.0428104    499.31902 0.0089599308 0.0073360033           12 
 4645000   0.49996092   -9.0438345    499.15561 0.0089550702 0.0073333776           16 
 4646000   0.50858159   -9.0605981    498.95876 0.0089496119 0.0073307529           12 
 4647000   0.50949594    -9.044671    499.03893 0.0089491237 0.0073281306           13 
 4648000    0.5182325    -9.026508    498.92482 0.0089451524 0.0073255125           10 
 4649000   0.49756398   -9.0387339    499.84589 0.0089597384 0.0073228943            9 
 4650000    0.5067358   -9.0367015    499.58121 0.0089530682 0.0073202776           15 
 4651000   0.51417133   -9.0375264    499.63145 0.0089520435  0.007317663           23 
 4652000   0.50647419   -9.0652552    499.21965 0.0089427424 0.0073150474           21 
 4653000   0.50223152   -9.0609546    499.15923 0.0089397383 0.0073124316           15 
 4654000   0.51269051   -9.0502129    498.40175 0.0089242543  0.007309817           10 
 4655000   0.50824252   -9.0464389    499.80298 0.0089474217 0.0073072061           24 
 4656000   0.50630118   -9.0511905    499.30398 0.0089365689 0.0073045963           19 
 4657000   0.51017835   -9.0317182    499.82912  0.008944047 0.0073019888           13 
 4658000   0.49985318   -9.0415233    499.76986 0.0089410666 0.0072993801           11 
 4659000   0.50967801   -9.0397321    498.53564 0.0089170717 0.0072967746           13 
 4660000    0.5070095   -9.0548363    499.41669 0.0089309136 0.0072941687            8 
 4661000   0.51210236   -9.0473978    498.64548 0.0089152091  0.007291566           10 
 4662000    0.5062735   -9.0540778    499.21096 0.0089234047 0.0072889647           26 
 4663000   0.50383792   -9.0524482    498.83106 0.0089147019 0.0072863641           17 
 4664000    0.5067256   -9.0422232    499.05127 0.0089167252 0.0072837652           21 
 4665000   0.50594617   -9.0546051    499.97116 0.0089312461 0.0072811657           21 
 4666000   0.50718249   -9.0463545     498.1379 0.0088965906 0.0072785699           13 
 4667000   0.50282823    -9.060105    499.01223 0.0089102962 0.0072759731           16 
 4668000   0.51087463   -9.0392492    499.71193 0.0089208785 0.0072733762           23 
 4669000   0.49738129   -9.0384322    498.86488 0.0089038494 0.0072707813           10 
 4670000    0.4996701   -9.0401766    499.23768 0.0089085954 0.0072681849            9 
 4671000   0.50647738   -9.0392689    499.15432 0.0089052009 0.0072655938           13 
 4672000   0.51150322   -9.0501129     499.7448 0.0089138271  0.007263002           35 
 4673000   0.50082214   -9.0571593    499.39129 0.0089056154 0.0072604124           16 
 4674000   0.49918429   -9.0640339    499.71031 0.0089093979 0.0072578251           13 
 4675000   0.50564286   -9.0441607    499.49397 0.0089036358  0.007255238            7 
 4676000   0.51332393   -9.0484643    498.73815 0.0088882618  0.007252652           20 
 4677000   0.51028991    -9.054838     499.0463  0.008891852 0.0072500691           15 
 4678000   0.49865619   -9.0632291     499.0021 0.0088891638 0.0072474855           22 
 4679000   0.49908384   -9.0390384    499.01021 0.0088874084 0.0072449007           13 
 4680000   0.50862004   -9.0355561    499.40528 0.0088925442 0.0072423194           28 
 4681000   0.50874364      -9.0546    499.26378 0.0088881253 0.0072397402           10 
 4682000   0.51014733    -9.032328    498.77399 0.0088775095 0.0072371628           19 
 4683000   0.50620662    -9.050743    499.54431 0.0088893215 0.0072345847           15 
 4684000   0.50825327   -9.0612063    499.47887 0.0088862594 0.0072320086           20 
 4685000    0.4999656   -9.0507652    499.66451 0.0088876647 0.0072294363           15 
 4686000   0.50162682   -9.0424197    499.38159 0.0088807368 0.0072268636            7 
 4687000   0.50535446   -9.0524901    499.07632 0.0088734144   0.00722429           18 
 4688000   0.51074556   -9.0519761    498.80381 0.0088666775 0.0072217187           15 
 4689000   0.49790355   -9.0483298    498.94643 0.0088673213 0.0072191512           16 
 4690000   0.49982237   -9.0504938      498.554 0.0088584577 0.0072165826           15 
 4691000   0.50950636   -9.0526259     499.0622 0.0088655973 0.0072140164           12 
 4692000   0.49759891   -9.0533709    499.25198 0.0088670783 0.0072114507           12 
 4693000   0.51350708   -9.0491978    499.01381 0.0088609598 0.0072088847           12 
 4694000   0.48639918   -9.0528513    499.31906 0.0088644913 0.0072063204           12 
 4695000   0.50847559   -9.0622285    499.09511 0.0088586282 0.0072037562           18 
 4696000   0.50669467   -9.0823523    498.41598 0.0088446901 0.0072011917           12 
 4697000   0.51100545    -9.058951    499.16514 0.0088560986 0.0071986303           21 
 4698000   0.50107034   -9.0747458     499.5089 0.0088603111 0.0071960708           17 
 4699000   0.49589296   -9.0573572    499.45805 0.0088575238 0.0071935131           16 
 4700000   0.49645068   -9.0636006    499.25948 0.0088521184 0.0071909541            7 
 4701000   0.50060959   -9.0575538    499.39147 0.0088525751  0.007188398           12 
 4702000   0.50869843   -9.0708873    498.68028  0.008838088 0.0071858415           11 
 4703000   0.50526563     -9.05416    499.02845 0.0088423782  0.007183288           19 
 4704000   0.49502524   -9.0659253    499.00649 0.0088401093 0.0071807366           10 
 4705000   0.50965744   -9.0708433    499.49044  0.008846802 0.0071781833           19 
 4706000   0.50457035   -9.0758109    498.88545  0.008834209 0.0071756324           13 
 4707000    0.4976645   -9.0716417    498.51164 0.0088257142 0.0071730829           16 
 4708000   0.49798309   -9.0455662    498.88123 0.0088303814 0.0071705329           15 
 4709000    0.5051755   -9.0636771    499.68301  0.008842695 0.0071679863           14 
 4710000   0.48377058   -9.0620373     498.9278 0.0088274558 0.0071654398           14 
 4711000   0.49172863   -9.0637364      498.934 0.0088256917  0.007162895           17 
 4712000   0.48642987   -9.0597865    498.38738 0.0088141514 0.0071603527           15 
 4713000   0.51026842   -9.0575807    498.75444 0.0088187714 0.0071578103           21 
 4714000   0.49894294   -9.0742339    499.93429 0.0088377579 0.0071552695           17 
 4715000   0.49563523    -9.070848    499.10641 0.0088212515 0.0071527302           19 
 4716000   0.48705038   -9.0555596    499.44523  0.008825368 0.0071501907           23 
 4717000   0.49111559   -9.0760669    499.49842 0.0088244367 0.0071476521           17 
 4718000   0.49016073   -9.0583387    498.69552 0.0088083848  0.007145116           18 
 4719000   0.49467237   -9.0532237    498.77226 0.0088078736  0.007142581           12 
 4720000   0.49666528   -9.0609565    499.19442 0.0088134608 0.0071400476           18 
 4721000   0.49663271   -9.0475522     498.7429 0.0088036239 0.0071375151           14 
 4722000   0.50222413   -9.0841272    498.93831  0.008805208 0.0071349842           20 
 4723000   0.49235346   -9.0651289    498.87459 0.0088022195 0.0071324539           10 
 4724000   0.49431037   -9.0642688    498.43127 0.0087925359 0.0071299264           24 
 4725000   0.50002786   -9.0701532    498.98564 0.0088004522 0.0071273981           10 
 4726000   0.49855309   -9.0669641    498.43569 0.0087888928 0.0071248695           15 
 4727000   0.49574179   -9.0541987    498.90586 0.0087953223 0.0071223439            8 
 4728000   0.49354715   -9.0530668     498.6816 0.0087895093 0.0071198172            8 
 4729000   0.49238446   -9.0688265    499.66011 0.0088048938 0.0071172942           13 
 4730000   0.50063101   -9.0668158    498.72155 0.0087864967 0.0071147726            7 
 4731000   0.48721605   -9.0690718    498.54672   0.00878156  0.007112248           16 
 4732000   0.49761647   -9.0653959    498.97292 0.0087872098 0.0071097272           19 
 4733000   0.48304792   -9.0706257      498.958 0.0087850906 0.0071072072           10 
 4734000   0.48327538    -9.059846    498.77985 0.0087800987 0.0071046888           11 
 4735000   0.49012992   -9.0777344    498.92021 0.0087807147 0.0071021704           15 
 4736000   0.49065648   -9.0685212    499.59312 0.0087907009 0.0070996529           27 
 4737000   0.49859401   -9.0747351    497.98099 0.0087604847 0.0070971366           21 
 4738000   0.48559534   -9.0744332    498.52231 0.0087681566 0.0070946218           14 
 4739000   0.50046562   -9.0593866    499.12506 0.0087769055 0.0070921106           13 
 4740000   0.50357558   -9.0621709    498.59426 0.0087657218 0.0070895977           18 
 4741000   0.49317062   -9.0731823    497.47257 0.0087441568 0.0070870859           10 
 4742000   0.50756513   -9.0697481    498.52407 0.0087607913 0.0070845747           17 
 4743000   0.48565499   -9.0687742    498.79187 0.0087636494 0.0070820662            9 
 4744000   0.49464236   -9.0861722    498.68708 0.0087599614 0.0070795596            9 
 4745000   0.49351541   -9.0730289    498.54536 0.0087556264  0.007077052           20 
 4746000   0.49771201   -9.0634293    498.72689 0.0087569688 0.0070745454           15 
 4747000    0.4892653   -9.0718913    498.45883 0.0087504184 0.0070720421           10 
 4748000   0.48577675   -9.0672668    499.54779 0.0087676879  0.007069541           14 
 4749000   0.49489443   -9.0683641    499.16356 0.0087590995 0.0070670389           13 
 4750000   0.48843673    -9.064929    498.76246 0.0087502186  0.007064537           10 
 4751000   0.48228336   -9.0503269    499.16157 0.0087553773 0.0070620367           11 
 4752000   0.49338143   -9.0666436    498.16174 0.0087360013 0.0070595378           12 
 4753000   0.49172565   -9.0606915    498.41149 0.0087385422 0.0070570405           15 
 4754000   0.49457416   -9.0747094    498.45682 0.0087374987 0.0070545443           10 
 4755000   0.49425073    -9.058522     498.6427 0.0087389186 0.0070520493            8 
 4756000    0.4923351   -9.0781704    498.62741 0.0087368132 0.0070495561           23 
 4757000    0.4933423   -9.0709894    499.97741 0.0087586261 0.0070470625           31 
 4758000   0.49090864    -9.072768    498.58601 0.0087324158 0.0070445718           15 
 4759000   0.49520298     -9.07917    498.47098 0.0087285666 0.0070420796           12 
 4760000   0.49462859   -9.0625129    499.52242 0.0087451405 0.0070395887           15 
 4761000   0.48784105   -9.0795326    498.49419 0.0087253061 0.0070371017           12 
 4762000   0.48409909   -9.0796936    498.73144 0.0087276256 0.0070346151           13 
 4763000   0.49213038   -9.0729463    498.53794 0.0087224078 0.0070321287           11 
 4764000   0.48677663   -9.0742288    498.76958 0.0087246288 0.0070296436           13 
 4765000   0.49148074   -9.0708357    499.73072 0.0087396069 0.0070271581           14 
 4766000   0.49730376   -9.0700947    498.56138 0.0087173273 0.0070246761            9 
 4767000   0.48375944   -9.0765081    498.74013 0.0087186233 0.0070221929           17 
 4768000   0.49166193    -9.062655    498.62099 0.0087147125 0.0070197124            9 
 4769000   0.48270636   -9.0787421    498.43857 0.0087096975 0.0070172332           20 
 4770000   0.49773968   -9.0676097    499.26334 0.0087222807 0.0070147547           18 
 4771000   0.47970586   -9.0770602    499.15824 0.0087186167 0.0070122787           17 
 4772000   0.50060696   -9.0746868      498.444 0.0087043169 0.0070098041           14 
 4773000   0.49256039   -9.0882746    498.74468 0.0087077428 0.0070073298           21 
 4774000   0.48029694   -9.0754603    498.75845 0.0087061592 0.0070048556            7 
 4775000   0.48086655   -9.0898288    497.96507 0.0086904898 0.0070023811           18 
 4776000   0.49070821   -9.0868673    498.29097 0.0086943567 0.0069999095           10 
 4777000   0.48975903   -9.0589889    498.42437 0.0086948637   0.00699744           12 
 4778000   0.48266665   -9.0861245    498.75584 0.0086988252 0.0069949732           11 
 4779000   0.48886676   -9.0804661    499.26736 0.0087059246 0.0069925059            9 
 4780000   0.49006649   -9.0624094    498.57213 0.0086919827 0.0069900399           20 
 4781000   0.49825937   -9.0771676    498.76781 0.0086935754 0.0069875758           23 
 4782000   0.48582596    -9.081839    499.17193 0.0086987998 0.0069851125           12 
 4783000   0.48198533   -9.0754558    498.00015 0.0086765654 0.0069826459           14 
 4784000   0.48317099   -9.0757916     498.5959 0.0086851292 0.0069801845           15 
 4785000   0.49210179   -9.0915269    498.50185 0.0086816762  0.006977724            8 
 4786000   0.49252395   -9.0877199    497.88245 0.0086690773 0.0069752635           16 
 4787000   0.48257187   -9.0969012    497.85151 0.0086667278 0.0069728037           14 
 4788000   0.47874512   -9.0750902    498.57415  0.008677495 0.0069703457            9 
 4789000   0.48055692   -9.1004028    498.44816 0.0086734907 0.0069678891           16 
 4790000   0.48851716   -9.0788089    498.45269 0.0086717586 0.0069654332           12 
 4791000   0.48466844   -9.0734734    498.38157 0.0086687117 0.0069629773           19 
 4792000   0.48440287   -9.0658456    497.04337 0.0086436312 0.0069605248           13 
 4793000    0.4902477   -9.0950441    498.51326  0.008667384 0.0069580719           12 
 4794000   0.48559267   -9.0869008    498.02041 0.0086570089 0.0069556215           13 
 4795000     0.482628   -9.0830247    498.65441 0.0086662219 0.0069531706           13 
 4796000   0.47884184   -9.0801879     499.3309 0.0086761695 0.0069507208           23 
 4797000   0.47799617   -9.0982817    497.79215 0.0086476296 0.0069482723           12 
 4798000    0.4801934   -9.0874063    498.38264  0.008656083 0.0069458262           15 
 4799000   0.48566531   -9.0827623    499.44324 0.0086726963 0.0069433805           12 
 4800000   0.48565574   -9.0727497    498.25547 0.0086502685 0.0069409351           11 
 4801000   0.49632262   -9.0747745     498.3622 0.0086503194 0.0069384923            9 
 4802000   0.48039571   -9.0743786    498.41627 0.0086494563 0.0069360498           11 
 4803000   0.48338443   -9.0947206      498.335 0.0086462454 0.0069336078           13 
 4804000   0.48867166   -9.0794378     497.6789 0.0086330645 0.0069311693           18 
 4805000   0.48814546   -9.0937771    498.40074 0.0086437867 0.0069287287           13 
 4806000   0.48381523   -9.0740672    498.21041 0.0086386879 0.0069262896           10 
 4807000   0.48533126   -9.1047676     498.2015 0.0086367364 0.0069238532           11 
 4808000   0.48264954   -9.0760605    498.84167 0.0086460357 0.0069214183           25 
 4809000   0.47751902   -9.0734561    498.37242 0.0086361062 0.0069189851           13 
 4810000   0.46982695   -9.0849303    498.23633  0.008631953 0.0069165517           16 
 4811000   0.47677291   -9.0883541    498.83641  0.008640553 0.0069141212           11 
 4812000   0.48120335   -9.0877722    498.66991  0.008635874 0.0069116906           12 
 4813000    0.4837651   -9.0977233    498.44381  0.008630165 0.0069092617           12 
 4814000   0.47813478    -9.084651    498.47859 0.0086289744 0.0069068333           11 
 4815000   0.47906751   -9.0888162    498.10279 0.0086206782  0.006904407           11 
 4816000    0.4807378   -9.0801812    499.36301 0.0086406944 0.0069019823            7 
 4817000   0.48434635   -9.0848947    498.34205 0.0086212382 0.0068995583           18 
 4818000   0.47550276   -9.0892512     499.0305 0.0086313563 0.0068971351           13 
 4819000   0.48512966   -9.1008434     498.1687 0.0086146625 0.0068947118           10 
 4820000   0.47902479   -9.0779737    498.50648 0.0086187151 0.0068922883           16 
 4821000   0.49100358   -9.0971614    497.71731 0.0086032862 0.0068898658           10 
 4822000   0.47817786   -9.0959518    498.68973 0.0086183072 0.0068874471           10 
 4823000   0.47707196   -9.0959536    497.17162 0.0085902899 0.0068850284           10 
 4824000   0.49027789   -9.0787105    497.52131   0.00859455 0.0068826097           14 
 4825000   0.47977683   -9.0784603    497.94949 0.0086001639 0.0068801943            8 
 4826000   0.48613121   -9.1120049    498.08832 0.0086007792 0.0068777779           12 
 4827000   0.48557146    -9.092249    498.78146 0.0086109636 0.0068753644           14 
 4828000   0.48047019   -9.0823979    498.01034 0.0085958703 0.0068729498           14 
 4829000   0.48182959   -9.0831594    497.44382 0.0085843139 0.0068705381           11 
 4830000   0.48024728   -9.0983262    498.06483 0.0085932511 0.0068681262           13 
 4831000   0.47761479   -9.1005481    497.98839 0.0085901538 0.0068657161           11 
 4832000   0.47860089    -9.100083    497.34798 0.0085773313 0.0068633052           14 
 4833000   0.46785279   -9.0834378    497.92568 0.0085855176 0.0068608974           12 
 4834000    0.4848721    -9.098216    498.55667 0.0085946192 0.0068584902           15 
 4835000    0.4849165   -9.0890848    498.01649 0.0085835313 0.0068560842           19 
 4836000   0.46852802   -9.0967909    497.25303 0.0085686007 0.0068536791           20 
 4837000   0.48151224   -9.1012113    497.92982 0.0085784891 0.0068512741           16 
 4838000   0.47879741   -9.0931436    498.20839 0.0085815142 0.0068488738           12 
 4839000   0.47761553   -9.0986231    498.10323 0.0085779298 0.0068464737            7 
 4840000   0.47852284   -9.0977903    498.00205 0.0085744155 0.0068440741           16 
 4841000    0.4727201   -9.0908489    498.46341 0.0085805861  0.006841674           14 
 4842000   0.47148854   -9.1084269    497.88705 0.0085688945 0.0068392767           14 
 4843000   0.46810738   -9.0905231    497.75366   0.00856483 0.0068368796           10 
 4844000   0.47467481   -9.1065315    498.03458 0.0085678947 0.0068344839           20 
 4845000   0.48450952   -9.1057116    497.57257 0.0085581797 0.0068320875            9 
 4846000   0.46966543   -9.0937119     498.2605 0.0085682436 0.0068296927           15 
 4847000   0.46825734    -9.086261    498.12888 0.0085642129 0.0068273007           13 
 4848000   0.47787809   -9.0964662    498.09231 0.0085618178  0.006824908           11 
 4849000   0.47720229   -9.0962775    498.26861 0.0085630818 0.0068225164           15 
 4850000   0.46951514   -9.1057353    497.64557 0.0085506112 0.0068201259           17 
 4851000   0.48504068   -9.1037898    497.96394 0.0085543176 0.0068177369            8 
 4852000   0.46830141   -9.1000686     498.2724 0.0085578524 0.0068153503           15 
 4853000   0.47919121   -9.0927362     497.6959 0.0085461897  0.006812964           10 
 4854000   0.46596484    -9.102483    498.06719 0.0085508033  0.006810579           10 
 4855000   0.48379887    -9.097945    498.51093 0.0085566587 0.0068081944           18 
 4856000   0.47440611   -9.0834117    498.01964 0.0085464656  0.006805813           12 
 4857000   0.47236498   -9.0962616    497.85854 0.0085419419 0.0068034327           13 
 4858000   0.47268743   -9.0983018    497.68807 0.0085372594 0.0068010524           14 
 4859000   0.48577255   -9.1013387    497.81746 0.0085377214 0.0067986731           17 
 4860000   0.48093628   -9.0944049    498.32712 0.0085447037 0.0067962952           10 
 4861000   0.48538412   -9.1075939    498.28279  0.008542186 0.0067939195           13 
 4862000   0.46946458   -9.0932074    498.66947 0.0085470567  0.006791544           21 
 4863000    0.4752263   -9.0946259      498.289 0.0085387792 0.0067891699           19 
 4864000   0.47338425   -9.1010355    498.52214  0.008541018  0.006786797           17 
 4865000   0.47725438   -9.0839903    498.06873 0.0085314959 0.0067844256           16 
 4866000   0.47736315   -9.0879005    498.30897 0.0085338569 0.0067820541           18 
 4867000   0.47200152   -9.0957769    498.47228 0.0085348997 0.0067796842           14 
 4868000   0.47027913   -9.1064429    497.74615 0.0085207161  0.006777313           14 
 4869000    0.4807927   -9.1061646    498.06614 0.0085244427 0.0067749437           33 
 4870000   0.48175847   -9.0905629    498.64737 0.0085326381 0.0067725762            8 
 4871000    0.4732944    -9.103587     497.9974 0.0085197666 0.0067702092            9 
 4872000   0.47899516   -9.1018571    497.84888 0.0085154775 0.0067678439           12 
 4873000   0.47125755   -9.1021042    498.38434 0.0085228869 0.0067654792           15 
 4874000   0.46577923   -9.1071268    498.59013 0.0085246568 0.0067631167           11 
 4875000   0.46591818   -9.0997233     497.5017 0.0085043025 0.0067607538           20 
 4876000   0.47076924    -9.110194    498.16004 0.0085138098 0.0067583922           10 
 4877000   0.46733631   -9.0947686    497.46148 0.0085001277 0.0067560336           12 
 4878000   0.47219958   -9.1105454    498.18379 0.0085107249 0.0067536735           17 
 4879000   0.46827827   -9.1117303    497.44616 0.0084963817 0.0067513151           12 
 4880000   0.47119099   -9.0988735    498.73302 0.0085166157 0.0067489593           19 
 4881000   0.47167511   -9.1137503    498.46563 0.0085103057 0.0067466034            9 
 4882000   0.47698071    -9.111188    497.43926  0.008491043 0.0067442484            8 
 4883000   0.46773861   -9.0969727    497.85888 0.0084964654 0.0067418941           29 
 4884000   0.47624991   -9.1179548    497.90745 0.0084955544 0.0067395395           20 
 4885000   0.47694728   -9.1138118    498.32903  0.008501007 0.0067371871           14 
 4886000   0.46612438   -9.0987978    498.24206 0.0084977838 0.0067348353           19 
 4887000   0.46827687   -9.0984935    497.55011 0.0084842458 0.0067324861           16 
 4888000   0.46627606   -9.0905873    497.59278 0.0084832376 0.0067301357           16 
 4889000   0.47075824   -9.0988396    497.54509 0.0084806894 0.0067277905           16 
 4890000   0.47653682   -9.1067726     498.2967 0.0084917638 0.0067254446           18 
 4891000   0.45963855   -9.0948933    498.20056 0.0084883895 0.0067230991           12 
 4892000   0.47236208    -9.104917    498.48819 0.0084915541  0.006720758           12 
 4893000   0.48111674   -9.0964678    498.14945 0.0084840495 0.0067184159            9 
 4894000   0.46777508   -9.1110534    498.22959 0.0084836806  0.006716075           18 
 4895000   0.46900751    -9.112621    498.20107 0.0084814619 0.0067137342           15 
 4896000   0.46093743    -9.106038    497.89772 0.0084745664 0.0067113948            9 
 4897000   0.46464581   -9.1051345    498.55905 0.0084840898 0.0067090566           14 
 4898000    0.4668962   -9.1033103    498.41527 0.0084799114 0.0067067203           16 
 4899000   0.47540345   -9.1080069    497.80698 0.0084678333 0.0067043853           13 
 4900000   0.46435702   -9.0989945     497.7869 0.0084657635 0.0067020516           12 
 4901000   0.46162915   -9.1012768    498.01011 0.0084678316   0.00669972           21 
 4902000   0.46507299   -9.1165843    498.15627 0.0084685888  0.006697387            7 
 4903000    0.4686435   -9.0875337    497.92515 0.0084629334 0.0066950543           14 
 4904000   0.47416803   -9.0960159    498.61752  0.008472973 0.0066927242            7 
 4905000   0.46309207   -9.1155049    498.03708 0.0084613844  0.006690395           19 
 4906000   0.46729664    -9.111245    497.01827  0.008442354 0.0066880662            6 
 4907000   0.46636164   -9.1030723    498.02211 0.0084576814 0.0066857405           12 
 4908000   0.46737003   -9.1054487    497.77661 0.0084517898  0.006683415           10 
 4909000   0.47838254   -9.0968444     497.7027 0.0084488135 0.0066810904           13 
 4910000   0.46354963   -9.1070563    498.74459 0.0084647759 0.0066787647           21 
 4911000   0.46798202   -9.1212137    498.34026 0.0084561912 0.0066764405           22 
 4912000   0.46004221   -9.0994545    497.50824 0.0084403542 0.0066741187            8 
 4913000   0.46708553    -9.100827     497.9357 0.0084458867  0.006671797            7 
 4914000   0.46041497   -9.1082681     497.6135 0.0084387041 0.0066694746           21 
 4915000   0.46974349   -9.1007706    497.48543 0.0084348158 0.0066671542           24 
 4916000   0.45740445     -9.10612    497.65879 0.0084360386 0.0066648342           19 
 4917000   0.46957768   -9.1200622    497.44551 0.0084307083 0.0066625164           20 
 4918000    0.4618034   -9.1120801    497.45306  0.008429122 0.0066601991           12 
 4919000   0.46058287   -9.1143195    497.88125 0.0084346624 0.0066578837           18 
 4920000   0.46325312   -9.1155876    498.03324 0.0084355224 0.0066555681           10 
 4921000   0.46091849   -9.1171297    497.06409 0.0084173964 0.0066532525           20 
 4922000   0.45958552   -9.1124332    497.34038 0.0084203639 0.0066509397           16 
 4923000   0.46669537   -9.1198369    497.44216 0.0084203765 0.0066486258           16 
 4924000   0.46799156     -9.12682    497.43665 0.0084185732 0.0066463141           12 
 4925000   0.46846563   -9.1068381    498.00513 0.0084264828 0.0066440042           11 
 4926000   0.46068826   -9.1100227    498.31923 0.0084300858 0.0066416943           14 
 4927000   0.47381707   -9.1071115    497.36035 0.0084121566  0.006639386           12 
 4928000    0.4596103   -9.1136971    497.48914 0.0084126275 0.0066370812           11 
 4929000   0.46673615   -9.1130445    498.05679 0.0084205179 0.0066347771           21 
 4930000   0.45734713   -9.1198468    497.93837 0.0084168082 0.0066324725           19 
 4931000   0.46529769   -9.1248396    497.24251 0.0084033412 0.0066301699           17 
 4932000    0.4659699   -9.1209717    497.84404 0.0084118012 0.0066278695           13 
 4933000   0.46318929    -9.107681    497.35061 0.0084017604 0.0066255686           13 
 4934000   0.46070537   -9.1189041    498.11777 0.0084130147 0.0066232694           11 
 4935000   0.46170064   -9.1013462    497.62469 0.0084029836 0.0066209683           14 
 4936000   0.45993334   -9.1080505    498.40631 0.0084144771 0.0066186699           21 
 4937000   0.45787102   -9.1101026    497.58985 0.0083989915 0.0066163713           13 
 4938000   0.46474002   -9.1136528    498.07084 0.0084054077 0.0066140751            9 
 4939000   0.46242918   -9.1072444    497.77029 0.0083986349 0.0066117802           16 
 4940000   0.46245831   -9.1073765    497.10036 0.0083856337  0.006609485           24 
 4941000   0.45445529   -9.1041113    497.60283 0.0083924109 0.0066071923           18 
 4942000   0.46136269   -9.1135523    498.33931 0.0084031316 0.0066049007           16 
 4943000   0.45845801    -9.110018    497.49994 0.0083872806 0.0066026098           23 
 4944000   0.45919793    -9.103478    497.39423 0.0083838024 0.0066003181           18 
 4945000   0.46579838   -9.1100987    497.88637 0.0083904006   0.00659803           12 
 4946000   0.45186591   -9.1360819    497.20061   0.00837715 0.0065957404           10 
 4947000   0.45671899   -9.1096768    497.21694 0.0083757318 0.0065934529           17 
 4948000   0.46480053   -9.1125972    497.41989  0.008377457 0.0065911684           13 
 4949000   0.46990372   -9.1218438    497.05932 0.0083696928 0.0065888807            9 
 4950000   0.44969336   -9.1163677    497.17477 0.0083699456 0.0065865961           16 
 4951000   0.45470893   -9.1232657    498.43365  0.008389444 0.0065843119           13 
 4952000   0.46698521   -9.1027107     497.2805 0.0083683444 0.0065820296           14 
 4953000     0.460742   -9.1261261    497.83027 0.0083759047 0.0065797501           24 
 4954000   0.46910044   -9.1193615    497.60965 0.0083705027 0.0065774715            7 
 4955000   0.47000719   -9.1353692    497.62802 0.0083691224 0.0065751944           17 
 4956000   0.45335425    -9.126692    497.30754 0.0083620449 0.0065729147           13 
 4957000    0.4537488   -9.1279481    497.34648 0.0083610128 0.0065706375            7 
 4958000   0.46439677   -9.1162602    497.62293 0.0083639728 0.0065683621           21 
 4959000   0.46138264    -9.134087     498.1139 0.0083705367  0.006566088           15 
 4960000   0.44688636   -9.1033494    497.32883 0.0083556592 0.0065638143            9 
 4961000   0.46050007   -9.1286114     496.6163 0.0083420061 0.0065615414           11 
 4962000   0.44114661   -9.1160817    497.31969 0.0083521378 0.0065592704           14 
 4963000   0.45842952    -9.133396    497.50336 0.0083535388 0.0065569991           12 
 4964000   0.46062974   -9.1190457    497.43343  0.008350682 0.0065547291           13 
 4965000   0.45306955   -9.1202615    497.17231 0.0083446175 0.0065524589            7 
 4966000   0.46394984   -9.1161285     497.4672 0.0083478857 0.0065501911           13 
 4967000   0.46065132   -9.1160448    496.72303 0.0083337198 0.0065479233           16 
 4968000   0.46114006   -9.1354982    497.40094 0.0083434135 0.0065456568           13 
 4969000   0.45926491   -9.1152567    496.89207 0.0083332004 0.0065433921           12 
 4970000    0.4687982   -9.1224214    497.53218 0.0083422566 0.0065411283           15 
 4971000   0.45836946    -9.122959    497.81421 0.0083453062 0.0065388648           14 
 4972000   0.45563734   -9.1171947    497.55879 0.0083393469 0.0065366026           11 
 4973000   0.44981589   -9.1500463    497.03778 0.0083289393 0.0065343397           13 
 4974000   0.45827246   -9.1052477    497.13946 0.0083289683 0.0065320799           20 
 4975000   0.45901814   -9.1392367    497.30921 0.0083301375 0.0065298199           12 
 4976000    0.4611064   -9.1364283    497.36402 0.0083293813  0.006527564            9 
 4977000   0.45518281   -9.1278458    497.47762 0.0083296099 0.0065253074           18 
 4978000   0.46283335   -9.1278621    497.07991 0.0083212787 0.0065230522           10 
 4979000   0.45936684   -9.1213662    497.40469 0.0083250434 0.0065207976           11 
 4980000    0.4544784   -9.1544091    496.47944 0.0083078888 0.0065185442           16 
 4981000   0.45800891   -9.1194464    497.09531 0.0083165246 0.0065162907            9 
 4982000   0.44985884    -9.128197    497.76082 0.0083259872 0.0065140388           14 
 4983000   0.45154437   -9.1268074    497.17952 0.0083145949 0.0065117889           15 
 4984000   0.46101753   -9.1327225    497.32089 0.0083152905 0.0065095398           11 
 4985000   0.45349335   -9.1200722    497.37933 0.0083145993 0.0065072904           14 
 4986000   0.45667147   -9.1432605    497.55688 0.0083158992 0.0065050427            9 
 4987000   0.45686008    -9.143616    497.12549 0.0083070231 0.0065027961           18 
 4988000   0.44442171   -9.1190909    496.77238 0.0082994584 0.0065005512           12 
 4989000   0.44558232   -9.1350971    497.79888 0.0083149409 0.0064983061           14 
 4990000   0.45742691   -9.1275235    497.18254 0.0083029817 0.0064960624           15 
 4991000   0.45489665   -9.1340803    497.81166 0.0083118223  0.006493821            8 
 4992000   0.45253683   -9.1416586    496.98062 0.0082962845 0.0064915787           14 
 4993000    0.4445953   -9.1272884    497.23536 0.0082988745 0.0064893392           13 
 4994000   0.46020877   -9.1284053    497.95312 0.0083091896 0.0064871014           10 
 4995000   0.45467442   -9.1258677    497.53469 0.0083005454 0.0064848647            9 
 4996000   0.44761484   -9.1227011     497.6031 0.0083000251 0.0064826281           14 
 4997000   0.45377184   -9.1270895    497.34711  0.008294095 0.0064803911           15 
 4998000   0.44796899   -9.1306165    498.16851 0.0083061309 0.0064781565           11 
 4999000   0.44662167      -9.1304    497.02994 0.0082854895 0.0064759201           18 
 5000000   0.44891861   -9.1316893    497.41079 0.0082901799 0.0064736874           23 
 5001000   0.46553646    -9.127005    497.36596 0.0082877752 0.0064714571           17 
 5002000   0.44688913   -9.1369704    496.39128   0.00826988 0.0064692274           10 
 5003000   0.45053765   -9.1306089    497.42467 0.0082854398 0.0064669974            7 
 5004000   0.44713872   -9.1337899    497.53116 0.0082855576 0.0064647698            9 
 5005000   0.44574015    -9.135328    496.52878 0.0082672125 0.0064625421           13 
 5006000   0.45021296   -9.1336233    497.52763 0.0082821885 0.0064603143           13 
 5007000   0.44684281   -9.1317892     497.1746 0.0082746588 0.0064580875            9 
 5008000   0.45163642   -9.1360648    496.70289 0.0082651573 0.0064558599           14 
 5009000   0.44888979   -9.1515387    497.22447 0.0082721846 0.0064536355           11 
 5010000   0.45361211   -9.1328054    496.57284 0.0082596946   0.00645141           21 
 5011000   0.45027985   -9.1400112    497.20495 0.0082685584 0.0064491868           12 
 5012000   0.45336674   -9.1254944    497.33807 0.0082691219 0.0064469643            8 
Loop time of 12679.7 on 48 procs for 5000000 steps with 4000 atoms

Performance: 68140.360 tau/day, 394.331 timesteps/s
99.4% CPU use with 48 MPI tasks x no OpenMP threads

MPI task timing breakdown:
Section |  min time  |  avg time  |  max time  |%varavg| %total
---------------------------------------------------------------
Pair    | 873.8      | 938.6      | 1011.9     |  91.6 |  7.40
Neigh   | 84.221     | 88.077     | 93.234     |  23.6 |  0.69
Comm    | 761.75     | 863.11     | 930.75     | 101.7 |  6.81
Output  | 14.192     | 14.196     | 14.274     |   0.3 |  0.11
Modify  | 10630      | 10661      | 10695      |  14.3 | 84.08
Other   |            | 115        |            |       |  0.91

Nlocal:        83.3333 ave          93 max          75 min
Histogram: 1 1 9 11 4 8 7 5 1 1
Nghost:        2272.54 ave        2296 max        2253 min
Histogram: 3 1 6 13 5 9 6 1 2 2
Neighs:        15319.4 ave       17796 max       13670 min
Histogram: 3 4 10 7 8 10 3 1 1 1
FullNghs:      30638.9 ave       34624 max       27451 min
Histogram: 1 5 8 7 9 9 6 1 1 1

Total # of neighbors = 1470668
Ave neighs/atom = 367.66700
Neighbor list builds = 266484
Dangerous builds = 0

#clear
#
#next RN
#
#jump SELF
Total wall time: 3:31:23
