
units lj                  # Use reduced LJ style units
atom_style atomic         # Uncharged point particles
atom_modify map hash      # Needed for indexing of clusters etc
                          # Used to be able to find where atoms are in relation to each other.

lattice fcc 1.0 spacing 1 1 1
Lattice spacing in x,y,z = 1.5874011 1.5874011 1.5874011
region box block 0 10 0 10 0 10 units lattice
create_box 2 box
Created orthogonal box = (0.0000000 0.0000000 0.0000000) to (15.874011 15.874011 15.874011)
  3 by 4 by 4 MPI processor grid
create_atoms 1 box
Created 4000 atoms
  using lattice units in orthogonal box = (0.0000000 0.0000000 0.0000000) to (15.874011 15.874011 15.874011)
  create_atoms CPU = 0.010 seconds
set type 1 type/fraction 2 0.02 78393
Setting atom values ...
  77 settings made for type/fraction
mass 1 1.0
mass 2 1.0
pair_style lj/cut  3.5
pair_modify tail  yes
pair_coeff 1  1  1.0  1.0   # Intearaction between 1 and 1 set with epsilon = 1 and sigma = 1
pair_coeff 1  2  1.5  0.8
pair_coeff 2  2  0.5  0.88

write_data data.0
System init for write_data ...
Neighbor list info ...
  update every 1 steps, delay 10 steps, check yes
  max neighbors/atom: 2000, page size: 100000
  master list distance cutoff = 3.8
  ghost atom cutoff = 3.8
  binsize = 1.9, bins = 9 9 9
  1 neighbor lists, perpetual/occasional/extra = 1 0 0
  (1) pair lj/cut, perpetual
      attributes: half, newton on
      pair build: half/bin/atomonly/newton
      stencil: half/bin/3d
      bin: standard
WARNING: Not all mixed pair coeffs generated from mixing. Use write_data with 'pair ij' option to store all pair coeffs. (../write_data.cpp:312)


#############################
#   M E L T   S Y S T E M   #
#############################

velocity all create 2.4 6229865 mom yes dist gaussian # Assign velocities
                                                    # Temperature 2.4, random number seed, zero linear momentum
                                                                                # Gaussian distribution

timestep 0.002   # simulation timestep
thermo 1000       # output thermodynamic data every 1000 steps bf 100

# Define a fix  in this case with index 1 applied to all
# particles in the simulation. This fix is for simulations
# in the anisotropic NPT ensemble. Note that we use the MTK
# correction.
fix 1 all npt temp 2.4 2.4 0.1 iso 5.68 5.68 0.5 mtk yes tchain 5 pchain 5 # Use NPT ensemble
                                                                         # Set temperature and pressure and damping
                                                                         # Numbers of thermostats in chain and in barostat
run 10000          # run for 10000 steps
Per MPI rank memory allocation (min/avg/max) = 3.642 | 3.644 | 3.648 Mbytes
Step Temp E_pair E_mol TotEng Press Volume 
       0          2.4   -8.2581388            0   -4.6590388   -2.3989133         4000 
    1000    2.4127142   -4.5169809            0  -0.89881429     5.436301    5124.2067 
    2000    2.4095185   -4.3750844            0  -0.76171027    5.8450082     5153.398 
    3000    2.4080009   -4.4290282            0  -0.81792992    5.6321753    5151.4493 
    4000    2.4241322   -4.3708327            0  -0.73554348    5.8209537    5164.4622 
    5000     2.374951    -4.409011            0  -0.84747517    5.6595679    5158.3656 
    6000     2.420302   -4.4325267            0   -0.8029814    5.6059152    5149.7797 
    7000    2.4356357   -4.4128968            0  -0.76035668    5.6102316    5166.3184 
    8000    2.4256788   -4.3998994            0  -0.76229083    5.6123283    5176.7994 
    9000    2.3656678   -4.4697591            0  -0.92214451    5.4602815    5144.3507 
   10000    2.3841938   -4.3944011            0  -0.81900458    6.0015966    5107.9374 
Loop time of 2.04296 on 48 procs for 10000 steps with 4000 atoms

Performance: 845829.893 tau/day, 4894.849 timesteps/s
99.6% CPU use with 48 MPI tasks x no OpenMP threads

MPI task timing breakdown:
Section |  min time  |  avg time  |  max time  |%varavg| %total
---------------------------------------------------------------
Pair    | 0.84759    | 0.91167    | 0.96936    |   2.9 | 44.62
Neigh   | 0.1677     | 0.17263    | 0.17674    |   0.6 |  8.45
Comm    | 0.62824    | 0.7098     | 0.75985    |   4.1 | 34.74
Output  | 0.00025279 | 0.00025921 | 0.00040756 |   0.0 |  0.01
Modify  | 0.19374    | 0.23463    | 0.27121    |   4.7 | 11.48
Other   |            | 0.01398    |            |       |  0.68

Nlocal:        83.3333 ave          93 max          75 min
Histogram: 2 3 6 8 6 10 7 2 3 1
Nghost:        1395.62 ave        1414 max        1380 min
Histogram: 3 2 11 8 6 4 3 4 2 5
Neighs:        7459.02 ave        8700 max        6585 min
Histogram: 4 3 3 12 15 4 4 0 2 1

Total # of neighbors = 358033
Ave neighs/atom = 89.508250
Neighbor list builds = 906
Dangerous builds = 241

# Equilibrate just above the melting temperature to avoid step fn in T

fix 1 all npt temp 1.25 1.25 0.1 iso 5.68 5.68 0.5 mtk yes tchain 5 pchain 5
run 2000
Per MPI rank memory allocation (min/avg/max) = 3.642 | 3.645 | 3.648 Mbytes
Step Temp E_pair E_mol TotEng Press Volume 
   10000    2.3841938   -4.3944011            0  -0.81900458    6.0015966    5107.9374 
   11000    1.2090549   -5.8993531            0   -4.0862242    5.6934237    4275.8598 
   12000    1.2567985   -5.9149088            0   -4.0301824    5.5885078    4281.6243 
Loop time of 0.456912 on 48 procs for 2000 steps with 4000 atoms

Performance: 756381.798 tau/day, 4377.209 timesteps/s
99.6% CPU use with 48 MPI tasks x no OpenMP threads

MPI task timing breakdown:
Section |  min time  |  avg time  |  max time  |%varavg| %total
---------------------------------------------------------------
Pair    | 0.19814    | 0.21019    | 0.25465    |   1.9 | 46.00
Neigh   | 0.03094    | 0.032073   | 0.037017   |   0.5 |  7.02
Comm    | 0.11977    | 0.15907    | 0.18164    |   3.2 | 34.81
Output  | 5.1659e-05 | 5.8049e-05 | 7.7976e-05 |   0.0 |  0.01
Modify  | 0.03777    | 0.05106    | 0.065698   |   4.2 | 11.18
Other   |            | 0.004457   |            |       |  0.98

Nlocal:        83.3333 ave          89 max          75 min
Histogram: 1 2 3 2 5 11 4 11 3 6
Nghost:        1570.88 ave        1595 max        1556 min
Histogram: 4 3 14 8 8 3 5 1 0 2
Neighs:        8883.94 ave        9749 max        7790 min
Histogram: 1 1 4 2 13 6 8 7 3 3

Total # of neighbors = 426429
Ave neighs/atom = 106.60725
Neighbor list builds = 143
Dangerous builds = 11

#############################
# L I N E A R  Q U E N C H  #
#############################

# Define solid atoms. This closely follows ten Wolde  Ruiz-Montero and Frenkel  Faraday Discuss  1996  104  93-110
# Compute components of the per-atom q6 vector
compute q6 all orientorder/atom degrees 1 6 components 6 nnn NULL cutoff 1.3 # compute the Q6 parameter.
                                                                             # Use all neighbours within 1.3 unit cell.

# get number of connections
compute coord_number all coord/atom orientorder q6 0.5

# An atom is solid if it has 8 or more connections (of a possible 14)
variable is_solid atom c_coord_number>=8
group solid dynamic all var is_solid    # Must be dynamic to update
dynamic group solid defined

# do clustering
compute cluster solid cluster/atom 1.3 # Create a cluster where all atoms within are solid and max 1.3 units from another member

# define chunks one chunk per cluster
compute clus_chunks solid chunk/atom c_cluster nchunk every compress yes  # Says which atoms are in which chunk

# count the size of each chunk
compute size_chunks solid property/chunk clus_chunks count


# Find the maximum entry in the vector of chunk sizes
variable max_n equal max(c_size_chunks)


# Thermo style which includes this variable
# thermo_style custom step temp pe vol v_max_n

thermo ${N}  # Print the thermo information every 100 steps
thermo 1000  

# Reset the npt fix at a lower temperature (below freezing)
fix 1  all npt temp  ${temp} ${temp}  0.1  iso  5.68  5.68  0.5  mtk yes tchain  5  pchain  5
fix 1  all npt temp  0.45 ${temp}  0.1  iso  5.68  5.68  0.5  mtk yes tchain  5  pchain  5
fix 1  all npt temp  0.45 0.45  0.1  iso  5.68  5.68  0.5  mtk yes tchain  5  pchain  5

dump dmp2 all dcd ${N} traj.dcd
dump dmp2 all dcd 1000 traj.dcd


compute msd all msd com yes
variable twopoint equal c_msd[4]/6/(step*dt+1.0e-6)
fix 9 all vector 10 c_msd[4]
variable fit equal slope(f_9)/6/(10*dt)
thermo_style custom step temp pe c_msd[4] v_twopoint v_fit v_max_n

fix 1 all npt temp 1.25 ${temp} 0.1 iso 5.68 5.68 0.5 mtk yes tchain 5 pchain 5
fix 1 all npt temp 1.25 0.45 0.1 iso 5.68 5.68 0.5 mtk yes tchain 5 pchain 5
run 500000 # 5000000  # Run for this many steps
Neighbor list info ...
  update every 1 steps, delay 10 steps, check yes
  max neighbors/atom: 2000, page size: 100000
  master list distance cutoff = 3.8
  ghost atom cutoff = 3.8
  binsize = 1.9, bins = 9 9 9
  4 neighbor lists, perpetual/occasional/extra = 1 3 0
  (1) pair lj/cut, perpetual
      attributes: half, newton on
      pair build: half/bin/atomonly/newton
      stencil: half/bin/3d
      bin: standard
  (2) compute orientorder/atom, occasional
      attributes: full, newton on
      pair build: full/bin/atomonly
      stencil: full/bin/3d
      bin: standard
  (3) compute coord/atom, occasional
      attributes: full, newton on
      pair build: full/bin/atomonly
      stencil: full/bin/3d
      bin: standard
  (4) compute cluster/atom, occasional
      attributes: full, newton on
      pair build: full/bin/atomonly
      stencil: full/bin/3d
      bin: standard
Per MPI rank memory allocation (min/avg/max) = 9.732 | 9.736 | 9.742 Mbytes
Step Temp PotEng c_msd[4] v_twopoint v_fit v_max_n 
   12000    1.2567985   -5.9149088 4.0048496e-30 2.7811454e-32 8.3333333e+20            2 
   13000    1.2421114   -5.8744919   0.58783344  0.003768163  0.048342245            2 
   14000    1.2433609   -5.8866338    1.1257077 0.0067006408  0.047152882            3 
   15000    1.2235706   -5.9648701    1.6689968 0.0092722041  0.045809348            3 
   16000    1.2098813   -5.9213555    2.2166969  0.011545296  0.045767614            5 
   17000    1.2610727   -5.9305872    2.7768022  0.013611775  0.045925175            1 
   18000    1.2210276    -5.940653    3.3140123  0.015342649  0.045683375            3 
   19000    1.2337012   -5.9534794    3.8084737  0.016703831  0.045356619            7 
   20000    1.2197482   -5.9294436    4.2816106  0.017840044  0.044915263            2 
   21000     1.229335   -5.9062553    4.7770897  0.018956705  0.044399322            7 
   22000    1.2399249   -5.9573445    5.3127978  0.020124233  0.043992377            2 
   23000     1.263488   -5.9416984     5.900908  0.021380101  0.043957482            4 
   24000    1.2035802   -5.9534319    6.5281278   0.02266711  0.044136233            2 
   25000    1.2429129   -5.9569293    7.1227983  0.023742661  0.044475105            3 
   26000    1.2261555   -5.9652174    7.6332349  0.024465496  0.044768177            4 
   27000    1.2433167   -5.9293604    8.1593103  0.025183056  0.044880884            2 
   28000    1.1985629   -5.9604544    8.6369071   0.02570508  0.044908036            3 
   29000    1.2130975   -5.9568522    9.1688229  0.026347192  0.044839548            8 
   30000    1.2455084   -5.9457491    9.6630623  0.026841839  0.044760872            5 
   31000    1.2058841   -5.9592022    10.182995  0.027373642  0.044673803            3 
   32000    1.2355058   -6.0078605    10.611087   0.02763304  0.044548388            5 
   33000    1.2143044   -5.9383578    11.125349  0.028094315  0.044372483            1 
   34000    1.2087511   -5.9681362    11.657714  0.028572827  0.044254914            2 
   35000    1.2015689   -5.9727638    12.243165  0.029150393   0.04420471            2 
   36000    1.2149104   -5.9774426    12.911896  0.029888648  0.044211786            6 
   37000    1.2025988   -5.9570276    13.188543  0.029703924  0.044171714            7 
   38000    1.2118654   -5.9437292    13.706983  0.030059174  0.044089563            5 
   39000    1.2077404     -6.00969    14.111105  0.030151933  0.043954488            7 
   40000    1.2229018   -5.9848134    14.660378  0.030542454  0.043794997            3 
   41000     1.188505   -5.9883931    15.234928  0.030965301  0.043682696            2 
   42000    1.1922297   -5.9991868    15.645443  0.031042544  0.043572508            6 
   43000    1.1865117   -5.9726741    16.133712  0.031266884  0.043458576            2 
   44000    1.2014017   -5.9848136    16.625469   0.03148763  0.043345732            4 
   45000    1.1826541   -5.9995552    16.986807   0.03145705   0.04321114            3 
   46000    1.2020133   -5.9668189    17.434026  0.031583379   0.04303257            2 
   47000    1.1673882   -6.0006759    17.917981   0.03176947  0.042886419            4 
   48000    1.1736545   -5.9745316    18.270616  0.031719819  0.042728288            7 
   49000    1.1806169    -5.999565    18.561279    0.0315668  0.042539068            3 
   50000    1.1704571   -6.0184551    19.020758  0.031701262  0.042305588            2 
   51000    1.1830697   -6.0089753    19.450547   0.03178194  0.042096959            5 
   52000    1.1750863   -6.0064085    19.987432  0.032031141   0.04191217            4 
   53000    1.1813687   -6.0132514    20.392813   0.03206417  0.041749824            3 
   54000    1.1685666   -6.0230152    20.787804  0.032079943  0.041564601            1 
   55000    1.1885639   -6.0379416    21.077197  0.031935147  0.041362245            3 
   56000    1.1780507   -6.0350461    21.498857  0.031992346  0.041164676            4 
   57000    1.1659635   -6.0637954    21.916441  0.032041581  0.040977892            3 
   58000    1.1831881   -6.0291411    22.457553  0.032266598  0.040809726            5 
   59000    1.2033437   -5.9933847    23.088085   0.03261029  0.040680866            5 
   60000    1.1815812   -6.0473769    23.417318  0.032524052  0.040561218            3 
   61000    1.1872306   -6.0056767    23.990879  0.032774425  0.040437365            3 
   62000    1.1649781   -6.0529601    24.247461  0.032590673  0.040333484            5 
   63000    1.1686736   -6.0181892    24.903319  0.032940897  0.040229735            4 
   64000    1.1623021   -6.0353074    25.364395  0.033026556  0.040149017            4 
   65000    1.1702626   -6.0420286      25.7335  0.032991666  0.040062457            6 
   66000    1.1405318   -6.0957418    26.157157  0.033026713   0.03997228            4 
   67000    1.1519591   -6.0178312    26.704707  0.033214809  0.039884127            2 
   68000    1.1555736   -6.0227234    27.228306  0.033368022  0.039815713            4 
   69000    1.1792194   -6.0905932    27.677292  0.033426681  0.039751428            5 
   70000    1.1727331   -6.0990108    28.166335  0.033531351  0.039710419            2 
   71000    1.1747938   -6.0954578    28.677053  0.033658513  0.039669991            7 
   72000    1.1552307   -6.0807835    28.946854  0.033503302  0.039633932            3 
   73000    1.1617713   -6.0639999    29.662346  0.033861126  0.039599413            4 
   74000    1.1604798   -6.1009566    30.104146  0.033901065  0.039576905            2 
   75000    1.1739779    -6.061226    30.485007   0.03387223  0.039551314            4 
   76000    1.1466829   -6.0871095    30.972196  0.033960741  0.039515266            4 
   77000    1.1261548   -6.0839601    31.284559  0.033857748  0.039491434            2 
   78000    1.1408161   -6.0960448    31.776096  0.033948821  0.039453644            2 
   79000    1.1376145   -6.1005106    32.298819  0.034070484  0.039423799            3 
   80000    1.1508033   -6.1302375    32.686379  0.034048311  0.039399687            5 
   81000    1.1447524     -6.08361    33.009989  0.033960894  0.039368035            2 
   82000    1.1446605   -6.1187068    33.535739  0.034081035   0.03932858            3 
   83000    1.1295226   -6.1036526    33.964834  0.034101239  0.039294338            3 
   84000    1.1455708   -6.0852615    34.511862  0.034237959  0.039256374            4 
   85000    1.1227169   -6.0920649    34.837837  0.034154742  0.039218108            2 
   86000    1.1514125    -6.097103    35.254535  0.034161371  0.039175572            2 
   87000    1.1397302   -6.0895688    35.963699  0.034447987  0.039145888            4 
   88000    1.1071499    -6.093765    36.426931  0.034495199  0.039123485            2 
   89000    1.1558658   -6.1074964      36.8415  0.034495787  0.039104036            3 
   90000    1.1284613    -6.088473    37.432607  0.034659821  0.039086121            6 
   91000    1.1525806   -6.1093942     37.66914  0.034495549   0.03906234            2 
   92000    1.1011324   -6.1397916    38.110754   0.03452061  0.039030937            3 
   93000    1.1210656   -6.0898731    38.435625  0.034440524  0.038999633            2 
   94000    1.1140699   -6.1436927     38.79171  0.034389814  0.038958006            2 
   95000    1.1067826   -6.1494384    39.232608  0.034414569  0.038921067            3 
   96000    1.1232187   -6.1165053    39.533267  0.034317072  0.038877169            5 
   97000    1.1025572   -6.1181609    39.895146   0.03427418  0.038825064            2 
   98000     1.128179    -6.098896    40.373415  0.034331135  0.038777135            9 
   99000    1.1099132   -6.1062332    40.830155  0.034368817  0.038729374            5 
  100000    1.0991998   -6.1766128      40.9487  0.034123916  0.038675037            5 
  101000    1.1167286   -6.1744234     41.46889  0.034215255  0.038621378            2 
  102000    1.1097008   -6.1700992    42.012323  0.034323793  0.038565528           10 
  103000    1.1008936   -6.1489094    42.322245  0.034241299  0.038508175            3 
  104000    1.0981169   -6.1576765    42.462219  0.034024214  0.038447292            7 
  105000    1.0921321   -6.1704534     42.80103  0.033969071  0.038383139            3 
  106000    1.1164076   -6.1475731    43.217703  0.033976182  0.038306358           12 
  107000     1.096159   -6.1745525    43.596277  0.033953487  0.038231034            5 
  108000    1.0791844    -6.207173    43.886562  0.033863088  0.038155857            6 
  109000    1.0755365   -6.1839015    44.031818  0.033663469  0.038077757            3 
  110000    1.0817666   -6.1323751    44.578232  0.033771388  0.037995037            3 
  111000    1.1037258   -6.1918306    44.774814  0.033614725  0.037913228            9 
  112000     1.087618   -6.1433506    45.175062  0.033612397  0.037831542            4 
  113000    1.0781903   -6.1686486    45.442882   0.03351245  0.037750435            2 
  114000    1.0986458   -6.1732094    45.930108   0.03357464  0.037669104            4 
  115000    1.0950337   -6.2217636    46.317969  0.033563746  0.037589289           11 
  116000    1.0662785   -6.2094858     46.49513  0.033401674  0.037506788            5 
  117000     1.069933    -6.209949    46.631768   0.03321351  0.037415697            5 
  118000     1.073378   -6.2043069    47.130648  0.033284356  0.037324523            5 
  119000    1.0689855   -6.2023217    47.341503  0.033152313  0.037231012            5 
  120000    1.0696522   -6.1772615    47.981451  0.033320452   0.03714267            7 
  121000    1.0873869   -6.1965818     48.52342  0.033418333  0.037064648            3 
  122000     1.078048   -6.1854564    48.863197    0.0333765  0.036990949            3 
  123000    1.0836187   -6.2349155    49.201312  0.033334222  0.036918584            2 
  124000    1.0576644   -6.1843972    49.271967  0.033112881  0.036843117            4 
  125000    1.0595851   -6.2200659    49.783575   0.03318905  0.036761167            4 
  126000    1.0647281   -6.2186694    50.038244  0.033094077  0.036681889            3 
  127000     1.054987   -6.2209708    50.254519  0.032975406  0.036600506            4 
  128000    1.0439717   -6.2029502    50.586204  0.032933727  0.036517801            8 
  129000    1.0694195   -6.2019423    50.865726  0.032858996  0.036435851            4 
  130000    1.0717064   -6.2302291    51.436758  0.032972281     0.036355            7 
  131000    1.0554852   -6.2299455    51.664533  0.032865479  0.036274636            2 
  132000    1.0573096   -6.2253923    51.944459  0.032793219   0.03619422            8 
  133000    1.0385579    -6.277308    52.164007  0.032684215  0.036112619           10 
  134000    1.0540569    -6.240538    52.552913   0.03268216  0.036031105            5 
  135000    1.0507475   -6.2257928    52.976701  0.032701667  0.035951574            3 
  136000    1.0229055   -6.2052625    53.347654  0.032688513  0.035874829            5 
  137000    1.0441744   -6.2881675    53.601517  0.032604329  0.035799618            5 
  138000    1.0339934   -6.2688751    54.128746  0.032686441  0.035725783            2 
  139000    1.0455001   -6.2231424    54.751346  0.032824548  0.035659201            4 
  140000    1.0393758   -6.2544042     55.20981  0.032862982  0.035597384            3 
  141000    1.0403047   -6.2514695    55.424543  0.032756822  0.035535846            5 
  142000    1.0508239   -6.2677177    55.925712  0.032820254  0.035470531            5 
  143000    1.0322835   -6.2892758    55.836749  0.032538898  0.035406469            5 
  144000    1.0407622   -6.2363222    56.268214  0.032562624   0.03534162            3 
  145000    1.0291248   -6.2927595    56.640441  0.032551977  0.035276335            4 
  146000    1.0680085   -6.2624562     56.92971  0.032494127  0.035209421            3 
  147000    1.0526221   -6.2686713    57.224086  0.032439958  0.035143953            4 
  148000    1.0380369   -6.3030031    57.556324   0.03240784  0.035077678            7 
  149000    1.0329694   -6.2986529    57.622705  0.032227463  0.035010929            8 
  150000    1.0222476   -6.3062441    58.076107  0.032264504  0.034939699            4 
  151000    1.0270112    -6.295082     58.11657  0.032073162  0.034866517            4 
  152000    1.0316223    -6.324358    58.159273  0.031885566  0.034789886            9 
  153000    1.0200716   -6.3119004    58.659809  0.031949787  0.034712087            8 
  154000    1.0368949   -6.2842532    58.843908  0.031841941  0.034635385           14 
  155000   0.99710921   -6.3275601    58.943903   0.03169027  0.034554586            6 
  156000    1.0203467   -6.2777385    59.532193  0.031801385  0.034475355            7 
  157000    1.0265707   -6.3217324    59.690933  0.031683085  0.034395683           12 
  158000    1.0237681   -6.2868773    59.845416  0.031564038  0.034316701            3 
  159000    1.0159946   -6.3428853    60.211844   0.03155757  0.034237658            6 
  160000    1.0162533   -6.3064508    60.535897  0.031529113  0.034160233            8 
  161000    1.0129336   -6.3305095    60.697572  0.031416963  0.034083036            8 
  162000   0.99639485   -6.3395681    60.864945  0.031309128  0.034004853            7 
  163000    1.0223716   -6.3524033    61.198642  0.031287649  0.033925436            6 
  164000    1.0165115     -6.32363    62.059307    0.0315342  0.033850573            8 
  165000    1.0219001   -6.3516629    62.284025  0.031456578  0.033780588            4 
  166000    1.0148076   -6.3282801    62.639348  0.031445456  0.033711376            6 
  167000    1.0073617   -6.3279783    62.653757   0.03126435  0.033639016            9 
  168000    1.0325429    -6.360943     62.81194  0.031156716  0.033565125            7 
  169000      1.01412   -6.3565699    63.346815  0.031236102  0.033491349           11 
  170000   0.99472834   -6.3646642     63.27765  0.031018456  0.033418505            7 
  171000    1.0046886   -6.3476434    63.590821  0.030989679  0.033342309            7 
  172000   0.98300783   -6.3099008    63.850202  0.030935175  0.033268151            8 
  173000   0.99104784   -6.3711489    64.061636  0.030858206   0.03319295            4 
  174000    1.0046256   -6.3355182    64.170797   0.03073314  0.033116843           10 
  175000    1.0054407   -6.3553915    64.838719   0.03087558  0.033043656            9 
  176000   0.97867759   -6.3845694    65.025652  0.030788661  0.032971585           11 
  177000   0.98643867   -6.3633155     65.12099    0.0306596  0.032896764           16 
  178000    0.9967628    -6.364125    65.445343  0.030639205  0.032822429            5 
  179000   0.97053907   -6.3676622    65.573222  0.030527571  0.032749091            5 
  180000   0.96752344   -6.3365841     65.71472  0.030423481   0.03267519            3 
  181000   0.97432717   -6.4194831    66.254936  0.030504114  0.032600855            8 
  182000   0.97568177   -6.3698215    66.210873  0.030316334  0.032527134            4 
  183000   0.96104974   -6.3914912    66.402178  0.030237786  0.032451237           10 
  184000   0.97093676   -6.3968921    66.671462  0.030195409  0.032374663            9 
  185000   0.98783196   -6.4053946     66.91514  0.030141955  0.032297665            6 
  186000   0.96488284   -6.4040749    67.064443  0.030046793  0.032219599           13 
  187000   0.98828866   -6.3795904    67.252942  0.029970117  0.032142058            8 
  188000   0.95792359   -6.4046709    67.532422  0.029934584  0.032063963            6 
  189000   0.95971534   -6.3975126    67.804289  0.029896071  0.031984664           13 
  190000   0.99928167   -6.4183574     67.95485  0.029804759  0.031908533            5 
  191000   0.96484333   -6.4037142    68.201643  0.029756389  0.031832527            6 
  192000   0.97067922   -6.4089914    68.337773  0.029660491  0.031755259            4 
  193000   0.94231034   -6.3899033    68.395565  0.029531764  0.031676521            4 
  194000   0.96237076   -6.4360389    68.569274  0.029454156  0.031595949            4 
  195000   0.95275326    -6.413371    68.959226  0.029469755  0.031517419           13 
  196000   0.95851477    -6.394764    69.183862  0.029414907  0.031439948            6 
  197000    0.9389011   -6.4280246    69.573557  0.029430438  0.031363398            6 
  198000   0.95144368   -6.4406694    69.639556  0.029309577   0.03128601            9 
  199000   0.92571083   -6.4260049    69.963991  0.029298154  0.031208717            8 
  200000   0.96040286   -6.4360303    69.908669  0.029128612  0.031129932            4 
  201000   0.95670856   -6.4497566    70.298182  0.029145183  0.031050816            3 
  202000   0.94111489    -6.450576    70.317091  0.029008701  0.030970307            8 
  203000   0.95492036   -6.4290936    70.822617  0.029073324  0.030893391            8 
  204000   0.95575626   -6.4653189    71.002332   0.02900422   0.03081688           10 
  205000   0.95321185   -6.4317039    71.326723  0.028994603   0.03074113           10 
  206000   0.95431673   -6.4405085    71.424346  0.028893344  0.030667058            4 
  207000   0.93139719   -6.4694336      71.8208  0.028913365  0.030594264            6 
  208000   0.94053654     -6.40539    72.217986  0.028933488  0.030522721            6 
  209000   0.92283216   -6.4381886    72.333665  0.028841174  0.030452946            5 
  210000   0.88982226   -6.4451592    72.773169  0.028878241  0.030383359            8 
  211000    0.9468203   -6.4747359    72.594301  0.028670735   0.03031235            9 
  212000   0.92662605   -6.4787662    73.089638  0.028730204  0.030242233            7 
  213000   0.93413378   -6.4711145     73.28004  0.028669812  0.030173562           12 
  214000   0.92958131    -6.449345     73.42556  0.028592508  0.030106189            7 
  215000    0.9230247   -6.4831745    73.632375   0.02853968  0.030037592           10 
  216000   0.91732089   -6.4813901    74.012792  0.028554318  0.029970393            7 
  217000   0.93774952    -6.490029     74.08664  0.028451091  0.029903643            4 
  218000   0.93101861    -6.475237    74.448221    0.0284588  0.029835531            8 
  219000   0.91814896   -6.5042201    74.402913  0.028311611  0.029766948           18 
  220000   0.93104689   -6.5162714    74.659649   0.02828017    0.0296988            4 
  221000   0.90183086   -6.5200457    74.892501  0.028240008  0.029629762            6 
  222000   0.91833578   -6.5185432    75.260312  0.028250868  0.029561384           11 
  223000   0.94623011   -6.4971483    75.539867   0.02822865  0.029494774           14 
  224000   0.92557224    -6.501203    75.564308  0.028111722  0.029427844            3 
  225000   0.90007057   -6.5169609    75.750955  0.028055909  0.029361113            6 
  226000   0.92074474   -6.4871052    76.073169  0.028050579   0.02929491           11 
  227000   0.90808438   -6.5019568     75.94851  0.027881244  0.029228098            6 
  228000   0.89936272   -6.5741611    75.887206  0.027736552  0.029159992           10 
  229000   0.91371774   -6.5565464    76.383786  0.027796138  0.029091732            9 
  230000     0.899968   -6.5587866    76.780491  0.027819018   0.02902426            5 
  231000   0.92176223   -6.5010141    76.930372  0.027752659  0.028959073           15 
  232000   0.90270226   -6.5543661    77.162746  0.027716504  0.028892747           13 
  233000   0.88064762   -6.5121515    77.134907  0.027587592   0.02882646           18 
  234000     0.896644   -6.5129194    77.240563  0.027507323  0.028760943           21 
  235000   0.90254951   -6.5732744    77.351677  0.027429673  0.028695018            7 
  236000   0.88649159   -6.5588187    77.641487  0.027415779  0.028629769           16 
  237000    0.8949156   -6.5493723    78.063867  0.027448617  0.028565871            5 
  238000   0.86937711   -6.5648381    77.928698  0.027285959  0.028500651           15 
  239000   0.88191752   -6.5613597    78.248925  0.027283447  0.028434723           11 
  240000   0.88391079   -6.5566285    77.982341  0.027077202  0.028367318            5 
  241000   0.88675107   -6.5729156    78.112922      0.02701  0.028299222            8 
  242000   0.88564625   -6.5660951    78.335787  0.026975133  0.028230454            3 
  243000   0.90178057     -6.53923    78.642244  0.026969219  0.028161515           11 
  244000   0.86351407   -6.5793164    78.630582  0.026854707  0.028091721            6 
  245000   0.85850913    -6.578568    78.617871  0.026740772  0.028021758            7 
  246000   0.87233062   -6.5832871    78.780429  0.026687137  0.027951733           12 
  247000   0.88874373   -6.5784104    78.807246   0.02658814  0.027882112           13 
  248000   0.87044094   -6.6203627    78.809144  0.026481567  0.027811469           12 
  249000   0.88204048   -6.5840202    79.183864  0.026500624  0.027740703           13 
  250000    0.8686713   -6.5938433    79.485207  0.026495069  0.027671314           26 
  251000   0.85026142   -6.5609692    79.810413  0.026497481  0.027602559           14 
  252000   0.86204957   -6.5981706    79.863356   0.02640984  0.027534514           28 
  253000   0.86071813   -6.6033617    80.087053  0.026379135  0.027467898            8 
  254000    0.8679257   -6.5981458    80.097789  0.026278802  0.027401618           15 
  255000   0.84344211   -6.6109618    80.386875  0.026270221   0.02733495           25 
  256000   0.86938001   -6.6368572    80.572542  0.026228041  0.027268764           13 
  257000   0.87609854   -6.6185816    80.955467  0.026250151  0.027202871           18 
  258000   0.85303461   -6.6162984    81.091429  0.026192322  0.027138037           12 
  259000   0.84210591   -6.6225091    80.965081  0.026050541   0.02707345            8 
  260000   0.87428368   -6.6112632    81.258407  0.026044361  0.027008759           11 
  261000   0.87833338   -6.6330385    81.493597  0.026019667  0.026944062            6 
  262000    0.8624128   -6.6150664    81.615286  0.025959061  0.026879524            7 
  263000   0.86494997   -6.6490139    81.916369  0.025955757  0.026815719           17 
  264000   0.85555536   -6.6435139     81.86395  0.025840893  0.026751712           14 
  265000   0.85638851   -6.6470875    81.829719  0.025732616  0.026686849           17 
  266000   0.84500033   -6.6232705    82.017272  0.025694634  0.026621989           14 
  267000    0.8391071   -6.6431839    82.063154   0.02561272  0.026556691           23 
  268000   0.83783419    -6.639562    82.512284  0.025656805  0.026492406            7 
  269000   0.81600901   -6.6474065    82.476163  0.025550236  0.026428061            7 
  270000    0.8303752   -6.6427482    82.347135  0.025415782  0.026363537           14 
  271000   0.85338077    -6.645662     82.36124  0.025326335  0.026297387           12 
  272000   0.85094198   -6.6374609    82.603241  0.025307366  0.026231073           19 
  273000   0.82885413   -6.6486235    82.743567  0.025257499  0.026164895            7 
  274000   0.83085867   -6.6494488    82.928914  0.025221689  0.026099467           10 
  275000   0.82265068   -6.6556411    83.097963  0.025181201  0.026034466           28 
  276000   0.83087636   -6.6739944    83.188386  0.025117266  0.025969259           19 
  277000   0.81551484   -6.6444117    83.382263  0.025084917  0.025904517            9 
  278000   0.81190925   -6.6453135    83.416784  0.025005031  0.025839654           16 
  279000   0.82320812   -6.6784841    83.358332  0.024897948  0.025774831           25 
  280000   0.81080705   -6.6743146    83.960936  0.024988374  0.025711517           13 
  281000   0.83143045   -6.6545733     83.95794  0.024898559  0.025648699           31 
  282000   0.82714976    -6.664103    84.284443   0.02490675  0.025585766           41 
  283000   0.81044129   -6.7047593     84.19324  0.024791885  0.025522766           43 
  284000   0.82956168   -6.7194277    84.354348  0.024751863  0.025460043           26 
  285000   0.82071256   -6.6947443     84.38596  0.024674257   0.02539793           21 
  286000   0.81248942   -6.7122981    84.541449  0.024633289  0.025335431           23 
  287000   0.79844082   -6.7111466    84.863179  0.024640877  0.025273714           13 
  288000   0.81028237   -6.7053709    85.087794  0.024620311  0.025212338           16 
  289000   0.81174554   -6.7089683     85.04561  0.024522956  0.025151483            9 
  290000   0.79725683   -6.7358487    85.174799  0.024475517  0.025090736           12 
  291000   0.80753349   -6.7207611    85.222293  0.024405009  0.025029326           22 
  292000   0.78817821   -6.7122823    85.280844   0.02433814  0.024968003           21 
  293000   0.80144917   -6.7233377    85.357814  0.024276966   0.02490643           20 
  294000   0.80788566   -6.7627828    85.659496  0.024279902  0.024845445           13 
  295000   0.81507516   -6.7478369    85.642732  0.024192862  0.024785047           18 
  296000    0.7905192   -6.7451695    85.769644  0.024146859  0.024724418           34 
  297000   0.76914295   -6.7380563    85.642272  0.024029818  0.024664124           15 
  298000   0.78675054   -6.7681167    86.054916  0.024064574  0.024603481           18 
  299000   0.81233155   -6.7533434    86.167865   0.02401557  0.024543422           22 
  300000   0.80047078   -6.7584384    86.043081  0.023900856  0.024482906           19 
  301000   0.78106671   -6.7371514    86.245811  0.023877578  0.024421937           70 
  302000   0.75936034   -6.7570568    86.257856  0.023801837  0.024360877           47 
  303000   0.77710749   -6.7614219    86.516197  0.023794334  0.024299954            9 
  304000   0.76017486   -6.7375809    86.428149  0.023691927  0.024239131           17 
  305000   0.80876153   -6.7652539    86.541541   0.02364523  0.024178223           20 
  306000   0.77744275   -6.7589874    86.558395  0.023572548  0.024117209           14 
  307000   0.75722884   -6.7833105     86.37176  0.023445103  0.024055567           39 
  308000   0.76540689     -6.77002    86.565204  0.023421321  0.023993854           31 
  309000   0.79124923   -6.7795481    86.916894   0.02344037  0.023932967           27 
  310000   0.78514095   -6.7549696    86.781207  0.023328281  0.023872099           13 
  311000   0.76988209   -6.7630995    87.296052  0.023391225  0.023811828            9 
  312000   0.76459136   -6.7836037     87.30037  0.023317407  0.023751983            7 
  313000   0.77395367   -6.7810542    87.183147    0.0232117  0.023691859           12 
  314000   0.76854624    -6.805947    87.172794   0.02313503  0.023631531           25 
  315000   0.77125942   -6.8041237    87.037478  0.023025788   0.02357109           34 
  316000   0.74521865   -6.8091653    87.070258  0.022961566  0.023510536           19 
  317000    0.7650262   -6.8235774    87.594525  0.023026952  0.023449484           34 
  318000    0.7606825   -6.7933373    87.401112  0.022903855  0.023388361           15 
  319000   0.75377918   -6.8129895    87.329987  0.022813476  0.023327164           20 
  320000   0.77058843   -6.8225555    87.443589  0.022771768  0.023265997           41 
  321000   0.75008289   -6.8116618    87.644198  0.022752907  0.023205305           19 
  322000   0.75942096   -6.7982498    87.702453  0.022697322  0.023144512           12 
  323000   0.76804009   -6.8095732    87.741194  0.022637047  0.023083723           21 
  324000   0.75044148   -6.8277604    87.767961  0.022574064  0.023022889           35 
  325000   0.73805729   -6.8213289    87.781621  0.022508108   0.02296196           27 
  326000   0.76178352   -6.8320372    87.863146  0.022459904  0.022901301            9 
  327000   0.73917353   -6.8483354    87.798059  0.022374633  0.022840438           37 
  328000   0.75642269   -6.8555796    87.962555   0.02234821  0.022778986           37 
  329000   0.74414785   -6.8075573    87.997954  0.022289249  0.022718053           34 
  330000   0.73801518   -6.8544049     87.91371  0.022200432  0.022656633           39 
  331000   0.72985891   -6.8405493    87.896863   0.02212912  0.022595174           82 
  332000   0.72049832   -6.8633404    88.064288   0.02210449  0.022533769          163 
  333000    0.7583087   -6.8566746    88.330988  0.022104852  0.022473238           83 
  334000   0.72076544   -6.8305447    88.150656  0.021993677  0.022412921          109 
  335000   0.73304656   -6.8608991    88.085416  0.021911795  0.022351992           64 
  336000     0.735756   -6.8547726    88.322062  0.021905273  0.022291351           53 
  337000   0.71956324   -6.8854005    88.236433  0.021819098  0.022230737           48 
  338000   0.74423397   -6.8654623    88.306575  0.021771838  0.022169647           62 
  339000   0.71286833   -6.8610506    88.374673  0.021724354    0.0221095           46 
  340000   0.72601995   -6.8551225    88.217233  0.021621871  0.022049331           42 
  341000   0.72491966   -6.8787847    88.541266  0.021637651  0.021988987          109 
  342000   0.71331577   -6.9033005    88.291575  0.021513542  0.021928736           57 
  343000   0.71795867   -6.8949318    88.395946  0.021476177  0.021868439           52 
  344000   0.72878889   -6.9011516    88.584534  0.021459432  0.021808536          131 
  345000   0.71484395   -6.9055103      88.8155  0.021453019  0.021748802           68 
  346000   0.71362408   -6.8908647    88.562673  0.021330124  0.021689072           82 
  347000   0.72560146   -6.8913096    88.810396  0.021328145  0.021629562           45 
  348000   0.70486263   -6.8810776    88.785274  0.021260841  0.021569838           49 
  349000   0.71086744   -6.9126582    89.067159   0.02126723  0.021510458           46 
  350000   0.69453117   -6.8982522    88.894713  0.021165408  0.021450816           50 
  351000   0.70360394   -6.9029704    88.913753  0.021109628  0.021391389          123 
  352000   0.70967906   -6.9191934    88.769469  0.021015499  0.021331984           53 
  353000    0.7010214   -6.9077511    88.929664  0.020993783  0.021272591           70 
  354000   0.70333167   -6.9214445    89.036354  0.020959594  0.021213185           54 
  355000   0.70949029   -6.9396265    88.758249   0.02083527  0.021153771           96 
  356000   0.70565357   -6.9225969    88.709605  0.020765357  0.021094619          105 
  357000   0.69828544   -6.9234991    88.896534  0.020750825   0.02103547          169 
  358000   0.69428312   -6.9430094    88.902731  0.020694304  0.020976086           57 
  359000   0.69654658   -6.9594427    88.729918  0.020596546  0.020916646           76 
  360000   0.68788121   -6.9255406    88.853732  0.020567993  0.020857133          128 
  361000     0.690209   -6.9226425    88.943826  0.020531816   0.02079772           60 
  362000   0.69830543   -6.9229388    88.939709   0.02047415   0.02073854           94 
  363000   0.69245461   -6.9564872    88.934599  0.020416575  0.020679262          200 
  364000   0.70136352   -6.9458867    88.903989  0.020353477  0.020620402          126 
  365000   0.68925378     -6.97472     89.08697  0.020339491   0.02056149          191 
  366000   0.68043951   -6.9554828    89.142207  0.020296495  0.020502663          201 
  367000   0.68534037   -6.9687611    89.023796  0.020214304  0.020444303           86 
  368000   0.68376677   -6.9657674    89.243967  0.020209232  0.020385833           60 
  369000   0.67660812   -6.9938105    89.123312  0.020127216  0.020327507           85 
  370000   0.68617479   -6.9791633    89.081318   0.02006336  0.020269128           68 
  371000   0.67613074   -6.9907788    89.191758  0.020034088  0.020210783           75 
  372000   0.66832461   -6.9911461    89.312628  0.020007309  0.020152526          128 
  373000   0.67320021   -6.9816986    89.269105  0.019943947  0.020094582           88 
  374000   0.68477631   -7.0009795    89.395219  0.019918721  0.020036433          278 
  375000    0.6764716   -7.0117548    89.128861  0.019806413  0.019978533          270 
  376000   0.67083603   -7.0079151    89.160578  0.019760766  0.019920451          171 
  377000   0.66811155   -7.0261207    89.061973  0.019686555   0.01986237           95 
  378000   0.65393254     -7.00557    89.195152  0.019663834  0.019804134          113 
  379000   0.65788014   -7.0205802    89.275286   0.01962957  0.019746175          117 
  380000   0.65348873   -7.0079278    89.235214  0.019569126  0.019688536          316 
  381000   0.65470427   -7.0194668    89.226157  0.019515782  0.019630936          215 
  382000   0.65614554   -7.0218721    89.222486  0.019463893  0.019573335          299 
  383000   0.64818661   -7.0112982    89.355513  0.019442018   0.01951596          421 
  384000   0.65624498   -7.0364556    89.221189  0.019362237  0.019458883          544 
  385000   0.65904295     -7.02238    89.142379  0.019294887  0.019401582          509 
  386000    0.6510454   -7.0405282    89.291905  0.019277181  0.019344276          502 
  387000   0.64167828   -7.0537908    89.260543  0.019220617  0.019286957          503 
  388000   0.64167035   -7.0639364    89.139243  0.019145026  0.019229663          484 
  389000   0.64151212   -7.0613356     89.26911  0.019123631   0.01917262          539 
  390000   0.64332494   -7.0590222    89.112651  0.019041165  0.019115707          497 
  391000   0.63310912   -7.0509389    89.235402  0.019018628  0.019058713          579 
  392000   0.63895677   -7.0701668     89.15043  0.018952047  0.019001939          586 
  393000   0.64455866   -7.0654003    89.067421  0.018886222  0.018944972          626 
  394000   0.62477152    -7.083955    89.157155  0.018857266  0.018888194          709 
  395000   0.64218375   -7.0715948    89.128333  0.018803446  0.018831556          712 
  396000   0.63747978   -7.0884723    88.881776  0.018704077  0.018774861          726 
  397000   0.64064202   -7.1144819    88.936564  0.018668464  0.018718258          765 
  398000   0.63616626   -7.0933464    88.982723  0.018631223   0.01866172          847 
  399000   0.62065528   -7.1225077    88.988938  0.018585827  0.018605154          827 
  400000   0.63711766   -7.1062978    89.010304  0.018543813  0.018548614          879 
  401000   0.63147555   -7.1066502    89.120987  0.018520571  0.018492517          907 
  402000   0.63295506   -7.1134693    88.841674  0.018416599  0.018436475          959 
  403000    0.6233187   -7.1201132     89.10601   0.01842556  0.018380522         1018 
  404000   0.62427729    -7.127719    89.051502  0.018368709  0.018324657         1005 
  405000   0.60917309   -7.1338959    89.099906  0.018333314  0.018268957         1139 
  406000    0.6048174   -7.1472218    89.013252  0.018270372  0.018213277         1157 
  407000   0.60732711   -7.1604279    88.939735  0.018210429  0.018157697         1302 
  408000   0.60724095   -7.1599739    88.939931  0.018165835   0.01810226         1453 
  409000   0.60978648   -7.1616098    89.148784  0.018163974  0.018047037         1355 
  410000   0.61181801   -7.1628534    88.747342  0.018038078  0.017991602         1424 
  411000   0.60463209   -7.1624505    88.855463  0.018016112   0.01793623         1484 
  412000   0.61125036   -7.1751665    88.671824  0.017935239  0.017880897         1593 
  413000   0.60221843   -7.1871659    88.890653  0.017935967  0.017825869         1744 
  414000   0.60528667   -7.1791975    88.887385  0.017891986  0.017770925         1745 
  415000   0.60469921    -7.200384    88.788026  0.017828921  0.017716212         1839 
  416000   0.60389166   -7.2073057     88.77536  0.017783526  0.017661432         1921 
  417000    0.6099422   -7.1841238    88.647511   0.01771533  0.017606692         1887 
  418000   0.59474591   -7.2169125    88.700812  0.017683575  0.017551926         2072 
  419000   0.61141186   -7.2323591    88.607909  0.017622894  0.017497252         2153 
  420000   0.59130659   -7.2325838    88.464273  0.017552435  0.017442481         2164 
  421000   0.60573157   -7.2512651    88.650671  0.017547639  0.017387885         2142 
  422000   0.60218312   -7.2420349    88.608244  0.017497679  0.017333382         2232 
  423000   0.59325919   -7.2723506     88.50263  0.017435506  0.017278879         2258 
  424000    0.5903005   -7.2688696     88.26569  0.017347816  0.017224652         2324 
  425000   0.57701552   -7.2489469    88.453322  0.017343789  0.017170289         2350 
  426000   0.58151559   -7.2877317    88.377301  0.017288204  0.017116112         2449 
  427000   0.58365809   -7.2804553    88.393621  0.017250902  0.017062047         2558 
  428000   0.58071136   -7.3026621    88.263167  0.017185196  0.017008064         2645 
  429000   0.58329794   -7.2848054    88.191035  0.017131126  0.016954084         2622 
  430000   0.57638758   -7.2965121    88.369401  0.017125853  0.016900275         2730 
  431000   0.57801343   -7.3002724    88.201266  0.017053609  0.016846518         2826 
  432000    0.5763261   -7.3114532    88.229483  0.017019576  0.016792967         2847 
  433000   0.57132055   -7.3191274    88.213965  0.016977283  0.016739509         2852 
  434000   0.58420345   -7.3299095    88.091957  0.016914738  0.016686262         2847 
  435000   0.56922378    -7.336168    88.303717  0.016916421   0.01663323         2884 
  436000   0.56824867   -7.3257766    88.213467  0.016860372  0.016580422         2995 
  437000   0.57537834   -7.3635898    88.192468  0.016817786  0.016527744         3045 
  438000   0.56191092   -7.3553952    88.276993   0.01679547  0.016475167         3021 
  439000   0.55625008   -7.3495527     88.12219  0.016727826    0.0164229         3071 
  440000   0.56145161   -7.3612387    88.098995  0.016685416   0.01637054         3171 
  441000    0.5644011   -7.3890345    88.001392  0.016629137  0.016318313         3229 
  442000   0.55719436   -7.4059265    87.925027  0.016577117  0.016266197         3288 
  443000   0.55414459   -7.4114579    87.963308  0.016546898  0.016214211         3335 
  444000   0.55057132   -7.4073335    87.978856  0.016512548   0.01616241         3331 
  445000   0.55333083   -7.4181872    88.034863  0.016485929  0.016110819         3320 
  446000   0.55794519   -7.4355507     87.88561  0.016421078  0.016059283         3397 
  447000    0.5507038   -7.4275954    87.820061  0.016372122  0.016007896         3434 
  448000   0.55532577   -7.4373305     87.87871  0.016346486  0.015956725         3452 
  449000   0.55418045   -7.4483505    88.012915  0.016334988  0.015905652         3464 
  450000   0.54869929   -7.4523558    87.916479  0.016280829  0.015854752         3500 
  451000   0.54648643   -7.4581598    87.694197  0.016203658  0.015803914         3570 
  452000   0.54540755   -7.4649867    87.834631    0.0161937  0.015753204         3546 
  453000   0.54657538   -7.5001976    87.796905  0.016151013   0.01570263         3628 
  454000    0.5449695   -7.5254485    87.779911  0.016112318  0.015652091         3678 
  455000   0.54471969   -7.5544185    87.607274  0.016045288  0.015601537         3748 
  456000    0.5467815   -7.5521851    87.463981  0.015983915  0.015550898         3779 
  457000   0.54844116    -7.557366    87.302109  0.015919422   0.01550039         3814 
  458000   0.52581116   -7.5961189    87.326352  0.015889074  0.015450039         3777 
  459000    0.5366362   -7.5843532    87.304795  0.015850544  0.015399863         3770 
  460000   0.52659056   -7.5969279    87.314275  0.015817803  0.015349884         3736 
  461000   0.52656931   -7.6232298    87.157182  0.015755094  0.015299881         3814 
  462000   0.52739517   -7.6242826    87.212853  0.015731034  0.015249977         3794 
  463000   0.52824917   -7.6238613    87.217968  0.015697978  0.015200249         3807 
  464000   0.52464267   -7.6411884    87.181209  0.015657545  0.015150652         3864 
  465000    0.5185325   -7.6334308    87.328589  0.015650285  0.015101245         3872 
  466000   0.52140619   -7.6635219    87.168448  0.015588063  0.015052003         3850 
  467000   0.51971626   -7.6517108    86.978382  0.015520768  0.015002794         3888 
  468000   0.51498527   -7.6651661    87.166293  0.015521064  0.014953645         3906 
  469000   0.52038769   -7.6837568     86.96239   0.01545174  0.014904609         3903 
  470000   0.52172403   -7.6799278    86.921508  0.015411615  0.014855749         3915 
  471000   0.52316528   -7.6846552    87.043279  0.015400439  0.014807077         3915 
  472000   0.51714636    -7.693316    86.873949  0.015337915   0.01475855         3912 
  473000   0.51434953   -7.7013736     87.00251  0.015328138   0.01471022         3893 
  474000   0.49894787   -7.7017025    86.899145  0.015277627  0.014662042         3904 
  475000   0.50269448   -7.7075238    86.926733  0.015250304  0.014614106         3933 
  476000   0.50929029   -7.7043894    86.943903  0.015221272  0.014566382         3909 
  477000   0.50033955   -7.6944179    86.900684  0.015181811  0.014518815         3915 
  478000   0.51416336   -7.7040753    86.836426  0.015138847  0.014471464         3920 
  479000   0.50388203   -7.6997598    86.881151  0.015115023  0.014424271         3926 
  480000   0.50439946   -7.6993268    86.958782  0.015097011  0.014377279         3909 
  481000   0.50286521   -7.7325944    87.018868  0.015076034  0.014330453         3915 
  482000   0.49254634   -7.7150323    86.837972  0.015013481  0.014283825         3925 
  483000   0.48484468   -7.7212227    86.836123  0.014982078  0.014237387         3924 
  484000   0.49564707   -7.7308582    86.822141  0.014948716  0.014191119         3915 
  485000   0.49909573   -7.7316304    86.821246   0.01491774  0.014145021         3921 
  486000   0.48821559   -7.7172064    86.826643   0.01488797   0.01409907         3930 
  487000   0.49171233   -7.7249315    86.814342  0.014855295  0.014053334         3922 
  488000   0.48526362   -7.7260088    86.908427   0.01484092  0.014007804         3912 
  489000   0.48393304   -7.7284189    86.851158  0.014800811  0.013962468         3906 
  490000    0.4838266   -7.7251077    86.686644  0.014742626  0.013917292         3922 
  491000   0.47912793   -7.7246274    86.819746  0.014735191  0.013872282         3899 
  492000   0.49005318   -7.7380745    86.760014  0.014695124  0.013827477         3915 
  493000   0.47749608   -7.7324131    86.709518  0.014656781  0.013782854         3924 
  494000   0.48696341   -7.7409592    86.833905  0.014648095  0.013738423         3918 
  495000    0.4709166   -7.7369408    86.814384  0.014615216  0.013694167         3928 
  496000   0.47214775   -7.7522042     86.75093  0.014575089  0.013650104         3919 
  497000   0.47521445   -7.7386789    86.702847  0.014537701   0.01360623         3918 
  498000   0.46807561   -7.7493006    86.712301  0.014510091  0.013562509         3910 
  499000   0.47415303   -7.7504886    86.837125  0.014501858  0.013518985         3911 
  500000   0.46423231   -7.7500559    86.681503  0.014446917   0.01347559         3923 
  501000   0.47621833    -7.748633    86.798941  0.014437615  0.013432351         3907 
  502000   0.46722698   -7.7480874     86.62645  0.014380221  0.013389353         3906 
  503000     0.458595    -7.759167    86.765123  0.014374606   0.01334649         3920 
  504000   0.46677035   -7.7639305    86.747795   0.01434322  0.013303814         3916 
  505000   0.46692661   -7.7768153    86.680394  0.014303695  0.013261341         3910 
  506000   0.46183324   -7.7667484    86.778691  0.014291616  0.013219041         3904 
  507000   0.46108709    -7.770146     86.69132  0.014249066  0.013176874         3919 
  508000    0.4552288   -7.7617867    86.695503  0.014221703  0.013134889         3921 
  509000   0.45474719   -7.7716875    86.755316  0.014203555  0.013093093         3932 
  510000   0.45629774   -7.7785836    86.647272  0.014158051   0.01305146         3919 
  511000   0.45208453   -7.7697445    86.786335  0.014153023  0.013010003         3906 
  512000   0.44817693   -7.7603247    86.588084  0.014093113  0.012968721         3902 
Loop time of 1062.62 on 48 procs for 500000 steps with 4000 atoms

Performance: 81308.291 tau/day, 470.534 timesteps/s
99.4% CPU use with 48 MPI tasks x no OpenMP threads

MPI task timing breakdown:
Section |  min time  |  avg time  |  max time  |%varavg| %total
---------------------------------------------------------------
Pair    | 64.262     | 67.522     | 73.45      |  21.0 |  6.35
Neigh   | 6.6619     | 6.7558     | 6.9036     |   2.4 |  0.64
Comm    | 54.155     | 58.996     | 64.429     |  28.0 |  5.55
Output  | 0.8846     | 0.88509    | 0.89366    |   0.1 |  0.08
Modify  | 911.14     | 916.75     | 920.97     |   9.9 | 86.27
Other   |            | 11.71      |            |       |  1.10

Nlocal:        83.3333 ave          89 max          77 min
Histogram: 4 3 3 5 6 9 3 4 6 5
Nghost:        1760.42 ave        1779 max        1739 min
Histogram: 3 1 6 6 5 5 8 2 9 3
Neighs:        10718.5 ave       11570 max        9686 min
Histogram: 3 4 0 7 6 7 5 7 6 3
FullNghs:      21436.5 ave       23056 max       19595 min
Histogram: 4 4 1 8 6 5 5 4 8 3

Total # of neighbors = 1028952
Ave neighs/atom = 257.23800
Neighbor list builds = 27021
Dangerous builds = 0

#clear
#
#next RN
#
#jump SELF
Total wall time: 0:17:45
