
units lj                  # Use reduced LJ style units
atom_style atomic         # Uncharged point particles
atom_modify map hash      # Needed for indexing of clusters etc
                          # Used to be able to find where atoms are in relation to each other.

lattice fcc 1.0 spacing 1 1 1
Lattice spacing in x,y,z = 1.5874011 1.5874011 1.5874011
region box block 0 10 0 10 0 10 units lattice
create_box 2 box
Created orthogonal box = (0.0000000 0.0000000 0.0000000) to (15.874011 15.874011 15.874011)
  3 by 4 by 4 MPI processor grid
create_atoms 1 box
Created 4000 atoms
  using lattice units in orthogonal box = (0.0000000 0.0000000 0.0000000) to (15.874011 15.874011 15.874011)
  create_atoms CPU = 0.003 seconds
set type 1 type/fraction 2 0.0 78393
Setting atom values ...
  0 settings made for type/fraction
mass 1 1.0
mass 2 1.0
pair_style lj/cut  3.5
pair_modify tail  yes
pair_coeff 1  1  1.0  1.0   # Intearaction between 1 and 1 set with epsilon = 1 and sigma = 1
pair_coeff 1  2  1.5  0.8
pair_coeff 2  2  0.5  0.88

write_data data.0
System init for write_data ...
Neighbor list info ...
  update every 1 steps, delay 10 steps, check yes
  max neighbors/atom: 2000, page size: 100000
  master list distance cutoff = 3.8
  ghost atom cutoff = 3.8
  binsize = 1.9, bins = 9 9 9
  1 neighbor lists, perpetual/occasional/extra = 1 0 0
  (1) pair lj/cut, perpetual
      attributes: half, newton on
      pair build: half/bin/atomonly/newton
      stencil: half/bin/3d
      bin: standard
WARNING: Not all mixed pair coeffs generated from mixing. Use write_data with 'pair ij' option to store all pair coeffs. (../write_data.cpp:312)


#############################
#   M E L T   S Y S T E M   #
#############################

velocity all create 2.4 6583654 mom yes dist gaussian # Assign velocities
                                                    # Temperature 2.4, random number seed, zero linear momentum
                                                                                # Gaussian distribution

timestep 0.002   # simulation timestep
thermo 1000       # output thermodynamic data every 1000 steps bf 100

# Define a fix  in this case with index 1 applied to all
# particles in the simulation. This fix is for simulations
# in the anisotropic NPT ensemble. Note that we use the MTK
# correction.
fix 1 all npt temp 2.4 2.4 0.1 iso 5.68 5.68 0.5 mtk yes tchain 5 pchain 5 # Use NPT ensemble
                                                                         # Set temperature and pressure and damping
                                                                         # Numbers of thermostats in chain and in barostat
run 10000          # run for 10000 steps
Per MPI rank memory allocation (min/avg/max) = 3.642 | 3.644 | 3.648 Mbytes
Step Temp E_pair E_mol TotEng Press Volume 
       0          2.4   -8.3859253            0   -4.7868253   -2.2405722         4000 
    1000    2.3598253   -4.4579732            0  -0.91912021    5.7048558     5164.517 
    2000     2.383198   -4.3267451            0  -0.75284184    5.6269769    5254.7565 
    3000    2.3959107   -4.3928818            0  -0.79991422     5.588546    5225.7026 
    4000    2.3503695   -4.3411931            0  -0.81652021    5.7615114    5222.8281 
    5000    2.4078932   -4.3773591            0  -0.76642224     5.842355    5206.2315 
    6000    2.3685535   -4.3425818            0  -0.79063978    5.8509925    5210.9665 
    7000    2.4291595   -4.3522661            0   -0.7094378    5.9515757    5198.0937 
    8000    2.3617408   -4.3121771            0   -0.7704516    5.6392411    5264.1378 
    9000    2.4234401   -4.2878093            0  -0.65355804    5.6601748    5289.4475 
   10000    2.4312157    -4.405655            0  -0.75974307    5.6958754     5201.985 
Loop time of 2.17272 on 48 procs for 10000 steps with 4000 atoms

Performance: 795316.388 tau/day, 4602.525 timesteps/s
99.4% CPU use with 48 MPI tasks x no OpenMP threads

MPI task timing breakdown:
Section |  min time  |  avg time  |  max time  |%varavg| %total
---------------------------------------------------------------
Pair    | 0.82792    | 0.89809    | 0.95533    |   2.7 | 41.33
Neigh   | 0.16659    | 0.17077    | 0.17966    |   0.7 |  7.86
Comm    | 0.65109    | 0.71444    | 0.78528    |   3.5 | 32.88
Output  | 0.00024266 | 0.00024805 | 0.00031407 |   0.0 |  0.01
Modify  | 0.35121    | 0.37508    | 0.40669    |   2.2 | 17.26
Other   |            | 0.01409    |            |       |  0.65

Nlocal:        83.3333 ave          93 max          75 min
Histogram: 2 1 8 9 4 11 7 3 2 1
Nghost:        1380.21 ave        1407 max        1356 min
Histogram: 2 2 4 10 9 5 10 4 1 1
Neighs:        7319.10 ave        8317 max        6342 min
Histogram: 1 4 2 10 8 9 4 8 0 2

Total # of neighbors = 351317
Ave neighs/atom = 87.829250
Neighbor list builds = 902
Dangerous builds = 204

# Equilibrate just above the melting temperature to avoid step fn in T

fix 1 all npt temp 1.25 1.25 0.1 iso 5.68 5.68 0.5 mtk yes tchain 5 pchain 5
run 2000
Per MPI rank memory allocation (min/avg/max) = 3.642 | 3.644 | 3.648 Mbytes
Step Temp E_pair E_mol TotEng Press Volume 
   10000    2.4312157    -4.405655            0  -0.75974307    5.6958754     5201.985 
   11000     1.276113   -5.8036341            0   -3.8899432    5.7854896    4352.1755 
   12000    1.2485076   -5.8329942            0    -3.960701    5.6011079    4351.8865 
Loop time of 0.499803 on 48 procs for 2000 steps with 4000 atoms

Performance: 691472.424 tau/day, 4001.577 timesteps/s
99.4% CPU use with 48 MPI tasks x no OpenMP threads

MPI task timing breakdown:
Section |  min time  |  avg time  |  max time  |%varavg| %total
---------------------------------------------------------------
Pair    | 0.19233    | 0.20524    | 0.24286    |   1.8 | 41.06
Neigh   | 0.030358   | 0.031715   | 0.036323   |   0.6 |  6.35
Comm    | 0.13332    | 0.16473    | 0.20496    |   3.4 | 32.96
Output  | 4.9176e-05 | 5.0878e-05 | 6.2696e-05 |   0.0 |  0.01
Modify  | 0.059937   | 0.093735   | 0.11119    |   3.8 | 18.75
Other   |            | 0.004331   |            |       |  0.87

Nlocal:        83.3333 ave          90 max          76 min
Histogram: 3 0 6 4 4 12 6 7 5 1
Nghost:        1557.19 ave        1583 max        1542 min
Histogram: 4 6 7 13 8 5 1 2 1 1
Neighs:        8759.38 ave        9529 max        7767 min
Histogram: 2 1 4 4 7 7 7 8 7 1

Total # of neighbors = 420450
Ave neighs/atom = 105.11250
Neighbor list builds = 143
Dangerous builds = 11

#############################
# L I N E A R  Q U E N C H  #
#############################

# Define solid atoms. This closely follows ten Wolde  Ruiz-Montero and Frenkel  Faraday Discuss  1996  104  93-110
# Compute components of the per-atom q6 vector
compute q6 all orientorder/atom degrees 1 6 components 6 nnn NULL cutoff 1.3 # compute the Q6 parameter.
                                                                             # Use all neighbours within 1.3 unit cell.

# get number of connections
compute coord_number all coord/atom orientorder q6 0.5

# An atom is solid if it has 8 or more connections (of a possible 14)
variable is_solid atom c_coord_number>=8
group solid dynamic all var is_solid    # Must be dynamic to update
dynamic group solid defined

# do clustering
compute cluster solid cluster/atom 1.3 # Create a cluster where all atoms within are solid and max 1.3 units from another member

# define chunks one chunk per cluster
compute clus_chunks solid chunk/atom c_cluster nchunk every compress yes  # Says which atoms are in which chunk

# count the size of each chunk
compute size_chunks solid property/chunk clus_chunks count


# Find the maximum entry in the vector of chunk sizes
variable max_n equal max(c_size_chunks)


# Thermo style which includes this variable
# thermo_style custom step temp pe vol v_max_n

thermo ${N}  # Print the thermo information every 100 steps
thermo 1000  

# Reset the npt fix at a lower temperature (below freezing)
fix 1  all npt temp  ${temp} ${temp}  0.1  iso  5.68  5.68  0.5  mtk yes tchain  5  pchain  5
fix 1  all npt temp  0.45 ${temp}  0.1  iso  5.68  5.68  0.5  mtk yes tchain  5  pchain  5
fix 1  all npt temp  0.45 0.45  0.1  iso  5.68  5.68  0.5  mtk yes tchain  5  pchain  5

dump dmp2 all dcd ${N} traj.dcd
dump dmp2 all dcd 1000 traj.dcd


compute msd all msd com yes
variable twopoint equal c_msd[4]/6/(step*dt+1.0e-6)
fix 9 all vector 10 c_msd[4]
variable fit equal slope(f_9)/6/(10*dt)
thermo_style custom step temp pe c_msd[4] v_twopoint v_fit v_max_n

fix 1 all npt temp 1.25 ${temp} 0.1 iso 5.68 5.68 0.5 mtk yes tchain 5 pchain 5
fix 1 all npt temp 1.25 0.45 0.1 iso 5.68 5.68 0.5 mtk yes tchain 5 pchain 5
run 5000000 # 5000000  # Run for this many steps
Neighbor list info ...
  update every 1 steps, delay 10 steps, check yes
  max neighbors/atom: 2000, page size: 100000
  master list distance cutoff = 3.8
  ghost atom cutoff = 3.8
  binsize = 1.9, bins = 9 9 9
  4 neighbor lists, perpetual/occasional/extra = 1 3 0
  (1) pair lj/cut, perpetual
      attributes: half, newton on
      pair build: half/bin/atomonly/newton
      stencil: half/bin/3d
      bin: standard
  (2) compute orientorder/atom, occasional
      attributes: full, newton on
      pair build: full/bin/atomonly
      stencil: full/bin/3d
      bin: standard
  (3) compute coord/atom, occasional
      attributes: full, newton on
      pair build: full/bin/atomonly
      stencil: full/bin/3d
      bin: standard
  (4) compute cluster/atom, occasional
      attributes: full, newton on
      pair build: full/bin/atomonly
      stencil: full/bin/3d
      bin: standard
Per MPI rank memory allocation (min/avg/max) = 9.728 | 9.732 | 9.738 Mbytes
Step Temp PotEng c_msd[4] v_twopoint v_fit v_max_n 
   12000    1.2485076   -5.8329942 1.0430713e-30 7.2435506e-33 8.3333333e+20            3 
   13000    1.2120553    -5.860579   0.56179658   0.00360126  0.046290107            1 
   14000    1.2511864   -5.8310535    1.1289279 0.0067198089  0.046186961            2 
   15000    1.2400031   -5.8662576    1.6877038 0.0093761317  0.046425793            1 
   16000     1.236569   -5.8277779    2.3047158  0.012003728  0.047416066            2 
   17000     1.239125   -5.8475523    2.8802099  0.014118676  0.047814688            4 
   18000    1.2383404   -5.8821371    3.4449978  0.015949063  0.048125761            4 
   19000     1.259822   -5.8274426    4.0240657   0.01764941  0.048087835            2 
   20000    1.2831633   -5.8675061    4.5244453  0.018851855  0.047775642            5 
   21000    1.2570319   -5.8633013    5.0043496   0.01985853  0.047091645            4 
   22000    1.2410939   -5.8599273    5.5670949   0.02108748  0.046663544            3 
   23000     1.248903   -5.8736673    6.0791923  0.022026059  0.046306019            2 
   24000    1.2545794   -5.8569494    6.6334277  0.023032735  0.046036571            6 
   25000    1.2278167   -5.8477689    7.2223202    0.0240744  0.045947866            3 
   26000    1.2407516   -5.8382316    7.8201923  0.025064718  0.046000325            4 
   27000    1.2334141    -5.838862    8.4255336  0.026004733  0.046123053            4 
   28000    1.2526146   -5.8586157    8.8987858  0.026484481  0.046195879            2 
   29000    1.2420691   -5.8555052    9.4797948  0.027240789  0.046223833            3 
   30000    1.2433489   -5.8494639    9.9453379  0.027625938  0.046150064            4 
   31000    1.2271816   -5.8286664    10.607897  0.028515852   0.04610304            2 
   32000    1.2523881   -5.8153701    11.099714  0.028905504  0.046136265            2 
   33000    1.2384837   -5.8455065    11.573739  0.029226613  0.046063848            3 
   34000     1.243777   -5.8372839    12.126022  0.029720642  0.045931044            6 
   35000    1.2353183   -5.8599424    12.731108  0.030312161  0.045902242            3 
   36000    1.2240148   -5.8404324    13.372432  0.030954704  0.045974997            4 
   37000    1.2453536   -5.8387798     13.91473  0.031339482  0.046010429            4 
   38000    1.2370061   -5.8364264    14.528835   0.03186148  0.046055507            6 
   39000    1.2555016   -5.8435474    15.004646   0.03206121   0.04609852            3 
   40000    1.2283159    -5.837551    15.678415  0.032663365    0.0461317            3 
   41000    1.2769237   -5.8538303    16.077956  0.032678773  0.046163768            2 
   42000    1.2571156   -5.8470076    16.809293  0.033351772  0.046218492            2 
   43000    1.2301784   -5.9006696    17.436028  0.033790751  0.046305603            3 
   44000    1.2483863   -5.8479112    18.003038  0.034096662  0.046369339            3 
   45000    1.2490392   -5.8490883    18.616957  0.034475846  0.046454212            4 
   46000    1.2386527    -5.844658    19.147032  0.034686651  0.046532059            8 
   47000    1.2734816   -5.8445447     19.71848  0.034961843  0.046575771            1 
   48000    1.2566408   -5.8345396    20.297763  0.035239171   0.04663423            5 
   49000    1.2461329   -5.8379143    20.761953  0.035309444  0.046659457            6 
   50000    1.2561528   -5.8439739    21.248585  0.035414308   0.04666515            2 
   51000    1.2360368   -5.8555238    21.936249  0.035843545  0.046685748           11 
   52000    1.2386118   -5.8525612    22.492991  0.036046459  0.046738907            3 
   53000    1.2357303   -5.8340022    23.226008  0.036518879  0.046791249            5 
   54000    1.2149507    -5.821773    23.801335  0.036730455  0.046840001            3 
   55000    1.2298597   -5.8493341     24.45059  0.037046349  0.046914094            2 
   56000    1.2341682   -5.8476484    25.056118   0.03728589  0.046999718            4 
   57000    1.2735653   -5.8248228    25.513486  0.037300418  0.047057427            2 
   58000    1.2261569   -5.8542703    26.102794  0.037504014  0.047094283            4 
   59000    1.2501382   -5.8569206    26.624671  0.037605467  0.047122444            4 
   60000    1.2297281   -5.8446639    27.171826  0.037738646  0.047148158            2 
   61000    1.2583076   -5.8411459    27.437043  0.037482298  0.047131295            2 
   62000    1.2404133   -5.8414869    28.081916   0.03774451  0.047113828            3 
   63000    1.2485447   -5.8763338    28.551029  0.037765911  0.047090102            3 
   64000    1.2361371   -5.8367531    29.093145    0.0378817  0.047052679            5 
   65000    1.2349373   -5.8810229    29.808162  0.038215592  0.047040628            2 
   66000    1.2635503   -5.8510054    30.355369  0.038327485  0.047036685            2 
   67000    1.2711744   -5.8210025    30.852628  0.038373916  0.047034462            4 
   68000    1.2368312   -5.8738346     31.11957  0.038136728  0.047002437            1 
   69000    1.2420492   -5.8597773    31.743225  0.038337228  0.046951637            3 
   70000    1.2520597   -5.8504618    32.210941  0.038346358  0.046895556            3 
   71000    1.2366757   -5.8459781    32.707737  0.038389363  0.046836539            4 
   72000    1.2342702   -5.8486577    33.533595  0.038812031  0.046801632            2 
   73000    1.2693547   -5.8827041     33.97983   0.03878976   0.04677374            4 
   74000    1.2448273   -5.8974407    34.429071  0.038771476  0.046733436            3 
   75000    1.2378863   -5.8628349    34.864183  0.038737981  0.046680517            4 
   76000    1.2297255   -5.8996489    35.362933  0.038775145  0.046623975            2 
   77000    1.2498835   -5.8836508    36.026764  0.038990004  0.046574374            3 
   78000    1.2558435   -5.8504742    36.494016  0.038989333  0.046531122            3 
   79000    1.2378197   -5.8575755    36.851858  0.038873268  0.046475526            4 
   80000     1.270447   -5.8487902    37.367825  0.038924818  0.046414152            6 
   81000    1.2399077   -5.8780619    37.972565  0.039066424  0.046355303            2 
   82000    1.2580672   -5.8333546    38.556012  0.039182939  0.046300205            2 
   83000    1.2308435   -5.8664452    39.043431  0.039200231  0.046258702            1 
   84000    1.2471989    -5.845939    39.643887  0.039329252  0.046219634            4 
   85000    1.2028607   -5.8635517    40.231068  0.039442223  0.046178661            5 
   86000    1.2177639   -5.8824034    40.684987  0.039423437  0.046135969            3 
   87000    1.2486989   -5.8844415    41.114472  0.039381678  0.046096041            2 
   88000    1.2593212   -5.8189617    41.643904  0.039435515  0.046050316            5 
   89000    1.2378139   -5.8563402    41.984078  0.039310934  0.046003515            2 
   90000    1.2460056   -5.8683336    42.801506  0.039631024  0.045949131            5 
   91000    1.2206034   -5.8419135    43.224427  0.039582808  0.045904957            4 
   92000    1.2093788   -5.8570742    43.765126  0.039642324  0.045868747            4 
   93000    1.2498291   -5.8831102    44.536646  0.039907389  0.045836142            2 
   94000    1.2216546   -5.8569905    44.811941  0.039726897  0.045802027            2 
   95000    1.2381063    -5.867081    45.280215  0.039719487  0.045756532            4 
   96000    1.2485205   -5.8757495    45.751815  0.039715117  0.045712729            3 
   97000    1.2397762   -5.8523196    46.558493  0.039998705  0.045677331            3 
   98000    1.2506795   -5.8523882    46.862972  0.039849466  0.045644966            3 
   99000      1.21695   -5.8443498    47.499858  0.039983045    0.0456081            3 
  100000    1.2149573    -5.911538    47.981412   0.03998451  0.045571006            3 
  101000    1.2035627   -5.8531588    48.662868  0.040150881  0.045540884            4 
  102000    1.2198096   -5.8537533    49.124963  0.040134774  0.045507809            2 
  103000    1.2301127   -5.8648376    49.396113  0.039964493  0.045478692            3 
  104000    1.2434211   -5.8460685    50.215401  0.040236699  0.045451651            3 
  105000    1.2420653   -5.8604104    50.773701  0.040296588  0.045429484            8 
  106000    1.2328617   -5.8437849    51.465901  0.040460614  0.045409512            2 
  107000    1.2570018   -5.8368235    51.957841  0.040465608  0.045400245            2 
  108000    1.2415927   -5.8798329    52.396349  0.040429282  0.045387458            4 
  109000    1.2316803   -5.9014973     52.84752  0.040403302  0.045371971            2 
  110000    1.2060905   -5.8600101    53.606513  0.040610995  0.045354771            4 
  111000    1.2278538   -5.8742069    54.028481  0.040561923  0.045336645            2 
  112000    1.2591746   -5.9191491    54.950727  0.040885957  0.045326559            2 
  113000    1.2524875   -5.8842732    55.321968  0.040797912  0.045325653            2 
  114000    1.2485107   -5.8976645    56.022395  0.040952043  0.045330136            6 
  115000    1.2132233   -5.9134495    56.486687  0.040932382  0.045330342            3 
  116000    1.2601471   -5.8727615    56.895693  0.040873343  0.045325874            4 
  117000    1.2515877   -5.8513952    57.525273  0.040972417  0.045323536            6 
  118000     1.234489   -5.8039506    58.425802  0.041261159  0.045327062            4 
  119000     1.234436   -5.8607205     58.83433  0.041200511  0.045337278            5 
  120000    1.2297975   -5.8850502    59.358239  0.041220999  0.045342959            4 
  121000    1.2495894   -5.8173393    60.067835  0.041369032   0.04534976            3 
  122000     1.263925   -5.8800234    60.296262  0.041185971  0.045354941            3 
  123000    1.1958693   -5.8762826    60.587166  0.041048215  0.045354252            4 
  124000    1.2163987   -5.8461187    61.396383   0.04126101  0.045353189            3 
  125000    1.2365409    -5.853687    61.795031  0.041196687  0.045350191            3 
  126000    1.2310333   -5.8514139    62.070348  0.041051817  0.045339225            3 
  127000    1.2364099   -5.8688386    62.467356  0.040989078  0.045329011            7 
  128000      1.21429      -5.8637    62.936748  0.040974445  0.045315008            6 
  129000    1.2287342   -5.8834372    63.616297  0.041095799  0.045302526            3 
  130000     1.207218   -5.8198691    64.391657  0.041276703  0.045294376            3 
  131000    1.2316073   -5.8792442    65.084711  0.041402488  0.045291278            3 
  132000     1.263589   -5.8747036    65.867687  0.041583136  0.045289411            3 
  133000    1.2487353   -5.8646479    65.949223  0.041321568  0.045286189            2 
  134000    1.2476385   -5.8883087    66.649844  0.041448908  0.045279728            6 
  135000     1.193394   -5.8876902    67.327906  0.041560436  0.045276188            4 
  136000    1.2010773   -5.8826069    68.354658  0.041883982  0.045283742            3 
  137000    1.2275796   -5.8849454    68.481441  0.041655377  0.045298384            3 
  138000    1.2236396   -5.8756264     69.44798  0.041937186  0.045311138            5 
  139000    1.2152598   -5.8766586    69.842293  0.041871878   0.04532742            7 
  140000    1.2428901   -5.8491324    70.645286  0.042050765  0.045344434            4 
  141000    1.2475402   -5.8663737    71.351248  0.042169768  0.045362063            4 
  142000    1.2130851   -5.8508954    71.507874  0.041964715  0.045375134           10 
  143000    1.2353242   -5.8742558    72.142369  0.042041008  0.045385662            1 
  144000    1.2311022   -5.8703624    72.768684  0.042111507  0.045399588           10 
  145000    1.2107111   -5.8762613    73.277239  0.042113355  0.045414246            3 
  146000    1.2160807    -5.893811    73.578956  0.041997121  0.045423661            3 
  147000     1.226711   -5.8669192    74.124691    0.0420208  0.045426933            3 
  148000    1.2535952   -5.8896594    74.373759  0.041877116  0.045427964            4 
  149000    1.2064207   -5.9123831    75.012586  0.041953348  0.045426105            3 
  150000    1.2484151   -5.8426575    75.736651  0.042075917  0.045422876            3 
  151000    1.2285412   -5.8937314    76.221436   0.04206481   0.04542161            6 
  152000    1.2579212   -5.8356392    76.491527  0.041936144  0.045421516            2 
  153000    1.2184324   -5.8461687     77.51564  0.042219847  0.045425934            3 
  154000    1.2207112   -5.8659065    77.986076  0.042200257  0.045428868            2 
  155000    1.2266947   -5.8675241    78.375539  0.042137386  0.045436056            5 
  156000    1.2210713   -5.8725178    79.139762  0.042275514  0.045445586            2 
  157000    1.2470089   -5.8463288    80.065256  0.042497482  0.045455261            2 
  158000     1.240552   -5.8666197    80.316175  0.042360852  0.045464884            3 
  159000    1.2328537   -5.9056851    80.594123  0.042240106  0.045469394            4 
  160000    1.2368607   -5.8867312    81.116789  0.042248327  0.045473133            4 
  161000    1.2377411   -5.8814255    81.871329  0.042376464  0.045474415            2 
  162000    1.2450251   -5.8973174    82.155451  0.042261035  0.045474687            6 
  163000    1.2161573   -5.8559449    82.735715  0.042298423  0.045470962            3 
  164000    1.2369848   -5.9149536    83.182507  0.042267534  0.045469479            5 
  165000    1.2325642   -5.8937342    83.665767  0.042255438  0.045466458            5 
  166000    1.2230121   -5.8953278    84.154683  0.042246327  0.045463556            2 
  167000    1.2455859   -5.8766929    84.824629  0.042327659  0.045462325            2 
  168000     1.218591   -5.9307489    85.132071   0.04222821  0.045458852            2 
  169000    1.2455033   -5.8388577    85.918732  0.042366238  0.045453502            3 
  170000    1.2503748   -5.8832354     86.34065  0.042323848  0.045451414            2 
  171000    1.2074798   -5.8736567    87.074194  0.042433817  0.045448717            2 
  172000    1.2256136   -5.8502506    87.148495  0.042223108  0.045444344           11 
  173000     1.208046   -5.8840493    87.749034   0.04226832  0.045438366            4 
  174000    1.2255477   -5.9064258    88.011175  0.042150946   0.04542665            3 
  175000       1.2271   -5.8711553    88.740912  0.042257577  0.045418441            6 
  176000    1.2282419   -5.9255236    88.994895  0.042137734  0.045409578            4 
  177000     1.246494   -5.8904483    89.790928  0.042274448  0.045401258            3 
  178000    1.2229282   -5.9156775    90.340938  0.042294447  0.045392137            5 
  179000    1.2400353   -5.8470868    90.755019   0.04225094  0.045383451            3 
  180000    1.2371698   -5.8653262    91.529126  0.042374595  0.045376581            3 
  181000    1.2154725   -5.8805019     91.75161  0.042242914  0.045367014            4 
  182000    1.2217705   -5.8881579    91.918746  0.042087338  0.045355496            6 
  183000    1.2301032   -5.8934877    92.849318   0.04228111  0.045343669            3 
  184000    1.2164273   -5.8700722    93.082232  0.042156808  0.045331035            3 
  185000    1.2121366   -5.9089874    93.638736  0.042179611   0.04531726            4 
  186000    1.2428905   -5.9220096    94.489928  0.042334197  0.045304811            5 
  187000     1.204776   -5.8846069    94.771202  0.042233156  0.045289318            3 
  188000    1.2434211    -5.905433    95.327099   0.04225492  0.045276747            6 
  189000    1.2158145   -5.8720104     95.97318  0.042316217  0.045267247            3 
  190000     1.234209   -5.8678425    96.688547  0.042407257  0.045258906            5 
  191000    1.2508134   -5.9186523    97.249624  0.042430028  0.045250563            5 
  192000    1.2220114   -5.8857449    98.085335   0.04257176   0.04524376            3 
  193000    1.2174578    -5.870029    98.967773  0.042732199  0.045242544            4 
  194000    1.2272161   -5.9003053    99.192154  0.042608313  0.045241773            4 
  195000    1.2308197   -5.8888024    99.508363  0.042524941  0.045238058            3 
  196000    1.2144299   -5.8333792    100.20339  0.042603482  0.045233445            3 
  197000    1.2067862   -5.8683304    100.96941  0.042711257  0.045229363            5 
  198000    1.2140933    -5.891678    101.33864  0.042650943  0.045225597            4 
  199000    1.2230416   -5.8875731    101.86607  0.042657482  0.045221974            2 
  200000    1.2096632   -5.9168743    102.32311  0.042634628  0.045217229            5 
  201000    1.1847662   -5.9083976    102.82094  0.042628912  0.045216895            2 
  202000    1.1907661   -5.8854701    103.58134  0.042731576  0.045215762            7 
  203000    1.2365609    -5.894346    104.56434  0.042924605  0.045216275            4 
  204000    1.2088928   -5.8906995    105.27584  0.043004839  0.045221465            3 
  205000    1.2358133    -5.936515    105.10962  0.042727487  0.045223927            2 
  206000    1.1983825   -5.9273096    106.10203  0.042921531   0.04522708            5 
  207000    1.2265995   -5.9064242    106.73385  0.042968537  0.045233477            5 
  208000    1.2149354   -5.9293591    107.51555   0.04307514  0.045239479           10 
  209000    1.2194275   -5.9230168     107.6766  0.042933255  0.045246272            8 
  210000    1.2136519   -5.9117942     108.6084  0.043098569  0.045250373            4 
  211000    1.2249129   -5.8787009    108.61701  0.042897711  0.045255296            4 
  212000    1.1750312   -5.8992076    109.07651  0.042875988  0.045258333            2 
  213000    1.2382084   -5.8655198    110.14979  0.043094595  0.045261211            8 
  214000    1.2300223   -5.8768488    110.15738  0.042896175  0.045265216            3 
  215000     1.207215   -5.8708326    111.12074  0.043070054  0.045266602            4 
  216000    1.2202094   -5.8959209    111.34414  0.042956843  0.045266659            2 
  217000    1.2438399   -5.8504077    112.03078  0.043022574  0.045264802            4 
  218000    1.2380658   -5.8864416    112.42881  0.042977374  0.045264431            4 
  219000    1.2344536   -5.8717336    112.61243     0.042851  0.045262122            2 
  220000    1.1991688   -5.8917401    113.33758  0.042930902  0.045259127            5 
  221000     1.220377   -5.8875965    114.02908   0.04299739  0.045257538            3 
  222000    1.2090446    -5.898515     114.1342  0.042843167  0.045255416            4 
  223000    1.2316275   -5.8419253    115.06753  0.042999823  0.045254104            4 
  224000    1.2213303   -5.8785188    115.66607  0.043030533  0.045254315            2 
  225000    1.2149075   -5.8410594    116.38545  0.043105721  0.045256262            3 
  226000     1.214126   -5.8972442    116.97267  0.043131516   0.04525796            5 
  227000    1.2217374    -5.900856    117.18875  0.043020833  0.045257643            3 
  228000    1.1993214    -5.907488    117.76392  0.043042367  0.045259383            3 
  229000    1.2367452   -5.9023673    118.42705  0.043095723  0.045259682            3 
  230000    1.1953866   -5.8840715    118.99243  0.043113199  0.045259114            2 
  231000    1.1819649   -5.8677366    119.36704  0.043061704  0.045260163            1 
  232000    1.2074215   -5.9181277    120.09787  0.043138603   0.04526288            2 
  233000    1.2249139   -5.8594203    120.78164  0.043198012  0.045266773            3 
  234000     1.200712   -5.8688992    121.26891  0.043186933   0.04526807            3 
  235000    1.2250303   -5.9182417    121.73933  0.043169975  0.045267967            4 
  236000    1.2310841   -5.9261621    121.97483   0.04307021  0.045267233            8 
  237000    1.2091013   -5.9125163    122.42548  0.043046935  0.045267834            3 
  238000    1.1791963   -5.8773283    123.27138  0.043162249  0.045267388            2 
  239000     1.220387   -5.9185585    123.62578  0.043105222  0.045266151            4 
  240000     1.221783   -5.9132233    123.96961  0.043045005  0.045264893            9 
  241000    1.1948666   -5.8838271    124.49173  0.043046932  0.045260697            2 
  242000    1.1813485   -5.8646495    124.70356  0.042941999  0.045254777            2 
  243000    1.2105577   -5.9237178    125.04435  0.042882152  0.045246954            2 
  244000    1.2387506   -5.8696182    125.79181  0.042961683  0.045237782            5 
  245000    1.2122102   -5.9114952    126.17233  0.042915758  0.045230144            3 
  246000    1.2209307   -5.8953459    126.16339  0.042738277  0.045221553            4 
  247000    1.2019761   -5.9021741    127.16972  0.042904764  0.045212907            3 
  248000    1.2037757   -5.8817111    127.64939  0.042892939  0.045204562            3 
  249000    1.1759451   -5.9363287    127.74719  0.042753409  0.045194808            2 
  250000      1.23645   -5.9087736    128.04158  0.042680526  0.045181926            3 
  251000     1.205414   -5.9178981    128.89077  0.042792419   0.04516892            4 
  252000    1.1810215   -5.8745021    129.66563  0.042878847  0.045157791            3 
  253000    1.2017062   -5.8715297    129.57225  0.042678607  0.045146192            4 
  254000    1.2021279   -5.8970375     130.1335  0.042694717  0.045133246            5 
  255000    1.2361841    -5.922522    130.31009  0.042584996  0.045120775            5 
  256000    1.2193959   -5.9268971     130.6171  0.042518588  0.045106369            3 
  257000    1.2161415   -5.9180374    131.10951  0.042512812  0.045090309           11 
  258000    1.1847412   -5.9060105    131.81142  0.042574747  0.045074486            4 
  259000    1.1848043   -5.9133121    132.54939  0.042647808  0.045059466            3 
  260000    1.1918491   -5.9588343    132.76713  0.042553566  0.045044202            5 
  261000    1.2597063    -5.874056    133.80426  0.042721668  0.045031935            4 
  262000    1.2088717   -5.9250927    134.29363  0.042714258  0.045021264            4 
  263000    1.2033916   -5.9323031    135.18556  0.042834461  0.045012519            2 
  264000     1.241535    -5.898425    135.76579  0.042855363  0.045005743            2 
  265000    1.1774995   -5.9147088    135.89219  0.042733392   0.04499599            6 
  266000    1.2160962   -5.9326195    136.26694  0.042690144  0.044986201            3 
  267000    1.2212088   -5.9105042    136.91322  0.042731968  0.044976564            2 
  268000    1.2352466   -5.9249009    137.57222  0.042777433  0.044966315            4 
  269000    1.1949937   -5.9095043    137.91711   0.04272525  0.044953596            4 
  270000    1.2204244   -5.8868611    138.79438  0.042837771  0.044942624            6 
  271000    1.2054263   -5.9258941    139.26869   0.04282555  0.044933251            3 
  272000    1.1886218   -5.9398281    139.22062  0.042653376  0.044922442            4 
  273000    1.2002785   -5.8901162    140.09073  0.042762737  0.044911387            3 
  274000    1.1961953    -5.896925    140.76024  0.042810292  0.044900783            3 
  275000    1.2061819   -5.8977384    141.18052  0.042781975  0.044890176            3 
  276000    1.2097163   -5.9219589    141.55054   0.04273869  0.044878895            4 
  277000    1.1875559   -5.9042324    142.19117  0.042777128   0.04486858            3 
  278000    1.1810624    -5.881796    142.95095  0.042851004  0.044858844            9 
  279000    1.1971901    -5.955677    143.05985  0.042729944  0.044849711            4 
  280000    1.2156899   -5.9435252    143.36483  0.042668104   0.04483753            4 
  281000    1.2171209   -5.8993308     144.0192   0.04271032  0.044825629            3 
  282000    1.1874599   -5.9227563    144.07445  0.042575192  0.044814232            3 
  283000    1.1908036   -5.8578333    144.98061  0.042691583  0.044801861            8 
  284000    1.2083611   -5.9033587    145.48259  0.042688553  0.044791238            4 
  285000    1.2009715   -5.9202294    145.61308  0.042576925  0.044780096            4 
  286000    1.1762125   -5.9184474    146.67447  0.042737316  0.044769851            5 
  287000    1.2251524   -5.9205581    147.15184  0.042727014  0.044758585            4 
  288000    1.2199144   -5.8992657     147.6587  0.042725319  0.044747887            4 
  289000    1.1870743   -5.8961017    147.88211    0.0426419   0.04473647            3 
  290000    1.2184369   -5.9021134    148.34496  0.042627861  0.044725392            3 
  291000    1.2142144   -5.9136002    149.02766  0.042676879  0.044713717            7 
  292000     1.216935   -5.8955982    149.35104  0.042623014  0.044699922            4 
  293000    1.1878474   -5.8917639    149.31639  0.042467688  0.044685082            7 
  294000    1.2183099   -5.9048783    149.52354  0.042381956  0.044668668            3 
  295000    1.1937802    -5.934887    149.82564  0.042323628  0.044651095            3 
  296000    1.1926365   -5.9439526    150.36829  0.042333416  0.044634554            3 
  297000    1.2140408   -5.9044403    151.61226  0.042539915  0.044619503            5 
  298000    1.2163441   -5.8859189    152.46113  0.042634544  0.044605433            2 
  299000    1.2010909   -5.9170896    152.68572  0.042554547  0.044591799            3 
  300000     1.220028   -5.9592269    152.69182  0.042414393  0.044576351            8 
  301000    1.1768285    -5.924535    153.33658  0.042451989  0.044562012            4 
  302000    1.2059957   -5.9359733    153.68648   0.04240797  0.044546457            1 
  303000    1.1909686   -5.9075976    154.57168  0.042511463  0.044532245            3 
  304000    1.2119229   -5.9137322    156.03116  0.042771699  0.044520497            3 
  305000     1.194371   -5.9561865    156.24956  0.042691136  0.044511131            5 
  306000    1.2151925   -5.9584984    156.94382  0.042740692  0.044502041            3 
  307000    1.2031883   -5.9399764     156.5125  0.042484392  0.044492144            5 
  308000     1.203791   -5.9313983    157.34509  0.042571724  0.044482704            5 
  309000     1.214874   -5.9067501    158.23714  0.042674525  0.044473037            3 
  310000    1.1959505   -5.9201899    158.61424  0.042638235  0.044464473            3 
  311000    1.1985314   -5.9429666    158.88811   0.04257452   0.04445399            8 
  312000    1.1969083   -5.9013673    159.97291  0.042727808  0.044444772            2 
  313000    1.2112885   -5.9071052    159.96431  0.042589006  0.044434586            4 
  314000    1.1946958   -5.9355408    161.00007  0.042728257  0.044425508            4 
  315000    1.2066832   -5.9439336    161.42651  0.042705427  0.044417061            3 
  316000    1.1841447   -5.9215572    161.70388  0.042643428  0.044408535            2 
  317000    1.1989729   -5.9098995    161.83554  0.042543518  0.044399082            4 
  318000     1.182151   -5.9347451    162.41009  0.042560295  0.044389679            8 
  319000    1.1876197   -5.9328288    163.00365  0.042581936  0.044380109            3 
  320000     1.193885   -5.9542829    163.94008  0.042692728  0.044370694            3 
  321000    1.2176605   -5.9421814    163.70462  0.042498604   0.04436037            6 
  322000    1.1929015   -5.9178333    164.91216  0.042679132   0.04435203            3 
  323000     1.193724   -5.9178629    164.75128   0.04250549    0.0443419            6 
  324000    1.2104286   -5.9202213    164.76137  0.042376896  0.044331656            2 
  325000    1.1954527   -5.9134641    165.63402  0.042470262   0.04432107            8 
  326000    1.1857624   -5.9510216    166.25218  0.042498001  0.044310193            2 
  327000    1.1709073    -5.944576    167.28211  0.042630507  0.044299669            4 
  328000    1.1921838   -5.8996557    167.04765  0.042440968  0.044289224            3 
  329000    1.2055721   -5.9396925    168.13648  0.042587762  0.044280074            3 
  330000    1.1947933   -5.9536504    167.53256  0.042306201   0.04426748            3 
  331000    1.1828834   -5.9006386    168.42511    0.0424031  0.044254823            4 
  332000    1.2395675   -5.9410473    168.81525  0.042373305  0.044242428            4 
  333000    1.1916778   -5.9162303    169.14924  0.042329639  0.044230166            5 
  334000    1.2138316   -5.9134054    169.99043  0.042412781   0.04421618            3 
  335000     1.206053   -5.9015131    170.36053  0.042378241  0.044201198            4 
  336000    1.1692555   -5.9279695    170.73156  0.042344136  0.044187084            2 
  337000    1.2149211   -5.9296426    170.72263  0.042216279  0.044171494            8 
  338000    1.2342774   -5.9908142    170.80707  0.042112197  0.044157236            6 
  339000    1.2338861   -5.9142657    171.70343  0.042208315  0.044142435            6 
  340000    1.1886617   -5.9279495      172.273  0.042223775  0.044127794            3 
  341000      1.21332   -5.9281821     172.4156  0.042134798  0.044113974            6 
  342000    1.2010226    -5.937787    173.36207   0.04224222  0.044100096            5 
  343000    1.2013088   -5.9163518    174.26549  0.042338554  0.044086437            2 
  344000    1.2128725   -5.9193376    174.80334   0.04234577  0.044073268            2 
  345000    1.2090348    -5.918567     174.7134  0.042201304  0.044061247            3 
  346000    1.1893866   -5.9296025    175.72251  0.042322376  0.044050163            2 
  347000    1.2033965   -5.9307917    176.22792  0.042321786  0.044037954            2 
  348000    1.2214722   -5.9676272    176.26641  0.042209389  0.044024419            3 
  349000    1.1758218   -5.9420199    177.52628  0.042389274  0.044012129            7 
  350000    1.1878507   -5.9230757    178.06233  0.042395792  0.043999905            4 
  351000    1.2154653   -5.9075014    178.49094  0.042376767  0.043989151            2 
  352000    1.1824775   -5.9212876    178.78419  0.042325803   0.04397752            4 
  353000    1.2071625   -5.9037314    179.05945   0.04227088  0.043966464            2 
  354000    1.1785872   -5.9744739    180.04654  0.042383838   0.04395524            3 
  355000    1.2052815    -5.901014     181.0015  0.042488615  0.043944503            4 
  356000     1.236597   -5.9411879     180.5219  0.042256999  0.043932811            6 
  357000     1.178988    -5.935402    181.29587  0.042319298  0.043921456            4 
  358000     1.206128    -5.938241    181.38804  0.042222541  0.043909424            3 
  359000    1.1712904   -5.9584715    182.26239  0.042307889  0.043897827            5 
  360000    1.1989359   -5.9325964    181.87506  0.042100708  0.043885462            3 
  361000    1.1740212   -5.9347726    182.47932  0.042123574  0.043873078            4 
  362000    1.2157092   -5.9793938    183.50911   0.04224427  0.043861353            4 
  363000    1.1726094   -5.9417234    183.32713  0.042086119  0.043848672            5 
  364000    1.1875465   -5.8998656    184.67947  0.042280099  0.043835845            2 
  365000    1.1838675   -5.8865129    183.72147  0.041945541  0.043821644            5 
  366000    1.1952283   -5.9264362    185.07067  0.042138132  0.043807379            3 
  367000    1.1811411    -5.945724    185.02007  0.042011822  0.043793108            4 
  368000    1.2046329   -5.9705457    185.19977  0.041938353  0.043778743            5 
  369000    1.1834327   -5.9253666     186.2731  0.042067097  0.043763693            4 
  370000    1.2042843   -5.9514866    186.34357  0.041969272  0.043748631            3 
  371000    1.2215248    -5.962877    186.35203  0.041858047  0.043734502            4 
  372000    1.1736092   -5.8904813    188.00918  0.042116751  0.043719812            5 
  373000    1.1750057   -5.9494544    187.84009  0.041966061  0.043704948            4 
  374000    1.1784739   -5.9098407    188.74609  0.042055724  0.043690816            5 
  375000    1.1999932   -5.9439911     188.4629  0.041880644  0.043675808            6 
  376000    1.2085129   -5.9572587    188.95399    0.0418781  0.043660264            3 
  377000    1.1896365   -5.9587535    188.95941  0.041768215  0.043644206            2 
  378000    1.1946471   -5.9789988    189.96069  0.041878458  0.043628448            5 
  379000    1.1936594   -5.9125861    191.05813  0.042009264  0.043613999            4 
  380000    1.1851579   -5.9211186    191.23007   0.04193642       0.0436            3 
  381000    1.1804548   -5.9581889    191.08131  0.041793811  0.043586334            4 
  382000    1.1915429    -5.917139    192.28607  0.041947223  0.043572726            3 
  383000    1.1776753   -5.9370742    192.67694  0.041922747  0.043559297            4 
  384000     1.124173   -5.8794036    194.02319  0.042105727  0.043546546            5 
  385000    1.1875141   -5.9319789     193.1561  0.041808679  0.043533286           10 
  386000    1.1991721   -5.9291622    193.98159  0.041878581  0.043519283            3 
  387000    1.1772551   -5.9269821      194.446   0.04187037  0.043505109            5 
  388000     1.194957   -5.9544561    195.46254  0.041980785  0.043491455            3 
  389000    1.1779388   -5.9532448    196.00994  0.041990132  0.043477854            5 
  390000    1.1988735   -5.8960941    196.21791  0.041926903  0.043464448            3 
  391000    1.1781856   -5.9599794    196.95884  0.041977588  0.043451443            3 
  392000    1.2082959   -5.9217436    197.44054  0.041972903  0.043438393            2 
  393000    1.1803365   -5.9069282     197.7413  0.041929876  0.043425783            2 
  394000    1.1849953   -5.9063838    198.08008   0.04189511  0.043412929            4 
  395000    1.1778254   -5.9515522      198.564   0.04189114  0.043399602            4 
  396000    1.1778386   -5.9494443     198.8402  0.041843477  0.043386289            2 
  397000    1.1780099   -5.9391195    200.08104   0.04199854  0.043373595            6 
  398000     1.160044   -5.9665062    199.35233  0.041740438  0.043361451            8 
  399000    1.1810611    -5.935256      200.614  0.041899331  0.043348891            1 
  400000    1.1899302   -5.9348841     200.7132   0.04181525  0.043336058            4 
  401000    1.2069243   -5.9472702    201.21731  0.041815734  0.043323125            2 
  402000    1.2136962   -5.9745987    201.91119  0.041855554  0.043310791            5 
  403000    1.2152514   -5.9555453    202.75838  0.041926877  0.043298059            2 
  404000    1.1713558   -5.9426557    202.99544  0.041871996  0.043284834            2 
  405000    1.1900847   -5.9603461    203.05403  0.041780664  0.043272253            6 
  406000    1.1609729   -5.9548291    203.15902  0.041699306   0.04325921            4 
  407000    1.1943892   -5.9595483     204.3416  0.041838984   0.04324693            3 
  408000    1.1851358   -5.9061232    205.31917  0.041936105  0.043234718            3 
  409000    1.1777388   -5.9381718    205.34145  0.041838111  0.043222745            5 
  410000    1.1631591   -5.9768812    205.49562  0.041767403  0.043211185            2 
  411000    1.1693205   -5.9759582    206.43654  0.041856557  0.043199227            3 
  412000    1.1618912   -5.9148958     206.4916  0.041766099  0.043187334            2 
  413000     1.196339   -5.9521006    206.94669  0.041756798  0.043175202            7 
  414000    1.1775282   -5.9390582    208.59317  0.041987354  0.043163663            4 
  415000    1.1825505   -5.9520905    207.82095  0.041731115  0.043153078            7 
  416000    1.1980088   -5.9763619    208.87571  0.041842088  0.043141984            4 
  417000    1.1969173   -5.9416152    208.62214  0.041691075  0.043129866            3 
  418000    1.1765709   -5.9423867    209.37731  0.041741888  0.043117178            3 
  419000    1.1726053   -5.9325055    209.56063  0.041678725  0.043103998            3 
  420000    1.1648134   -5.9379788    210.23868  0.041714024  0.043092581            2 
  421000    1.1925354   -5.9824884    210.26376  0.041619905  0.043080866            3 
  422000    1.2040413   -5.9526312    211.64592  0.041794217  0.043068385            3 
  423000    1.1580493   -6.0030761    211.91471  0.041748367  0.043056339            3 
  424000    1.1789122   -5.9398494    212.10856  0.041688003  0.043044919            6 
  425000    1.1610075   -5.9396663    212.98204  0.041761183  0.043034081            3 
  426000    1.1774674   -5.9567556    213.74486  0.041812374  0.043023488            2 
  427000    1.2078922   -5.9560458    213.88009  0.041740845  0.043012537            2 
  428000    1.2126512   -5.9590512    214.64031  0.041791338  0.043000762            3 
  429000    1.1889353   -5.9614972    214.09678   0.04158834  0.042988724            3 
  430000    1.1573329   -5.9424575    215.49117  0.041761854  0.042977561            5 
  431000     1.188389   -5.9721727    215.31136  0.041630193  0.042966737            2 
  432000    1.1776525   -5.9612604    216.98338  0.041856361  0.042955109            3 
  433000    1.2109878   -5.9361165    216.44424  0.041655936  0.042942545            6 
  434000     1.185022   -5.9687835    217.32375  0.041728831  0.042930186            7 
  435000    1.1976086   -5.9270944    217.57299   0.04168065  0.042917512            6 
  436000    1.1755519   -5.9631801    217.13771  0.041501855  0.042905555            5 
  437000    1.1948113   -5.9391443    218.04046  0.041579034  0.042893535            4 
  438000    1.1989758   -5.9616206    218.73336  0.041615937  0.042881714            4 
  439000    1.1824779   -5.9577612    218.33056  0.041444678  0.042869501            4 
  440000     1.172495   -5.9338342     219.4978  0.041571553  0.042857645            4 
  441000    1.2053386   -5.9308605    219.82066  0.041538295  0.042846994            5 
  442000    1.1605263   -5.9504384      220.878  0.041643664  0.042836511            4 
  443000    1.1772297   -6.0002518    221.17826  0.041606143  0.042826073            4 
  444000     1.188735   -5.9011826    221.70827  0.041611913   0.04281594            3 
  445000    1.1737418   -5.9502366    222.10651  0.041592979   0.04280629            8 
  446000    1.2109841   -5.9588296    223.29444  0.041721681  0.042797437            3 
  447000    1.1515964   -5.9532839    223.75744   0.04171466  0.042788784           11 
  448000    1.1857533   -5.9846976    224.00511  0.041667617  0.042780774           12 
  449000    1.1855511   -5.9732561    224.79474   0.04172137  0.042772399            3 
  450000    1.1971699   -5.9758688    225.74287  0.041804236  0.042765501            4 
  451000    1.1698587   -5.9284894    226.72826  0.041893619  0.042758577            5 
  452000    1.1959924   -5.9366563    226.23262  0.041709553  0.042751599            2 
  453000    1.1742808   -5.9508342    227.65002  0.041878223  0.042744801            6 
  454000    1.1593095    -5.972004    227.87655   0.04182756  0.042738144            4 
  455000     1.193889   -5.9757238    228.70285  0.041886969  0.042731856            7 
  456000    1.1552199   -6.0151361    229.09491   0.04186676  0.042724479            3 
  457000    1.1702644   -5.9647512    228.92876  0.041744851   0.04271806            6 
  458000    1.2013968   -5.9514938    229.96948  0.041843064  0.042712028            5 
  459000    1.1815334   -5.9667868    229.89016  0.041737501   0.04270479            4 
  460000    1.1997992    -5.963248    230.45221  0.041748589  0.042698238            4 
  461000    1.1994566   -5.9847003    231.77143  0.041896499  0.042691385            6 
  462000    1.1753321   -5.9500058    231.86856  0.041823334  0.042685203            2 
  463000    1.1663432   -5.9358407    232.26483  0.041804324   0.04267804            2 
  464000    1.1632669   -5.9403082    232.48675  0.041754085  0.042671558            2 
  465000    1.1992765   -5.9594861    233.06558  0.041768025  0.042664838            4 
  466000    1.1828211   -5.9439143    233.39259  0.041736871  0.042657369            4 
  467000     1.179543   -5.9783314     233.7583  0.041712758  0.042650087            5 
  468000    1.1441714   -5.9614638    234.62751  0.041778403  0.042643055            3 
  469000    1.1920336   -5.9696095    234.43548  0.041655202  0.042636496            9 
  470000    1.1834178   -5.9847387    236.89586  0.042002812  0.042631004            4 
  471000    1.1576636   -5.9450451    235.50725   0.04166795  0.042624983            5 
  472000    1.1848686   -5.9530853    236.76344  0.041801455   0.04261867            6 
  473000    1.1728646   -5.9706311    237.05253  0.041764012   0.04261169            3 
  474000    1.1578381   -5.9516678    237.36001   0.04172996  0.042604749            5 
  475000    1.1744844   -5.9595059    237.89941  0.041736738   0.04259777            6 
  476000    1.1804783   -5.9409667    237.54868  0.041587653  0.042590437            5 
  477000    1.1633661   -5.9392888    238.90887  0.041738098  0.042583049            4 
  478000    1.1734805   -5.9644893    238.76702  0.041626049    0.0425748            2 
  479000    1.1587799   -5.9543974    239.16648  0.041608643  0.042566891            5 
  480000    1.1809481    -6.009452    239.81585  0.041634695   0.04255951            4 
  481000    1.1493447   -5.9332568    239.68404  0.041525301  0.042551829            4 
  482000    1.1436138   -6.0187886    240.46345  0.041573902  0.042543892            5 
  483000    1.1802449   -5.9895278    241.38591  0.041646982    0.0425359            4 
  484000    1.1805613   -5.9688142    241.72038  0.041618523  0.042528553            4 
  485000    1.1760139   -5.9633615    243.43577  0.041827452  0.042521625            3 
  486000    1.1664561   -5.9745458    242.89088  0.041647957    0.0425143            2 
  487000    1.1538398   -5.9649389    242.82124  0.041550519    0.0425059            3 
  488000    1.1822106    -5.993806    242.75238  0.041453617  0.042496414            7 
  489000     1.171797    -5.974841    243.92695   0.04156901  0.042487192            2 
  490000    1.1936925   -5.9848513    243.37875  0.041390943  0.042478223            6 
  491000    1.1470664   -5.9788564    243.84734  0.041386175  0.042468551            5 
  492000    1.1731173   -5.9633054     243.3221  0.041213093  0.042458321            4 
  493000    1.1770879   -5.9891019    244.59418   0.04134452  0.042447807            4 
  494000    1.1890925   -5.9547452    245.00419  0.041329991  0.042437027            4 
  495000    1.1421877   -5.9651787    245.80616  0.041381509  0.042426959            3 
  496000    1.2064281   -6.0022398    246.53289  0.041420177  0.042416404            3 
  497000    1.1776437   -5.9643425    246.16346  0.041274892  0.042406079            2 
  498000    1.1763632   -6.0049071    246.68937  0.041280015   0.04239566            3 
  499000    1.1419658   -5.9686758    247.48831  0.041330713  0.042385141            6 
  500000    1.1707497   -5.9575853    247.82507  0.041304178  0.042374724            3 
  501000    1.1748253   -5.9750682    248.88444  0.041397945  0.042364825            3 
  502000    1.1966299   -5.9684941    249.46569  0.041411967   0.04235589            3 
  503000    1.1726165   -5.9479618    249.41507  0.041321251  0.042346706            2 
  504000    1.1785933    -5.967902    249.52156  0.041256872  0.042337875            3 
  505000    1.1916373   -5.9821623    251.28814   0.04146669  0.042329116            5 
  506000    1.1869056   -5.9529416    252.25312  0.041543663  0.042320966            3 
  507000    1.1398415   -5.9792027    252.11801  0.041439516  0.042312955            4 
  508000    1.1594729   -5.9048508    253.73169  0.041622652  0.042305729            4 
  509000    1.1840472   -5.9903216    252.96956  0.041416103  0.042298871            4 
  510000    1.1700746   -5.9690091    254.69918  0.041617513  0.042291535            2 
  511000    1.1655101   -5.9822411    254.27301   0.04146657  0.042284796            4 
  512000     1.149931   -5.9924198    255.42622  0.041573279  0.042278017            4 
  513000    1.1530488   -5.9018209    256.42111  0.041653851  0.042271626            6 
  514000    1.1638018   -6.0043306    255.97364  0.041500265  0.042265248            2 
  515000    1.1776059   -5.9930937    256.17952  0.041452996  0.042258822            4 
  516000    1.1697564   -5.9553154    257.70917  0.041619699  0.042251892            4 
  517000    1.1453097    -5.981249    256.78443  0.041390141  0.042245036            5 
  518000    1.1545597   -5.9151362    258.38804  0.041568217  0.042237984            3 
  519000    1.1614156   -5.9640304    258.29916  0.041473854  0.042230775            2 
  520000     1.168425   -5.9786969    259.74894  0.041626432  0.042224079            4 
  521000    1.1745462   -6.0142988    259.57668  0.041518983  0.042217393            6 
  522000    1.1650117   -5.9819341    259.59709  0.041442703  0.042210371            3 
  523000    1.1515414   -5.9651671    260.71007  0.041540802  0.042203216            3 
  524000     1.155867   -5.9620213    260.08881  0.041362725  0.042196271            4 
  525000    1.1885607    -5.979632    260.48749  0.041347221  0.042188753            7 
  526000    1.1666997   -5.9706009    261.14357  0.041372556  0.042180636            4 
  527000    1.1466435   -5.9673242    261.51245   0.04135238  0.042172254            4 
  528000    1.1617893   -5.9765701    261.10138  0.041209183  0.042164375            6 
  529000     1.173702   -5.9687073    262.30537  0.041320947  0.042155839            5 
  530000    1.1890232   -5.9396813    263.05656  0.041361095  0.042147591            4 
  531000     1.163118   -5.9917878    263.53077  0.041357623  0.042139873            6 
  532000    1.1843129   -5.9772008    263.48068  0.041272037  0.042132544            6 
  533000    1.1614539   -5.9726898    264.65428  0.041378093  0.042125055            9 
  534000    1.1673603   -6.0011852     264.2156  0.041232148    0.0421168            3 
  535000    1.1737635   -5.9946751    265.24115  0.041314821  0.042108899            4 
  536000    1.1860731   -5.9500664    265.80336   0.04132515  0.042100903            2 
  537000    1.1711198    -5.978521    264.88121  0.041105091  0.042093025            4 
  538000    1.1672718   -5.9859676    266.08768  0.041215564  0.042084018            4 
  539000    1.1580551   -5.9844215    266.21642  0.041159001   0.04207505            4 
  540000    1.1574651   -6.0026981    265.59018  0.040986139  0.042065472            5 
  541000     1.170038   -5.9849912    265.11349  0.040836951  0.042055187            3 
  542000    1.1461086   -5.9813316     266.6115  0.040991927  0.042045293            8 
  543000    1.1870358   -5.9826967    267.62276  0.041071633  0.042035468            5 
  544000     1.153602   -5.9722327    268.20893  0.041085926  0.042026238            4 
  545000    1.1594947    -5.949303    269.68203  0.041235785  0.042017511            3 
  546000    1.1589947   -5.9572635    269.61906  0.041150649  0.042008809            9 
  547000    1.1585188   -5.9972267    270.91653  0.041273085  0.042001647            4 
  548000     1.147303   -5.9752145    270.79682  0.041179566  0.041994046            3 
  549000     1.165552   -6.0124498    271.40624  0.041197062  0.041986073            6 
  550000     1.170181   -5.9839583    271.74121   0.04117291  0.041977811            6 
  551000    1.1533627    -5.972696    271.37965  0.041043504  0.041969507            4 
  552000      1.13819   -5.9487876    273.46585  0.041284096  0.041961659            2 
  553000    1.1639703   -6.0236046    273.23297  0.041174347  0.041954281            3 
  554000    1.1748408   -5.9706032    273.93916  0.041206251  0.041946753            3 
  555000    1.1510575   -6.0027162    274.16158  0.041165402  0.041939177            3 
  556000    1.1880577   -5.9651726       275.37  0.041272482  0.041931844            2 
  557000    1.1725178   -6.0076235     274.5616  0.041077439  0.041924656            3 
  558000    1.1696953   -5.9573248    276.35408  0.041271518  0.041917404            5 
  559000    1.1651572   -6.0031256    276.32002  0.041192608  0.041910431            2 
  560000    1.1766533   -5.9712363    277.75241  0.041332203  0.041903607            5 
  561000    1.1768235   -6.0121521    277.69676  0.041250261   0.04189651            3 
  562000    1.1772226   -6.0078119    277.16986  0.041098734  0.041889365            3 
  563000    1.1608382   -6.0316456    278.15279  0.041171224  0.041881502            6 
  564000    1.1558857   -6.0081116    277.63598  0.041021864  0.041873798            4 
  565000    1.1390911   -5.9743794    279.41917  0.041212267    0.0418661            1 
  566000     1.162176   -5.9789797    279.51264  0.041153215  0.041859497            4 
  567000    1.1598706   -5.9389099     280.4353   0.04121624  0.041851973            2 
  568000    1.1666851   -5.9835866    280.28742  0.041121981  0.041845035            3 
  569000    1.1699554   -6.0134419     279.5149   0.04093657   0.04183681            3 
  570000    1.1862751    -5.996392    280.50543  0.041009565  0.041829062            4 
  571000    1.1647037   -6.0114661    281.72916  0.041116339  0.041820801            7 
  572000    1.1542984   -6.0013696    282.58213  0.041168725  0.041812782            5 
  573000    1.1626169   -5.9723476    283.45981  0.041224522  0.041805271            3 
  574000    1.1733094   -5.9694243    283.47233  0.041154519  0.041798044            3 
  575000    1.1616953    -6.018513    282.49948  0.040941954  0.041789853           16 
  576000    1.1565151   -5.9819869    282.59389  0.040884532  0.041781077           11 
  577000    1.1591936   -5.9816827    284.34927  0.041067196  0.041772874           10 
  578000    1.1728362   -6.0032119    283.52581  0.040877424  0.041764586            8 
  579000    1.1436299   -5.9909549    283.88232  0.040858134  0.041756012            4 
  580000    1.1529866   -5.9932154    285.59803    0.0410342  0.041747515            1 
  581000     1.177789   -6.0103195    284.44223  0.040797796  0.041737924            1 
  582000    1.1570725   -5.9694371     285.9959  0.040950158  0.041728963            3 
  583000    1.1428168   -6.0037612    286.11281  0.040896628  0.041720037            4 
  584000    1.1618667     -5.96659    286.76979  0.040920346  0.041711553            4 
  585000    1.1685469    -5.953266    288.06511  0.041034916  0.041703017            2 
  586000    1.1378694   -6.0044351     287.8972  0.040941013   0.04169464            4 
  587000    1.1608582   -5.9620749    288.35533  0.040936304  0.041685925            2 
  588000    1.1476903   -6.0247414    288.05306  0.040823847  0.041676889            4 
  589000    1.1642005   -6.0231062    288.54899  0.040824701  0.041668039            3 
  590000    1.1443763   -6.0176465    289.01899  0.040821891  0.041658867            7 
  591000    1.1507821   -5.9388084    289.49657  0.040820159  0.041649924            3 
  592000    1.1757026   -5.9746681    289.75739  0.040787921  0.041640577            4 
  593000    1.1825187   -5.9981459    290.08289   0.04076488  0.041631411            7 
  594000    1.1514899   -6.0201365    290.68163   0.04078025  0.041622669            8 
  595000    1.2030144   -6.0121767    290.78256  0.040725848  0.041613853            5 
  596000    1.1484595    -5.971646    291.22373  0.040719202  0.041605509            3 
  597000    1.1982518    -5.985826     291.0836  0.040631435   0.04159644            7 
  598000    1.1605478   -6.0241959    293.50609  0.040901072  0.041587867            2 
  599000     1.173561    -6.011372    293.39798  0.040817749   0.04157935            2 
  600000    1.1502812   -5.9931862    294.74857  0.040937301  0.041571173            6 
  601000    1.1855131   -5.9916896    294.66613  0.040857755  0.041563514            3 
  602000    1.1765991   -5.9627019     295.8282  0.040950748  0.041556088            5 
  603000    1.1529594   -6.0111103    296.28764  0.040946329  0.041548296            4 
  604000    1.1387051   -6.0007768    296.71554  0.040937574  0.041540536            3 
  605000    1.1584507   -6.0035731    297.14561  0.040929147  0.041533685            2 
  606000    1.1747557      -5.9868    297.81729  0.040953973  0.041526523            6 
  607000     1.158296   -5.9964355    298.57147  0.040990043  0.041519072            4 
  608000    1.1435817   -6.0085811    298.86988  0.040963526   0.04151235            3 
  609000    1.1672778   -5.9859236    297.89924  0.040763442  0.041505371            5 
  610000     1.169481   -6.0499307    298.52385  0.040781947  0.041497806            3 
  611000    1.1561385   -5.9850198     298.6704  0.040735188  0.041489912            3 
  612000    1.1435288   -5.9858301    300.38011   0.04090143  0.041482057            5 
  613000    1.1695562   -5.9859011    299.55681  0.040722785  0.041474894            3 
  614000    1.1432354   -5.9877801    300.05503  0.040724081    0.0414674            7 
  615000    1.1283872   -5.9886335    301.04371   0.04079183  0.041459906            4 
  616000    1.1328482   -5.9876844    300.76343  0.040687693  0.041452041            6 
  617000     1.142039   -6.0069769    301.64869  0.040741315   0.04144389            3 
  618000    1.1674183    -6.005863    302.20029   0.04074977  0.041436484            6 
  619000    1.1181121   -5.9669015    304.49219  0.040992486  0.041429269            5 
  620000    1.1445683   -6.0139495    303.81873  0.040835851  0.041422024            2 
  621000    1.1248977   -6.0133956    303.68762  0.040752498  0.041414615            6 
  622000    1.1684648   -6.0089463    304.13488  0.040746902  0.041407506            4 
  623000     1.150433   -5.9862542    305.22863  0.040827799  0.041400526            6 
  624000    1.1474367    -5.970641    306.03431  0.040869967  0.041393784            4 
  625000    1.1665811   -6.0166471    304.91675  0.040655566  0.041387045            4 
  626000    1.1557064   -5.9530556    306.04562  0.040740898  0.041379752            2 
  627000    1.1437646   -6.0000479    307.10827  0.040817154  0.041373036            2 
  628000    1.1598225   -5.9927759    306.09802  0.040618103   0.04136604            3 
  629000    1.1605168   -6.0061323    307.58292  0.040750254  0.041359217            2 
  630000    1.1728755   -5.9866356    308.17731  0.040764194   0.04135241            5 
  631000    1.1386382   -6.0037477    308.07805  0.040686483  0.041345149            6 
  632000    1.1667974    -5.994296    308.97842  0.040740826   0.04133824            2 
  633000     1.174614   -6.0225028    309.05715  0.040686829  0.041331217            7 
  634000    1.1496415   -5.9744672    308.89534  0.040601386  0.041323855            5 
  635000    1.1606585   -5.9931233    309.08081  0.040561786  0.041315771            4 
  636000    1.1229834   -6.0296696    309.50299  0.040553326  0.041307721            2 
  637000    1.1454604   -6.0398301    309.97662  0.040551625   0.04129963            1 
  638000    1.1733893   -5.9924381     310.9669  0.040617411  0.041291202            3 
  639000     1.151895   -5.9929253    310.89757  0.040544806  0.041282604            3 
  640000    1.1635531   -6.0039335    310.58992  0.040441396  0.041273862            5 
  641000     1.174754   -6.0058884    312.10663  0.040575485  0.041264815            3 
  642000    1.1722572   -5.9985672    312.60315  0.040576733  0.041256459            9 
  643000    1.1640923   -6.0134476     312.3298  0.040478201  0.041247781            7 
  644000    1.1579398   -6.0165796    312.86665  0.040484816  0.041239569            3 
  645000    1.1310924   -6.0261845    314.47672  0.040630068  0.041231298            3 
  646000    1.1628057   -6.0197583    313.62109  0.040456796  0.041223151            6 
  647000    1.1470648   -6.0349094    315.68453  0.040660038  0.041215229            4 
  648000    1.1412768   -5.9783163    314.82383  0.040486603  0.041207457            4 
  649000     1.140737   -6.0389478     315.8277  0.040553121  0.041199817            4 
  650000    1.1569088   -6.0241561    315.59592  0.040461015  0.041192158            3 
  651000    1.1582346   -5.9953604    316.83149  0.040557027  0.041184561            4 
  652000    1.1402316   -6.0421538     316.9868  0.040514673  0.041176669            6 
  653000    1.1382251   -6.0556546    317.37339  0.040501964  0.041169299            3 
  654000    1.1559151   -5.9868132    318.57247  0.040592822  0.041161983            3 
  655000    1.1425458   -6.0171232    318.02925  0.040461736  0.041154731            3 
  656000    1.1556846   -6.0440026    319.37915  0.040571538  0.041147777            6 
  657000    1.1501544    -6.013855    319.51802    0.0405274  0.041140216            7 
  658000    1.1749249    -6.019598    320.28638  0.040563118  0.041132719            9 
  659000    1.1383422   -5.9980836    321.13122  0.040608399  0.041125263            3 
  660000    1.1588796   -6.0021077    321.77415  0.040628049  0.041118308            3 
  661000    1.1558667   -6.0102752    321.80455  0.040570417  0.041111614            5 
  662000    1.1484515   -6.0278227     323.0386  0.040664476   0.04110517            1 
  663000    1.1261082   -5.9813268    323.73191  0.040690285  0.041098426            5 
  664000    1.1408935   -6.0299194    323.72873  0.040628605  0.041091923            5 
  665000      1.15618    -6.007241    323.87216  0.040585484  0.041085644            3 
  666000     1.157122   -5.9831644    324.51499  0.040604979  0.041078979            3 
  667000    1.1454762    -5.995946    324.48482  0.040540333  0.041072368            3 
  668000     1.159793   -6.0011942    324.90485  0.040532042   0.04106534            3 
  669000     1.143355   -6.0351052    324.13453  0.040375502  0.041058257            6 
  670000    1.1664317   -6.0096069    325.56027  0.040492571  0.041052122            4 
  671000    1.1399836    -6.044624    326.75027  0.040580014  0.041045968            7 
  672000    1.1429471   -6.0199471    327.17642  0.040572472  0.041040389            3 
  673000    1.1553998   -5.9866498    328.43892  0.040668514   0.04103468            7 
  674000    1.1520914   -6.0155016    328.09784  0.040566003  0.041028777            5 
  675000    1.1380055   -6.0007444     328.8721  0.040601494  0.041022574            6 
  676000    1.1438976   -5.9854936    328.73957  0.040525095  0.041016236            7 
  677000     1.120041   -6.0150149    330.97683  0.040740624  0.041009934            5 
  678000    1.1544587   -6.0357032    330.84311  0.040664099  0.041003821            6 
  679000    1.1329224   -6.0182404    329.60337  0.040452058  0.040997255            6 
  680000    1.1471515   -6.0300018    331.09592   0.04057548  0.040990866            3 
  681000     1.132585   -5.9872412    331.54996  0.040571459  0.040984969            4 
  682000    1.1560758   -5.9797991    332.61169  0.040641702  0.040979118            4 
  683000    1.1470086   -6.0512514    331.48835  0.040445138  0.040973345            3 
  684000    1.1310431   -6.0065002     333.3653   0.04061468  0.040967578            5 
  685000    1.1247068   -5.9813514    334.32945  0.040672682  0.040961774            3 
  686000    1.1336777   -6.0104488    333.62906  0.040528312  0.040956127            5 
  687000    1.1651877   -6.0373982    333.29137  0.040428356  0.040950032            2 
  688000    1.1501107   -6.0458218    334.11662  0.040469552  0.040944011            4 
  689000    1.1627541   -6.0248256    335.09418  0.040529049  0.040938177            4 
  690000    1.1163032   -6.0051761    335.72385  0.040546359  0.040932243            4 
  691000    1.1370906   -6.0238452    336.15015  0.040539091  0.040926261            4 
  692000    1.1334837   -6.0441113    336.26806  0.040494709  0.040919859            4 
  693000    1.1086716    -6.058554    335.85062  0.040386078   0.04091335            2 
  694000    1.1130312   -6.0125261    336.50012  0.040405874  0.040906515            6 
  695000    1.1230585   -6.0029961    337.31972  0.040446009   0.04090021            3 
  696000    1.1411385   -6.0350795    337.64505   0.04042685  0.040893759            3 
  697000    1.1307892   -6.0099705     338.1796   0.04043276  0.040887285            2 
  698000    1.1286339   -6.0330358    337.45968  0.040288883  0.040880329            7 
  699000    1.1303481    -6.037768    339.89339  0.040521387  0.040873635            4 
  700000    1.1283944    -6.057088    339.33718  0.040397283   0.04086747            4 
  701000    1.1364516   -6.0286919    339.56407  0.040366628  0.040861462            3 
  702000    1.1317713   -5.9762003    342.29074  0.040632804  0.040855702           12 
  703000    1.1531159   -6.0210141    340.63302  0.040378499  0.040849662            4 
  704000    1.1251201   -6.0471655    340.86271  0.040348332  0.040843075            3 
  705000    1.1269621   -6.0249387    341.65557   0.04038482  0.040836319            5 
  706000    1.1555551   -6.0229165    341.45059  0.040303421  0.040829073            2 
  707000    1.1396571   -6.0395875    342.30753  0.040347423   0.04082144            5 
  708000    1.1427708   -6.0263433     341.3365  0.040176141  0.040813715            2 
  709000    1.1340556   -5.9867097    344.17568  0.040453182  0.040806331            3 
  710000    1.1269063   -6.0325318    342.28115  0.040173844  0.040799208            4 
  711000    1.1114606   -6.0036461    343.25134  0.040231052   0.04079201            8 
  712000    1.1461601   -6.0122472    344.69126  0.040343079  0.040785499            3 
  713000    1.1399426   -6.0828724    344.24393  0.040234213  0.040778409            2 
  714000    1.1458908   -5.9817696    346.15481  0.040400889   0.04077155            5 
  715000    1.1253672   -6.0340164    346.70921  0.040408999   0.04076474            4 
  716000    1.1037594   -6.0309696    346.04346  0.040275077  0.040757978            3 
  717000    1.1432129   -6.0241223    346.45044  0.040266206  0.040751488            6 
  718000    1.1351689   -6.0608206     347.2194  0.040299373  0.040744994            4 
  719000    1.1290876   -6.0310503    348.09966  0.040345348  0.040738676            3 
  720000    1.1330701   -6.0754931    347.62712   0.04023462  0.040732082            2 
  721000    1.1306036   -6.0420871    347.89196  0.040209426  0.040725964            3 
  722000    1.1288393   -6.0603948    348.70337  0.040247388  0.040719521            5 
  723000    1.1304698   -6.0462093    348.69099  0.040190294  0.040712803           10 
  724000     1.145315   -6.0197769    349.38374  0.040214518  0.040705875            2 
  725000    1.1318074   -6.0493672    349.46154  0.040167994   0.04069905            3 
  726000    1.1059303   -6.0535031    349.14442  0.040076265  0.040691951            3 
  727000    1.1408545   -6.0091731    350.06814  0.040127022  0.040684805            3 
  728000    1.1311229   -6.0278389    350.20761  0.040087868  0.040677757            9 
  729000    1.1252435    -6.018215    350.60496  0.040078299  0.040670616            3 
  730000    1.1483323   -6.0132721    352.35284  0.040222927  0.040663775            3 
  731000    1.1314442   -6.0492659    350.67591  0.039976733  0.040656708            7 
  732000    1.1146962   -6.0252812    353.37997   0.04022996  0.040649479            3 
  733000    1.1527747   -6.0183104    352.58091  0.040084233  0.040642498            5 
  734000    1.1121775   -6.0345915    353.18309  0.040097989  0.040635205            3 
  735000    1.1408152   -6.0495374    353.13765  0.040038282  0.040627949            2 
  736000    1.1407174   -6.0446335    354.98844  0.040193437    0.0406211            4 
  737000    1.1435454   -6.0023872    355.13081  0.040154999  0.040614712            6 
  738000    1.1169119    -6.054993    354.82952  0.040066567  0.040608063            4 
  739000     1.137784   -6.0431596     356.3037  0.040178586  0.040601213            4 
  740000    1.1309791    -6.043118    356.24365  0.040117528  0.040594518            5 
  741000    1.1244074   -5.9894012    357.09079  0.040158658  0.040587807            6 
  742000    1.1220807   -6.0255751    356.96272  0.040090153  0.040580742            3 
  743000    1.1426199   -6.0251252    358.20559  0.040175593   0.04057352            6 
  744000    1.1297566   -6.0256756    358.80219  0.040188417  0.040566515            2 
  745000    1.1307791    -6.045461    359.04607  0.040161753  0.040559769            4 
  746000     1.141175   -6.0078473    358.85543  0.040086621  0.040553025            4 
  747000    1.1384734   -6.0339506    359.71745  0.040129122  0.040545854            2 
  748000    1.1478055   -6.0439934    359.82764  0.040087749  0.040538886            6 
  749000      1.12013   -6.0306826    358.98512  0.039940489  0.040532025            4 
  750000     1.118061   -6.0212621    361.11949  0.040124388    0.0405248            9 
  751000    1.1323249   -6.0256817    361.27473  0.040088186  0.040517871            8 
  752000    1.1279219    -6.068399     360.7624  0.039978103  0.040510908            4 
  753000     1.107791   -6.0476272     361.5271   0.04000964  0.040503832            9 
  754000    1.1170913   -6.0444022    362.55197  0.040069846  0.040497097            4 
  755000     1.148088   -6.0069571    363.79437  0.040153904  0.040490688            6 
  756000    1.1501352   -6.0501077    362.79473  0.039990601   0.04048422            5 
  757000    1.1364692    -6.037003    363.48705  0.040013986   0.04047766            4 
  758000    1.1253389   -6.0136281    365.00548  0.040128131    0.0404713            2 
  759000    1.1095011   -6.0423437    364.61297  0.040032166  0.040464662            4 
  760000     1.098094   -6.0715385    364.75551  0.039995122  0.040457833            4 
  761000    1.1093391   -6.0206345    364.76074  0.039943138  0.040450811            3 
  762000    1.1384253   -6.0254046    365.79067  0.040003354   0.04044403            5 
  763000    1.1309675   -6.0610536      364.874  0.039850808  0.040437244            7 
  764000    1.1193251    -6.034231    365.48599    0.0398654  0.040430191            4 
  765000    1.1306049   -6.0544773    366.08625  0.039878676  0.040422949            5 
  766000    1.1308979   -6.0610211    367.02311  0.039928537  0.040415482            5 
  767000    1.1357383   -6.0456342    366.15814  0.039782501  0.040407872            2 
  768000    1.1334364   -6.0099856    367.92879  0.039922829  0.040399977            4 
  769000    1.1468812   -6.0562006    367.51577  0.039826156   0.04039208            4 
  770000    1.1450659   -6.0456319    367.99791  0.039826613  0.040384135            2 
  771000    1.1370688   -6.0164951    367.74144  0.039747237  0.040376044            5 
  772000    1.1063093   -6.0296854    367.76054  0.039697813   0.04036798            6 
  773000    1.1423371   -6.0527178    367.99299  0.039671517  0.040359587            4 
  774000    1.1265996   -6.0430031    367.77388  0.039596671  0.040351106           10 
  775000    1.1190301    -6.034052    369.44422  0.039725185  0.040342579            6 
  776000    1.1318042   -6.0455076    369.65345  0.039696461  0.040334245            7 
  777000    1.1505488   -6.0615823    369.27314  0.039604584  0.040325709            4 
  778000    1.1128784   -6.0309549    371.34444   0.03977554  0.040317027            4 
  779000    1.1393052   -6.0474581    370.19818  0.039601859  0.040308025            2 
  780000    1.1175051   -6.0566262    370.54903  0.039588572  0.040298896            6 
  781000    1.1537577   -6.0474954    371.44055  0.039633008  0.040289831            4 
  782000    1.1187026   -6.0272545    371.79858   0.03962048  0.040280557            4 
  783000     1.132597   -6.0520324    371.04559   0.03948974  0.040271163            8 
  784000    1.1383247   -6.0758752    371.53956  0.039491875  0.040262124            6 
  785000    1.1398525   -6.0315539    373.63366   0.03966387  0.040253506            3 
  786000    1.1226761   -6.0682269    372.03969  0.039444412  0.040244822            4 
  787000    1.1317529    -6.086547    372.74053  0.039468502  0.040236095            7 
  788000    1.1339649   -6.0568841    373.52844  0.039501739  0.040227328           10 
  789000    1.1149064   -6.0478019    374.35085  0.039538535  0.040218692            3 
  790000    1.0998661   -6.0379223    374.51205   0.03950549  0.040209827            4 
  791000     1.126079   -6.0585857    375.04842  0.039512054  0.040201242            4 
  792000      1.13494   -6.0115778    375.21174  0.039479349  0.040192232            8 
  793000    1.1120564   -6.0205811     375.9097  0.039502911  0.040183768            2 
  794000     1.124433   -6.0440844    376.10899  0.039474075  0.040174618            3 
  795000    1.0985906   -6.0603114    376.62791  0.039478817  0.040165529            4 
  796000     1.134641   -6.0721647     376.6636  0.039432956  0.040156247            4 
  797000    1.1314194   -6.0660078    376.89564  0.039407741  0.040146572            8 
  798000    1.1159442   -6.0661815    376.84556  0.039353129  0.040137703            7 
  799000    1.1343851   -6.0385005    377.03175  0.039323294  0.040128341            7 
  800000    1.1221709   -6.0399245    378.99926   0.03947909  0.040118906            4 
  801000    1.1408623    -6.012677    379.34409  0.039465677  0.040109695            3 
  802000    1.1190621   -6.0508461    378.58295  0.039337381  0.040100538            6 
  803000     1.141982     -6.02403     380.0056  0.039436031   0.04009093            6 
  804000    1.0993367   -6.0391924    379.31271  0.039315165  0.040081529            3 
  805000    1.1478692   -6.0605759    379.88916     0.039326   0.04007201            4 
  806000    1.1087217   -6.0566959    379.76027  0.039263882  0.040062622            7 
  807000    1.1055328   -6.0780989    381.49658  0.039394525   0.04005332            4 
  808000    1.0985165   -6.0640765    381.40081  0.039335892  0.040044073            3 
  809000    1.1172433   -6.0901505    381.69118  0.039317179  0.040034274            6 
  810000    1.1168252   -6.0653787    382.43916  0.039345592  0.040024863            3 
  811000    1.1270724   -6.0654675    382.13608  0.039265935  0.040015628            5 
  812000    1.1399292   -6.0599877    383.63807  0.039371723  0.040006373            3 
  813000    1.1007376   -6.0644291    383.28673  0.039287283  0.039997244            7 
  814000    1.1167828    -6.030533    383.51861  0.039262757   0.03998793            3 
  815000    1.1153639   -6.0533772     382.6797  0.039128804  0.039978707           14 
  816000    1.1298927   -6.0251788    384.47904  0.039264608  0.039969195            5 
  817000    1.1345473   -6.0813629    384.84023  0.039253389  0.039960069            4 
  818000    1.1134144   -6.1090287    384.46484   0.03916716  0.039950745            7 
  819000    1.1282453   -6.0154331    386.64092  0.039340753  0.039941881            3 
  820000    1.1050481   -6.0313327     387.6653   0.03939688  0.039933462            3 
  821000    1.1103731   -6.0710908    386.62415  0.039243214  0.039925213            3 
  822000    1.1018337   -6.0824767    388.12695  0.039347826   0.03991647            7 
  823000    1.0877883   -6.0340739    389.37747  0.039426638  0.039908271            4 
  824000    1.1547727   -6.0709754     388.2816  0.039267961  0.039900111            4 
  825000    1.1284089   -6.0861866    389.12145  0.039305197  0.039892015            7 
  826000    1.1149863   -6.0758977    389.16848  0.039262357  0.039883752            3 
  827000    1.1239718   -6.0590207    390.37505  0.039336462  0.039875319            3 
  828000    1.1100915   -6.0665048    390.79257  0.039330976  0.039866749            2 
  829000    1.1305227   -6.0274947     390.7027  0.039274497  0.039858573            6 
  830000    1.1328507   -6.0408177    391.91083  0.039348477  0.039850522            3 
  831000    1.1569427    -6.061108    391.59536   0.03926949  0.039842438            9 
  832000    1.1266398   -6.0672783     391.4657  0.039209305  0.039833973            3 
  833000    1.1056589   -6.0865284    391.39473  0.039155135  0.039825431            3 
  834000    1.0963259   -6.0729578    392.49858  0.039218483  0.039816952            2 
  835000    1.0968639   -6.0593284     393.1176  0.039233294  0.039808552            6 
  836000    1.1158574   -6.0804268    394.16144  0.039290415  0.039800132            5 
  837000    1.1136231    -6.056727    393.23154   0.03915089  0.039791713            6 
  838000    1.1281295   -6.0839178    394.35018  0.039215411  0.039783249            6 
  839000     1.129158   -6.1092724    393.33999  0.039068334  0.039775034            5 
  840000    1.1152734     -6.05929    396.02388  0.039288083  0.039766749            7 
  841000    1.1146997   -6.0545736    395.75862  0.039215083  0.039758578            4 
  842000    1.1111489   -6.0930481    395.91688  0.039184173  0.039750507            3 
  843000    1.1127264   -6.0113398    398.15631  0.039359066  0.039742543            2 
  844000    1.1396588   -6.0489216    396.98261  0.039196545   0.03973473            4 
  845000     1.121719   -6.0147469     397.3636  0.039187732  0.039727007            3 
  846000     1.102025   -6.0101949    400.04576  0.039405611  0.039719511            3 
  847000     1.115386   -6.0479874    398.84804  0.039241248  0.039711687            5 
  848000    1.1087072   -6.0474944    398.61662  0.039172231  0.039703833            2 
  849000    1.1151665   -6.0592813    400.47681  0.039308677  0.039696191            3 
  850000    1.1224368   -6.0385728    400.22099  0.039237352  0.039688373           11 
  851000    1.1261351    -6.086228    399.48677  0.039119347  0.039681071            3 
  852000    1.1005129   -6.1069399    400.09413  0.039132838  0.039673431            4 
  853000    1.1215203   -6.0478374    401.75727   0.03924944  0.039665886            3 
  854000    1.1036766   -6.0693057     401.8973  0.039217145  0.039658627            3 
  855000    1.1110894   -6.0616346    402.81048  0.039260281  0.039651479            8 
  856000    1.1221144   -6.0739592    403.75929  0.039306784  0.039644379            5 
  857000    1.1330994   -6.0473554    405.14477   0.03939564  0.039637319            5 
  858000    1.0901205   -6.0337642    406.07397  0.039439974  0.039630576            3 
  859000    1.1219601   -6.0518134    405.25098   0.03931422  0.039624013            5 
  860000      1.09981   -6.0540732    405.42223    0.0392851  0.039616781            6 
  861000    1.1276599   -6.0675733    405.06813  0.039205201  0.039609539            3 
  862000    1.1114003   -6.0668352    406.92435  0.039339168  0.039602371            8 
  863000    1.1020195   -6.0716131    405.92823  0.039197396  0.039595124            5 
  864000    1.1148915   -6.0743674    406.83259  0.039239255  0.039588507            4 
  865000    1.1243589    -6.059402    408.18615  0.039324292  0.039581471            3 
  866000     1.101368   -6.0417582    407.73814  0.039235772  0.039574943           11 
  867000    1.1230915   -6.0830967    408.31067  0.039245547    0.0395686            3 
  868000     1.136526   -6.0665983    407.88345  0.039159317  0.039562121            6 
  869000      1.12099   -6.1062283    408.00481  0.039125893  0.039555185            3 
  870000    1.1181342    -6.090297    408.64339  0.039142087  0.039548496            6 
  871000    1.1475714   -6.0434282    411.46771  0.039367366  0.039542144            6 
  872000    1.1066815   -6.0672042    411.25731  0.039302113  0.039535763            4 
  873000    1.0893813   -6.0641995    410.87678  0.039220769  0.039529406            2 
  874000    1.1244389   -6.0708007     412.0584  0.039288558  0.039523396            5 
  875000    1.1209897   -6.1206551    412.91416  0.039325158  0.039517527            3 
  876000    1.1073669   -6.0790862    412.47918  0.039238887  0.039511755            5 
  877000    1.0972981   -6.1117992    411.94176  0.039143079  0.039505664            7 
  878000    1.0892569    -6.065535    414.00759   0.03929457  0.039499457            5 
  879000     1.102021   -6.1025993    414.17663  0.039265892  0.039493521            3 
  880000    1.1098461   -6.0813783    413.82217  0.039187705  0.039487824            6 
  881000    1.1188309   -6.0576543    415.17806  0.039271478  0.039481625            7 
  882000    1.0883073   -6.1165788    414.26254  0.039140452  0.039475588            3 
  883000    1.1207278   -6.0737716    414.92497  0.039158642  0.039469537            6 
  884000    1.0932657   -6.0708298    416.85132  0.039295939  0.039463462            3 
  885000    1.1224032   -6.1012765     416.1109  0.039181818  0.039457623            3 
  886000    1.1069101    -6.064265    417.46567  0.039265018  0.039451562            6 
  887000    1.0915724   -6.0864989    418.00111  0.039271055  0.039445784            2 
  888000     1.129682   -6.0696489    417.68362  0.039197036  0.039439815            5 
  889000    1.1303497   -6.0767634    418.20346  0.039201674  0.039433854            5 
  890000    1.1037468    -6.041236    419.25191  0.039255797  0.039428301            4 
  891000     1.124882   -6.0698464    419.17836   0.03920486  0.039422651            7 
  892000    1.1065437   -6.0724889    419.79265  0.039218297  0.039416988           12 
  893000    1.1163539   -6.0596994    420.56883  0.039246812  0.039411566            7 
  894000    1.0997739   -6.0488641    420.78964  0.039223493  0.039405886            7 
  895000    1.1322909   -6.0980466    421.69263  0.039263746  0.039400042            7 
  896000    1.1047832   -6.0770923    420.72027  0.039129489  0.039394344            7 
  897000    1.1024148   -6.0980514    421.45551  0.039154172  0.039388608            3 
  898000    1.1019723   -6.1490204    420.97194  0.039065696  0.039382676            5 
  899000    1.0672512    -6.051886    423.39605  0.039246945  0.039376708            4 
  900000    1.1311186    -6.126246    421.91595  0.039066292  0.039370429            3 
  901000    1.1205766    -6.072068    423.41492  0.039161572  0.039364205            7 
  902000    1.0964467   -6.1063907    425.37616  0.039299349  0.039358024            6 
  903000    1.1116122   -6.0894633    424.30446  0.039156927  0.039352118            3 
  904000    1.0809995   -6.1240871    424.37145  0.039119787  0.039346165            4 
  905000    1.0974158   -6.0924533    425.12396  0.039145853  0.039340353            5 
  906000    1.1198463    -6.082289    426.84037  0.039260519  0.039334805            2 
  907000     1.076671   -6.0764746     426.4037  0.039177113  0.039329448            3 
  908000    1.0949469     -6.12318    426.53884  0.039146369  0.039324184            6 
  909000    1.1315329   -6.1023862    427.04867  0.039150043  0.039318371            4 
  910000    1.1050483   -6.0871272    427.86809  0.039182059  0.039312795            7 
  911000     1.115454   -6.0227165    428.73497  0.039218347  0.039307276            7 
  912000    1.0910149   -6.1121325    427.98426  0.039106749  0.039301758            7 
  913000     1.118962    -6.091859    426.89505  0.038964499  0.039296114            2 
  914000    1.1428425   -6.0674923    428.46465  0.039064975  0.039290152            4 
  915000    1.0965483   -6.0660582    428.98155  0.039069358   0.03928431            7 
  916000    1.1008742   -6.1083094    429.30193  0.039055852    0.0392782           11 
  917000     1.087507   -6.1278646    428.70009  0.038958569  0.039271915            2 
  918000     1.108153   -6.0998912    430.55156  0.039084201  0.039265813            8 
  919000    1.0969031     -6.11642    430.28989  0.039017945  0.039259653            3 
  920000    1.1142874   -6.0960083    432.40038  0.039166701  0.039253858            5 
  921000    1.1205834   -6.0493195    432.29313   0.03911447  0.039247633            4 
  922000    1.1021399   -6.0866439    432.72878  0.039111422  0.039241727            6 
  923000    1.1190907   -6.0754471    432.67071  0.039063805  0.039235958            5 
  924000      1.10778   -6.1224229    433.72214  0.039116355  0.039230534           20 
  925000    1.1019711   -6.0510175    433.35913  0.039041363  0.039224959            9 
  926000    1.0993551   -6.0338748    434.65064  0.039115428  0.039219313            4 
  927000    1.1073624   -6.1019127    435.51996   0.03915138  0.039214003            5 
  928000    1.1082759   -6.0456888    436.23022  0.039172972  0.039208455            6 
  929000    1.1039521   -6.1189314    435.84433   0.03909619   0.03920281            3 
  930000    1.0803422   -6.1059571     435.2908  0.039004552  0.039197201            3 
  931000    1.0988165   -6.1227984    436.13501  0.039038221  0.039191559            6 
  932000    1.0880531    -6.082365    438.13305  0.039174986  0.039185975            8 
  933000    1.0896224   -6.0750279    436.92445  0.039025049  0.039180768            4 
  934000     1.089953   -6.0870872    438.79476  0.039150139  0.039175647            8 
  935000     1.114376   -6.1225363    437.69222  0.039010002  0.039170605            5 
  936000    1.0929642   -6.0877702       438.63  0.039051817  0.039165175            8 
  937000    1.1297391   -6.1042659    439.37566  0.039076455  0.039159708            5 
  938000    1.1194271   -6.0791178    439.23219  0.039022049   0.03915452            5 
  939000    1.1239678    -6.091594    438.96728  0.038956983  0.039149231            4 
  940000    1.0975664   -6.0689837    440.26094  0.039030225  0.039143561            6 
  941000    1.0957818   -6.0972748    439.22888   0.03889735   0.03913784            6 
  942000    1.1009083   -6.0939702    441.17544  0.039028259  0.039132052            7 
  943000    1.0978601   -6.0718216    440.40153  0.038918481  0.039126123            8 
  944000    1.1126057   -6.0386273    441.02478  0.038932272  0.039120421            5 
  945000    1.0855734   -6.1123966    441.26772  0.038912497  0.039114631            4 
  946000    1.0802611   -6.1177355    440.52287   0.03880575  0.039108624            7 
  947000    1.0834456   -6.0767129    443.29242  0.039008485  0.039102897            6 
  948000    1.1294439   -6.0803863    443.51538  0.038986935  0.039097454            4 
  949000    1.1043264   -6.1092859    443.61692   0.03895477  0.039091719            6 
  950000    1.1102153   -6.0934975    444.27392  0.038971397  0.039085943            4 
  951000    1.0815651   -6.0986522    445.21532  0.039012909  0.039080095            3 
  952000    1.0886919    -6.071313    445.59637  0.039005284  0.039074371            6 
  953000    1.1135805   -6.0834453    445.17857  0.038927821  0.039068661            3 
  954000    1.0693546   -6.0745723     446.0023  0.038958971  0.039062785            4 
  955000    1.0962173   -6.0597678     445.6802  0.038890069  0.039056866            2 
  956000    1.1159548   -6.1021445     446.1424  0.038889679  0.039051251            7 
  957000    1.0931514   -6.1075357    446.68012  0.038895866   0.03904517            7 
  958000    1.0980832   -6.1110726    446.32956  0.038824771  0.039038882            9 
  959000    1.1035793   -6.0926226    446.68386  0.038815073  0.039032805            4 
  960000    1.0916203   -6.1143611    446.25427   0.03873735  0.039026762            7 
  961000    1.0788553   -6.0727597    448.05805  0.038853456  0.039020776            3 
  962000    1.0988357     -6.14024    446.45102  0.038673858  0.039014761            4 
  963000    1.0916998   -6.0966427     448.5872  0.038818553   0.03900841            9 
  964000    1.1048444   -6.0947883    448.58099  0.038777748  0.039002141            5 
  965000    1.0910015   -6.1080553    448.66161  0.038744526  0.038995946            3 
  966000    1.1113339   -6.0854348    449.97372  0.038817609  0.038989601            6 
  967000    1.0894274   -6.1083278    450.29874  0.038805475  0.038983267            2 
  968000    1.0902625   -6.1344706    450.15914  0.038753369    0.0389766            2 
  969000    1.0980965   -6.0990951    450.28735  0.038724403  0.038970288            6 
  970000    1.1164514   -6.1031641    450.66863  0.038717236  0.038964065            4 
  971000    1.1082754   -6.0872536    451.24394  0.038726737  0.038957558            3 
  972000    1.0973705   -6.0892218    451.13689  0.038677717  0.038950831            8 
  973000    1.0851726   -6.0768481    451.47888  0.038667256  0.038944232            3 
  974000    1.0983344   -6.1340295      451.839  0.038658368   0.03893743            5 
  975000    1.1003795   -6.0651802    451.51324  0.038590875  0.038930614            1 
  976000    1.1074547   -6.0938854    452.00707    0.0385935  0.038923707            9 
  977000    1.0770932   -6.0811887    453.54157  0.038684883   0.03891697            3 
  978000    1.0825299   -6.1198183    452.36808  0.038545337  0.038910027            4 
  979000     1.086102   -6.0944164    451.79786  0.038457428  0.038902989            5 
  980000    1.0755586   -6.1369864    452.90476   0.03851231  0.038895797            4 
  981000    1.0728078    -6.094252     452.7748  0.038462011  0.038888413            3 
  982000    1.0868748   -6.0976489    451.89005  0.038347764  0.038880919            3 
  983000    1.0964517    -6.078863    452.93414  0.038397265  0.038873454            4 
  984000    1.0804399   -6.0830365    454.42984  0.038484912   0.03886596            7 
  985000    1.0906221   -6.1046167     453.4805  0.038365525  0.038858448            3 
  986000    1.0934979   -6.1591791    452.56541  0.038249274  0.038850648           11 
  987000    1.0940125    -6.106314    453.45119  0.038285308  0.038842805            5 
  988000    1.1043487   -6.1206592    456.46004  0.038500341  0.038835149            5 
  989000    1.0945917   -6.0786045    454.51142  0.038297221  0.038827634            4 
  990000    1.0816251   -6.1106598    455.63078  0.038352759  0.038820244            6 
  991000    1.0875866   -6.0977147    454.75918  0.038240765  0.038812606            3 
  992000    1.0849406   -6.0724082    455.33668  0.038250729  0.038804817            8 
  993000    1.0849386   -6.1101673    457.14186  0.038363701  0.038796757            7 
  994000     1.084479    -6.120748    455.33575  0.038173688  0.038788438            8 
  995000    1.0814972   -6.0956135    455.90141  0.038182698   0.03878006            7 
  996000    1.1049873   -6.1260478    456.34932  0.038181837  0.038771904            5 
  997000     1.074483   -6.1044351    456.07084  0.038120264  0.038763439            3 
  998000    1.0972317   -6.0911209    456.63939  0.038129541  0.038754922            4 
  999000    1.1052651   -6.0824978    456.83481  0.038107675  0.038746238           10 
 1000000    1.1067963   -6.1339193    457.91545   0.03815962  0.038737538            2 
 1001000    1.0883779    -6.089451    459.13465  0.038222998  0.038729093            5 
 1002000    1.0947097   -6.0999721    458.05995  0.038095472  0.038720933            4 
 1003000    1.0829412   -6.0967296    458.33295  0.038080172  0.038712331           11 
 1004000    1.0974783   -6.0928854    458.95385  0.038093779  0.038703783            4 
 1005000     1.098371   -6.0880903    460.70371  0.038200971  0.038695173            7 
 1006000    1.1088313   -6.0908613    457.59784  0.037905719  0.038686382            3 
 1007000    1.0690454   -6.0970136    461.28819  0.038173468  0.038677639            4 
 1008000    1.0948412   -6.1630429    461.10816  0.038120714  0.038668964            2 
 1009000    1.0938742    -6.085958    461.60971  0.038124357  0.038660426            6 
 1010000    1.1018611    -6.110157    462.28961  0.038142707   0.03865183            6 
 1011000    1.0930207   -6.1002228    461.58528  0.038046924  0.038643132            5 
 1012000    1.0660627   -6.1099793    462.64849  0.038096878  0.038634355            5 
 1013000    1.0920185   -6.1541705    461.27134  0.037945981  0.038625569            3 
 1014000    1.0900267   -6.0785082    462.94267  0.038045913  0.038616669            5 
 1015000    1.0700405   -6.1029085    463.55675  0.038058846   0.03860772            4 
 1016000    1.0590971   -6.1478828    461.72166  0.037870871  0.038598619            5 
 1017000    1.0870933   -6.1311864    462.63296  0.037908305  0.038589256            4 
 1018000    1.0394614   -6.1234884    461.71934  0.037796279   0.03857995            3 
 1019000    1.1063744   -6.1135064    463.51489  0.037906026   0.03857074            5 
 1020000    1.0985449   -6.1031548    463.88709  0.037899272  0.038561615            4 
 1021000    1.1122245   -6.1073371    465.39955  0.037985598  0.038552754            2 
 1022000    1.0784562   -6.1186444    465.94681  0.037993054     0.038544            5 
 1023000    1.0513815   -6.1255886    466.47049  0.037998574  0.038535149            4 
 1024000    1.0856274   -6.1112076      466.324  0.037949544  0.038526549            4 
 1025000    1.0960369   -6.1536111    466.14548  0.037898006  0.038518018            5 
 1026000    1.0932774   -6.1452134    467.52032  0.037972736  0.038509598            4 
 1027000    1.1013551   -6.0863129    467.77913  0.037956761  0.038501167            3 
 1028000    1.0663689   -6.1124661    468.65379  0.037990742  0.038493171            4 
 1029000    1.1154115   -6.1013697     469.3559  0.038010682  0.038485089            3 
 1030000    1.0873138   -6.1211126    470.26385  0.038047237  0.038476865            5 
 1031000    1.0661842   -6.1093704    468.94715  0.037903908  0.038468594            7 
 1032000    1.0874229   -6.1244931    468.43067  0.037825474  0.038460203            5 
 1033000    1.0685652   -6.1083012    469.75082  0.037895355  0.038451697            4 
 1034000    1.0824586   -6.0531333     469.5311  0.037840998  0.038443246            6 
 1035000    1.0667973   -6.1293307    469.71146  0.037818958  0.038434752            3 
 1036000    1.0897203   -6.1112868    470.70837  0.037862642  0.038426313            5 
 1037000    1.1080504     -6.13939    471.29747  0.037873471  0.038417978            5 
 1038000    1.1024286   -6.1309949    471.82958  0.037879703  0.038409595            6 
 1039000    1.0647963     -6.09935    473.35659   0.03796572  0.038401195            4 
 1040000     1.076817   -6.1659633    471.46533  0.037777671  0.038392787            6 
 1041000    1.1169505   -6.1420923    471.48012  0.037742565  0.038384103            3 
 1042000    1.0816266    -6.131412    472.90518  0.037820312  0.038375586            5 
 1043000    1.0766487   -6.1243285    472.57142  0.037757384  0.038366984            5 
 1044000    1.1036676   -6.1318534    473.37634  0.037785468  0.038358357            5 
 1045000    1.0770755   -6.1345865    474.46427  0.037836066  0.038349719            5 
 1046000    1.0844004   -6.0943868    475.22689  0.037860651  0.038341265            7 
 1047000    1.0782756   -6.1246258    475.27886  0.037828626  0.038332745            6 
 1048000    1.0935586   -6.0844499    474.61622  0.037739839  0.038324134            6 
 1049000    1.0834023    -6.144047    474.95711  0.037730943  0.038315788           11 
 1050000    1.0717415   -6.1082523    474.20368  0.037635213  0.038306976            3 
 1051000    1.0840159    -6.118948    475.41644  0.037695563  0.038298279           12 
 1052000    1.0950644   -6.1402835    477.10109  0.037793179  0.038289546            4 
 1053000    1.0936277   -6.1055639    476.76502  0.037730692  0.038280735            7 
 1054000    1.0849927   -6.0935885    478.26095  0.037813168  0.038272241            4 
 1055000    1.0784632   -6.1338875    476.81653  0.037663233  0.038263377            3 
 1056000    1.0942689    -6.136889    478.06403  0.037726012  0.038254341            5 
 1057000    1.0809831   -6.1557363    478.28493  0.037707737  0.038245493            5 
 1058000     1.085239   -6.1369283    477.14129  0.037582017  0.038236392            5 
 1059000      1.06655   -6.1376569    476.93761  0.037530501  0.038227459            5 
 1060000    1.0483423   -6.0708367       478.25   0.03759827  0.038218564            3 
 1061000    1.0920613   -6.0984787    478.49283  0.037581906  0.038209604            6 
 1062000    1.0873984    -6.139683     477.7884  0.037491243  0.038200622            2 
 1063000    1.0751266   -6.1118888    479.08945  0.037557969  0.038191672           22 
 1064000     1.086994   -6.1078028    480.33666  0.037620352  0.038182719           10 
 1065000    1.0810162   -6.1159322    480.66021  0.037610345  0.038173925            5 
 1066000    1.0943644   -6.1293929    479.12491  0.037455043  0.038164929            8 
 1067000    1.0878665   -6.1273287    480.58288  0.037533808  0.038156003            6 
 1068000    1.1030919   -6.1216473    480.85185  0.037519651  0.038147084            4 
 1069000    1.0844711   -6.0970299    481.47209  0.037532904  0.038137973            5 
 1070000    1.0939629   -6.1349496    480.79033   0.03744473  0.038128784            7 
 1071000    1.0826751   -6.1139674     482.6952  0.037557983  0.038119823            5 
 1072000    1.0915197   -6.1348039    482.05887  0.037473482  0.038110828            9 
 1073000     1.067034   -6.1160201    482.06497  0.037439031  0.038101689            6 
 1074000    1.0729127   -6.1130928    482.17929  0.037413042  0.038092846            5 
 1075000    1.0717645    -6.154864    481.97037  0.037362044  0.038083839            4 
 1076000    1.1002634    -6.116117    482.85072  0.037395502  0.038074674            4 
 1077000    1.0592018   -6.1398504    483.49639  0.037410739  0.038065381            4 
 1078000    1.0755443   -6.1403842    484.53175  0.037456072  0.038056225           12 
 1079000    1.0892862   -6.1037908    485.02453  0.037459417  0.038047099            8 
 1080000    1.0830854   -6.1819689    485.44441   0.03745713  0.038038188            2 
 1081000    1.0728452   -6.1422306    484.61918  0.037358864  0.038029179            3 
 1082000    1.0782733   -6.1112095      484.927  0.037348044  0.038020165            4 
 1083000    1.0706377   -6.1223852    485.52943  0.037359913  0.038011359            7 
 1084000    1.0718461   -6.0997842    487.47876  0.037475305   0.03800254            3 
 1085000    1.0848637   -6.1224701    486.47885  0.037363967  0.037993458           11 
 1086000    1.1026833   -6.1465284    485.90076  0.037285202  0.037984296            7 
 1087000    1.0675549   -6.1540015    487.15765  0.037347259  0.037975003            4 
 1088000    1.0800783   -6.1149125    488.22581  0.037394747  0.037965696            6 
 1089000    1.0767575   -6.1233988    487.10486   0.03727463  0.037956322            5 
 1090000     1.054951   -6.1582193    488.28076  0.037330333  0.037946841            3 
 1091000    1.0766799   -6.1079979    488.97026  0.037348782  0.037937558            4 
 1092000    1.0806313   -6.1053844    487.50802  0.037202993  0.037928266            4 
 1093000     1.074636   -6.1467711    489.06758  0.037287861   0.03791877            7 
 1094000    1.0921298   -6.1740198    489.79778  0.037309398  0.037909641            6 
 1095000     1.061096    -6.112079    489.29212  0.037236843  0.037900508            4 
 1096000    1.0746799   -6.1524851     489.2676  0.037201004  0.037891374            5 
 1097000    1.1009836   -6.1422963    489.10832  0.037154992  0.037882162            3 
 1098000    1.0880055   -6.1067817    492.35787   0.03736778  0.037872993            4 
 1099000    1.1229259    -6.069489    490.45584  0.037189554   0.03786418            7 
 1100000    1.0703646   -6.1198693    493.22725  0.037365701  0.037855316            7 
 1101000     1.074531   -6.1513571    492.11835  0.037247831  0.037846279            6 
 1102000    1.0842743   -6.1437316    493.17123   0.03729365  0.037837335            2 
 1103000    1.0691557   -6.1191561    493.21331  0.037263019   0.03782864            6 
 1104000    1.0826501   -6.1852924    492.77125  0.037195898  0.037819719            7 
 1105000    1.0680963   -6.0965087    495.56734  0.037373102  0.037810731            3 
 1106000    1.0978291   -6.1644346    493.40531   0.03717641  0.037801682            5 
 1107000    1.0633266   -6.1807463    493.14042  0.037122886  0.037792473            5 
 1108000     1.092296   -6.1710214    493.24937  0.037097576  0.037782991            7 
 1109000    1.0754746   -6.1559081    495.21205  0.037211606  0.037773437            9 
 1110000    1.0707593   -6.1247702    494.04812    0.0370907   0.03776378            6 
 1111000    1.0714786   -6.1471324    494.65295  0.037102681  0.037754495            2 
 1112000    1.0660009   -6.1240821    495.09225  0.037102237  0.037745274           10 
 1113000    1.0830774   -6.1224478    496.15467  0.037148448  0.037736017            3 
 1114000    1.0697848   -6.1338399    494.59374  0.036998335   0.03772664            6 
 1115000     1.063321   -6.1179047    496.14722  0.037081257  0.037717217            2 
 1116000    1.0739598    -6.161855    496.98066  0.037110264  0.037707824            6 
 1117000     1.091257   -6.1665939    497.09865  0.037085844  0.037698314            6 
 1118000    1.0917567   -6.1357841    497.74392  0.037100769  0.037689015            8 
 1119000    1.0740436   -6.1288353    496.26348  0.036957364  0.037679458            6 
 1120000    1.0762476   -6.1278908    496.18553  0.036918566  0.037669972            3 
 1121000    1.0882968   -6.0927798    499.51011  0.037132777  0.037660611            3 
 1122000    1.0753478   -6.1581738    498.27281  0.037007784  0.037651277            7 
 1123000    1.0757263   -6.1078906    499.64931  0.037076974  0.037642197            8 
 1124000    1.0503255   -6.1378561     499.1589  0.037007629  0.037632859            5 
 1125000    1.0903121   -6.1508398     500.0139  0.037038067  0.037623406            4 
 1126000    1.0620116   -6.1276016    500.79869  0.037063254  0.037614481            7 
 1127000    1.0626575   -6.1415217    501.68327  0.037095776    0.0376054            4 
 1128000    1.0552128   -6.1667351    499.49941  0.036901552  0.037596126            4 
 1129000    1.0753002   -6.1354926    501.14008  0.036989968  0.037586656            4 
 1130000    1.0371878   -6.1719273    498.21655  0.036741633  0.037577169            6 
 1131000    1.0636263    -6.154061    500.48768  0.036876487  0.037567614            5 
 1132000    1.0732089   -6.1308282    502.29505  0.036976962  0.037558459            4 
 1133000    1.0479762   -6.1535514    501.48989  0.036885105   0.03754915           12 
 1134000    1.0717718   -6.1445946    501.26461  0.036836024   0.03753983            4 
 1135000     1.085459   -6.1563744    501.37278  0.036811511  0.037530383            3 
 1136000    1.0751572   -6.1834828    504.12486   0.03698099  0.037520872            7 
 1137000    1.0556229   -6.1427037    502.33702  0.036817431  0.037511458            4 
 1138000    1.0714512   -6.1449435    503.70357  0.036885147  0.037502166           14 
 1139000    1.0494149   -6.1761691     503.0083  0.036801895  0.037492706            5 
 1140000     1.061156   -6.1231625    502.98256  0.036767731  0.037483203            3 
 1141000    1.0641576   -6.1382897    504.19823  0.036824294  0.037473975            4 
 1142000    1.0801416   -6.1347974    503.77386  0.036761081  0.037464492            7 
 1143000    1.0824878   -6.1765966    503.76222  0.036728071  0.037454675            2 
 1144000    1.0764754   -6.1591709    504.28372  0.036733954  0.037444849            6 
 1145000    1.0677369   -6.1416254    504.50086  0.036717676   0.03743514            6 
 1146000    1.0733013   -6.1520141    503.50225   0.03661302   0.03742558            2 
 1147000    1.0613995   -6.1354007    506.04169  0.036765598  0.037416182            4 
 1148000    1.0774383   -6.1653821    506.06828  0.036735502  0.037406607           11 
 1149000    1.0713847   -6.1434849    506.90502  0.036764217  0.037397103            6 
 1150000     1.058654   -6.1299897    507.02302  0.036740798  0.037387879           10 
 1151000     1.033983   -6.1428376    508.30278  0.036801534  0.037378551            2 
 1152000    1.0819359   -6.1637828    507.69155  0.036725372  0.037369281            5 
 1153000    1.0492954   -6.1204233    509.25834   0.03680676  0.037360019            6 
 1154000    1.0706346   -6.1329596     510.2906  0.036849408  0.037351136            4 
 1155000    1.0705958   -6.1607964    509.69391  0.036774452  0.037342177            3 
 1156000    1.0955089   -6.1392559        511.5  0.036872837  0.037333366            4 
 1157000    1.0378789   -6.1467572    509.60826  0.036704715  0.037324569            6 
 1158000    1.0955776   -6.1340025    511.13903  0.036783177   0.03731572            4 
 1159000    1.0416867    -6.172039    510.81827  0.036728377  0.037306625            4 
 1160000    1.0527748   -6.1219068    511.93034  0.036776605  0.037297476            7 
 1161000    1.0746767    -6.184709    510.96864    0.0366759  0.037288361            8 
 1162000    1.0466293   -6.1336323    513.13186  0.036799473  0.037279107            5 
 1163000    1.0614712   -6.1621178    510.56272  0.036583744  0.037269717            3 
 1164000    1.0630906   -6.1426379    513.36577  0.036752991  0.037260635            7 
 1165000    1.0574509   -6.1810005    511.36606  0.036578402  0.037251397            5 
 1166000    1.0520029   -6.1549661    513.01389    0.0366648  0.037242117            6 
 1167000    1.0590737   -6.1422327     514.1096  0.036711625  0.037232737            7 
 1168000    1.0653509   -6.1639973    512.51365  0.036566328  0.037223287            3 
 1169000    1.0740759   -6.1513822    513.76694   0.03662439   0.03721381            4 
 1170000    1.0568316   -6.1629613    513.48926  0.036573309  0.037204217            5 
 1171000    1.0550732   -6.1553172    514.83194  0.036637628  0.037194862            3 
 1172000    1.0661478   -6.1487156    513.89867  0.036540008  0.037185716            6 
 1173000    1.0684146   -6.1406598    514.67145  0.036563758  0.037176648            7 
 1174000    1.0636655   -6.1604542    514.35932  0.036510457  0.037167219           11 
 1175000     1.066585    -6.173955    516.36798  0.036621842  0.037157945            5 
 1176000    1.0646641    -6.153138    515.37791  0.036520544  0.037148684            3 
 1177000    1.0583639   -6.1861911    515.98819  0.036532724  0.037139386            7 
 1178000    1.0543094   -6.1501124    514.58495  0.036402444  0.037129944            4 
 1179000    1.0557332   -6.1906403    516.65726  0.036518042  0.037120327            7 
 1180000    1.0448642    -6.091147    517.55824  0.036550723   0.03711102            5 
 1181000    1.0627926   -6.1479625    515.97621  0.036408143  0.037101622            3 
 1182000     1.076766   -6.1673664    518.25654  0.036538109  0.037092283            5 
 1183000    1.0554647   -6.1442915    517.91579   0.03648322  0.037082988            6 
 1184000    1.0734197    -6.155885    518.58842  0.036499748  0.037073719            5 
 1185000    1.0326341    -6.122506    518.80328  0.036484056  0.037064496            7 
 1186000    1.0657428   -6.1707434    517.77764  0.036381228  0.037055283            4 
 1187000    1.0878234   -6.1567036     520.3744  0.036532884  0.037046025            4 
 1188000    1.0578888   -6.1553964      517.155  0.036276304  0.037036613            6 
 1189000    1.0584657   -6.1832234    519.05346  0.036378852  0.037027066            4 
 1190000    1.0537241   -6.1632512      519.541  0.036382423   0.03701766            3 
 1191000    1.0719913   -6.1451736    520.75988  0.036437159  0.037008393            8 
 1192000    1.0558029   -6.1684816    520.35897  0.036378563    0.0369991            6 
 1193000    1.0766714   -6.1936237    519.88421  0.036314907  0.036989581            3 
 1194000    1.0565428   -6.1511388    521.87148  0.036423191  0.036980293            3 
 1195000    1.0581303    -6.173709    522.77917  0.036456009  0.036971058           10 
 1196000    1.0542537   -6.1571339     523.4252  0.036470541  0.036961926            9 
 1197000    1.0593121   -6.1605819    522.71583  0.036390687  0.036952801            5 
 1198000     1.047419   -6.1801475    522.35405  0.036335145  0.036943568            9 
 1199000    1.0676647   -6.1613277    523.19613  0.036363367  0.036934438            3 
 1200000    1.0760789   -6.1353493    524.34579  0.036412902  0.036925055            7 
 1201000    1.0617641   -6.1559095    522.30103  0.036240704  0.036915914            3 
 1202000    1.0705773    -6.193802    522.79112  0.036244531  0.036906544            9 
 1203000    1.0691749   -6.1476781    523.51916  0.036264835  0.036897236            6 
 1204000    1.0487839   -6.1564565    523.96097  0.036265294  0.036887991            5 
 1205000    1.0597088   -6.1650437    525.23607  0.036323379  0.036878983            4 
 1206000     1.041573   -6.1370315    525.45608  0.036308463  0.036869965            4 
 1207000    1.0502825   -6.1605269    526.32202  0.036338168  0.036860893            9 
 1208000    1.0672778    -6.161873    527.94438  0.036420004  0.036851895            6 
 1209000    1.0580019    -6.176279    527.04244  0.036327712  0.036843049            7 
 1210000    1.0628736   -6.1587411    529.53459  0.036469325   0.03683425            5 
 1211000    1.0397273   -6.1935756    527.51527  0.036300253  0.036825383            4 
 1212000    1.0537449   -6.1753817    528.45085  0.036334629  0.036816514            4 
 1213000    1.0727063   -6.2136198    527.05636  0.036208873  0.036807773            7 
 1214000    1.0486588    -6.133951    529.49366  0.036346352  0.036798978            6 
 1215000    1.0435104   -6.1671841    529.77828  0.036335959  0.036790213           11 
 1216000    1.0609136   -6.1693035     531.2135  0.036404434  0.036781505            4 
 1217000    1.0459442   -6.1510504    531.67406  0.036406057  0.036772823            6 
 1218000    1.0564117   -6.1565012     531.3577  0.036354522  0.036764234            5 
 1219000    1.0423415   -6.1635166    531.11218  0.036307915  0.036755655           11 
 1220000    1.0607054   -6.1611352    531.91297  0.036332853   0.03674697           12 
 1221000    1.0433034   -6.1440021    532.44705  0.036339547  0.036738652            5 
 1222000    1.0709869     -6.18758    532.54667  0.036316603  0.036730293            4 
 1223000    1.0555505   -6.2352088    531.88717  0.036241971   0.03672173            6 
 1224000    1.0852482   -6.1504947    532.28394  0.036239375  0.036713155            5 
 1225000     1.047631   -6.1546482    534.06449  0.036330917  0.036704561           10 
 1226000    1.0601985   -6.1851354    532.53434  0.036197277  0.036695961            7 
 1227000    1.0471404   -6.1658874    534.32737  0.036289552  0.036687484            9 
 1228000    1.0719941   -6.1346122    534.08198  0.036243348  0.036678764            4 
 1229000     1.065417   -6.1926887    533.57106  0.036179215  0.036670142            3 
 1230000    1.0599446   -6.1558232    535.56824  0.036285111  0.036661285            3 
 1231000    1.0626168   -6.2113673    533.50439  0.036115922  0.036652465            7 
 1232000    1.0585504   -6.1848378    535.73173  0.036237265  0.036643561            6 
 1233000    1.0716127   -6.1836219    535.91017  0.036219936  0.036634823            4 
 1234000    1.0813607   -6.2079035    534.90384  0.036122626  0.036626096            4 
 1235000    1.0655857   -6.2019513    537.91214  0.036296366  0.036617488           21 
 1236000    1.0777817   -6.1641058    538.48291  0.036305482  0.036609136            3 
 1237000     1.067406   -6.1805975    539.07715  0.036316165  0.036600831            9 
 1238000    1.0551218   -6.1705924    536.37899  0.036105209  0.036592394            3 
 1239000    1.0522765   -6.1715657    537.98275  0.036183936  0.036583923            6 
 1240000     1.046973   -6.1435388    540.01338  0.036291222  0.036575509            5 
 1241000    1.0723666   -6.1769738    538.93016   0.03618924  0.036567159            9 
 1242000    1.0395064   -6.2057102       538.67  0.036142646  0.036558635            6 
 1243000    1.0524115   -6.1698842    537.99657  0.036068421  0.036549837            4 
 1244000    1.0535704   -6.1444405    539.07465  0.036111646  0.036541232            4 
 1245000    1.0559234   -6.1731541    538.73308  0.036059777  0.036532619           10 
 1246000    1.0740423   -6.1770982    538.99164   0.03604813  0.036523813            4 
 1247000    1.0508006   -6.1680757    539.10946  0.036027096  0.036515107            3 
 1248000      1.05157   -6.1926076     539.3061  0.036011358  0.036506195            9 
 1249000    1.0509733    -6.176086    540.18872  0.036041414  0.036497308            5 
 1250000    1.0480079   -6.1811646    539.75262  0.035983508  0.036488458            5 
 1251000     1.041383   -6.1807037    539.88796  0.035963759  0.036479344            2 
 1252000    1.0607814   -6.1487715    537.89855  0.035802619  0.036470149            3 
 1253000    1.0204605   -6.1973456    538.45029   0.03581074  0.036460772           10 
 1254000    1.0263179   -6.2020328    541.05006  0.035954948  0.036451395            5 
 1255000    1.0399042   -6.1575311     541.7183  0.035970671  0.036442167            4 
 1256000    1.0577328   -6.1794009    541.82705  0.035949247   0.03643324            4 
 1257000    1.0310206   -6.2141134    542.38907  0.035957907  0.036424181            6 
 1258000    1.0429023   -6.1942663    542.08878  0.035909432  0.036414988            5 
 1259000    1.0535671   -6.1675045    541.84444  0.035864737  0.036405915            4 
 1260000    1.0256713   -6.1517887    541.93797  0.035842458  0.036396737            4 
 1261000    1.0375454   -6.1680852    541.34823  0.035775061  0.036387528            4 
 1262000    1.0305817   -6.1903093    544.62101  0.035962824  0.036378209            5 
 1263000    1.0426913   -6.1559492    541.85879  0.035752097  0.036368881            9 
 1264000    1.0711048   -6.1928041     544.2446  0.035881105  0.036359575            4 
 1265000    1.0544737   -6.1817696      543.264  0.035788143  0.036350334            5 
 1266000     1.054536   -6.1848073     545.0803   0.03587943  0.036341088            3 
 1267000    1.0444269   -6.1829159    542.45913  0.035678712  0.036331661            3 
 1268000     1.044999   -6.1686326    544.95072  0.035814322  0.036322312            3 
 1269000    1.0619542   -6.2167098    543.74103  0.035706661   0.03631293            7 
 1270000    1.0667949   -6.1860295    544.29286  0.035714755  0.036303642            8 
 1271000    1.0503771   -6.2164647    543.94199   0.03566365  0.036294361            4 
 1272000    1.0361138   -6.1809226     546.3886  0.035795899  0.036285112            4 
 1273000    1.0525433   -6.1685169    547.41228  0.035834792  0.036275997            4 
 1274000    1.0562006   -6.1677838    547.86482  0.035836265  0.036266987            7 
 1275000    1.0697645   -6.1883741    546.83313  0.035740728  0.036257952            4 
 1276000    1.0494668   -6.1888718    546.42411  0.035686005  0.036248821            7 
 1277000    1.0533934   -6.1808263    547.17651  0.035707159  0.036239792            5 
 1278000    1.0564299   -6.1964234    545.59098  0.035575833   0.03623049            6 
 1279000    1.0294148   -6.1779894    547.34805    0.0356625    0.0362211            3 
 1280000    1.0416013   -6.1748385    547.24512  0.035627937  0.036211606           13 
 1281000    1.0264388   -6.1819007    548.32491  0.035670369  0.036202172           11 
 1282000    1.0460289    -6.207182    546.61412  0.035531339   0.03619276            4 
 1283000    1.0387669   -6.1911132     548.4309  0.035621648  0.036183293            3 
 1284000     1.050493   -6.1868089    549.29428   0.03564994  0.036173954            4 
 1285000    1.0440258   -6.1984154    548.37664  0.035562687  0.036164558            8 
 1286000    1.0232316   -6.2163194    549.63547  0.035616607  0.036155191            6 
 1287000    1.0459619   -6.1720103    551.10557  0.035684122  0.036145832            6 
 1288000    1.0412359   -6.1656339    552.44531  0.035743097  0.036136567            7 
 1289000    1.0348717   -6.1932749    548.86119  0.035483656  0.036127263            7 
 1290000    1.0393631   -6.1719743    550.12848  0.035538015  0.036117744            8 
 1291000    1.0543216   -6.1593366    551.47909  0.035597669  0.036108428            6 
 1292000    1.0645207   -6.1775658    550.33818  0.035496529   0.03609917            5 
 1293000    1.0515876   -6.2254974    552.73742  0.035623706  0.036090084            8 
 1294000    1.0530156     -6.19031    552.51655  0.035581952  0.036080923            5 
 1295000    1.0316568   -6.1738421    552.79726  0.035572539  0.036071804            6 
 1296000    1.0552793   -6.2271337    553.14963  0.035567749  0.036062668           15 
 1297000     1.046022    -6.209534    553.48759   0.03556204   0.03605364           11 
 1298000    1.0600356   -6.1744742    554.67013  0.035610563   0.03604453            6 
 1299000     1.038245   -6.1675993    554.75495  0.035588591  0.036035531            6 
 1300000    1.0506981   -6.2006164    553.40328  0.035474569  0.036026626            8 
 1301000     1.042306   -6.1902243    554.73446  0.035532568  0.036017529            9 
 1302000    1.0437866   -6.1902255    555.08326  0.035527602  0.036008481           11 
 1303000    1.0466634   -6.1940808    556.19038  0.035571142  0.035999616            5 
 1304000    1.0556368   -6.1905579    554.41368  0.035430322  0.035990553            3 
 1305000    1.0703675   -6.1977859    555.63771  0.035481335  0.035981546            6 
 1306000    1.0568014   -6.1740621    556.68148  0.035520768  0.035972608            7 
 1307000    1.0366894   -6.1626337    557.08314    0.0355192   0.03596365            5 
 1308000    1.0325373   -6.2107939    556.93792  0.035482793  0.035954732            3 
 1309000    1.0345892   -6.2051928    558.33448  0.035544594  0.035945701            5 
 1310000    1.0343723   -6.1461877    558.43238  0.035523688   0.03593679            5 
 1311000    1.0400903   -6.1971854    556.87986  0.035397906   0.03592769           12 
 1312000    1.0268716   -6.2054524    556.90689  0.035372643  0.035918321           16 
 1313000    1.0549457   -6.1983537    556.69976  0.035332557  0.035909083            5 
 1314000    1.0689385   -6.1966543    557.46936  0.035354475  0.035899808            4 
 1315000    1.0189401   -6.1809575    557.54481   0.03533237  0.035890426            7 
 1316000    1.0280052   -6.2178452     557.0942  0.035276988  0.035880989            7 
 1317000    1.0453879    -6.206967    557.98474  0.035306551   0.03587155            5 
 1318000    1.0437775    -6.210629    558.20125  0.035293453  0.035862236            5 
 1319000    1.0302262   -6.2215968     558.0712  0.035258479  0.035852796            3 
 1320000    1.0464203    -6.190879    559.62431  0.035329817  0.035843434            2 
 1321000    1.0720675   -6.2483053    560.86894  0.035381588  0.035834342           12 
 1322000    1.0422564   -6.2051648    561.89617  0.035419577   0.03582515            6 
 1323000    1.0437121   -6.2084834    561.03685  0.035338678   0.03581595            7 
 1324000    1.0449032   -6.2029782    559.24262  0.035199057  0.035806528           12 
 1325000    1.0318791   -6.1742828    559.91114  0.035214537  0.035797142            6 
 1326000    1.0332856   -6.2162849    561.21315  0.035269806  0.035787855           10 
 1327000     1.030949   -6.1991895    561.02603  0.035231476  0.035778582            6 
 1328000    1.0318646   -6.1660166    562.03387   0.03526819   0.03576938            7 
 1329000    1.0340876   -6.2003563     561.9738  0.035237886   0.03576018            4 
 1330000    1.0399192   -6.2097835    563.25521   0.03529168  0.035750942            5 
 1331000    1.0515045   -6.1816412    561.56945   0.03515962  0.035741767            2 
 1332000    1.0190871   -6.2017419    563.10759  0.035229454  0.035732557           17 
 1333000      1.03006   -6.1892096    562.27607  0.035151042  0.035723466           11 
 1334000    1.0265366   -6.1947911    564.30506  0.035251441   0.03571433            3 
 1335000    1.0451691   -6.2190985    564.64299  0.035246129  0.035705225            8 
 1336000    1.0328421   -6.1918387    563.65017   0.03515782  0.035695966            6 
 1337000    1.0419432   -6.1955995    565.48293  0.035245758  0.035686905            3 
 1338000    1.0407625   -6.1876205    565.43556  0.035216465  0.035677917           16 
 1339000    1.0361009   -6.1875463     565.7872  0.035212049  0.035669176            7 
 1340000    1.0329873   -6.1858274    568.22861    0.0353376  0.035660262            5 
 1341000    1.0418392   -6.1601519     568.0936  0.035302859  0.035651666            4 
 1342000    1.0406897   -6.2291089    567.79904  0.035258261  0.035642806            4 
 1343000    1.0413929   -6.1871829    568.95447  0.035303703  0.035633978           11 
 1344000    1.0396125   -6.2008479    568.71496  0.035262584  0.035625156            8 
 1345000    1.0386825   -6.1937263    567.93378  0.035187967  0.035616537            7 
 1346000      1.04433   -6.2290461    569.53783  0.035261133  0.035607778            4 
 1347000    1.0446641   -6.2278749    568.56036  0.035174484  0.035599194            8 
 1348000    1.0440753   -6.1936595     570.4263  0.035263743  0.035590666           10 
 1349000     1.042791   -6.2018791    570.51272  0.035242941  0.035582244            7 
 1350000    1.0466896   -6.2049009    570.66795  0.035226416  0.035573631            6 
 1351000    1.0243865   -6.2102733    571.20082  0.035233211  0.035564949           14 
 1352000    1.0464976   -6.2050728    571.78183  0.035242963  0.035556464            4 
 1353000    1.0258242   -6.2404482    572.07404  0.035234913   0.03554781            3 
 1354000     1.034518    -6.233846    571.43479  0.035169546  0.035539167            4 
 1355000    1.0576482   -6.2055362    572.71385  0.035222254  0.035530589            4 
 1356000    1.0470349   -6.1769339    572.74354  0.035198103  0.035522237            5 
 1357000     1.044437   -6.1924566    572.01849   0.03512764   0.03551386            5 
 1358000    1.0231875   -6.2367736    572.60376  0.035137688  0.035505337            5 
 1359000    1.0157683   -6.2208053     574.9778  0.035257407  0.035496704            3 
 1360000    1.0481363   -6.2109723    574.22024  0.035185064  0.035488212            7 
 1361000    1.0238825   -6.2169739    574.47591  0.035174866  0.035479762            3 
 1362000    1.0408377   -6.2175395    573.66471  0.035099407  0.035471332            6 
 1363000    1.0272057    -6.204481    576.25785  0.035232199  0.035462905            3 
 1364000    1.0113232    -6.220573    574.58988  0.035104465   0.03545464           10 
 1365000    1.0314258   -6.1868345    578.02666  0.035288563  0.035446276            4 
 1366000    1.0095749   -6.1970983    576.53059  0.035171461  0.035438018            5 
 1367000    1.0427585   -6.2329945    576.37434  0.035136207  0.035429636            5 
 1368000    1.0476297   -6.2252216    575.71246  0.035070203  0.035421155            6 
 1369000    1.0266254   -6.1741248    577.51903  0.035154555  0.035412728            3 
 1370000     1.027145   -6.1855647     576.9519  0.035094398   0.03540434            8 
 1371000    1.0473702   -6.2243019    576.59118  0.035046875  0.035396059           11 
 1372000    1.0409449   -6.2170951    577.87885  0.035099541  0.035387722            5 
 1373000    1.0360814   -6.1929544    578.20556  0.035093807  0.035379373            6 
 1374000    1.0325349   -6.2239787    580.36186  0.035199045  0.035371065            5 
 1375000    1.0101918   -6.1976963    579.74643  0.035136147  0.035362812            7 
 1376000    1.0368392   -6.2474701    578.92609  0.035060931   0.03535456            5 
 1377000    1.0334245   -6.2330109    580.15051  0.035109569  0.035346211            5 
 1378000    1.0360379     -6.20611    579.90742  0.035069389  0.035337912            7 
 1379000    1.0441358   -6.2241875    579.87308  0.035041883  0.035329674            5 
 1380000    1.0265518   -6.2457512    578.69031  0.034945067  0.035321358            7 
 1381000    0.9917427   -6.2032332    579.20375  0.034950745  0.035312887            6 
 1382000    1.0506022   -6.1799083    579.74969  0.034958375  0.035304527            5 
 1383000    1.0337238   -6.2228678    580.01874   0.03494931  0.035296074            5 
 1384000    1.0328395   -6.1974712    581.73548  0.035027425  0.035287748            3 
 1385000    1.0315817    -6.206057    581.45824  0.034985453  0.035279376            4 
 1386000    1.0174771   -6.2195451    582.18869   0.03500413  0.035271264            3 
 1387000    1.0528975    -6.189527     582.2458  0.034982324  0.035263094            5 
 1388000    1.0265831   -6.2249659    584.06647   0.03506643  0.035254977           12 
 1389000    1.0357885   -6.2242173    584.40134  0.035061275  0.035246928           10 
 1390000    1.0453419   -6.2310044    585.36078  0.035093572   0.03523878            4 
 1391000     1.068884   -6.1979339    582.51115  0.034897625  0.035230754            9 
 1392000    1.0220125   -6.1987155    584.89655  0.035015359  0.035222806            3 
 1393000    1.0353726   -6.2228904    584.62998  0.034974275   0.03521477            5 
 1394000    1.0205701   -6.2223318    584.98806  0.034970592  0.035206731            9 
 1395000    1.0184262   -6.2718932    584.98127  0.034945118  0.035198618           15 
 1396000    1.0420154    -6.181161    586.71396  0.035023517  0.035190521            5 
 1397000    1.0373146   -6.2651287    586.59198  0.034991171  0.035182276            9 
 1398000    1.0366264    -6.251887    585.59556  0.034906745  0.035174093            7 
 1399000    1.0224932   -6.2132245     585.7799  0.034892774  0.035165962            7 
 1400000    1.0176474   -6.2151058    585.48313  0.034850186  0.035157769            7 
 1401000    1.0443336   -6.2175907    585.75195  0.034841301  0.035149632            5 
 1402000     1.040479   -6.2137111    585.52507  0.034802964  0.035141379            5 
 1403000    1.0251032   -6.2144053    587.12234   0.03487303  0.035133033            7 
 1404000    1.0137078    -6.194842     586.7263  0.034824686  0.035124776            5 
 1405000    1.0300515    -6.219498     586.7469  0.034801121  0.035116406            6 
 1406000    1.0322484   -6.2431731    588.74044  0.034894526  0.035108316            6 
 1407000    1.0511394    -6.210395     587.3641  0.034788208  0.035100061           12 
 1408000    1.0687341   -6.2032315    589.00523  0.034860631  0.035091918            5 
 1409000    1.0290716   -6.2751746    587.43404  0.034742964  0.035083529            4 
 1410000    1.0130374   -6.2003033    588.75978  0.034796677  0.035075183            8 
 1411000    1.0271562   -6.1921914    589.00754  0.034786649  0.035066748            5 
 1412000    1.0422881   -6.2640552     588.2948  0.034719948  0.035058449            6 
 1413000    1.0166784   -6.2278822    588.05978  0.034681516  0.035050096            3 
 1414000    1.0378982   -6.2182523    589.47229  0.034740234  0.035041907            3 
 1415000    1.0551601   -6.2233316    589.49356  0.034716935  0.035033648            3 
 1416000    1.0411231   -6.2345664    590.58378  0.034756578  0.035025472            3 
 1417000    1.0203747   -6.2420315    592.45747  0.034842241  0.035017282            3 
 1418000    1.0318861   -6.2300532    590.86438  0.034724047  0.035009112            7 
 1419000    1.0239248    -6.254239    591.12436  0.034714844  0.035000834            3 
 1420000   0.98852598   -6.2337712    592.45169  0.034768292  0.034992823           14 
 1421000    1.0182626   -6.2385798    593.68936  0.034816406  0.034984806            7 
 1422000    1.0400455    -6.193849    593.68718  0.034791794  0.034976848            7 
 1423000    1.0299937   -6.2091815    594.88317  0.034837384  0.034968893            7 
 1424000    1.0184731   -6.2442934    594.09378  0.034766724  0.034960759            4 
 1425000    1.0390577   -6.2354973     592.9683  0.034676509  0.034952598            4 
 1426000    1.0178277   -6.2294167     594.6903  0.034752823  0.034944504            6 
 1427000    1.0205683   -6.2529494    594.60069  0.034723236  0.034936406           10 
 1428000    1.0385136   -6.2712881     593.5298  0.034636426  0.034928302            4 
 1429000    1.0224269   -6.2260354    596.43104  0.034781376  0.034920324            3 
 1430000    1.0318939   -6.2312897    597.09182   0.03479556  0.034912393            2 
 1431000    1.0455176   -6.2413295     595.9962  0.034707442  0.034904466            4 
 1432000      1.02167    -6.203846    597.12769  0.034749051  0.034896593            8 
 1433000    1.0252495   -6.2031968    596.98508  0.034716508    0.0348889            7 
 1434000    1.0168192   -6.2178989    598.26994  0.034766965  0.034881146            3 
 1435000    1.0336343   -6.2425643    596.36762  0.034632266   0.03487325            6 
 1436000    1.0345191   -6.2359635    598.19987  0.034714477  0.034865393           11 
 1437000    1.0320567   -6.2736244    597.93523  0.034674973  0.034857661            5 
 1438000    1.0128869   -6.2310631    597.46899   0.03462384   0.03484984            4 
 1439000    1.0088109   -6.2448292    597.08663  0.034577636  0.034841927            9 
 1440000       1.0138   -6.2293432    600.01023  0.034722814   0.03483384            4 
 1441000    1.0040601   -6.1934525    600.05515  0.034701315  0.034825921           10 
 1442000    1.0029048    -6.220106     598.4781  0.034586113  0.034817998            6 
 1443000    1.0215686   -6.2813087    596.48795  0.034447213  0.034809877            5 
 1444000    1.0399059   -6.2335678     597.8785  0.034503607  0.034801771           14 
 1445000    1.0543665   -6.2174573    597.90677  0.034481359  0.034793632            5 
 1446000    1.0235326   -6.2411601     599.5232  0.034550669  0.034785406            3 
 1447000    1.0361243   -6.2175969    600.47285  0.034581482  0.034777282            4 
 1448000    1.0349505   -6.2696401    601.42268  0.034612263  0.034769199            9 
 1449000    1.0383863   -6.2139695    600.27568  0.034522411  0.034761209            5 
 1450000     1.026968   -6.2736287     598.7496  0.034410897  0.034753232            7 
 1451000    1.0234354   -6.2605216    600.27753  0.034474933  0.034745217            5 
 1452000    1.0177611   -6.2573934    601.14659  0.034501067  0.034737085           11 
 1453000    1.0235108   -6.2339498    602.25427   0.03454085  0.034728945            8 
 1454000    1.0139178   -6.2248633    602.55977  0.034534604  0.034720893           11 
 1455000    1.0034897   -6.2335283    602.34479  0.034498556  0.034712803           11 
 1456000    1.0119568   -6.2661335    601.72422  0.034439344  0.034704609            3 
 1457000     1.001063   -6.2156135    602.28299  0.034447666  0.034696353            5 
 1458000    0.9981917   -6.2542888     601.6987  0.034390644  0.034688137            4 
 1459000    1.0209402   -6.2511346    600.50111  0.034298669  0.034679622            6 
 1460000    1.0326406   -6.2352686    601.40067  0.034326522  0.034671365           11 
 1461000    1.0271552   -6.2528201    602.71518  0.034378005  0.034663022            6 
 1462000    1.0097057   -6.2198498    601.93891  0.034310243  0.034654628            8 
 1463000    1.0251907   -6.2490998    602.34733  0.034310055   0.03464639            8 
 1464000    1.0028073   -6.2510142    604.74646  0.034423182  0.034638077            7 
 1465000    1.0251296   -6.2163722    602.39157  0.034265732  0.034629861            6 
 1466000    1.0146493    -6.236756    604.35754  0.034354112  0.034621527            4 
 1467000   0.99752606   -6.2621166    604.60069  0.034344506  0.034613164            4 
 1468000    1.0329701   -6.2159888    605.76475  0.034387191  0.034604948            5 
 1469000   0.99649643   -6.2373067    606.41463  0.034400649  0.034596647            3 
 1470000    1.0007528   -6.2527353    606.10007  0.034359415  0.034588275            8 
 1471000   0.99387671   -6.2556055    604.85676  0.034265622  0.034579999            8 
 1472000    1.0176414    -6.227174    605.49955  0.034278734   0.03457166            4 
 1473000   0.99803579   -6.2117419    606.03679  0.034285856  0.034563332            4 
 1474000    1.0026257   -6.2365547    604.03225  0.034149268  0.034554992            3 
 1475000    1.0180905   -6.2524289     605.7678   0.03422417  0.034546757            4 
 1476000    1.0100139   -6.2548776    607.77332  0.034314212  0.034538405            5 
 1477000   0.99023841    -6.211195    607.59009  0.034280642  0.034530243            6 
 1478000    1.0349236   -6.2648199    607.60177  0.034258106  0.034521919            8 
 1479000   0.99558963   -6.2730217    608.59784  0.034291066  0.034513767            5 
 1480000     1.025588   -6.2525089    608.38266   0.03425578  0.034505633           24 
 1481000    1.0025907   -6.2479603    609.73538  0.034308765  0.034497536           10 
 1482000    1.0059919   -6.2173984    610.51069  0.034329211  0.034489511            5 
 1483000    1.0105843    -6.295673    607.31993  0.034126766  0.034481249            5 
 1484000    1.0083054   -6.2347215     609.0704  0.034202067  0.034473038            7 
 1485000    1.0137239   -6.2573995    608.51977  0.034148135  0.034464902            4 
 1486000    1.0243928   -6.2661446    609.43386  0.034176417   0.03445655            5 
 1487000    1.0071612   -6.2801156    610.76887  0.034228249  0.034448123            7 
 1488000    1.0075898   -6.2437575      611.289  0.034234375  0.034439713            9 
 1489000   0.99942058   -6.1998672    609.70545  0.034122758  0.034431498            5 
 1490000   0.99609038   -6.2465929    609.27311  0.034075677  0.034423171            5 
 1491000    1.0335743   -6.2525487    609.80308  0.034082443  0.034414754            7 
 1492000    1.0032969   -6.2477477     609.6195  0.034049346  0.034406283            4 
 1493000    1.0242343   -6.2471173    612.48964   0.03418674  0.034398037            3 
 1494000    1.0043888   -6.2413677    612.86408  0.034184743  0.034389758           11 
 1495000    1.0168717   -6.2580909    611.92268  0.034109402  0.034381545           10 
 1496000    1.0002445   -6.2661813    610.82957  0.034025711   0.03437313            9 
 1497000    1.0016751   -6.2419458    611.98968  0.034067562  0.034364573            8 
 1498000    1.0247831   -6.2345348    611.08117  0.033994279   0.03435617            4 
 1499000   0.99550338   -6.2768655    612.29008  0.034038808  0.034347656            6 
 1500000    1.0207095   -6.2686759    610.51689  0.033917605  0.034339042            9 
 1501000   0.99918049   -6.2609885     613.4731  0.034059133  0.034330548            8 
 1502000    1.0175864   -6.2691355    612.18312  0.033964887   0.03432204           10 
 1503000    1.0240072   -6.2379203    614.48467  0.034069898  0.034313561            7 
 1504000    1.0065288   -6.2527406    613.18457  0.033975209  0.034305076            5 
 1505000    1.0263238   -6.2527558    613.82917  0.033988326  0.034296482            4 
 1506000    1.0351083   -6.2543574    614.96389  0.034028546  0.034287996           17 
 1507000    1.0485871   -6.2450224    614.61976  0.033986937  0.034279457            4 
 1508000   0.99343314   -6.2559004    614.63632  0.033965314  0.034270885            7 
 1509000    1.0034804   -6.2560853    614.36626  0.033927892  0.034262341            3 
 1510000    1.0009306   -6.2494514    615.60351  0.033973704  0.034253835            5 
 1511000    1.0252211   -6.2443372    615.00164  0.033918026  0.034245452            5 
 1512000    1.0333434    -6.244017    616.41328  0.033973395  0.034237084            8 
 1513000     1.015657   -6.2376694    618.58652  0.034070639  0.034228768            6 
 1514000   0.99451031   -6.2741911    616.26559  0.033920387  0.034220409            6 
 1515000    1.0142016   -6.2275367    617.29936   0.03395486  0.034212004            3 
 1516000    1.0013853   -6.2874541    618.02275  0.033972227  0.034203781            6 
 1517000    1.0126895   -6.2652532    618.17982  0.033958461  0.034195619            4 
 1518000    1.0078215   -6.2746292    619.05406  0.033984083  0.034187567           13 
 1519000   0.99875367   -6.2671268    619.32774  0.033976725  0.034179492            5 
 1520000    1.0045843    -6.279734    619.98336  0.033990316  0.034171388            6 
 1521000     1.002711   -6.2575703    620.58667  0.034001023   0.03416332            5 
 1522000    1.0007985   -6.2418068    620.54357  0.033976323  0.034155294            6 
 1523000   0.97205209    -6.270928    618.66729  0.033851351   0.03414716            5 
 1524000    1.0215361   -6.2322007    620.35061  0.033921184  0.034139122            8 
 1525000    1.0086471   -6.2500097    621.62235  0.033968434  0.034131236            4 
 1526000   0.99545247   -6.2627158    622.48382  0.033993219   0.03412326            6 
 1527000    1.0270211   -6.2754105     619.5654  0.033811689  0.034115092            9 
 1528000   0.99968101   -6.2670985    620.80679  0.033857264  0.034107004            4 
 1529000   0.99106794   -6.2545131     623.0552  0.033957663  0.034099016           18 
 1530000    1.0103887   -6.2693021    623.42954  0.033955858  0.034090987            3 
 1531000     1.011933   -6.2719221    622.24945  0.033869445  0.034082967            4 
 1532000    1.0235031   -6.2336957    625.03517  0.033998867  0.034075165            8 
 1533000    1.0230264   -6.2431434    622.39369  0.033833099   0.03406733            5 
 1534000   0.98242161   -6.2635904    624.28123  0.033913583  0.034059551            6 
 1535000    1.0028608   -6.2992198    622.50199  0.033794896  0.034051587            6 
 1536000    1.0063476   -6.2722911    624.33519  0.033872352  0.034043651            5 
 1537000    1.0029211   -6.2587617    625.55497  0.033916448  0.034035837            5 
 1538000    1.0015696   -6.2445266    626.32135   0.03393592  0.034028138           11 
 1539000      1.01566   -6.2767682    627.60906  0.033983597  0.034020373            5 
 1540000   0.98758632    -6.255197    628.09856  0.033988018  0.034012866            5 
 1541000    1.0121337   -6.2744771    628.58073  0.033992036  0.034005329            5 
 1542000   0.99401503   -6.3104746    626.45547  0.033855138  0.033997703           16 
 1543000    1.0163525   -6.2773718    628.00364  0.033916809  0.033989943           11 
 1544000    1.0016199   -6.2504916    628.50578  0.033921944   0.03398225            4 
 1545000   0.99743972   -6.2382896    626.51055   0.03379237  0.033974723            9 
 1546000   0.99475086     -6.28607    629.87168  0.033951686  0.033967248           10 
 1547000     1.022496   -6.2685232    629.88823  0.033930631   0.03395972            8 
 1548000    1.0026778   -6.2367907    626.89283  0.033747461  0.033952161            7 
 1549000    1.0326882   -6.2780756    629.56504  0.033869434  0.033944505           17 
 1550000    1.0134692   -6.2599087    628.72246  0.033802283  0.033936945           12 
 1551000   0.99498862   -6.2615603    628.21573  0.033753263  0.033929363            4 
 1552000     1.000091   -6.3092886    630.95613  0.033878658  0.033921826            5 
 1553000   0.98688872   -6.2718708    632.05915  0.033916031  0.033914302           13 
 1554000     1.005449   -6.2747702    631.69816  0.033874848  0.033906727            6 
 1555000    1.0104663   -6.2792493    630.65361  0.033797085  0.033899224            6 
 1556000   0.98707949   -6.2702797    632.30567  0.033863843  0.033891703            4 
 1557000   0.99664699   -6.2474809    632.05001   0.03382841  0.033884199            5 
 1558000   0.98686345   -6.2690962    632.63112  0.033837779  0.033876542            8 
 1559000    1.0126431   -6.2616105     633.2074  0.033846878  0.033869075            5 
 1560000   0.99801268   -6.2403811    629.74908  0.033640442  0.033861426            6 
 1561000    1.0167847    -6.252154     634.9476  0.033896413  0.033853742            5 
 1562000   0.99704922   -6.2886504    633.17338  0.033780057  0.033846112            3 
 1563000     1.015221   -6.2785369    632.73481  0.033735061  0.033838397            4 
 1564000    1.0022442   -6.2674537    632.59817  0.033706211  0.033830836            3 
 1565000   0.98781108   -6.2471703    633.78285  0.033747756  0.033823221            4 
 1566000   0.98009659   -6.2566334    633.47253  0.033709692  0.033815551            6 
 1567000    1.0137838   -6.2494521    631.93149  0.033606227  0.033807779            7 
 1568000    1.0075184   -6.2743268    633.90903  0.033689893  0.033800048            3 
 1569000   0.99986942   -6.2881841    633.96974  0.033671646  0.033792274            6 
 1570000   0.98562229   -6.2687508    634.88324  0.033698686  0.033784595            7 
 1571000    1.0039945   -6.2836411    632.90164  0.033572122  0.033776824           21 
 1572000   0.98653856   -6.2835697    634.55314  0.033638313  0.033769177            4 
 1573000    1.0090823   -6.2603078    636.94953  0.033743882  0.033761482            4 
 1574000   0.97933201   -6.2588026    636.48996  0.033698113  0.033753837            7 
 1575000   0.99609485   -6.2572017    635.92906   0.03364704  0.033746232           14 
 1576000    1.0022438   -6.2610601    636.02329  0.033630673  0.033738544            9 
 1577000   0.98406787   -6.2714983    638.32002  0.033730713  0.033731013            8 
 1578000    1.0113018   -6.2739236    635.68965  0.033570429  0.033723434           19 
 1579000   0.99852567   -6.2883792    637.05917  0.033621446  0.033715942           10 
 1580000   0.99429662   -6.2988868    638.19108  0.033659867  0.033708408            9 
 1581000    1.0186211   -6.2957997    637.32268  0.033592804  0.033700788            9 
 1582000    1.0123499   -6.2368168    638.99311  0.033659561  0.033693314            7 
 1583000   0.98483527   -6.2466606    639.56046  0.033668165  0.033685871            9 
 1584000   0.97244085   -6.2526214    640.16271  0.033678594  0.033678488            6 
 1585000   0.99314088   -6.3057384    639.82009  0.033639332  0.033671163           10 
 1586000    1.0000142   -6.2388606    640.90828  0.033675298  0.033663817            4 
 1587000     1.001956   -6.2669678    639.86092  0.033599082  0.033656453            4 
 1588000     1.008677   -6.2722965      639.886   0.03357924  0.033648979           11 
 1589000   0.98609554   -6.2759646    640.40413  0.033585281  0.033641511            3 
 1590000   0.99391178   -6.2805893    641.69455   0.03363179    0.0336342           13 
 1591000    0.9794715    -6.295842    641.97237  0.033625203  0.033626881            7 
 1592000    1.0106254   -6.2801701    640.81797  0.033543654  0.033619471            4 
 1593000    1.0004222   -6.3189949    643.08634  0.033641261  0.033612087            8 
 1594000   0.99591621   -6.2846796    643.52505  0.033643091  0.033604739           10 
 1595000   0.99272935   -6.2732633    644.25544  0.033660159  0.033597327            6 
 1596000    1.0096692   -6.2748206    644.57924  0.033655976  0.033589985            6 
 1597000   0.99924008   -6.3099812    641.77367  0.033488503  0.033582571            8 
 1598000   0.99001699   -6.2588219    643.32814   0.03354861  0.033575216           12 
 1599000    1.0060429    -6.302622    644.27009  0.033576719  0.033567836            9 
 1600000   0.97811047   -6.2696639    644.72121   0.03357923  0.033560505            7 
 1601000   0.98972089   -6.3355293    645.38717  0.033592919  0.033553278            3 
 1602000    0.9912174   -6.2875818    643.75503  0.033487049   0.03354592            7 
 1603000    1.0021628   -6.2927877    645.61111  0.033562649  0.033538653           11 
 1604000   0.99453406   -6.2811443    646.25138  0.033574988  0.033531345           12 
 1605000   0.99354918   -6.2600022    646.59174  0.033571742  0.033524109            9 
 1606000   0.98333649   -6.2802854    648.54854  0.033652373  0.033516862           11 
 1607000    1.0027386   -6.2730835    646.55926  0.033528275  0.033509772            7 
 1608000    1.0011877   -6.2920846    646.90156  0.033525164  0.033502582           11 
 1609000   0.99752155   -6.2802992    647.63226  0.033542172  0.033495444            6 
 1610000   0.98435001   -6.2763277    648.12506  0.033546846  0.033488276            5 
 1611000   0.98472792   -6.2987348    645.37088  0.033383555  0.033481001            5 
 1612000   0.99924341   -6.2517333    647.88308  0.033492715  0.033473656            6 
 1613000   0.99085034    -6.264866    648.23806  0.033490291  0.033466425            3 
 1614000   0.98530486   -6.3023458    647.92149  0.033453196  0.033459112           10 
 1615000   0.98852892   -6.2875446    648.38292  0.033456291  0.033451805           13 
 1616000   0.98216607   -6.3150856     648.5666   0.03344506   0.03344444           11 
 1617000    1.0112195   -6.2635139    647.12474  0.033350069  0.033437035           12 
 1618000    1.0053134   -6.2855502    648.95076  0.033423505  0.033429521            7 
 1619000    1.0151152     -6.28488     648.4287  0.033375988  0.033422068            6 
 1620000   0.98577408   -6.2822135     646.8202  0.033272644  0.033414528            4 
 1621000   0.99174229   -6.2608599    648.89943  0.033359008  0.033407151            5 
 1622000   0.99389586   -6.2684318    649.48733  0.033368646  0.033399716           14 
 1623000    1.0053342   -6.2442656     648.9714  0.033321596  0.033392211            5 
 1624000    1.0048845   -6.2822105    650.20023  0.033364133  0.033384829           12 
 1625000    1.0098112   -6.3091026    649.91107  0.033328773  0.033377217            3 
 1626000   0.98899781   -6.3253927    649.48087  0.033286227   0.03336953            6 
 1627000     1.008264   -6.2952839    649.55663  0.033269649  0.033361902            7 
 1628000   0.99390308   -6.3032317    650.06252  0.033275109   0.03335423           13 
 1629000    0.9734797   -6.2801988    651.80494  0.033343817  0.033346723            5 
 1630000   0.99004562   -6.2998642    652.11259   0.03333909  0.033339056            3 
 1631000    1.0003764   -6.2796501    652.63125  0.033345149  0.033331451            5 
 1632000    1.0044815   -6.2765859    650.44928  0.033213301  0.033323786            5 
 1633000   0.99617451   -6.2736048    650.28458  0.033184557     0.033316            8 
 1634000   0.99246678   -6.2746705    653.52333  0.033329423   0.03330832            4 
 1635000   0.99691068   -6.2882919    651.84024  0.033223254  0.033300549            5 
 1636000   0.99907813   -6.3005809    652.05724     0.033214  0.033292861            5 
 1637000   0.97893016   -6.3043815    651.72784  0.033176942  0.033285179            6 
 1638000   0.99741829   -6.2817926    652.12588  0.033176937   0.03327745            8 
 1639000   0.99730698   -6.2815122    652.07687  0.033154203  0.033269764            8 
 1640000   0.97988416   -6.2763291    651.99966  0.033130064  0.033262056            4 
 1641000   0.98233119   -6.2934855    652.50229    0.0331354  0.033254272           10 
 1642000    1.0006823   -6.3078806    652.10464  0.033095038  0.033246536           15 
 1643000    1.0092137   -6.3072068    651.53576  0.033046042  0.033238776           16 
 1644000   0.98575457   -6.3090358    655.00776  0.033201934  0.033230959           17 
 1645000   0.98048097   -6.2935234     652.5683  0.033058171  0.033223188            7 
 1646000    0.9811219   -6.2927756    653.48075  0.033084282  0.033215484           10 
 1647000    0.9766035    -6.296219    653.17707   0.03304883  0.033207722            6 
 1648000   0.96663139    -6.321041    654.47264  0.033094288  0.033199852           15 
 1649000   0.99989441   -6.2808968    655.00802  0.033101275  0.033192088            7 
 1650000    0.9940333   -6.2731888    653.91103   0.03302581  0.033184309           17 
 1651000    1.0065234   -6.2868793    655.53987  0.033088021  0.033176607            5 
 1652000   0.98005223   -6.2697815    654.45783  0.033013409  0.033169011            5 
 1653000    0.9805708   -6.2907051    656.45157  0.033093949  0.033161426            9 
 1654000    1.0008039   -6.3046077    655.85629  0.033043949  0.033153701            9 
 1655000   0.99747468   -6.3007874    657.59171  0.033111365  0.033145976            8 
 1656000   0.98775178   -6.2637862    658.10388  0.033117144  0.033138432            6 
 1657000   0.98354519   -6.3106359    657.92975    0.0330884  0.033130934           10 
 1658000   0.99810007   -6.2821496     658.4442    0.0330943  0.033123376            4 
 1659000   0.99580389   -6.2669119    659.73549  0.033139215  0.033115917            9 
 1660000   0.99507598    -6.272979    659.86175   0.03312559  0.033108553            6 
 1661000   0.97586775   -6.2745351    658.77053    0.0330509  0.033101131           18 
 1662000   0.97867237   -6.3018122    660.26434  0.033105914  0.033093655            4 
 1663000    0.9862412   -6.2851651    660.58589  0.033102119  0.033086155            4 
 1664000   0.97122025   -6.2894657    658.08127  0.032956795  0.033078621            9 
 1665000   0.98253339    -6.337229    658.23446  0.032944668  0.033071005            8 
 1666000   0.98614312   -6.2829503    659.10453  0.032968414   0.03306342           14 
 1667000   0.98621942    -6.285626    658.79309  0.032933068  0.033055735           10 
 1668000   0.96465591   -6.3024896    658.91197  0.032919263  0.033047999            6 
 1669000   0.96996681   -6.2909135    658.06137  0.032857069  0.033040223            6 
 1670000    1.0007249   -6.2850462    659.04264  0.032886359  0.033032412           14 
 1671000   0.98365998   -6.2953776    660.46827  0.032937775  0.033024715            6 
 1672000   0.99223425   -6.2936349    660.42064  0.032915702  0.033016933            8 
 1673000   0.98757639   -6.2794818     660.5509  0.032902515  0.033009124           17 
 1674000   0.98612661   -6.2953384     659.5789  0.032834473  0.033001443            6 
 1675000   0.98352631   -6.3003832    661.05148  0.032888133  0.032993644           10 
 1676000   0.97491913   -6.2983655    659.43824  0.032788298  0.032985827            5 
 1677000   0.99402788   -6.3136552    660.08393  0.032800831   0.03297807           10 
 1678000    0.9846199   -6.3132931    661.67857  0.032860477  0.032970195            8 
 1679000   0.97556262   -6.3119154    660.76283  0.032795455  0.032962369            5 
 1680000   0.96436693    -6.316864    660.43921  0.032759881  0.032954454            4 
 1681000   0.98017579   -6.3082878    661.52645  0.032794292  0.032946596           14 
 1682000   0.99363524   -6.3217216    662.89743  0.032842719  0.032938652            6 
 1683000   0.96834996   -6.2986592    661.56801  0.032757378  0.032930729           10 
 1684000   0.98237815   -6.3062417     660.8908  0.032704414  0.032922694            6 
 1685000   0.99067467   -6.3343284    659.84715   0.03263339  0.032914822           10 
 1686000   0.99394407    -6.334683    662.19034  0.032729851  0.032906786            6 
 1687000   0.99784987   -6.3008749     664.4741  0.032823261   0.03289892            4 
 1688000    0.9866121   -6.2983975    661.86573  0.032675046  0.032891017            7 
 1689000   0.98902712   -6.3286402    662.99477  0.032711405  0.032883229            6 
 1690000   0.98732005    -6.287939    662.90727  0.032687735  0.032875424           11 
 1691000   0.98127639   -6.2861213    664.01133  0.032722813  0.032867597            5 
 1692000   0.98446217    -6.273734    664.76841  0.032740761  0.032859699            3 
 1693000   0.96797203   -6.3061253     663.8919  0.032678278  0.032851756            3 
 1694000   0.99611796   -6.3288462    663.80924  0.032654921  0.032843893           14 
 1695000    1.0076923   -6.2919166    663.96971  0.032643545  0.032835903            5 
 1696000   0.96945636    -6.309331    666.79065  0.032762905  0.032827915            4 
 1697000   0.97335467   -6.3174533    665.35313  0.032673008  0.032820002            4 
 1698000   0.98711074   -6.3021503    663.61875  0.032568647  0.032812085           10 
 1699000   0.99030763   -6.3296167    665.83836  0.032658346  0.032804206           10 
 1700000   0.95997341    -6.302772    666.06775   0.03265038  0.032796192            4 
 1701000   0.97534287   -6.3325938    665.03957  0.032580814  0.032788261            4 
 1702000   0.98382712   -6.3098155    666.94618  0.032655023   0.03278033            8 
 1703000   0.96947041   -6.3196514    668.11657  0.032693118  0.032772355            7 
 1704000   0.99479279   -6.2907609    666.92421  0.032615621  0.032764541            4 
 1705000   0.97169078   -6.3138537    667.72779  0.032635767  0.032756774            7 
 1706000   0.99412595   -6.2707428    669.84968  0.032720285  0.032748988            6 
 1707000   0.95298505   -6.3187371     669.9696  0.032706971  0.032741305           12 
 1708000   0.99167775   -6.2894516    668.81154   0.03263132  0.032733598            6 
 1709000   0.98808668    -6.315567    668.94487  0.032618728  0.032725765            7 
 1710000   0.98558815   -6.3306731    669.92404   0.03264737  0.032717946            5 
 1711000   0.98170094    -6.314933    668.10759   0.03253982  0.032710051            6 
 1712000   0.98589997   -6.2867261    669.32598   0.03258012  0.032702088            8 
 1713000   0.99359136   -6.3143227    668.20226  0.032506434  0.032694317            3 
 1714000     1.002493   -6.3120384    669.60567  0.032555702  0.032686487           12 
 1715000   0.96384851   -6.3140741    668.71641  0.032493509  0.032678703           11 
 1716000   0.98731253   -6.3331369    669.13876  0.032495083  0.032670862           10 
 1717000   0.99180956   -6.3315218    669.06327  0.032472494  0.032663052            4 
 1718000   0.97894463   -6.3218525    670.99562  0.032547323  0.032655203            4 
 1719000   0.99719471   -6.3292218    669.84893  0.032472801  0.032647424            6 
 1720000   0.98903032   -6.3221179    670.47574   0.03248429   0.03263962            7 
 1721000   0.98241698   -6.3069081     671.5355   0.03251673  0.032631811           10 
 1722000   0.98063595   -6.3178114    670.81384  0.032462923  0.032624046           13 
 1723000   0.97735738   -6.2899783    672.46936  0.032524152  0.032616449            9 
 1724000   0.98353616   -6.3735409    671.08557  0.032438398  0.032608724           12 
 1725000   0.98614609    -6.305745    671.64747  0.032446738  0.032600945            8 
 1726000   0.96767619   -6.3478991    671.31494  0.032411884  0.032593159           12 
 1727000    1.0037939   -6.3223589     674.0653   0.03252583  0.032585324           10 
 1728000   0.97099851   -6.3198175    673.90621  0.032499335  0.032577537            6 
 1729000    1.0010193   -6.3317536    673.54351  0.032463057  0.032569862            6 
 1730000   0.96152615     -6.34535    673.73174   0.03245336  0.032562235            4 
 1731000   0.98073755   -6.3039395    675.43761  0.032516735  0.032554589            4 
 1732000   0.97911227   -6.3047076    675.23112  0.032488025  0.032547041            4 
 1733000   0.97779214   -6.3192869    676.48682  0.032529661  0.032539367            4 
 1734000   0.96392616    -6.319369    675.65348  0.032470851   0.03253169           10 
 1735000    0.9717269   -6.3159949    675.65752   0.03245233  0.032524054            4 
 1736000   0.97152759    -6.301619    676.16945  0.032458211  0.032516456           17 
 1737000    0.9731534   -6.3224757    675.88616  0.032425934  0.032508753           10 
 1738000   0.97353766   -6.2915795    677.18783  0.032469689  0.032501094            4 
 1739000   0.98340258   -6.2907172     675.9271  0.032390603  0.032493431           12 
 1740000    1.0122497   -6.2988792    675.46384  0.032349801  0.032485689            6 
 1741000   0.93824484   -6.3230707    676.86724  0.032398393   0.03247794            9 
 1742000   0.96298366   -6.3242551    676.04142   0.03234029  0.032470159            8 
 1743000    0.9782959   -6.3039984     677.5063  0.032391772  0.032462537            6 
 1744000   0.98464368   -6.2898507    677.31734   0.03236417  0.032454863            6 
 1745000   0.98681887    -6.292101     678.8755  0.032420033  0.032447347           14 
 1746000   0.96152194   -6.3178116    679.18345  0.032416163  0.032439878            5 
 1747000   0.96739078   -6.3354337    679.85702  0.032429738   0.03243224            6 
 1748000   0.97475887   -6.3302818     679.9909  0.032417568  0.032424715            5 
 1749000   0.96985628   -6.3362914    678.74071  0.032339466  0.032417089           12 
 1750000   0.96386382   -6.3672526    679.23323  0.032344439  0.032409393            8 
 1751000   0.97805142   -6.3222424    678.95683  0.032312813  0.032401708           15 
 1752000   0.96983858   -6.3194382    679.39506  0.032315214  0.032393973            9 
 1753000   0.95550256   -6.3069976    680.24376  0.032337125  0.032386395            7 
 1754000   0.97724086   -6.3304384    681.48814   0.03237781  0.032378751           10 
 1755000   0.96170656   -6.3159971    682.15548  0.032391048  0.032371142            4 
 1756000   0.98549153   -6.3326205    680.65165  0.032301236   0.03236359            5 
 1757000   0.96063168   -6.2952563    680.85174  0.032292342   0.03235596            6 
 1758000   0.97236522   -6.3250327    681.90975  0.032324125  0.032348403           11 
 1759000   0.97024595   -6.3122514    683.70768  0.032390927  0.032340834            7 
 1760000   0.96740663   -6.2874397    682.04488  0.032293792  0.032333208           19 
 1761000   0.96609546   -6.3278531    681.88345  0.032267814  0.032325566            2 
 1762000   0.97212086   -6.3166939    679.88901  0.032155174  0.032317876           25 
 1763000   0.97906725   -6.3244461    682.66341  0.032268076  0.032310225           10 
 1764000    0.9679278   -6.3303289    682.16084  0.032226041    0.0323026           12 
 1765000   0.97173725   -6.3436967    682.44942  0.032221408  0.032294934           10 
 1766000   0.97292952   -6.3243424    682.37315  0.032199563  0.032287337            4 
 1767000   0.98727369   -6.3231177    683.35708  0.032227744  0.032279773            7 
 1768000   0.97744083   -6.3244147     685.0129  0.032287561  0.032272068           16 
 1769000   0.97459778   -6.3111825    683.27817   0.03218759  0.032264465           11 
 1770000    0.9597951    -6.331464    683.57355  0.032183312  0.032256786            6 
 1771000   0.95844255   -6.3207144    684.62978   0.03221484  0.032249127           11 
 1772000     0.964971   -6.3230986    683.26143   0.03213231  0.032241515            8 
 1773000   0.97128108   -6.3040263    685.14251    0.0322026  0.032233847           11 
 1774000   0.98380278   -6.3212085    682.20493  0.032046455  0.032225991            6 
 1775000   0.98820695   -6.3301812    683.77865  0.032102284  0.032218193            7 
 1776000    0.9734654   -6.3438998    685.53254  0.032166504  0.032210334            9 
 1777000   0.96954155   -6.3414303    684.51316  0.032100598  0.032202541           20 
 1778000   0.96218983   -6.3157847    683.74664  0.032046618   0.03219466            6 
 1779000   0.96377635   -6.2982298    685.22735  0.032097965  0.032186757            6 
 1780000   0.95805376   -6.3570981    684.97278  0.032068014  0.032178908           10 
 1781000   0.96539912   -6.3332872    684.29683  0.032018381  0.032171048           12 
 1782000   0.96133561   -6.3423733    684.46631  0.032008338  0.032163135            8 
 1783000     0.973022   -6.3592913    684.78037  0.032005065  0.032155263           11 
 1784000   0.96840787   -6.3246592    686.76709  0.032079927  0.032147441            4 
 1785000   0.98981855   -6.3204065    685.33061  0.031994893  0.032139605            6 
 1786000   0.96709493    -6.299996    685.70241  0.031994326  0.032131814            7 
 1787000   0.96549967   -6.3485639    686.02947  0.031991674  0.032124091            7 
 1788000    0.9530103   -6.2965504    689.06089  0.032115068  0.032116398            7 
 1789000   0.97733018    -6.326776     687.1925  0.032010085  0.032108687            6 
 1790000   0.94391035   -6.2996667    689.68797  0.032108379  0.032100946            9 
 1791000   0.95069071   -6.3624077    687.08415  0.031969298  0.032093175           11 
 1792000   0.95667288   -6.3386341    687.49524  0.031970575  0.032085387           10 
 1793000   0.96855412   -6.3358586     687.8384  0.031968693  0.032077561            8 
 1794000   0.98072548   -6.3773838    687.73748  0.031946185  0.032069833           14 
 1795000   0.95499209   -6.3356028    688.57646  0.031967338  0.032062243            7 
 1796000   0.96380683   -6.3259059     690.4078  0.032034512  0.032054637           13 
 1797000   0.93629412   -6.3428204    690.90372  0.032039683  0.032046924           10 
 1798000   0.97889214   -6.3253069    689.13526  0.031939899  0.032039295            7 
 1799000   0.98196138   -6.3442875    689.93073  0.031958992  0.032031602            8 
 1800000   0.95850432   -6.3298575    690.51971  0.031968505  0.032023929           10 
 1801000    0.9563588    -6.300365    690.90866  0.031968752  0.032016229            7 
 1802000   0.97598762   -6.3542125    692.30565  0.032015614  0.032008565            7 
 1803000   0.97248526   -6.3392454    692.02608  0.031984936  0.032000861           11 
 1804000   0.98538259   -6.3613026    689.27641  0.031840189  0.031993169           11 
 1805000   0.96736999   -6.3462645    692.56672  0.031974456  0.031985506            5 
 1806000    0.9582503   -6.3512628    690.82424  0.031876349  0.031977871            5 
 1807000   0.96438736   -6.3480395    692.02583  0.031914122   0.03197009           11 
 1808000   0.94450622     -6.36436     690.0116  0.031803632  0.031962274           11 
 1809000    0.9747427   -6.3503174     693.2156  0.031933646  0.031954657            7 
 1810000   0.96789596   -6.3498508    692.09993  0.031864637  0.031946973           10 
 1811000   0.95685955   -6.3034475    692.17243  0.031850379  0.031939349            8 
 1812000   0.95958686   -6.3186898    695.48173  0.031984995  0.031931812            7 
 1813000   0.96474532   -6.3314133    693.97932  0.031898296   0.03192416            8 
 1814000   0.95267579    -6.317241    692.65455  0.031819852  0.031916655            7 
 1815000   0.95780107    -6.326339    693.89732  0.031859381  0.031909092            9 
 1816000   0.98727445   -6.3519099     693.2282  0.031811133  0.031901465           12 
 1817000   0.97406655   -6.3455941     694.5164  0.031852706  0.031893793           16 
 1818000   0.93425043   -6.3367397    693.23298  0.031776356  0.031886091            3 
 1819000   0.95140644    -6.356122    694.58368  0.031820766  0.031878387            8 
 1820000   0.95311654   -6.3133186    696.35114   0.03188421  0.031870721            6 
 1821000   0.95004382   -6.3067462    694.14743  0.031765854  0.031863093           11 
 1822000   0.95429532   -6.3579589    695.16847  0.031795119  0.031855424            7 
 1823000   0.95259326   -6.3096424    696.11875  0.031821117   0.03184771            4 
 1824000    0.9633353   -6.3101208    697.10525  0.031848741  0.031840114            3 
 1825000   0.93815227   -6.3306769    696.13701  0.031787078  0.031832501            8 
 1826000   0.97249481   -6.3808458    695.49926  0.031740565  0.031824832           12 
 1827000   0.97317383   -6.3548019    694.73169  0.031688182  0.031817199           25 
 1828000   0.94679128   -6.3498313    697.65487  0.031804106  0.031809516            6 
 1829000   0.94434806   -6.3557766    696.43735  0.031731244  0.031801929           14 
 1830000   0.94988401   -6.3418166    697.55344  0.031764729  0.031794306           14 
 1831000   0.98679932   -6.3601609    696.45324  0.031697307  0.031786567            5 
 1832000   0.95610199   -6.3477851    697.96943  0.031748973  0.031778903           10 
 1833000   0.95065998   -6.3372954    699.32422  0.031793245  0.031771398            5 
 1834000   0.96784219   -6.3423441    697.81983  0.031707553  0.031763922            9 
 1835000   0.94304978   -6.3296727    699.25942   0.03175565  0.031756353           11 
 1836000    0.9431612   -6.3455585    698.82235  0.031718516  0.031748785            7 
 1837000   0.95908866   -6.3458625    698.70494  0.031695924  0.031741243           14 
 1838000   0.97186154   -6.3531169    698.22545  0.031656939  0.031733644            7 
 1839000    0.9473437   -6.3365257    698.81103   0.03166626  0.031726025            7 
 1840000    0.9520377   -6.3348134    697.64584  0.031596279  0.031718378            5 
 1841000   0.95089352   -6.3477788    700.17199  0.031693463  0.031710845            9 
 1842000    0.9370092   -6.3526371    701.16373  0.031721124  0.031703306            6 
 1843000   0.94700285    -6.351032    698.74357  0.031594482  0.031695738            4 
 1844000   0.96730567   -6.3583275    700.45608   0.03165474  0.031688192            7 
 1845000   0.95927095   -6.3530084    698.74394   0.03156025  0.031680692            6 
 1846000   0.96536278   -6.3148236    702.01408  0.031690777  0.031673146           18 
 1847000   0.96929481   -6.3068898    701.91789  0.031669278  0.031665662            5 
 1848000   0.97162733   -6.3447201    702.99492  0.031700709  0.031658152            3 
 1849000   0.94954179    -6.360866    701.90548  0.031634464  0.031650543           10 
 1850000   0.94069551   -6.3321976    701.05262  0.031578947  0.031642954            7 
 1851000   0.95182143   -6.3347792    704.57883  0.031720639  0.031635405            7 
 1852000   0.95798367   -6.3473896    703.64204  0.031661359  0.031627888           10 
 1853000   0.94927362   -6.3631445    702.55951  0.031595589  0.031620315            9 
 1854000   0.95527783   -6.3289369    703.39431  0.031616069  0.031612799            9 
 1855000   0.97461047   -6.3281999    702.42918  0.031555668  0.031605368            6 
 1856000    0.9660608   -6.3904959    701.15412  0.031481417  0.031597728            7 
 1857000   0.98455471     -6.36685     701.7653  0.031491891  0.031590065           10 
 1858000   0.95786466   -6.3246217    704.70413  0.031606751  0.031582407           14 
 1859000   0.94216847   -6.3465251    703.56247  0.031538572  0.031574819            4 
 1860000   0.96615768   -6.3692245    702.64566   0.03148054  0.031567218            6 
 1861000   0.95175552   -6.3759856    702.61241  0.031462135  0.031559564            5 
 1862000   0.93250391   -6.3368046     703.1298  0.031468394  0.031552004            6 
 1863000   0.94625196   -6.3679347    705.62159  0.031562963  0.031544508           20 
 1864000   0.96019655   -6.3522167    705.23826  0.031528892  0.031536959            8 
 1865000   0.95981097   -6.3690839    704.34529  0.031472086   0.03152944           15 
 1866000   0.95280224   -6.3426321    706.09198  0.031533225  0.031521909           11 
 1867000   0.95907693   -6.3649394     706.2307  0.031522527  0.031514324            6 
 1868000   0.92177626   -6.2912832    705.44203  0.031470469  0.031506755            7 
 1869000   0.95167874   -6.3617946    704.63624  0.031417703  0.031499155            9 
 1870000    0.9574996   -6.3835844    705.21994  0.031426914  0.031491499            7 
 1871000   0.95450866    -6.367671    705.16494  0.031407667  0.031483873           13 
 1872000   0.95530148   -6.3643172    704.07389   0.03134232  0.031476292            7 
 1873000   0.94976905    -6.353723    707.81409  0.031491995   0.03146873            5 
 1874000    0.9629909   -6.3514518    705.93849  0.031391786   0.03146117            7 
 1875000   0.95682976   -6.3560201    705.18415  0.031341518  0.031453605            8 
 1876000    0.9315392   -6.3593723    708.48486  0.031471431  0.031446033            8 
 1877000    0.9513575   -6.3639756    706.00938   0.03134476  0.031438461           11 
 1878000   0.94027662   -6.3479511    706.76902  0.031361777  0.031430884            6 
 1879000   0.93601409   -6.3516083    706.82246  0.031347457  0.031423264            7 
 1880000   0.95334933   -6.3924015    705.67732  0.031280023  0.031415711           13 
 1881000   0.95448122   -6.3489167    706.09507  0.031281901  0.031408139            8 
 1882000   0.95711398   -6.3505942     709.4313  0.031413005  0.031400583            7 
 1883000   0.95609286   -6.3574884    708.83369  0.031369875  0.031393051            4 
 1884000   0.95861294   -6.3502889    710.43915  0.031424237  0.031385475            3 
 1885000   0.93924264   -6.3891303    709.99097  0.031387753  0.031377937           13 
 1886000   0.94611826    -6.374391    708.68497  0.031313404  0.031370382            8 
 1887000   0.95590776   -6.3604109    710.49911  0.031376926  0.031362788           13 
 1888000   0.98010684   -6.3640755    708.88129  0.031288899  0.031355205            5 
 1889000   0.95882811    -6.323496    711.01001  0.031366244  0.031347705            9 
 1890000   0.94602679   -6.3676867    709.06188  0.031263751  0.031340213            5 
 1891000   0.95610993   -6.3611167    710.36421   0.03130461  0.031332704            6 
 1892000   0.94318066     -6.34542    712.64463  0.031388505   0.03132522            8 
 1893000   0.94005704   -6.3794617    709.81979  0.031247569  0.031317794           13 
 1894000   0.92202337   -6.3470698    712.20878  0.031336183  0.031310254            7 
 1895000   0.93977356    -6.376054     710.4392  0.031241829  0.031302657           14 
 1896000    0.9382879   -6.3891863    709.47653   0.03118304  0.031295019           15 
 1897000   0.96030917   -6.3718517    713.08786  0.031325244   0.03128745           13 
 1898000   0.95287895   -6.3873612    712.06158   0.03126368   0.03127996            6 
 1899000   0.95825587   -6.3792684    711.05449  0.031203023  0.031272447            6 
 1900000   0.94381314   -6.3352322    714.36624  0.031331853  0.031264898            6 
 1901000   0.93414509   -6.3642689    711.63838  0.031195791  0.031257281            4 
 1902000   0.95017345   -6.3948376    712.92043   0.03123556   0.03124964            8 
 1903000   0.95938891   -6.3811384     711.5207  0.031157852   0.03124198           12 
 1904000   0.93305725   -6.4011458    712.20217  0.031171313  0.031234309            9 
 1905000    0.9702404   -6.3531612     713.9952  0.031233386   0.03122671            9 
 1906000   0.95543096   -6.3759002     713.1651  0.031180706  0.031219174            9 
 1907000   0.93996743    -6.370446     714.4347  0.031219835  0.031211579            7 
 1908000   0.96899744   -6.3382552    712.90407  0.031136621  0.031204008           10 
 1909000   0.93973677   -6.3690138    712.99192  0.031124145   0.03119628            9 
 1910000   0.95713693    -6.366427    713.91383  0.031148073   0.03118862            8 
 1911000   0.95489739   -6.3530747    713.21345  0.031101232  0.031180918           19 
 1912000    0.9405771   -6.3475074    713.55481  0.031099843  0.031173241           10 
 1913000     0.939223   -6.3664078    714.20917  0.031112091  0.031165535           16 
 1914000   0.92682127   -6.3252116    712.30391  0.031012884  0.031157913            9 
 1915000   0.95616928   -6.3692068    715.67729  0.031143485  0.031150236            5 
 1916000   0.94741038   -6.3745663    715.56541  0.031122365  0.031142657            9 
 1917000   0.95275581   -6.3806699    715.17731  0.031089259  0.031135091            4 
 1918000   0.93943904   -6.3548156    715.20572  0.031074284  0.031127399           11 
 1919000   0.97771411   -6.4083254    716.14884  0.031099046  0.031119797            6 
 1920000    0.9196746    -6.371172    715.39871  0.031050291  0.031112128            7 
 1921000   0.94977312   -6.3806373    718.08642  0.031150721  0.031104537           23 
 1922000   0.94286718    -6.386094    715.83522  0.031036907  0.031096913            7 
 1923000   0.94572605   -6.3780461    715.17622  0.030992209  0.031089238           11 
 1924000   0.92683176    -6.403861    716.05724   0.03101426  0.031081544           16 
 1925000   0.94119456   -6.3849576    716.89637  0.031034475  0.031073897            6 
 1926000   0.94175305   -6.3821601    716.45675   0.03099934  0.031066192            6 
 1927000   0.95903827   -6.3672076    715.51631  0.030942584  0.031058487           10 
 1928000   0.93729077   -6.3848535      717.699  0.031020877  0.031050917           12 
 1929000     0.966413   -6.4008126    719.25244  0.031071904  0.031043273           12 
 1930000   0.94115255   -6.3755887      717.824  0.030994128   0.03103573            7 
 1931000   0.94063745   -6.3830456    717.62459  0.030969471  0.031028144            5 
 1932000   0.94313991   -6.3967249    719.22356   0.03102241  0.031020563           11 
 1933000   0.93749743   -6.3756052    718.25471  0.030964593  0.031013057            8 
 1934000   0.94189046   -6.4097496    719.21691  0.030990043  0.031005477            9 
 1935000   0.95083505   -6.3881517    719.73304  0.030996255  0.030997844            9 
 1936000   0.94050267   -6.3503396     718.7306  0.030937095  0.030990287            7 
 1937000   0.94361881   -6.3802741    717.33059  0.030860893  0.030982615           13 
 1938000   0.95771766   -6.3727209    719.45565  0.030936345  0.030974871            6 
 1939000   0.93137646   -6.3757189    719.15443  0.030907445  0.030967317           19 
 1940000   0.94960507   -6.3972026    719.61748  0.030911404  0.030959699           16 
 1941000   0.93331336   -6.3720553    720.87961  0.030949665  0.030952168            5 
 1942000   0.93684141   -6.3739399    720.82423  0.030931352  0.030944613           13 
 1943000   0.95528826   -6.3904753    718.90619   0.03083317  0.030936989           14 
 1944000   0.95693297   -6.3903937     720.7716  0.030897274  0.030929329           14 
 1945000   0.94660186   -6.3652679    718.88892  0.030800725  0.030921712            2 
 1946000   0.94947414   -6.4103908    719.05649  0.030792073  0.030914019           10 
 1947000   0.90443992    -6.376771    719.92104  0.030813261  0.030906334           14 
 1948000   0.92010229   -6.3935573    719.37153  0.030773936  0.030898562            7 
 1949000   0.94163474   -6.4016752    719.31827  0.030755869  0.030890771            6 
 1950000   0.93023327   -6.3750107    719.30835  0.030739673  0.030882988            6 
 1951000    0.9331186   -6.3899126    721.48383  0.030816839  0.030875163            7 
 1952000   0.93420622   -6.3860093    717.50568  0.030631219  0.030867308            8 
 1953000   0.93749032   -6.4002845    718.93336  0.030676453  0.030859343            9 
 1954000   0.93338249   -6.3786973    721.30306  0.030761816  0.030851394            8 
 1955000   0.94385993     -6.38887    718.60995  0.030631285  0.030843431            5 
 1956000   0.94071932   -6.3554037    721.12183  0.030722641  0.030835499            9 
 1957000   0.93671851   -6.4099695    719.93519  0.030656413  0.030827575            8 
 1958000   0.94525615   -6.3723809    721.25309  0.030696846  0.030819702           18 
 1959000   0.94513258   -6.3654808    720.80667  0.030662186  0.030811884            5 
 1960000   0.92612025   -6.4035233    720.02232  0.030613194   0.03080389           13 
 1961000   0.95104261    -6.414627    720.02501  0.030597697  0.030795733           21 
 1962000   0.94942488   -6.3755335    721.45812  0.030642971  0.030787618            6 
 1963000    0.9290628   -6.3677314    720.26566  0.030576739  0.030779548            6 
 1964000   0.93165371   -6.3830592     719.4841  0.030528008  0.030771418           10 
 1965000   0.92165933   -6.3909621    718.96782  0.030490578  0.030763257           23 
 1966000   0.93595549   -6.3567466    720.14823  0.030525103  0.030755125           19 
 1967000   0.93349429   -6.3787337    719.37999  0.030477038   0.03074706            8 
 1968000   0.94771513   -6.4038439    721.24989  0.030540731  0.030739016           12 
 1969000   0.91404503   -6.3881626    721.13183  0.030520223  0.030730971            6 
 1970000   0.91603215   -6.3898858    722.14142  0.030547437  0.030722953            9 
 1971000   0.95216753   -6.3672014    723.28911  0.030580463  0.030714966           10 
 1972000   0.92459632   -6.3591195    724.76723  0.030627419  0.030707086            8 
 1973000   0.95189236   -6.3851375    723.81371  0.030571622  0.030699276           10 
 1974000   0.93518775   -6.4484372    725.24585  0.030616593  0.030691429           10 
 1975000   0.92303166   -6.3861847    725.25494  0.030601474  0.030683587            8 
 1976000   0.93985039   -6.4380324    723.53589  0.030513491  0.030675768            7 
 1977000   0.91065129   -6.4050267    724.77105   0.03055012  0.030667985           10 
 1978000   0.94163385   -6.3894159    722.74238  0.030449207  0.030660117            5 
 1979000   0.92269687   -6.3826023    725.30327  0.030541657  0.030652307            6 
 1980000   0.95539692   -6.3663412    723.89122  0.030466802  0.030644511            4 
 1981000   0.92319569   -6.3744469    726.36566  0.030555513  0.030636717           10 
 1982000   0.90980872   -6.4048561     725.7027  0.030512223  0.030628877            6 
 1983000    0.9395821    -6.404958    725.07414  0.030470421  0.030620981           15 
 1984000   0.92404223   -6.3879982    727.84801  0.030571573  0.030613149           12 
 1985000   0.93291202   -6.3940025    726.20918  0.030487371  0.030605382            8 
 1986000    0.9343451   -6.3726924    726.33874  0.030477457  0.030597594            6 
 1987000    0.9349326   -6.3840145     726.5965  0.030472928  0.030589791            3 
 1988000   0.93940124   -6.3999739    728.70415  0.030545949  0.030581989           11 
 1989000   0.92059168   -6.3859849    727.62007  0.030485171  0.030574185           27 
 1990000   0.92119166   -6.4032861    729.25526  0.030538328  0.030566343           10 
 1991000   0.92532462   -6.3908236    728.78463  0.030503291  0.030558505           20 
 1992000   0.92978731   -6.3696949    726.25337  0.030382085  0.030550728           10 
 1993000   0.92678714   -6.4080823    728.88706  0.030476964  0.030542882           19 
 1994000   0.93067318   -6.3611945    728.46351  0.030443978  0.030535095            5 
 1995000   0.93090432   -6.3556489    728.24257  0.030419489   0.03052738           16 
 1996000   0.92255313   -6.3921375    727.78244  0.030385039  0.030519666           13 
 1997000    0.9443234   -6.3999118    729.27794  0.030432229  0.030511936            8 
 1998000   0.94841879   -6.4106007    728.42293  0.030381337   0.03050417           10 
 1999000   0.94174979   -6.3805155    728.80033  0.030381871  0.030496519           10 
 2000000   0.92240901   -6.3953775    728.54083  0.030355868  0.030488867           14 
 2001000   0.93868293   -6.3974548     730.4465  0.030420061  0.030481151            6 
 2002000   0.92387358   -6.3739535    732.70127  0.030498721  0.030473546           12 
 2003000   0.93228025   -6.4040505     730.7546  0.030402505  0.030465944           13 
 2004000   0.94540132   -6.4056419    731.58715  0.030421954  0.030458237            9 
 2005000   0.93857513   -6.3968104    730.19852  0.030349066  0.030450596           23 
 2006000   0.92378485   -6.4217314    731.50933   0.03038839  0.030442982            5 
 2007000   0.92832401   -6.3999839    732.38487  0.030409603  0.030435318            6 
 2008000   0.92065263   -6.4041301    733.43258  0.030437939  0.030427732            9 
 2009000   0.92378939    -6.379511    734.50478  0.030467263  0.030420201            7 
 2010000   0.91596749   -6.4022731    733.14167  0.030395592  0.030412654            9 
 2011000   0.92068444    -6.392125     733.8327  0.030409112  0.030405155           14 
 2012000   0.93875083   -6.3977848    733.38292  0.030375369   0.03039764           11 
 2013000    0.9343684   -6.3812547    733.45841  0.030363405  0.030390196            7 
 2014000   0.92663807   -6.4195204    734.47824  0.030390526  0.030382681            7 
 2015000   0.93673859    -6.366745    735.48928  0.030417257   0.03037528            2 
 2016000   0.92614389    -6.415262    734.61406  0.030365991  0.030367844            8 
 2017000   0.94639265   -6.3823827    735.24105  0.030376841  0.030360354           11 
 2018000   0.94489444   -6.4133293    734.64982  0.030337373  0.030352858           12 
 2019000   0.91903909    -6.417795    734.18938  0.030303342  0.030345325            4 
 2020000   0.93263199   -6.4014537    734.20375  0.030288933  0.030337811            8 
 2021000   0.92741963   -6.3948916    735.81049  0.030340198  0.030330369            6 
 2022000   0.93849842   -6.4191867    737.04573  0.030376102  0.030322894            8 
 2023000    0.9166879   -6.4061833    736.67194  0.030345689  0.030315349           14 
 2024000    0.9417936   -6.3849593    737.09617  0.030348162  0.030307825            8 
 2025000   0.94155453   -6.4019044    737.91946  0.030367056   0.03030031           15 
 2026000   0.91466148   -6.3954693     735.3851  0.030247824  0.030292826            8 
 2027000   0.90378325   -6.4311064    737.89217  0.030335971  0.030285305            8 
 2028000   0.93979269   -6.3994298    736.55836  0.030266205   0.03027784           17 
 2029000   0.92328227   -6.3821423    737.98555  0.030309904  0.030270458            3 
 2030000   0.94109994   -6.4050428    739.08079  0.030339934  0.030263167            8 
 2031000   0.93806536   -6.4092968    740.30253  0.030375124  0.030255845            7 
 2032000   0.93549347   -6.3974255    739.21057  0.030315394  0.030248504           14 
 2033000   0.92990298   -6.3919393    739.84474  0.030326477  0.030241219           14 
 2034000   0.91877646   -6.4129591    739.79063  0.030309351  0.030233997            9 
 2035000   0.92401506    -6.402611    740.81346  0.030336342  0.030226815           26 
 2036000   0.91802529   -6.3613486    739.93181  0.030285356  0.030219617           13 
 2037000   0.92037924   -6.3982051    741.29122  0.030326101  0.030212442           11 
 2038000   0.92857925    -6.386529    740.90081  0.030295257  0.030205266           14 
 2039000   0.92711005   -6.4098409    742.47643  0.030344794  0.030198004            4 
 2040000   0.90547975   -6.4068072    742.57946  0.030334128  0.030190775            8 
 2041000     0.956005   -6.3907935    741.30579  0.030267263  0.030183531            8 
 2042000   0.93910996    -6.404126    742.25795  0.030291297  0.030176407            7 
 2043000   0.92715784   -6.3980318    741.94942  0.030263886  0.030169204            8 
 2044000   0.90959455   -6.3875056    744.72544  0.030362257  0.030162163           10 
 2045000   0.94361836   -6.3885772    740.73779  0.030184914  0.030154921            5 
 2046000   0.91410125   -6.3852247    742.35433  0.030236002  0.030147733           14 
 2047000   0.92099478   -6.3992952    743.70064   0.03027604  0.030140481           10 
 2048000   0.91516202   -6.3929737    743.38744  0.030248512  0.030133309           13 
 2049000   0.93493743   -6.3789482    744.08147  0.030261976  0.030126095            9 
 2050000   0.91684831   -6.3729232    745.51484  0.030305481   0.03011902            5 
 2051000   0.93092519   -6.4166825    742.85533  0.030182648  0.030111839            5 
 2052000   0.90952934   -6.3884798    744.48001  0.030233919  0.030104721           11 
 2053000   0.94326609   -6.4260107    743.62183  0.030184358  0.030097537            7 
 2054000   0.90990909   -6.3751707    743.26708  0.030155269  0.030090341            6 
 2055000   0.93485527   -6.4115096    743.56749  0.030152777    0.0300831            6 
 2056000   0.92467677   -6.4075136    745.37042  0.030211187  0.030075815            8 
 2057000   0.92958171   -6.4181416    744.16078  0.030147496  0.030068571           10 
 2058000   0.93294522   -6.4068905    743.76079   0.03011665  0.030061277            7 
 2059000    0.9315411   -6.4240883    744.64021  0.030137616  0.030053986           12 
 2060000   0.91806538   -6.4128171    744.71097  0.030125848   0.03004674            8 
 2061000   0.92427971   -6.3885248    744.22297    0.0300915  0.030039483            7 
 2062000   0.94656572   -6.4385372    743.61371  0.030052284  0.030032209           10 
 2063000   0.92084908   -6.4196014    745.52283  0.030114834  0.030025066            8 
 2064000   0.91824093   -6.3944545    746.98444  0.030159255  0.030017845           10 
 2065000   0.91413775   -6.3951525     745.4714  0.030083592  0.030010654           13 
 2066000    0.9238979    -6.412357    744.29179   0.03002145  0.030003498           16 
 2067000   0.91830766   -6.3996635    745.48009  0.030054833  0.029996274           21 
 2068000   0.93421063   -6.4022816    750.21671   0.03023117  0.029989161           11 
 2069000   0.90576215   -6.4208929    746.09914  0.030050714  0.029981917            8 
 2070000   0.91858278   -6.4057917    746.89213  0.030068121   0.02997462            6 
 2071000   0.92588741   -6.4477574    746.54753  0.030039736  0.029967265           10 
 2072000    0.9203246   -6.4221686    747.19677   0.03005135  0.029959947           14 
 2073000   0.91421059   -6.4209243    746.34804  0.030002735  0.029952588            9 
 2074000   0.91770151   -6.4011946    747.82537  0.030047628  0.029945263            5 
 2075000   0.92033428   -6.3871632    748.34661  0.030054081  0.029937884            5 
 2076000   0.92988925   -6.4163037    746.65888  0.029971856  0.029930519            5 
 2077000   0.91986666   -6.4285387    747.11094  0.029975563  0.029923196            9 
 2078000   0.90941426   -6.4162966    748.62511   0.03002186  0.029915778            7 
 2079000   0.91405046   -6.4468069    746.10172  0.029906274  0.029908377           16 
 2080000   0.92795821   -6.3922595    747.08887  0.029931445  0.029900946           12 
 2081000   0.92307955   -6.4173695    747.18427  0.029920882  0.029893614           13 
 2082000   0.92805764   -6.4689423    749.56477  0.030001792  0.029886294            6 
 2083000   0.91282253   -6.4481518    747.09334  0.029888516  0.029878955           15 
 2084000   0.92271761   -6.4140955    749.02763  0.029951521   0.02987165           14 
 2085000   0.89649697   -6.4094379     747.7928  0.029887802  0.029864376           21 
 2086000   0.90611233   -6.4293307    751.40783   0.03001789  0.029857097            8 
 2087000   0.91850892   -6.4193726    751.36373  0.030001746  0.029849863            5 
 2088000   0.91437606   -6.4379107    751.42845  0.029989961  0.029842713            7 
 2089000   0.92062701    -6.463749    748.13699  0.029844303  0.029835534            6 
 2090000   0.89976324   -6.4521542    749.73902    0.0298939  0.029828352           12 
 2091000   0.88863796   -6.4191013    751.49417  0.029949553  0.029821113            7 
 2092000   0.90160168   -6.4333975    749.32724  0.029848918  0.029813937            9 
 2093000   0.91163449   -6.4051444    750.39438  0.029877145  0.029806685           15 
 2094000    0.9007358   -6.4446532    751.26995  0.029897722  0.029799445            9 
 2095000   0.92010239   -6.3902229    752.06683  0.029915148  0.029792249            5 
 2096000   0.93330548   -6.4496749    750.20754  0.029826954   0.02978499           27 
 2097000   0.91577532   -6.4135838    752.92581  0.029920752  0.029777818            7 
 2098000   0.90364856   -6.4384551    751.11885  0.029834717  0.029770723            5 
 2099000   0.91195968   -6.4558857     751.8442  0.029849301  0.029763536           12 
 2100000   0.92564805   -6.3959054    753.08015  0.029884133  0.029756389           21 
 2101000   0.91249828   -6.4405373    751.63731  0.029812681  0.029749193            7 
 2102000   0.91536339   -6.4243188    753.33815  0.029865927  0.029741958            4 
 2103000    0.9164376   -6.4022078    752.58609  0.029821925  0.029734802            7 
 2104000   0.92605691   -6.4243099    753.64444  0.029849669  0.029727623            9 
 2105000   0.92263044    -6.439154    751.46029  0.029749022  0.029720382            7 
 2106000   0.94704443   -6.3934444    754.43419  0.029852572  0.029713157           11 
 2107000   0.90175291   -6.4289393    751.93857    0.0297397   0.02970592           14 
 2108000   0.91232344   -6.4265539    753.24278   0.02977715  0.029698725            6 
 2109000   0.89912249   -6.4091513    753.21784  0.029762045  0.029691493            8 
 2110000   0.92651362   -6.4416509    754.48571  0.029798014  0.029684197            5 
 2111000   0.91611545   -6.4281551    754.86591  0.029798907  0.029676935            9 
 2112000   0.91522217    -6.441781    753.45295  0.029729046  0.029669698           15 
 2113000   0.90299587   -6.4224233    754.14269  0.029742179  0.029662436            5 
 2114000   0.91630264   -6.4209227    755.24945  0.029771738  0.029655227           16 
 2115000   0.91625547   -6.4201912    755.62623  0.029772507  0.029648095            4 
 2116000   0.93597606   -6.4162171    754.51606  0.029714716  0.029640993            7 
 2117000   0.92970021   -6.4031895    758.40437  0.029853739  0.029633908           18 
 2118000   0.91965681   -6.4177919     756.3059  0.029757078  0.029626781            6 
 2119000   0.90190039   -6.4260775    753.60992  0.029637011  0.029619585           11 
 2120000   0.89803535    -6.467406    753.35326  0.029612942  0.029612297           16 
 2121000   0.93347566   -6.4017092    755.28101  0.029674721  0.029605099            5 
 2122000   0.90303266   -6.4143429    756.16471  0.029695441  0.029597885            7 
 2123000   0.90897534   -6.4654165     754.3575  0.029610516  0.029590585           22 
 2124000   0.92292294   -6.4164959    757.36528  0.029714583  0.029583343            9 
 2125000   0.90753168   -6.4370677    757.21475  0.029694696  0.029576135            7 
 2126000   0.91473765   -6.4443395    756.56432  0.029655234  0.029568867           14 
 2127000    0.9178004   -6.4337566    754.77211  0.029571075  0.029561631           10 
 2128000   0.91737723   -6.4629961    756.72825  0.029633782   0.02955441            4 
 2129000   0.88819813   -6.4865847    756.74096   0.02962036  0.029547134            9 
 2130000   0.90457846   -6.4683936    757.75381   0.02964608  0.029539853           11 
 2131000   0.91832494   -6.4379172    758.51252  0.029661838   0.02953262            6 
 2132000   0.93183255    -6.414581    758.38725  0.029643029  0.029525469            6 
 2133000   0.92840049   -6.4211521    759.43515  0.029670072  0.029518389            5 
 2134000   0.91386189   -6.4342025    759.72086  0.029667325   0.02951128           11 
 2135000   0.91157538   -6.4175196    760.26821  0.029674794    0.0295041           11 
 2136000   0.90133184   -6.4498534    757.81978  0.029565378  0.029496961           10 
 2137000   0.92016423   -6.4426999    760.44261  0.029653822   0.02948978           15 
 2138000   0.93977144   -6.4263277    760.28454  0.029633791  0.029482654           12 
 2139000   0.90245671   -6.4704571    758.14003  0.029536389  0.029475525           15 
 2140000   0.90305053   -6.4437907    760.63723   0.02961983  0.029468378            8 
 2141000   0.92321102   -6.4349621     761.5734  0.029642433  0.029461268            7 
 2142000   0.92240974   -6.4369645    760.10173   0.02957134  0.029454271            9 
 2143000   0.92314633   -6.4483416    760.15964  0.029559793  0.029447188            7 
 2144000   0.92856863   -6.4699178    760.76865  0.029569677  0.029440024            5 
 2145000   0.90637013   -6.4239986    761.87179  0.029598749  0.029432969           13 
 2146000   0.88575996   -6.4507443    761.69369   0.02957804  0.029425889           13 
 2147000   0.89649955   -6.4463271     762.7529  0.029605376  0.029418797           12 
 2148000   0.92095116    -6.448625    763.34589  0.029614598  0.029411734           13 
 2149000   0.90382808   -6.4264782    762.23767  0.029557844  0.029404719           13 
 2150000   0.90308655   -6.4383487    761.97628  0.029533964   0.02939771            8 
 2151000   0.91315453   -6.4188523     762.5317  0.029541752  0.029390633            3 
 2152000   0.92129608   -6.4066186    760.25507  0.029439865   0.02938361            9 
 2153000   0.90588842   -6.4368011    763.64372  0.029557351  0.029376522            9 
 2154000   0.90998157   -6.4412603    761.49754  0.029460598  0.029369439            9 
 2155000   0.91141595   -6.4411833    763.41425  0.029521046  0.029362295           10 
 2156000   0.91107206   -6.4586272    762.90255  0.029487576  0.029355132            8 
 2157000   0.91314513   -6.4555979    763.33151  0.029490477  0.029347927           11 
 2158000   0.91455397   -6.4546182    761.56758  0.029408696  0.029340704            9 
 2159000    0.9139317   -6.4358395     763.9943  0.029488741  0.029333514            9 
 2160000   0.91287853   -6.4454121     763.4424  0.029453796  0.029326406           19 
 2161000   0.89423353   -6.4292625    764.61325  0.029485317  0.029319274           10 
 2162000   0.90598183   -6.4600295     762.6146  0.029394642  0.029312122            7 
 2163000   0.88823026   -6.4587671     764.0211   0.02943524  0.029304956            7 
 2164000   0.91465526   -6.4625692    765.52842  0.029479683  0.029297845            8 
 2165000   0.89258903   -6.4762011    764.68516  0.029433609  0.029290701           11 
 2166000   0.90411336   -6.4487658    765.75655   0.02946124  0.029283629            9 
 2167000   0.89356557   -6.4770252    766.20174  0.029464765  0.029276554            8 
 2168000   0.90782463   -6.4618918    765.26187  0.029415047  0.029269451            9 
 2169000   0.91857223    -6.455903    763.53173  0.029335013  0.029262279            9 
 2170000   0.89422507   -6.4565451    766.19227  0.029423666  0.029255132           13 
 2171000   0.90466354   -6.4657792    764.41728  0.029341981  0.029247979           16 
 2172000   0.88765152   -6.4249431    767.86878  0.029460895   0.02924086            6 
 2173000   0.89913924   -6.4560766    765.08377  0.029340534  0.029233689           11 
 2174000    0.9219184   -6.4637573     765.2875  0.029334848  0.029226493           11 
 2175000   0.90505878   -6.4504425    766.43296  0.029365248  0.029219315            6 
 2176000   0.91386685   -6.4764239    763.99441  0.029258364  0.029212106            7 
 2177000   0.91606423   -6.4533264    765.15205  0.029289238  0.029204875            6 
 2178000    0.8965538    -6.441179    768.70456  0.029411714  0.029197676           11 
 2179000   0.89844094   -6.4530359    766.89293  0.029328933  0.029190553            5 
 2180000   0.88758057   -6.4501304    766.73474  0.029309432  0.029183325           35 
 2181000   0.86058302   -6.4495841    766.89937  0.029302284  0.029176131            8 
 2182000   0.90389306   -6.4609726    768.33016  0.029343498  0.029168958           10 
 2183000   0.90130955   -6.4830638    765.88842  0.029236846  0.029161828            5 
 2184000   0.89846627   -6.4748253    766.70417  0.029254585  0.029154649            8 
 2185000   0.92394015   -6.4553625     770.4988  0.029385919   0.02914755           16 
 2186000   0.89768137   -6.4940826    768.26382  0.029287276  0.029140369           13 
 2187000   0.90617634   -6.4853139    767.62407  0.029249507  0.029133206           10 
 2188000   0.89533779   -6.4633641    767.65688  0.029237389   0.02912605            7 
 2189000   0.90178586   -6.4714979    769.42825  0.029291467  0.029118885           11 
 2190000   0.90386062   -6.4464945    769.67636  0.029287533  0.029111791            6 
 2191000   0.88173366   -6.4366591    769.23306  0.029257305  0.029104703            3 
 2192000   0.91368257    -6.440837    767.32254  0.029171325    0.0290976            9 
 2193000   0.90345531   -6.4328555    771.45482  0.029315049   0.02909046            7 
 2194000   0.88178459   -6.4409081    771.29992  0.029295804  0.029083388            4 
 2195000   0.89507981   -6.4456154    771.37012  0.029285122  0.029076302            8 
 2196000   0.89419031   -6.4483273    769.09322  0.029185383  0.029069178           12 
 2197000   0.89476459   -6.4551375    770.11743  0.029210948     0.029062           12 
 2198000   0.87927729   -6.4547587    769.16772  0.029161652  0.029054823            5 
 2199000   0.89286104    -6.463739    770.00877  0.029180262  0.029047688            9 
 2200000   0.89268898   -6.4638475    769.48063  0.029146994  0.029040601            6 
 2201000   0.91204299   -6.4736909    769.99768  0.029153327  0.029033455           30 
 2202000   0.88599869   -6.4333102    770.65014   0.02916478  0.029026253           23 
 2203000   0.90013181   -6.4655537    767.86094  0.029046033  0.029019115           17 
 2204000    0.9176455   -6.4363845    769.68195  0.029101707  0.029012007           11 
 2205000   0.89791064   -6.4858084    769.34744  0.029075867  0.029004753           18 
 2206000    0.9030368   -6.4280225    770.35199  0.029100634  0.028997546            9 
 2207000   0.89917142   -6.4654418    769.33496  0.029049047  0.028990433           17 
 2208000    0.9032344   -6.4446011    769.69781  0.029049585  0.028983263           12 
 2209000   0.91181241   -6.4671241    769.77658  0.029039406  0.028976024            7 
 2210000   0.90676884   -6.4499927     770.2437   0.02904388  0.028968861            5 
 2211000   0.90843841   -6.4609708    771.81949  0.029090136  0.028961686           10 
 2212000   0.92023019   -6.4773662    770.11431  0.029012745  0.028954486            6 
 2213000   0.88547787   -6.4612355     770.8137  0.029025971  0.028947393           12 
 2214000   0.89582888   -6.4678758    772.90783  0.029091683  0.028940262            7 
 2215000   0.87396007   -6.4395304    773.18626  0.029089024  0.028933194            7 
 2216000   0.87852879    -6.481089    772.11728  0.029035698  0.028926123            7 
 2217000   0.89396658   -6.4911497    772.34772  0.029031263  0.028919066           13 
 2218000   0.90768043   -6.4555976    772.11743  0.029009522  0.028912026            7 
 2219000   0.89099132   -6.4478553    773.58621  0.029051608  0.028904999            6 
 2220000   0.90779762   -6.4571763    773.79965  0.029046533  0.028898036           13 
 2221000    0.8991797    -6.470854    774.65098  0.029065398  0.028891007            6 
 2222000   0.89846767   -6.4743883    774.58358  0.029049789  0.028884041           12 
 2223000   0.91592875    -6.466592    772.99193  0.028977055  0.028877024           13 
 2224000   0.87821275    -6.451052    776.45892  0.029093935  0.028869953            8 
 2225000   0.90723207   -6.4524878    776.67274  0.029088867  0.028862978            9 
 2226000   0.93374592   -6.4607994    774.35935  0.028989194  0.028855992            7 
 2227000   0.89710632    -6.466385    776.39176  0.029052229  0.028849014           11 
 2228000    0.8921627   -6.4649565     775.4575  0.029004245  0.028842049           12 
 2229000   0.87712961   -6.4586663    776.10212  0.029015333  0.028835101           15 
 2230000   0.89699906   -6.4677983    776.91817  0.029032817  0.028828088           24 
 2231000   0.91264151   -6.4665002    776.65947   0.02901014  0.028821117            8 
 2232000   0.90037069   -6.5005343    776.76315  0.029001014   0.02881417           14 
 2233000   0.89879419   -6.4744461    775.75342  0.028950344  0.028807195            9 
 2234000   0.90771595   -6.4623502    778.04558  0.029022888  0.028800228            6 
 2235000   0.90244496   -6.4456613    777.72099    0.0289978   0.02879332           11 
 2236000   0.92320176    -6.454471    780.41688  0.029085304  0.028786404            6 
 2237000   0.91612956   -6.4803872    777.15149  0.028950659  0.028779497            7 
 2238000   0.88834346   -6.4830417    777.53984  0.028952184   0.02877249           13 
 2239000   0.90400553   -6.4714824     777.9594  0.028954868  0.028765537           16 
 2240000   0.88488459   -6.4909764    778.39834  0.028958271  0.028758554            8 
 2241000    0.8755121   -6.4193334    780.46704  0.029022276  0.028751615           14 
 2242000   0.89525245   -6.4674599    778.88223  0.028950425  0.028744799            8 
 2243000   0.89483855   -6.4627386    778.47863  0.028922523  0.028737875            7 
 2244000   0.86735031   -6.4821156    780.44476  0.028982649  0.028730893            4 
 2245000   0.89062461   -6.4804774    779.92645  0.028950499  0.028723985            8 
 2246000   0.88933064   -6.4648482    781.34209  0.028990134  0.028717076            5 
 2247000   0.87093226   -6.4850047     778.8968  0.028886545  0.028710214           13 
 2248000   0.89496549   -6.4667182    778.90754  0.028874093  0.028703254           11 
 2249000   0.90480165   -6.4739002    778.33903  0.028840189  0.028696289           14 
 2250000   0.88105635   -6.4639725    779.42469  0.028867581  0.028689298            5 
 2251000   0.90080438   -6.4689637    780.58967  0.028897885  0.028682397           13 
 2252000   0.88885913   -6.5083821    780.32096   0.02887511  0.028675453            6 
 2253000   0.88161709   -6.4692014    781.11803  0.028891775  0.028668566            9 
 2254000   0.88357779   -6.4617409    779.46612  0.028817884  0.028661624           27 
 2255000   0.87654631   -6.4421208    780.46437  0.028841995  0.028654692            5 
 2256000   0.88590629   -6.4705645    781.22793  0.028857415  0.028647851           11 
 2257000   0.88598691   -6.4733308     780.4911  0.028817424   0.02864099            6 
 2258000   0.89586279   -6.4915518    780.80165  0.028816122  0.028634146            6 
 2259000   0.89323978   -6.4923377     781.6973  0.028836406  0.028627255           14 
 2260000   0.88359532   -6.4974302    781.89988  0.028831117  0.028620273           11 
 2261000   0.86286029   -6.4862329     782.0227  0.028822892  0.028613334            7 
 2262000   0.87997789   -6.4680354    784.63677  0.028906453  0.028606382            7 
 2263000   0.90007685   -6.5031135    779.88931  0.028718858   0.02859944           22 
 2264000   0.89490481   -6.4752668    782.89241  0.028816711  0.028592472            5 
 2265000   0.86682472   -6.5088066      781.398  0.028749007  0.028585486           12 
 2266000   0.90247186   -6.5088455    780.39208  0.028699326  0.028578519           14 
 2267000   0.87313247   -6.4769734    781.71063  0.028735136  0.028571598           22 
 2268000   0.89729463   -6.4997531    784.94663  0.028841367  0.028564681           10 
 2269000   0.87727325    -6.477464    782.25364   0.02872975  0.028557653           17 
 2270000   0.88156185   -6.5013938    782.06521  0.028710177  0.028550591           10 
 2271000   0.87218913   -6.5076078    781.13719  0.028663481  0.028543548            7 
 2272000   0.88431268   -6.4891651    782.30619  0.028693742  0.028536516           11 
 2273000   0.88711429   -6.4892085    783.23821  0.028715288  0.028529534            7 
 2274000   0.88972523   -6.4830468    784.65346  0.028754524  0.028522582           10 
 2275000   0.89283485   -6.4597157    783.60746   0.02870357  0.028515722            7 
 2276000   0.88687046   -6.4556223    785.57042   0.02876283  0.028508819            7 
 2277000   0.89873697   -6.4547008    785.40714  0.028744223  0.028501886           26 
 2278000   0.86616589   -6.4965355    782.02861  0.028608012  0.028494904           14 
 2279000   0.86759422   -6.4917787    785.31789  0.028715734  0.028487842            7 
 2280000   0.90972431   -6.4798563    783.97791  0.028654163  0.028480823            8 
 2281000   0.88681387   -6.4668414    783.48202  0.028623485  0.028473801            7 
 2282000   0.87759635   -6.5003231    782.33165  0.028568933  0.028466767            8 
 2283000   0.88925993   -6.4832869     784.7556  0.028644897  0.028459758            7 
 2284000   0.88950273   -6.5038106    784.82406  0.028634853  0.028452702            9 
 2285000   0.89084164   -6.4929008    784.04753  0.028594002  0.028445681           15 
 2286000   0.88956251   -6.4890211    782.28344  0.028517186  0.028438641           19 
 2287000   0.88894506    -6.464053    783.82693  0.028560958  0.028431529            4 
 2288000   0.89314681    -6.484149    784.03479  0.028556046  0.028424449           20 
 2289000   0.87370472   -6.4788239    785.54619  0.028598594  0.028417418            5 
 2290000    0.8872375   -6.4973254    785.39515   0.02858061  0.028410374           13 
 2291000   0.90465605   -6.4713313    783.92483  0.028514653  0.028403277           28 
 2292000   0.87664424   -6.4614456     784.6869  0.028529919  0.028396163           12 
 2293000   0.90556235   -6.4869814    782.52196  0.028438798  0.028388986           16 
 2294000   0.89287363   -6.5071525    784.00157   0.02848015  0.028381871           51 
 2295000   0.89356705   -6.5098927     783.5327  0.028450715  0.028374715            6 
 2296000   0.88583179    -6.442649    783.28688  0.028429402  0.028367626            5 
 2297000   0.88329073   -6.4817326     784.5463  0.028462716  0.028360489           21 
 2298000   0.88246082   -6.4849128    787.20165  0.028546622  0.028353426           10 
 2299000   0.84562207    -6.482318    785.98381  0.028490061  0.028346308           12 
 2300000   0.88232527   -6.4993327    786.02584  0.028479197  0.028339276           22 
 2301000   0.87468111   -6.4905469    785.20891  0.028437234  0.028332248            8 
 2302000   0.89306733   -6.4581964    786.66132  0.028477459   0.02832527           14 
 2303000   0.86583403   -6.4680826    789.00149  0.028549772  0.028318301            5 
 2304000   0.89922777   -6.4703485    786.59859   0.02845047   0.02831139            7 
 2305000   0.88427189   -6.4421917    786.37455  0.028430027   0.02830442            8 
 2306000   0.89152072   -6.4819499    788.99282  0.028512316  0.028297443            8 
 2307000   0.87431842   -6.5020027    787.35448  0.028440777  0.028290475           10 
 2308000   0.87738443   -6.5044555    788.15606  0.028457397  0.028283479           11 
 2309000   0.89859524   -6.5026392    785.51688  0.028349822  0.028276479           17 
 2310000   0.87628456   -6.4705976    789.99784  0.028499201  0.028269465           23 
 2311000   0.88165845   -6.5087764     789.8489  0.028481498  0.028262522            7 
 2312000   0.87413769   -6.5188107    788.49021  0.028420206  0.028255549            5 
 2313000   0.90231792   -6.4824088    788.08247  0.028393229  0.028248503           14 
 2314000   0.88464906   -6.4935154    788.77847  0.028406024  0.028241512            5 
 2315000   0.87174047   -6.4800905    792.03512  0.028510983  0.028234606           20 
 2316000   0.88440071   -6.4910358    789.77414  0.028417319   0.02822771           17 
 2317000   0.87002118   -6.4545619    794.03259  0.028558214  0.028220819           17 
 2318000   0.88529911   -6.5070751    792.05055  0.028474639  0.028213865            6 
 2319000   0.87740792   -6.4810359    791.47207  0.028441572  0.028206934           16 
 2320000    0.9071961   -6.5104086    790.78615  0.028404675  0.028199978            4 
 2321000   0.87462335   -6.4551106    791.60823  0.028421953  0.028193014            8 
 2322000   0.88372949   -6.4801255    793.53156  0.028478738  0.028186139            7 
 2323000   0.87862712   -6.4699042    791.15433    0.0283812  0.028179223           10 
 2324000   0.87667439   -6.4952034    789.97812  0.028326812  0.028172273            8 
 2325000   0.87500119   -6.4627503    791.89802  0.028383442   0.02816541           11 
 2326000   0.87816459   -6.4898046    791.62502  0.028361458  0.028158503            9 
 2327000   0.88437309   -6.5024057     792.8882  0.028394506  0.028151607           12 
 2328000   0.87421049   -6.4772628    792.11242   0.02835454  0.028144694           12 
 2329000    0.8820784   -6.4714334    792.87623  0.028369695  0.028137802           18 
 2330000   0.86508151   -6.5059225    792.27215  0.028335914  0.028130882            8 
 2331000   0.88272871   -6.4741798     792.9293  0.028347251  0.028124016           10 
 2332000   0.86996366   -6.4740633    792.85273  0.028332359  0.028117102            7 
 2333000   0.90321262   -6.4874995    792.49445  0.028307417  0.028110215           10 
 2334000   0.88484475   -6.5197901    793.53775  0.028332539  0.028103258           24 
 2335000   0.89744196   -6.4768423    793.09184  0.028304491  0.028096264           18 
 2336000   0.88109404   -6.4671769    792.57669  0.028273997  0.028089329           24 
 2337000   0.87469461   -6.5115393     794.1936  0.028319555  0.028082413           11 
 2338000   0.86888311   -6.4731557    794.18793   0.02830724  0.028075522           12 
 2339000    0.8705978   -6.5078029    795.39623  0.028338187  0.028068608           22 
 2340000   0.87786136   -6.4993684     793.6285  0.028263123  0.028061711           23 
 2341000   0.86963571   -6.5147831    793.94119  0.028262181  0.028054816           14 
 2342000   0.89485436   -6.4968226    793.51877  0.028235083  0.028047879           11 
 2343000   0.87866938   -6.4998609    795.23634  0.028284121  0.028041038           18 
 2344000   0.86179379   -6.4738849    794.00175  0.028228162  0.028034161           21 
 2345000   0.89171002   -6.4913871     795.0096   0.02825194  0.028027384           14 
 2346000   0.87295657   -6.4989842    795.48466  0.028256773  0.028020517           11 
 2347000   0.87860028   -6.4991551    796.17394  0.028269207  0.028013671           14 
 2348000   0.87700015   -6.4982689    797.36835  0.028299558  0.028006811           11 
 2349000    0.8723082   -6.5194281    795.03765  0.028204826  0.027999981           11 
 2350000   0.87883306   -6.5035922    793.98434  0.028155473  0.027993087            8 
 2351000   0.86009121   -6.5071389    794.74058  0.028170303  0.027986173           42 
 2352000   0.85406064   -6.5199735    795.06161    0.0281697  0.027979226           19 
 2353000   0.87726306   -6.5166507     795.9542   0.02818934  0.027972299           12 
 2354000   0.86408289   -6.4863684    795.77855  0.028171147  0.027965373           16 
 2355000   0.87012131   -6.5091894     793.2883  0.028071065  0.027958435           18 
 2356000   0.86582088   -6.4779675    797.36541  0.028203361  0.027951493           12 
 2357000   0.86169038   -6.5078052    799.23525  0.028257504  0.027944692           14 
 2358000   0.86991751   -6.5095269    796.86166  0.028161636  0.027937892            9 
 2359000   0.89310844   -6.5263645    797.16092   0.02816027   0.02793105           10 
 2360000   0.88658223   -6.5073573    799.79144  0.028241223  0.027924168            7 
 2361000   0.88225078   -6.4930692    796.17081  0.028101469  0.027917266           11 
 2362000   0.87302265   -6.4748941    797.71077  0.028143902  0.027910445            5 
 2363000   0.87361503   -6.5231664    797.26319  0.028116208  0.027903601           11 
 2364000   0.88553151   -6.4929306    798.28351  0.028140282  0.027896803            6 
 2365000   0.87364079   -6.4879255    796.47232  0.028064564  0.027889981            7 
 2366000   0.86029294   -6.4913725    797.36141  0.028084017   0.02788314           13 
 2367000   0.89006393   -6.5016436    797.94525  0.028092707  0.027876195           12 
 2368000   0.87323906   -6.4572458    800.96813  0.028187223  0.027869316           16 
 2369000   0.86711442   -6.5182466    796.94404  0.028033771  0.027862456           25 
 2370000   0.85888446   -6.5284526    795.78699  0.027981258  0.027855528           12 
 2371000   0.87741447   -6.5199811    797.26153  0.028021283  0.027848535           10 
 2372000   0.88285406   -6.4986708    798.17369  0.028041515  0.027841607            8 
 2373000   0.89446925   -6.4849612    797.61015  0.028009908  0.027834642           11 
 2374000   0.86944156   -6.4789791    798.93031  0.028044451  0.027827697            8 
 2375000   0.87691201   -6.4935839    799.79449  0.028062965  0.027820776           17 
 2376000   0.86993511   -6.4750503     799.5752  0.028043462   0.02781391           11 
 2377000   0.87243616   -6.4900832    796.87428  0.027936975  0.027806988           12 
 2378000   0.87567879   -6.4794008     797.6529  0.027952512  0.027800065           11 
 2379000   0.86865351   -6.5101276     797.8556  0.027947863  0.027793163            5 
 2380000   0.86879594   -6.5369521    799.21845  0.027983839   0.02778619           18 
 2381000   0.85787362   -6.4804973    801.06059   0.02803656   0.02777925           21 
 2382000   0.89070551    -6.521091    801.71039  0.028047523  0.027772329            7 
 2383000   0.86972732   -6.4940491     800.5227   0.02799422    0.0277654            7 
 2384000   0.87923432   -6.4883719     800.6158  0.027985731  0.027758519           10 
 2385000   0.86158655   -6.4897931    802.34557  0.028034436  0.027751628            6 
 2386000   0.87351512   -6.4933054    803.72423  0.028070838  0.027744756           14 
 2387000   0.85311736   -6.5113157    800.49672  0.027946402  0.027737857           15 
 2388000   0.87444591   -6.5183161    801.35396  0.027964613  0.027730932            6 
 2389000   0.83782364   -6.4721651    800.93108  0.027938157  0.027724069           16 
 2390000   0.85877912   -6.5517213    799.03294  0.027860284  0.027717207           11 
 2391000   0.87682588   -6.5319179    802.39822  0.027965921   0.02771023            9 
 2392000    0.8522378   -6.5266126    800.69376   0.02789485   0.02770332            9 
 2393000    0.8655983   -6.5229807    800.70687  0.027883649  0.027696416           23 
 2394000   0.85708205   -6.5614709    801.69328  0.027906338  0.027689463           15 
 2395000   0.85838535   -6.5135907    802.40105  0.027919313  0.027682578           12 
 2396000   0.87635892   -6.5067781    801.88471  0.027889702  0.027675675            9 
 2397000   0.86681694   -6.5220265    800.22549  0.027820383  0.027668795            9 
 2398000   0.85736839   -6.5235872     799.7178  0.027791138  0.027661855           22 
 2399000   0.84851672   -6.4901484    801.93947  0.027856728  0.027654958            7 
 2400000   0.85857768   -6.5167755    801.66664  0.027835647  0.027648071            6 
 2401000   0.85380146   -6.5157155    803.73387  0.027895803   0.02764115           10 
 2402000   0.85923944   -6.5353382    802.59528  0.027844688  0.027634261            8 
 2403000   0.86464543   -6.5337824    804.20261  0.027888841   0.02762733           25 
 2404000   0.84245036    -6.516687     805.2668  0.027914129  0.027620422           25 
 2405000   0.85209537   -6.4968992    803.34578  0.027835959  0.027613533           31 
 2406000   0.86889031   -6.4993948    802.00743  0.027778035  0.027606683           17 
 2407000   0.86930431   -6.5087122    802.71998  0.027791164  0.027599847           15 
 2408000   0.86025119   -6.4962544    805.20064  0.027865471  0.027593025            9 
 2409000   0.86061347   -6.5392613    803.53367  0.027796239   0.02758619           37 
 2410000   0.87281282   -6.4940863    803.54839  0.027785214  0.027579342            7 
 2411000   0.84977663   -6.5521513    805.25929  0.027832825  0.027572447           14 
 2412000   0.85708687   -6.5218057     803.9179  0.027774941  0.027565522           13 
 2413000   0.85410427   -6.5422596    804.26805  0.027775523    0.0275586            7 
 2414000   0.88691355    -6.506927    803.34922  0.027732298  0.027551608           40 
 2415000   0.87647092   -6.5495297    802.80736  0.027702117  0.027544649           10 
 2416000   0.86154336   -6.5156119    804.15672  0.027737194  0.027537655           25 
 2417000   0.85676689   -6.5194399      804.374  0.027733209  0.027530695           10 
 2418000   0.88210377   -6.5144508     802.8585   0.02766951  0.027523759            7 
 2419000   0.86344614   -6.5251793     804.9315  0.027729485  0.027516788            8 
 2420000   0.86843411   -6.5264129    804.62979  0.027707637  0.027509843           31 
 2421000   0.85329995   -6.5030513    804.30097  0.027684874  0.027502877           11 
 2422000   0.87870083   -6.4938408    805.30858  0.027708112  0.027495962           13 
 2423000   0.85895775   -6.4978025    803.16745  0.027623038  0.027489056           10 
 2424000   0.86470188   -6.5087436    803.83308  0.027634526  0.027482119           15 
 2425000   0.85565687   -6.5203691     804.3984  0.027642557  0.027475143            7 
 2426000   0.86258065   -6.5379803    803.52461  0.027601148  0.027468114           17 
 2427000   0.85401242   -6.5331312    803.45601   0.02758742  0.027461139            8 
 2428000   0.85514802   -6.5483205    803.82128  0.027588594  0.027454123            7 
 2429000   0.86392535   -6.5421054    805.28013  0.027627286  0.027447061           12 
 2430000   0.86522331   -6.5377427    803.36023  0.027550077  0.027440093           18 
 2431000   0.85335723   -6.5113083    804.70087    0.0275847  0.027433091           10 
 2432000   0.86900654   -6.5470286    803.60997  0.027535977   0.02742604           10 
 2433000   0.87034559   -6.5335197    806.19484  0.027613195  0.027419028           13 
 2434000   0.88374606   -6.4984928    806.57401  0.027614832  0.027412024           17 
 2435000   0.85552652   -6.5478215    806.62363  0.027605189  0.027405032           29 
 2436000   0.86623426   -6.5284775     807.0052   0.02760691   0.02739807           11 
 2437000   0.87417764   -6.5195016    808.61325  0.027650569  0.027391049           11 
 2438000   0.85782553   -6.5095266    807.14196  0.027588938  0.027384077           19 
 2439000   0.88070133   -6.5141621    806.45446  0.027554136  0.027377115           11 
 2440000   0.86131549   -6.5280813      807.639  0.027583299  0.027370172           22 
 2441000   0.86425154   -6.5230426    807.46696  0.027566126  0.027363241            8 
 2442000   0.85498022    -6.500836    806.85711  0.027534026  0.027356353            6 
 2443000   0.85134374   -6.5161179    808.19547  0.027568409  0.027349473            8 
 2444000   0.85322927   -6.5330038    807.69622  0.027540106  0.027342574           13 
 2445000   0.86304975   -6.5144142    806.83217  0.027499392  0.027335633           10 
 2446000   0.87103103   -6.5243337    806.72665  0.027484555  0.027328644           12 
 2447000   0.85407825   -6.5518127    807.44633  0.027497832  0.027321651           21 
 2448000   0.85151384    -6.527189    807.65445  0.027493683  0.027314678           12 
 2449000   0.84819935   -6.5452364    808.71851  0.027518664  0.027307741           10 
 2450000    0.8563281   -6.5356503    808.18435  0.027489264  0.027300789           24 
 2451000   0.86095953   -6.5257913    807.56174   0.02745688  0.027293854            8 
 2452000    0.8797173   -6.5405669    808.44429  0.027475676  0.027286948           13 
 2453000   0.86390282   -6.5114681     808.6544  0.027471613  0.027279965           16 
 2454000   0.87656962   -6.5314427     806.3192  0.027381119  0.027272986           12 
 2455000   0.86447777   -6.5589027    807.02835  0.027394038  0.027266004           20 
 2456000   0.85148441   -6.5226932    808.31879  0.027426669  0.027259028            8 
 2457000   0.85953232   -6.5383106    808.72376  0.027429241  0.027252118            8 
 2458000    0.8571096   -6.5365725    808.76925  0.027419625  0.027245177           11 
 2459000   0.86134139   -6.5261993    810.21429  0.027457445  0.027238179            8 
 2460000   0.86693263   -6.5327275    809.91842  0.027436261  0.027231277            9 
 2461000   0.85647824   -6.5231998     808.4916  0.027376798  0.027224411           15 
 2462000   0.86503006   -6.5119744    810.33489   0.02742807  0.027217516           15 
 2463000   0.85019651   -6.5272502    808.45498  0.027353329  0.027210589            9 
 2464000    0.8514886   -6.5166264    810.97742  0.027427537  0.027203621           11 
 2465000   0.87257664   -6.5295444    808.52307  0.027333437  0.027196687           11 
 2466000   0.84207492   -6.5345821    809.17418  0.027344356  0.027189698           22 
 2467000   0.87041664   -6.5194805    810.62876  0.027382406  0.027182697           47 
 2468000   0.85636707   -6.5433862    807.51796  0.027266274   0.02717571            7 
 2469000   0.88391997   -6.5212102    808.97213  0.027304311  0.027168744           11 
 2470000   0.85661476   -6.5470774    810.88469  0.027357783  0.027161741           13 
 2471000   0.86269846   -6.5239915    811.00709  0.027350839  0.027154757            9 
 2472000   0.84151426    -6.541404    812.50434  0.027390249  0.027147766           14 
 2473000   0.84311376   -6.5013883     812.6223  0.027383148  0.027140866            8 
 2474000     0.859007   -6.5206755    811.36606  0.027329765  0.027133963            8 
 2475000   0.84682349   -6.5384098     809.1979  0.027245721  0.027127045           10 
 2476000   0.87387573   -6.5792072    810.11876  0.027265709  0.027120025           10 
 2477000   0.85775913   -6.5479381    811.66425  0.027306697  0.027112999           15 
 2478000   0.85595971   -6.5386078    810.38163  0.027252543   0.02710601            7 
 2479000   0.84422813   -6.5295553    810.97677  0.027261556  0.027099057           11 
 2480000   0.85746006   -6.5076131    812.47556  0.027300926  0.027092125            6 
 2481000   0.85373804   -6.5368184    812.25739  0.027282594   0.02708528           23 
 2482000   0.85382034   -6.4970268    811.77604   0.02725544  0.027078365           10 
 2483000   0.84217263   -6.5211239    812.66844  0.027274414  0.027071455            5 
 2484000   0.84378611   -6.5306533    812.57223  0.027260206  0.027064561           11 
 2485000   0.85314813    -6.540867    813.27286  0.027272732  0.027057658           10 
 2486000   0.84702087    -6.545488     812.2169  0.027226364   0.02705073            7 
 2487000   0.86047252   -6.5392293    812.61629    0.0272288  0.027043807           14 
 2488000   0.84643565   -6.5426512     814.4331  0.027278708  0.027036913           10 
 2489000   0.85922201   -6.5211729    813.03434  0.027220917      0.02703           22 
 2490000   0.83822062    -6.534659    812.70661  0.027199016  0.027023073           14 
 2491000   0.81300489   -6.5204602    813.55333  0.027216424  0.027016155           22 
 2492000   0.84424484   -6.5507894    813.69876  0.027210365  0.027009253            7 
 2493000   0.86732075   -6.5644057    812.26168  0.027151413  0.027002256           20 
 2494000   0.83488586   -6.5506578    813.29845  0.027175169  0.026995283           23 
 2495000   0.85734676   -6.5274073    815.38867   0.02723409   0.02698834           13 
 2496000   0.84908778   -6.5196024    814.98648  0.027209752  0.026981392           19 
 2497000   0.86038504   -6.5733361    811.52827  0.027083442  0.026974446           21 
 2498000   0.84981934   -6.5262703    812.75153  0.027113409  0.026967483           14 
 2499000   0.84652663   -6.5475354    813.02218  0.027111584  0.026960512           10 
 2500000   0.86122817   -6.5457083    813.63343  0.027121114  0.026953418           20 
 2501000   0.84859273   -6.5670218    814.45166  0.027137534  0.026946372           10 
 2502000    0.8403951   -6.5490414    812.88368  0.027074463  0.026939389           11 
 2503000   0.87365958   -6.5329855    813.38219  0.027080243  0.026932404           10 
 2504000   0.83341505   -6.5353413    815.15146   0.02712831   0.02692542           16 
 2505000   0.84392393     -6.52585    813.45416  0.027061017  0.026918461           14 
 2506000   0.84705234   -6.5444163     815.6638  0.027123696  0.026911546            8 
 2507000   0.85128911   -6.5317313    815.24813   0.02709906  0.026904649            5 
 2508000   0.86086227   -6.5324595    813.72851  0.027037763  0.026897691            7 
 2509000   0.84040202   -6.5510124    811.36764  0.026948573  0.026890718           10 
 2510000   0.85131868   -6.5706206    814.20005  0.027031874  0.026883704           10 
 2511000    0.8544726   -6.5694541    814.62416  0.027035184  0.026876628           54 
 2512000   0.84865486   -6.5404604    812.62301  0.026958035  0.026869613           27 
 2513000   0.84955216   -6.5512429    818.05665  0.027127492  0.026862651           40 
 2514000   0.83776476   -6.5427286    815.21515  0.027022512  0.026855695           17 
 2515000   0.84235987    -6.571593    815.21225  0.027011672  0.026848721           21 
 2516000   0.84948603   -6.5511253    815.27301  0.027002948  0.026841715           33 
 2517000   0.84569936   -6.5681386    814.04522   0.02695157  0.026834667           19 
 2518000   0.85273629   -6.5753974    812.88567  0.026902491  0.026827627           39 
 2519000   0.84307486   -6.5464363    814.98001  0.026961096  0.026820583           12 
 2520000   0.80983996   -6.5494478    817.31681  0.027027672  0.026813604           17 
 2521000   0.84013437   -6.5572341    816.33527  0.026984506  0.026806602           16 
 2522000   0.84563327   -6.5708207      815.574  0.026948652  0.026799611           12 
 2523000   0.87736223   -6.5861556    815.17106  0.026924662  0.026792601           21 
 2524000   0.83234012   -6.5517188    817.09368  0.026977472  0.026785658           11 
 2525000   0.83902726   -6.5466425    816.12703  0.026934886  0.026778695           12 
 2526000   0.82549701   -6.5999069    817.16878   0.02695859  0.026771691           12 
 2527000   0.85456725   -6.5560015    817.01141  0.026942732  0.026764793            8 
 2528000   0.86766372   -6.5505085    816.76067  0.026923809   0.02675785           37 
 2529000   0.84704308   -6.5580706    817.36659  0.026933129  0.026750919           21 
 2530000   0.86508574   -6.5409097    817.60116  0.026930209  0.026744003           11 
 2531000   0.85404935   -6.5409393    817.93905  0.026930694  0.026737039           26 
 2532000    0.8677379   -6.5609623    816.37979   0.02686874  0.026730137           23 
 2533000   0.83815978   -6.5659317    816.12741  0.026849829    0.0267232           31 
 2534000   0.85196662   -6.5512249    818.27779  0.026909951  0.026716244           44 
 2535000   0.87122646   -6.5570817    819.19153  0.026929373  0.026709308            9 
 2536000   0.83016204   -6.5522995    818.82361  0.026906664  0.026702324           52 
 2537000   0.85094713   -6.5791546    818.12589  0.026873141  0.026695287           26 
 2538000   0.84602718   -6.5909581    817.54421  0.026843453  0.026688239           27 
 2539000   0.85410269   -6.5530421    818.89258  0.026877136  0.026681212            7 
 2540000   0.84239842   -6.5461392    817.25126  0.026812706  0.026674203            6 
 2541000   0.83757607   -6.5442461    818.03886  0.026827983   0.02666719           23 
 2542000   0.85039526   -6.5630456    817.26329  0.026792004  0.026660113            8 
 2543000   0.84650896   -6.5669945    819.79577  0.026864457  0.026653127           12 
 2544000   0.84212418   -6.5596092    817.47902  0.026778008  0.026646125           12 
 2545000   0.81472914   -6.5522114    815.95514  0.026717588  0.026639077           16 
 2546000   0.85026986   -6.5453051    818.94382  0.026804917  0.026632084           17 
 2547000   0.84918088   -6.5849522    819.32415  0.026806836  0.026625093            8 
 2548000   0.84935747   -6.5738247    816.58081  0.026706594  0.026618072           12 
 2549000   0.84777023   -6.5781819    819.47528  0.026790744  0.026611101           12 
 2550000   0.84164555   -6.5619383    817.19156  0.026705606  0.026604086           18 
 2551000     0.840399   -6.5737068    818.50262  0.026737966  0.026597078            7 
 2552000   0.83869118   -6.5595086    820.26022  0.026784882  0.026590062            7 
 2553000   0.84367936    -6.556462    819.12991  0.026737495   0.02658308           23 
 2554000   0.85476016   -6.5630718    818.56424   0.02670857  0.026576107           29 
 2555000   0.83978586   -6.5474633    820.72629  0.026768633   0.02656921           21 
 2556000   0.84533163   -6.5535716    821.44106  0.026781464  0.026562291           31 
 2557000   0.85304364   -6.5558071    820.63112  0.026744594  0.026555377           23 
 2558000   0.82811611   -6.5450089    819.02622  0.026681855   0.02654845           12 
 2559000   0.84957826    -6.556822    820.62547  0.026723508  0.026541497           11 
 2560000   0.84126885   -6.5462402    820.25259  0.026700931  0.026534496           23 
 2561000   0.82498226   -6.5667527    820.19234  0.026688544  0.026527491            7 
 2562000   0.83853287   -6.5860323    820.34551  0.026683109  0.026520526           10 
 2563000   0.84448333   -6.5611377    822.45658  0.026741337  0.026513591           17 
 2564000   0.84864821   -6.5666119    820.58324  0.026670022  0.026506638           12 
 2565000   0.83344351   -6.5936957    819.32034  0.026618595  0.026499668           17 
 2566000   0.84451628   -6.5764528    820.00761  0.026630541  0.026492693           27 
 2567000   0.86017661   -6.5632644    820.39866  0.026632861  0.026485681            9 
 2568000   0.84572714   -6.5779875    821.72804   0.02666563  0.026478716           10 
 2569000    0.8348078   -6.5471393    821.22657  0.026638983   0.02647176           15 
 2570000   0.84176118   -6.5711645    821.47552   0.02663669  0.026464814           28 
 2571000   0.84596983   -6.5540454    821.43412  0.026624988  0.026457856           22 
 2572000   0.84004264   -6.6018325    821.40789  0.026613786  0.026450924           13 
 2573000   0.83809487   -6.5958304    823.10772  0.026658496  0.026443981           24 
 2574000   0.85056893   -6.5627315     824.2169  0.026684049  0.026437041           16 
 2575000   0.83180701   -6.5653591    822.08644  0.026604739  0.026430106            7 
 2576000   0.83763105   -6.5879131    820.67731  0.026548826   0.02642313           12 
 2577000   0.83760203   -6.5489409    823.43164  0.026627591  0.026416187           12 
 2578000   0.84835206   -6.5827594    823.62838  0.026623622  0.026409248           16 
 2579000   0.84441587   -6.6064174    821.96629  0.026559593  0.026402254           29 
 2580000   0.83060096   -6.5655451    821.10331  0.026521425  0.026395273           14 
 2581000   0.82950818   -6.5826533    822.02908   0.02654104  0.026388346            8 
 2582000   0.84696798   -6.5764116    822.32893  0.026540438   0.02638139           19 
 2583000   0.85119958   -6.5827322    822.70628  0.026542337  0.026374402           24 
 2584000   0.84055213   -6.5738378    824.40716  0.026586918   0.02636745           36 
 2585000   0.83662918   -6.5890686    821.62132  0.026486825  0.026360529           13 
 2586000   0.83278447   -6.5779339    821.77242  0.026481452  0.026353526           12 
 2587000   0.85941903   -6.5573009    823.57402  0.026529249  0.026346561            9 
 2588000   0.84395028   -6.5533715    823.58141  0.026519237   0.02633963           26 
 2589000   0.83532664   -6.5581065    821.64626  0.026446706  0.026332702           17 
 2590000   0.84491812   -6.5542823    824.56953  0.026530551  0.026325725           17 
 2591000   0.83881751   -6.5768222    824.90379  0.026531062  0.026318769           37 
 2592000   0.83803871    -6.576432    823.30898  0.026469553  0.026311755           17 
 2593000   0.86063277   -6.5505813    820.62728  0.026373161  0.026304716           22 
 2594000   0.82768729   -6.5751461     822.2856  0.026416268  0.026297716           16 
 2595000   0.83607931   -6.6077633     823.7023  0.026451583  0.026290734           10 
 2596000   0.82691036   -6.5739699    824.24105  0.026458688  0.026283767           14 
 2597000   0.83126218   -6.5727234    822.49795  0.026392567  0.026276735           32 
 2598000   0.85354022   -6.5904293    824.44947  0.026445005  0.026269722           26 
 2599000   0.83820283    -6.593162    823.89369   0.02641701  0.026262732           49 
 2600000   0.83661462   -6.6124077    824.13935  0.026414723  0.026255747           40 
 2601000    0.8339778   -6.5894629    822.71597  0.026358964   0.02624872           20 
 2602000   0.82390407   -6.5832581    824.90714  0.026419009  0.026241717           17 
 2603000   0.84118866   -6.5675385    824.14061   0.02638432  0.026234706           19 
 2604000   0.83502577   -6.5796492    825.05901  0.026403578  0.026227774            8 
 2605000   0.83721867   -6.5722678    824.53926  0.026376816  0.026220848            7 
 2606000   0.85076274   -6.5654023    823.28035  0.026326437  0.026213916           13 
 2607000   0.83427972   -6.5676103    823.61148  0.026326924  0.026207006           14 
 2608000   0.83228554   -6.5875189    823.32873  0.026307794  0.026200082            8 
 2609000   0.83743186   -6.5846976    827.28519  0.026424083  0.026193186           16 
 2610000   0.83949697   -6.6126572    825.98493  0.026372444  0.026186213            6 
 2611000   0.84136405   -6.5969809    826.39855  0.026375544  0.026179235           14 
 2612000   0.83242242   -6.5960046    825.44861  0.026335139  0.026172279           12 
 2613000   0.86065495   -6.5716956    827.77223  0.026399166  0.026165347           20 
 2614000   0.82470804   -6.5591769    825.68097  0.026322398  0.026158456           34 
 2615000   0.82580273   -6.6146484    825.20197  0.026297067  0.026151538           11 
 2616000   0.84206122   -6.5820988    825.63102  0.026300682  0.026144591           17 
 2617000   0.83628017   -6.5341898    827.40974  0.026347272  0.026137676            8 
 2618000   0.82031153    -6.571899    826.34882  0.026303438  0.026130725           12 
 2619000   0.83074402   -6.5764252    825.93461  0.026280215  0.026123747           26 
 2620000   0.83676065   -6.6184189    827.01295  0.026304483   0.02611675            8 
 2621000   0.83567402   -6.5850428    825.09686  0.026233526  0.026109733            9 
 2622000   0.83542786   -6.5351624    826.17732   0.02625786  0.026102725            7 
 2623000   0.83714382    -6.583652    825.42516  0.026223953   0.02609572            9 
 2624000   0.81278393    -6.616881    825.07254  0.026202761  0.026088742           13 
 2625000   0.83525534     -6.58622    823.98104  0.026158128  0.026081718           13 
 2626000   0.84637856   -6.5994015    827.61255  0.026263409  0.026074698           17 
 2627000   0.84563542   -6.5854516    826.91814  0.026231384  0.026067742            6 
 2628000   0.83502649     -6.59506    828.16844  0.026261049  0.026060805           14 
 2629000   0.84002034   -6.5812475    828.15266   0.02625056  0.026053854           15 
 2630000   0.83309498   -6.6142765    827.14828  0.026208754   0.02604689           23 
 2631000   0.80778977   -6.5895158    827.32522  0.026204397  0.026039882           13 
 2632000   0.81683293   -6.5956615    828.33748  0.026226491  0.026032911           18 
 2633000   0.83450555   -6.5709841    828.92709  0.026235191  0.026025972           13 
 2634000   0.82266731   -6.5892554    827.27846  0.026173072  0.026019021           16 
 2635000   0.83809671   -6.5826645     827.8062  0.026179829  0.026012056           18 
 2636000   0.83233173   -6.5886251    824.87561  0.026077251  0.026005106           12 
 2637000   0.82286201   -6.5814958    826.49506  0.026118539  0.025998154           15 
 2638000   0.82603351   -6.5864844    828.10193  0.026159399   0.02599116           10 
 2639000    0.8269423   -6.5621101    827.50133  0.026130521  0.025984197           20 
 2640000   0.81963809   -6.6018533    830.12519  0.026203447  0.025977233           15 
 2641000   0.83759807   -6.5586436    829.61556  0.026177444  0.025970312            8 
 2642000   0.83920527   -6.5929448     827.1922  0.026091099  0.025963377           35 
 2643000   0.83095742   -6.5775181    828.95132  0.026136692  0.025956447           22 
 2644000   0.84301066      -6.6009    828.99784  0.026128273  0.025949494           14 
 2645000   0.82176833   -6.5969366    828.17035  0.026092323  0.025942525           15 
 2646000   0.81776219   -6.6092394     828.4332  0.026090741  0.025935571           12 
 2647000   0.83281801   -6.5996206     829.2645  0.026107055  0.025928574           10 
 2648000   0.82185952   -6.5916934    827.77307   0.02605026   0.02592164            5 
 2649000   0.83444586   -6.5851184    829.57207   0.02609702  0.025914757           13 
 2650000   0.81417179   -6.6077432    830.69105   0.02612236   0.02590785            8 
 2651000   0.83775897   -6.5882889    829.87821  0.026086955  0.025900945           12 
 2652000   0.83906528   -6.5945731    831.36097  0.026123711  0.025894015           20 
 2653000   0.81803092   -6.6029161    830.02904  0.026072027  0.025887067           39 
 2654000    0.8237102   -6.6053046    830.75099  0.026084872  0.025880108            9 
 2655000    0.8139989    -6.583286    830.97588  0.026082105  0.025873184           10 
 2656000    0.8275294   -6.6081864    829.19856  0.026016521  0.025866237           15 
 2657000   0.81610629   -6.5931317    830.58716  0.026050281  0.025859293           15 
 2658000   0.81413638   -6.5963348    831.18217  0.026059135  0.025852384           13 
 2659000   0.82633653   -6.5888537    831.52272  0.026060008   0.02584546           26 
 2660000   0.82811256   -6.6042856    830.23708  0.026009934  0.025838533           28 
 2661000   0.82956329    -6.633403    826.90765  0.025895893  0.025831556           61 
 2662000   0.82559474    -6.626376    830.57055  0.026000831  0.025824563           27 
 2663000   0.83755061   -6.6167845    829.74935  0.025965369  0.025817616           14 
 2664000    0.8431787   -6.6046611    831.57005  0.026012577   0.02581065           16 
 2665000   0.81954746   -6.5990169    830.16487  0.025958876  0.025803695           24 
 2666000   0.81759672   -6.6231062    829.54962  0.025929908  0.025796678           24 
 2667000   0.81852903   -6.5971173    831.20351  0.025971863  0.025789674           22 
 2668000   0.82570354   -6.6024212    831.45963  0.025970128  0.025782711           16 
 2669000   0.84033842   -6.5742532    830.11897  0.025918539  0.025775762           29 
 2670000   0.82279816     -6.60489    832.75669  0.025991158  0.025768815            8 
 2671000    0.8155273   -6.6127198    832.68009  0.025979037  0.025761895           20 
 2672000      0.83131   -6.6030732    832.43518  0.025961676   0.02575498           14 
 2673000   0.82004012   -6.5836162    830.84047  0.025902247  0.025748038           19 
 2674000   0.83493681   -6.6059471    831.07683  0.025899926  0.025741127           25 
 2675000    0.8352866   -6.5778055    833.30194  0.025959562   0.02573423           25 
 2676000   0.83002918   -6.6011286    832.96104  0.025939245  0.025727349           26 
 2677000   0.83215615   -6.5810374    832.60248  0.025918394  0.025720483           15 
 2678000   0.82694693   -6.6005457     833.5627  0.025938595  0.025713567           29 
 2679000   0.80239483   -6.6045342    833.89346  0.025939202  0.025706666            8 
 2680000   0.82896631   -6.6152091    831.70907  0.025861601   0.02569971            8 
 2681000   0.81617388   -6.6087397    832.72657  0.025883581  0.025692742           25 
 2682000   0.81380609   -6.5836434    832.26714  0.025859655  0.025685798            9 
 2683000   0.82208041   -6.5793361    832.34482  0.025852429  0.025678876           25 
 2684000   0.83220282   -6.5960901     834.0646  0.025896194  0.025671963           15 
 2685000    0.8282349   -6.6061595    831.93058  0.025820316  0.025665012           11 
 2686000   0.82595783    -6.599325    830.13948  0.025755134  0.025658036           18 
 2687000   0.82838689   -6.6161205    830.87015  0.025768209  0.025650998           11 
 2688000     0.821364    -6.624386    831.32699  0.025772786  0.025643926            6 
 2689000   0.81317736   -6.6139912     833.1923  0.025821008  0.025636924            8 
 2690000   0.80854753   -6.6037166    832.35789   0.02578556  0.025629912            9 
 2691000   0.83387262   -6.6383846    830.75049  0.025726201  0.025622926           14 
 2692000    0.8140331   -6.5834905    832.76452  0.025778991  0.025615931           24 
 2693000   0.81879265   -6.5706276    834.20175  0.025813892  0.025608998           18 
 2694000   0.81587788   -6.5857783    833.64694  0.025787148  0.025602033            9 
 2695000   0.82194019   -6.6091574    835.77861  0.025843494  0.025595093           14 
 2696000   0.81454173   -6.6011489    834.20158  0.025785163  0.025588165           12 
 2697000   0.81174155   -6.6052185    833.93299  0.025767303   0.02558126           11 
 2698000   0.82733917   -6.6151663    834.83904  0.025785737  0.025574328           39 
 2699000   0.84696944   -6.6065802    833.85331  0.025745749  0.025567398           13 
 2700000   0.81649439   -6.6128428    834.35793  0.025751788  0.025560438           15 
 2701000   0.82102623   -6.6585335    832.20493  0.025675828  0.025553469           15 
 2702000   0.82143817   -6.5996849    833.40005  0.025703184  0.025546487           15 
 2703000   0.80872251   -6.6158292    833.30314  0.025690687  0.025539539           16 
 2704000    0.8315097   -6.6545936    834.40335  0.025715094  0.025532581           13 
 2705000   0.82627635   -6.6150373    834.58387  0.025711148  0.025525668           12 
 2706000   0.80142026   -6.6296839    833.51709  0.025668794  0.025518739           15 
 2707000   0.82331915   -6.6116508    835.90759  0.025732902  0.025511784           20 
 2708000   0.80771103   -6.6248765    833.18007  0.025639466  0.025504818           42 
 2709000   0.81170465   -6.6097661    833.54166  0.025641124  0.025497859           15 
 2710000   0.82041114   -6.6045812    835.42153  0.025689469  0.025490922           15 
 2711000   0.81108738    -6.607308    833.89049   0.02563293  0.025483996           15 
 2712000   0.81243241   -6.6074186    834.49855  0.025642163   0.02547705           10 
 2713000     0.818772    -6.601325    835.69331   0.02566941  0.025470119           16 
 2714000   0.83181192   -6.6272648    833.90861  0.025605153  0.025463196           13 
 2715000   0.82003111   -6.5902489    834.49118  0.025613603  0.025456298           16 
 2716000   0.80690152   -6.6151053    833.67657  0.025579178  0.025449337           20 
 2717000   0.81883149   -6.6201188    832.16555  0.025523419  0.025442351           20 
 2718000   0.80715192    -6.617476    834.57088  0.025587775  0.025435341           36 
 2719000   0.81643649   -6.6327123    834.80739  0.025585613  0.025428292           42 
 2720000   0.81513658   -6.6381214    834.07429  0.025553747   0.02542125           18 
 2721000   0.81979081   -6.6222002    833.84558  0.025537351  0.025414229           33 
 2722000   0.81174829   -6.6365034    833.26324  0.025510141  0.025407194           36 
 2723000   0.81940626   -6.6322852    835.34291  0.025564418  0.025400168           18 
 2724000   0.81736245   -6.6090624    834.67592  0.025534628  0.025393155           14 
 2725000   0.80879047   -6.6048351    835.35261  0.025545951  0.025386148           42 
 2726000   0.83964639   -6.6063696    835.80301  0.025550349  0.025379138           19 
 2727000    0.8130643   -6.6414276    832.12681   0.02542864  0.025372132           19 
 2728000     0.802959   -6.6417662     833.8218  0.025471096  0.025365077           20 
 2729000   0.81670404    -6.637623      834.366   0.02547838  0.025358009           18 
 2730000   0.80176014   -6.6213388     835.5865  0.025506304  0.025350955           12 
 2731000   0.81462519   -6.5969867    835.64506  0.025498751  0.025343892           13 
 2732000   0.81236283   -6.6269696    834.71828  0.025461148  0.025336837           11 
 2733000   0.81232475   -6.6229958    836.01314  0.025491314  0.025329789           10 
 2734000   0.81307875   -6.6219946    833.59571  0.025408306  0.025322723           10 
 2735000   0.83118216   -6.6206956     835.3678   0.02545301   0.02531565           14 
 2736000   0.80910214   -6.6310114    834.11786  0.025405637   0.02530857           18 
 2737000   0.82000996   -6.6434225    834.40683  0.025405153  0.025301466           27 
 2738000   0.81865598   -6.6197715    834.45401   0.02539731  0.025294399           15 
 2739000   0.80235328   -6.5868086     835.9607  0.025433878  0.025287325           12 
 2740000   0.79769501   -6.6001594    835.32616  0.025405297  0.025280316           17 
 2741000    0.8012756   -6.5872931    834.69464  0.025376828  0.025273246           11 
 2742000   0.81446647   -6.6428966    834.54841  0.025363129   0.02526616           21 
 2743000   0.81995435   -6.6367124    835.93525  0.025396016  0.025259071           14 
 2744000   0.80836923   -6.6212662    835.31161  0.025367821  0.025251989           30 
 2745000   0.81764845   -6.6237354    836.13599  0.025383606  0.025244923           25 
 2746000   0.80569217   -6.6318242    834.96233  0.025338745  0.025237862           39 
 2747000   0.79953644   -6.6207571    835.46404  0.025344741  0.025230765           11 
 2748000   0.81014698   -6.6534348    834.95681  0.025320136  0.025223639           25 
 2749000   0.82432253    -6.604456    836.03592  0.025343638  0.025216546           19 
 2750000   0.82032042   -6.6435062    836.82533  0.025358343  0.025209485           47 
 2751000   0.80409337   -6.6140651     836.2175  0.025330713  0.025202372           44 
 2752000   0.80851961   -6.6448564     835.1035  0.025287776  0.025195276           44 
 2753000   0.80550752   -6.6388212    836.44862  0.025319307  0.025188174           55 
 2754000    0.8230792   -6.6193435    837.10361  0.025329932  0.025181061           33 
 2755000   0.80936543   -6.6487827    838.34138  0.025358178  0.025173942           14 
 2756000   0.80746625   -6.6252552    835.04344  0.025249257  0.025166875           18 
 2757000   0.80674371     -6.64183    836.90883  0.025296483  0.025159811           18 
 2758000   0.78653818   -6.6685442    835.92091   0.02525746  0.025152709           48 
 2759000   0.78540411   -6.6440435    836.21191  0.025257095  0.025145663           16 
 2760000    0.8024768   -6.6192435    835.69669  0.025232388  0.025138614           14 
 2761000   0.83415996   -6.6244816    835.60828  0.025220581  0.025131573            6 
 2762000   0.80700741   -6.6281828    839.53728  0.025329993   0.02512457           25 
 2763000   0.80680746   -6.5967421    837.87708  0.025270753  0.025117585           15 
 2764000    0.8070632   -6.6119541    839.32208  0.025305176  0.025110596           11 
 2765000   0.82210157   -6.6376251    835.93759   0.02519402  0.025103595           12 
 2766000   0.82597707   -6.6323226    837.12722  0.025220752  0.025096612           13 
 2767000   0.82231245   -6.6459251    839.26978  0.025276165  0.025089616            8 
 2768000   0.84222478   -6.6300293    836.97125  0.025197834  0.025082662           18 
 2769000   0.81001847   -6.6384101    838.61897  0.025238322  0.025075683           40 
 2770000   0.80536993   -6.6277725    838.41289  0.025223011  0.025068732           18 
 2771000   0.79822112   -6.6775423     840.5057  0.025276846  0.025061804           26 
 2772000   0.83420596   -6.5979625    838.25638  0.025200107  0.025054842           15 
 2773000   0.78948309   -6.6192081    839.96879  0.025242481  0.025047901           16 
 2774000   0.78682866   -6.6287701    840.47254  0.025248514  0.025040993           30 
 2775000   0.79884017   -6.6205245    839.84548  0.025220585  0.025034054           22 
 2776000   0.80238558   -6.6431814    838.85821  0.025181863  0.025027148            8 
 2777000   0.80315299   -6.6317806    839.45366  0.025190663  0.025020286           12 
 2778000   0.82683318   -6.6272326    840.64234  0.025217253  0.025013422           41 
 2779000   0.81750214   -6.6546684    840.07926  0.025191294  0.025006519           21 
 2780000   0.80558386   -6.6065123    840.09172  0.025182605  0.024999627           13 
 2781000   0.81726935   -6.6223512    843.16976  0.025265784  0.024992783           11 
 2782000   0.78545429   -6.5888642    840.06312  0.025163645  0.024985938           14 
 2783000   0.80884644   -6.6275535    841.98898   0.02521227  0.024979103           15 
 2784000   0.80809692   -6.6572416    841.77397  0.025196778  0.024972277           25 
 2785000   0.81337086   -6.6353284    839.79416  0.025128491  0.024965418           17 
 2786000   0.79455995    -6.665588    838.91001  0.025093025  0.024958501           14 
 2787000   0.81188434   -6.6501581    841.17465  0.025151736  0.024951575           54 
 2788000   0.79785523   -6.6531192    840.55263  0.025124122  0.024944664           13 
 2789000   0.79465344   -6.6370472    841.81857  0.025152939  0.024937778           22 
 2790000   0.81857079   -6.6172483     842.6462  0.025168644   0.02493093           13 
 2791000   0.80162802   -6.6667783    841.01514  0.025110926  0.024924092           25 
 2792000   0.81137753   -6.6422479    843.64316  0.025180371  0.024917243           27 
 2793000   0.79756809   -6.6279341      841.834  0.025117377  0.024910397           69 
 2794000   0.80058976   -6.5944094    843.56489  0.025160012  0.024903586           20 
 2795000   0.79799801   -6.6309918    843.81641  0.025158509  0.024896786            9 
 2796000   0.83315478   -6.6247353    843.82226  0.025149686  0.024890013           27 
 2797000   0.81688428    -6.636436     844.6889  0.025166515  0.024883249           25 
 2798000   0.78281428   -6.6428277    843.97321  0.025136205  0.024876418           18 
 2799000   0.79739789   -6.6418201    843.95558  0.025126699  0.024869602           33 
 2800000   0.80866621   -6.6241388    844.24002  0.025126191  0.024862774           63 
 2801000   0.81082616   -6.6706084    842.98019  0.025079739  0.024855922           38 
 2802000    0.8099475   -6.6225158    842.12072  0.025045227  0.024849055           25 
 2803000    0.8258035   -6.6212203    845.14284   0.02512614  0.024842231           19 
 2804000   0.79207381   -6.6767013    842.37563  0.025034939   0.02483543           23 
 2805000   0.80756283   -6.6112915    842.40739  0.025026958  0.024828585           21 
 2806000   0.80434755   -6.6222863    845.25708  0.025102669  0.024821773           15 
 2807000   0.80820372   -6.6144346    845.70671  0.025107075  0.024814988           25 
 2808000   0.77928047   -6.6115064    843.31084  0.025027031    0.0248082           21 
 2809000   0.79278636   -6.6166519    843.24146  0.025016063  0.024801429           21 
 2810000   0.80011714   -6.6291272    844.78097  0.025052816  0.024794632           10 
 2811000   0.79338097   -6.6449807    845.39012  0.025061962  0.024787851           13 
 2812000   0.79592109   -6.6391749    844.86601  0.025037518  0.024781067           18 
 2813000   0.78920111   -6.6650933    845.25615  0.025040175   0.02477429           17 
 2814000   0.81123347   -6.6448626    845.64478  0.025042785  0.024767505           15 
 2815000   0.80109741   -6.6467547    846.19965  0.025050315  0.024760747           13 
 2816000     0.802719   -6.6652833    844.48736  0.024990748  0.024753964           14 
 2817000   0.80883273   -6.6462409    844.29703  0.024976246  0.024747178           31 
 2818000   0.80211627   -6.6471689    843.78402  0.024952212  0.024740379           35 
 2819000   0.79664367   -6.6416202     842.9767  0.024919496  0.024733569           82 
 2820000   0.80517603    -6.681009     846.1732  0.025005118  0.024726801           26 
 2821000   0.80797817    -6.661738    844.18117  0.024937409  0.024720004           25 
 2822000   0.81655793   -6.6732481    844.65624  0.024942601  0.024713198           12 
 2823000   0.79691591   -6.6579043    846.82804  0.024997876  0.024706457           25 
 2824000   0.78089869    -6.655002    845.83423  0.024959698   0.02469977           20 
 2825000   0.78570036   -6.6194846    846.30065  0.024964621  0.024693047           32 
 2826000   0.81235462   -6.6227631    845.44257  0.024930484  0.024686329           18 
 2827000   0.81928092    -6.667652    847.14597  0.024971877  0.024679583           13 
 2828000    0.8245962   -6.6251517    845.99608  0.024929163  0.024672828           19 
 2829000   0.79383814   -6.6497198     846.5347  0.024936217  0.024666074           17 
 2830000   0.81095102   -6.6499797    845.56694  0.024898909  0.024659297           24 
 2831000   0.80267201   -6.6543816    846.28592  0.024911278  0.024652535           21 
 2832000   0.78516196    -6.638288    847.21084  0.024929697  0.024645764           20 
 2833000   0.79448166   -6.6199504    847.25894  0.024922313  0.024639039           16 
 2834000   0.77778009   -6.6404869    844.11762  0.024821148  0.024632289           41 
 2835000   0.78090505   -6.6385787    845.78321  0.024861352  0.024625528           32 
 2836000   0.79943722   -6.6283789    847.09523  0.024891139  0.024618794           16 
 2837000   0.81420112   -6.6281636    846.51135  0.024865214  0.024612073           12 
 2838000   0.79692387   -6.6637137    846.94161  0.024869086  0.024605284           24 
 2839000    0.7752448   -6.6540507    843.34626  0.024754792  0.024598485           39 
 2840000   0.79364025   -6.6789956    842.79033  0.024729763  0.024591654           51 
 2841000   0.79694554   -6.6745116    845.55168  0.024802056  0.024584815           26 
 2842000     0.784778   -6.6879228    846.55102  0.024822631  0.024577985           24 
 2843000   0.79224662   -6.6727331     847.3578  0.024837548  0.024571176           28 
 2844000   0.79424484   -6.6406338    846.57129  0.024805769  0.024564377           44 
 2845000   0.81400362   -6.6552267     846.4793  0.024794356  0.024557641           15 
 2846000   0.78480984   -6.6389725    847.19533   0.02480661  0.024550887           11 
 2847000   0.78571873   -6.6659478    848.44181  0.024834381  0.024544137           33 
 2848000   0.80305932   -6.6696781    846.17846  0.024759435  0.024537373           25 
 2849000    0.7836703     -6.65632    848.07068  0.024806092  0.024530623           19 
 2850000    0.8211466   -6.6533433    847.32274  0.024775519  0.024523873            9 
 2851000   0.78503308   -6.6526923    847.66234  0.024776755  0.024517143           20 
 2852000   0.79845952   -6.6336008    848.15307  0.024782406  0.024510414           24 
 2853000   0.80101414   -6.6660884    849.71643  0.024819384  0.024503701           10 
 2854000    0.8015632   -6.6759663    848.11697  0.024763985  0.024496994           27 
 2855000   0.78652995   -6.6602159    848.17349  0.024756961  0.024490294           34 
 2856000   0.79765805   -6.6385853    849.81873  0.024796298  0.024483584           36 
 2857000   0.78737435   -6.6487735     849.2181    0.0247701  0.024476879           68 
 2858000   0.80074981   -6.6653672    847.88616  0.024722596  0.024470144           19 
 2859000    0.7881054   -6.6740406    847.66094  0.024707384  0.024463372           34 
 2860000   0.80764033   -6.6868248    847.69106  0.024699623  0.024456599           41 
 2861000   0.80452047   -6.6524568    845.97061  0.024640878  0.024449848           32 
 2862000   0.77926624   -6.6756384    846.11796  0.024636558   0.02444306           46 
 2863000     0.787494   -6.6743707    848.16038  0.024687402  0.024436289           18 
 2864000    0.7900318   -6.6832581    848.04975  0.024675563  0.024429527           37 
 2865000   0.79393993   -6.6569453    848.79939  0.024688755  0.024422778           20 
 2866000   0.79865444   -6.6444515    848.31519  0.024666062  0.024416057           23 
 2867000   0.77161255   -6.6715209    848.88134  0.024673914  0.024409298           30 
 2868000   0.78271167   -6.6508625    850.55597  0.024713969  0.024402567           31 
 2869000   0.79313436   -6.6508773     850.4406  0.024702004  0.024395864           37 
 2870000   0.80863762   -6.6563404    849.32772  0.024661083  0.024389149           26 
 2871000   0.81116411    -6.657778    849.10683  0.024646082  0.024382436           23 
 2872000   0.79696932   -6.6628113    847.83099  0.024600481  0.024375716           12 
 2873000   0.81208248   -6.6666864    847.70303  0.024588207  0.024368952           32 
 2874000   0.80596671    -6.655785     846.6025  0.024547741  0.024362208           40 
 2875000   0.80505602   -6.6738244     850.3854  0.024648852  0.024355482           25 
 2876000   0.79592189   -6.6604523    849.97518  0.024628395  0.024348749           22 
 2877000   0.77206794   -6.7036131    847.98722  0.024562253  0.024341961           65 
 2878000    0.7835137   -6.6957515    850.11478  0.024615323  0.024335169           54 
 2879000   0.80721878   -6.6922833    849.25693  0.024581942  0.024328398           44 
 2880000   0.80208311   -6.6707298    851.98525  0.024652351  0.024321665           78 
 2881000   0.79875858   -6.6802736     849.9057  0.024583643  0.024314916           30 
 2882000   0.79685227   -6.7050206    848.78753  0.024542781  0.024308203          129 
 2883000   0.80486261   -6.6931367    850.30168  0.024578034  0.024301435           37 
 2884000     0.816194    -6.683684    850.94471  0.024588093  0.024294701           15 
 2885000   0.79147439   -6.6547805    851.36557  0.024591726   0.02428797           18 
 2886000   0.80079125   -6.6753137    852.38326  0.024612591  0.024281264           55 
 2887000   0.78983095   -6.6907516    849.63301   0.02452468   0.02427456           60 
 2888000    0.7853492   -6.6699527    851.05041  0.024557087  0.024267845           33 
 2889000   0.79547729   -6.6714786    851.55335  0.024563094  0.024261147           18 
 2890000    0.7842878   -6.6854755     849.7508  0.024502618  0.024254449           27 
 2891000    0.7872788   -6.7208549    851.26668  0.024537838  0.024247744           51 
 2892000   0.77400911   -6.6881563      853.178  0.024584428  0.024241048           14 
 2893000   0.79560663   -6.7005733    848.99341  0.024455393  0.024234341           31 
 2894000   0.79305679   -6.6807564    851.40266  0.024516317  0.024227644           29 
 2895000   0.78162919    -6.663922     850.0986  0.024470311  0.024220975           12 
 2896000   0.78502548   -6.6764618    851.36789  0.024498385  0.024214287           11 
 2897000   0.77559747   -6.6559896    851.64586  0.024497925  0.024207621           11 
 2898000   0.79947916   -6.7043773     851.3377   0.02448061  0.024200946           16 
 2899000   0.78349481   -6.6914046    852.04538  0.024492508  0.024194285           22 
 2900000   0.78370397   -6.6811582    849.12674  0.024400194  0.024187595           14 
 2901000   0.78515045   -6.6720819    850.47066  0.024430388  0.024180888           23 
 2902000   0.77054599   -6.6717975    852.02797  0.024466689  0.024174203           30 
 2903000   0.79037891   -6.6891069    852.38722  0.024468573  0.024167494           18 
 2904000   0.79622444   -6.6634445    851.88634  0.024445774  0.024160795           16 
 2905000   0.78980194   -6.6407463     853.1607  0.024473916  0.024154141           22 
 2906000     0.783332   -6.6805057    852.19952  0.024437931  0.024147496           32 
 2907000   0.77109469   -6.6738579     851.6573  0.024413981  0.024140833           53 
 2908000   0.78053315   -6.6863117    852.64878  0.024433998  0.024134178           13 
 2909000   0.78821857   -6.6747651    851.83414  0.024402261  0.024127476           17 
 2910000   0.79058475   -6.6822473    849.80698  0.024335824  0.024120792           31 
 2911000   0.77718843   -6.6452516    851.95827  0.024389049  0.024114102            8 
 2912000   0.79007849   -6.6638501     851.0241  0.024353941  0.024107442            9 
 2913000   0.79744617    -6.679902     851.3259  0.024354214  0.024100789           24 
 2914000   0.78534368   -6.6880308    853.54335   0.02440927  0.024094138           14 
 2915000   0.79115823   -6.6862119    852.32538  0.024366077  0.024087471           13 
 2916000   0.78315361   -6.6759007    851.53675  0.024335184  0.024080797           15 
 2917000   0.78075245   -6.6664189    852.12919  0.024343766  0.024074122           17 
 2918000   0.77174075   -6.6942298    852.08107  0.024334049   0.02406742           43 
 2919000   0.78235401   -6.7140253    854.75955   0.02440218  0.024060742           58 
 2920000   0.77307443     -6.67301    853.01735  0.024344102  0.024054067           23 
 2921000   0.78345942   -6.6688574    853.05672  0.024336892  0.024047421           27 
 2922000   0.78777458   -6.6947552    852.13052  0.024302148  0.024040788           84 
 2923000   0.77797258   -6.6706184    852.94875  0.024317161  0.024034123           41 
 2924000   0.79035718    -6.660426    852.11588  0.024285108  0.024027435           24 
 2925000   0.79603394   -6.6849416    853.00824  0.024302229  0.024020742           27 
 2926000   0.78489373   -6.6856698    853.14339  0.024297773  0.024014013           44 
 2927000   0.78642362   -6.6946859    851.49719  0.024242603  0.024007294           71 
 2928000   0.78856641   -6.6833791    852.48983  0.024262575  0.024000625           18 
 2929000   0.79174015   -6.6710668    854.06866  0.024299211  0.023993996           52 
 2930000   0.77449469   -6.6485344    856.22366  0.024352209  0.023987363           40 
 2931000   0.78597871   -6.6779685    855.42217  0.024321112  0.023980726           52 
 2932000    0.7852396   -6.6646476    855.63539  0.024318878  0.023974106           38 
 2933000   0.79105913   -6.6732526    855.51334  0.024307118  0.023967536           30 
 2934000   0.78401571   -6.6670747    856.80404  0.024335493  0.023960935           18 
 2935000   0.78992474    -6.677056    856.51674  0.024319044  0.023954297           41 
 2936000   0.76984164    -6.676315    856.76002  0.024317666  0.023947685           13 
 2937000   0.78744897   -6.6760353     854.0728   0.02423314  0.023941096           28 
 2938000   0.80026586   -6.6770595    855.71889  0.024271582  0.023934495           62 
 2939000    0.7881645   -6.6572554      855.548  0.024258478  0.023927904          102 
 2940000   0.76027604   -6.6867393    853.54106  0.024193341  0.023921294          108 
 2941000   0.77832875   -6.6740016    855.25863  0.024233782  0.023914668           49 
 2942000   0.77424185   -6.6856341      855.088  0.024220712  0.023908019           55 
 2943000   0.77859346   -6.6926732    854.78741   0.02420397  0.023901378           31 
 2944000   0.78574938   -6.6884743    852.85941  0.024141174  0.023894744           17 
 2945000   0.77556429   -6.6882915     858.0886  0.024280945  0.023888146           54 
 2946000   0.77181962   -6.6959726    855.00325  0.024185428  0.023881543           30 
 2947000   0.77773835   -6.6996628    855.23022  0.024183639  0.023874911           54 
 2948000   0.76674348   -6.7066113    854.08494  0.024143061  0.023868278           29 
 2949000   0.76572541   -6.6794149    854.40549  0.024143933  0.023861605           30 
 2950000   0.79391621   -6.6841657    854.92881  0.024150531  0.023854991           28 
 2951000   0.77775124    -6.718645    854.82901  0.024139529  0.023848358           31 
 2952000   0.75943713   -6.7161107    854.87528  0.024132658  0.023841673          102 
 2953000   0.77720358   -6.6670742    857.20589  0.024190255     0.023835           32 
 2954000   0.78774925   -6.6952376    855.58988  0.024136478   0.02382834           20 
 2955000   0.76772459   -6.6818833    855.79433  0.024134076  0.023821667           14 
 2956000    0.7755089   -6.6813018    855.49848  0.024117571  0.023815048           11 
 2957000   0.77026275   -6.6787657    855.36864  0.024105756   0.02380842           28 
 2958000   0.78121053   -6.6723209    855.19735  0.024092781  0.023801785           13 
 2959000   0.76878141   -6.6881834    855.27858  0.024086926  0.023795143           15 
 2960000   0.78391932   -6.6942339    856.85204  0.024123087  0.023788479           11 
 2961000   0.79227741   -6.6711205    856.30772  0.024099621   0.02378183           11 
 2962000   0.77717237   -6.7055435    856.18446  0.024088016  0.023775186           20 
 2963000   0.77669237   -6.7186462    855.93091  0.024072756  0.023768529           24 
 2964000   0.76993256   -6.7108516    857.24478  0.024101574  0.023761857           28 
 2965000   0.76798598   -6.7067751    858.02798  0.024115458  0.023755213           18 
 2966000   0.78749153   -6.7024513    855.47035  0.024035467  0.023748573           57 
 2967000   0.77804173    -6.683106    858.66015  0.024116957  0.023741945           36 
 2968000   0.78858596   -6.6883497    856.38891  0.024045061  0.023735309           23 
 2969000    0.7992055   -6.6552763    857.83207  0.024077469  0.023728688           21 
 2970000   0.79148622    -6.679812    857.06488  0.024047836  0.023722051           15 
 2971000   0.77084613   -6.6673462    858.04015  0.024067097  0.023715438           22 
 2972000   0.77804897   -6.6822638    856.46741  0.024014901   0.02370884           21 
 2973000   0.76087132   -6.6909289    856.37144  0.024004133  0.023702207           16 
 2974000   0.76737426   -6.6786691    855.88171  0.023982339  0.023695555           33 
 2975000   0.77072785   -6.7052369    855.17834  0.023954575  0.023688955           13 
 2976000   0.77314239   -6.6960117    856.99406   0.02399737  0.023682329           15 
 2977000    0.7544873   -6.6702536    855.54981  0.023948881  0.023675739           25 
 2978000   0.76507266   -6.6865509    857.87101  0.024005793  0.023669143           22 
 2979000   0.78312225   -6.6980675    857.12314  0.023976814  0.023662531           11 
 2980000   0.78529365   -6.7053523    855.75319  0.023930458  0.023655912           33 
 2981000   0.77216632   -6.6901109      859.152  0.024017444  0.023649332           19 
 2982000   0.78544966   -6.7145728    858.43547  0.023989366  0.023642747           29 
 2983000   0.77259494   -6.7059185    859.08809  0.023999555   0.02363613           41 
 2984000   0.76871704   -6.7133014    858.98459  0.023988622  0.023629496           61 
 2985000   0.76722783    -6.705577    857.32465  0.023934245  0.023622854           30 
 2986000   0.77189129   -6.7256738    855.90951  0.023886735  0.023616215          107 
 2987000    0.7900963   -6.7329165     857.8344  0.023932441  0.023609567           87 
 2988000   0.76412886   -6.7088463    858.26827  0.023936531  0.023602951           70 
 2989000   0.77089778   -6.6908862    857.24339  0.023899949  0.023596379           43 
 2990000   0.77644735   -6.7092075    857.96566  0.023912086  0.023589806           35 
 2991000    0.7665318   -6.6759383    856.89143  0.023874162  0.023583252           35 
 2992000   0.78882232   -6.6972922    858.01882  0.023897583  0.023576733           25 
 2993000   0.78613011   -6.7051707    858.52217  0.023903613  0.023570204           39 
 2994000   0.78050891   -6.7139848    859.78844  0.023930874  0.023563648           35 
 2995000   0.75705942   -6.7256794      860.456  0.023941458  0.023557099           47 
 2996000   0.77881286   -6.7123114    858.12055  0.023868507   0.02355054           21 
 2997000   0.77508186   -6.7040871    859.28959  0.023893048  0.023543982           22 
 2998000   0.78490251   -6.7302062    859.11189  0.023880139  0.023537423          172 
 2999000   0.77553481   -6.7113358    858.29617   0.02384951  0.023530878           79 
 3000000   0.75383606   -6.7055301    858.41734  0.023844926  0.023524309           64 
 3001000   0.77802842   -6.6717351    860.39059  0.023891775  0.023517772           52 
 3002000   0.78221175   -6.6693478    860.62391  0.023890293  0.023511276           63 
 3003000   0.77524593    -6.715757    862.32947  0.023929667  0.023504768           61 
 3004000   0.76897149    -6.693042    861.76667  0.023906088  0.023498286           63 
 3005000   0.77223577   -6.7030127    860.86574  0.023873149  0.023491777           20 
 3006000   0.78434387   -6.7180691    859.56251  0.023829078  0.023485257           34 
 3007000   0.77404464   -6.6877508    859.61524  0.023822615  0.023478749           19 
 3008000   0.77210223   -6.7006789    860.19696  0.023830811  0.023472212           49 
 3009000   0.76264403   -6.7060973     859.3401  0.023799161  0.023465704           35 
 3010000   0.77326874   -6.7264926    859.72739  0.023801976  0.023459167           55 
 3011000   0.77341795   -6.7046335    859.78777  0.023795743  0.023452642           60 
 3012000   0.77666184   -6.7060762    859.32822  0.023775128  0.023446111           45 
 3013000   0.76285304   -6.6945995    859.71402  0.023777907   0.02343955           21 
 3014000   0.78482012   -6.7010648    858.78707  0.023744389  0.023432998           23 
 3015000   0.76861319   -6.6839762    860.53402  0.023784799  0.023426476           37 
 3016000   0.76416373   -6.7242223    860.82874  0.023785056  0.023419913           47 
 3017000   0.77449942   -6.7454771    860.09222  0.023756829  0.023413326           69 
 3018000   0.76072057   -6.7231201    858.91974  0.023716582  0.023406718           58 
 3019000   0.76413771   -6.7228415    857.81659  0.023678276  0.023400122           40 
 3020000   0.75588664   -6.7353177    859.24363  0.023709813  0.023393544           49 
 3021000   0.74655034   -6.7305286     858.4247  0.023679375  0.023386944           47 
 3022000   0.75773267   -6.7253495    860.64546  0.023732778  0.023380356          103 
 3023000   0.75683561   -6.7533032    859.82913  0.023702424  0.023373774          117 
 3024000   0.77286108   -6.7388868    857.98792  0.023643847  0.023367154          107 
 3025000   0.75567775   -6.7373445    859.10808  0.023666889  0.023360572           98 
 3026000   0.78017973   -6.6920703    860.69322  0.023702721     0.023354           45 
 3027000    0.7703523   -6.7086357    859.36061  0.023658204  0.023347442           40 
 3028000   0.75988155   -6.7006461    860.92928  0.023693562   0.02334089           39 
 3029000   0.76088442   -6.7239439    862.59571  0.023731587  0.023334382           24 
 3030000   0.77513712   -6.7121918    861.41007  0.023691146  0.023327878           51 
 3031000   0.76309461   -6.7176217    861.97208  0.023698782  0.023321392           20 
 3032000   0.76572343   -6.6935605    861.85538  0.023687758  0.023314877           25 
 3033000   0.76089298   -6.7115683    862.59433  0.023700251  0.023308372           24 
 3034000   0.77390262   -6.6925214    862.19617  0.023681503  0.023301886           24 
 3035000   0.76772727   -6.7137361    861.42552   0.02365254  0.023295413           22 
 3036000   0.76888189    -6.689188    860.75783  0.023626423  0.023288908           33 
 3037000   0.76659652     -6.73727    861.14275  0.023629205  0.023282378           48 
 3038000    0.7751604   -6.6960112    860.80583  0.023612185  0.023275846           17 
 3039000   0.77716477    -6.700193    860.68242  0.023601032  0.023269324           56 
 3040000   0.75345006    -6.716238    862.67506  0.023647891  0.023262804           20 
 3041000   0.75688381   -6.6993275    863.73832  0.023669251  0.023256338           13 
 3042000   0.77534214   -6.7040296     863.1268  0.023644718  0.023249854           22 
 3043000    0.7788235   -6.7231495     860.8556  0.023574751  0.023243381           27 
 3044000   0.75538091   -6.7115491    863.75606   0.02364641  0.023236936           20 
 3045000   0.76994548   -6.7063155    863.26146  0.023625108  0.023230445           25 
 3046000   0.76509404   -6.7153748    863.81103  0.023632388  0.023223935           40 
 3047000   0.75832365   -6.6859282    862.99035  0.023602187  0.023217443           24 
 3048000   0.76574108    -6.696858    862.90305  0.023592056   0.02321093           45 
 3049000   0.76382632   -6.6772447    862.78671  0.023581139  0.023204435           50 
 3050000    0.7742416   -6.7105261     864.2796  0.023614197  0.023197936           30 
 3051000   0.76911217   -6.6794663    861.99435  0.023544039  0.023191445           23 
 3052000    0.7613659    -6.717623    862.63399   0.02355379  0.023184942           18 
 3053000   0.75176782    -6.718089    862.07278  0.023530756  0.023178446           51 
 3054000    0.7623114   -6.7172578    863.51104  0.023562296  0.023171974           28 
 3055000   0.77440105   -6.7036627    863.67052  0.023558934  0.023165498           41 
 3056000   0.76608516    -6.696005    864.23421  0.023566596  0.023159043           30 
 3057000   0.76461386   -6.7013558    861.97198  0.023497219  0.023152562           17 
 3058000   0.76225388    -6.748783    861.97943  0.023489738  0.023146038           37 
 3059000   0.75355678   -6.7693654    861.37955  0.023465717  0.023139523           23 
 3060000   0.76975388   -6.7019658    862.12989  0.023478483  0.023132993           50 
 3061000   0.76375699   -6.6986524    862.46151  0.023479841  0.023126467           44 
 3062000   0.74575159   -6.7493661    862.87538  0.023483436  0.023119948           50 
 3063000   0.74786186     -6.72464    863.28882  0.023487018  0.023113416           19 
 3064000   0.77387954   -6.7201819    862.81598  0.023466492  0.023106878           47 
 3065000   0.76225381   -6.7094244    864.22804  0.023497228  0.023100356           44 
 3066000   0.75611239   -6.7324305    862.22289  0.023435064  0.023093848           58 
 3067000   0.77246989   -6.7259928    862.12656  0.023424806  0.023087306           88 
 3068000   0.78058486   -6.7428663    863.31196  0.023449369  0.023080788           45 
 3069000   0.75703892   -6.7384219    863.44516  0.023445345  0.023074259           83 
 3070000   0.78236155   -6.7089625    861.20906   0.02337701   0.02306773           56 
 3071000    0.7689795   -6.7331379    862.19972   0.02339628  0.023061205           54 
 3072000   0.75178369    -6.731173    862.12557  0.023386653  0.023054688           25 
 3073000   0.76414936   -6.7625927    860.32088  0.023330103  0.023048171           34 
 3074000   0.76097521   -6.7498133    864.21323  0.023428031  0.023041608           40 
 3075000   0.75598549   -6.7595266    862.31393  0.023368941  0.023035065           73 
 3076000   0.76916549   -6.7306185     864.6365  0.023424266  0.023028578           59 
 3077000   0.75540846   -6.7164706    863.38318   0.02338271  0.023022089           90 
 3078000   0.75683541   -6.7155217    863.27158  0.023372092  0.023015612           64 
 3079000   0.77568285   -6.7314416    865.38303  0.023421648  0.023009153           68 
 3080000   0.75276925   -6.7191827     864.4494  0.023388782  0.023002653           47 
 3081000   0.76582453   -6.7259737    864.27891   0.02337658  0.022996153           76 
 3082000   0.77472281   -6.7224898    864.05575  0.023362961  0.022989659           60 
 3083000   0.75705453   -6.7234679     862.8784  0.023323559  0.022983171           53 
 3084000   0.73955807   -6.7217707    863.29762  0.023327324  0.022976691          100 
 3085000    0.7540755   -6.7240897    863.45554  0.023324029  0.022970195           45 
 3086000   0.74401657   -6.7385004    862.22709  0.023283298  0.022963692           49 
 3087000    0.7484507   -6.7493879    863.68329  0.023315066  0.022957147           17 
 3088000   0.77360895    -6.731696    863.22978  0.023295277  0.022950609           26 
 3089000   0.75903501   -6.7471761    865.00568  0.023335645  0.022944084           22 
 3090000   0.77978418    -6.748703    862.62301  0.023263835  0.022937561           29 
 3091000   0.76610333   -6.7374342    864.74316  0.023313468  0.022931044           26 
 3092000   0.74816472   -6.7404352    863.59529  0.023274992  0.022924534           50 
 3093000   0.76378561   -6.7219244    863.64333  0.023268761  0.022918019           34 
 3094000    0.7560051   -6.7452324    861.60464  0.023206331  0.022911461           47 
 3095000   0.75682418   -6.7466816    861.91327  0.023207142   0.02290491           46 
 3096000   0.74911598   -6.7209557    863.12295  0.023232207   0.02289836          107 
 3097000    0.7553201   -6.7623495     864.8866  0.023272161  0.022891789          119 
 3098000   0.75048527   -6.7699978    860.27965  0.023140727   0.02288522          119 
 3099000   0.76954252   -6.7789275    862.34976  0.023188925  0.022878632          245 
 3100000   0.75217713   -6.7727678    861.70576  0.023164133  0.022872051          122 
 3101000   0.75074472   -6.7723446    862.56525  0.023179761  0.022865478           99 
 3102000   0.75045687   -6.7589251    862.32089  0.023165723  0.022858898           63 
 3103000   0.74963559   -6.7720931    863.19019  0.023181604  0.022852313          104 
 3104000   0.76231471   -6.7481073    863.31952  0.023177608  0.022845732          111 
 3105000   0.76792934   -6.7193261    862.04845  0.023136029  0.022839142          187 
 3106000   0.75786324    -6.727933    863.02364  0.023154745  0.022832579          126 
 3107000   0.77890349   -6.7350668    863.33183  0.023155558  0.022826051          148 
 3108000   0.76415704   -6.7411545    864.85524  0.023188954    0.0228195          128 
 3109000   0.75876316   -6.7896517    861.77374  0.023098899  0.022812915           89 
 3110000   0.75018288   -6.7339619     863.5538  0.023139169  0.022806344           61 
 3111000   0.74281164   -6.7543485      863.082  0.023119094  0.022799766           50 
 3112000   0.74517685   -6.7656945    863.75053  0.023129566  0.022793183           37 
 3113000   0.74684171   -6.7407678    862.65434  0.023092792  0.022786625           42 
 3114000   0.75399399   -6.7520599    862.20768  0.023073423  0.022780053           35 
 3115000   0.75621856   -6.7060801    865.64764  0.023158043   0.02277352           30 
 3116000   0.74868608   -6.7444404    864.80664  0.023128119  0.022766996           36 
 3117000   0.73943296   -6.7537884    861.07057  0.023020815  0.022760449           85 
 3118000   0.75554903   -6.7379668    863.73597  0.023084669   0.02275388           47 
 3119000   0.73948079   -6.7572077    864.16172  0.023088643  0.022747306           43 
 3120000   0.76479859   -6.7756811    863.92518  0.023074925  0.022740712           48 
 3121000   0.77018242   -6.7393689    863.01172  0.023043141  0.022734124           58 
 3122000   0.76957324    -6.744185    863.23963  0.023041844  0.022727528          107 
 3123000   0.74771099   -6.7296493    864.12075  0.023057977  0.022720945          128 
 3124000   0.74465432   -6.7796469    861.59587  0.022983244   0.02271435          106 
 3125000   0.74902236   -6.7669992    863.13149   0.02301684  0.022707729           82 
 3126000   0.75772512    -6.751522    863.82026  0.023027838  0.022701137           35 
 3127000   0.73665855   -6.7478708    862.45094  0.022983982  0.022694554          127 
 3128000   0.74657355   -6.7518989    862.33457  0.022973534  0.022687935          159 
 3129000   0.73508381   -6.7590627    862.97286  0.022983191  0.022681295           77 
 3130000   0.74918408   -6.7670982    861.60871  0.022939529  0.022674662           75 
 3131000   0.76324455   -6.7292992    862.80565   0.02296406  0.022668065           50 
 3132000   0.75025768   -6.7449079    862.66495  0.022952984  0.022661475           38 
 3133000   0.76545307   -6.7231161    864.64376  0.022998291  0.022654883           18 
 3134000   0.74504563   -6.7598368    864.20215  0.022979211  0.022648261           53 
 3135000    0.7451434   -6.7271059    864.63958  0.022983508  0.022641666           81 
 3136000   0.74612214    -6.766724    863.63481  0.022949479  0.022635097           53 
 3137000   0.74228679    -6.735453     864.3773  0.022961888  0.022628531           77 
 3138000   0.73870828   -6.7609696    862.24944  0.022898063  0.022621955           48 
 3139000   0.74781472   -6.7344592    864.74262  0.022956956  0.022615351           21 
 3140000   0.74485951    -6.738702    864.96853   0.02295564  0.022608775           26 
 3141000   0.74499085   -6.7506905     864.1366   0.02292626  0.022602194           33 
 3142000   0.75775662   -6.7594211    863.73859  0.022908407  0.022595597           19 
 3143000   0.75167156   -6.7435674    861.89261  0.022852174  0.022588995           30 
 3144000     0.750893   -6.7555619    864.78591  0.022921594  0.022582398           12 
 3145000   0.75615647   -6.7473558    863.75403  0.022886964  0.022575808           15 
 3146000   0.74760202   -6.7501998    864.90496  0.022910176  0.022569236           20 
 3147000   0.74956092    -6.727645    864.70728  0.022897661  0.022562659           22 
 3148000   0.74203979   -6.7430097    863.12087  0.022848392  0.022556072           44 
 3149000    0.7530398   -6.7859615    864.52399  0.022878268  0.022549463           28 
 3150000    0.7366117   -6.7766092    863.91914  0.022855004  0.022542887           34 
 3151000    0.7310874   -6.7392415    864.64123  0.022866847  0.022536283           20 
 3152000   0.74880093    -6.759564    861.57286   0.02277847  0.022529687           28 
 3153000     0.762229   -6.7528735    864.19551  0.022840562  0.022523071           20 
 3154000   0.72904203   -6.7361042     866.3793  0.022891019  0.022516478           21 
 3155000     0.745358    -6.742103    865.38932  0.022857615  0.022509915           44 
 3156000   0.75479117   -6.7415297    861.27795  0.022741813  0.022503347           61 
 3157000   0.76459096   -6.7446659    865.47265  0.022845334   0.02249677           52 
 3158000   0.74994655   -6.7793649    862.06061  0.022748063  0.022490161           34 
 3159000   0.73581822   -6.7641082    864.71771  0.022810956  0.022483538          123 
 3160000   0.75491901   -6.7542903    864.59674  0.022800547  0.022476921           84 
 3161000   0.75307872   -6.7659494    863.39683  0.022761701  0.022470304          123 
 3162000   0.74302213   -6.7648932    863.11829  0.022747161  0.022463678           92 
 3163000    0.7389729   -6.7629085    863.87061  0.022759791  0.022457061           32 
 3164000   0.73451801   -6.7753943    862.13776  0.022706957  0.022450427           34 
 3165000   0.75105653    -6.772578    864.88927  0.022772229  0.022443802           12 
 3166000    0.7405497   -6.7779414    864.40866  0.022752386  0.022437177           37 
 3167000   0.75588071   -6.7771958    863.93564  0.022732755   0.02243057           22 
 3168000   0.73807146   -6.7422262    863.49262  0.022713926  0.022424007           65 
 3169000   0.74615139    -6.756274    863.63198  0.022710423  0.022417414           22 
 3170000   0.73305988   -6.7779608     865.2491   0.02274577    0.0224108           31 
 3171000   0.74915531   -6.7496442    864.45716  0.022717785    0.0224042           28 
 3172000   0.73871278   -6.7692587     865.0909  0.022727272  0.022397634           19 
 3173000   0.73902872   -6.7741278    865.25753  0.022724486  0.022391036           97 
 3174000   0.73074541   -6.7561902    865.16642  0.022714934  0.022384457           42 
 3175000   0.74317242   -6.7590937     864.8488  0.022699443  0.022377866           18 
 3176000    0.7608285   -6.7454181    865.87808  0.022719303  0.022371316           45 
 3177000    0.7412017   -6.7678225    866.37679  0.022725233  0.022364764           25 
 3178000   0.73868307    -6.759056    866.31447  0.022716448   0.02235819           26 
 3179000   0.74907853   -6.7543963    864.55923  0.022663291  0.022351618           59 
 3180000   0.73994387   -6.7739303    863.33088  0.022623975  0.022345053          105 
 3181000   0.73505541   -6.7738786    864.88269  0.022657516  0.022338485           57 
 3182000   0.74863629   -6.7546276    864.76143  0.022647219  0.022331897           50 
 3183000   0.74051426   -6.7408472    863.36499  0.022603545  0.022325337           59 
 3184000   0.74679303   -6.7891754     864.0273   0.02261378  0.022318766           53 
 3185000   0.72441631   -6.8013666    864.27072  0.022613049   0.02231218          109 
 3186000    0.7473065   -6.7549258    867.74761  0.022696893  0.022305616          193 
 3187000   0.72978579   -6.7928753    865.79567  0.022638732  0.022299029          118 
 3188000   0.75108242   -6.7579072    866.26367  0.022643864  0.022292483          133 
 3189000   0.75892791   -6.7913228    866.27604  0.022637087  0.022285925          251 
 3190000   0.73104842   -6.7804365    864.33452  0.022579272  0.022279349          141 
 3191000   0.74359222   -6.7889428    864.47809  0.022575945  0.022272747          229 
 3192000   0.75113883   -6.7763661    863.39186  0.022540514  0.022266142          339 
 3193000   0.75311283   -6.8118112    864.14947  0.022553228  0.022259539          299 
 3194000   0.74545867   -6.7855807    865.92531  0.022592499  0.022252923          275 
 3195000   0.74325425   -6.8057169    865.64351  0.022578078  0.022246329          266 
 3196000   0.73571879   -6.8035668     864.0961  0.022530666  0.022239741          427 
 3197000   0.74052922   -6.7905595    866.03486  0.022574154   0.02223318          427 
 3198000   0.73353466    -6.808178    864.84319  0.022536043  0.022226632          405 
 3199000   0.73530287   -6.7967338    865.30872  0.022541125  0.022220062          498 
 3200000   0.74653161   -6.7775458    867.33481  0.022586844   0.02221348          391 
 3201000   0.75406248   -6.7952964    868.39268  0.022607328  0.022206927          467 
 3202000   0.73633483    -6.812426    862.09328  0.022436323  0.022200339          610 
 3203000   0.74727656   -6.8083303     863.3671   0.02246246  0.022193716          615 
 3204000   0.72462819   -6.8194682    863.50417  0.022459014  0.022187076          710 
 3205000   0.73846087   -6.8272862    863.20882  0.022444327  0.022180409          646 
 3206000   0.72851621   -6.8278174    864.35703  0.022467172  0.022173746          478 
 3207000   0.73340741   -6.8199251    863.22315  0.022430702  0.022167078          716 
 3208000   0.73225909   -6.8319867    865.28069  0.022477158  0.022160423          823 
 3209000   0.72331048   -6.8347933    863.75813  0.022430615  0.022153716          754 
 3210000   0.73518953   -6.8465693    862.35916  0.022387309  0.022147034          868 
 3211000   0.73243398   -6.8550379    863.47321   0.02240925   0.02214033          875 
 3212000   0.74762169    -6.833023     863.4297  0.022401144   0.02213363          977 
 3213000   0.72763914   -6.8525133    862.15313  0.022361063  0.022126892         1093 
 3214000   0.73892991   -6.8672511    862.64405  0.022366834  0.022120136          956 
 3215000   0.74560395   -6.8603478    861.08299  0.022319414  0.022113352         1177 
 3216000   0.72097728   -6.8760313    859.64996  0.022275341  0.022106556         1214 
 3217000   0.73447294   -6.8962522    860.96065  0.022302369  0.022099736         1353 
 3218000   0.71598685   -6.9093122    859.50819  0.022257826   0.02209289         1411 
 3219000   0.73187875   -6.9242334    858.84379  0.022233711  0.022086037         1528 
 3220000   0.74004289   -6.9450508    856.81397  0.022174274  0.022079147         1711 
 3221000   0.74156448   -6.9386352    858.31816  0.022206307  0.022072215         1788 
 3222000   0.75396338    -6.972307    856.53687  0.022153344  0.022065258         2005 
 3223000   0.73341222   -6.9635039    856.87048  0.022155096  0.022058277         2028 
 3224000    0.7441305    -6.988088    855.87616  0.022122523  0.022051256         2128 
 3225000   0.73623352   -6.9788127    856.37037  0.022128433  0.022044224         2296 
 3226000   0.74399045   -7.0063443    854.54127  0.022074325   0.02203714         2442 
 3227000   0.73926833   -7.0083952     854.2666  0.022060391  0.022030063         2560 
 3228000   0.74919029   -7.0442977    855.35248   0.02208159  0.022022968         2639 
 3229000   0.74517557   -7.0399185    852.93446  0.022012348  0.022015845         2750 
 3230000   0.73341555   -7.0547095    854.08018  0.022035092  0.022008686         2874 
 3231000   0.72991509   -7.0750106    853.01606  0.022000827  0.022001503         2980 
 3232000    0.7243936   -7.0931861    850.69029  0.021934053  0.021994262         3079 
 3233000   0.73334671   -7.0732153    851.42643  0.021946243  0.021987017         3189 
 3234000    0.7439293   -7.0770247    850.61935   0.02191866  0.021979759         3211 
 3235000   0.71901977   -7.0970281    851.27937  0.021928886  0.021972483         3276 
 3236000   0.73784801   -7.1211575    850.20242  0.021894376  0.021965197         3314 
 3237000   0.75605856   -7.1367448    850.28011  0.021889613  0.021957891         3352 
 3238000   0.72613605   -7.1478756    849.28494  0.021857241  0.021950546         3420 
 3239000   0.73435466   -7.1267602    847.68818  0.021809411    0.0219432         3406 
 3240000   0.73146033   -7.1601913    848.90981    0.0218341  0.021935836         3518 
 3241000   0.73204778   -7.1629462    847.74762  0.021797481  0.021928443         3559 
 3242000   0.73427514   -7.1740566    848.24073  0.021803432  0.021921026         3628 
 3243000   0.73130396   -7.2042057    847.26924  0.021771745  0.021913591         3699 
 3244000   0.74617842   -7.2310798    843.80636  0.021676078  0.021906123         3703 
 3245000    0.7484512    -7.234262     845.9532   0.02172453  0.021898612         3681 
 3246000   0.72320574   -7.2533724    844.00181   0.02166774   0.02189107         3802 
 3247000   0.72473763   -7.2973151    840.60619  0.021573919  0.021883495         3816 
 3248000   0.74319565   -7.2747408    843.17084  0.021633078  0.021875871         3808 
 3249000   0.74353476   -7.3088978     844.8442  0.021669339  0.021868252         3848 
 3250000   0.73863791   -7.3160872    841.54484  0.021578073  0.021860621         3860 
 3251000   0.73597717   -7.3027249    842.94606  0.021607353  0.021852989         3855 
 3252000   0.73554163   -7.2939058    842.87907  0.021598992  0.021845359         3847 
 3253000   0.74144561   -7.2883027    842.38463  0.021579686   0.02183773         3849 
 3254000   0.72933193   -7.2957775     841.8185  0.021558556  0.021830096         3865 
 3255000   0.72136812   -7.3003367    842.86657  0.021578765  0.021822466         3864 
 3256000    0.7495824   -7.2888817    842.72746  0.021568578  0.021814834         3838 
 3257000   0.71939773   -7.2901461    842.99033  0.021568681  0.021807211         3854 
 3258000   0.73600524   -7.3093838    841.87594  0.021533557  0.021799584         3856 
 3259000   0.72846738   -7.2994666     843.1338  0.021559113  0.021791953         3844 
 3260000   0.73518768   -7.3067732    843.81643   0.02156995  0.021784307         3840 
 3261000   0.73405618   -7.3104253    843.60156  0.021557844  0.021776668         3861 
 3262000   0.73293243    -7.292498    841.89815  0.021507719  0.021769014         3873 
 3263000   0.73052173   -7.2909793    841.87477  0.021500531  0.021761361         3843 
 3264000   0.74183694   -7.2871879    839.72538  0.021439067  0.021753709         3892 
 3265000    0.7344225   -7.3106914    842.35456  0.021499606  0.021746068         3898 
 3266000   0.71879182   -7.3451839    842.40241  0.021494244  0.021738407         3887 
 3267000   0.73937285   -7.3163249     842.0341   0.02147827  0.021730753         3863 
 3268000   0.71519373   -7.3356499    841.96715  0.021469991    0.0217231         3895 
 3269000   0.70635834   -7.3377667    841.42981  0.021449725  0.021715439         3880 
 3270000   0.72491456   -7.3297657    840.82479  0.021427747  0.021707776         3831 
 3271000   0.72476122   -7.3461721    841.63573  0.021441856  0.021700104         3878 
 3272000   0.74234131   -7.3350612    842.40292  0.021454842  0.021692418         3908 
 3273000   0.73499289   -7.3379431    839.61868  0.021377398  0.021684724         3910 
 3274000   0.74027422   -7.3365199    841.03558  0.021406933  0.021677027         3903 
 3275000   0.72334225   -7.3444918    838.36765   0.02133251  0.021669337         3901 
 3276000   0.72635051   -7.3541958    840.71716  0.021385764   0.02166165         3918 
 3277000   0.72841064   -7.3559584    840.29059  0.021368391  0.021653957         3938 
 3278000   0.73207464   -7.3618221    840.82017  0.021375335  0.021646265         3908 
 3279000   0.70700971   -7.3715638    842.32297  0.021407008   0.02163858         3900 
 3280000   0.72958227   -7.3565342     842.4801  0.021404474    0.0216309         3895 
 3281000   0.74255211   -7.3297728    841.29049  0.021367736  0.021623222         3902 
 3282000   0.71127628   -7.3273588      840.771  0.021348035  0.021615552         3908 
 3283000   0.72929926   -7.3316436    839.99655  0.021321874  0.021607871         3916 
 3284000   0.71695538   -7.3738256    838.04431  0.021265842  0.021600197         3914 
 3285000   0.73161262   -7.3640243    840.52358  0.021322262  0.021592521         3914 
 3286000   0.72946221   -7.3698454    841.97824  0.021352664  0.021584834         3902 
 3287000   0.70401869   -7.3544286    842.01555  0.021347114   0.02157716         3919 
 3288000   0.72905624   -7.3563174    840.33314  0.021297981  0.021569494         3905 
 3289000   0.72350764   -7.3639606    840.36052  0.021292199  0.021561824         3925 
 3290000   0.73144025   -7.3588053    839.68034  0.021268499  0.021554161         3898 
 3291000   0.74371006   -7.3353881     842.0423  0.021321845  0.021546489         3915 
 3292000   0.73647556   -7.3522315     840.4911  0.021276101  0.021538828         3903 
 3293000   0.73040021    -7.332483    840.51268  0.021270186  0.021531166         3892 
 3294000   0.73409826   -7.3641011    839.74783  0.021244379    0.0215235         3904 
 3295000   0.73892992   -7.3584474    841.51295  0.021282573  0.021515832         3916 
 3296000   0.72470998   -7.3495881    841.66102   0.02127986  0.021508181         3918 
 3297000   0.70189645   -7.3470741    839.92449  0.021229514  0.021500518         3913 
 3298000   0.72636109   -7.3594484    839.58282  0.021214444  0.021492857         3933 
 3299000   0.72632897   -7.3629622    841.53607  0.021257353  0.021485193         3907 
 3300000   0.71578044   -7.3488701    840.29244  0.021219506   0.02147754         3913 
 3301000   0.71986723   -7.3277304    840.38045    0.0212153  0.021469879         3904 
 3302000   0.73363379    -7.351047    839.63735  0.021190121  0.021462229         3915 
 3303000   0.73094098   -7.3539869    839.78482  0.021187426  0.021454578         3918 
 3304000   0.73450363   -7.3393402    840.78914  0.021206344  0.021446932         3914 
 3305000   0.72701859   -7.3705661    841.44796   0.02121654   0.02143929         3934 
 3306000   0.70809929   -7.3635869    841.08594  0.021200997  0.021431657         3923 
 3307000   0.71814426   -7.3378374    839.75012  0.021160924  0.021424022         3913 
 3308000   0.72314467   -7.3747303    840.00605  0.021160975  0.021416379         3908 
 3309000   0.71376906   -7.3777073    841.57289  0.021194039  0.021408737         3903 
 3310000   0.72023747   -7.3513046    840.06023  0.021149553  0.021401094         3901 
 3311000   0.70837418   -7.3604557    839.77411  0.021135964  0.021393462         3921 
 3312000   0.70813573   -7.3582701    840.87626  0.021157313  0.021385818         3929 
 3313000   0.71525737   -7.3513677    838.65278  0.021094999  0.021378181         3919 
 3314000   0.73689979   -7.3365505    841.81021   0.02116803  0.021370547         3903 
 3315000   0.72038101   -7.3554795    839.69631  0.021108505  0.021362917         3924 
 3316000   0.71762515   -7.3806925    840.21499  0.021115174  0.021355287         3917 
 3317000   0.69964323   -7.3687382    839.12483   0.02108142  0.021347646         3938 
 3318000   0.71274975   -7.3557641    840.20018  0.021102074  0.021340009         3932 
 3319000   0.74116291   -7.3788757    839.58905  0.021080372  0.021332379         3933 
 3320000   0.71317698   -7.3576975    839.22132  0.021064792  0.021324754         3910 
 3321000   0.72780117   -7.3591987    840.83421  0.021098921  0.021317119         3902 
 3322000   0.71712016   -7.3868103    840.99896  0.021096703  0.021309499         3916 
 3323000   0.72565184   -7.3737341    839.13341   0.02104357  0.021301857         3936 
 3324000   0.72716907   -7.3864548    840.07465  0.021060837  0.021294228         3927 
 3325000   0.71785314   -7.3554789    838.39382  0.021012377  0.021286605         3929 
 3326000   0.72663639   -7.3566286    840.12679  0.021049479  0.021278982         3926 
 3327000   0.71881017   -7.3655123    839.15631  0.021018844  0.021271347         3929 
 3328000    0.7127184   -7.3799445    840.79332  0.021053519  0.021263729         3925 
 3329000    0.7195817   -7.3825023    839.19571  0.021007202  0.021256099         3938 
 3330000   0.72849985   -7.3683722    839.37703  0.021005431  0.021248473         3922 
 3331000   0.73295111   -7.3584235     840.3359  0.021023114  0.021240859         3920 
 3332000    0.7273226   -7.3728002    839.83129  0.021004184  0.021233248         3920 
 3333000   0.73648588   -7.3799975    839.22243  0.020982659  0.021225634         3925 
 3334000     0.722892   -7.3571453    839.31642  0.020978715  0.021218021         3903 
 3335000   0.71695665   -7.3448997    840.60397  0.021004597   0.02121042         3900 
 3336000   0.73426541   -7.3698287    837.85764  0.020929697  0.021202806         3899 
 3337000   0.71626933   -7.3715201    840.07026   0.02097868  0.021195189         3903 
 3338000   0.70960865   -7.3709065    840.04426  0.020971746  0.021187585         3933 
 3339000   0.71515643   -7.3612265    840.29956  0.020971837  0.021179985         3929 
 3340000   0.71351931    -7.368277    838.77789  0.020927592  0.021172381         3930 
 3341000   0.71408525   -7.3934978    839.92037  0.020949825  0.021164787         3904 
 3342000   0.71172748   -7.3719739    839.84451  0.020941664  0.021157187         3933 
 3343000   0.70848829   -7.3774755    839.68223  0.020931355  0.021149588         3915 
 3344000   0.74029066   -7.3649891    839.15529  0.020911964  0.021141992         3915 
 3345000   0.70872358   -7.3794191     838.6291  0.020892603  0.021134393         3934 
 3346000   0.72670109   -7.3836479    840.18035  0.020924994  0.021126795         3922 
 3347000   0.73073531   -7.3822338    839.36818  0.020898521  0.021119204         3930 
 3348000   0.70597412    -7.368631    838.58125  0.020872691   0.02111161         3922 
 3349000   0.72473641   -7.3932211    839.56983  0.020891058  0.021104018         3931 
 3350000   0.71732444   -7.3589148     841.2815    0.0209274  0.021096446         3931 
 3351000   0.72369572    -7.374985    839.61903  0.020879813  0.021088869         3925 
 3352000   0.71905427   -7.3400837      839.266  0.020864807  0.021081301         3935 
 3353000   0.70709043   -7.3720196    838.79392  0.020846851   0.02107372         3938 
 3354000   0.71426448   -7.3760257    840.32336  0.020878636  0.021066154         3946 
 3355000   0.72285258   -7.3681792    839.98918  0.020864113   0.02105858         3926 
 3356000   0.70634115   -7.3949637    840.36316  0.020867182  0.021050997         3909 
 3357000   0.70512639   -7.3772492    840.04535  0.020853077   0.02104342         3928 
 3358000   0.71905296   -7.3664958     839.4856  0.020832976  0.021035848         3941 
 3359000   0.72326227   -7.3834889    840.22401  0.020845093  0.021028274         3916 
 3360000   0.71884349   -7.3856033    839.61998  0.020823908  0.021020703         3931 
 3361000   0.71159893   -7.3780637    838.09533   0.02077991  0.021013139         3921 
 3362000   0.71785085   -7.3808423     838.7897   0.02079094  0.021005577         3927 
 3363000    0.7098487   -7.3765701    838.70237  0.020782594  0.020998013         3945 
 3364000   0.72243168    -7.383696    840.52835   0.02082165  0.020990458         3936 
 3365000   0.70460656    -7.368832    838.86168  0.020774187  0.020982888         3942 
 3366000   0.70728868   -7.3827217    839.10271  0.020773983  0.020975323         3946 
 3367000   0.71581474   -7.4021466    837.84427  0.020736666  0.020967758         3938 
 3368000    0.7219385   -7.3705396    839.09978  0.020761574    0.0209602         3946 
 3369000   0.72067223    -7.348015    840.00309  0.020777755  0.020952645         3940 
 3370000   0.70471743   -7.3957815    840.54456  0.020784979  0.020945099         3948 
 3371000   0.71399118   -7.4076615    838.82348  0.020736267  0.020937541         3936 
 3372000   0.72215755   -7.3608229     838.4579  0.020721083  0.020929991         3930 
 3373000   0.72352241   -7.3777146    837.98594   0.02070328  0.020922438         3903 
 3374000   0.71357959   -7.3787255    838.43049  0.020708123  0.020914892         3937 
 3375000   0.72250115   -7.3975997    838.77212  0.020710423  0.020907351         3941 
 3376000   0.71763425   -7.3734564     839.2594  0.020716316  0.020899809         3935 
 3377000   0.70845495   -7.3772929    838.43486  0.020689835  0.020892275         3930 
 3378000   0.69852321   -7.3817373    837.42875   0.02065889  0.020884742         3914 
 3379000   0.70855934   -7.4025568    839.69294  0.020708615  0.020877203         3939 
 3380000   0.70676459   -7.3719137    838.10861  0.020663427  0.020869677         3924 
 3381000   0.72933527   -7.3998121    838.92084  0.020677335  0.020862143         3953 
 3382000   0.72905312    -7.383923    839.41275  0.020683342  0.020854618         3936 
 3383000   0.70401964      -7.3915     838.9774  0.020666504  0.020847077         3943 
 3384000   0.70121569   -7.4143818    839.83998  0.020681639  0.020839536         3927 
 3385000   0.70748588   -7.3847353    839.22089  0.020660288   0.02083199         3949 
 3386000   0.72984999   -7.4191459    836.62251  0.020590237   0.02082444         3947 
 3387000   0.69990348   -7.4053876    838.00756  0.020618235  0.020816887         3952 
 3388000   0.71402193   -7.4103468     839.4661  0.020648025  0.020809335         3949 
 3389000    0.7118073   -7.4193827    837.68105  0.020598039  0.020801781         3953 
 3390000   0.70663935   -7.3896382    837.58143  0.020589514  0.020794223         3943 
 3391000    0.7127035   -7.3925717    837.81635  0.020589215  0.020786672         3919 
 3392000   0.70081435   -7.4219631    838.49988  0.020599938  0.020779127         3943 
 3393000   0.69384534   -7.4236465    839.05184  0.020607423  0.020771585         3962 
 3394000   0.70188834   -7.4106094     837.6374  0.020566622  0.020764044         3944 
 3395000   0.70081164   -7.4026345    838.10642  0.020572077  0.020756497         3930 
 3396000   0.69737678   -7.4093849    838.26641  0.020569945  0.020748944         3955 
 3397000   0.71184067   -7.4263952    836.57304  0.020522349  0.020741382         3956 
 3398000   0.70167504   -7.4278164     836.0804  0.020504228  0.020733798         3974 
 3399000   0.70827648   -7.4280537    835.36389  0.020480629  0.020726202         3970 
 3400000    0.7215971   -7.4387284    836.53956  0.020503421  0.020718596         3968 
 3401000   0.70121215   -7.4685997    837.78109  0.020527813  0.020710987         3970 
 3402000   0.70949582   -7.4506475    836.76888  0.020496984  0.020703376         3975 
 3403000   0.69788131   -7.4707868    835.95418   0.02047101  0.020695768         3979 
 3404000    0.7126516   -7.4494852    835.32471  0.020449587  0.020688159         3976 
 3405000   0.72810829    -7.472092    835.91207  0.020457956  0.020680549         3975 
 3406000    0.6961018   -7.4569875    836.07145  0.020455849  0.020672937         3975 
 3407000   0.71416745   -7.4450735    835.86523  0.020444801  0.020665326         3977 
 3408000   0.70510156   -7.4484809     835.2553  0.020423887   0.02065772         3977 
 3409000    0.7170374   -7.4581518    837.41831  0.020470771   0.02065011         3975 
 3410000   0.70957365   -7.4560361    837.51962  0.020467244  0.020642509         3978 
 3411000   0.72302873   -7.4439212    836.18141   0.02042855  0.020634903         3969 
 3412000   0.72928285   -7.4739699    834.73118  0.020387143    0.0206273         3970 
 3413000   0.70016539   -7.4490452    836.41016  0.020422164  0.020619707         3971 
 3414000   0.69853269   -7.4951324    834.29016  0.020364435  0.020612097         3980 
 3415000   0.70530069   -7.4497959    834.18076  0.020355802  0.020604508         3986 
 3416000   0.70838815   -7.4739993    836.17157  0.020398409  0.020596915         3981 
 3417000    0.7120718   -7.4996638    834.33635  0.020347682  0.020589316         3987 
 3418000   0.70319951   -7.4794066    834.98641  0.020357578  0.020581723         3978 
 3419000   0.69095327   -7.4698904    837.13905  0.020404091  0.020574134         3986 
 3420000   0.72242235   -7.4596054    834.87833  0.020343039  0.020566552         3975 
 3421000   0.70495855   -7.4552624    833.25556  0.020297563  0.020558977         3980 
 3422000   0.70606005   -7.4665928    835.16242  0.020338068  0.020551388         3989 
 3423000   0.69390469   -7.4900673    835.62009  0.020343268    0.0205438         3973 
 3424000   0.69582712   -7.4783398    836.69015   0.02036337  0.020536217         3983 
 3425000   0.71123147   -7.4534116    836.65024  0.020356454  0.020528635         3984 
 3426000   0.69115051   -7.4418205    834.66733   0.02030228   0.02052106         3982 
 3427000   0.70220089   -7.4486851    835.31007  0.020311985  0.020513483         3978 
 3428000     0.703315   -7.4273369    836.00206  0.020322882  0.020505917         3978 
 3429000   0.70646524   -7.4702546    834.85072  0.020288974  0.020498349         3978 
 3430000   0.69675871   -7.4832393     836.4411  0.020321698  0.020490783         3986 
 3431000    0.7152896   -7.4633425    836.23597  0.020310793  0.020483219         3971 
 3432000   0.70252476   -7.4814927    835.90053   0.02029673  0.020475659         3976 
 3433000   0.71799117   -7.4801349    833.68956  0.020237148  0.020468089         3983 
 3434000   0.68632478   -7.4525009    834.18963   0.02024339  0.020460528         3982 
 3435000   0.69456826   -7.4709546    835.06523  0.020258739  0.020452972         3983 
 3436000   0.69690212   -7.4694937    833.97949  0.020226511  0.020445413         3982 
 3437000    0.7026204    -7.442702    835.24493  0.020251308  0.020437862         3970 
 3438000   0.70556321   -7.4854404    835.50296  0.020251671  0.020430315         3973 
 3439000   0.70641994   -7.4759853    835.03262  0.020234385  0.020422765         3977 
 3440000   0.71273249   -7.4779515    834.91914  0.020225754  0.020415217         3985 
 3441000   0.71295327   -7.4624586    834.01328  0.020197939  0.020407686         3982 
 3442000     0.698926   -7.4862513     834.4109  0.020201697  0.020400148         3987 
 3443000   0.70421489   -7.4788081    835.48213  0.020221758  0.020392619         3982 
 3444000   0.70422863    -7.473641    835.28978  0.020211232  0.020385084         3984 
 3445000   0.68284923   -7.4649067    836.24302  0.020228423  0.020377558         3976 
 3446000   0.68754817   -7.4509894    834.76414   0.02018679  0.020370025         3966 
 3447000   0.69142394   -7.4836313    835.07943  0.020188556  0.020362501         3977 
 3448000   0.70619961   -7.4769132    835.37904  0.020189942  0.020354979         3981 
 3449000   0.69732968   -7.4470061    834.95458  0.020173833  0.020347455         3983 
 3450000   0.68994084   -7.4828922    834.56104  0.020158479   0.02033993         3982 
 3451000   0.71266584   -7.4547723    835.25077  0.020169293  0.020332413         3978 
 3452000   0.70157927   -7.5051063    834.82784  0.020153241  0.020324907         3981 
 3453000   0.68753268   -7.4703117    835.43415  0.020162037  0.020317389         3984 
 3454000   0.71836076   -7.4493573    834.27562  0.020128248  0.020309883         3989 
 3455000   0.70711419   -7.4972652    835.12154  0.020142825  0.020302382         3985 
 3456000   0.71076918   -7.4565415    834.03137   0.02011071  0.020294874         3994 
 3457000   0.69104805   -7.4545881    835.04128  0.020129237  0.020287373         3983 
 3458000   0.70724536   -7.4805067    835.20616   0.02012739  0.020279867         3989 
 3459000   0.69682096   -7.4728351    834.10863  0.020095129  0.020272365         3984 
 3460000   0.69099183   -7.4666021    834.71827  0.020104005  0.020264876         3985 
 3461000   0.69742693   -7.4926039    834.75975  0.020099195  0.020257383         3982 
 3462000   0.69013773   -7.4737544    833.62108   0.02006598  0.020249889         3980 
 3463000   0.67731745   -7.4552277    835.17975  0.020097693  0.020242402         3990 
 3464000   0.70234396   -7.4799846     835.1526  0.020091239  0.020234908         3979 
 3465000   0.69628735   -7.4913093    833.94565  0.020056413  0.020227418         3980 
 3466000   0.70287395   -7.4734886    834.07816  0.020053812  0.020219932         3981 
 3467000   0.68804873   -7.4893719    834.29175  0.020053162  0.020212444         3975 
 3468000   0.69722225   -7.4923094    833.66538  0.020032328  0.020204961         3987 
 3469000   0.68997784   -7.4909131    834.49063  0.020046378  0.020197475         3983 
 3470000   0.70239258   -7.4949666    833.99326  0.020028657  0.020189992         3986 
 3471000   0.69111698   -7.4686046    835.13633   0.02005033  0.020182511         3979 
 3472000   0.69250117   -7.4621009    834.24798  0.020023233  0.020175046         3979 
 3473000   0.69159062   -7.4638642    834.39107  0.020020901  0.020167559         3981 
 3474000   0.69091135   -7.4720659    834.51492  0.020018109   0.02016009         3977 
 3475000   0.70636436   -7.4807675    833.25071  0.019982031  0.020152621         3988 
 3476000   0.68702703   -7.4970019    836.34295  0.020050416  0.020145159         3985 
 3477000   0.68415806   -7.4709446    834.92664  0.020010705  0.020137693         3983 
 3478000   0.69997227   -7.4449558    836.48652  0.020042326   0.02013024         3988 
 3479000   0.69747982   -7.4955967    834.75067  0.019994986  0.020122787         3989 
 3480000   0.68870373    -7.466418    834.86834  0.019992058   0.02011534         3994 
 3481000   0.68165968   -7.4776871    835.66442  0.020005373  0.020107887         3967 
 3482000   0.68055035   -7.4762136    835.38375   0.01999291  0.020100434         3979 
 3483000   0.69009405   -7.5008417    836.31624   0.02000948  0.020092983         3987 
 3484000   0.70571602   -7.4766329    834.45595  0.019959241  0.020085536         3977 
 3485000    0.6934351   -7.4908208    834.45629  0.019953522    0.0200781         3980 
 3486000   0.68828946   -7.4951857    834.62884  0.019951923  0.020070652         3983 
 3487000    0.6907198   -7.4801051    834.90356  0.019952767  0.020063206         3988 
 3488000   0.68820772   -7.4856508    833.96944  0.019924729   0.02005577         3985 
 3489000   0.69452089   -7.4903959    833.57299  0.019909549   0.02004834         3985 
 3490000   0.69113913   -7.4581493    835.64448  0.019953307  0.020040919         3974 
 3491000   0.69853262   -7.4763618    836.68464  0.019972421  0.020033497         3982 
 3492000   0.68978903   -7.4748505    834.71226  0.019919632  0.020026067         3989 
 3493000   0.69308309   -7.5130143    833.42919  0.019883319  0.020018647         3983 
 3494000   0.69209024   -7.4735623    833.45593  0.019878266  0.020011227         3988 
 3495000   0.67394327   -7.5048389     833.9102   0.01988341  0.020003812         3986 
 3496000   0.69164738   -7.4794982    832.95269  0.019854898  0.019996395         3987 
 3497000   0.70015615   -7.5070684      833.168  0.019854351  0.019988982         3986 
 3498000    0.6855588   -7.4819583    835.03426  0.019893136   0.01998157         3983 
 3499000   0.69800395   -7.4992677    834.19774  0.019867527  0.019974162         3986 
 3500000   0.68859196   -7.4932696    836.43683  0.019915163  0.019966755         3984 
 3501000   0.71149354   -7.4946671    835.50481   0.01988729  0.019959352         3982 
 3502000   0.69604064   -7.4701457    837.31449  0.019924674  0.019951966         3968 
 3503000   0.67987284   -7.4816596    834.41715  0.019850061  0.019944565         3978 
 3504000   0.68325215   -7.4959669    834.58499  0.019848387  0.019937167         3980 
 3505000   0.69900484   -7.4922282    833.64431  0.019820359  0.019929775         3983 
 3506000   0.68157679   -7.4989624    835.61719  0.019861599  0.019922371         3985 
 3507000   0.69366759   -7.5113099    834.30415  0.019824735  0.019914989         3982 
 3508000   0.68278111   -7.4711531    834.12553  0.019814841  0.019907597         3979 
 3509000   0.69094562   -7.4923372    835.15991  0.019833759  0.019900207         3986 
 3510000   0.68905183   -7.4956108    834.20006   0.01980532  0.019892831         3985 
 3511000   0.68282735   -7.5029393    834.84908  0.019815083  0.019885447         3991 
 3512000   0.68718778   -7.4780256    835.45253   0.01982376  0.019878074         3986 
 3513000   0.68676323   -7.4962282    833.71117  0.019776809  0.019870688         3980 
 3514000   0.69532131   -7.4920975     833.8634  0.019774791  0.019863312         3986 
 3515000   0.67877054   -7.4737281    835.56578  0.019809525  0.019855952         3978 
 3516000   0.68061226   -7.4688615    834.65562  0.019782319  0.019848577         3982 
 3517000   0.69399292   -7.5127704    834.00606  0.019761304    0.0198412         3985 
 3518000    0.6842694   -7.4938761    833.18401  0.019736214  0.019833833         3988 
 3519000   0.70147686   -7.4851277    835.88193  0.019794495  0.019826471         3975 
 3520000   0.69694208   -7.4850696    834.47485   0.01975556  0.019819111         3987 
 3521000   0.69267317   -7.5032622     833.9093  0.019736564  0.019811751         3980 
 3522000   0.68576756   -7.4986626    835.49307  0.019768433  0.019804403         3987 
 3523000   0.67762051   -7.4759853    834.44416  0.019738011   0.01979705         3986 
 3524000   0.68364115   -7.4762785    833.88161  0.019719107  0.019789696         3986 
 3525000   0.68316998   -7.4774713    833.72186  0.019709737  0.019782351         3986 
 3526000   0.68187665   -7.4769648    833.19216  0.019691628  0.019775012         3979 
 3527000   0.67126615   -7.4886287     835.9465  0.019751122  0.019767677         3987 
 3528000   0.67961024   -7.4721864    834.02046   0.01970003  0.019760339         3985 
 3529000   0.69986962   -7.4942397    833.83075  0.019689968  0.019753008         3990 
 3530000   0.68012714   -7.4988773    832.61371  0.019655659  0.019745677         3991 
 3531000   0.70037862   -7.5085766    835.27394  0.019712875  0.019738347         3989 
 3532000   0.70197741   -7.5027923     834.4963  0.019688946  0.019731019         3986 
 3533000   0.68981481   -7.5137479    833.33494   0.01965598  0.019723689         3988 
 3534000    0.6771772   -7.4789593    833.33864  0.019650506  0.019716367         3987 
 3535000   0.67958365   -7.4905625    833.36482  0.019645564  0.019709042         3984 
 3536000   0.69603281   -7.5065508    832.52255  0.019620158   0.01970172         3984 
 3537000   0.68081827   -7.4791633    834.07189  0.019651114  0.019694399         3970 
 3538000   0.67764457   -7.5055862    833.96187  0.019642968  0.019687085         3989 
 3539000   0.68543652   -7.4856718    834.09665  0.019640592  0.019679777         3984 
 3540000   0.68944009   -7.4916669    833.64382  0.019624384  0.019672461         3983 
 3541000   0.67960958   -7.5102634     834.4767  0.019638443  0.019665164         3982 
 3542000    0.6979638   -7.4911913    833.28461  0.019604852  0.019657861         3986 
 3543000   0.69657049   -7.5027732    834.00093  0.019616166  0.019650556         3984 
 3544000   0.67363711     -7.51434    834.40765  0.019620195  0.019643262         3988 
 3545000   0.67493114   -7.5148805    832.37644  0.019566912  0.019635957         3976 
 3546000   0.67675323   -7.4785352    833.58684  0.019589839   0.01962866         3985 
 3547000   0.67991992   -7.4767109    834.05772  0.019595379  0.019621367         3985 
 3548000   0.68147709   -7.4962015    834.84797  0.019608417   0.01961408         3984 
 3549000   0.68693729   -7.5086404    833.80452  0.019578391  0.019606794         3991 
 3550000   0.68117821   -7.4967756    834.70602  0.019594038  0.019599511         3981 
 3551000   0.67816477   -7.4963975    833.55577  0.019561527  0.019592231         3981 
 3552000   0.67589985   -7.5114239    833.92504  0.019564683  0.019584957         3985 
 3553000    0.6799286   -7.5002547    833.14098  0.019540787  0.019577685         3982 
 3554000   0.68054023   -7.5011437     833.8488  0.019551885  0.019570416         3984 
 3555000   0.70209365    -7.489234    833.87669  0.019547039   0.01956315         3973 
 3556000   0.68551504   -7.5062904      833.864  0.019541245  0.019555881         3984 
 3557000   0.68041935   -7.5045346    833.70694  0.019532071  0.019548619         3988 
 3558000   0.68351882   -7.5167455    833.42069  0.019519878  0.019541357         3987 
 3559000   0.68199091   -7.5037386    833.32669  0.019512192  0.019534098         3977 
 3560000   0.68593884   -7.5175614    833.41657  0.019508815  0.019526839         3981 
 3561000   0.66726882   -7.5092714    834.43008  0.019527054  0.019519584         3976 
 3562000   0.68273546   -7.5140466    833.42527  0.019498065  0.019512327         3985 
 3563000   0.67586879   -7.5126591    832.78301  0.019477571  0.019505072         3983 
 3564000   0.68590149   -7.5003009    833.50945  0.019489091  0.019497833         3987 
 3565000   0.68287101   -7.4864436    833.48672  0.019483093  0.019490587         3978 
 3566000   0.68460187   -7.5083767    833.36944  0.019474889  0.019483351         3990 
 3567000    0.6612998   -7.5376374    833.82513  0.019480075  0.019476103         3980 
 3568000   0.67722661   -7.5060884    834.03255   0.01947946  0.019468866         3987 
 3569000   0.69328403   -7.4822126     833.7124  0.019466527  0.019461633         3993 
 3570000   0.66064958   -7.5218646    833.04836  0.019445573  0.019454395         3986 
 3571000    0.6779313   -7.4894279    834.90739   0.01948351  0.019447161         3992 
 3572000   0.68803243   -7.4960449    833.72919  0.019450569  0.019439931         3985 
 3573000   0.67677654   -7.4969146     832.9748  0.019427531  0.019432709         3982 
 3574000   0.69774052   -7.5009195    834.18268  0.019450258  0.019425484         3988 
 3575000   0.68529758    -7.491671    834.40423  0.019449982  0.019418266         3988 
 3576000   0.67777163   -7.5026418    833.54017  0.019424407  0.019411049         3987 
 3577000   0.66814134   -7.5038658    832.44437  0.019393448  0.019403834         3982 
 3578000   0.66383128    -7.510752    835.24209  0.019453188  0.019396624         3985 
 3579000   0.67745429   -7.5239315    833.18422  0.019399838  0.019389411         3989 
 3580000     0.681973   -7.5099584    836.39359  0.019469125  0.019382204         3982 
 3581000     0.673154   -7.4968752    835.22263  0.019436438  0.019375002         3981 
 3582000   0.68581361   -7.4865019    833.52856  0.019391601  0.019367801         3983 
 3583000   0.69072952   -7.5058926    831.49067  0.019338791  0.019360598         3986 
 3584000   0.66848445   -7.4950408    834.62854  0.019406355    0.0193534         3975 
 3585000   0.66786074   -7.5134203    834.29954  0.019393295  0.019346205         3984 
 3586000   0.67189234   -7.5118001    832.64043  0.019349331  0.019339011         3981 
 3587000   0.68032989   -7.5230024    834.23276   0.01938093  0.019331828         3982 
 3588000    0.6679701   -7.4981423    835.40037  0.019402647  0.019324644         3989 
 3589000   0.67095316   -7.5037095    833.29206  0.019348288  0.019317461         3982 
 3590000   0.67716624   -7.4891391    832.84404  0.019332499  0.019310283         3974 
 3591000   0.68088521   -7.5199369    832.60925  0.019321666  0.019303107         3978 
 3592000   0.68258425    -7.506288    833.45352  0.019335874  0.019295928         3986 
 3593000   0.66438986   -7.4970151    832.53707  0.019309237  0.019288751         3984 
 3594000   0.69009099   -7.5091392    834.07735  0.019339579  0.019281589         3992 
 3595000   0.66891886   -7.5235634    834.59533  0.019346206  0.019274415         3985 
 3596000   0.66182885   -7.5332732    834.29542  0.019333876  0.019267243         3981 
 3597000    0.6774548   -7.4790508    835.25431  0.019350716  0.019260076         3982 
 3598000   0.67330956   -7.5233212    832.76815  0.019287756  0.019252923         3983 
 3599000   0.67575675   -7.5189726    834.24434  0.019316577  0.019245763         3980 
 3600000   0.67530047   -7.4867222    833.85234  0.019302138  0.019238609         3986 
 3601000    0.6797944   -7.5115188     833.2887  0.019283734  0.019231457         3980 
 3602000   0.66675623   -7.5256426    833.58554  0.019285248  0.019224312         3991 
 3603000   0.68269976   -7.5063822    833.73827  0.019283428  0.019217167         3985 
 3604000   0.66363158   -7.5020577    832.92717  0.019259322  0.019210027         3986 
 3605000    0.6804061   -7.5321522    833.47228  0.019266581   0.01920289         3992 
 3606000   0.66875573   -7.5125319     833.9012   0.01927115  0.019195745         3994 
 3607000   0.68039084   -7.5167521    832.94177  0.019243641  0.019188601         3994 
 3608000   0.69723103   -7.5003353    834.10033  0.019265067  0.019181456         3995 
 3609000    0.6713145   -7.5263346    833.07798  0.019236122  0.019174309         3992 
 3610000   0.68274249   -7.5218897    835.03076  0.019275872  0.019167167         3989 
 3611000   0.66612205   -7.5241916    832.26075  0.019206608  0.019160022         3997 
 3612000   0.66445403   -7.5081716     832.3859  0.019204178  0.019152875         3993 
 3613000   0.67202734   -7.5100537    833.26324  0.019219099  0.019145749         3994 
 3614000   0.68700447   -7.4997754    832.56907  0.019197774  0.019138617         3996 
 3615000   0.67606666    -7.509682    830.94538  0.019155034  0.019131488         3986 
 3616000   0.68388901   -7.5353156     833.7369  0.019214069  0.019124371         3998 
 3617000   0.68461612   -7.5067267    832.97391  0.019191178  0.019117241         3997 
 3618000   0.66991145   -7.5229395    833.50913  0.019198202  0.019110123         3993 
 3619000    0.6809967   -7.5205291    833.11806  0.019183892  0.019102999         3997 
 3620000   0.69236762   -7.5160568    832.85573  0.019172554   0.01909589         3993 
 3621000   0.67789514   -7.5319912    834.04286  0.019194579  0.019088776         3991 
 3622000   0.66481856   -7.5210867    832.98289  0.019164893  0.019081669         3992 
 3623000   0.66291397   -7.5410003    832.95741  0.019159017  0.019074557         3993 
 3624000   0.67741134   -7.5199091    832.56127  0.019144621  0.019067453         3993 
 3625000   0.66566578   -7.5208516    832.40571  0.019135764   0.01906035         3997 
 3626000   0.66688944   -7.5240029    832.29026  0.019127833  0.019053255         3991 
 3627000   0.67403561   -7.5190656    832.59189  0.019129489  0.019046163         3994 
 3628000   0.67952852      -7.5097    832.52424  0.019122663  0.019039076         3990 
 3629000   0.66836878   -7.5328291     833.6478  0.019143194  0.019031988         3987 
 3630000   0.68020651   -7.5355586    831.48321  0.019088228  0.019024901         3995 
 3631000   0.66167105   -7.5173188    832.62874  0.019109261  0.019017813         3996 
 3632000   0.66162596   -7.5291922    833.16107  0.019116214  0.019010735         3998 
 3633000   0.65625171   -7.5259902    832.08587  0.019086289  0.019003641         3994 
 3634000   0.66130297   -7.5456598    832.66268  0.019094264  0.018996554         3998 
 3635000   0.67277498   -7.5309517    832.37858  0.019082498  0.018989473         3990 
 3636000   0.66343392   -7.5255815     830.9533  0.019044584  0.018982403         3996 
 3637000   0.67623664   -7.5317056    831.89864  0.019061008  0.018975333         3996 
 3638000   0.67221957   -7.5179965    833.73043  0.019097728  0.018968268         3994 
 3639000   0.67603292   -7.5236593    832.46843   0.01906358  0.018961206         3994 
 3640000   0.66780942   -7.5285343    832.33309  0.019055245  0.018954138         3992 
 3641000   0.67579946     -7.52806     832.4838  0.019053461  0.018947074         3995 
 3642000   0.65977125   -7.5210049    831.49022  0.019025495   0.01894002         3991 
 3643000   0.66063696   -7.5351175     832.3269  0.019039411  0.018932961         3996 
 3644000   0.67051691   -7.5089526    832.84672  0.019046074  0.018925904         3997 
 3645000   0.65670896   -7.5236168    830.57806  0.018988982  0.018918856         3994 
 3646000   0.66441922    -7.526911    832.18095  0.019020409  0.018911808         3997 
 3647000   0.66729881   -7.5043626    833.74446   0.01905092  0.018904762         3998 
 3648000    0.6730972   -7.5200547    832.23056  0.019011115  0.018897723         3993 
 3649000   0.67074396   -7.5189856     832.4138   0.01901009  0.018890683         3998 
 3650000   0.67867103   -7.5346598    832.05227  0.018996627  0.018883646         4000 
 3651000   0.65698335   -7.5241116    832.49854   0.01900161  0.018876617         3998 
 3652000   0.66286088   -7.5373496    832.24593  0.018990643  0.018869589         3993 
 3653000   0.66528431   -7.5383663    832.07131  0.018981461  0.018862558         3988 
 3654000   0.66858285   -7.5312561    832.04343   0.01897563  0.018855536         3990 
 3655000   0.66959668   -7.5170633     832.5172   0.01898124  0.018848512         3990 
 3656000   0.65583855   -7.5485258    833.72983  0.019003689  0.018841487         3990 
 3657000   0.67424768   -7.5328911    832.37144  0.018967538   0.01883447         3991 
 3658000    0.6702711    -7.510477    831.24912  0.018936785  0.018827459         3994 
 3659000   0.66341628   -7.5443348     834.8051  0.019012597  0.018820445         3997 
 3660000   0.66729057   -7.5174375    831.36889  0.018929164  0.018813433         3988 
 3661000   0.65756885   -7.5270775    833.25483  0.018966922  0.018806423         3990 
 3662000   0.66061655   -7.5274345     832.0672  0.018934717  0.018799415         3996 
 3663000    0.6678735   -7.5525633    832.04717  0.018929092  0.018792417         3995 
 3664000   0.67630505   -7.5197125    832.61307  0.018936797  0.018785423         3995 
 3665000   0.65856131   -7.5664518    832.50175  0.018929098  0.018778428         3999 
 3666000   0.65729617   -7.5493658    832.71244  0.018928724   0.01877143         3991 
 3667000    0.6575987   -7.5388827    831.30247   0.01889152  0.018764444         3994 
 3668000   0.67605605   -7.5482035    830.91573  0.018877584  0.018757458         3998 
 3669000   0.67008521   -7.5269024    833.22414  0.018924869   0.01875047         3995 
 3670000    0.6591244   -7.5249965    830.72144  0.018862885  0.018743483         3995 
 3671000   0.66671725    -7.522465    833.15105    0.0189129  0.018736504         3995 
 3672000   0.66387311    -7.524286    832.31498  0.018888775  0.018729524         3992 
 3673000   0.65972457   -7.5350899    831.50902  0.018865347  0.018722553         3996 
 3674000   0.65660429   -7.5224798    832.70952  0.018887441  0.018715585         3987 
 3675000   0.65930666   -7.5318182    832.22743   0.01887137  0.018708613         3994 
 3676000   0.66979841    -7.528178    831.79181  0.018856361  0.018701649         3995 
 3677000   0.65930712   -7.5465248    832.14662  0.018859274  0.018694692         4000 
 3678000   0.65996739   -7.5359373    834.36261  0.018904355   0.01868773         3993 
 3679000    0.6660141   -7.5366257    831.58379  0.018836273  0.018680762         3991 
 3680000   0.65204606   -7.5414491    832.84612   0.01885974  0.018673812         3996 
 3681000   0.67260993   -7.5293857    834.14122  0.018883936  0.018666858         3989 
 3682000    0.6549967   -7.5390477     832.0035  0.018830425  0.018659905         3997 
 3683000   0.66654146   -7.5214404    831.74333  0.018819426  0.018652956         3989 
 3684000   0.65633781   -7.5051644    832.56257  0.018832849  0.018646013         3991 
 3685000    0.6641322   -7.5414219    832.33808  0.018822661  0.018639076         3995 
 3686000   0.65217585   -7.5404985    831.28683  0.018793788  0.018632141         3993 
 3687000   0.65965491      -7.5503    831.68393  0.018797666  0.018625201         3993 
 3688000   0.66552881   -7.5322259    831.94998  0.018798581  0.018618263         3989 
 3689000    0.6569402   -7.5615185    832.45291  0.018804846   0.01861133         3995 
 3690000   0.66527065    -7.541338    831.25668  0.018772735  0.018604395         3998 
 3691000   0.66765505   -7.5362805    831.12026  0.018764568  0.018597472         3993 
 3692000   0.65950799   -7.5262288    832.73939  0.018796032  0.018590544         3996 
 3693000   0.66590481   -7.5494129    832.04453  0.018775262  0.018583621         3994 
 3694000   0.65279617   -7.5382031    831.00691  0.018746772  0.018576704         3991 
 3695000   0.65763136   -7.5448762    832.17019  0.018767934  0.018569786         4000 
 3696000   0.66084398   -7.5454482    832.41793  0.018768442  0.018562871         3993 
 3697000   0.66594573   -7.5356568     831.2835  0.018737794  0.018555958         3996 
 3698000   0.65866734   -7.5480965    831.96617  0.018748111  0.018549055         3993 
 3699000   0.66705268   -7.5446645    832.34158    0.0187515  0.018542157         3997 
 3700000   0.65338532   -7.5365129    831.21922  0.018721154  0.018535256         3999 
 3701000   0.65730328   -7.5276016    832.06813   0.01873521  0.018528352         3997 
 3702000   0.66096521   -7.5261457    831.33095  0.018713555  0.018521449         3998 
 3703000   0.65276767   -7.5348929    830.60917  0.018692258  0.018514552         3998 
 3704000   0.65542666   -7.5314026    832.49742  0.018729694   0.01850766         3991 
 3705000   0.65853728   -7.5332317    831.94274  0.018712162  0.018500771         3991 
 3706000   0.66357049     -7.53383    831.65073  0.018700547  0.018493881         3997 
 3707000     0.654383   -7.5319497     832.2574   0.01870914  0.018486993         3989 
 3708000     0.665824   -7.5428989     832.8266  0.018716887  0.018480115         3998 
 3709000   0.67258453   -7.5400111    834.43648  0.018748011   0.01847324         3992 
 3710000   0.65189401   -7.5240735      832.574  0.018701123  0.018466365         3989 
 3711000   0.66556987   -7.5570731    832.26778  0.018689207  0.018459494         3993 
 3712000   0.65007578   -7.5297326    831.04907  0.018656813  0.018452626         3994 
 3713000   0.65491739   -7.5365587    833.20121   0.01870009  0.018445753         3993 
 3714000   0.66261828   -7.5226092    831.69618  0.018661286  0.018438887         3990 
 3715000   0.66282446   -7.5551958    832.06727  0.018664587  0.018432021         3998 
 3716000   0.64230101   -7.5478029    832.89559  0.018678139  0.018425156         3997 
 3717000   0.67096473   -7.5529019     831.5949  0.018643954  0.018418299         3996 
 3718000   0.66394198   -7.5443862    830.62273  0.018617149  0.018411445         3992 
 3719000    0.6541078   -7.5457474    831.75843  0.018637592  0.018404596         3997 
 3720000   0.67164259   -7.5424455    832.38869    0.0186467  0.018397747         3991 
 3721000   0.66111018   -7.5593436    831.52103  0.018622257  0.018390898         3993 
 3722000   0.66449668   -7.5385375    832.57888  0.018640939  0.018384051         3992 
 3723000   0.66002702   -7.5271366    831.37877  0.018609069  0.018377208         3995 
 3724000    0.6593371   -7.5543226    831.20869  0.018600266  0.018370365         3992 
 3725000   0.65847162   -7.5560127    830.26257  0.018574107  0.018363529         3994 
 3726000    0.6525097   -7.5446565    831.90945  0.018605955  0.018356696         3995 
 3727000   0.65862221   -7.5679784    832.90816  0.018623293  0.018349864         3999 
 3728000    0.6676737   -7.5436478    832.11352  0.018600535  0.018343039         3995 
 3729000   0.66491951    -7.549077    831.85615  0.018589795  0.018336216         3998 
 3730000   0.63404984   -7.5380041    830.63234   0.01855747  0.018329387         3997 
 3731000   0.66470976   -7.5333069    830.30798  0.018545251  0.018322563         3996 
 3732000   0.64164446   -7.5637606    830.34229  0.018541048  0.018315734         3995 
 3733000   0.65448107   -7.5381729    830.45742  0.018538651  0.018308922         3989 
 3734000   0.65107289    -7.551337    831.90288  0.018565945  0.018302112         3995 
 3735000   0.64607984   -7.5536768    831.67272  0.018555839  0.018295299         3992 
 3736000   0.64403271   -7.5278075    833.30968  0.018587386  0.018288492         3998 
 3737000   0.65661371    -7.550604    831.74955  0.018547622  0.018281686         3996 
 3738000   0.64585336   -7.5639296    831.95725   0.01854729  0.018274876         3998 
 3739000   0.64972962   -7.5453545     830.8485  0.018517618   0.01826808         3999 
 3740000   0.64936495   -7.5278715    830.71855  0.018509772  0.018261278         3994 
 3741000   0.65088644     -7.54777    833.01293  0.018555933   0.01825448         3997 
 3742000   0.66546297   -7.5230517    830.80458  0.018501794  0.018247686         3997 
 3743000   0.66357528   -7.5421755    832.13426  0.018526455  0.018240891         3999 
 3744000   0.64648018     -7.56906     830.0985  0.018476195  0.018234098         3995 
 3745000    0.6495518   -7.5319652    830.72498  0.018485202  0.018227314         3993 
 3746000   0.65877011   -7.5301353    830.79918  0.018481918  0.018220531         3997 
 3747000   0.65742898    -7.552036    830.28584  0.018465569  0.018213747         3998 
 3748000   0.64713297   -7.5426128     829.7637  0.018449033  0.018206967         3993 
 3749000   0.67272043   -7.5357608     831.9889  0.018493574  0.018200192         3999 
 3750000    0.6499547   -7.5555022    831.33868  0.018474193  0.018193426         3996 
 3751000   0.63357415   -7.5485779    832.05229  0.018485122  0.018186664         3993 
 3752000   0.64212189   -7.5319223    828.97162  0.018411772  0.018179892         3991 
 3753000   0.66058063   -7.5583806    830.46714  0.018440073  0.018173124         4000 
 3754000   0.66105956   -7.5687143    831.09664  0.018449135  0.018166363         3989 
 3755000   0.64961634   -7.5535538    832.01878  0.018464687  0.018159612         3998 
 3756000   0.65785188   -7.5563871    831.52971   0.01844892  0.018152862         3997 
 3757000   0.65141576   -7.5601771    832.28752  0.018460818  0.018146109         3993 
 3758000   0.64697774   -7.5590507    833.23338   0.01847688  0.018139353         3996 
 3759000   0.64799743   -7.5574003    831.01483  0.018422782   0.01813261         3992 
 3760000   0.66052371   -7.5414861    831.20904  0.018422186  0.018125863         3993 
 3761000   0.64986289   -7.5645006    831.71703  0.018428544   0.01811912         3996 
 3762000   0.63789636   -7.5547345    830.18488  0.018389706  0.018112377         3994 
 3763000   0.64176636   -7.5570874    832.83211  0.018443443  0.018105639         3995 
 3764000   0.66194852   -7.5655666      830.722  0.018391826  0.018098906         3994 
 3765000   0.64702164   -7.5538922    830.62206  0.018384729  0.018092172         3992 
 3766000   0.64948442   -7.5356998    832.28846  0.018416721  0.018085444         3996 
 3767000   0.64317462   -7.5479631    829.31159  0.018345978   0.01807872         3991 
 3768000   0.65247311   -7.5559735    833.02648  0.018423268  0.018071996         3997 
 3769000   0.62950985   -7.5680437    830.72628  0.018367522  0.018065271         3991 
 3770000   0.65252806   -7.5750823    830.01883  0.018347012  0.018058551         3991 
 3771000   0.62252974   -7.5578221    830.44907  0.018351655  0.018051829         3997 
 3772000   0.65600213   -7.5504846    830.46263  0.018347089  0.018045115         3996 
 3773000   0.66637163   -7.5492272    831.34969  0.018361818  0.018038401         3997 
 3774000   0.65069682   -7.5421474    831.63888  0.018363339  0.018031696         3998 
 3775000     0.646836   -7.5652309    831.32543  0.018351555  0.018024993         3992 
 3776000   0.65523255   -7.5702959    831.79466   0.01835705  0.018018291         3994 
 3777000   0.65357961   -7.5554614    829.75148  0.018307111  0.018011591         3996 
 3778000   0.63985527   -7.5416708    830.52075  0.018319233  0.018004895         3994 
 3779000   0.64549886   -7.5424967    830.20446  0.018307411  0.017998203         3994 
 3780000   0.65767015   -7.5555819     831.7127  0.018335818  0.017991507         3998 
 3781000     0.644042   -7.5737996    830.32706  0.018300429  0.017984821         3996 
 3782000   0.66393405   -7.5616185    831.38077  0.018318808   0.01797813         3999 
 3783000   0.64620282   -7.5598209    830.10145  0.018285784  0.017971439         3996 
 3784000   0.65432416   -7.5611244    829.63858  0.018270758  0.017964759         3997 
 3785000   0.65163597   -7.5555211    830.92502  0.018294254  0.017958087         3998 
 3786000   0.63822592   -7.5412259    831.13221  0.018293982  0.017951418         3996 
 3787000   0.63102354    -7.542138    830.72955  0.018280291  0.017944743         3994 
 3788000   0.64614069    -7.562132      832.044  0.018304382  0.017938074         3999 
 3789000   0.65342438   -7.5642814    830.71762   0.01827038  0.017931411         3996 
 3790000   0.63024538   -7.5684562    830.81722  0.018267749  0.017924744         3990 
 3791000   0.64878205   -7.5618231    830.81172  0.018262809  0.017918081         3995 
 3792000   0.64608199   -7.5530373    831.12196  0.018264811  0.017911421         3991 
 3793000   0.64356188   -7.5418651    831.62869  0.018271129  0.017904764         3992 
 3794000   0.65146732   -7.5660041    830.65277  0.018244877  0.017898105         3992 
 3795000     0.649874   -7.5671505    830.72974   0.01824176  0.017891461         3994 
 3796000   0.63616832   -7.5754662    831.25483  0.018248482  0.017884816         3996 
 3797000   0.63937216   -7.5466799     832.4392  0.018269669  0.017878172         3989 
 3798000   0.63441249   -7.5538399    830.60201  0.018224548  0.017871533         3995 
 3799000   0.65118189   -7.5496783    832.61934  0.018264002  0.017864895         4000 
 3800000   0.64069879   -7.5458541    831.67471   0.01823848  0.017858255         3989 
 3801000   0.64275533   -7.5654767    831.40902  0.018227857  0.017851619         3995 
 3802000   0.64037285   -7.5548917     830.4777   0.01820265  0.017844988         3995 
 3803000   0.65104218   -7.5408441    830.02408  0.018187923  0.017838359         3995 
 3804000   0.65658227   -7.5503724    831.41629  0.018213641  0.017831734         3991 
 3805000    0.6278103   -7.5656536    832.11366  0.018224128  0.017825111         3992 
 3806000   0.64370943   -7.5661911     829.8489  0.018169752  0.017818488         3992 
 3807000   0.63917764   -7.5694428    831.96836  0.018211373  0.017811874         3992 
 3808000   0.63531114   -7.5525463     830.8304  0.018181688   0.01780526         3996 
 3809000   0.65607126   -7.5697954    830.30857  0.018165498  0.017798648         3996 
 3810000   0.66723875   -7.5655611    828.63847  0.018124201  0.017792041         3998 
 3811000   0.66006192   -7.5747786    831.52631  0.018182592  0.017785436         3993 
 3812000   0.63717216     -7.56121    830.96816  0.018165621  0.017778836         3994 
 3813000   0.65216557   -7.5566441     831.2694   0.01816744  0.017772229         3999 
 3814000   0.63886565   -7.5871697    831.49185  0.018167537  0.017765637         3994 
 3815000   0.63587801   -7.5745641    830.85731  0.018148915  0.017759041         3996 
 3816000   0.63643652   -7.5715032    831.84645  0.018165759  0.017752448         3995 
 3817000   0.64151571   -7.5618091    831.39897  0.018151231  0.017745859         3993 
 3818000   0.64548823   -7.5583084    831.39695  0.018146433  0.017739272         3996 
 3819000   0.64758993   -7.5560987    830.07673  0.018112873  0.017732683         3994 
 3820000   0.64508317   -7.5896047    829.94404  0.018105236  0.017726106         3994 
 3821000   0.64608597   -7.5512563    830.33857  0.018109103  0.017719523         3994 
 3822000   0.64216658   -7.5725386    831.73502  0.018134812  0.017712945         3995 
 3823000   0.63373888   -7.5743294    830.85537  0.018110894  0.017706375         3992 
 3824000   0.63739743   -7.5509269    830.57781  0.018100109  0.017699804         3995 
 3825000   0.64126526    -7.583328    830.97569  0.018104046  0.017693234         3995 
 3826000   0.64272431   -7.5822367    830.94279  0.018098597  0.017686675         3995 
 3827000   0.64776248   -7.5456196    831.58024  0.018107749  0.017680118         3998 
 3828000    0.6350055   -7.5864304    830.57988  0.018081241  0.017673557         3995 
 3829000   0.65653196   -7.5611913    832.77902   0.01812438  0.017666995         3998 
 3830000   0.62635749   -7.5469294    829.87318  0.018056423  0.017660448         3992 
 3831000   0.64683175   -7.5715415    831.07591  0.018077871  0.017653889         3993 
 3832000   0.64109076    -7.541453     830.0019  0.018049798  0.017647341         3995 
 3833000   0.63663111   -7.5837416    832.26138  0.018094212  0.017640791         3999 
 3834000   0.64784598   -7.5822813     830.8441  0.018058688  0.017634249         3997 
 3835000   0.63587009   -7.5403598    831.43755  0.018066874  0.017627713         3994 
 3836000   0.64102055   -7.5831251    830.74305  0.018047077  0.017621173         3997 
 3837000   0.62308769    -7.585125    831.37667  0.018056135  0.017614637         3994 
 3838000   0.63249152   -7.5683372    830.21444  0.018026195  0.017608104         3996 
 3839000   0.64121879   -7.5767742    831.52216  0.018049886  0.017601572         3997 
 3840000   0.63336095   -7.5565517    831.31205  0.018040626  0.017595043         3989 
 3841000   0.63439859   -7.5744134    832.73107  0.018066716  0.017588519         3996 
 3842000   0.64226916    -7.566478    831.80594  0.018041947  0.017581995         3994 
 3843000   0.64096642   -7.5779503    832.12771   0.01804423  0.017575475         3994 
 3844000   0.64526271   -7.5842103    829.29365  0.017978097  0.017568954         3994 
 3845000   0.63172466   -7.5697571    830.68375  0.018003549  0.017562435         3997 
 3846000   0.65075079   -7.5676149    829.82657  0.017980295  0.017555918         3996 
 3847000   0.62360579   -7.5583778    831.72759  0.018016801  0.017549413         3998 
 3848000   0.63010049   -7.5773933    830.31632  0.017981556  0.017542908         3992 
 3849000   0.63276003   -7.5551302    830.33268  0.017977238  0.017536402         3997 
 3850000   0.62895657   -7.5719442    829.95363  0.017964364  0.017529902         3995 
 3851000   0.63832917   -7.5654967    829.41122  0.017947962  0.017523404         3997 
 3852000    0.6504905   -7.5713125     830.8776  0.017975026  0.017516918         3988 
 3853000   0.63251041   -7.6039821    830.77511  0.017968144  0.017510422         3991 
 3854000   0.63474562   -7.5753689    830.53203  0.017958226  0.017503927         3996 
 3855000   0.62024106   -7.5685938    831.06121  0.017965007  0.017497436         4000 
 3856000   0.64187679   -7.5751303    830.64188  0.017951285  0.017490958         3995 
 3857000    0.6296638   -7.5542355    829.37166  0.017919187  0.017484477         3997 
 3858000   0.63388371   -7.5960486    830.80628  0.017945531  0.017477995         3996 
 3859000   0.63484143    -7.553358    829.67672  0.017916488  0.017471515         3995 
 3860000    0.6377677    -7.555534    831.08785  0.017942311  0.017465046         3999 
 3861000   0.64019511   -7.5778214    830.84332  0.017932386  0.017458575         3992 
 3862000   0.64290263   -7.5772905    830.84833  0.017927851  0.017452106         4000 
 3863000   0.63661152   -7.5809022    829.31303   0.01789009  0.017445634         3994 
 3864000   0.63376483   -7.5586907    830.63516  0.017913974  0.017439171         3997 
 3865000   0.63969747   -7.5789017    830.98987  0.017916987  0.017432708         3997 
 3866000   0.64434986   -7.5722861    829.34268  0.017876847  0.017426247         3996 
 3867000   0.64045718   -7.5769796    830.01809  0.017886779  0.017419798         3996 
 3868000   0.63880279   -7.5801395    830.49823  0.017892499  0.017413347         3997 
 3869000   0.63015027   -7.5695682     829.8281  0.017873441  0.017406898         3998 
 3870000   0.63093945   -7.5902042    831.42812  0.017903276  0.017400457         3995 
 3871000   0.63927908   -7.5724232    830.68636  0.017882682  0.017394005         3995 
 3872000   0.64361883   -7.5720564    831.38957  0.017893198  0.017387562         3998 
 3873000    0.6247572   -7.5703229    829.97164  0.017858069  0.017381125         3996 
 3874000   0.63691988   -7.5896398    831.33008  0.017882681  0.017374685         3995 
 3875000   0.65239437   -7.5698618    830.43054  0.017858721   0.01736825         3996 
 3876000   0.62606378   -7.5618074    830.31143  0.017851553  0.017361821         3993 
 3877000   0.63402929   -7.5682095    831.45467  0.017871522  0.017355386         3998 
 3878000   0.64028325   -7.5766631    830.30955  0.017842306  0.017348961         3994 
 3879000   0.62774302    -7.560898    831.62914  0.017866055  0.017342535         3993 
 3880000   0.64363555   -7.5748783    830.88979  0.017845571  0.017336116         3993 
 3881000   0.62328716   -7.5839795    830.39461   0.01783034  0.017329696         3991 
 3882000   0.62992838   -7.5904865    828.90945  0.017793866  0.017323275         3998 
 3883000   0.63082256   -7.5841194    829.27707  0.017797173  0.017316863         3993 
 3884000   0.63616783   -7.5760864    829.40975  0.017795437  0.017310453         3994 
 3885000   0.63536955   -7.5902333    829.78958  0.017799004  0.017304041         3988 
 3886000   0.62319617    -7.572688    828.81491  0.017773523  0.017297637         3993 
 3887000   0.62968894   -7.5631225    829.31058  0.017779577  0.017291234         3996 
 3888000   0.62672085   -7.5740863    829.41272  0.017777193  0.017284834         3997 
 3889000   0.63990333   -7.5800295    829.56807  0.017775951  0.017278439         3998 
 3890000   0.62518421   -7.5750378    829.51591  0.017770264  0.017272047         3994 
 3891000   0.62672125   -7.5644558    830.32184  0.017782957  0.017265656         3998 
 3892000   0.63001108   -7.5836394     830.7041  0.017786573  0.017259267         3997 
 3893000   0.64099904    -7.592111    830.40462  0.017775593  0.017252881         3995 
 3894000   0.62815107    -7.591143    830.49331  0.017772927  0.017246493         3995 
 3895000   0.62839169   -7.5939804     829.6425  0.017750161  0.017240109         3994 
 3896000   0.62163686   -7.5861455    830.26517  0.017758923  0.017233731         3995 
 3897000   0.64056084   -7.5752819     831.0082  0.017770255  0.017227355         3998 
 3898000   0.61364002   -7.5751606    830.10509  0.017746389  0.017220984         3996 
 3899000   0.61972366   -7.5763682    829.92198  0.017737924  0.017214616         3999 
 3900000   0.63585125   -7.5818798    829.01976  0.017714097  0.017208246         3996 
 3901000   0.63206303    -7.583479    830.97077  0.017751234  0.017201876         4000 
 3902000    0.6316196   -7.5857899    829.61997  0.017717836  0.017195517         3997 
 3903000   0.63531302   -7.5701163    829.24266  0.017705241  0.017189153         3998 
 3904000   0.62252502   -7.5876135    830.66775  0.017731125  0.017182794         3994 
 3905000   0.61760477   -7.6004911    830.54439  0.017723952  0.017176444         3994 
 3906000   0.63292518   -7.5824345    831.08176  0.017730879  0.017170089         3998 
 3907000   0.61919931    -7.589257    829.66231  0.017696065  0.017163743         3998 
 3908000   0.61684133   -7.5787464    829.77217  0.017693879  0.017157392         3997 
 3909000   0.62814799    -7.612343     828.8315  0.017669299  0.017151048         3998 
 3910000   0.63259522   -7.5981474    829.41329   0.01767718  0.017144704         3999 
 3911000   0.61202012   -7.5764549    830.50708  0.017695966  0.017138369         3998 
 3912000   0.63047126   -7.5740181    829.92469  0.017679037  0.017132034         3994 
 3913000   0.64023589   -7.5700255    830.21247  0.017680647    0.0171257         3993 
 3914000   0.62636331    -7.583548    829.25431   0.01765573  0.017119369         3995 
 3915000   0.63096247   -7.5757736    830.26747  0.017672786  0.017113037         3991 
 3916000   0.62523832   -7.5757732    831.60078  0.017696646  0.017106716         3996 
 3917000   0.63582658   -7.5851855    829.85368  0.017654959  0.017100393         3997 
 3918000   0.64151258   -7.5974321    828.54504  0.017622619  0.017094076         3994 
 3919000    0.6333824   -7.6008469    830.29954  0.017655429  0.017087756         3997 
 3920000   0.61845528   -7.5784548    830.85599  0.017662755  0.017081444         3995 
 3921000    0.6123128    -7.609734     829.1244  0.017621449  0.017075129         3997 
 3922000   0.62360888   -7.5860626    829.67861  0.017628731  0.017068821         3995 
 3923000   0.62502303   -7.5815299    829.43338  0.017619028  0.017062518         3994 
 3924000   0.63484033   -7.5848383    830.69544   0.01764134  0.017056218         3996 
 3925000   0.62279882   -7.5897582    829.69178  0.017615537  0.017049916         3997 
 3926000   0.60947299   -7.5874217    830.08543  0.017619405  0.017043624         3999 
 3927000   0.62064723   -7.5744096    829.95541   0.01761216   0.01703733         3995 
 3928000    0.6101576   -7.6003222    828.55134  0.017577888  0.017031035         3995 
 3929000   0.61788897    -7.572535    831.47756  0.017635479  0.017024739         3998 
 3930000   0.61824277   -7.5974212    829.63269  0.017591872   0.01701845         3995 
 3931000   0.60741373   -7.5794088    831.91679  0.017635818  0.017012162         3997 
 3932000   0.61762258   -7.5797024    829.17702  0.017573267  0.017005882         3998 
 3933000   0.62056248   -7.5892295    828.76058  0.017559975  0.016999606         3999 
 3934000   0.62851822   -7.5880296    829.55974   0.01757244  0.016993327         3997 
 3935000   0.62502701   -7.5859553    830.24053  0.017582392  0.016987056         3997 
 3936000   0.62206631   -7.5986547     828.8965  0.017549469  0.016980783         3997 
 3937000   0.61955938   -7.5935701    829.86244  0.017565457  0.016974518         3998 
 3938000   0.61742632   -7.5661152    829.92352  0.017562289  0.016968253         3999 
 3939000   0.61147708   -7.5856414    828.96217  0.017537492   0.01696199         3999 
 3940000   0.62348169   -7.6074786    830.34507   0.01756229  0.016955727         3993 
 3941000   0.62713879   -7.5708609    830.72134   0.01756579  0.016949468         3996 
 3942000   0.61889316   -7.5942618    827.78484  0.017499257  0.016943212         4000 
 3943000    0.6290623   -7.5813352    829.77826  0.017536949   0.01693696         3995 
 3944000   0.62085577   -7.5857837    828.16614  0.017498439  0.016930711         3998 
 3945000   0.62785573   -7.5791228    829.80044  0.017528526  0.016924465         3992 
 3946000   0.62111387   -7.5943454    829.88554  0.017525881  0.016918222         3996 
 3947000   0.61064188   -7.5917631    829.22869  0.017507573  0.016911978         3998 
 3948000   0.60433203    -7.590505    829.11542  0.017500748  0.016905739         3998 
 3949000   0.62378671    -7.620522    830.10156  0.017517126  0.016899503         4000 
 3950000   0.61242198   -7.5923531    830.26922  0.017516228  0.016893267         3996 
 3951000   0.61478101   -7.5868474    829.09354  0.017486998  0.016887039         3995 
 3952000    0.6144293   -7.5982384    830.63905  0.017515162  0.016880808         3995 
 3953000   0.62320209    -7.605679    831.55909  0.017530127  0.016874585         3997 
 3954000   0.61311964   -7.6194469    829.33105  0.017478736  0.016868353         3999 
 3955000   0.62803097   -7.5912282    829.15469    0.0174706  0.016862132         3995 
 3956000   0.60517196   -7.5704941    828.78618  0.017458421  0.016855907         3998 
 3957000   0.62687196   -7.5851827     828.7724  0.017453719   0.01684969         3993 
 3958000   0.62849805   -7.6034422    828.62328   0.01744617  0.016843476         3997 
 3959000   0.62506863   -7.5857782    830.15103  0.017473921  0.016837269         3994 
 3960000   0.60697799   -7.5818239    829.14765  0.017448393  0.016831066         3994 
 3961000   0.61828255   -7.5820159    829.04924  0.017441918  0.016824862         3995 
 3962000   0.61796892   -7.5904692    829.61238   0.01744936  0.016818661         3997 
 3963000    0.6306284   -7.5973854    830.40899  0.017461708  0.016812465         3989 
 3964000   0.61470658   -7.5964982    827.97311  0.017406095  0.016806268         3991 
 3965000   0.61790752   -7.5962585    829.33994  0.017430432  0.016800067         3996 
 3966000   0.61356041   -7.6061511     828.8462  0.017415662  0.016793871         3996 
 3967000    0.6203934   -7.5908069      829.294  0.017420679  0.016787681         3999 
 3968000   0.60451816   -7.5942809    828.65797  0.017402931  0.016781491         3997 
 3969000   0.61562469   -7.6035807    827.62411  0.017376839  0.016775301         3996 
 3970000   0.61320557   -7.5972265    828.92179  0.017399702  0.016769116         3995 
 3971000    0.6151395   -7.6026325    829.35274  0.017404364  0.016762938         3996 
 3972000   0.60908842   -7.5878606    828.73912  0.017387108  0.016756762         3998 
 3973000   0.61314403   -7.5947449    830.22872  0.017413976  0.016750589         3994 
 3974000   0.62600386     -7.59702     828.5186  0.017373733  0.016744413         3994 
 3975000   0.62173773   -7.6029801    828.20551  0.017362799  0.016738243         3994 
 3976000   0.61565052   -7.6156455     829.2154  0.017379598  0.016732074         3995 
 3977000   0.61323763   -7.6002977     828.1034  0.017351928   0.01672591         3998 
 3978000   0.62279236   -7.6050458    827.85585   0.01734238  0.016719748         3996 
 3979000   0.61171848   -7.5826139    828.92069  0.017360323  0.016713582         4000 
 3980000   0.61373482   -7.6165558    828.93485  0.017356257  0.016707421         3997 
 3981000   0.60163553   -7.5875471    828.95066  0.017352229  0.016701263         3997 
 3982000   0.60838988   -7.6021659    829.01952  0.017349312  0.016695115         3997 
 3983000   0.60956242   -7.5793611    829.29944  0.017350813  0.016688967         3997 
 3984000    0.6146815   -7.6051387    831.14265  0.017385012  0.016682822         3999 
 3985000   0.60835958   -7.5850135    829.83229  0.017353247  0.016676675         3989 
 3986000   0.60737332   -7.5864731     828.5903  0.017322928   0.01667053         3998 
 3987000   0.60276019   -7.6317385    828.30157  0.017312549  0.016664388         3994 
 3988000   0.60941373   -7.6014668    828.80793  0.017318788   0.01665825         3999 
 3989000   0.60247905   -7.5837474    827.95407  0.017296609  0.016652117         3993 
 3990000   0.59990731   -7.6110574    829.25546  0.017319454  0.016645982         3995 
 3991000   0.61468254   -7.6018195    828.78338  0.017305257  0.016639856         3999 
 3992000   0.60589676   -7.5993265    828.52103  0.017295446  0.016633732         3999 
 3993000   0.61123062   -7.6084436    829.53338  0.017312242  0.016627607         3995 
 3994000   0.60981688   -7.6123171    827.88979  0.017273614  0.016621485         3994 
 3995000   0.60652712   -7.6126237    829.04351  0.017293357  0.016615366         3998 
 3996000   0.61060819   -7.6151286    829.50269  0.017298605  0.016609252         3998 
 3997000   0.61546554   -7.6050203     828.9237  0.017282205  0.016603139         3995 
 3998000   0.61071818   -7.6078378       830.48  0.017310322  0.016597029         3995 
 3999000   0.60503798    -7.601349    829.43595  0.017284237  0.016590924         3995 
 4000000   0.60882188   -7.6122862    829.74982  0.017286455  0.016584818         3997 
 4001000   0.61379085   -7.5994416    828.27505  0.017251417  0.016578714         3996 
 4002000    0.6100443   -7.6130085    829.37528  0.017270017  0.016572608         3998 
 4003000   0.60990475   -7.6094986    829.62172  0.017270833  0.016566511         3998 
 4004000   0.60667159   -7.6124324    829.48819   0.01726374  0.016560417         3999 
 4005000   0.60365736   -7.6100587     830.7098  0.017284848  0.016554324         3994 
 4006000   0.61106205   -7.6074347     828.6808  0.017238326  0.016548234         3995 
 4007000   0.60517616   -7.5935515    830.51198  0.017272107  0.016542149         3996 
 4008000   0.61110813   -7.5968165    828.90009  0.017234283  0.016536063         3996 
 4009000   0.61239648    -7.611736    829.54412  0.017243372  0.016529982         3998 
 4010000   0.60968778   -7.6221018    828.29232  0.017213057  0.016523902         3993 
 4011000   0.61777263   -7.6290459    830.46107  0.017253824  0.016517822         3993 
 4012000   0.60381416   -7.6062491    828.57168  0.017210279  0.016511747         3994 
 4013000   0.59923761   -7.6103151     827.2875  0.017179323  0.016505674         3999 
 4014000   0.62765306    -7.610861     829.3394  0.017217642  0.016499606         3997 
 4015000   0.58973546     -7.60869    829.58556  0.017218463  0.016493544         3997 
 4016000   0.61938162   -7.6156842    828.86808  0.017199288  0.016487478         3999 
 4017000   0.61954133   -7.5994547    826.68806  0.017149781  0.016481413         3995 
 4018000   0.63205929   -7.5799235    828.18585  0.017176577  0.016475362         3998 
 4019000   0.60372798   -7.5954641    827.71189  0.017162476  0.016469309         3997 
 4020000   0.61919841   -7.6073606     827.8001  0.017160035  0.016463266         4000 
 4021000   0.62172042   -7.5851363    829.56226  0.017192288  0.016457218         3996 
 4022000   0.60240479   -7.6193663    828.25256  0.017160877  0.016451175         3996 
 4023000   0.62024769   -7.6079511    828.39203    0.0171595  0.016445129         3997 
 4024000   0.61134755   -7.6115246    828.28656  0.017153052   0.01643909         3998 
 4025000    0.6180748   -7.6217376    828.70152  0.017157381  0.016433047         3999 
 4026000   0.60158246    -7.603272    828.04761  0.017139585  0.016427007         4000 
 4027000   0.59817033   -7.6181573    827.51207  0.017124246  0.016420968         4000 
 4028000   0.58522069   -7.6174777    828.21338  0.017134504  0.016414933         3997 
 4029000   0.61449986   -7.6009538    827.15272  0.017108313    0.0164089         3999 
 4030000   0.60802492   -7.6045075    828.79879  0.017138106   0.01640287         3999 
 4031000   0.60089802   -7.6173136    828.16334  0.017120717  0.016396844         3996 
 4032000    0.5990387   -7.6071598     827.3467  0.017099593  0.016390826         3995 
 4033000   0.61428575   -7.6097926    828.25291  0.017114078  0.016384809         3996 
 4034000   0.61026315   -7.6008955    827.88517  0.017102239  0.016378789         3995 
 4035000   0.60566007   -7.6241627    828.21568  0.017104826   0.01637277         3999 
 4036000   0.60219172   -7.6044591     828.7097  0.017110788  0.016366762         3999 
 4037000   0.60266945   -7.5994216    827.43988  0.017080338   0.01636076         4000 
 4038000    0.6076068   -7.5938429    828.63472  0.017100766  0.016354756         3998 
 4039000   0.59543068   -7.5926599    827.44754  0.017072038  0.016348748         3996 
 4040000   0.60425078   -7.6242851    828.09782  0.017081226  0.016342744         3998 
 4041000   0.59850728   -7.6207252    829.75109  0.017111092  0.016336749         3999 
 4042000   0.61049401   -7.6219611    828.82192  0.017087702  0.016330755         3998 
 4043000   0.60204221   -7.6116856    828.82453   0.01708353  0.016324758         3999 
 4044000   0.60115077   -7.6152761    828.44125  0.017071407  0.016318772         4000 
 4045000    0.5942969   -7.6265947    829.82192  0.017095631  0.016312784         3998 
 4046000   0.60073235   -7.6060337    827.23678  0.017038161  0.016306797         3994 
 4047000   0.59767414   -7.6277759    829.39536  0.017078399  0.016300811         3998 
 4048000   0.60235568   -7.6180229    827.44751  0.017034081  0.016294835         3997 
 4049000   0.61934959   -7.6264646     828.3848  0.017049164  0.016288854         3996 
 4050000   0.60232861   -7.6201082    829.10645  0.017059804  0.016282881         4000 
 4051000    0.6072566   -7.6120287    829.17228  0.017056946  0.016276909         3996 
 4052000   0.60528603   -7.6112593    827.64297  0.017021285  0.016270945         3996 
 4053000   0.60229426   -7.6166617    828.19729  0.017028483  0.016264973         3997 
 4054000   0.60838198   -7.6324416    828.32044  0.017026814  0.016259013         3998 
 4055000   0.59704737   -7.6022976    828.53302  0.017026984   0.01625305         3998 
 4056000   0.61138522   -7.6068159    828.84515  0.017029199  0.016247087         3999 
 4057000   0.60971456   -7.6152527    826.48519  0.016976526  0.016241129         3998 
 4058000   0.60839204   -7.6177425      827.924  0.017001889   0.01623518         3999 
 4059000   0.59929759   -7.6181183    826.28816  0.016964116  0.016229228         3998 
 4060000   0.60902444   -7.6232971    829.04677  0.017016559  0.016223278         3996 
 4061000   0.61915674   -7.6061172    826.64181  0.016963018  0.016217332         3997 
 4062000   0.60066998   -7.6103701    828.16536  0.016990098   0.01621139         3997 
 4063000   0.59600532   -7.6095288    827.61181  0.016974563  0.016205451         3998 
 4064000   0.61423931   -7.6447203    829.38042  0.017006652  0.016199513         4000 
 4065000   0.60382311   -7.6094135    827.52275  0.016964386  0.016193573         3999 
 4066000   0.61664008   -7.6300466    828.80515  0.016986497  0.016187641         3999 
 4067000   0.60070616   -7.6170271     829.6194  0.016999004  0.016181708         3995 
 4068000   0.60107358   -7.6245522    829.31452   0.01698858  0.016175781         3990 
 4069000   0.60545676   -7.6313615    828.88787  0.016975667  0.016169856         3995 
 4070000   0.60610451   -7.6106491    828.27927  0.016959035  0.016163932         3996 
 4071000   0.60625648   -7.6209313    829.54966  0.016980874  0.016158009         3998 
 4072000    0.6052652   -7.6087776    827.58218  0.016936439  0.016152094         3996 
 4073000   0.61189256   -7.6160585    828.22996  0.016945535  0.016146177         4000 
 4074000   0.60699869   -7.6133856     827.8278  0.016933149  0.016140265         3995 
 4075000   0.59963783   -7.6156276    827.50191  0.016922329  0.016134355         3999 
 4076000   0.59895587   -7.6294742     827.2733  0.016913504  0.016128447         3993 
 4077000   0.59490499   -7.6316601     828.4971   0.01693437  0.016122543         3997 
 4078000   0.58765988   -7.6136562    827.59124  0.016911706  0.016116641         3999 
 4079000   0.59049758    -7.600107    829.27806  0.016942021  0.016110746         3999 
 4080000   0.60457802    -7.604839    828.66689  0.016925386   0.01610485         3991 
 4081000   0.59371926   -7.6310409    828.72775  0.016922481  0.016098957         3998 
 4082000   0.59945235   -7.6360485    828.17106  0.016906971  0.016093066         3997 
 4083000   0.59482282   -7.6221109    826.47813  0.016868278  0.016087174         3997 
 4084000   0.59352504   -7.6323986    827.71134  0.016889311  0.016081285         3997 
 4085000   0.60904293   -7.6194142    828.86393  0.016908689  0.016075401         3992 
 4086000   0.58569301   -7.6154917     829.3947  0.016915376  0.016069523         3994 
 4087000   0.59931515   -7.6089137    829.10192  0.016905267  0.016063643         4000 
 4088000   0.59622948   -7.6119844    828.07272  0.016880152  0.016057767         3999 
 4089000   0.58803162   -7.6290035    829.37373  0.016902538   0.01605189         3996 
 4090000   0.59474317   -7.6111927    829.05837   0.01689198   0.01604602         3997 
 4091000   0.59745599   -7.6239494    830.19925   0.01691109  0.016040153         3997 
 4092000   0.58936979   -7.6157725    828.88156  0.016880123  0.016034287         3997 
 4093000   0.58816389   -7.6165572    827.19108  0.016841581  0.016028421         3998 
 4094000   0.59468444   -7.6397784    827.96753  0.016853272  0.016022559         3999 
 4095000   0.59278525   -7.6235627    828.00898      0.01685    0.0160167         3999 
 4096000   0.61179617   -7.6160179    828.54769  0.016856846   0.01601085         3998 
 4097000   0.58894614   -7.6181053    827.04317  0.016822129  0.016004998         3992 
 4098000   0.59574549   -7.6334427    827.76521  0.016832707  0.015999147         3995 
 4099000   0.60254351   -7.6456418    828.55453  0.016844648    0.0159933         3995 
 4100000   0.59630516   -7.6319466    828.24663  0.016834281  0.015987456         4000 
 4101000   0.60985926   -7.6250179    829.68805  0.016859466  0.015981616         3996 
 4102000   0.61018119   -7.6255235    827.64751  0.016813902  0.015975773         3998 
 4103000   0.59968828   -7.6309304    828.15251  0.016820061  0.015969936         3999 
 4104000   0.59415236   -7.6331329    829.03298  0.016833841  0.015964096         3995 
 4105000   0.58665995   -7.6330365    829.16422  0.016832404  0.015958263         3998 
 4106000   0.59232943   -7.6380548    828.61193  0.016817095  0.015952432         3997 
 4107000    0.5886173   -7.6382666    827.71838   0.01679487  0.015946604         3999 
 4108000   0.59611393   -7.6178476    827.26328   0.01678155  0.015940775         3999 
 4109000   0.59689559   -7.6219431    827.81168  0.016788588   0.01593495         3995 
 4110000    0.5911249   -7.6331839    828.54444   0.01679936  0.015929129         3999 
 4111000   0.59796052   -7.6191028    828.24552  0.016789214  0.015923312         3999 
 4112000   0.59599002   -7.6187005    828.03816  0.016780929  0.015917498         3999 
 4113000   0.60439059    -7.646915    826.61865  0.016748088  0.015911688         3996 
 4114000   0.59185899   -7.6199578    827.52939  0.016762465  0.015905882         3989 
 4115000    0.6049864   -7.6317516    827.48629  0.016757519  0.015900071         3998 
 4116000   0.59632205    -7.659595    827.78448  0.016759485  0.015894262         3999 
 4117000   0.58367018    -7.636162    827.24449  0.016744484  0.015888455         3995 
 4118000   0.58444004   -7.6426196    827.53453  0.016746287  0.015882651         3997 
 4119000    0.6019881   -7.6480975    827.47907    0.0167411  0.015876853         3995 
 4120000   0.59753729   -7.6311448      828.015  0.016747876  0.015871054         3996 
 4121000   0.58535167   -7.6227237     827.5904  0.016735226  0.015865266         3999 
 4122000   0.59015683   -7.6323275    827.69985  0.016733379  0.015859474         4000 
 4123000   0.60325214   -7.6360083    828.68505  0.016749233  0.015853683         3997 
 4124000   0.60043564   -7.6211623    827.77291   0.01672674  0.015847896         3996 
 4125000   0.57738763   -7.6301353    828.11321   0.01672956  0.015842116         3998 
 4126000   0.58851654   -7.6214277     827.8824  0.016720843  0.015836337         3998 
 4127000   0.58974306   -7.6420491    826.81886  0.016695317  0.015830559         3997 
 4128000   0.59630445   -7.6190873    827.37654   0.01670253  0.015824788         3997 
 4129000   0.58448494   -7.6284144    827.92304  0.016709515  0.015819018         3997 
 4130000   0.58891946   -7.6342499    827.43821  0.016695686  0.015813251         3994 
 4131000   0.59493278   -7.6282197    830.19991  0.016747355  0.015807485         4000 
 4132000   0.59490014   -7.6373014    827.67341  0.016692348  0.015801719         3996 
 4133000   0.59208143   -7.6210818    826.80265  0.016670753  0.015795955         3995 
 4134000   0.59841218   -7.6222408    828.34648  0.016697841  0.015790194         3992 
 4135000    0.5879498   -7.6285735    827.94107  0.016685632  0.015784437         3999 
 4136000   0.59338716    -7.632644    827.34913  0.016669671  0.015778687         3998 
 4137000   0.59744796     -7.62959    827.70733  0.016672857   0.01577293         3998 
 4138000   0.59406715   -7.6442724    828.41092  0.016682997  0.015767178         3996 
 4139000    0.6026892   -7.6337287    827.34792  0.016657565  0.015761425         3998 
 4140000   0.58855401   -7.6365305    829.23354  0.016691496  0.015755684         3997 
 4141000   0.58838792   -7.6396619     827.4741  0.016652059  0.015749944         3997 
 4142000   0.58349904   -7.6308763    828.20186   0.01666268  0.015744206         3997 
 4143000   0.59104717   -7.6243724    826.79264  0.016630313  0.015738466         3998 
 4144000   0.58790895    -7.627452     826.8598   0.01662765  0.015732732         3999 
 4145000   0.58080625   -7.6439951    827.36331  0.016633762  0.015727001         3996 
 4146000    0.6037207   -7.6246898    826.82926  0.016619015  0.015721271         3993 
 4147000   0.58714809   -7.6414392    826.64866  0.016611379  0.015715539         3996 
 4148000   0.59517688   -7.6189151    826.90511  0.016612526  0.015709816         3997 
 4149000   0.57687955   -7.6320918    827.54153  0.016621305  0.015704096         3994 
 4150000   0.59034904    -7.649448     827.3442  0.016613337  0.015698376         3999 
 4151000   0.59838035   -7.6467111    826.98181   0.01660206  0.015692656         3994 
 4152000   0.59662216   -7.6499836    826.65198  0.016591441  0.015686938         3996 
 4153000   0.58780773   -7.6357042    825.78139  0.016569977  0.015681225         3994 
 4154000   0.59117298   -7.6166149    827.25871  0.016595625  0.015675513         4000 
 4155000   0.59251264    -7.644846    827.69908  0.016600463  0.015669805         3996 
 4156000   0.57938911   -7.6510237    827.81011  0.016598695  0.015664106         3998 
 4157000   0.58327901   -7.6488925    826.60975  0.016570639  0.015658404         3997 
 4158000   0.57365128   -7.6360091    827.70646  0.016588634  0.015652699         3999 
 4159000    0.6001105   -7.6491774    828.11423  0.016592815  0.015646998         3997 
 4160000    0.5922521   -7.6330312    826.75359   0.01656157  0.015641299         3998 
 4161000   0.59326639   -7.6635834    827.01593  0.016562844  0.015635602         3998 
 4162000   0.58867046   -7.6352422    826.04104  0.016539345  0.015629909         3998 
 4163000   0.58024683   -7.6537706    825.19837  0.016518504   0.01562422         3998 
 4164000   0.57493093    -7.639967    827.40801  0.016558758  0.015618529         3998 
 4165000    0.5865908    -7.624225    826.89219  0.016544462  0.015612846         3996 
 4166000   0.58803861   -7.6127591    828.53629  0.016573378  0.015607167         3994 
 4167000   0.57484284   -7.6596038    826.50735  0.016528825  0.015601489         3997 
 4168000   0.57739228   -7.6659183    828.52996  0.016565298  0.015595811         3997 
 4169000   0.58395198   -7.6394715    827.56665   0.01654207  0.015590137         4000 
 4170000   0.57675696   -7.6309945    827.37727  0.016534318  0.015584464         3997 
 4171000   0.58958431   -7.6545637    827.95581  0.016541913  0.015578796         3998 
 4172000   0.58092592   -7.6408398    827.45299  0.016527904  0.015573131         3999 
 4173000   0.59455477   -7.6440828    827.36044  0.016522095  0.015567466         4000 
 4174000   0.58983048   -7.6380019    826.83715   0.01650769  0.015561805         3997 
 4175000   0.58821233   -7.6562256    827.59907  0.016518944  0.015556148         3998 
 4176000   0.58144866   -7.6391393    826.78912  0.016498825  0.015550494         3999 
 4177000    0.5834765   -7.6320942    827.41585  0.016507379  0.015544841         3999 
 4178000   0.57341575    -7.650617    828.63395  0.016527724  0.015539194         3996 
 4179000   0.58696234   -7.6319655    827.63357   0.01650382  0.015533546         4000 
 4180000   0.59701604   -7.6385854    826.23912  0.016472072  0.015527906         3999 
 4181000   0.58894973   -7.6477557    828.05748  0.016504375  0.015522258         3998 
 4182000   0.57741232    -7.630448    827.61465  0.016491604  0.015516616         3996 
 4183000   0.59251272   -7.6284329    827.79314  0.016491217  0.015510977         3997 
 4184000   0.58890293    -7.641405    827.78667  0.016487147  0.015505347         3997 
 4185000   0.59210772   -7.6459093    827.00643  0.016467671  0.015499714         3997 
 4186000   0.57762865   -7.6393377    826.37766  0.016451219  0.015494083         3994 
 4187000   0.57989969   -7.6361555    827.03937   0.01646046  0.015488453         3995 
 4188000   0.58875391   -7.6533281    827.33828  0.016462478  0.015482824         3996 
 4189000   0.57957779   -7.6595006    827.47807  0.016461329  0.015477206         3996 
 4190000   0.58121901   -7.6444803    826.37975  0.016435556  0.015471582         3997 
 4191000    0.5895465   -7.6319817    827.95741  0.016463004  0.015465963         3995 
 4192000   0.58727663     -7.63717    826.77393   0.01643555  0.015460346         3997 
 4193000   0.58943977   -7.6390718    826.65251  0.016429218  0.015454731         3997 
 4194000   0.57257774   -7.6342873    826.29082  0.016418114  0.015449121         3993 
 4195000   0.58653448    -7.646211    825.12415  0.016391024  0.015443516         3996 
 4196000   0.57491729   -7.6656022    826.58286  0.016416088  0.015437908         3995 
 4197000   0.57748188   -7.6627273    827.60246  0.016432421  0.015432302         3998 
 4198000   0.57925533   -7.6561597    826.44475  0.016405525  0.015426698         3995 
 4199000   0.57271324   -7.6369674    825.38883  0.016380663  0.015421097         3999 
 4200000   0.58843004   -7.6473919    827.40276  0.016416721  0.015415502         3995 
 4201000   0.58216366   -7.6738343    827.75045  0.016419711  0.015409906         3996 
 4202000   0.57629954   -7.6690689    825.75462  0.016376222  0.015404315         4000 
 4203000   0.56485234   -7.6490462    826.81072  0.016393265  0.015398724         3997 
 4204000   0.58175761    -7.646165    826.88804  0.016390898  0.015393136         3998 
 4205000   0.57454548   -7.6322961    827.03649  0.016389942   0.01538755         3998 
 4206000    0.5683135   -7.6410433     825.8601  0.016362738  0.015381967         3998 
 4207000   0.57461466   -7.6520969    828.80418  0.016417165  0.015376389         4000 
 4208000   0.59129882   -7.6541357    826.22401  0.016362167  0.015370813         3998 
 4209000   0.57601368    -7.663042    826.92984  0.016372255  0.015365239         3993 
 4210000   0.57027505   -7.6604917    827.40165  0.016377705  0.015359669         3996 
 4211000   0.56564763   -7.6467736    826.48056  0.016355588  0.015354101         3993 
 4212000   0.57709512   -7.6506957    827.66112  0.016375062  0.015348534         3998 
 4213000    0.5786355    -7.653716    826.79709  0.016354084  0.015342972         3999 
 4214000   0.58851795   -7.6533554    826.80236  0.016350308  0.015337404         3997 
 4215000   0.58243847   -7.6508855    826.81381  0.016346655  0.015331845         3993 
 4216000   0.59034805   -7.6309989    827.17975  0.016350011  0.015326287         3998 
 4217000   0.59383602   -7.6705302    827.49995  0.016352461  0.015320735         3998 
 4218000   0.58415144   -7.6543656    826.39063  0.016326668  0.015315183         3999 
 4219000   0.57437028   -7.6612485    828.28951  0.016360305  0.015309635         3999 
 4220000   0.57536121   -7.6643538    827.91249  0.016348983  0.015304092         3999 
 4221000   0.59052133   -7.6646405    827.97863  0.016346415  0.015298546         3998 
 4222000   0.56922269   -7.6421293    826.17376  0.016306919  0.015293003         3996 
 4223000   0.57553405   -7.6541338    827.23351   0.01632397  0.015287463         4000 
 4224000   0.58049438   -7.6528123    826.66896  0.016308968  0.015281927         3997 
 4225000   0.56630827   -7.6636236    826.24607  0.016296767   0.01527639         3997 
 4226000   0.58020123    -7.664877    826.32561  0.016294479  0.015270857         3997 
 4227000   0.56758821   -7.6588648    826.67476  0.016297507  0.015265325         3997 
 4228000   0.57520607   -7.6287726    825.79463  0.016276305    0.0152598         3999 
 4229000   0.57061591   -7.6582235    828.21055  0.016320063  0.015254272         3997 
 4230000    0.5844746   -7.6541544    827.13606  0.016295037  0.015248747         3998 
 4231000   0.57239433   -7.6530482    826.52424  0.016279135  0.015243227         3994 
 4232000   0.56576911   -7.6704119    826.63993  0.016277566   0.01523771         3998 
 4233000   0.57595651   -7.6529479    825.66459   0.01625452  0.015232197         3996 
 4234000   0.56058084   -7.6729639    826.98187  0.016276607  0.015226684         3997 
 4235000   0.56833048   -7.6525859    826.57013  0.016264662  0.015221171         3999 
 4236000   0.58394725   -7.6732578    828.37073  0.016296245  0.015215664         3996 
 4237000   0.57760029   -7.6441359    826.16736  0.016249063  0.015210157         3998 
 4238000   0.57442549   -7.6470991    826.33973  0.016248618  0.015204649         3999 
 4239000   0.57029004   -7.6676546    825.69971  0.016232203   0.01519915         3999 
 4240000    0.5701623    -7.638705    826.03307  0.016234927  0.015193647         3999 
 4241000   0.57097851    -7.652714    826.68768  0.016243961  0.015188152         3995 
 4242000   0.56860752   -7.6559182    826.84993  0.016243319  0.015182659         3999 
 4243000   0.56274581   -7.6508386    827.80589  0.016258266  0.015177171         3992 
 4244000   0.56579795   -7.6350831    826.53391  0.016229459  0.015171679         3999 
 4245000   0.57690501   -7.6627729      827.688  0.016248292   0.01516619         4000 
 4246000   0.57093221   -7.6667008    826.52613  0.016221662  0.015160703         4000 
 4247000   0.57844682   -7.6519644    827.18455  0.016230762  0.015155223         4000 
 4248000   0.56703944   -7.6711597    825.54202  0.016194719  0.015149742         3998 
 4249000    0.5744747   -7.6603524    826.45257  0.016208766  0.015144264         3994 
 4250000   0.56904624   -7.6722204    825.58507  0.016187943   0.01513879         3996 
 4251000   0.57533014   -7.6412021    826.23396  0.016196855  0.015133317         3999 
 4252000   0.56308619   -7.6388541    826.80921   0.01620432  0.015127846         3997 
 4253000   0.56953123   -7.6666187    824.61916  0.016157598  0.015122381         3996 
 4254000   0.56048747   -7.6808877     826.1269  0.016183335  0.015116915         3996 
 4255000   0.56497785   -7.6583178    826.42023  0.016185277  0.015111455         3999 
 4256000   0.57376357   -7.6448581    827.19004  0.016196547  0.015105998         4000 
 4257000    0.5624009   -7.6558413    825.94892  0.016168446   0.01510054         3998 
 4258000   0.57662556   -7.6540873    825.51925   0.01615624  0.015095085         3997 
 4259000   0.57136584   -7.6573438    826.47213  0.016171091  0.015089631         3996 
 4260000    0.5906685   -7.6711667    827.58134  0.016188993  0.015084181         3999 
 4261000   0.56945975   -7.6512145    826.99735  0.016173773  0.015078737         3999 
 4262000   0.57716974   -7.6593102    826.87062    0.0161675  0.015073293         3999 
 4263000   0.56528485   -7.6546566    826.63462  0.016159094  0.015067854         3994 
 4264000   0.56889148   -7.6604326     826.7779  0.016158105  0.015062412         3999 
 4265000     0.576936   -7.6720077    825.16354  0.016122773  0.015056975         3999 
 4266000   0.56418578    -7.666826    825.98846  0.016135108   0.01505154         3995 
 4267000   0.56205916   -7.6551841    826.92734  0.016149663  0.015046108         3998 
 4268000   0.56037665   -7.6487279    826.26035  0.016132856  0.015040675         3997 
 4269000   0.56773257   -7.6657378    826.56288  0.016134982   0.01503525         3995 
 4270000   0.55964761   -7.6632464    827.25184   0.01614465  0.015029822         3996 
 4271000   0.55539051    -7.661046    826.94901  0.016134961    0.0150244         3998 
 4272000   0.54763087   -7.6630767    825.16804  0.016096443  0.015018982         3997 
 4273000   0.57650166   -7.6506262    827.23177  0.016132923  0.015013561         3998 
 4274000   0.57453945   -7.6541417    826.96469  0.016123941  0.015008147         3996 
 4275000   0.57823205   -7.6596979     826.5046  0.016111201  0.015002732         3997 
 4276000   0.56846076   -7.6762152    826.04556  0.016098487  0.014997323         3999 
 4277000   0.56183787   -7.6937366    828.48699  0.016142292  0.014991911         3996 
 4278000   0.57164673   -7.6607498    826.87918  0.016107199  0.014986502         3998 
 4279000   0.56457204   -7.6711696    825.74236  0.016081295  0.014981094         3998 
 4280000   0.57351905   -7.6773422    825.94624  0.016081508  0.014975693         3998 
 4281000   0.56254466   -7.6392642    825.65993  0.016072178  0.014970294         3999 
 4282000   0.55514598   -7.6694785    826.08955  0.016076786  0.014964896         3997 
 4283000   0.56268355   -7.6632152    825.51986  0.016061948  0.014959502         3994 
 4284000   0.56927692   -7.6732644    826.48334   0.01607694  0.014954107         3999 
 4285000    0.5613207   -7.6506106    825.07046  0.016045711  0.014948714         3997 
 4286000   0.56227154   -7.6603131    826.77551  0.016075119  0.014943329         3997 
 4287000   0.55834105   -7.6606952     825.5902  0.016048328  0.014937943         3999 
 4288000   0.55843345   -7.6535677    826.72263  0.016066593  0.014932562         3999 
 4289000   0.55981128    -7.662418    826.69241   0.01606226  0.014927179         4000 
 4290000   0.55836591   -7.6714608    825.96724   0.01604443  0.014921799         3998 
 4291000   0.56298812   -7.6524102    825.68174  0.016035146  0.014916424         3998 
 4292000   0.55297923   -7.6629406    826.23645   0.01604218  0.014911052         3998 
 4293000   0.56169456   -7.6682593     826.0874   0.01603555  0.014905678         3997 
 4294000   0.56303406   -7.6444858    826.52904  0.016040387   0.01490031         3995 
 4295000   0.56438499   -7.6658984    826.91414  0.016044124  0.014894942         3998 
 4296000   0.56842953   -7.6729935    826.86361  0.016039409  0.014889577         3997 
 4297000   0.58096318   -7.6604891    825.92504  0.016017474  0.014884216         3998 
 4298000   0.57679788   -7.6523061    826.17843  0.016018661   0.01487886         3999 
 4299000   0.56208502   -7.6740759    826.89308  0.016028787  0.014873504         3999 
 4300000   0.55655951   -7.6732473    825.89933  0.016005801  0.014868152         3998 
 4301000   0.55771784   -7.6671488    826.19212  0.016007752    0.0148628         3999 
 4302000   0.57485684   -7.6707657    823.73665  0.015956467  0.014857454         3998 
 4303000   0.55084779   -7.6504479    824.75725  0.015972524  0.014852112         3995 
 4304000   0.56499198   -7.6793843    827.56776   0.01602323  0.014846768         3998 
 4305000   0.56369759   -7.6873787    826.21067  0.015993238  0.014841425         3995 
 4306000   0.57075927   -7.6659527    826.73929  0.015999754  0.014836084         3996 
 4307000   0.55838016   -7.6792901    826.84089  0.015998005  0.014830747         3998 
 4308000   0.55659687   -7.6650083     826.1731  0.015981374  0.014825414         4000 
 4309000   0.56668853    -7.665306    826.68463  0.015987558  0.014820083         4000 
 4310000   0.56344649   -7.6671768    825.69616  0.015964736  0.014814753         3997 
 4311000   0.56637657   -7.6658431     825.7895  0.015962837  0.014809426         3998 
 4312000   0.54998829   -7.6671579    824.86098  0.015941191  0.014804099         3995 
 4313000   0.54806454   -7.6716179    826.36439  0.015966543  0.014798774         3996 
 4314000   0.55850169   -7.6717889    825.19095  0.015940174  0.014793453         3999 
 4315000    0.5573762   -7.6603385    826.44533  0.015960706  0.014788136         4000 
 4316000   0.55994108   -7.6792763    826.09864  0.015950314  0.014782819         3996 
 4317000   0.56835692   -7.6915419    826.19917  0.015948559  0.014777508         3997 
 4318000   0.56977225   -7.6742349      828.202  0.015983519  0.014772198         3996 
 4319000   0.56423083   -7.6614697    827.02268  0.015957063   0.01476689         3997 
 4320000   0.56363817     -7.67983    826.21743  0.015937836  0.014761584         3996 
 4321000   0.55994395   -7.6878309    825.64113  0.015923034  0.014756277         3999 
 4322000   0.55552699   -7.6777781    825.60698  0.015918691  0.014750977         3998 
 4323000   0.57015535   -7.6605082    825.14368  0.015906078  0.014745679         3999 
 4324000    0.5472188   -7.6689498    826.02572  0.015919398  0.014740384         3999 
 4325000   0.55909704   -7.6645892    825.28003  0.015901349  0.014735088         3997 
 4326000   0.55607496   -7.6631755    825.73418  0.015906422  0.014729795         3998 
 4327000   0.55130497   -7.6748585    824.72105  0.015883234  0.014724504         3998 
 4328000   0.55798274   -7.6706375    826.05428  0.015905235  0.014719215         3997 
 4329000   0.55261101    -7.681662    827.29361  0.015925418  0.014713925         3997 
 4330000   0.55720831   -7.6891926    826.46012  0.015905699  0.014708641         3997 
 4331000   0.55792545    -7.667026    825.85672  0.015890416  0.014703362         4000 
 4332000   0.55094611   -7.6678107    825.91777  0.015887923  0.014698084         3998 
 4333000   0.55198771   -7.6853412    826.79471  0.015901121  0.014692813         3995 
 4334000   0.56071425   -7.6796881    825.40978  0.015870823  0.014687538         4000 
 4335000   0.54315239   -7.6822107    825.83965  0.015875426  0.014682267         4000 
 4336000   0.55362908   -7.6738254    826.17239  0.015878159  0.014676997         3998 
 4337000   0.55736474   -7.6805302    827.22708  0.015894764  0.014671729         3998 
 4338000   0.55851365   -7.6614965    826.17988  0.015870983  0.014666467         3998 
 4339000    0.5527134   -7.6669221    825.31856  0.015850783  0.014661206         3996 
 4340000   0.57434149   -7.6810167    826.57245  0.015871207  0.014655949         3999 
 4341000   0.56586495   -7.6676486    825.49347  0.015846838  0.014650693         3996 
 4342000   0.55308453   -7.6910081    825.50736  0.015843455   0.01464544         3997 
 4343000   0.56412586   -7.6750318    825.80609  0.015845539  0.014640189         3998 
 4344000   0.55791152   -7.6921374    826.11217  0.015847763  0.014634937         3996 
 4345000   0.56342086   -7.6913566    825.97392  0.015841464  0.014629692         3997 
 4346000   0.55739301   -7.6751989    825.59906  0.015830631  0.014624446         4000 
 4347000   0.55132669   -7.6699707    823.95062  0.015795388  0.014619206         3995 
 4348000   0.55965961   -7.6555402    824.99316  0.015811736  0.014613967         3996 
 4349000   0.54400891   -7.6720618    824.84729  0.015805306  0.014608729         3997 
 4350000    0.5535386   -7.6658558    825.14887   0.01580745  0.014603493         3997 
 4351000   0.55852053   -7.6801933    825.67172  0.015813831  0.014598262         3998 
 4352000   0.55751613   -7.6860503    826.46285  0.015825346  0.014593028         3998 
 4353000    0.5588773   -7.6657719     824.4366   0.01578292    0.0145878         3998 
 4354000   0.54773077    -7.672602    825.46276  0.015798935  0.014582577         3998 
 4355000    0.5481148   -7.6835114    826.60006   0.01581707  0.014577356         3996 
 4356000   0.54752207   -7.6856469    824.12574  0.015766103  0.014572132         3997 
 4357000   0.54812697   -7.7014741    825.47131   0.01578822  0.014566909         3996 
 4358000    0.5565912   -7.6894123    824.90163  0.015773704  0.014561693         3999 
 4359000   0.56198288    -7.671055    825.51304  0.015781774  0.014556478         3998 
 4360000   0.56128569   -7.6776326    824.97461  0.015767863  0.014551267         4000 
 4361000   0.55160493   -7.6834832    825.02474  0.015765206  0.014546061         3995 
 4362000   0.55439294   -7.6795544    825.78413  0.015776099  0.014540852         3998 
 4363000   0.53992919    -7.682317    825.39468  0.015765045  0.014535646         3999 
 4364000   0.55043361   -7.6825819    825.53313  0.015764076   0.01453044         3995 
 4365000   0.54908205   -7.6761098    825.59353  0.015761618  0.014525237         4000 
 4366000   0.56328707   -7.6811784     825.3832  0.015753993  0.014520038         3997 
 4367000   0.56707562   -7.6602316    824.19199  0.015727654  0.014514844         3996 
 4368000    0.5585792   -7.6860534    825.31178  0.015745417  0.014509654         3995 
 4369000   0.55052398   -7.6841413    825.39503  0.015743401  0.014504465         3999 
 4370000    0.5522274   -7.6550129    824.74101  0.015727327  0.014499278         3996 
 4371000   0.55592436   -7.6933042    824.42985  0.015717796  0.014494092         3998 
 4372000   0.54691468   -7.7107539    825.46144  0.015733864  0.014488906         4000 
 4373000   0.54565086   -7.6848123     825.5406  0.015731774  0.014483725         3999 
 4374000   0.55369306    -7.692291    824.47764  0.015707926  0.014478543         3997 
 4375000   0.54542172   -7.6766962    825.62192  0.015726132  0.014473366         3996 
 4376000   0.54381078   -7.6847567    824.35649   0.01569844  0.014468193         3998 
 4377000    0.5489983   -7.6698806    825.33913  0.015713562  0.014463019         3999 
 4378000   0.55779806   -7.6820213    824.42915  0.015692652   0.01445785         3999 
 4379000   0.53786892   -7.6941958    824.55112  0.015691389   0.01445268         3997 
 4380000    0.5407777   -7.6568295    825.59686  0.015707703  0.014447512         3998 
 4381000   0.55494037   -7.7014805    824.61672  0.015685474  0.014442346         3998 
 4382000   0.55983086   -7.6986333    824.88329  0.015686964  0.014437182         3999 
 4383000   0.53978283   -7.6814895    824.16822  0.015669789  0.014432021         3999 
 4384000   0.54305396   -7.6895773    825.86419  0.015698452  0.014426863         3998 
 4385000   0.54650854   -7.6930669    824.98262  0.015678119  0.014421707         3996 
 4386000   0.55634764   -7.6911047    823.65987  0.015649412  0.014416552         3997 
 4387000     0.539057   -7.6930553    825.33033  0.015677576  0.014411401         3998 
 4388000   0.55089276   -7.6951363    825.18294  0.015671205   0.01440625         3998 
 4389000   0.54690115   -7.7077882     825.6604  0.015676699  0.014401104         3996 
 4390000    0.5455232   -7.6947806    825.70884  0.015674048  0.014395961         4000 
 4391000   0.56501072   -7.6828254    824.85619  0.015654296  0.014390819         3998 
 4392000   0.56055588   -7.6694669    825.11808  0.015655701  0.014385679         3998 
 4393000   0.54144033   -7.6700539    825.51484  0.015659664  0.014380544         3999 
 4394000   0.55588452   -7.6829818    824.05523  0.015628418  0.014375412         3998 
 4395000   0.54945981   -7.7042865     825.1693  0.015645986   0.01437028         3996 
 4396000   0.54419443   -7.6815553        825.5  0.015648696  0.014365152         3995 
 4397000   0.54090581   -7.6752422    823.96439  0.015616033  0.014360029         3994 
 4398000   0.55030747   -7.7005175    823.77713  0.015608934  0.014354905         3999 
 4399000   0.54218222    -7.708177    825.78199  0.015643366  0.014349783         3999 
 4400000   0.54632684   -7.6741934    825.03349  0.015625634  0.014344662         3996 
 4401000   0.55776793   -7.6960063    824.65192  0.015614859  0.014339542         3996 
 4402000     0.550807   -7.6802386     824.7873  0.015613874  0.014334424         3997 
 4403000    0.5376608   -7.6989921    824.72872  0.015609219  0.014329308         3999 
 4404000   0.54516243   -7.6963654    826.01513  0.015630017  0.014324196         3996 
 4405000   0.53967668   -7.6892826    825.34036  0.015613703  0.014319091         4000 
 4406000   0.53807023   -7.7023924    824.31772  0.015590818  0.014313986         4000 
 4407000   0.55509538   -7.6823333    823.91684    0.0155797  0.014308878         3996 
 4408000   0.55724564   -7.6912301    824.69105  0.015590802  0.014303776         3999 
 4409000   0.56183511   -7.6990414    823.43189  0.015563467  0.014298674         3998 
 4410000   0.53981467   -7.6948897    824.48053  0.015579753  0.014293578         3998 
 4411000    0.5490899   -7.7047902    824.49685  0.015576529  0.014288481         4000 
 4412000   0.53224075   -7.6805341     825.5528  0.015592944  0.014283387         3998 
 4413000   0.54831465   -7.6895496    824.43282  0.015568261  0.014278298         3999 
 4414000   0.53444413   -7.6901061    825.30348  0.015581171  0.014273211         4000 
 4415000   0.55538289   -7.6821167    824.37645  0.015560144  0.014268126         4000 
 4416000   0.54189568   -7.6673231    824.76905  0.015564029  0.014263041         3997 
 4417000   0.55916381   -7.6778936    824.70546  0.015559306  0.014257957         3999 
 4418000   0.54724992   -7.6899171    825.03645  0.015562027  0.014252876         3998 
 4419000   0.53519908   -7.7005686    824.06306   0.01554015  0.014247797         4000 
 4420000   0.53200169   -7.6884414    825.18016  0.015557695  0.014242722         3999 
 4421000   0.54995606   -7.6925953    824.33791    0.0155383  0.014237649         3995 
 4422000   0.55638697   -7.7081941     824.5514   0.01553881  0.014232577         3998 
 4423000    0.5697243   -7.6955922    824.40959  0.015532625  0.014227505         3998 
 4424000   0.53973272   -7.6926502     824.2444  0.015526002  0.014222437         3996 
 4425000   0.53030403   -7.6932902     824.1943   0.01552155  0.014217373         3999 
 4426000   0.54923231   -7.6785276    823.68784  0.015508507  0.014212312         3998 
 4427000   0.55109313   -7.6918605    825.26664  0.015534723  0.014207255         3997 
 4428000   0.54959203   -7.6846912    822.71338  0.015483163  0.014202199         4000 
 4429000   0.54226567   -7.6922602    825.11149  0.015524789  0.014197145         3995 
 4430000   0.54576356   -7.7048716     824.8512  0.015516388  0.014192092         3999 
 4431000    0.5464205   -7.7026299    826.29705  0.015540078  0.014187041         3999 
 4432000   0.54104021   -7.7035609    824.99029  0.015512002  0.014181993         3996 
 4433000     0.540416   -7.7101566    825.22327  0.015512882  0.014176948         3998 
 4434000   0.54235932   -7.6846439     825.0587   0.01550629  0.014171902         3997 
 4435000   0.54403883   -7.6991689    824.73954  0.015496797  0.014166859         3998 
 4436000   0.54563939   -7.7098455     824.7604  0.015493696   0.01416182         3995 
 4437000   0.54501576   -7.6922881    824.98024  0.015494332  0.014156783         4000 
 4438000   0.54410174   -7.6963818    824.34625  0.015478937  0.014151749         3998 
 4439000    0.5349619   -7.6875178    825.51998  0.015497484  0.014146719         3993 
 4440000   0.54560715   -7.7019485    825.01116  0.015484444   0.01414169         3997 
 4441000   0.55512416   -7.6989247    824.28133  0.015467262  0.014136665         3998 
 4442000    0.5377606   -7.6866613    824.38906  0.015465801  0.014131644         3996 
 4443000   0.54717796   -7.6951419    824.30689  0.015460779   0.01412662         4000 
 4444000   0.54764744   -7.6956695    824.38775  0.015458816  0.014121596         3998 
 4445000   0.53260799   -7.6965176    826.09265  0.015487301  0.014116574         3999 
 4446000   0.53546228   -7.6902184    825.29937  0.015468949  0.014111559         3999 
 4447000   0.54882128   -7.7029459    824.50901   0.01545066   0.01410655         3998 
 4448000   0.55075755   -7.6877385    825.77724  0.015470946  0.014101537         3997 
 4449000   0.55774518   -7.7031471    824.20796  0.015438075   0.01409653         3997 
 4450000   0.53838201   -7.6741401    823.89894  0.015428819  0.014091521         3995 
 4451000   0.52898418   -7.6921837    825.80189   0.01546098   0.01408652         3998 
 4452000   0.53534945   -7.7135182    825.66784  0.015454999  0.014081519         3995 
 4453000   0.54164934   -7.6916214    823.61039  0.015413025  0.014076516         3996 
 4454000   0.54105197   -7.7080279    825.32559  0.015441655  0.014071518         3998 
 4455000   0.54080506   -7.6988856    825.40114  0.015439602  0.014066525         4000 
 4456000   0.53504148   -7.7009726     825.2082  0.015432529  0.014061531         3994 
 4457000   0.54251551   -7.7149227    825.30981  0.015430966   0.01405654         3997 
 4458000    0.5423712    -7.694976       824.21  0.015406946  0.014051552         4000 
 4459000   0.54983337   -7.6963246     824.8936  0.015416267  0.014046566         3998 
 4460000   0.53292892   -7.6914039    823.12108  0.015379691  0.014041582         3999 
 4461000   0.54626436    -7.703367    825.10899  0.015413379  0.014036599         4000 
 4462000    0.5357351   -7.7017222    824.42919  0.015397228  0.014031615         3994 
 4463000   0.52886593   -7.6973003    825.47114  0.015413234  0.014026636         3996 
 4464000   0.53600705   -7.7000621    824.23272  0.015386662  0.014021661         3998 
 4465000   0.53765137   -7.6872458    824.12494  0.015381205  0.014016688         3998 
 4466000   0.53126768   -7.6843568    824.38824  0.015382674  0.014011714         3998 
 4467000   0.53498689   -7.7211291    825.16593  0.015393738  0.014006747         4000 
 4468000   0.52645605    -7.704994    824.78436  0.015383176   0.01400178         3999 
 4469000   0.52863245   -7.7040287    825.56386  0.015394269  0.013996817         3994 
 4470000   0.54302955   -7.6979941    824.57973  0.015372478  0.013991855         3993 
 4471000   0.54091709   -7.7166423    824.74251  0.015372074  0.013986895         3997 
 4472000   0.53978669   -7.6962712    823.66776  0.015348609  0.013981938         3998 
 4473000   0.54507664   -7.6868598    824.12331  0.015353665  0.013976983         3998 
 4474000   0.53831985   -7.6878429    824.08712  0.015349559  0.013972029         3998 
 4475000   0.53291968   -7.7122927    824.66427  0.015356876  0.013967078         3997 
 4476000    0.5175762   -7.6906234    824.59683   0.01535219  0.013962127         4000 
 4477000   0.53634492   -7.7149315    823.87008  0.015335233  0.013957177         3999 
 4478000   0.54266891   -7.7167743    823.70544  0.015328745  0.013952234         3998 
 4479000   0.53004474   -7.7059991    824.91457  0.015347819  0.013947291         3998 
 4480000   0.53744648   -7.7105555    825.10107  0.015347862   0.01394235         3999 
 4481000    0.5299279   -7.6855014    824.70289  0.015337032  0.013937412         3997 
 4482000   0.53610951    -7.702189    825.35284  0.015345695  0.013932478         3998 
 4483000   0.53282532   -7.6947534    824.38984  0.015324371  0.013927541         3994 
 4484000   0.53146104   -7.6880563    824.12522  0.015316035  0.013922609         3999 
 4485000   0.54742501   -7.7086636    823.44899  0.015300056  0.013917678         3999 
 4486000   0.53677115    -7.715217    823.06493  0.015289511   0.01391275         3998 
 4487000   0.53701586   -7.6971382    823.97506  0.015303006  0.013907825         3998 
 4488000   0.53373543   -7.6951231    823.35472  0.015288078  0.013902901         3997 
 4489000   0.53848139    -7.715128     824.3593  0.015303321  0.013897984         3999 
 4490000   0.52656059   -7.7047176    823.37829  0.015281705  0.013893063         3999 
 4491000   0.53126801   -7.6885787    822.36578  0.015259515  0.013888146         3997 
 4492000   0.53555209    -7.714604    823.76307   0.01528204  0.013883231         3999 
 4493000    0.5359999   -7.6885348    824.29883  0.015288575  0.013878318         3999 
 4494000   0.54322589   -7.7121742    824.45955  0.015288154  0.013873408         3997 
 4495000   0.54302447    -7.689172    823.44829  0.015266005    0.0138685         3996 
 4496000    0.5426336   -7.7187307    824.22536  0.015277012  0.013863596         3999 
 4497000   0.53127487   -7.7126067     824.7897  0.015284073  0.013858694         3999 
 4498000   0.52952354   -7.7096907    823.18878  0.015251015  0.013853794         3998 
 4499000   0.54536083   -7.7179531    822.99519  0.015244039  0.013848894         3998 
 4500000   0.52272073    -7.700006    823.92954  0.015257954     0.013844         3998 
 4501000   0.51657185   -7.6985303    824.58037  0.015266614  0.013839103         3999 
 4502000   0.53219271   -7.7206338    824.43136  0.015260465  0.013834215         3998 
 4503000   0.52787652   -7.7067199    824.06821  0.015250356  0.013829323         3998 
 4504000   0.52759743   -7.7102778    825.00783  0.015264354  0.013824434         3998 
 4505000   0.54372667   -7.6997161    825.19736  0.015264472  0.013819549         3997 
 4506000   0.53034272   -7.7030479    822.93328  0.015219213  0.013814666         3998 
 4507000    0.5302443   -7.7099909    824.71936   0.01524886  0.013809787         4000 
 4508000   0.52623537    -7.721298    824.20617  0.015235991  0.013804908         3996 
 4509000   0.53028119   -7.7238599    823.74454   0.01522408  0.013800029         3994 
 4510000   0.53656389    -7.716016    824.66804  0.015237769  0.013795154         3999 
 4511000   0.53607767   -7.7250154    825.30992  0.015246249  0.013790281         3998 
 4512000   0.52355656    -7.723845     824.8168  0.015233762  0.013785413         3999 
 4513000   0.52646802   -7.7202731     824.2549  0.015220011  0.013780545         3999 
 4514000   0.52732518   -7.7206141    824.20148  0.015215653  0.013775679         3999 
 4515000   0.53711705   -7.7090298    822.69234  0.015184428  0.013770818         3998 
 4516000   0.52649764   -7.7179732     824.9447  0.015222629  0.013765953         3998 
 4517000    0.5208445     -7.71616    823.82052  0.015198519  0.013761093         3997 
 4518000   0.52855176   -7.7156858    822.81159  0.015176545  0.013756236         3996 
 4519000   0.51993275   -7.6850612    823.35664  0.015183238   0.01375138         3994 
 4520000   0.52465747   -7.7116573    824.09135  0.015193425  0.013746529         3996 
 4521000   0.51775652   -7.7053508    823.25496  0.015174647  0.013741683         3997 
 4522000   0.53006754   -7.7120711    823.26867  0.015171544  0.013736833         3999 
 4523000   0.51576162   -7.7087593    823.59403  0.015174184  0.013731985         3996 
 4524000   0.52576619   -7.7114229    825.21773  0.015200739  0.013727143         4000 
 4525000   0.52208104    -7.720287    824.32664  0.015180969  0.013722301         3994 
 4526000   0.51833854   -7.7160045    824.45568  0.015179991  0.013717464         3996 
 4527000   0.51897847   -7.7117963    823.55554  0.015160068  0.013712626         3996 
 4528000   0.53962758   -7.6921481    824.71096  0.015177984  0.013707792         3995 
 4529000    0.5305682   -7.7025154    822.51647  0.015134255  0.013702958         3998 
 4530000   0.53115365   -7.7104735    824.49242  0.015167263  0.013698125         3998 
 4531000   0.53128396   -7.7108638    824.15333  0.015157679  0.013693294         3999 
 4532000   0.52443267   -7.7031463    824.42191  0.015159273  0.013688468         4000 
 4533000   0.52831527   -7.7054121    823.10359  0.015131693   0.01368364         3998 
 4534000   0.54237592   -7.7171558    824.03293  0.015145437   0.01367882         3998 
 4535000   0.53575778   -7.7079453     823.6421  0.015134916     0.013674         3998 
 4536000   0.52955126   -7.7099687    823.60272  0.015130855  0.013669183         4000 
 4537000   0.53090104    -7.714451    823.12713  0.015118785  0.013664367         3998 
 4538000   0.52523895   -7.7119236    823.04047  0.015113862  0.013659558         3998 
 4539000   0.52697694   -7.7257642    825.01489  0.015146781  0.013654745         3996 
 4540000   0.53140073   -7.7294891    822.72562  0.015101425  0.013649933         3999 
 4541000    0.5215526    -7.700795     823.7917  0.015117663  0.013645125         3997 
 4542000   0.51284011   -7.7256972    825.67535  0.015148895  0.013640317         3994 
 4543000   0.52042031   -7.7338125    822.96164  0.015095782   0.01363551         4000 
 4544000   0.53685778   -7.7083805    822.37565  0.015081713  0.013630709         3997 
 4545000   0.50931293   -7.7076937    822.82584  0.015086649  0.013625909         3996 
 4546000   0.52530219   -7.7263489    824.47338  0.015113532  0.013621113         4000 
 4547000   0.51604577   -7.7092002    823.14703    0.0150859   0.01361632         3999 
 4548000   0.52474755    -7.710238    823.73514  0.015093359  0.013611525         3997 
 4549000   0.52073204   -7.7245312    823.05264  0.015077538  0.013606732         3999 
 4550000   0.52241095    -7.698446    823.19884  0.015076902  0.013601946         3999 
 4551000   0.52166738   -7.7182059    824.22679  0.015092412  0.013597158         3999 
 4552000   0.52022094   -7.7069877    824.27272  0.015089937  0.013592374         3999 
 4553000   0.52137545   -7.7186458     823.8042  0.015078047  0.013587591         4000 
 4554000   0.52441066   -7.7106533    822.89599  0.015058117  0.013582811         3999 
 4555000   0.52631351   -7.7086918    823.13906  0.015059258  0.013578032         3999 
 4556000   0.52666869   -7.7289715    823.94228  0.015070645  0.013573258         3997 
 4557000    0.5228729   -7.7293814    822.97467  0.015049643  0.013568484         3998 
 4558000   0.52615314   -7.7121146    823.68646  0.015059355  0.013563715         3998 
 4559000   0.52070336   -7.7035478    823.78243  0.015057806  0.013558943         3998 
 4560000   0.52107133    -7.720408    823.41281  0.015047749  0.013554174         3997 
 4561000   0.52143136   -7.7181756    824.55579  0.015065333  0.013549407         3998 
 4562000   0.52317226   -7.7271772    824.38826   0.01505897  0.013544646         3996 
 4563000   0.51891663   -7.7059611    823.40564  0.015037724  0.013539885         3999 
 4564000   0.50933788   -7.7159065    824.11112  0.015047311  0.013535127         3996 
 4565000   0.52005567   -7.7308995    823.12482   0.01502601  0.013530371         3995 
 4566000   0.53106392   -7.7268339    824.02127   0.01503908  0.013525617         4000 
 4567000   0.51592861   -7.7130539    823.99944  0.015035389  0.013520866         4000 
 4568000    0.5301605     -7.70796    823.38277  0.015020847  0.013516117         3997 
 4569000   0.51910682   -7.7240645    823.64052  0.015022261   0.01351137         3997 
 4570000   0.52692956   -7.7233351    823.75845  0.015021124  0.013506627         3996 
 4571000    0.5249052   -7.7225488    822.72488  0.014998995  0.013501886         3999 
 4572000   0.52493261   -7.7315918      823.456  0.015009041  0.013497146         3999 
 4573000   0.52700191   -7.7047991    824.14119  0.015018245  0.013492406         3998 
 4574000    0.5217878    -7.726085    824.20984  0.015016212  0.013487669         3999 
 4575000   0.52743878   -7.7276779     822.6649  0.014984789  0.013482933         3999 
 4576000   0.53058213   -7.7336531    823.90114  0.015004027  0.013478201         3999 
 4577000   0.52462573   -7.7135808      822.246  0.014970614  0.013473472         3996 
 4578000   0.51218619   -7.7312854    824.10077  0.015001106  0.013468744         3997 
 4579000    0.5230676   -7.7250856    823.84131  0.014993108   0.01346402         3996 
 4580000     0.511998   -7.7148473    823.32082  0.014980364  0.013459294         3996 
 4581000   0.52181392   -7.7308106    824.68887  0.015001981  0.013454574         3992 
 4582000   0.52504471   -7.7307353    824.32441  0.014992078  0.013449854         3999 
 4583000   0.52340095   -7.7167346    823.81946  0.014979625  0.013445138         4000 
 4584000    0.5239604   -7.7199812    823.91782  0.014978145  0.013440424         3996 
 4585000   0.51343776    -7.714242    823.53027  0.014967835   0.01343571         3998 
 4586000   0.52279006   -7.7156029    821.44216  0.014926627  0.013430998         4000 
 4587000   0.50408822   -7.7372529    823.15806  0.014954547  0.013426289         3998 
 4588000   0.51943873   -7.7356442    822.24265   0.01493466  0.013421578         3999 
 4589000   0.51660655   -7.7339233    823.59792  0.014956017  0.013416876         3998 
 4590000   0.51423004   -7.7353654    822.49712  0.014932773  0.013412177         3998 
 4591000   0.50595067   -7.7363549    823.16595   0.01494166  0.013407474         3998 
 4592000   0.52064173   -7.7251035    822.69849  0.014929923  0.013402775         3999 
 4593000   0.52191345   -7.7164484     822.9609  0.014931434  0.013398078         4000 
 4594000   0.51827028   -7.7145518    821.73812  0.014906003  0.013393382         3996 
 4595000   0.52623095   -7.7328669    824.28072  0.014948871  0.013388693         4000 
 4596000    0.5212186   -7.7115577    824.10444  0.014942422  0.013384004         3993 
 4597000   0.51249768   -7.7302392    823.19446  0.014922675  0.013379318         3995 
 4598000   0.51594984   -7.7355193    822.38827  0.014904819  0.013374631         3997 
 4599000   0.51808854   -7.7304167    822.40438   0.01490187  0.013369945         3997 
 4600000   0.51109888   -7.7284422    823.10061  0.014911243  0.013365265         3999 
 4601000   0.51942225    -7.730986    823.52945  0.014915769  0.013360586         3999 
 4602000   0.52306152   -7.7214081    823.35203  0.014909315  0.013355906         3995 
 4603000   0.51430697   -7.7354127    823.32261  0.014905544  0.013351232         4000 
 4604000   0.52009432   -7.7306444    822.71141  0.014891243  0.013346556         3999 
 4605000   0.52171351   -7.7187481    822.51457  0.014884448  0.013341884         3999 
 4606000   0.50631123   -7.7430498     822.5473  0.014881808  0.013337213         3999 
 4607000   0.51702835   -7.7258216    822.37015  0.014875373  0.013332545         3999 
 4608000   0.51413309   -7.7228194    822.76034  0.014879202  0.013327879         3998 
 4609000   0.51543814   -7.7341131    823.21599  0.014884212  0.013323217         3997 
 4610000   0.52289084   -7.7426389    823.11079  0.014879082  0.013318557         3997 
 4611000   0.52958663   -7.7438445    823.60595  0.014884803  0.013313898         3998 
 4612000    0.5122733   -7.7361948    823.72145  0.014883663   0.01330924         3999 
 4613000   0.50271696   -7.7311389    822.30308  0.014854814  0.013304586         4000 
 4614000   0.52045454   -7.7432621    822.10142  0.014847952  0.013299931         3998 
 4615000   0.51469283   -7.7365034    824.37538  0.014885796  0.013295279         3999 
 4616000   0.52335698   -7.7363108    823.50504  0.014866859   0.01329063         3997 
 4617000   0.50654124   -7.7332984     822.5424  0.014846264  0.013285985         4000 
 4618000   0.51345315   -7.7235601    824.23278  0.014873552  0.013281342         3997 
 4619000   0.51337238   -7.7222883    823.39905  0.014855291    0.0132767         3998 
 4620000   0.50728267   -7.7165857     822.5274  0.014836353  0.013272062         4000 
 4621000   0.50519229   -7.7387003     823.7801  0.014855733  0.013267424         4000 
 4622000   0.49798686   -7.7311099    822.93837  0.014837343  0.013262785         3999 
 4623000   0.52568644   -7.7502769    822.73007  0.014830378  0.013258152         3998 
 4624000   0.50324837   -7.7263179    823.07172  0.014833328   0.01325352         4000 
 4625000   0.51361054   -7.7266887    823.51017  0.014838021   0.01324889         3998 
 4626000    0.5037615   -7.7399549    822.95651   0.01482484  0.013244264         3999 
 4627000   0.50936282   -7.7280729    823.26522  0.014827196   0.01323964         4000 
 4628000    0.5144082   -7.7230924    823.40113  0.014826439  0.013235014         3996 
 4629000   0.50991778   -7.7239389    822.88771  0.014813993  0.013230394         3996 
 4630000   0.53052546   -7.7471169    822.79617  0.014809146  0.013225774         3997 
 4631000   0.50825945   -7.7323292    821.54074  0.014783357  0.013221159         3996 
 4632000   0.51253986   -7.7211102    823.28047  0.014811465  0.013216543         3996 
 4633000   0.51665169   -7.7345217    822.53702  0.014794896  0.013211932         3994 
 4634000   0.50211665   -7.7347427    822.05338  0.014783006  0.013207319         3997 
 4635000   0.50324887   -7.7395962    823.54753   0.01480668  0.013202712         3998 
 4636000   0.51169951   -7.7368624    821.65077  0.014769391  0.013198105         3994 
 4637000   0.51981497   -7.7391878    824.33575  0.014814459  0.013193498         3998 
 4638000   0.50790112   -7.7283466    822.85175  0.014784601  0.013188893         3997 
 4639000   0.49832666   -7.7562363     823.8255  0.014798906  0.013184292         3999 
 4640000    0.5134548   -7.7466995    822.94193  0.014779848  0.013179692         3996 
 4641000   0.51187337   -7.7227695     822.6284  0.014771034  0.013175094         3999 
 4642000   0.51590578   -7.7312045    824.01898  0.014792815    0.0131705         3996 
 4643000   0.50656315   -7.7607573    822.85476  0.014768733  0.013165907         3997 
 4644000   0.51146855   -7.7307677    821.69137  0.014744677  0.013161317         4000 
 4645000   0.50668073   -7.7563998    822.80633  0.014761506  0.013156728         3998 
 4646000   0.49616741   -7.7386821    822.24549  0.014748269  0.013152141         3994 
 4647000   0.50742274   -7.7416263    822.53577  0.014750301  0.013147553         3994 
 4648000   0.49543989    -7.740423    823.48294  0.014764109  0.013142971         3999 
 4649000   0.49549634   -7.7408849    823.22365  0.014756285   0.01313839         3999 
 4650000   0.50676307    -7.741164    823.89056  0.014765064  0.013133812         3999 
 4651000   0.51429485   -7.7448041    822.52084  0.014737348  0.013129233         4000 
 4652000   0.50570988   -7.7376988    823.34723  0.014748983  0.013124657         4000 
 4653000   0.50426695   -7.7346762    823.70311  0.014752187  0.013120084         3999 
 4654000   0.49821089   -7.7397349    821.87823  0.014716341  0.013115513         3999 
 4655000   0.50741013   -7.7416433    823.55671  0.014743228  0.013110944         3996 
 4656000   0.50399348   -7.7318059     823.1224  0.014732288  0.013106377         3998 
 4657000   0.49380815   -7.7253609    822.42066  0.014716567  0.013101812         3998 
 4658000   0.51173205   -7.7389535    823.73699  0.014736958  0.013097251         4000 
 4659000    0.5072661   -7.7395275    822.38897  0.014709683  0.013092689         4000 
 4660000   0.50744237   -7.7435696    821.97372  0.014699101   0.01308813         3999 
 4661000   0.49558504   -7.7326308    823.23325  0.014718466  0.013083575         4000 
 4662000   0.51263255   -7.7333127    821.10523  0.014677271   0.01307902         3998 
 4663000   0.50098672   -7.7200703    822.10837   0.01469205   0.01307447         3998 
 4664000     0.514526   -7.7401997    821.86051  0.014684472  0.013069919         3998 
 4665000   0.50970372   -7.7428255    822.28122  0.014688839  0.013065372         3999 
 4666000   0.49950569   -7.7283824    822.87242   0.01469625  0.013060826         3997 
 4667000   0.51011865   -7.7475245    821.75648  0.014673175  0.013056282         3999 
 4668000   0.50311713   -7.7474804    821.77244  0.014670316  0.013051739         3999 
 4669000   0.50662694     -7.74399    823.02061  0.014689452  0.013047198         4000 
 4670000   0.50152257   -7.7531074    821.74329  0.014663513  0.013042661         4000 
 4671000    0.4978706   -7.7504275    822.67286  0.014676958  0.013038126         3994 
 4672000   0.50620267   -7.7339985    822.64241  0.014673274  0.013033592         3999 
 4673000   0.49273092    -7.736223    823.31133  0.014682062  0.013029059         3998 
 4674000   0.50570892     -7.76213    821.86105  0.014653064  0.013024528         4000 
 4675000   0.51200171   -7.7564142    823.50241  0.014679187      0.01302         3998 
 4676000   0.50124386   -7.7420099    822.19782  0.014652798  0.013015471         3997 
 4677000   0.50667264   -7.7457399    823.19134  0.014667368  0.013010949         3997 
 4678000   0.50292911   -7.7549015    823.30839  0.014666317  0.013006428         3995 
 4679000   0.50351331   -7.7185562    822.87229  0.014655416   0.01300191         3996 
 4680000   0.49899294   -7.7611474    822.33933  0.014642794  0.012997391         3998 
 4681000   0.50081465   -7.7343338    822.70904  0.014646248  0.012992877         3991 
 4682000   0.50826921   -7.7572843    821.95125  0.014629632  0.012988364         3999 
 4683000   0.50522881   -7.7426601    823.35225  0.014651439  0.012983853         3999 
 4684000    0.5022969   -7.7541398    823.56403  0.014652079  0.012979342         3998 
 4685000   0.51133097   -7.7419363    821.87531  0.014618913  0.012974833         3997 
 4686000   0.48798704   -7.7279512    823.42306  0.014643318  0.012970326         3998 
 4687000   0.49950775    -7.741405    822.36138  0.014621317  0.012965822         3996 
 4688000   0.49474273   -7.7383064    821.37832  0.014600724  0.012961321         4000 
 4689000   0.50354121   -7.7522137    822.99535  0.014626348  0.012956822         3997 
 4690000   0.49588495   -7.7336859      822.578  0.014615814  0.012952324         3997 
 4691000   0.50985721   -7.7522876    823.05679  0.014621204  0.012947825         3999 
 4692000   0.49584787   -7.7520517    821.55802  0.014591468  0.012943333         3998 
 4693000   0.50250437   -7.7480513    821.25426  0.014582965  0.012938842         3999 
 4694000   0.51015643    -7.761036    822.71923  0.014605866  0.012934353         3999 
 4695000   0.48996828   -7.7360867    822.38073  0.014596747  0.012929864         3999 
 4696000    0.4974424   -7.7410809    822.55774   0.01459678  0.012925376         3996 
 4697000   0.49886186   -7.7540018    822.62593  0.014594882  0.012920893         4000 
 4698000    0.5064057   -7.7345094    822.95474  0.014597608  0.012916413         3996 
 4699000   0.50278299   -7.7482949    821.50867  0.014568856  0.012911936         4000 
 4700000   0.50794008   -7.7486451     820.5926  0.014549514  0.012907458         4000 
 4701000    0.4941188   -7.7913781    821.95304  0.014570535  0.012902981         3998 
 4702000   0.49693973   -7.7261385    822.41241  0.014575578  0.012898506         3999 
 4703000   0.49975813    -7.737867     821.0713  0.014548715  0.012894033         3998 
 4704000   0.49207666   -7.7574226    820.91271  0.014542813   0.01288956         4000 
 4705000   0.50267382   -7.7637969    823.05735  0.014577707  0.012885093         3999 
 4706000   0.50213958   -7.7239369    821.61766  0.014549116  0.012880627         3998 
 4707000   0.50308202   -7.7556683    823.19358  0.014573925  0.012876165         4000 
 4708000   0.50029285   -7.7352344    821.78157  0.014545836  0.012871703         3999 
 4709000   0.49556304   -7.7526249    821.75651  0.014542304  0.012867241         3999 
 4710000   0.49125256    -7.746432     820.8198  0.014522643  0.012862784         3997 
 4711000   0.49864555   -7.7391442    823.49411  0.014566867  0.012858328         3993 
 4712000   0.50159837   -7.7566641    821.93075  0.014536127  0.012853875         3998 
 4713000   0.49309261   -7.7415533    821.83752  0.014531394  0.012849423         4000 
 4714000   0.49629711   -7.7503108    822.32172  0.014536871  0.012844974         3998 
 4715000   0.49795742   -7.7462025    822.96908  0.014545229  0.012840526         4000 
 4716000   0.49585506   -7.7557141    821.79863  0.014521463  0.012836079         3997 
 4717000   0.50685846   -7.7494629    822.00644  0.014522056  0.012831637         3997 
 4718000   0.49547986   -7.7489827    821.95929  0.014518145  0.012827195         3998 
 4719000   0.50623667    -7.747484    822.83295  0.014530496  0.012822758         3996 
 4720000   0.50332498   -7.7597026    821.38922  0.014501928  0.012818318         3999 
 4721000   0.50413407   -7.7573354    821.97448  0.014509187  0.012813882         3997 
 4722000   0.48999899   -7.7501992    821.40167  0.014496006  0.012809448         3999 
 4723000   0.50121473   -7.7628934    823.30295  0.014526483  0.012805018         3999 
 4724000    0.4902039   -7.7538613    822.00663   0.01450054  0.012800589         3997 
 4725000   0.49700098   -7.7389058    820.34965  0.014468248  0.012796162         4000 
 4726000   0.50344623    -7.754098    821.73402  0.014489597  0.012791737         3998 
 4727000   0.49965286   -7.7536328     822.9394  0.014507782  0.012787312         3998 
 4728000   0.49973015   -7.7587602     823.4852  0.014514333  0.012782888         3997 
 4729000   0.49587065   -7.7293177    821.58999  0.014477867  0.012778466         3999 
 4730000    0.4946247   -7.7515413    822.66053  0.014493667   0.01277405         3999 
 4731000   0.48647442   -7.7538527    823.01415  0.014496832  0.012769634         3998 
 4732000   0.49826197   -7.7450971    821.61028  0.014469046  0.012765217         3999 
 4733000   0.50114586    -7.751527    821.79118  0.014469174  0.012760804         3996 
 4734000   0.49938614   -7.7414213    821.74693  0.014465338  0.012756392         3997 
 4735000   0.49384874   -7.7446972    821.21798  0.014452974  0.012751985         3998 
 4736000   0.50072639   -7.7640586    821.24262  0.014450356  0.012747582         3997 
 4737000   0.50149084   -7.7582459    822.15326  0.014463325  0.012743177         4000 
 4738000   0.50109493   -7.7466627    821.20005  0.014443507  0.012738777         3999 
 4739000    0.4974908   -7.7382597     822.1348  0.014456897  0.012734378         3998 
 4740000    0.4854644   -7.7705856    821.90478  0.014449803  0.012729977         3998 
 4741000   0.48433666   -7.7414079    822.09772  0.014450146  0.012725582         3998 
 4742000   0.50547819   -7.7748097    822.49034  0.014453999  0.012721186         3996 
 4743000   0.49264394   -7.7540427    822.09439  0.014443994  0.012716792         3997 
 4744000   0.48911202   -7.7451706    823.11639  0.014458902  0.012712401         3998 
 4745000   0.48868933   -7.7702543     821.9835  0.014435959  0.012708014         4000 
 4746000   0.48884982   -7.7676339    821.60855  0.014426334  0.012703628         3996 
 4747000   0.48065393   -7.7601986    821.69541  0.014424819  0.012699243         3998 
 4748000   0.49512744   -7.7379654    821.83731  0.014424272  0.012694861         3998 
 4749000   0.49223076   -7.7489772    821.02699  0.014407015  0.012690482         3999 
 4750000   0.49341076   -7.7774899    822.24689  0.014425384  0.012686103         3999 
 4751000   0.48922712   -7.7566483    821.44477  0.014408278  0.012681728         3998 
 4752000    0.5010533   -7.7486251     822.0406  0.014415695  0.012677353         3998 
 4753000    0.4954832   -7.7530588    822.07365  0.014413242  0.012672984         3999 
 4754000   0.49095013   -7.7617924    821.63536  0.014402527  0.012668613         3996 
 4755000   0.49700781   -7.7691017    820.93001  0.014387137  0.012664242         4000 
 4756000   0.49423648   -7.7598731    821.29173  0.014390449  0.012659874         3998 
 4757000   0.48107243   -7.7416242    821.96723  0.014399258  0.012655508         4000 
 4758000   0.50505503   -7.7570764    822.06625  0.014397966  0.012651144         4000 
 4759000    0.4967434   -7.7600298    823.10706  0.014413166  0.012646783         3998 
 4760000   0.49018239   -7.7614227    821.05684  0.014374244  0.012642425         3999 
 4761000   0.50085832   -7.7666871    821.98166  0.014387413  0.012638066         3999 
 4762000   0.48793332   -7.7582239    821.55721  0.014376964   0.01263371         4000 
 4763000   0.49142197   -7.7732781    821.75097  0.014377335  0.012629357         3998 
 4764000   0.49061775   -7.7578932    821.01156  0.014361383  0.012625004         3996 
 4765000     0.487542   -7.7671591    822.06419  0.014376778  0.012620656         3998 
 4766000   0.48653527   -7.7640091    822.26278  0.014377234  0.012616311         3999 
 4767000   0.48581186   -7.7486089    821.01192  0.014352352  0.012611964         3993 
 4768000   0.49112955   -7.7644249    821.53367   0.01435846  0.012607623         3998 
 4769000   0.49270309   -7.7578396     821.7704  0.014359586   0.01260328         3999 
 4770000    0.4983059   -7.7754556    822.85563  0.014375535  0.012598943         4000 
 4771000   0.50067589   -7.7620776     821.8753  0.014355399  0.012594604         3997 
 4772000   0.47837286   -7.7692022    821.69641  0.014349267  0.012590269         3998 
 4773000   0.47861697     -7.75434    821.33181  0.014339895  0.012585938         4000 
 4774000    0.4798816   -7.7531805    821.80146  0.014345089  0.012581607         4000 
 4775000   0.49450806   -7.7632383    820.55045  0.014320252  0.012577276         3999 
 4776000   0.47191041   -7.7505948     821.4129  0.014332302  0.012572947         3998 
 4777000   0.49995611   -7.7526119    820.64313  0.014315873  0.012568623         3999 
 4778000   0.49156531   -7.7668106    822.16944  0.014339498    0.0125643         3998 
 4779000   0.48835064   -7.7566815    819.88403  0.014296646  0.012559974         3999 
 4780000   0.49432146   -7.7677806    820.92108  0.014311734  0.012555655         3998 
 4781000   0.48655399   -7.7680126    822.65469  0.014338958  0.012551334         3999 
 4782000   0.48167479   -7.7735419    822.68024  0.014336405  0.012547016         3998 
 4783000    0.4790693   -7.7534639    822.14552  0.014324091  0.012542701         3998 
 4784000   0.49141232   -7.7660535    821.71653  0.014313624   0.01253839         4000 
 4785000   0.48051334   -7.7643089    821.57077  0.014308094  0.012534078         4000 
 4786000   0.48658767   -7.7596189    821.72536  0.014307796  0.012529767         3999 
 4787000   0.47983136   -7.7632104    822.09747  0.014311285   0.01252546         3997 
 4788000   0.48542416   -7.7780706    821.32528  0.014294857  0.012521156         3998 
 4789000   0.48309668   -7.7691029    821.76526  0.014299528  0.012516853         3998 
 4790000   0.48914096   -7.7672111     820.9074  0.014281618  0.012512551         4000 
 4791000   0.48143093   -7.7681626    821.45957  0.014288241  0.012508251         3998 
 4792000   0.48385773   -7.7692647     821.0358   0.01427789  0.012503955         3998 
 4793000   0.48625156   -7.7529495    822.28571  0.014296643   0.01249966         3999 
 4794000    0.4867533   -7.7683199    822.94058  0.014305044  0.012495364         3998 
 4795000    0.4926718   -7.7597063    822.14755  0.014288279  0.012491074         3999 
 4796000   0.49410842   -7.7772686    821.51317  0.014274277  0.012486783         4000 
 4797000   0.49010704    -7.760921    822.42082  0.014287069  0.012482495         3999 
 4798000   0.49577492   -7.7751499    821.69834  0.014271543  0.012478208         3997 
 4799000   0.48770952   -7.7680603    820.85101  0.014253855  0.012473922         3997 
 4800000   0.48527535   -7.7730457    822.16906  0.014273768  0.012469639         4000 
 4801000    0.4937468   -7.7718296    820.75592  0.014246267  0.012465358         3997 
 4802000   0.49349305   -7.7868696    821.24297  0.014251752  0.012461079         3996 
 4803000   0.48167386    -7.764874    821.27272  0.014249301  0.012456802         3998 
 4804000   0.48644488   -7.7762127    821.03758  0.014242256  0.012452527         4000 
 4805000    0.4793184   -7.7732946    820.72304  0.014233837  0.012448256         3998 
 4806000   0.47616309   -7.7625027    822.14516  0.014255534  0.012443983         3999 
 4807000   0.47568887   -7.7818447    820.37531  0.014221887  0.012439713         3998 
 4808000   0.48870587   -7.7595685    821.99453  0.014246993  0.012435443         3999 
 4809000   0.48365343   -7.7632439    821.88681  0.014242164  0.012431176         3999 
 4810000   0.48804295   -7.7696477    821.22043  0.014227658  0.012426913         3996 
 4811000   0.47977754   -7.7644168    820.60172  0.014213984   0.01242265         3998 
 4812000   0.48728265   -7.7789756    822.00133  0.014235268   0.01241839         3999 
 4813000   0.48272692   -7.7511467     820.4451  0.014205366  0.012414134         3998 
 4814000   0.49170209   -7.7647463    821.98332  0.014229042  0.012409876         3996 
 4815000   0.47556361   -7.7763177    820.40988  0.014198856  0.012405624         3995 
 4816000   0.47186859   -7.7705295    821.40169  0.014213069  0.012401373         3997 
 4817000   0.46815438   -7.7931913    822.05242  0.014221376  0.012397119         3999 
 4818000   0.47596584   -7.7719966    821.56197  0.014209941  0.012392868         3998 
 4819000   0.49435386   -7.7690377    822.53719  0.014223857  0.012388624         3998 
 4820000    0.4810576   -7.7593687    820.01569  0.014177311  0.012384379         3998 
 4821000   0.48373948   -7.7673001    822.16609  0.014211541  0.012380138         3995 
 4822000   0.48805205   -7.7761866    821.69325  0.014200423  0.012375899         3997 
 4823000   0.48037856   -7.7731863    821.89538  0.014200971  0.012371661         3998 
 4824000   0.47304892   -7.7729847    822.45712  0.014207731  0.012367424         3999 
 4825000   0.48052193   -7.7635388    821.74733  0.014192527  0.012363188         3999 
 4826000   0.47606703   -7.7677344    819.80959  0.014156126  0.012358952         3998 
 4827000   0.48385366   -7.7595464    821.38856  0.014180453  0.012354721         3998 
 4828000   0.46922177   -7.7594594    821.61176  0.014181368   0.01235049         3995 
 4829000   0.47993616   -7.7904029    821.41841  0.014175095  0.012346262         3998 
 4830000   0.46580867    -7.775595    820.70296  0.014159816  0.012342037         3999 
 4831000   0.47928904   -7.7742534    820.38108  0.014151333  0.012337812         4000 
 4832000   0.47749018   -7.7810625    821.43359  0.014166556   0.01233359         3998 
 4833000   0.48270145   -7.7814203    822.03908  0.014174065  0.012329368         3997 
 4834000   0.47756604   -7.7608504     821.6634  0.014164657   0.01232515         3997 
 4835000   0.48023861    -7.782336    822.27319  0.014172237  0.012320934         3998 
 4836000   0.48441792   -7.7828472    821.57964  0.014157355  0.012316718         4000 
 4837000   0.46449394   -7.7669247    822.28833  0.014166638  0.012312504         3996 
 4838000   0.46517237   -7.7823958    822.16526   0.01416159  0.012308294         3995 
 4839000   0.47634988   -7.7916617    820.22061  0.014125174  0.012304082         3999 
 4840000   0.47362389   -7.7768377    819.98877  0.014118264  0.012299874         4000 
 4841000   0.47820801   -7.7707474     820.9272  0.014131502   0.01229567         3999 
 4842000   0.47182406   -7.7635528    820.15115  0.014115227  0.012291465         3998 
 4843000   0.46874218   -7.7756715    820.63112  0.014120571  0.012287266         3999 
 4844000   0.48085607   -7.7774599     820.7042  0.014118914  0.012283065         3998 
 4845000   0.47857206    -7.792465    820.23404  0.014107913  0.012278867         3999 
 4846000   0.47837393   -7.7901775    821.03856  0.014118836  0.012274672         4000 
 4847000   0.47079159   -7.7833608    820.70884  0.014110254  0.012270479         3997 
 4848000    0.4694847    -7.772328    820.19165  0.014098454  0.012266287         3999 
 4849000   0.47280517   -7.7737901    820.80644  0.014106112  0.012262095         3999 
 4850000   0.47677318   -7.7813549    821.33887  0.014112352  0.012257907         3999 
 4851000   0.48100487   -7.7913851    820.49688  0.014094978  0.012253723         3997 
 4852000   0.47251073   -7.7797709    821.91686  0.014116462  0.012249538         3999 
 4853000   0.46948072     -7.78683    821.84468  0.014112313  0.012245355         3997 
 4854000   0.48022823   -7.7921066    821.48441  0.014103221  0.012241173         3995 
 4855000   0.47796649   -7.7725726    820.20886  0.014078422  0.012236995         3996 
 4856000   0.47475657   -7.7624631    821.16432  0.014091919  0.012232818         3999 
 4857000   0.46450897   -7.7796916    821.10404  0.014087984  0.012228642         3995 
 4858000   0.47525681   -7.7717916    820.39559  0.014072931  0.012224467         4000 
 4859000   0.47838153   -7.7827577    820.66063   0.01407458  0.012220292         3997 
 4860000   0.47320809   -7.7957111    822.28792  0.014099587  0.012216122         4000 
 4861000   0.46562555   -7.7644666    820.92311  0.014073289  0.012211955         3997 
 4862000   0.46954648    -7.773239     821.7658  0.014084838  0.012207788         3994 
 4863000   0.47242215   -7.7664516    820.67823  0.014063305  0.012203623         3998 
 4864000   0.46815695   -7.7729457    820.29761  0.014053893  0.012199462         3994 
 4865000   0.47293887   -7.7751269    820.28676  0.014050818  0.012195301         3998 
 4866000   0.46646063   -7.7934777    822.47969  0.014085486  0.012191145         4000 
 4867000   0.46505753   -7.7805237    820.56307  0.014049775  0.012186989         4000 
 4868000   0.47567053   -7.7863564    820.55746  0.014046793  0.012182833         3999 
 4869000   0.47364267   -7.7924118     819.5173  0.014026106   0.01217868         3998 
 4870000   0.47267526   -7.7626429    820.21362  0.014035141  0.012174529         3999 
 4871000   0.48144043   -7.7872024    820.07067  0.014029814  0.012170378         3999 
 4872000   0.47211596   -7.7863234    820.61328  0.014036215   0.01216623         4000 
 4873000   0.47221263   -7.7794319    820.97836  0.014039578  0.012162084         3999 
 4874000   0.47006012   -7.7807057    821.05956  0.014038086  0.012157938         3998 
 4875000   0.46331901    -7.792651    820.16079  0.014019843  0.012153794         3998 
 4876000   0.46487549   -7.7779564    820.92539  0.014030035  0.012149653         3999 
 4877000   0.47885572   -7.7692781    821.49018  0.014036808  0.012145515         3999 
 4878000   0.46950439   -7.7872127    819.94772   0.01400758  0.012141381         4000 
 4879000   0.46689619   -7.7916134    820.82935  0.014019768  0.012137246         3998 
 4880000   0.47180332   -7.7979354    821.03194  0.014020354  0.012133112         3999 
 4881000   0.47674954   -7.7885106    821.00055  0.014016946   0.01212898         3997 
 4882000   0.46533621   -7.7699754    820.91568  0.014012626  0.012124848         3997 
 4883000   0.46665623    -7.787669     822.2193  0.014032004  0.012120721         3999 
 4884000   0.47593497   -7.7828811    821.15514  0.014010974  0.012116594         3999 
 4885000   0.46687128   -7.7860355    820.41486  0.013995477  0.012112469         3997 
 4886000     0.469586     -7.79773    820.56947  0.013995249  0.012108348         3999 
 4887000   0.47393735   -7.7785837    820.13486  0.013984975  0.012104225         3999 
 4888000   0.46634591   -7.7707263    820.39946  0.013986625  0.012100107         3999 
 4889000   0.46984767   -7.7727359    819.24839  0.013964144  0.012095994         3999 
 4890000   0.46116909    -7.806988    820.70436    0.0139861  0.012091878         3995 
 4891000   0.46685956   -7.7857599    820.23907  0.013975313  0.012087764         3997 
 4892000   0.47115298   -7.7869188    820.13984  0.013970766  0.012083653         3998 
 4893000   0.46560606   -7.7866828    821.34071  0.013988363  0.012079543         4000 
 4894000   0.46686612   -7.7866699     820.5374  0.013971826  0.012075437         4000 
 4895000   0.47063818   -7.7808402    820.90356  0.013975205   0.01207133         3997 
 4896000    0.4643015   -7.7937581    820.22251  0.013960759  0.012067224         3997 
 4897000   0.48239665   -7.7964648    819.75531  0.013949958   0.01206312         4000 
 4898000   0.47139948    -7.780208     820.0688  0.013952443  0.012059021         3998 
 4899000   0.46378853    -7.789182    820.91011  0.013963906  0.012054921         4000 
 4900000   0.46155031   -7.7916832    821.85268  0.013977086  0.012050824         4000 
 4901000   0.46208493   -7.7889529    819.90219   0.01394107  0.012046729         3998 
 4902000   0.46586236   -7.7913289    819.81622  0.013936764  0.012042635         3999 
 4903000   0.48108785    -7.790767    820.44233  0.013944563  0.012038542         4000 
 4904000   0.46519777   -7.8142575    820.88303  0.013949209  0.012034451         3999 
 4905000   0.46506652   -7.7799528    820.70188  0.013943287  0.012030364         3999 
 4906000   0.46426635   -7.7847468    820.14796  0.013931036  0.012026276         3993 
 4907000    0.4722386   -7.7951573    819.23142  0.013912632   0.01202219         3996 
 4908000    0.4596962   -7.7943037     821.9952  0.013956724  0.012018107         3999 
 4909000   0.47380535   -7.7909335    821.55928  0.013946481  0.012014027         4000 
 4910000   0.47040428   -7.8017494    820.88176  0.013932141  0.012009949         3998 
 4911000   0.46682118   -7.7997698    821.10094  0.013933023  0.012005872         3998 
 4912000   0.46472138   -7.7975167     820.3508  0.013917461  0.012001796         3998 
 4913000   0.46863221   -7.8042216    819.33824  0.013897453  0.011997722         3999 
 4914000   0.45932311   -7.8076893    820.77688  0.013919022   0.01199365         3997 
 4915000   0.46003809    -7.786306    820.39021  0.013909634   0.01198958         3998 
 4916000   0.46215463   -7.7914382    820.42248  0.013907351  0.011985509         3999 
 4917000   0.46061871   -7.7950459     819.7737  0.013893528  0.011981441         3999 
 4918000   0.47072355   -7.7797401    820.55935  0.013904015  0.011977377         3999 
 4919000   0.45720478   -7.7901664    820.32466  0.013897213  0.011973314         4000 
 4920000   0.46280388   -7.7908912    820.13583  0.013891189  0.011969254         4000 
 4921000   0.45900408   -7.7846053    820.22178  0.013889822  0.011965194         3998 
 4922000   0.46149402   -7.7949453    820.28662  0.013888098  0.011961138         3997 
 4923000   0.45234999   -7.7997231    819.78928  0.013876858   0.01195708         3995 
 4924000   0.47389227    -7.785393    820.58637   0.01388753  0.011953028         4000 
 4925000   0.46433069   -7.7888703     820.3076  0.013879993  0.011948977         3999 
 4926000   0.47556895   -7.7921027    819.94003  0.013870957  0.011944925         4000 
 4927000   0.46439066   -7.7912576    820.51287  0.013877831  0.011940875         3998 
 4928000   0.46432397    -7.797089    820.37048  0.013872607  0.011936831         4000 
 4929000   0.45636101   -7.7816165    818.92307  0.013845321  0.011932785         3999 
 4930000   0.45849791   -7.7925472    820.44433  0.013868227  0.011928743         3998 
 4931000   0.45194759   -7.7892578    820.05233   0.01385879  0.011924702         3998 
 4932000   0.44954701    -7.818044    820.66091  0.013866263  0.011920662         4000 
 4933000   0.46683485   -7.7940119    819.32085  0.013840814  0.011916621         3999 
 4934000   0.46213681   -7.8118147    820.34233  0.013855262  0.011912584         3998 
 4935000   0.45756698   -7.7848467    819.11803   0.01383178  0.011908548         3999 
 4936000   0.46990969   -7.7867189    820.94131   0.01385976  0.011904517         4000 
 4937000    0.4656155   -7.7872898    820.17484  0.013844015  0.011900486         3997 
 4938000   0.46919094   -7.7996501    819.08216  0.013822772  0.011896458         3999 
 4939000   0.45587072   -7.7913034      820.337  0.013841145  0.011892434         3998 
 4940000   0.45617484   -7.8073673    820.08284  0.013834056   0.01188841         3999 
 4941000   0.45183491   -7.7919014    820.08925  0.013831364  0.011884386         3999 
 4942000   0.45794666   -7.7866952      819.627  0.013820771  0.011880362         3998 
 4943000   0.46137531   -7.8186313    820.15692  0.013826909  0.011876342         3997 
 4944000   0.47402216   -7.7778916     819.9033  0.013819837  0.011872324         3999 
 4945000   0.46551865   -7.7924822    820.28246  0.013823432  0.011868308         3998 
 4946000   0.46461991   -7.7968688    821.29868  0.013837759  0.011864294         3996 
 4947000    0.4681159   -7.8101642    820.32177  0.013818506  0.011860281         3997 
 4948000   0.46617538   -7.8044244     819.4105  0.013800366   0.01185627         4000 
 4949000   0.46051387    -7.811495    820.97067  0.013823848  0.011852261         3998 
 4950000   0.46715432   -7.7901646    819.52039  0.013796639  0.011848252         3996 
 4951000   0.45627452   -7.8070274    821.19488  0.013822037  0.011844247         3997 
 4952000   0.45514053   -7.7921408    820.67756  0.013810541  0.011840243         3998 
 4953000   0.46195169   -7.8013381    819.95432  0.013795584  0.011836241         3999 
 4954000   0.46340203   -7.8104354    820.68938  0.013805164   0.01183224         3999 
 4955000   0.45995258   -7.8030729     819.0407   0.01377465  0.011828242         4000 
 4956000   0.45617544   -7.8132117    819.53253  0.013780141  0.011824244         3999 
 4957000    0.4497786   -7.8075003    819.37362  0.013774689  0.011820249         3997 
 4958000   0.46970803   -7.7979668    819.83033  0.013779587  0.011816255         3999 
 4959000   0.46165601   -7.7927509    821.33688  0.013802126  0.011812265         3999 
 4960000   0.46781171   -7.7965919    819.89183  0.013775064  0.011808277         3998 
 4961000    0.4544306   -7.8053958    821.09421  0.013792485  0.011804289         4000 
 4962000   0.45970522   -7.7886472    819.89553  0.013769574  0.011800301         3997 
 4963000   0.44402044   -7.8018942    821.46213  0.013793104  0.011796317         3997 
 4964000   0.46164357   -7.8044122     818.6656  0.013743379  0.011792333         4000 
 4965000   0.45629201   -7.8058734    820.01469  0.013763254  0.011788354         3998 
 4966000    0.4583181   -7.8183637    819.51254  0.013752056  0.011784375         4000 
 4967000   0.44983173   -7.7953404    819.82728  0.013754568  0.011780399         3998 
 4968000    0.4538673   -7.8087937    819.83917  0.013751999  0.011776422         3999 
 4969000   0.44977524   -7.8080414    821.98649  0.013785243  0.011772445         4000 
 4970000   0.45601009   -7.8083035    820.05446  0.013750075  0.011768473         3995 
 4971000   0.45138438   -7.7994382    819.89065  0.013744563  0.011764502         3999 
 4972000   0.44563642   -7.8049699    820.41866  0.013750648  0.011760532         3999 
 4973000   0.45238137   -7.7938158    820.11901  0.013742862  0.011756564         4000 
 4974000   0.45200946    -7.806942    820.35713  0.013744088    0.0117526         3999 
 4975000   0.45510437   -7.8039688     819.1232  0.013720657  0.011748639         4000 
 4976000    0.4619346   -7.8143634    819.49718  0.013724162   0.01174468         4000 
 4977000   0.45593497   -7.7939149    820.44614  0.013737294  0.011740721         4000 
 4978000   0.46145889   -7.7998478    817.99282  0.013693465  0.011736762         4000 
 4979000    0.4727977   -7.7971325    819.88893   0.01372245  0.011732808         3999 
 4980000   0.46110372   -7.8009949    820.07826  0.013722862  0.011728854         3996 
 4981000   0.46793504   -7.8032741    819.36077  0.013708104  0.011724903         4000 
 4982000   0.45687461   -7.7946297    819.25551  0.013703591  0.011720951         3998 
 4983000   0.46493139   -7.7983195    818.84194  0.013693925  0.011717004         3998 
 4984000   0.45780142   -7.8049566    820.00439  0.013710614  0.011713057         4000 
 4985000   0.44622329   -7.8032612     821.0222  0.013724878  0.011709112         4000 
 4986000    0.4577257   -7.8040404    820.34799  0.013710857  0.011705167         3999 
 4987000   0.45857406   -7.8023343    818.99803   0.01368555  0.011701224         3999 
 4988000   0.45197581    -7.797633    820.36524  0.013705648  0.011697284         3999 
 4989000   0.46118957   -7.7982083    818.31192  0.013668603  0.011693345         3998 
 4990000   0.46073226   -7.8211917    820.16195  0.013696759  0.011689408         3999 
 4991000   0.45508664   -7.8061764    818.64187  0.013668635  0.011685475         3999 
 4992000   0.46477835   -7.8116509    819.84236  0.013685937   0.01168154         3999 
 4993000   0.46400269   -7.8080066     819.8468   0.01368327  0.011677607         3998 
 4994000    0.4499952   -7.7934242    819.98518  0.013682839  0.011673677         3999 
 4995000   0.45397606   -7.8203211    821.23493   0.01370095  0.011669749         4000 
 4996000   0.45951795   -7.8137203    819.77941  0.013673929   0.01166582         3998 
 4997000   0.45231719    -7.799038    818.66702  0.013652642  0.011661895         3998 
 4998000   0.45444462   -7.8081527    820.05562  0.013673063  0.011657972         3998 
 4999000   0.43889162   -7.8085295    818.75268  0.013648608   0.01165405         3999 
 5000000   0.44349917   -7.8075962     820.6807  0.013678012  0.011650129         3996 
 5001000   0.45273472   -7.7970507    820.42158  0.013670959  0.011646211         3994 
 5002000   0.45006231   -7.8086503    818.08097  0.013629231  0.011642293         3999 
 5003000   0.45038419   -7.8038113    820.23227   0.01366234  0.011638379         3997 
 5004000   0.45348265   -7.8011858    820.37679  0.013662017  0.011634467         4000 
 5005000   0.45326183     -7.80016    819.83689  0.013650298  0.011630557         3999 
 5006000   0.45729143   -7.7997298    817.76477  0.013613077  0.011626647         3999 
 5007000   0.43792304   -7.8122594    819.92264  0.013646273   0.01162274         3998 
 5008000   0.45641089   -7.8113377    819.92939   0.01364366  0.011618833         4000 
 5009000   0.45194566   -7.8286935    819.70211  0.013637155  0.011614927         3999 
 5010000   0.45042489   -7.8073295    819.80735  0.013636183  0.011611024         3999 
 5011000   0.44647888   -7.7957021    820.03243  0.013637205  0.011607122         3999 
 5012000   0.44837579   -7.8120242    819.25695  0.013621591  0.011603224         3999 
Loop time of 10731 on 48 procs for 5000000 steps with 4000 atoms

Performance: 80514.306 tau/day, 465.939 timesteps/s
99.4% CPU use with 48 MPI tasks x no OpenMP threads

MPI task timing breakdown:
Section |  min time  |  avg time  |  max time  |%varavg| %total
---------------------------------------------------------------
Pair    | 636.99     | 714.22     | 748.7      |  78.7 |  6.66
Neigh   | 65.778     | 67.449     | 68.862     |   8.8 |  0.63
Comm    | 572.55     | 606.02     | 684.92     |  96.0 |  5.65
Output  | 15.772     | 15.778     | 15.871     |   0.3 |  0.15
Modify  | 9166.7     | 9208.7     | 9252.5     |  21.4 | 85.81
Other   |            | 118.9      |            |       |  1.11

Nlocal:        83.3333 ave          90 max          77 min
Histogram: 4 0 3 12 7 5 9 3 3 2
Nghost:        1752.15 ave        1771 max        1739 min
Histogram: 4 6 5 8 7 10 3 3 0 2
Neighs:        10385.8 ave       11206 max        9395 min
Histogram: 2 1 4 2 13 9 5 5 4 3
FullNghs:      20772.0 ave       22511 max       19105 min
Histogram: 4 1 4 8 9 8 4 4 5 1

Total # of neighbors = 997056
Ave neighs/atom = 249.26400
Neighbor list builds = 270113
Dangerous builds = 0

#clear
#
#next RN
#
#jump SELF
Total wall time: 2:58:54
