
units lj                  # Use reduced LJ style units
atom_style atomic         # Uncharged point particles
atom_modify map hash      # Needed for indexing of clusters etc
                          # Used to be able to find where atoms are in relation to each other.

lattice fcc 1.0 spacing 1 1 1
Lattice spacing in x,y,z = 1.5874011 1.5874011 1.5874011
region box block 0 10 0 10 0 10 units lattice
create_box 2 box
Created orthogonal box = (0.0000000 0.0000000 0.0000000) to (15.874011 15.874011 15.874011)
  3 by 4 by 4 MPI processor grid
create_atoms 1 box
Created 4000 atoms
  using lattice units in orthogonal box = (0.0000000 0.0000000 0.0000000) to (15.874011 15.874011 15.874011)
  create_atoms CPU = 0.026 seconds
set type 1 type/fraction 2 0.23 78393
Setting atom values ...
  954 settings made for type/fraction
mass 1 1.0
mass 2 1.0
pair_style lj/cut  3.5
pair_modify tail  yes
pair_coeff 1  1  1.0  1.0   # Intearaction between 1 and 1 set with epsilon = 1 and sigma = 1
pair_coeff 1  2  1.5  0.8
pair_coeff 2  2  0.5  0.88

write_data data.0
System init for write_data ...
Neighbor list info ...
  update every 1 steps, delay 10 steps, check yes
  max neighbors/atom: 2000, page size: 100000
  master list distance cutoff = 3.8
  ghost atom cutoff = 3.8
  binsize = 1.9, bins = 9 9 9
  1 neighbor lists, perpetual/occasional/extra = 1 0 0
  (1) pair lj/cut, perpetual
      attributes: half, newton on
      pair build: half/bin/atomonly/newton
      stencil: half/bin/3d
      bin: standard
WARNING: Not all mixed pair coeffs generated from mixing. Use write_data with 'pair ij' option to store all pair coeffs. (../write_data.cpp:312)


#############################
#   M E L T   S Y S T E M   #
#############################

velocity all create 2.4 9622624 mom yes dist gaussian # Assign velocities
                                                    # Temperature 2.4, random number seed, zero linear momentum
                                                                                # Gaussian distribution

timestep 0.002   # simulation timestep
thermo 1000       # output thermodynamic data every 1000 steps bf 100

# Define a fix  in this case with index 1 applied to all
# particles in the simulation. This fix is for simulations
# in the anisotropic NPT ensemble. Note that we use the MTK
# correction.
fix 1 all npt temp 2.4 2.4 0.1 iso 5.68 5.68 0.5 mtk yes tchain 5 pchain 5 # Use NPT ensemble
                                                                         # Set temperature and pressure and damping
                                                                         # Numbers of thermostats in chain and in barostat
run 10000          # run for 10000 steps
Per MPI rank memory allocation (min/avg/max) = 3.642 | 3.644 | 3.648 Mbytes
Step Temp E_pair E_mol TotEng Press Volume 
       0          2.4   -6.8530311            0   -3.2539311   -3.7471165         4000 
    1000     2.408971   -4.9100809            0   -1.2975279    5.5813584    4373.7643 
    2000    2.4757823   -4.8977104            0   -1.1849654    5.9126832    4342.2268 
    3000    2.3825128    -4.881402            0   -1.3085262    5.4634303    4393.8268 
    4000     2.367502   -4.8672804            0   -1.3169153    5.7374446     4373.607 
    5000    2.4058395   -4.9194882            0    -1.311631    5.6258245    4355.7328 
    6000    2.3489767   -4.8600993            0   -1.3375152    5.7091292    4365.4764 
    7000    2.3893605   -4.8106232            0   -1.2274784    5.7196556    4405.7086 
    8000    2.4068078   -4.8526815            0   -1.2433723    5.7199104    4384.5752 
    9000     2.369571   -4.9021461            0   -1.3486782    5.6560612      4360.67 
   10000    2.4158075   -4.8915176            0   -1.2687123    5.6386146    4376.7516 
Loop time of 2.31283 on 48 procs for 10000 steps with 4000 atoms

Performance: 747135.753 tau/day, 4323.702 timesteps/s
99.6% CPU use with 48 MPI tasks x no OpenMP threads

MPI task timing breakdown:
Section |  min time  |  avg time  |  max time  |%varavg| %total
---------------------------------------------------------------
Pair    | 1.0042     | 1.0636     | 1.1914     |   3.2 | 45.99
Neigh   | 0.20142    | 0.20819    | 0.22656    |   1.2 |  9.00
Comm    | 0.65119    | 0.78847    | 0.86976    |   4.6 | 34.09
Output  | 0.00024022 | 0.00025167 | 0.000499   |   0.0 |  0.01
Modify  | 0.20734    | 0.23746    | 0.26389    |   3.2 | 10.27
Other   |            | 0.01491    |            |       |  0.64

Nlocal:        83.3333 ave          94 max          74 min
Histogram: 1 4 4 10 6 6 8 6 2 1
Nghost:        1547.96 ave        1582 max        1526 min
Histogram: 2 11 5 9 7 7 1 1 4 1
Neighs:        8715.71 ave        9931 max        7730 min
Histogram: 3 8 4 7 4 6 7 5 2 2

Total # of neighbors = 418354
Ave neighs/atom = 104.58850
Neighbor list builds = 909
Dangerous builds = 247

# Equilibrate just above the melting temperature to avoid step fn in T

fix 1 all npt temp 1.25 1.25 0.1 iso 5.68 5.68 0.5 mtk yes tchain 5 pchain 5
run 2000
Per MPI rank memory allocation (min/avg/max) = 3.643 | 3.645 | 3.649 Mbytes
Step Temp E_pair E_mol TotEng Press Volume 
   10000    2.4158075   -4.8915176            0   -1.2687123    5.6386146    4376.7516 
   11000    1.2203639   -6.5756023            0   -4.7455141    6.0048145    3556.1611 
   12000    1.2389166   -6.6939542            0   -4.8360438    5.5216535    3543.6475 
Loop time of 0.510014 on 48 procs for 2000 steps with 4000 atoms

Performance: 677627.925 tau/day, 3921.458 timesteps/s
99.6% CPU use with 48 MPI tasks x no OpenMP threads

MPI task timing breakdown:
Section |  min time  |  avg time  |  max time  |%varavg| %total
---------------------------------------------------------------
Pair    | 0.23137    | 0.25312    | 0.27255    |   1.7 | 49.63
Neigh   | 0.032084   | 0.034835   | 0.036527   |   0.5 |  6.83
Comm    | 0.1451     | 0.16942    | 0.19121    |   2.3 | 33.22
Output  | 5.0825e-05 | 5.2508e-05 | 6.7702e-05 |   0.0 |  0.01
Modify  | 0.042001   | 0.047561   | 0.052593   |   1.4 |  9.33
Other   |            | 0.005029   |            |       |  0.99

Nlocal:        83.3333 ave          90 max          74 min
Histogram: 1 3 0 6 5 11 6 4 10 2
Nghost:        1781.29 ave        1804 max        1757 min
Histogram: 2 3 5 3 11 7 5 8 3 1
Neighs:        10772.8 ave       11772 max        9296 min
Histogram: 3 0 2 4 5 9 9 5 7 4

Total # of neighbors = 517095
Ave neighs/atom = 129.27375
Neighbor list builds = 141
Dangerous builds = 11

#############################
# L I N E A R  Q U E N C H  #
#############################

# Define solid atoms. This closely follows ten Wolde  Ruiz-Montero and Frenkel  Faraday Discuss  1996  104  93-110
# Compute components of the per-atom q6 vector
compute q6 all orientorder/atom degrees 1 6 components 6 nnn NULL cutoff 1.3 # compute the Q6 parameter.
                                                                             # Use all neighbours within 1.3 unit cell.

# get number of connections
compute coord_number all coord/atom orientorder q6 0.5

# An atom is solid if it has 8 or more connections (of a possible 14)
variable is_solid atom c_coord_number>=8
group solid dynamic all var is_solid    # Must be dynamic to update
dynamic group solid defined

# do clustering
compute cluster solid cluster/atom 1.3 # Create a cluster where all atoms within are solid and max 1.3 units from another member

# define chunks one chunk per cluster
compute clus_chunks solid chunk/atom c_cluster nchunk every compress yes  # Says which atoms are in which chunk

# count the size of each chunk
compute size_chunks solid property/chunk clus_chunks count


# Find the maximum entry in the vector of chunk sizes
variable max_n equal max(c_size_chunks)


# Thermo style which includes this variable
# thermo_style custom step temp pe vol v_max_n

thermo ${N}  # Print the thermo information every 100 steps
thermo 1000  

# Reset the npt fix at a lower temperature (below freezing)
fix 1  all npt temp  ${temp} ${temp}  0.1  iso  5.68  5.68  0.5  mtk yes tchain  5  pchain  5
fix 1  all npt temp  0.45 ${temp}  0.1  iso  5.68  5.68  0.5  mtk yes tchain  5  pchain  5
fix 1  all npt temp  0.45 0.45  0.1  iso  5.68  5.68  0.5  mtk yes tchain  5  pchain  5

dump dmp2 all dcd ${N} traj.dcd
dump dmp2 all dcd 1000 traj.dcd


compute msd all msd com yes
variable twopoint equal c_msd[4]/6/(step*dt+1.0e-6)
fix 9 all vector 10 c_msd[4]
variable fit equal slope(f_9)/6/(10*dt)
thermo_style custom step temp pe c_msd[4] v_twopoint v_fit v_max_n

fix 1 all npt temp 1.25 ${temp} 0.1 iso 5.68 5.68 0.5 mtk yes tchain 5 pchain 5
fix 1 all npt temp 1.25 0.45 0.1 iso 5.68 5.68 0.5 mtk yes tchain 5 pchain 5
run 500000 # 5000000  # Run for this many steps
Neighbor list info ...
  update every 1 steps, delay 10 steps, check yes
  max neighbors/atom: 2000, page size: 100000
  master list distance cutoff = 3.8
  ghost atom cutoff = 3.8
  binsize = 1.9, bins = 9 9 9
  4 neighbor lists, perpetual/occasional/extra = 1 3 0
  (1) pair lj/cut, perpetual
      attributes: half, newton on
      pair build: half/bin/atomonly/newton
      stencil: half/bin/3d
      bin: standard
  (2) compute orientorder/atom, occasional
      attributes: full, newton on
      pair build: full/bin/atomonly
      stencil: full/bin/3d
      bin: standard
  (3) compute coord/atom, occasional
      attributes: full, newton on
      pair build: full/bin/atomonly
      stencil: full/bin/3d
      bin: standard
  (4) compute cluster/atom, occasional
      attributes: full, newton on
      pair build: full/bin/atomonly
      stencil: full/bin/3d
      bin: standard
Per MPI rank memory allocation (min/avg/max) = 9.781 | 9.789 | 9.794 Mbytes
Step Temp PotEng c_msd[4] v_twopoint v_fit v_max_n 
   12000    1.2389166   -6.6939542 1.8512593e-30 1.2855967e-32 8.3333333e+20            1 
   13000    1.2658901   -6.6783536   0.54141368 0.0034706004  0.044342292            4 
   14000    1.2614442   -6.7115746    1.0463047 0.0062280037  0.043025565            1 
   15000    1.2526741   -6.6848279    1.5538086 0.0086322695  0.042947356            3 
   16000    1.2493785   -6.6914621    2.0532355  0.010693934  0.042618943            3 
   17000    1.2342804   -6.6745478    2.5079432  0.012293839  0.041948406            3 
   18000    1.2352169   -6.7106784    2.9803737  0.013798026  0.041150241            2 
   19000    1.2567564    -6.686512    3.4328591  0.015056399  0.040754665            2 
   20000     1.234261   -6.6647471    3.9925867  0.016635778  0.040498431            1 
   21000    1.2509856   -6.7044816    4.4769901  0.017765833  0.040597358            2 
   22000    1.2433291   -6.6675625    5.0802605  0.019243411  0.040939601            3 
   23000    1.2147085   -6.7226807    5.5577386  0.020136734   0.04129594            1 
   24000     1.222456   -6.6805769    6.0433159  0.020983735  0.041475663            2 
   25000    1.2214886   -6.7015735    6.5347598  0.021782532  0.041542286            1 
   26000    1.2368274   -6.6837268    7.0291156  0.022529216  0.041637344            1 
   27000    1.2228034   -6.6973534     7.590362  0.023427043  0.041731543            1 
   28000    1.2117762   -6.7426064    7.9653748  0.023706472  0.041736806            2 
   29000    1.2200077    -6.657961    8.4733942  0.024348833  0.041602319            1 
   30000    1.2131844    -6.727374     8.910892  0.024752477  0.041477914            1 
   31000     1.234029   -6.7209844    9.4726312  0.025464062  0.041421467            2 
   32000    1.2169389    -6.733018     9.865812  0.025692218  0.041338487            3 
   33000     1.226889   -6.7226358    10.391378  0.026240853  0.041271699            3 
   34000    1.2342407   -6.6993181    10.971719  0.026891468  0.041279684            2 
   35000    1.2134589   -6.7414692    11.501987  0.027385682  0.041295574            2 
   36000     1.197235    -6.725226    11.948726  0.027659088  0.041318581            1 
   37000     1.217704   -6.7552991    12.473553  0.028093587  0.041294342            1 
   38000    1.2109539   -6.7666896    13.070984  0.028664439  0.041365117            1 
   39000    1.2059402   -6.7302766    13.578926    0.0290148  0.041461908            1 
   40000    1.2181078   -6.7635218    13.918024  0.028995883  0.041497272            1 
   41000    1.1946823   -6.7421185    14.493094  0.029457508  0.041485868            2 
   42000    1.2064214   -6.7213119     15.04909  0.029859305  0.041522133            2 
   43000    1.2037358   -6.7631253    15.353458  0.029754764  0.041505095            1 
   44000     1.213278    -6.777342    15.757527  0.029843801  0.041435892            1 
   45000    1.2291006   -6.7587712    16.202071  0.030003834  0.041354439            2 
   46000    1.1966978   -6.7783844    16.569256  0.030016768  0.041239764            1 
   47000    1.2010583   -6.8158922    16.925795  0.030010275  0.041098774            1 
   48000    1.1768176   -6.7811946    17.531145  0.030436015  0.040979184            3 
   49000    1.2081725   -6.7368696    17.922263  0.030480039  0.040867243            4 
   50000    1.1444687   -6.8209238    18.236176  0.030393627  0.040721333            1 
   51000    1.1886094   -6.7758499    18.770665  0.030671021  0.040584418            1 
   52000    1.1576981   -6.8034693    19.053086  0.030533791  0.040431138            2 
   53000    1.1890146   -6.7836354    19.448116  0.030578799  0.040246976            3 
   54000      1.18581   -6.8271743    19.846277   0.03062697  0.040080866            2 
   55000    1.1784414    -6.796019    20.374498  0.030870451   0.03992491            1 
   56000    1.1784763   -6.8385413    20.695537   0.03079693  0.039779022            2 
   57000    1.1864782   -6.8180433    21.158945   0.03093413  0.039633255            2 
   58000    1.1853708   -6.8610998    21.538046  0.030945468  0.039492314            3 
   59000    1.1611154    -6.856233    21.896325  0.030927012  0.039346957            2 
   60000    1.1500367   -6.8027988    22.233308  0.030879594  0.039194473            1 
   61000    1.1542511   -6.8361726     22.60706  0.030883962   0.03902286            2 
   62000    1.1752892   -6.8061466    23.070842  0.031009196  0.038876142            2 
   63000    1.1675411   -6.7561106    23.462135   0.03103457  0.038722895            2 
   64000    1.1576464   -6.7971663    23.858487  0.031065738  0.038575074            2 
   65000    1.1750635   -6.8616492     24.20242  0.031028743    0.0384251            2 
   66000    1.1539795   -6.8193122    24.585654  0.031042492  0.038279286            2 
   67000    1.1612623   -6.8326577    24.956499  0.031040421  0.038131942            2 
   68000    1.1601505   -6.8477905    25.234552  0.030924696   0.03798104            4 
   69000    1.1588453   -6.8244805    25.515291  0.030815568  0.037817215            1 
   70000    1.1695065   -6.8497822    26.000465  0.030952935  0.037666254            1 
   71000    1.1440972    -6.834393    26.174679  0.030721454  0.037512962            3 
   72000    1.1452166    -6.881013    26.427288  0.030587139  0.037344061            2 
   73000     1.154253   -6.8431602    26.974679  0.030793013  0.037184323            2 
   74000    1.1636795   -6.8769493    27.257856  0.030695784  0.037036028            2 
   75000     1.163609   -6.8673911     27.70546  0.030783844  0.036889292            2 
   76000    1.1432243   -6.8274688    27.991477  0.030692409   0.03674594            3 
   77000    1.1655132   -6.8494102    28.437549  0.030776568  0.036611239            1 
   78000    1.1643912   -6.9143947    28.739794  0.030704908  0.036478253            2 
   79000    1.1523141   -6.8686148    29.200363   0.03080207  0.036347702            3 
   80000    1.1555999   -6.8824955    29.537729  0.030768467  0.036220781            2 
   81000    1.1358779   -6.8813875    29.927204  0.030789304  0.036106578            3 
   82000    1.1457022   -6.8665767    30.431906  0.030926734   0.03599788            1 
   83000    1.1491672   -6.8923372    30.780535  0.030904151  0.035897859            2 
   84000    1.1254813    -6.868785    31.035397  0.030789084  0.035792343            1 
   85000    1.1136545   -6.9016051      31.3898  0.030774313  0.035685735            2 
   86000    1.1321688   -6.8674129    31.718535  0.030735014   0.03557683            2 
   87000    1.1443689   -6.8881434    32.001365  0.030652648  0.035469027            2 
   88000    1.1169367   -6.9077113    32.259642  0.030548903   0.03535974            1 
   89000    1.1136124    -6.925453    32.403334    0.0303402  0.035243631            1 
   90000    1.1324427   -6.8813462    32.929209  0.030490008  0.035125628            5 
   91000    1.1130146   -6.9095458    33.263785  0.030461342  0.035010286            2 
   92000    1.1186862   -6.9291626    33.461565  0.030309388  0.034898899            3 
   93000    1.1338456   -6.9235636     33.78155  0.030270206   0.03477991            5 
   94000     1.131773   -6.9396392    34.086105  0.030218178  0.034660706            2 
   95000    1.1117592   -6.9082214    34.610888  0.030360428  0.034554226            1 
   96000    1.0964088   -6.9501922    34.837935  0.030241263  0.034450449            2 
   97000    1.1094075     -6.89385    35.459276  0.030463295  0.034353178            1 
   98000    1.1176881   -6.9385858    35.634585  0.030301517  0.034263005            2 
   99000    1.1136938   -6.9472038    36.037483  0.030334581  0.034169218            2 
  100000    1.0895637   -6.9634028    36.358289  0.030298574  0.034080079            2 
  101000    1.0904937   -6.9720504    36.583472  0.030184382  0.033988518            1 
  102000    1.0957417    -6.962108    36.987429  0.030218488  0.033897902            3 
  103000    1.1035398   -6.9743448    37.474287  0.030319002  0.033813669            1 
  104000    1.0950022   -6.9383931    37.893712  0.030363551  0.033735895            2 
  105000    1.1084558   -6.9337589    38.164054  0.030288931  0.033660628            1 
  106000    1.0924147   -6.9548434    38.543407   0.03030142  0.033586165            2 
  107000    1.0984622   -6.9916106    38.729825  0.030163415  0.033513667            4 
  108000    1.0962874   -6.9726278    39.035052  0.030119639  0.033436371            1 
  109000    1.1038918   -7.0156336    39.174242  0.029949726  0.033352789            1 
  110000    1.0796441   -6.9988189    39.566257  0.029974437  0.033264257            2 
  111000    1.1023479   -6.9593806    39.788152  0.029870985  0.033178738            2 
  112000    1.0980952   -7.0317934    40.019351  0.029776303  0.033092756            3 
  113000    1.0808386   -6.9630926    40.365475  0.029768049  0.033007981            3 
  114000    1.0924188   -7.0021399    40.872432  0.029877508  0.032925074            5 
  115000    1.1001581   -6.9609551    41.130362   0.02980461  0.032844405            2 
  116000    1.0736851    -7.002113    41.413633  0.029751173  0.032763953            3 
  117000    1.0943285   -6.9788125    41.788119  0.029763618  0.032683317            2 
  118000    1.0519077   -7.0404194    41.957654  0.029631111  0.032604894            5 
  119000    1.0843789   -6.9995141    42.318298  0.029634662  0.032526042            5 
  120000    1.0765406   -7.0440521    42.411553  0.029452467  0.032444478            1 
  121000    1.0683118    -7.027915    42.865392   0.02952162  0.032360762            2 
  122000    1.0902943   -7.0355013    43.025232   0.02938882  0.032275969            2 
  123000    1.0717379    -7.015389    43.516108  0.029482458  0.032194782            4 
  124000    1.0427804   -7.0366312    43.761572  0.029409658  0.032114508            2 
  125000    1.0803202   -7.0312734    44.031301  0.029354201   0.03203322            3 
  126000    1.0643397   -7.0926017    44.295289  0.029295826  0.031954711            3 
  127000    1.0908409   -7.0495009    44.478013  0.029185047  0.031874189            4 
  128000    1.0692678   -7.0540054    44.798125  0.029165446  0.031795738            2 
  129000    1.0769954   -7.0315862    44.971534  0.029051379  0.031713534            1 
  130000    1.0530813   -7.0532215    45.228112  0.028992379  0.031631879            2 
  131000    1.0813707   -7.0144777    45.547929  0.028974509  0.031549975            7 
  132000     1.068698   -7.0206267     45.75474  0.028885568  0.031467259            2 
  133000    1.0600249      -7.0438    46.002005  0.028823311  0.031384343            1 
  134000    1.0502237   -7.0769734    46.154014  0.028702745  0.031301524            3 
  135000    1.0463935   -7.0620989    46.220336  0.028531072  0.031214082            3 
  136000    1.0449816   -7.0704926    46.388178  0.028424129  0.031124556            2 
  137000    1.0470218   -7.0869422    46.843514  0.028493622  0.031032492            2 
  138000    1.0580958   -7.0820124    47.017921  0.028392464  0.030939244            2 
  139000    1.0519498   -7.0806463    47.344039  0.028383716   0.03084875            2 
  140000    1.0363511   -7.0732502    47.715832  0.028402281  0.030759247            3 
  141000    1.0276384   -7.0803325    47.906566  0.028313573  0.030674484            1 
  142000    1.0457178   -7.0930213    48.276945  0.028331541  0.030592141            2 
  143000    1.0373384   -7.1043284    48.464477  0.028242702  0.030511562            3 
  144000    1.0270638   -7.0603299    48.890893  0.028293341  0.030431499            3 
  145000    1.0089581   -7.0579093    48.976236  0.028147262  0.030352968            3 
  146000    1.0387462   -7.0709013    49.316168  0.028148498   0.03027474            3 
  147000    1.0086876   -7.0947743    49.623684   0.02813134  0.030197256            3 
  148000    1.0418956   -7.0854908     49.61947   0.02793889   0.03011823            3 
  149000    1.0303133   -7.0985473    49.807639  0.027856621  0.030036616            3 
  150000    1.0246858   -7.1003775    50.376095  0.027986719  0.029956404            2 
  151000    1.0323554   -7.1392867    50.561822  0.027903875  0.029879964            1 
  152000    1.0271642   -7.1603159    51.058717  0.027992717  0.029807028            3 
  153000     1.052024    -7.116118    51.418909  0.028005942  0.029738619            1 
  154000    1.0290687   -7.1509712    51.626387  0.027936357  0.029670365            2 
  155000    1.0419572   -7.1314161    51.864204   0.02788398  0.029602942            3 
  156000     1.019029   -7.1575623    52.068126   0.02781417  0.029534976            4 
  157000     1.034651   -7.1413635    52.305276  0.027762885  0.029466775            3 
  158000    1.0244193   -7.1300566    52.648311  0.027768096  0.029399022            2 
  159000    1.0091333   -7.1510102    52.776651  0.027660718  0.029333546            3 
  160000    1.0207567   -7.1457671    52.945977  0.027576029  0.029267787            2 
  161000    1.0019676   -7.1243692    53.183527  0.027527705  0.029199456            2 
  162000    1.0098603   -7.1107026    53.158632  0.027344975  0.029127696            4 
  163000    1.0093999   -7.1710339     53.32253  0.027261007  0.029052988            2 
  164000    1.0077372   -7.1783271    53.496372  0.027183116  0.028979444            1 
  165000    1.0235028   -7.1709499    53.759453  0.027151239  0.028905842            1 
  166000    1.0109148   -7.1872954    54.180625  0.027199109  0.028834251            1 
  167000    1.0039145   -7.1860837    54.168894  0.027030386  0.028762605            2 
  168000    1.0064763   -7.1784382    54.671248  0.027118674  0.028692211            2 
  169000   0.98360124   -7.1690601    54.917228  0.027079501  0.028621296            3 
  170000   0.99706888   -7.1863204    54.982884  0.026952394  0.028552081            4 
  171000   0.97315057   -7.1913817    55.270675  0.026935027  0.028481601            4 
  172000   0.98937487    -7.194448    55.459283  0.026869808  0.028411386            3 
  173000   0.98789914   -7.1760908    55.949483  0.026950618  0.028341706            2 
  174000   0.98738911   -7.2010771    55.989203  0.026814752  0.028274408            2 
  175000   0.99496479   -7.1834423    56.210827   0.02676706  0.028203739            2 
  176000   0.98734644   -7.1572334    56.359248   0.02668525  0.028134547            3 
  177000   0.97506137   -7.1725268    56.507935  0.026604489  0.028063557            2 
  178000    1.0020634   -7.1889572    56.657018  0.026524821  0.027994049            4 
  179000   0.95812761   -7.2101294    57.137526  0.026600338  0.027927033            8 
  180000    1.0012232   -7.1908833    57.337907  0.026545327  0.027859479            2 
  181000     1.002238   -7.2404756     57.30759   0.02638471  0.027792517            5 
  182000   0.97818229   -7.2395338    57.707446  0.026422823  0.027725241            2 
  183000   0.96850501   -7.1862298    57.726388  0.026287062    0.0276573            4 
  184000   0.97749339   -7.1922257    58.305704  0.026406569  0.027592892            1 
  185000   0.97660833   -7.2213109    58.257241  0.026242001  0.027527053            2 
  186000    0.9681165   -7.2434335    58.462444  0.026192851  0.027459953            7 
  187000   0.96238077   -7.2347183    58.572479  0.026101818  0.027392436            1 
  188000   0.95824845   -7.2231716    58.750107  0.026041714  0.027324259            3 
  189000   0.96756471   -7.2594634    58.760193  0.025908374  0.027255629            4 
  190000   0.95410081   -7.2485689    59.022513  0.025887067  0.027185493            3 
  191000   0.96424827   -7.2632284    59.339611  0.025889883  0.027115749            1 
  192000   0.96677067    -7.245872     59.49407  0.025822079  0.027046416            3 
  193000    0.9509212   -7.2387546    59.724622  0.025787833  0.026977618            2 
  194000   0.95886247   -7.2001943    59.751919  0.025666632  0.026908978            3 
  195000   0.96051367   -7.2187337    60.095732  0.025681937  0.026841953            4 
  196000   0.96464237   -7.2473296    60.194517  0.025592907  0.026775163            4 
  197000   0.97890803   -7.2614846    60.354182  0.025530534  0.026708085            2 
  198000   0.94084368   -7.2309576    60.501219  0.025463476  0.026639794            4 
  199000   0.95169227   -7.2854429    60.577996   0.02536767  0.026572774            1 
  200000   0.95058627   -7.3008542    60.754194  0.025314248  0.026504113            2 
  201000   0.95668928   -7.2843628    61.070806  0.025319571  0.026436721            3 
  202000   0.93194048   -7.2586562    61.426689  0.025341043  0.026371462            4 
  203000    0.9471278   -7.3214032    61.428148  0.025216809  0.026305861            3 
  204000   0.93042378   -7.2964523    61.374878  0.025071437  0.026239008            2 
  205000    0.9287781    -7.347118     61.67773  0.025072248  0.026170499            1 
  206000   0.94179475   -7.3285086    62.061081  0.025105615  0.026103704            2 
  207000     0.936376   -7.3094443     62.14819    0.0250194  0.026037752            2 
  208000   0.93789438   -7.3045358    62.427974  0.025011208  0.025971269            8 
  209000   0.94270682   -7.3110497     62.64667  0.024978736  0.025906387            4 
  210000    0.8962193   -7.3004036    62.729921  0.024892826  0.025841704            3 
  211000   0.93281271   -7.3561536    62.862932  0.024827382  0.025777001            2 
  212000   0.93446632   -7.3314357    63.092103  0.024800355   0.02571247            2 
  213000   0.92786562   -7.3240722    63.053628  0.024668869  0.025647746            3 
  214000   0.93058663   -7.3088569    63.404417  0.024690194   0.02558312            5 
  215000   0.89509936   -7.3296095     63.47833  0.024604004  0.025519018            2 
  216000   0.91948434   -7.3447891    63.523555  0.024507544  0.025452938            8 
  217000   0.91207902    -7.347905    63.645886  0.024441584  0.025387405            2 
  218000    0.9140542   -7.3386988    63.720018  0.024357805   0.02532177            2 
  219000   0.91877458   -7.3371945    63.910833  0.024319191  0.025255637            2 
  220000   0.92388325   -7.3380616      64.0648   0.02426697  0.025190701            4 
  221000   0.90341796   -7.3421562    64.231892   0.02422017  0.025125005            6 
  222000   0.89112681   -7.3490025    64.536399  0.024225375  0.025059304            2 
  223000    0.9139881   -7.3187554    64.830233  0.024226545  0.024994736            2 
  224000   0.90882454    -7.378288    64.911194   0.02414851  0.024931856            3 
  225000   0.89871946   -7.3365806    65.043863  0.024090319  0.024867974            2 
  226000   0.90968922   -7.3690911    65.245065  0.024057915  0.024804248            2 
  227000   0.90906923   -7.3746984    65.165938  0.023922885  0.024740659            2 
  228000   0.91586353   -7.3996167    65.205468  0.023832408  0.024675756            4 
  229000   0.87553834   -7.3752335    65.573331  0.023862202  0.024610485            3 
  230000   0.89011493   -7.4345767    65.515334   0.02373744  0.024546089            3 
  231000   0.89886067   -7.4073824    65.404746  0.023594786  0.024480506            4 
  232000   0.89209328   -7.4190032     65.62423  0.023571922  0.024415187            3 
  233000   0.89588145   -7.3645567     65.91696  0.023575451  0.024350551            2 
  234000   0.89098556   -7.4049984    66.004376  0.023505832  0.024285831            3 
  235000   0.88739409    -7.428127    66.017062  0.023410306  0.024221259            2 
  236000   0.89224322   -7.4394259    66.536875  0.023494659  0.024157791            2 
  237000   0.89514192   -7.4071057    66.593023  0.023415268  0.024094783            3 
  238000   0.86507186   -7.4293483      66.7356  0.023366807  0.024032314            2 
  239000   0.87781926   -7.3965083    66.891808  0.023323503  0.023969443            1 
  240000   0.87887094   -7.4169765    66.879048  0.023221892  0.023906812            3 
  241000   0.88217437   -7.4646183    66.781955  0.023091962  0.023843261            5 
  242000    0.8930203   -7.4434079    66.933307   0.02304866  0.023779019            4 
  243000    0.8776382   -7.4499685    67.360051  0.023100154  0.023716184            3 
  244000    0.8658765   -7.4455854    67.533223  0.023064625  0.023654175            3 
  245000   0.87217797   -7.4487962    67.477605  0.022951566   0.02359171            2 
  246000   0.87330185   -7.4499438    67.864164  0.022989215  0.023529814            3 
  247000    0.8650498   -7.4821214    67.558703  0.022793085  0.023466583            5 
  248000   0.86785868   -7.4571878    67.463543  0.022669201  0.023402336            5 
  249000   0.87780687   -7.4792967    67.548292  0.022606523  0.023337949            4 
  250000   0.85970089    -7.476305    67.815057  0.022605019  0.023272957            2 
  251000   0.88423771   -7.4575808    67.846899  0.022525531  0.023207469            2 
  252000   0.86719098   -7.5020404    67.910115  0.022457049  0.023141945            3 
  253000   0.86422767   -7.4624123    67.868842  0.022354691  0.023075618            2 
  254000   0.86753646   -7.4543592    68.182866  0.022369707  0.023010756            2 
  255000   0.84823935   -7.4414051    68.604686  0.022419832  0.022947142            3 
  256000      0.85406   -7.4964681    68.523822  0.022305932  0.022883616            1 
  257000   0.86951124   -7.5057581    68.420801  0.022185733   0.02282046            3 
  258000    0.8399933   -7.4916977    68.673081  0.022181228  0.022757221            3 
  259000   0.85470843    -7.492986    68.591842  0.022069447  0.022694208            2 
  260000    0.8463375   -7.5073235    68.783504  0.022045995   0.02263085            2 
  261000   0.85701623   -7.5146212    68.885977  0.021994245  0.022567717            4 
  262000   0.85249735   -7.5146632    68.941529  0.021927967  0.022505148            3 
  263000   0.83002163   -7.4729807    69.063584  0.021883265  0.022441371            4 
  264000   0.84897985   -7.5282364    68.901526  0.021749219   0.02237743            3 
  265000   0.83074935   -7.5332913     68.98561  0.021693588  0.022312447            2 
  266000   0.84073635   -7.5196803    69.199369     0.021679  0.022248705            4 
  267000   0.84855783   -7.5165033    69.247431  0.021612806  0.022185001            3 
  268000   0.84289947   -7.5481116    69.279538  0.021542145  0.022120772            4 
  269000   0.84622906   -7.5265411    69.563388  0.021549996  0.022057561            8 
  270000   0.84347516   -7.5534008    69.682959  0.021507086  0.021995484            3 
  271000   0.83883889   -7.5256315    69.794243  0.021461944  0.021932921            2 
  272000   0.83120146    -7.524039     69.81498  0.021389393  0.021870094            4 
  273000   0.82490097   -7.5564359    69.670513  0.021266945  0.021807581            4 
  274000   0.84111942   -7.5111842    70.097722  0.021319259  0.021745151            2 
  275000   0.84582973   -7.5631998    70.129744  0.021251438  0.021683722            4 
  276000   0.82666671   -7.5552389    70.205002  0.021197162  0.021622383            3 
  277000    0.8279011   -7.5550602     70.23654  0.021130126  0.021561103            3 
  278000   0.81216871   -7.5597322    70.323416  0.021080161  0.021499793            4 
  279000    0.8244893   -7.5750524    70.662408  0.021105857  0.021439368            6 
  280000   0.82319347   -7.5837198    70.522265  0.020988769  0.021378462            3 
  281000   0.81451056    -7.586496    70.645913  0.020950745  0.021317816            3 
  282000   0.82349967   -7.5703347    70.770331  0.020913218  0.021257797            2 
  283000   0.81878341   -7.5814858    70.977069  0.020900197  0.021198549            2 
  284000   0.82071695   -7.5935094    71.133248  0.020872432  0.021138832            3 
  285000   0.81331205   -7.5834483     71.02378  0.020767187  0.021079632            3 
  286000   0.82108919   -7.6039923    71.334118  0.020784999  0.021021088            5 
  287000   0.82497981   -7.5849696    71.423486  0.020738527  0.020962928            5 
  288000   0.83538587    -7.605265    71.385669  0.020655576  0.020905167            5 
  289000   0.80136746   -7.5943981     71.44717  0.020601837  0.020846936            2 
  290000   0.80801498   -7.6163938    71.626369   0.02058229  0.020788628            5 
  291000    0.8070438   -7.6177499    71.727323  0.020540471  0.020731058            2 
  292000   0.79487842   -7.6191958    71.707882  0.020464578  0.020673686            4 
  293000   0.81576544   -7.5977417    71.691045  0.020389945  0.020615736            3 
  294000   0.81296951   -7.6076629    71.710037  0.020325974  0.020558287            2 
  295000   0.78276089   -7.6550495    71.788779  0.020279316  0.020500803            4 
  296000   0.80480262   -7.6649609    72.149028  0.020312226  0.020443425            4 
  297000   0.79252656   -7.6305754    72.084415  0.020225706  0.020386265            4 
  298000   0.80014497   -7.6275918    72.170832     0.020182  0.020329799            2 
  299000   0.80170398   -7.6294126    72.239579  0.020133662  0.020273145            7 
  300000   0.77924762   -7.6269977    72.328319    0.0200912  0.020216828            4 
  301000   0.78698813   -7.6564743    72.291374  0.020014223  0.020160325            3 
  302000    0.7954236   -7.6398289    72.379727  0.019972331  0.020103774           13 
  303000   0.78753146   -7.6700797    72.328615  0.019892358  0.020047191            2 
  304000   0.79301352   -7.6781234    72.514047  0.019877754  0.019990022            2 
  305000   0.78202689   -7.6911808    72.510491  0.019811609  0.019933332            4 
  306000   0.77582761   -7.6629606    72.507458   0.01974604  0.019876476            3 
  307000   0.78499861   -7.6695264    72.682339  0.019729191  0.019819517            4 
  308000   0.77287213   -7.6723548    72.743322  0.019681635  0.019763305            4 
  309000   0.78460838   -7.6960429    72.731855  0.019614848  0.019706861            3 
  310000    0.7659402   -7.6890334     72.84862  0.019582962  0.019650813            2 
  311000   0.76891994   -7.6890215    72.747628  0.019492934  0.019594492            5 
  312000   0.78519404   -7.6857072    72.651544  0.019404793  0.019538066            3 
  313000   0.77143018   -7.6966244       72.863  0.019399095   0.01948164            2 
  314000   0.77410305    -7.716413    72.965812    0.0193646  0.019425537            4 
  315000    0.7636602   -7.6972807    72.912774  0.019289094  0.019369536            6 
  316000   0.76719213   -7.6859424    72.964438  0.019241677  0.019313077            2 
  317000    0.7583349   -7.7284069     72.83701  0.019147479  0.019256625            7 
  318000   0.74878969   -7.7409422    73.063308  0.019146569  0.019200565            3 
  319000   0.75373536   -7.7087705    73.136617  0.019105699  0.019144914            5 
  320000   0.75574874   -7.7280459    73.037448  0.019020169  0.019088993            7 
  321000   0.75966706   -7.7400041    73.268721  0.019020956  0.019033045            9 
  322000   0.76660906   -7.7151299    73.100509  0.018918351  0.018977407            3 
  323000   0.73995688   -7.7342935    73.249461   0.01889821  0.018921893            2 
  324000   0.75706357   -7.7422391    73.280957  0.018847983  0.018866925            2 
  325000   0.74260747   -7.7408238    73.250559  0.018782195  0.018811879            6 
  326000   0.76316279   -7.7322811    73.443465  0.018773892  0.018757222            4 
  327000   0.73613854   -7.7599663    73.631314  0.018764351  0.018702654            1 
  328000   0.73562158   -7.7424687    73.792986  0.018748218  0.018648715            2 
  329000   0.72674827   -7.7514837    73.661319  0.018657882  0.018594548            7 
  330000   0.73683241   -7.7408713    73.692867   0.01860931  0.018540483            4 
  331000   0.74235124   -7.7349218    73.874186  0.018598738  0.018486616            3 
  332000   0.74228766   -7.7827351    73.745459  0.018510406  0.018432636            5 
  333000   0.73078045   -7.7867918    73.881351  0.018488827  0.018378864            5 
  334000   0.73676593   -7.8121525    73.778476  0.018407803  0.018325172            9 
  335000   0.74230906   -7.7539429    73.757684  0.018347682  0.018271505            6 
  336000   0.72665188   -7.7986513    73.753754  0.018292102  0.018217669            3 
  337000   0.72999449   -7.8040294    74.038275  0.018308179  0.018164107            9 
  338000   0.73601338   -7.8147229    73.968197  0.018236735  0.018110771            2 
  339000   0.72790838   -7.8074502    74.023557  0.018196548   0.01805734            4 
  340000   0.72393578   -7.8244435    73.837059  0.018097318  0.018004168            6 
  341000   0.71377233   -7.7995968    74.077811  0.018103082  0.017951322            4 
  342000   0.70864447   -7.7972974    73.967734  0.018023327  0.017898358            4 
  343000   0.73668186   -7.8207992     74.13419  0.018011222  0.017845542            2 
  344000   0.74281396   -7.8114704    73.926509  0.017908554  0.017792722            5 
  345000   0.71876662   -7.7978607    74.140424  0.017908315  0.017739766            3 
  346000   0.70936669     -7.79901    74.112522  0.017849837  0.017687237            9 
  347000   0.71945556   -7.8532048    74.131087  0.017802855  0.017634639            4 
  348000    0.7086401   -7.8208655    74.205552  0.017769529  0.017582177            5 
  349000   0.71449007   -7.8493656    74.313278  0.017744336  0.017529841            5 
  350000   0.70610693   -7.8297778    74.215975   0.01767047  0.017477465            6 
  351000   0.71334885   -7.8378645    74.128099  0.017599264  0.017425425            4 
  352000   0.69809608   -7.8395749    74.158635  0.017556495  0.017373386            1 
  353000   0.69572766   -7.8433672    74.239912  0.017525947  0.017321207            3 
  354000   0.71231616   -7.8658631    74.281159  0.017486148  0.017269156            3 
  355000   0.70770183   -7.8475486    74.216708  0.017421762  0.017217234            2 
  356000   0.69090165   -7.8543681    74.496019  0.017438207  0.017165544            4 
  357000   0.67504755     -7.84575    74.285419  0.017340201   0.01711404            7 
  358000   0.70187648   -7.8465017    74.439431  0.017327614  0.017062897            6 
  359000   0.70076395   -7.8784122    74.351763  0.017258998  0.017011559           10 
  360000   0.69287873   -7.8478108    74.412209  0.017225048  0.016960505            4 
  361000   0.68213518   -7.8746325    74.423283   0.01717989  0.016909272            5 
  362000   0.68430928   -7.8672998    74.398714  0.017126776  0.016858029            3 
  363000   0.67648952   -7.8970279     74.43281  0.017087422  0.016806992            7 
  364000   0.68225378   -7.8777031    74.403064  0.017033668  0.016756036            4 
  365000   0.68992486    -7.891354    74.435951  0.016994509  0.016705566            3 
  366000   0.70011236   -7.9132768    74.574478  0.016979617  0.016655253            3 
  367000   0.67453593   -7.8981218    74.352787  0.016883012  0.016604965            4 
  368000   0.68894315   -7.9069071    74.484201  0.016866893  0.016554781            7 
  369000   0.68050071    -7.936747    74.615977  0.016850943  0.016504595            4 
  370000   0.68428404   -7.9046339    74.544219  0.016789239  0.016454527            5 
  371000   0.66186151   -7.9085226    74.608959  0.016758526  0.016404404            2 
  372000   0.67666489   -7.8901731    74.483591  0.016685392  0.016354427            4 
  373000   0.67389285   -7.9175659    74.574187    0.0166609  0.016304567            2 
  374000   0.66516939   -7.9378919    74.614649  0.016625367  0.016254765            6 
  375000   0.66367605   -7.9330106    74.562589  0.016569464  0.016205223           10 
  376000   0.65618553   -7.9145668    74.657136  0.016546351  0.016155764            4 
  377000   0.66606417   -7.9233513     74.66328   0.01650382   0.01610654            7 
  378000    0.6540909   -7.9471918    74.515836  0.016427653  0.016057245            3 
  379000   0.64764621   -7.9284069    74.689644  0.016422525  0.016008051            3 
  380000   0.66326403   -7.9315601    74.528789  0.016344033  0.015958886            3 
  381000   0.67610813   -7.9492673    74.474907   0.01628935  0.015909852            5 
  382000   0.64598594    -7.950703    74.588561  0.016271501  0.015860923            3 
  383000   0.67122657   -7.9480039    74.627661  0.016237524  0.015811891            5 
  384000   0.66219185   -7.9480815    74.591765  0.016187449  0.015763114            8 
  385000   0.65773319   -7.9470079    74.717552   0.01617263  0.015714336            9 
  386000   0.64535374   -7.9634142    74.668398  0.016120121  0.015665651            4 
  387000   0.64326363   -7.9789553    74.657818  0.016076188  0.015617075            6 
  388000   0.64761564   -7.9961646    74.577908  0.016017592  0.015568572            4 
  389000   0.63733723   -7.9785172    74.452922  0.015949641   0.01552014            2 
  390000   0.64366428   -7.9719544    74.545514  0.015928529  0.015471978           10 
  391000   0.64844324   -8.0053909    74.475123  0.015872788  0.015423825            6 
  392000   0.65853032   -8.0016121    74.478328  0.015832978  0.015375673            2 
  393000   0.64553962   -8.0065856    74.556238  0.015809211  0.015327696            5 
  394000   0.63993781   -7.9928057    74.594737  0.015777229  0.015279838            3 
  395000   0.64256542   -8.0182971    74.543484  0.015726473  0.015232095            3 
  396000   0.64319274   -8.0207504    74.453961  0.015667921  0.015184463            3 
  397000   0.62499283   -8.0104239    74.577985  0.015654489  0.015137062            3 
  398000   0.64156587   -8.0315852    74.628911  0.015625819  0.015089703            8 
  399000   0.62890768     -8.02175    74.301962  0.015518371   0.01504227            2 
  400000   0.65093273    -8.024904    74.524208  0.015525877  0.014995012            6 
  401000   0.63470271   -8.0489704    74.417065  0.015464893  0.014947965            2 
  402000   0.64511055   -8.0385152    74.492473  0.015442055   0.01490102            9 
  403000   0.63058771   -8.0224464    74.425144  0.015389815  0.014854161            4 
  404000    0.6203015   -8.0463704    74.391651  0.015344812  0.014807294            5 
  405000    0.6147343   -8.0467236    74.388909   0.01530636  0.014760358            2 
  406000   0.62864857   -8.0662931    74.422567  0.015275568  0.014713818            7 
  407000   0.61087316   -8.0419531    74.485926  0.015251009  0.014667334            3 
  408000   0.62225818   -8.0558704    74.439858  0.015204219  0.014620983            3 
  409000    0.6129939   -8.0532043    74.353583  0.015149467  0.014574755            8 
  410000   0.62257372   -8.0512761     74.53108  0.015148594  0.014528662            7 
  411000   0.59773439   -8.0695597    74.467197  0.015098783  0.014482566            3 
  412000   0.61024617   -8.0608182    74.300216  0.015028361  0.014436624            6 
  413000   0.60711392   -8.0760146    74.471392  0.015026512   0.01439084            3 
  414000   0.59892797   -8.0782576     74.18935  0.014933444  0.014345191            4 
  415000   0.61220076   -8.0844303    74.337409  0.014927191  0.014299672            5 
  416000   0.59098692   -8.0706419     74.43048  0.014909952  0.014254186            4 
  417000   0.59252405   -8.0940057     74.21647  0.014831429  0.014208786            4 
  418000   0.58188468   -8.0740364    74.438743   0.01484026  0.014163561            5 
  419000   0.60941908   -8.0665604    74.297786  0.014776807  0.014118589            3 
  420000   0.60574037   -8.0876161    74.228521  0.014727881  0.014073656            4 
  421000   0.59257997   -8.0920357    74.267665  0.014700646  0.014028777            5 
  422000   0.59323021   -8.0988127    74.323972   0.01467693  0.013984065            2 
  423000   0.58845239   -8.1070695    74.165787  0.014611069  0.013939469            3 
  424000   0.59698198   -8.1082166    74.222793  0.014587813  0.013894957            2 
  425000   0.58593257   -8.1010156    74.316394  0.014571842  0.013850641            3 
  426000   0.58658362   -8.1116976    74.159892  0.014507021  0.013806474            2 
  427000   0.59043497   -8.0931812    74.274846  0.014495481  0.013762353            4 
  428000   0.57868223    -8.119162    74.094673  0.014426533  0.013718388            8 
  429000   0.58070655   -8.1219357     74.27437  0.014427811  0.013674535            4 
  430000   0.57659021   -8.1064837    74.228107  0.014385292  0.013630931            3 
  431000   0.58741934   -8.1362521    74.148772  0.014336576  0.013587423            4 
  432000   0.56101798   -8.1358334    74.014431  0.014277475  0.013543956            4 
  433000   0.58298088    -8.145097    74.294525  0.014298407  0.013500536            4 
  434000   0.57226651   -8.1181857    74.222767  0.014251683  0.013457351            3 
  435000   0.57616121   -8.1200676    74.079226  0.014191423  0.013414312            2 
  436000   0.58680999   -8.1033988    74.014086  0.014146423  0.013371426            3 
  437000   0.57854355   -8.1292926    73.959251  0.014103595  0.013328686            4 
  438000   0.56272884   -8.1356102    74.049566  0.014088578  0.013285996            2 
  439000   0.56804313   -8.1694847    74.005389    0.0140481  0.013243549            3 
  440000   0.56933326   -8.1463914    74.215639  0.014055992  0.013201134            4 
  441000   0.55924576   -8.1415057    74.103026  0.014002839  0.013158963            3 
  442000   0.56696324    -8.149393    74.066993  0.013964365  0.013116914            3 
  443000   0.56537713   -8.1510159    73.959906  0.013912699  0.013075001            8 
  444000   0.55152952   -8.1404784    74.167159  0.013920263  0.013033297            4 
  445000   0.55374058    -8.173524    74.174237  0.013890306  0.012991614            2 
  446000   0.55217638   -8.1709478    74.009859  0.013828449  0.012950077            4 
  447000   0.56154486   -8.1919557    74.154043  0.013824393   0.01290871            5 
  448000   0.56923011    -8.170382       74.138  0.013790551  0.012867476            2 
  449000   0.55785781   -8.1808512     73.94159  0.013723383  0.012826408            3 
  450000   0.54631216   -8.1767133    74.089015  0.013720188  0.012785479            4 
  451000   0.55216557   -8.1916927    74.087837  0.013689549  0.012744708            2 
  452000   0.54732645   -8.1951064    73.988157  0.013640884  0.012704036            5 
  453000   0.55366639   -8.1839487    73.990975   0.01361129  0.012663419            3 
  454000   0.53741589   -8.1963107    73.889316   0.01356265  0.012622957            3 
  455000   0.54842782   -8.1967799    73.954414  0.013544764  0.012582621            3 
  456000   0.54416753   -8.2004378     73.98334  0.013520347  0.012542422            2 
  457000    0.5427377   -8.1947146    73.909903  0.013477371  0.012502411            4 
  458000   0.54169503   -8.2112495    73.842757  0.013435727  0.012462477            3 
  459000   0.54752049   -8.2125319    73.909502  0.013418573  0.012422683            4 
  460000   0.52830441   -8.1984207    73.879709  0.013384005  0.012383022            2 
  461000   0.53162265   -8.2185199    73.938906  0.013365674  0.012343531            5 
  462000   0.53057297   -8.2122844    73.797991  0.013311326  0.012304152            3 
  463000   0.52128133   -8.2181882    73.833051  0.013288886  0.012264955            2 
  464000    0.5276196   -8.2272988    73.974307  0.013285616  0.012225943            4 
  465000   0.52151459   -8.2287063     73.92831  0.013248801  0.012187074            4 
  466000   0.54451357   -8.2395802    73.804398  0.013198211  0.012148261            4 
  467000   0.53290015   -8.2410967    73.831591  0.013174802  0.012109585            3 
  468000   0.52608602   -8.2291923    73.862599  0.013152172  0.012071013            2 
  469000    0.5111673    -8.236332    73.802791  0.013113502  0.012032688            1 
  470000   0.52676777   -8.2319107    73.741924  0.013074809  0.011994385            4 
  471000   0.52018449   -8.2515658    73.869577  0.013069635  0.011956259            4 
  472000    0.5125703   -8.2580592    73.847682  0.013038079  0.011918247            4 
  473000   0.52341895   -8.2443093    73.814982  0.013004754  0.011880289            4 
  474000    0.5046121   -8.2451684    73.744766  0.012964973  0.011842548            3 
  475000   0.51855346   -8.2418972    73.692251  0.012928465  0.011804902            3 
  476000   0.51247812   -8.2636974    73.654754   0.01289474  0.011767425            3 
  477000   0.50540991   -8.2605276    73.692821  0.012874357    0.0117301            5 
  478000   0.50983514    -8.266111    73.850879  0.012874979   0.01169291            3 
  479000   0.49648164   -8.2521187    73.721423  0.012825578   0.01165592            5 
  480000   0.50953215   -8.2841803    73.652348  0.012786866  0.011618923            3 
  481000   0.50229103   -8.2491727    73.585506  0.012748702  0.011582081            2 
  482000   0.49714273   -8.2813199    73.693108  0.012740855   0.01154536            6 
  483000   0.50031543    -8.283473    73.599487  0.012698324   0.01150885            3 
  484000   0.48786793   -8.2673644    73.555688  0.012664547  0.011472408            6 
  485000   0.49462169   -8.2937598    73.732275  0.012668776  0.011436129            5 
  486000   0.48540792   -8.2880923    73.660142   0.01263034  0.011399921            3 
  487000   0.48882216   -8.2812052     73.60916  0.012595681  0.011363888            4 
  488000   0.48915903   -8.2796041    73.487199  0.012549044  0.011327943            3 
  489000   0.49704534   -8.2901517    73.581143   0.01253939  0.011292111            5 
  490000   0.49506825   -8.2974196    73.600464  0.012517086  0.011256435            6 
  491000   0.47444329   -8.2996186    73.523601  0.012478547  0.011220942            6 
  492000   0.48180584   -8.3083661    73.576429  0.012462132  0.011185557            5 
  493000   0.48371486   -8.2881421    73.517435  0.012426882  0.011150393            3 
  494000   0.46718285   -8.3028857    73.551843  0.012407531  0.011115274            5 
  495000   0.48407398    -8.309081    73.595873  0.012389878  0.011080333            3 
  496000   0.48714341   -8.3065136    73.518753  0.012351941  0.011045471            6 
  497000   0.46748782   -8.3094959    73.433773  0.012312839  0.011010733            4 
  498000    0.4757223   -8.3223852    73.558163   0.01230893  0.010976145            7 
  499000   0.48062737   -8.3128847    73.546561  0.012282325  0.010941709            8 
  500000   0.47608498   -8.3133542    73.570161  0.012261693  0.010907433            3 
  501000   0.46348383   -8.3186103    73.525989  0.012229872  0.010873209            6 
  502000   0.45574558    -8.308813    73.503829  0.012201831  0.010839155            6 
  503000   0.46541893   -8.3157792     73.42433  0.012164402  0.010805226            4 
  504000   0.46142238   -8.3258136    73.524168  0.012156774  0.010771431            5 
  505000   0.45842552   -8.3244879    73.474355  0.012124481  0.010737808            5 
  506000   0.46207629   -8.3502704    73.626453  0.012125569  0.010704325            6 
  507000   0.46053998   -8.3221096    73.468428  0.012075679  0.010670977            5 
  508000   0.45084274   -8.3417974    73.432207  0.012045966  0.010637689            4 
  509000   0.44902567   -8.3413706    73.444362   0.01202429  0.010604522            3 
  510000    0.4580495   -8.3345781    73.465182  0.012004115  0.010571478            7 
  511000   0.45193637   -8.3277222    73.464378  0.011980492   0.01053857            3 
  512000   0.45339578   -8.3539075    73.446247  0.011954142   0.01050577            2 
Loop time of 1160.48 on 48 procs for 500000 steps with 4000 atoms

Performance: 74452.249 tau/day, 430.858 timesteps/s
99.4% CPU use with 48 MPI tasks x no OpenMP threads

MPI task timing breakdown:
Section |  min time  |  avg time  |  max time  |%varavg| %total
---------------------------------------------------------------
Pair    | 71.045     | 76.726     | 82.063     |  30.6 |  6.61
Neigh   | 7.5144     | 7.8805     | 8.6038     |   7.2 |  0.68
Comm    | 71.632     | 77.06      | 83.836     |  36.1 |  6.64
Output  | 0.8164     | 0.81681    | 0.82692    |   0.2 |  0.07
Modify  | 983.26     | 987.01     | 990.58     |   5.4 | 85.05
Other   |            | 10.99      |            |       |  0.95

Nlocal:        83.3333 ave          90 max          77 min
Histogram: 3 2 2 14 7 3 11 1 2 3
Nghost:        1966.17 ave        1986 max        1948 min
Histogram: 6 0 7 5 10 3 6 5 3 3
Neighs:        12530.3 ave       13884 max       11190 min
Histogram: 4 5 1 5 7 9 7 4 3 3
FullNghs:      25062.4 ave       27121 max       23067 min
Histogram: 2 3 5 7 10 4 6 6 2 3

Total # of neighbors = 1202997
Ave neighs/atom = 300.74925
Neighbor list builds = 26814
Dangerous builds = 0

#clear
#
#next RN
#
#jump SELF
Total wall time: 0:19:23
