
units lj                  # Use reduced LJ style units
atom_style atomic         # Uncharged point particles
atom_modify map hash      # Needed for indexing of clusters etc
                          # Used to be able to find where atoms are in relation to each other.

lattice fcc 1.0 spacing 1 1 1
Lattice spacing in x,y,z = 1.5874011 1.5874011 1.5874011
region box block 0 10 0 10 0 10 units lattice
create_box 2 box
Created orthogonal box = (0.0000000 0.0000000 0.0000000) to (15.874011 15.874011 15.874011)
  3 by 4 by 4 MPI processor grid
create_atoms 1 box
Created 4000 atoms
  using lattice units in orthogonal box = (0.0000000 0.0000000 0.0000000) to (15.874011 15.874011 15.874011)
  create_atoms CPU = 0.002 seconds
set type 1 type/fraction 2 0.8 78393
Setting atom values ...
  3188 settings made for type/fraction
mass 1 1.0
mass 2 1.0
pair_style lj/cut  3.5
pair_modify tail  yes
pair_coeff 1  1  1.0  1.0   # Intearaction between 1 and 1 set with epsilon = 1 and sigma = 1
pair_coeff 1  2  1.5  0.8
pair_coeff 2  2  0.5  0.88

write_data data.0
System init for write_data ...
Neighbor list info ...
  update every 1 steps, delay 10 steps, check yes
  max neighbors/atom: 2000, page size: 100000
  master list distance cutoff = 3.8
  ghost atom cutoff = 3.8
  binsize = 1.9, bins = 9 9 9
  1 neighbor lists, perpetual/occasional/extra = 1 0 0
  (1) pair lj/cut, perpetual
      attributes: half, newton on
      pair build: half/bin/atomonly/newton
      stencil: half/bin/3d
      bin: standard
WARNING: Not all mixed pair coeffs generated from mixing. Use write_data with 'pair ij' option to store all pair coeffs. (../write_data.cpp:312)


#############################
#   M E L T   S Y S T E M   #
#############################

velocity all create 2.4 9580093 mom yes dist gaussian # Assign velocities
                                                    # Temperature 2.4, random number seed, zero linear momentum
                                                                                # Gaussian distribution

timestep 0.002   # simulation timestep
thermo 1000       # output thermodynamic data every 1000 steps bf 100

# Define a fix  in this case with index 1 applied to all
# particles in the simulation. This fix is for simulations
# in the anisotropic NPT ensemble. Note that we use the MTK
# correction.
fix 1 all npt temp 2.4 2.4 0.1 iso 5.68 5.68 0.5 mtk yes tchain 5 pchain 5 # Use NPT ensemble
                                                                         # Set temperature and pressure and damping
                                                                         # Numbers of thermostats in chain and in barostat
run 10000          # run for 10000 steps
Per MPI rank memory allocation (min/avg/max) = 3.642 | 3.644 | 3.648 Mbytes
Step Temp E_pair E_mol TotEng Press Volume 
       0          2.4   -3.6981828            0 -0.099082777   -3.2752093         4000 
    1000    2.4129332   -3.0676486            0   0.55084637    5.5686039    3810.9036 
    2000    2.4053222   -3.0668592            0   0.54022199    5.9864792    3750.1838 
    3000     2.377106   -3.0181699            0   0.54659776    5.5306349     3832.722 
    4000    2.4163543   -3.0779744            0   0.54565096    5.8278167    3767.5005 
    5000    2.4557536   -3.0242739            0   0.65843558    5.9558835    3785.6307 
    6000    2.3898182   -3.0619317            0   0.52189937    5.7150367    3786.9351 
    7000    2.4078177   -3.0618286            0   0.54899501    5.8460372    3773.5373 
    8000    2.4257553    -3.067913            0   0.56981028    5.5496082    3807.7516 
    9000    2.3573896   -3.1412816            0   0.39391881    5.2178879    3781.3565 
   10000    2.4168406   -3.0249066            0   0.59944803    5.7763401    3810.0754 
Loop time of 2.65719 on 48 procs for 10000 steps with 4000 atoms

Performance: 650310.155 tau/day, 3763.369 timesteps/s
99.6% CPU use with 48 MPI tasks x no OpenMP threads

MPI task timing breakdown:
Section |  min time  |  avg time  |  max time  |%varavg| %total
---------------------------------------------------------------
Pair    | 1.14       | 1.2298     | 1.403      |   4.5 | 46.28
Neigh   | 0.21055    | 0.22302    | 0.27288    |   2.2 |  8.39
Comm    | 0.72225    | 0.92062    | 1.0237     |   5.9 | 34.65
Output  | 0.00024898 | 0.0002536  | 0.00032831 |   0.0 |  0.01
Modify  | 0.22901    | 0.26794    | 0.3257     |   5.4 | 10.08
Other   |            | 0.01554    |            |       |  0.58

Nlocal:        83.3333 ave          90 max          76 min
Histogram: 2 3 4 8 3 11 2 9 2 4
Nghost:        1693.23 ave        1717 max        1672 min
Histogram: 2 3 5 6 12 7 6 2 4 1
Neighs:        10021.1 ave       11218 max        9133 min
Histogram: 5 5 9 6 5 5 6 2 3 2

Total # of neighbors = 481014
Ave neighs/atom = 120.25350
Neighbor list builds = 908
Dangerous builds = 212

# Equilibrate just above the melting temperature to avoid step fn in T

fix 1 all npt temp 1.25 1.25 0.1 iso 5.68 5.68 0.5 mtk yes tchain 5 pchain 5
run 2000
Per MPI rank memory allocation (min/avg/max) = 3.644 | 3.646 | 3.649 Mbytes
Step Temp E_pair E_mol TotEng Press Volume 
   10000    2.4168406   -3.0249066            0   0.59944803    5.7763401    3810.0754 
   11000    1.2294088    -4.515152            0   -2.6714998    5.5654022    2915.6493 
   12000    1.2343775   -4.5347577            0   -2.6836544    5.6166245     2908.584 
Loop time of 0.649602 on 48 procs for 2000 steps with 4000 atoms

Performance: 532017.821 tau/day, 3078.807 timesteps/s
99.6% CPU use with 48 MPI tasks x no OpenMP threads

MPI task timing breakdown:
Section |  min time  |  avg time  |  max time  |%varavg| %total
---------------------------------------------------------------
Pair    | 0.29025    | 0.31444    | 0.35736    |   2.2 | 48.40
Neigh   | 0.041485   | 0.043924   | 0.049481   |   0.7 |  6.76
Comm    | 0.19493    | 0.24113    | 0.27214    |   3.0 | 37.12
Output  | 5.2781e-05 | 5.6055e-05 | 7.2395e-05 |   0.0 |  0.01
Modify  | 0.040194   | 0.045203   | 0.050277   |   1.5 |  6.96
Other   |            | 0.00485    |            |       |  0.75

Nlocal:        83.3333 ave          92 max          75 min
Histogram: 1 3 7 6 10 5 6 6 3 1
Nghost:        2033.31 ave        2056 max        2006 min
Histogram: 1 0 3 6 8 9 14 2 4 1
Neighs:        13121.0 ave       14771 max       11280 min
Histogram: 1 3 6 6 6 7 8 4 6 1

Total # of neighbors = 629809
Ave neighs/atom = 157.45225
Neighbor list builds = 146
Dangerous builds = 14

#############################
# L I N E A R  Q U E N C H  #
#############################

# Define solid atoms. This closely follows ten Wolde  Ruiz-Montero and Frenkel  Faraday Discuss  1996  104  93-110
# Compute components of the per-atom q6 vector
compute q6 all orientorder/atom degrees 1 6 components 6 nnn NULL cutoff 1.3 # compute the Q6 parameter.
                                                                             # Use all neighbours within 1.3 unit cell.

# get number of connections
compute coord_number all coord/atom orientorder q6 0.5

# An atom is solid if it has 8 or more connections (of a possible 14)
variable is_solid atom c_coord_number>=8
group solid dynamic all var is_solid    # Must be dynamic to update
dynamic group solid defined

# do clustering
compute cluster solid cluster/atom 1.3 # Create a cluster where all atoms within are solid and max 1.3 units from another member

# define chunks one chunk per cluster
compute clus_chunks solid chunk/atom c_cluster nchunk every compress yes  # Says which atoms are in which chunk

# count the size of each chunk
compute size_chunks solid property/chunk clus_chunks count


# Find the maximum entry in the vector of chunk sizes
variable max_n equal max(c_size_chunks)


# Thermo style which includes this variable
# thermo_style custom step temp pe vol v_max_n

thermo ${N}  # Print the thermo information every 100 steps
thermo 1000  

# Reset the npt fix at a lower temperature (below freezing)
fix 1  all npt temp  ${temp} ${temp}  0.1  iso  5.68  5.68  0.5  mtk yes tchain  5  pchain  5
fix 1  all npt temp  0.45 ${temp}  0.1  iso  5.68  5.68  0.5  mtk yes tchain  5  pchain  5
fix 1  all npt temp  0.45 0.45  0.1  iso  5.68  5.68  0.5  mtk yes tchain  5  pchain  5

dump dmp2 all dcd ${N} traj.dcd
dump dmp2 all dcd 1000 traj.dcd


compute msd all msd com yes
variable twopoint equal c_msd[4]/6/(step*dt+1.0e-6)
fix 9 all vector 10 c_msd[4]
variable fit equal slope(f_9)/6/(10*dt)
thermo_style custom step temp pe c_msd[4] v_twopoint v_fit v_max_n

fix 1 all npt temp 1.25 ${temp} 0.1 iso 5.68 5.68 0.5 mtk yes tchain 5 pchain 5
fix 1 all npt temp 1.25 0.45 0.1 iso 5.68 5.68 0.5 mtk yes tchain 5 pchain 5
run 5000000 # 5000000  # Run for this many steps
Neighbor list info ...
  update every 1 steps, delay 10 steps, check yes
  max neighbors/atom: 2000, page size: 100000
  master list distance cutoff = 3.8
  ghost atom cutoff = 3.8
  binsize = 1.9, bins = 8 8 8
  4 neighbor lists, perpetual/occasional/extra = 1 3 0
  (1) pair lj/cut, perpetual
      attributes: half, newton on
      pair build: half/bin/atomonly/newton
      stencil: half/bin/3d
      bin: standard
  (2) compute orientorder/atom, occasional
      attributes: full, newton on
      pair build: full/bin/atomonly
      stencil: full/bin/3d
      bin: standard
  (3) compute coord/atom, occasional
      attributes: full, newton on
      pair build: full/bin/atomonly
      stencil: full/bin/3d
      bin: standard
  (4) compute cluster/atom, occasional
      attributes: full, newton on
      pair build: full/bin/atomonly
      stencil: full/bin/3d
      bin: standard
Per MPI rank memory allocation (min/avg/max) = 9.836 | 9.840 | 9.843 Mbytes
Step Temp PotEng c_msd[4] v_twopoint v_fit v_max_n 
   12000    1.2343775   -4.5347577 1.8197049e-30 1.2636839e-32 8.3333333e+20            1 
   13000    1.2542256   -4.5303985   0.81135412 0.0052009877  0.068358176            2 
   14000    1.2434048   -4.5081706    1.6620693 0.0098932694  0.069976331            6 
   15000    1.2491743   -4.5729983    2.4547491  0.013637495   0.06894876            2 
   16000    1.2702163   -4.5335379    3.3482957   0.01743904  0.069278641            2 
   17000    1.2643749   -4.4999065    4.1055337  0.020125164   0.06953521            2 
   18000    1.2601571   -4.5671537    4.9139698  0.022749859  0.068624574            2 
   19000    1.2427749   -4.5623825    5.7250767  0.025109985  0.068502337            1 
   20000    1.2521232    -4.498894    6.5846404  0.027436001   0.06851894            1 
   21000    1.2390653   -4.5621148       7.4144  0.029422222  0.068627179            2 
   22000     1.228422   -4.5222764    8.2147364  0.031116425  0.068603055            2 
   23000    1.2622441   -4.5555712     9.001519  0.032614199   0.06841594            1 
   24000    1.2842871   -4.5522605    9.8115049  0.034067725  0.068406652            2 
   25000    1.2575488   -4.5590557    10.570253  0.035234176  0.068285896            3 
   26000     1.245163   -4.5647968     11.51303  0.036900736  0.068291612            2 
   27000    1.2335546   -4.5267131    12.187056  0.037614369  0.068126362            4 
   28000    1.2596188   -4.5245617    13.115932   0.03903551  0.068045049            3 
   29000    1.2591842   -4.5516512    14.155192  0.040675838  0.068280972            2 
   30000    1.2333892   -4.5347488    15.086019  0.041905607  0.068673515            4 
   31000    1.2688751   -4.5531308    15.994782  0.042996724  0.069023627            1 
   32000    1.2752076   -4.5193849    16.829895  0.043827851  0.069350934            1 
   33000    1.2462513   -4.5436077    17.630567  0.044521633  0.069592651            1 
   34000    1.2385508   -4.5386346    18.637602  0.045680395  0.069806269            2 
   35000    1.2608778   -4.5118793    19.607414  0.046684317  0.070161114            3 
   36000    1.2425564   -4.5454787     20.44495  0.047326273  0.070476382            1 
   37000    1.2760424   -4.5347207    21.141785  0.047616633  0.070641022            2 
   38000    1.2280616   -4.5522011    22.024462  0.048299258  0.070746597            2 
   39000    1.2297241   -4.5537188    22.895005   0.04892095  0.070853688            3 
   40000    1.2643155   -4.5316632    23.806422  0.049596712  0.070957637            4 
   41000    1.2369389   -4.5749585     24.69232  0.050187641  0.071051872            7 
   42000    1.2535625   -4.5276249    25.410765  0.050418184  0.071073818            2 
   43000    1.2571687   -4.5366379    26.182847  0.050741952  0.071054172            1 
   44000    1.2219908   -4.5293555     26.99515  0.051127177  0.071004468            2 
   45000    1.2269717   -4.5540814    27.812499  0.051504626  0.070963758            3 
   46000    1.2625567   -4.5562852    28.860998  0.052284415  0.071013334            3 
   47000    1.2465596   -4.5783644    29.536266  0.052369265  0.071032632            3 
   48000    1.2426413   -4.5384333    30.335508  0.052665812  0.071021524            1 
   49000    1.2564806   -4.5687843    31.147224  0.052971469  0.070975909            6 
   50000    1.2229837   -4.5190477    31.866121  0.053110201   0.07089943            2 
   51000    1.2516403   -4.5669125    32.483812  0.053078123    0.0707909            2 
   52000    1.2355943   -4.5369264    33.159967  0.053140973  0.070654591            2 
   53000    1.2300897   -4.5123628    34.144681  0.053686605  0.070509146            2 
   54000    1.2481122   -4.5271028    34.991262   0.05399886  0.070379622            2 
   55000    1.2573579   -4.5408008    35.639324  0.053998975  0.070265068            2 
   56000    1.2536369   -4.5517506    36.252662  0.053947413   0.07010823            3 
   57000    1.2327427    -4.519815    37.207043  0.054396262  0.069947502            2 
   58000    1.2418363   -4.5387494    37.951749  0.054528375   0.06979333            2 
   59000    1.2504006   -4.5496898    38.467318  0.054332369   0.06962606            2 
   60000    1.2390025   -4.5676527    39.197689  0.054441234  0.069437226            2 
   61000    1.2127971   -4.5608018    40.087914  0.054764909   0.06927771            2 
   62000    1.2226014    -4.554016    41.169959  0.055335966  0.069154018            1 
   63000    1.2294197   -4.5434487    41.943102  0.055480294  0.069059936            2 
   64000    1.2379974     -4.56409    42.855057  0.055800855  0.068972583            2 
   65000    1.2398604   -4.5480917    43.632524  0.055939133  0.068883804            3 
   66000    1.2536659   -4.5913375    44.907325  0.056701167  0.068855087            1 
   67000    1.2235576   -4.5390398    45.536153  0.056637005  0.068838971            1 
   68000    1.2388418   -4.5262167    46.649234  0.057168179  0.068865228            4 
   69000    1.2336125    -4.537734    47.592191  0.057478492  0.068920637            2 
   70000    1.2343576   -4.5403428    48.766573  0.058055444  0.068978901            1 
   71000    1.2492736   -4.5753679    49.113363  0.057644792  0.069026089            2 
   72000    1.2527698   -4.5461252    49.944139  0.057805716  0.069056698            5 
   73000    1.2333121   -4.5049845    50.546046  0.057700965  0.069057405            1 
   74000    1.2301295   -4.5387972     51.59199  0.058099087   0.06906014            1 
   75000    1.2438385   -4.5609363    52.389178  0.058210197  0.069069558            3 
   76000    1.2426662    -4.514944    53.429541  0.058585023  0.069075067            1 
   77000    1.2564936    -4.563363    54.201345  0.058659464  0.069072952            2 
   78000    1.2296174   -4.5686421    54.829877  0.058578928  0.069071357            3 
   79000    1.2304565   -4.5805506    55.468269  0.058510832  0.069057573            1 
   80000    1.2287596   -4.5814795    56.441686  0.058793422   0.06904043            4 
   81000    1.2477073   -4.5641093    57.103035  0.058747978   0.06904316            3 
   82000    1.2281806   -4.5813731    58.102106  0.059046855  0.069054117            3 
   83000    1.2383515   -4.5341036    58.916527  0.059153139  0.069054708            2 
   84000    1.2424229   -4.5139539     59.74334  0.059269186  0.069037863            2 
   85000    1.2397628    -4.554875    60.706655  0.059516328  0.069030151            2 
   86000    1.2115946   -4.5051159    61.684652  0.059771949  0.069033724            2 
   87000    1.2514371   -4.6057206    62.401595  0.059771642  0.069037274            4 
   88000    1.2485388   -4.5878805    63.133904  0.059785894  0.069043898            3 
   89000    1.2546529   -4.5739276    63.895805  0.059827533  0.069043782            2 
   90000    1.2190023   -4.5366458    64.708743  0.059915502  0.069038389            5 
   91000    1.2113382   -4.5801391    65.231049  0.059735393  0.069024552            1 
   92000    1.2505149   -4.5774088    66.001514   0.05978398  0.069014376            2 
   93000    1.2406453   -4.5623663    66.651568  0.059723627  0.068996383            1 
   94000     1.238404   -4.5810218    67.700112  0.060017829  0.068971937            2 
   95000    1.2381627   -4.5345076    68.423267  0.060020409  0.068939664            1 
   96000    1.2703505   -4.5598623    69.591771  0.060409523  0.068926456            2 
   97000    1.2157041   -4.5686082     70.39902  0.060480258  0.068930889            1 
   98000    1.2189475   -4.5561012    71.131536  0.060485999   0.06892355            1 
   99000    1.2141862   -4.5707999    71.492761  0.060179092  0.068900904            2 
  100000    1.2376829   -4.5944278    71.914349  0.059928624  0.068853915            4 
  101000    1.2106331   -4.5629075    72.761909  0.060034578  0.068798549            1 
  102000    1.2159144   -4.6132341    73.447896   0.06000645  0.068739908            1 
  103000    1.2244337   -4.5756808    74.240493  0.060065124  0.068697145            1 
  104000    1.2471734   -4.5361748    75.544217  0.060532225  0.068657539            2 
  105000    1.2577891   -4.5684588    76.091477  0.060390061  0.068615401            3 
  106000    1.2640309   -4.5579763    77.312024  0.060779893  0.068577956            4 
  107000    1.2415091   -4.5510224    77.804202  0.060595173   0.06854711            1 
  108000    1.2275927   -4.5687971    78.403576  0.060496586  0.068509802            4 
  109000    1.2575262   -4.5578597    79.172562  0.060529482  0.068467387            2 
  110000    1.2454325   -4.5573888     79.49388  0.060222636  0.068411195            4 
  111000    1.2071662   -4.5705004    80.036347  0.060087347   0.06834547            3 
  112000    1.2172366   -4.5593817    81.221899  0.060432961  0.068281001            2 
  113000    1.2436625   -4.5744227    81.536659  0.060130279  0.068212514            2 
  114000    1.2242459   -4.5802586    82.092387  0.060009054  0.068137545            4 
  115000    1.2205246   -4.5910201    82.920134  0.060087053  0.068063753            5 
  116000    1.2192473   -4.5373914    83.932093  0.060296044  0.067995523            3 
  117000    1.2285965   -4.5631738    85.260616  0.060726935  0.067933818            3 
  118000    1.2177016   -4.5653821    86.229262  0.060896371  0.067890749            7 
  119000    1.2550553   -4.5713945    86.736236  0.060739661   0.06785194            1 
  120000    1.2278663   -4.5506495    87.751913  0.060938828   0.06780718            2 
  121000    1.2497137   -4.5939769    88.288304  0.060804617  0.067767192            3 
  122000    1.2268757   -4.5601799    89.138989  0.060887287  0.067731929            1 
  123000    1.2363993   -4.5411051    89.937567  0.060933311  0.067691811            2 
  124000    1.2109544   -4.5984189    90.713626  0.060963458  0.067657201            2 
  125000    1.2152937   -4.5565786    91.770831  0.061180554  0.067635373            3 
  126000     1.227277    -4.576854    92.681502  0.061297289  0.067605134            1 
  127000    1.2594734   -4.5998919    93.211251  0.061162238  0.067578748            2 
  128000    1.2204364   -4.5566667    93.840426  0.061094027  0.067553599            2 
  129000    1.2076509   -4.5785804    94.229204  0.060871578  0.067524987            2 
  130000    1.2377776   -4.5753725    95.621116  0.061295587  0.067500291            3 
  131000    1.2118968   -4.5543846    96.909705  0.061647395  0.067481992            1 
  132000    1.2390681    -4.563606    97.289857  0.061420364  0.067456624            4 
  133000    1.2342337   -4.6073658    97.499381  0.061089838  0.067427591            1 
  134000    1.2094775   -4.5634786    98.401727  0.061195104  0.067393464            1 
  135000     1.225768    -4.564405    99.814852  0.061614106  0.067357716            2 
  136000     1.226417   -4.5775336    100.15385  0.061368779  0.067330294            2 
  137000    1.2335707    -4.506279    101.19224  0.061552457  0.067304118            4 
  138000    1.2508383   -4.6088057    101.28847  0.061164536  0.067289519            4 
  139000    1.2570574   -4.5894283     102.4967  0.061448859   0.06726488            3 
  140000    1.2389962   -4.5816329     103.0884  0.061362145  0.067236871            2 
  141000    1.2358437   -4.5964659    103.78297  0.061337454  0.067206268            5 
  142000    1.2200431   -4.5800257    104.72408  0.061457796  0.067171325            2 
  143000    1.2459877   -4.5678163    105.31534  0.061372575  0.067142028            1 
  144000    1.2366359   -4.5778343    106.64534   0.06171605  0.067125429            1 
  145000    1.2108321   -4.5713079    107.11361  0.061559548  0.067110177            3 
  146000    1.2389786   -4.5956952    107.78677  0.061522129   0.06709184            2 
  147000    1.2484602   -4.5637473    109.24065  0.061927805  0.067074458            3 
  148000    1.2210179   -4.5770097    109.92143  0.061892696  0.067053333            2 
  149000    1.2243514   -4.5608661    110.29863  0.061688274  0.067032919            2 
  150000    1.2456542   -4.5832869    111.13383  0.061741018  0.066999687            2 
  151000    1.2299821   -4.5734171    111.59037   0.06158409  0.066972717            2 
  152000    1.2265899   -4.5558361    112.70297  0.061788909  0.066949023            3 
  153000    1.1894125    -4.584678    114.19642  0.062198483  0.066934315            2 
  154000    1.2175898   -4.5782968    114.43887  0.061925795  0.066923971            1 
  155000    1.2353089   -4.5618103    115.34179  0.062011718  0.066909172            1 
  156000    1.2243987   -4.5609336    115.91095  0.061918243  0.066892905            1 
  157000    1.2248939   -4.5703836      116.808  0.061999998  0.066875882            3 
  158000    1.2175743   -4.5479805    117.28533   0.06185935  0.066863745            4 
  159000     1.219625   -4.5571056    118.62384  0.062171823  0.066852371            1 
  160000    1.2311212   -4.5731116    119.66269  0.062324316  0.066844057            2 
  161000    1.2012113   -4.5645883    120.21395   0.06222254  0.066838157            4 
  162000    1.2106494   -4.6064721    120.47674  0.061973633  0.066831012            2 
  163000     1.222413   -4.5953875     121.2751  0.062001586  0.066817229            4 
  164000    1.2374342    -4.588176    122.32182  0.062155397  0.066801969            1 
  165000    1.2153796   -4.5642216    122.44438  0.061840595  0.066784992            2 
  166000    1.2328463   -4.5917288    123.27778  0.061886435  0.066765677            3 
  167000    1.2088623   -4.5806221    123.73603  0.061744528  0.066732488            2 
  168000    1.2152896   -4.5430273    125.04859  0.062028068  0.066703661            3 
  169000    1.2438776   -4.5829837     125.5497  0.061908136  0.066673292            1 
  170000    1.2034814   -4.5675163    126.26456  0.061894394   0.06664201            3 
  171000    1.2302805   -4.5830481    127.14123  0.061959662  0.066616914            5 
  172000    1.2255424   -4.5453483    127.95932  0.061995792  0.066591462            1 
  173000    1.2338121   -4.6019969    127.85637  0.061587848  0.066568833            2 
  174000    1.2427513   -4.5753456    129.47992  0.062011457  0.066547142            4 
  175000    1.2202341   -4.6145486    130.25305   0.06202526  0.066521388            1 
  176000    1.2044465   -4.6182327     130.6977   0.06188338  0.066493899            2 
  177000     1.209631   -4.5542415    131.53005  0.061925634  0.066467724            2 
  178000    1.2188212   -4.5567414     132.4079  0.061988716  0.066445464            3 
  179000    1.2390691   -4.5352527     133.8128  0.062296461  0.066423882            2 
  180000    1.1961874   -4.5739426    134.10212  0.062084315  0.066400751            1 
  181000    1.1899282   -4.5920394    134.60865  0.061974517  0.066375352            2 
  182000    1.2317859   -4.5944782    135.07566  0.061847828  0.066346914            6 
  183000    1.2208215   -4.6039461     135.8809  0.061876546  0.066320074            2 
  184000     1.203446   -4.5979564    137.04911  0.062069345  0.066296766            2 
  185000    1.2160477   -4.5632344    137.71259  0.062032696  0.066279112            1 
  186000    1.2134569   -4.5669295    138.72186  0.062151371  0.066261295            2 
  187000    1.2191724   -4.6379275    138.99133  0.061939095  0.066243092            2 
  188000    1.2205384   -4.5657064    140.17316  0.062133492  0.066224957            4 
  189000    1.2139773   -4.5786545    140.76293  0.062064785  0.066203411            4 
  190000    1.2183159   -4.5725664    141.62573  0.062116547  0.066184122            2 
  191000    1.2082751   -4.5966747    142.06694  0.061983831  0.066162671            7 
  192000    1.2188306   -4.6004264    142.45282   0.06182848  0.066135174            4 
  193000    1.2403327   -4.5668346     143.6356  0.062018826  0.066112659            4 
  194000    1.2307777   -4.5499293    143.87246  0.061800883  0.066083056            2 
  195000    1.2113635   -4.5798074    144.24666  0.061643873  0.066055958            3 
  196000    1.2350261   -4.5939011    145.52638  0.061873461  0.066029535            2 
  197000    1.2535963   -4.5511427    146.91493  0.062146754  0.066005979            1 
  198000    1.2248377   -4.5782091    146.87413  0.061815711  0.065980429            4 
  199000    1.2162014   -4.6090197    148.18169  0.062052634  0.065952575            5 
  200000    1.2477627     -4.59263    148.12551  0.061718962  0.065925027            1 
  201000    1.1998384   -4.6042056    148.70863  0.061653662  0.065894206            2 
  202000    1.1993199   -4.5706709    148.93057  0.061440005  0.065865649            3 
  203000    1.2416969   -4.5981235    150.18024  0.061650343  0.065828348            2 
  204000    1.2014206   -4.5757671    150.86951  0.061629701  0.065792959            3 
  205000     1.230864   -4.6002566    151.39588  0.061543041  0.065754922            3 
  206000    1.2201178   -4.5968353    151.63564   0.06134128  0.065714585            2 
  207000    1.2247625   -4.5950849    152.65315  0.061454567  0.065676007            5 
  208000    1.2055075   -4.5705572    153.63379     0.061552   0.06564157            4 
  209000    1.2257428   -4.5975212    153.97596  0.061393923  0.065607326            4 
  210000    1.2235855   -4.6047232    155.59469  0.061743925  0.065574216            3 
  211000    1.2408185   -4.5871727    155.68963  0.061488795  0.065545863            3 
  212000    1.2214762   -4.5575227    156.74722  0.061614474  0.065513194            3 
  213000    1.2211956    -4.594098    157.74949  0.061717328  0.065486282            2 
  214000    1.2270018   -4.5845307    158.45763  0.061704683  0.065456826            3 
  215000    1.1925279   -4.6056488     159.0407  0.061643681  0.065428587            4 
  216000    1.2276363   -4.5619814    160.15773  0.061789248   0.06540109            2 
  217000    1.2253912   -4.6075904    160.52623  0.061646019  0.065371183            3 
  218000    1.1774745   -4.5930126    160.95463  0.061526999  0.065337687            2 
  219000    1.2125479    -4.628007    161.51506  0.061459308  0.065305188            2 
  220000    1.2291796   -4.5943532    162.57074  0.061579824  0.065271029            4 
  221000    1.2295249   -4.5904695    163.26835  0.061564236  0.065243415            2 
  222000    1.2025247   -4.5898266    164.35007  0.061692969  0.065215753            4 
  223000    1.2299567   -4.6050613    165.59381  0.061881095  0.065187904            2 
  224000    1.1957914   -4.6036308    165.82282  0.061690038  0.065163946            1 
  225000    1.2076661   -4.5893662    166.22169  0.061563588  0.065138269            2 
  226000    1.2229516   -4.6016856    167.72739  0.061846382  0.065111362            1 
  227000    1.2291181   -4.6020858    167.49958  0.061490301  0.065086338            1 
  228000    1.2227827   -4.6014178     168.5762  0.061614107  0.065060353            3 
  229000    1.2005237   -4.5899171    169.62455  0.061726547  0.065034037            1 
  230000    1.2187171   -4.5938383    169.96841  0.061582756  0.065008673            2 
  231000    1.2165092   -4.6216745    170.50001  0.061507942  0.064981919            1 
  232000     1.198264   -4.5947148    171.08105  0.061451527  0.064953373            2 
  233000    1.2214834   -4.5926909    171.84153  0.061459776  0.064921087            2 
  234000    1.2503131   -4.6059917    172.24298  0.061340093  0.064888363            2 
  235000     1.209117   -4.5832192    172.96937  0.061336657  0.064856495            2 
  236000    1.1985287   -4.6442773    173.52288  0.061272204  0.064825524            1 
  237000    1.2064933    -4.637349    174.41371    0.0613269  0.064794145            1 
  238000    1.2369428   -4.5632289    176.07266   0.06165009   0.06476619            2 
  239000    1.2284779   -4.5774951    176.46981  0.061530616  0.064740439            6 
  240000    1.1901891   -4.5698295    177.84124  0.061750429  0.064716576            2 
  241000    1.2354721   -4.5593541    178.29586  0.061651403  0.064694388            2 
  242000    1.1965246   -4.5896994    178.55011  0.061484198  0.064671163            3 
  243000    1.2221092     -4.60599    178.73606  0.061294943  0.064650157            1 
  244000    1.2043225   -4.5658893    181.04413  0.061832011  0.064629756            4 
  245000    1.1979889   -4.5877755    181.22741  0.061641978  0.064610731            2 
  246000    1.2167565   -4.5762995    182.02439  0.061661378  0.064590733            1 
  247000    1.2322731   -4.5970316    182.44785  0.061554605   0.06456786            3 
  248000    1.2065597   -4.6151181    182.59702  0.061356525  0.064546132            2 
  249000    1.2045062   -4.5933524    183.84917  0.061529173   0.06452441            3 
  250000    1.2269228   -4.6078744    185.07781  0.061692603  0.064506187            2 
  251000    1.2071426   -4.5714205     187.0527   0.06210249  0.064490678           13 
  252000    1.2232697   -4.5874474    187.01763  0.061844456  0.064477542            1 
  253000    1.2288155   -4.5985358    188.40702  0.062057649    0.0644671            2 
  254000    1.1977732   -4.5633823    189.76298  0.062258195  0.064459035            1 
  255000    1.1887049   -4.6105412     189.7706  0.062016536  0.064450862            2 
  256000    1.2275086   -4.6155548     190.4399  0.061992154  0.064442922            2 
  257000    1.2219036   -4.6343886    190.59649  0.061801716  0.064429367            3 
  258000    1.2028608   -4.5949963    191.44795  0.061837193  0.064415387            5 
  259000    1.2380138   -4.5908211    192.05724  0.061794479  0.064398838            1 
  260000     1.232978   -4.6063641     192.9347  0.061838045  0.064383756            2 
  261000    1.2051948   -4.5980146    193.62911  0.061822831  0.064369683            5 
  262000    1.2317558   -4.5954627    194.00474  0.061706342  0.064353353            1 
  263000    1.1874646   -4.6044164    194.51348  0.061632914  0.064337096            1 
  264000    1.2063123   -4.6005834    194.86624  0.061510807  0.064317527            4 
  265000    1.2141153   -4.6065604    195.70937  0.061543826  0.064299145            2 
  266000    1.1882925   -4.6277559    196.66614  0.061612199  0.064280453            2 
  267000    1.2109429   -4.6106234    197.02388  0.061493096   0.06425999            5 
  268000    1.2245269   -4.5710373    197.02361  0.061263561  0.064238083            1 
  269000    1.2075202    -4.598347    198.28101  0.061425344  0.064214501            3 
  270000     1.213467   -4.6408996    198.39518  0.061233081  0.064190415            3 
  271000    1.2073218   -4.6163363    199.93944  0.061481993  0.064169681            1 
  272000    1.2587399   -4.6134957    200.54976  0.061442941  0.064149557            4 
  273000     1.206427   -4.6228968    201.33123  0.061456419  0.064130918            3 
  274000    1.2119603    -4.594932    202.99938  0.061739471  0.064114071            2 
  275000    1.2096998   -4.6496314     202.6223  0.061400696  0.064099093            3 
  276000    1.2163096   -4.6008268    204.38363  0.061710033  0.064085197            2 
  277000    1.2051398   -4.5848781     204.3581  0.061479572  0.064069605            2 
  278000    1.2171186   -4.5970579    205.60815  0.061633139  0.064055322            3 
  279000    1.2102893   -4.5917779    206.72734  0.061746517  0.064040706            2 
  280000    1.2371308   -4.6336078    206.42385  0.061435671  0.064027619            4 
  281000    1.2142421   -4.5787799       208.21  0.061746738  0.064014199            2 
  282000    1.2137377   -4.6279068    209.46532  0.061898735  0.064002359            2 
  283000    1.2008259   -4.5860098    210.06746   0.06185732  0.063990365            1 
  284000    1.2164905   -4.6227818    209.92007  0.061596265  0.063977311            2 
  285000    1.2013721   -4.6022596    210.90857  0.061669173  0.063963647            1 
  286000    1.2014833   -4.6049077    212.05803  0.061788471  0.063947287            2 
  287000     1.195573   -4.6306148     211.9536  0.061542857  0.063932341            3 
  288000    1.2184009   -4.6195544    213.18531  0.061685565  0.063916398            3 
  289000    1.2262093   -4.6165897     214.1824   0.06175963  0.063899552            1 
  290000    1.1908501   -4.6293427    213.60624  0.061381105  0.063884938            1 
  291000    1.1870782   -4.5780381    214.83131  0.061520993  0.063867679            3 
  292000    1.2175134   -4.6116923    214.69607  0.061271709  0.063848998            1 
  293000    1.2181516   -4.5793383    217.24343  0.061787095  0.063831179            3 
  294000    1.1867049    -4.607098    217.07485  0.061529153  0.063814033            3 
  295000    1.2104755   -4.6182192    217.71333  0.061500941  0.063797155            2 
  296000    1.1992643   -4.5832522    218.24596  0.061443118  0.063780933            4 
  297000    1.2043953   -4.6562851    218.84771   0.06140508  0.063764773            2 
  298000    1.2111462   -4.6230931    219.04592  0.061254451  0.063748108            3 
  299000    1.2072207   -4.5694889    220.66382  0.061500508  0.063728274            3 
  300000     1.184879    -4.639137    220.02401   0.06111778  0.063706609            2 
  301000    1.2330878   -4.6111432    221.53533  0.061333148  0.063685935            5 
  302000    1.1946993   -4.6327965    221.49748  0.061119613  0.063664874            2 
  303000     1.216141   -4.6165871    222.09641  0.061082622  0.063644457            2 
  304000    1.1858902   -4.6231134      222.899    0.0611017  0.063623122            1 
  305000    1.1955409   -4.6404951    223.37851  0.061032381  0.063598182            2 
  306000    1.2083585    -4.612922     223.8173  0.060952424  0.063575218            3 
  307000    1.1951618   -4.6180851    224.18283  0.060853102  0.063550996            2 
  308000    1.2043563   -4.6377049    224.33112   0.06069565  0.063524097            1 
  309000    1.2025399   -4.6103065    226.06013  0.060965514  0.063497586            2 
  310000    1.2031327   -4.6130738    227.19775  0.061074665  0.063471919            3 
  311000     1.210209   -4.6137626    227.75086   0.06102649  0.063447089            3 
  312000    1.1754563   -4.6456271    227.87135  0.060863074   0.06342506            4 
  313000    1.2169499   -4.6000124      228.389  0.060806444  0.063399977            1 
  314000    1.2250877    -4.609112    228.87858  0.060742723  0.063373433            1 
  315000    1.2107634   -4.6178896    229.30854  0.060663635  0.063347147            1 
  316000    1.1846772   -4.6058237    229.68623  0.060571264  0.063316922            5 
  317000    1.1796542   -4.6206829    230.47134  0.060586577  0.063290016            2 
  318000    1.1961612   -4.5976622    231.05891  0.060550027  0.063261338            2 
  319000    1.1804657    -4.623887    231.69194  0.060525585  0.063230518            3 
  320000    1.2190957   -4.6644195    230.76772  0.060095761  0.063197183            4 
  321000    1.1612534   -4.6586188    232.18566  0.060276652  0.063163652            2 
  322000    1.1935585   -4.6080704    233.69092  0.060479016  0.063133111            3 
  323000    1.1833769   -4.6199573     235.1039  0.060656322  0.063103313            2 
  324000    1.2188536   -4.6084075    235.80891  0.060650441  0.063076446            5 
  325000    1.2198746   -4.6297437    235.62241  0.060416003  0.063048877            2 
  326000    1.1842636   -4.6437523    236.43262  0.060437785  0.063020297            4 
  327000    1.1942821   -4.6306848    236.93404  0.060380743  0.062991273            3 
  328000    1.1931632   -4.5980526    237.98201  0.060462908   0.06296444            1 
  329000    1.2011133   -4.6267215     238.0431  0.060294605  0.062938165            3 
  330000    1.1678402   -4.6210845    239.30854  0.060431448  0.062911468            3 
  331000    1.1691052   -4.6223554    239.31392  0.060250233  0.062883497            3 
  332000    1.2143172   -4.6090119    240.50192  0.060366948  0.062857039            2 
  333000    1.1929317   -4.6262536    241.21113  0.060363145  0.062830678            2 
  334000    1.1901655   -4.6451656    241.88184  0.060349759  0.062804945            4 
  335000    1.2044069   -4.6204706    243.76349  0.060637685  0.062780488            2 
  336000    1.2057559   -4.6003467    243.98523  0.060512211  0.062754071            2 
  337000    1.1976144   -4.6005548    244.15948  0.060375737  0.062725907            1 
  338000    1.2153461   -4.6667988    242.47468  0.059781725  0.062697162            2 
  339000    1.1991145    -4.612393    245.58634   0.06037029  0.062669309            1 
  340000    1.1801129   -4.6270619    246.07906  0.060313495  0.062643161            1 
  341000    1.2093332   -4.6451566    246.87136  0.060330245  0.062617635            3 
  342000     1.194736   -4.6557005    246.63627  0.060096557  0.062592729            3 
  343000      1.18194   -4.6332565    247.08019  0.060029202  0.062567243            1 
  344000    1.1987163   -4.6131269    248.80116  0.060271598   0.06254231            3 
  345000    1.2245055   -4.5958989    250.52212   0.06051259  0.062516977            2 
  346000    1.1915275   -4.6118995    249.29678  0.060042577  0.062493364            2 
  347000    1.2027603   -4.6444856    250.72398  0.060212291  0.062467616            3 
  348000    1.1901242   -4.6076205    251.93284  0.060328745  0.062442231            2 
  349000    1.2093214   -4.6621745    252.43316  0.060275347    0.0624203            2 
  350000    1.2130634   -4.6520617    253.09138  0.060259851    0.0623972            2 
  351000    1.2008704     -4.66635    254.54932  0.060434311  0.062375008            4 
  352000     1.208927   -4.5859057    255.26928  0.060433068  0.062352673            1 
  353000    1.1958786   -4.6156134    255.23405  0.060253553   0.06233032            1 
  354000      1.19798   -4.6487041    255.84421  0.060226979  0.062308276            5 
  355000     1.187116   -4.6095357    257.16749  0.060367955  0.062285693            2 
  356000    1.2180617   -4.6412525     258.3142  0.060466807   0.06226399            2 
  357000    1.1766045   -4.6688463    257.69473  0.060152832  0.062243014            1 
  358000    1.2041415   -4.6346198    258.47443  0.060166302  0.062220515            1 
  359000    1.1686506   -4.6549013    258.69056  0.060048876  0.062199594            1 
  360000    1.1983857   -4.6392795    259.77311  0.060132665  0.062178179            3 
  361000    1.1702049   -4.6407981    261.15599  0.060285317   0.06215842            2 
  362000    1.2300956   -4.6165318    260.93795  0.060068588  0.062136363            2 
  363000    1.2009093   -4.6134594    262.12595  0.060175839  0.062115135            3 
  364000    1.1965686   -4.6401096     263.5243  0.060330654  0.062093566            2 
  365000    1.2055653   -4.6442683    262.58521  0.059950962  0.062073593            2 
  366000     1.179713   -4.6482145    263.78841  0.060061114  0.062052147            2 
  367000    1.2048488   -4.6275678    264.40632  0.060037765   0.06203113            2 
  368000    1.1994719   -4.6477775    265.15522  0.060044208  0.062009725            3 
  369000    1.2220884   -4.6544652    266.52207  0.060190169  0.061987769            1 
  370000    1.1718996   -4.6681006    266.52334   0.06002778  0.061964836            2 
  371000    1.1632012   -4.6211865    267.49762  0.060084821  0.061945022            4 
  372000    1.2110246    -4.635686    268.98811  0.060257193  0.061926402            2 
  373000    1.1682345   -4.6239645    269.73993  0.060263613  0.061908332            3 
  374000    1.1896403    -4.605991     269.9507  0.060149442  0.061891527            3 
  375000    1.2139389   -4.6256906    270.39419  0.060087599  0.061873197            2 
  376000    1.2045043   -4.6324224    271.98108  0.060279494  0.061854812            4 
  377000    1.2141334   -4.6297057    273.20887  0.060390997  0.061837198            2 
  378000    1.2224937   -4.6238311    273.03621  0.060193167  0.061819585            2 
  379000    1.1869192   -4.6114421    273.59815  0.060157905  0.061802508            3 
  380000     1.198383   -4.6213174    274.39876  0.060175167  0.061784314            2 
  381000    1.1661998   -4.6564699     275.4228  0.060241208   0.06176688            2 
  382000    1.1948315   -4.6403147    276.31905  0.060279025  0.061749477            2 
  383000     1.202726   -4.6384171     276.2649  0.060109855  0.061732631            3 
  384000     1.205699   -4.6377971    277.25309  0.060167772  0.061715035            5 
  385000    1.2163727    -4.623174    278.15504  0.060206718  0.061698425            2 
  386000    1.2144905   -4.6512114    277.67404  0.059946901  0.061681956            4 
  387000    1.2195611   -4.6324021    279.76946  0.060243209   0.06166693            2 
  388000    1.1740986   -4.6652036    278.79601  0.059878868  0.061652116            2 
  389000    1.1632153   -4.6740673    280.09757  0.060003764  0.061636723            1 
  390000    1.2002416   -4.6374969    282.34905  0.060330994  0.061621623            2 
  391000      1.16916   -4.6532036    282.40948  0.060189574   0.06160754            1 
  392000     1.187457   -4.5899772    283.68046  0.060306219  0.061593367            2 
  393000    1.2046022   -4.6294815     282.5541  0.059913931  0.061575961            2 
  394000      1.18925   -4.6471438    284.57297  0.060188868  0.061559293            3 
  395000    1.1870119   -4.6196044    283.96283  0.059907769  0.061541054            1 
  396000    1.1858561   -4.6471668    282.80295  0.059512404  0.061522355            2 
  397000    1.1999931   -4.6417295    283.53243  0.059515623  0.061502652            5 
  398000    1.1941715   -4.6232021    285.66913   0.05981347  0.061483733            3 
  399000    1.1725036   -4.6568579    285.81382  0.059693781  0.061462321            2 
  400000    1.1968945   -4.6393307    287.51135  0.059898198  0.061441617            3 
  401000    1.1899894    -4.633115    287.93859  0.059837613  0.061423048            2 
  402000    1.1901894   -4.6360276    289.01369  0.059911627  0.061404845            1 
  403000     1.171116   -4.6682739    288.50389  0.059657545   0.06138699            2 
  404000    1.1752012   -4.6678419     289.2617  0.059666193  0.061367333            1 
  405000    1.1778399   -4.6147577    291.16213  0.059909904  0.061348872            1 
  406000    1.1891361   -4.6785185    291.24004  0.059778334  0.061330803            3 
  407000    1.1873442   -4.6561486    292.28408  0.059845224  0.061313726            1 
  408000    1.1909833   -4.6433157    293.98118  0.060045175  0.061297052            2 
  409000    1.1921708   -4.6401157    295.11747  0.060129884  0.061282339            1 
  410000    1.1653838    -4.642565    294.60781  0.059879636  0.061266486            2 
  411000    1.1615618   -4.6688289    294.76523  0.059765861  0.061250434            3 
  412000    1.1767055   -4.6376568    295.58412  0.059786433  0.061233667            4 
  413000    1.1692116   -4.6269508    296.07226  0.059740166  0.061217098            3 
  414000     1.176263     -4.62427    297.52472  0.059888229  0.061198701            2 
  415000    1.2093225   -4.6575675    297.02691  0.059643958  0.061181001            3 
  416000    1.1869566   -4.6349379    298.01328  0.059698174  0.061163758            1 
  417000      1.18707   -4.6179173    299.60552  0.059873205  0.061146732            1 
  418000    1.1757313   -4.6447724    299.14003  0.059637166  0.061130085            4 
  419000    1.1939695   -4.7107105    297.63466  0.059195438  0.061112678            3 
  420000     1.202811   -4.6362324    300.09736  0.059543126  0.061092703            2 
  421000    1.1899572   -4.5863225    302.59972  0.059897015  0.061075049            2 
  422000    1.1686484   -4.6406282    301.84767  0.059606571  0.061057642            1 
  423000    1.1888612   -4.6471967    303.20828  0.059733705   0.06104092            2 
  424000    1.1597271   -4.6197943    304.48898  0.059844533   0.06102402            1 
  425000    1.1779275   -4.6469962    304.35204   0.05967687  0.061007451            3 
  426000    1.1922404   -4.6822831    303.70624  0.059410453  0.060991964            1 
  427000    1.1613142   -4.6579232    306.03127  0.059725072  0.060974392            3 
  428000    1.1604902   -4.6151311    307.73041  0.059916357   0.06095699            1 
  429000    1.1893005     -4.61954    307.28852  0.059690855  0.060941123            4 
  430000    1.1782267   -4.6332933     309.0564  0.059894651  0.060926886            1 
  431000    1.1833104   -4.6485762    309.20501  0.059784417  0.060913789            2 
  432000    1.1567997   -4.6426288    311.49233  0.060087256  0.060898876            1 
  433000    1.1891189   -4.6414299    311.64834   0.05997851    0.0608865            2 
  434000     1.182054   -4.6568194    310.93136  0.059702642  0.060874414            2 
  435000    1.1537074   -4.6220986    313.13044  0.059986675  0.060862241            4 
  436000    1.1928596   -4.6652869    313.80375   0.05997778  0.060852807            2 
  437000    1.1881793   -4.6287789    313.72345  0.059825219  0.060841509            2 
  438000    1.1966263   -4.6483341     314.8354   0.05990019  0.060830106            3 
  439000    1.1664838   -4.6772762    315.05637  0.059805689   0.06081987            3 
  440000    1.1777073   -4.6910099    315.36275  0.059727793  0.060809774            2 
  441000    1.1588089   -4.6642471    316.14241  0.059739685  0.060798818            2 
  442000    1.1681428   -4.6349894    319.48626  0.060234965  0.060789013            2 
  443000    1.1671073   -4.6260778    318.87513  0.059984036  0.060779096            3 
  444000    1.1511223    -4.614244    319.48553    0.0599635  0.060768431            2 
  445000    1.1631083   -4.6481393    320.13278  0.059949959  0.060756017            2 
  446000    1.1657039   -4.6748229     318.7595  0.059558949  0.060743063            2 
  447000    1.1898631    -4.677749    321.00389  0.059844125  0.060732374            1 
  448000    1.2116661   -4.6733372    321.51208  0.059805075  0.060720706            2 
  449000    1.1908577   -4.6288639    321.96796  0.059756489  0.060709678            5 
  450000    1.1738654   -4.6742213    321.44909  0.059527609  0.060697416            2 
  451000    1.1590268   -4.6408491    322.78881  0.059643165  0.060685382            2 
  452000    1.1675685   -4.6256486    324.30855    0.0597914  0.060672885            8 
  453000    1.1839099   -4.6030093    326.41503  0.060046914  0.060661658            1 
  454000    1.1965676   -4.6556231    325.61402  0.059767624  0.060650211            5 
  455000    1.1676172   -4.6734853    327.43072  0.059968996  0.060639182            3 
  456000     1.142725   -4.6417281    327.69268  0.059885359  0.060629229            1 
  457000    1.1818799   -4.7085296    326.51837  0.059540184  0.060618898            1 
  458000     1.198435   -4.6824408     327.0908  0.059514337  0.060607867            2 
  459000    1.1811197   -4.6568692    330.29754  0.059966874  0.060598154            7 
  460000    1.1769859    -4.651514    331.41254  0.060038503  0.060591627            5 
  461000    1.1646766   -4.6785051    330.96127  0.059826693  0.060583523            3 
  462000    1.1629221   -4.6807726    330.48877  0.059611972  0.060576064            4 
  463000    1.1786835   -4.6600373     332.6841  0.059878347  0.060567928            2 
  464000    1.1804379   -4.6789538    333.56756  0.059907967  0.060560699            2 
  465000    1.2170349   -4.6878413    334.03945  0.059863701  0.060553414            3 
  466000    1.1886377   -4.6480195    335.42121  0.059982334  0.060545644            1 
  467000    1.2052851   -4.6682397    336.69514  0.060081216  0.060540165            2 
  468000    1.1767993   -4.6543444    335.74388  0.059783454  0.060534039            2 
  469000    1.1722765   -4.6621053    338.48661  0.060143321  0.060527996            2 
  470000    1.1591049   -4.6769719    337.80859  0.059895139  0.060521414            3 
  471000    1.1478277   -4.6827366    337.85236  0.059775718  0.060515495            2 
  472000    1.1654619   -4.6637819    340.39876   0.06009865    0.0605108            3 
  473000      1.14383   -4.7009684    339.51877  0.059816555  0.060505547            2 
  474000    1.1756487   -4.6530783    341.56359  0.060049858  0.060499282            3 
  475000    1.1792161   -4.6528439    341.54828  0.059920751   0.06049281            2 
  476000    1.1784874   -4.6707044    342.04849  0.059882439  0.060486039            2 
  477000    1.2021068   -4.6420289    344.40917  0.060169316  0.060479347            3 
  478000    1.2039166   -4.6465847    344.01572  0.059974846  0.060471562            1 
  479000    1.1547166    -4.630853     344.3859   0.05991404  0.060462886            3 
  480000    1.1724102    -4.616031    345.44006  0.059972232  0.060456884            3 
  481000    1.1400351     -4.67049    345.45392  0.059849952  0.060449343            2 
  482000    1.1800054     -4.64139    346.91568  0.059978506  0.060442981            3 
  483000    1.1618602   -4.6445715    347.05861  0.059878988  0.060435563            2 
  484000      1.18962   -4.6717079     347.6324  0.059854063  0.060428876            2 
  485000    1.1619707   -4.6647084    348.49474  0.059878821  0.060422913            3 
  486000    1.1939749   -4.6688658    348.34274   0.05972955  0.060416164            2 
  487000    1.1694161   -4.6573676    349.49326  0.059803774  0.060407465            2 
  488000    1.1929766   -4.7228933    350.51478  0.059855666  0.060399345            3 
  489000    1.1983682   -4.6287862    351.33726  0.059873426  0.060392149            3 
  490000    1.1607263   -4.6419573    352.22269  0.059901818  0.060384636            2 
  491000    1.1363416   -4.6717724    351.76143  0.059701532   0.06037682            1 
  492000    1.1683565   -4.6637157    351.82642  0.059591195  0.060370096            3 
  493000    1.1677756   -4.6468742    353.54198  0.059760308  0.060363156            1 
  494000    1.1805813   -4.6391202    354.42895  0.059788958  0.060354762            2 
  495000    1.1762526   -4.6406518    354.61323  0.059699197  0.060346686            1 
  496000    1.1684642   -4.6534159    356.05589  0.059821218  0.060337003            3 
  497000    1.2018037   -4.6406938    355.59508  0.059623588  0.060326524            2 
  498000    1.1739467   -4.6539972    356.03912  0.059578166  0.060316836            3 
  499000     1.180028   -4.6399925    356.32897  0.059507176  0.060306191            2 
  500000     1.166662   -4.6826504    357.12186  0.059520311  0.060296433            5 
  501000    1.1721412   -4.6855622    357.50786  0.059465712  0.060286746            2 
  502000    1.1630568   -4.6994008    358.97417  0.059590666  0.060276614            2 
  503000    1.1731819   -4.6590907    358.38201   0.05937409  0.060265687            2 
  504000    1.1880752   -4.6855288    359.18766  0.059389494  0.060255481            2 
  505000    1.1645754   -4.6775955    359.43905  0.059313374   0.06024637            1 
  506000    1.1726121   -4.6537074    362.60589  0.059717702  0.060237201            9 
  507000     1.165067   -4.6947421    361.31976  0.059388521  0.060227952            1 
  508000    1.1860923    -4.698926    360.95267  0.059211396  0.060217888            2 
  509000    1.1668822   -4.6746523    363.35445  0.059488285   0.06020687            1 
  510000    1.1577565   -4.6865517     363.1441  0.059337272  0.060195682            2 
  511000    1.1738441   -4.6556788    362.74036   0.05915531   0.06018405            2 
  512000    1.1814412   -4.6587509    364.03576  0.059250613   0.06017124            2 
  513000    1.1449272   -4.6765119    364.72672  0.059247355  0.060159301            2 
  514000    1.1607184   -4.6830837    364.71449  0.059130106  0.060147455            2 
  515000    1.1654321   -4.6764502    366.05869  0.059232798   0.06013501            2 
  516000    1.1744122    -4.664428    365.48982  0.059026134  0.060121856            2 
  517000    1.1713952   -4.6692116     364.8535  0.058809397  0.060109321            3 
  518000      1.15837   -4.6698202    367.88739  0.059183943  0.060096921            4 
  519000    1.1712966    -4.699687    366.94481  0.058918562  0.060083765            2 
  520000    1.1689721   -4.6493822     368.1071  0.058991522  0.060070033            1 
  521000    1.2006395   -4.6592466    368.79875  0.058988924   0.06005622            1 
  522000    1.1782336   -4.6725508    369.89892  0.059051552  0.060042643            2 
  523000    1.1766376    -4.650755    370.02401  0.058958574  0.060028528            4 
  524000    1.1452484   -4.6384449    370.35796  0.058899166  0.060014169            2 
  525000     1.140371   -4.7205104    370.73259  0.058846443  0.059999146            2 
  526000    1.1484408   -4.6564859    372.31047  0.058984549  0.059984452            4 
  527000    1.1652206   -4.7165191    371.85447  0.058800517  0.059969283            2 
  528000    1.1697436   -4.6522193    372.75135  0.058830706  0.059956172            3 
  529000     1.162083   -4.6746385    374.66014  0.059020186  0.059942105            3 
  530000    1.1802937   -4.7075025    374.30745  0.058853373  0.059926862            1 
  531000    1.1706389   -4.6889286    375.50072  0.058929806  0.059912586            2 
  532000    1.1661601     -4.64589    376.51909  0.058978554  0.059898299            2 
  533000    1.1908897   -4.6616128    375.13787   0.05865195  0.059883968            3 
  534000    1.1337168   -4.6700217     376.2977  0.058723112   0.05986834            6 
  535000    1.1641924   -4.6749092    378.50761  0.058957571  0.059852999            3 
  536000    1.1410589   -4.6839629     376.9364  0.058603296  0.059838813            4 
  537000    1.1519105   -4.6452138    379.21173  0.058847258  0.059825912            4 
  538000    1.1743243   -4.6400627    379.66631  0.058808289  0.059811958            2 
  539000     1.154931   -4.7370363    378.79494  0.058564461  0.059798807            2 
  540000    1.1817816   -4.7007144    381.83432   0.05892505  0.059784297            2 
  541000    1.1752647   -4.6934951     380.6046  0.058626709  0.059769418            2 
  542000    1.1807293   -4.7014384    381.25612  0.058618715   0.05975425            1 
  543000    1.1573139   -4.6688209    383.27278  0.058820255  0.059739535            3 
  544000    1.1475483   -4.6908488    382.26966  0.058558465  0.059724731            1 
  545000    1.1588669   -4.6705406    383.14914  0.058585495   0.05970937            4 
  546000    1.1596236   -4.6812334    383.81206  0.058579374  0.059693486            2 
  547000    1.1616542     -4.68019    385.39977  0.058714164  0.059678008            4 
  548000     1.153243   -4.6508924    385.65315  0.058645552  0.059662936            2 
  549000    1.1827249   -4.6871011    386.77785  0.058709449  0.059647762            2 
  550000    1.1561377   -4.6840386    386.56336  0.058570206  0.059632077            2 
  551000    1.1483142   -4.6827071    386.50717  0.058455409  0.059616869            3 
  552000    1.1370403   -4.7408509    385.72135   0.05823088  0.059601669            2 
  553000    1.1331648   -4.7095526    387.53118   0.05839831  0.059585368            2 
  554000    1.1754238   -4.6824027    387.47531  0.058284494  0.059570127            3 
  555000    1.1751588   -4.6818493    389.14911  0.058430797  0.059554347            1 
  556000    1.1337308   -4.7135486    390.47034  0.058523732  0.059539419            4 
  557000     1.171848   -4.6911924    389.65464  0.058296625  0.059525555            1 
  558000    1.1719263   -4.6953163    389.23197  0.058129027  0.059509634            3 
  559000    1.1615565   -4.6961377     391.1394  0.058309392    0.0594949            2 
  560000    1.1926644    -4.686771     392.8194  0.058455267    0.0594817            4 
  561000    1.1824543   -4.6649708    394.56814  0.058610834  0.059468518            7 
  562000     1.168267   -4.6470495    396.33248  0.058768161  0.059455823            4 
  563000    1.1612359   -4.6710387    395.42568  0.058529556  0.059443487            1 
  564000    1.1613828    -4.683672     396.0889  0.058523774  0.059430236            2 
  565000    1.1246999    -4.642544    396.06167  0.058416175  0.059416112            5 
  566000    1.1920345   -4.6797688    397.12105  0.058468941  0.059402179            3 
  567000    1.1605554   -4.6984716    396.26739  0.058240357  0.059387054            1 
  568000    1.1386833   -4.7171532    397.27038  0.058284974   0.05937157            1 
  569000    1.1512336    -4.733114    398.46999   0.05835823  0.059357054            2 
  570000    1.1829125   -4.7053856    398.52286  0.058263575  0.059341893            4 
  571000    1.1583865   -4.6356198     400.9208  0.058511501  0.059327911            3 
  572000    1.1639774   -4.7005673     401.3536  0.058472262  0.059313901            2 
  573000    1.1681481   -4.7122685    400.65558    0.0582687  0.059300348            1 
  574000    1.1743418   -4.7039311    403.76764  0.058618996  0.059287847            6 
  575000    1.1635486   -4.6621774    404.46817  0.058618575  0.059274936            1 
  576000    1.1359037   -4.6703271    404.81733  0.058567322  0.059262807            2 
  577000    1.1483501    -4.689489    403.91985  0.058336201  0.059250804            4 
  578000     1.162325    -4.719823    405.03392  0.058395894  0.059238757            3 
  579000    1.1619134   -4.7000768    406.31691  0.058479693  0.059226196            2 
  580000     1.176747   -4.7122118    405.94781  0.058325835  0.059214969            4 
  581000     1.168108   -4.6612975    408.89431  0.058648065  0.059204582            3 
  582000    1.1678833   -4.7375828    408.64354  0.058511389   0.05919378            2 
  583000    1.1890086   -4.6710932    411.68548  0.058845837  0.059182672            2 
  584000    1.1295377   -4.6748344    411.49738  0.058718233  0.059172759            4 
  585000    1.1714516    -4.672967    411.80143  0.058661173  0.059163654            5 
  586000    1.1682987   -4.6916807     412.5751  0.058671089  0.059154808            2 
  587000    1.1415817   -4.7380577    412.49707  0.058560062  0.059145048            2 
  588000    1.1386609   -4.7070883    414.25077  0.058709009  0.059135022            3 
  589000    1.1585807   -4.6975317     414.3942  0.058629626  0.059125585            1 
  590000    1.1535705   -4.6882527    414.46585  0.058540374  0.059115079            1 
  591000    1.1772257   -4.7047928    414.52469  0.058449618  0.059104578            4 
  592000    1.1286295   -4.7217815    413.45691  0.058200578  0.059092956            3 
  593000    1.1433249   -4.6969874    415.38717  0.058373689  0.059082389            2 
  594000    1.1253464   -4.7347091    413.56297  0.058019497  0.059071355            2 
  595000    1.1556951   -4.6725698    417.70902  0.058502664   0.05906049            1 
  596000    1.1885724   -4.7152774    417.57549  0.058385834  0.059050329            3 
  597000    1.1685943   -4.6959207    420.82177  0.058741174  0.059041838            1 
  598000    1.1744681   -4.7093712    420.93008  0.058658038  0.059032049            3 
  599000    1.1525187   -4.7035998    421.33862  0.058616948  0.059022553            3 
  600000    1.1741856   -4.6924065    421.50367  0.058542176   0.05901305            2 
  601000    1.1425253   -4.6543034    422.32969  0.058559302   0.05900402            3 
  602000    1.1844553   -4.6987515    421.77667  0.058385475   0.05899442            3 
  603000    1.1458788    -4.679519    423.06811  0.058467124  0.058985671            3 
  604000    1.1330331   -4.6878632    423.68363  0.058455248  0.058977664            4 
  605000    1.1445565   -4.7030946    427.94625  0.058945765  0.058969524            5 
  606000    1.1267928   -4.7149342    426.57121  0.058659407   0.05896152            3 
  607000    1.1331931   -4.7030956    427.01979  0.058624353  0.058952168            2 
  608000    1.1780594   -4.7343111    424.27768  0.058152094  0.058942138            1 
  609000    1.1434177   -4.7409632    426.12271  0.058309074  0.058932081            3 
  610000    1.1403585    -4.688364    426.55684  0.058272793  0.058921649            3 
  611000    1.1630889   -4.7172842    427.07166  0.058247635  0.058910808            2 
  612000     1.133292   -4.7076557    426.89683  0.058128653  0.058899951            2 
  613000    1.1534073   -4.7113355    428.72192  0.058281936  0.058888648            2 
  614000    1.1437565   -4.6834234    431.98057  0.058629284  0.058878225            1 
  615000    1.1425407   -4.7095033    430.62076  0.058349696  0.058867502            1 
  616000    1.1411894   -4.7109819    430.19851   0.05819785  0.058856825            2 
  617000    1.1439299   -4.7043477    432.12783  0.058364105  0.058845255            5 
  618000    1.1446128   -4.6814165    431.52525   0.05818841  0.058834678            4 
  619000    1.1600028   -4.7142128    430.88219  0.058007833  0.058824717            2 
  620000    1.1707528   -4.7202495    432.69664  0.058158151  0.058813736            1 
  621000    1.1394346   -4.7107155    431.97017  0.057967012  0.058803173            5 
  622000    1.1389068   -4.7295838     433.7561  0.058113089  0.058792194            2 
  623000    1.1535169   -4.6983865     434.7105  0.058147472  0.058781603            1 
  624000     1.157217   -4.7045288    434.63453  0.058044142  0.058770432            2 
  625000    1.1528517   -4.7271854    433.29085  0.057772113  0.058758527            3 
  626000    1.1341652   -4.7234133    435.02996  0.057911337  0.058747026            2 
  627000    1.1381465   -4.7174822    436.76103  0.058049047  0.058735839            2 
  628000    1.1716344   -4.7088637    438.62269  0.058203648  0.058725207            3 
  629000    1.1585341   -4.7223068    437.51721  0.057964654  0.058713722            3 
  630000    1.1498539   -4.7221457    438.61401  0.058017726  0.058702867            3 
  631000    1.1615621   -4.6907891    441.72001  0.058335977  0.058692771            2 
  632000    1.1475055   -4.6967124    441.29152  0.058187172   0.05868234            2 
  633000    1.1598367   -4.6919503    441.15352  0.058077083  0.058672259            3 
  634000    1.1515731   -4.7136316    443.60306  0.058307447  0.058661687            2 
  635000     1.152156   -4.6924107    444.05118  0.058274432  0.058651915            3 
  636000    1.1585513   -4.7662604    442.39555  0.057965875   0.05864203            2 
  637000    1.1464442   -4.6771743    446.64434  0.058430709   0.05863271            2 
  638000    1.1598214   -4.7135384    445.34241  0.058169071  0.058623608            2 
  639000    1.1513793   -4.6869683    446.48876  0.058227538  0.058615132            4 
  640000     1.131639   -4.7239429    445.94823  0.058066176  0.058605712            1 
  641000    1.1658699   -4.6899123    448.77016  0.058342454  0.058597319            6 
  642000    1.1721465   -4.6973708    447.81547  0.058127657  0.058589511            2 
  643000    1.1557285    -4.674182    451.35864  0.058496454  0.058581032            3 
  644000     1.157289   -4.7170223     450.3951  0.058280939  0.058573802            2 
  645000    1.1374604   -4.7212096    449.96653   0.05813521  0.058565216            3 
  646000    1.1427998   -4.7118488    451.28347  0.058215102  0.058557585            2 
  647000    1.1505301   -4.6839978    451.81467  0.058193544   0.05855003            2 
  648000    1.1550703   -4.7002727    454.18488   0.05840855  0.058543634            2 
  649000    1.1275037   -4.7003154    453.93368  0.058286297  0.058537824            4 
  650000    1.1569667   -4.7143562    454.22312  0.058233734  0.058530986            3 
  651000    1.1489227   -4.7394229    455.48717   0.05830609  0.058522952            1 
  652000    1.1392984   -4.6525359    458.67483  0.058624083  0.058516296            5 
  653000    1.1512934   -4.7252912    456.21086  0.058219864  0.058508961            2 
  654000    1.1507472    -4.730175    456.90038  0.058218703  0.058500713            2 
  655000    1.1372221   -4.7197519    454.91148  0.057876779  0.058492828            2 
  656000     1.148923   -4.6896574     460.8114  0.058538034  0.058485391            3 
  657000    1.1361208   -4.7393794    458.82088  0.058196458   0.05847772            6 
  658000    1.1348502   -4.6978197    458.91509  0.058119945  0.058469079            2 
  659000    1.1261723   -4.6964252     460.1258  0.058184851  0.058461649            2 
  660000    1.1240755   -4.7103294    461.48952  0.058268879  0.058452571            3 
  661000    1.1445152   -4.7015607    460.76504   0.05808939  0.058444996            2 
  662000    1.1239432   -4.7022507    462.21092  0.058183651  0.058436853            2 
  663000    1.1623479   -4.6908784    463.87763  0.058305383  0.058428676            2 
  664000    1.1554565   -4.7298401    463.39597  0.058157125  0.058420156            4 
  665000    1.1430886   -4.7516604    462.62384  0.057972912   0.05841049            4 
  666000    1.1566558   -4.7279384     463.0116  0.057934385  0.058400967            3 
  667000    1.1448955    -4.713248    463.90242  0.057958823  0.058391514            2 
  668000    1.1514577   -4.7006385    464.33336  0.057925819  0.058382033            3 
  669000    1.1542913   -4.7047724    464.53797   0.05786472  0.058372644            3 
  670000    1.1419766   -4.7215696     466.3784  0.058007263  0.058361964            2 
  671000    1.1528114   -4.7502667    464.61738  0.057702108  0.058350987            2 
  672000    1.1560852   -4.7187501    466.90048  0.057899365  0.058341337            5 
  673000    1.1757614   -4.7127694    467.09144  0.057836978  0.058331141            3 
  674000    1.1341628   -4.7019923    469.59409  0.058060595  0.058321911            2 
  675000    1.1118126   -4.7399079    467.61181  0.057729853  0.058311752            1 
  676000    1.1631282   -4.6988163    469.33091  0.057856374  0.058301619            2 
  677000    1.1459477   -4.7134021    471.37727  0.058022805  0.058292235            2 
  678000    1.1371137   -4.7128943    471.20447  0.057915988  0.058282659            1 
  679000    1.1690646   -4.7474011    472.05738  0.057935368  0.058272876            1 
  680000    1.1698414   -4.7027363    471.92055  0.057833401  0.058263661            1 
  681000     1.155437    -4.717236    472.96819  0.057876675  0.058254895            2 
  682000    1.1647928    -4.753822    472.98557  0.057793936  0.058245676            3 
  683000    1.1446823   -4.7066914    474.01388  0.057834782  0.058235937            1 
  684000    1.1496696   -4.7204054    476.02826  0.057995646  0.058226653            5 
  685000    1.1107689   -4.7139276    475.15478  0.057804718  0.058216286            4 
  686000    1.1634707   -4.7079501    475.41749  0.057752368  0.058205763            1 
  687000    1.1602317   -4.7127489    475.43919  0.057670935  0.058195949            2 
  688000    1.1331053   -4.7431172    475.71355  0.057620342   0.05818539            2 
  689000    1.1587038   -4.7512225    474.07977  0.057339112  0.058174658            5 
  690000    1.1378639   -4.7086208    478.15536  0.057748231  0.058164731            2 
  691000    1.1469608   -4.7263928    477.56128  0.057593015  0.058154834            4 
  692000    1.1460479   -4.7157527    479.22585  0.057710242  0.058145138            2 
  693000    1.0974403    -4.737998    481.22397   0.05786724  0.058135027            3 
  694000    1.1534949   -4.7182921    479.59993  0.057588848  0.058124914            2 
  695000    1.1597625   -4.7585367    479.90839  0.057542973  0.058113804            4 
  696000    1.1424446   -4.7140461    482.82015  0.057808926  0.058103548            1 
  697000    1.1474255   -4.7102437    481.50665  0.057568944  0.058093561            2 
  698000    1.1350555   -4.7307826    482.83823  0.057645443  0.058083861            3 
  699000    1.1427815    -4.715223    484.97971  0.057818277  0.058075067            2 
  700000     1.121453   -4.7079026    485.25648  0.057768629   0.05806465            2 
  701000     1.153753   -4.7152306    486.65252  0.057852177  0.058055093            3 
  702000    1.1273615   -4.7255006      484.322  0.057493115  0.058045105            2 
  703000    1.1618354   -4.7196572    485.80011  0.057586547  0.058034713            1 
  704000    1.1281931    -4.723456    487.25601  0.057677084  0.058024075            4 
  705000    1.1461109   -4.7478277    487.56321  0.057631585  0.058014591            3 
  706000    1.1554714   -4.7208828    487.32483  0.057521817  0.058005244            2 
  707000    1.1243496   -4.7193752    488.13635  0.057536109  0.057996086            2 
  708000    1.1414526    -4.746126    488.35125  0.057480138  0.057986873            2 
  709000    1.1547734   -4.7515137    489.30066  0.057510656  0.057976318            2 
  710000     1.137315   -4.7323802    489.64163  0.057469675  0.057966455            1 
  711000    1.1360434   -4.7373329    490.55255   0.05749561  0.057955895            6 
  712000    1.1356815   -4.7055801    492.40778  0.057631997  0.057946113            3 
  713000    1.1322029   -4.7221431    490.18482  0.057291353  0.057936359            2 
  714000    1.1481082   -4.7182523    493.14037  0.057556065  0.057925746            2 
  715000    1.1054229   -4.7269614     493.0131  0.057460734  0.057914734            1 
  716000    1.1215386    -4.721627     495.9499  0.057722289  0.057904599            2 
  717000    1.1275767   -4.7324049    494.06706   0.05742295  0.057894558            4 
  718000    1.1171831   -4.7454489    493.05596  0.057225622  0.057883547            3 
  719000     1.149564   -4.7290792     496.0763  0.057496094  0.057872441            3 
  720000    1.1360929   -4.7234204    497.88488  0.057625565  0.057862628            3 
  721000    1.1225283   -4.7504903    496.60548  0.057397767  0.057853024            3 
  722000    1.1119169   -4.7393304    498.20174  0.057502509  0.057843625            2 
  723000    1.1391699    -4.750496    497.35729  0.057325644  0.057834073            4 
  724000    1.1300322   -4.7066102     498.3345  0.057358944  0.057824876            4 
  725000    1.1278628   -4.7131727    501.03916  0.057590708  0.057816404            2 
  726000    1.1376477   -4.7105642    500.12941  0.057406957  0.057807749            1 
  727000    1.1312342   -4.7333677    503.27275  0.057688302   0.05779911            2 
  728000    1.1150164   -4.7358015    502.82656  0.057557985  0.057789657            2 
  729000    1.1247548   -4.7385662    502.16315  0.057403195  0.057780992            5 
  730000    1.1560696   -4.7101024    502.07984  0.057315051  0.057772741            3 
  731000    1.1340559   -4.7081816    504.81049  0.057547935  0.057763171            4 
  732000    1.1265983   -4.7463315    504.48393  0.057432141  0.057754574            4 
  733000    1.1571893   -4.7795316    502.39632  0.057116453  0.057745694            2 
  734000    1.1142125   -4.7007067    504.94108  0.057327553  0.057736797            5 
  735000    1.1206456   -4.7297334    507.32127  0.057519418  0.057727839            2 
  736000    1.1359884   -4.7415411    508.43219  0.057567051  0.057718194            3 
  737000    1.1372924   -4.7568904    507.01319  0.057328493  0.057709014            2 
  738000     1.119924   -4.7553431    506.37196  0.057178405  0.057699373            3 
  739000    1.1595745   -4.7600005    507.53001  0.057231621  0.057691212            3 
  740000    1.1053534   -4.6801677    511.09837  0.057556122  0.057683572            6 
  741000    1.1355999    -4.714533    512.01103  0.057581088  0.057675622            4 
  742000      1.13665   -4.7523099    514.03197  0.057730455  0.057668047            2 
  743000    1.1291757   -4.6798992    512.44261  0.057474496  0.057660461            5 
  744000    1.1354771   -4.7177224    514.22905   0.05759734  0.057652083            2 
  745000    1.1275485   -4.7454508    512.30811  0.057305158  0.057643863            3 
  746000    1.1275803   -4.7431556    514.59489   0.05748379  0.057636144            5 
  747000    1.1244848   -4.7111569    515.38917  0.057495445  0.057628313            3 
  748000    1.1678577   -4.7700545    515.87705  0.057472933  0.057620584            1 
  749000    1.1596937   -4.7268712    515.63556  0.057369332  0.057612619            3 
  750000    1.1457442   -4.7868834    514.64535  0.057182817  0.057604503            5 
  751000    1.1357334    -4.694373    517.93313  0.057471497  0.057596821            6 
  752000    1.1205047   -4.7346622    517.05417  0.057297669  0.057589003            6 
  753000    1.1335741   -4.6967757    519.93245  0.057540112  0.057581542            2 
  754000    1.1344608   -4.7172361    519.81672  0.057451008  0.057573755            4 
  755000    1.1422722   -4.7449754    518.60626  0.057241309  0.057565653            2 
  756000    1.1144092   -4.7399529     519.3196  0.057244224   0.05755736            3 
  757000    1.1299728   -4.7286441    521.96177  0.057459464  0.057549031            2 
  758000    1.1318891   -4.7412248    521.20523  0.057300487  0.057540485            3 
  759000    1.1295781   -4.7741825    521.36347  0.057242366   0.05753178            2 
  760000    1.1235467   -4.7411438    523.23328  0.057372071  0.057523103            2 
  761000    1.1075499   -4.7473432    522.17278   0.05718055  0.057514466            8 
  762000    1.1395701   -4.7768067    522.63757   0.05715634  0.057505468            2 
  763000    1.1364576   -4.7167529     523.8361  0.057212331  0.057496204            1 
  764000    1.1303818   -4.7580093    522.05562  0.056943239  0.057487181            2 
  765000    1.1642214   -4.7477176    524.45653  0.057130341  0.057477966            3 
  766000    1.1219543   -4.7615879    526.25839  0.057251783  0.057468813            2 
  767000    1.1364889   -4.7458275    525.14818  0.057056516  0.057459803            3 
  768000    1.1097023   -4.7227785    527.38859  0.057225324  0.057450967            2 
  769000    1.1457974    -4.777385    524.97338  0.056889182  0.057441924            4 
  770000    1.1339298   -4.7066015    527.38711  0.057076527  0.057432587            3 
  771000    1.1228607   -4.7486877    528.62359  0.057136142  0.057423913            3 
  772000    1.1635344   -4.7418336    528.66771  0.057066895  0.057415275            4 
  773000    1.1286518   -4.7521152     529.8703  0.057122715   0.05740601            3 
  774000    1.1467842   -4.7460411    528.86877  0.056941082  0.057397616            2 
  775000    1.1184382   -4.7665048    530.00235    0.0569895  0.057388601            2 
  776000    1.1509421   -4.7456152    531.09408  0.057033299  0.057379295            4 
  777000      1.16284   -4.7982743     530.0155  0.056844219  0.057369063            3 
  778000    1.1555164   -4.7241446    532.21741  0.057007006  0.057359563            3 
  779000    1.1124722   -4.7618746    532.29864  0.056942516   0.05735041            2 
  780000    1.1043862   -4.7506747    534.08961  0.057060856  0.057340834            7 
  781000    1.1237666   -4.7405614    533.58915  0.056934395  0.057331262            3 
  782000    1.1189821   -4.7475097    537.26621  0.057253432  0.057322183            3 
  783000    1.1067893   -4.7508835    537.81055  0.057238245  0.057312753            1 
  784000    1.1487443   -4.7605933    537.17114  0.057097272  0.057303638            2 
  785000    1.1449806   -4.7495875    536.26781  0.056928642  0.057295084            3 
  786000    1.1456198   -4.7374164    536.91233  0.056924547  0.057285888            2 
  787000    1.1375165   -4.7685573    538.88145  0.057060721  0.057276481            4 
  788000    1.1379538    -4.752008    539.30218  0.057032802  0.057267984            3 
  789000    1.1447982   -4.7307733    541.39177  0.057181218  0.057260099            8 
  790000    1.1364705   -4.7725802    540.83244  0.057049835  0.057251532            3 
  791000    1.1438771   -4.7651952    540.65012  0.056958504  0.057243157            9 
  792000    1.1333549   -4.7734958    540.82401  0.056904883  0.057234696            3 
  793000    1.1356604   -4.7347571    544.30576  0.057199008  0.057226587            4 
  794000    1.0921186   -4.7910262    541.83955  0.056868131  0.057217899            2 
  795000    1.1306898   -4.7641891    543.20462  0.056939687  0.057209198            3 
  796000    1.1417642   -4.7212296    546.22202  0.057184047  0.057200509            5 
  797000    1.1246205   -4.7655158    545.02869  0.056987525  0.057192922            3 
  798000    1.1247531   -4.7703278    543.20382  0.056725545  0.057184667            4 
  799000    1.1346742   -4.7384654    548.96284  0.057255198  0.057177372            2 
  800000    1.1276178   -4.7717734    548.64121  0.057150126  0.057170116            6 
  801000    1.0994463   -4.7792369    549.82332   0.05720176  0.057162982            2 
  802000    1.1194295   -4.7732402    548.53218  0.056996278  0.057155878            2 
  803000    1.1626621    -4.735627    550.81327  0.057162025  0.057149122            2 
  804000    1.1180941   -4.7495084     551.5405  0.057166304    0.0571421            1 
  805000    1.0941955   -4.7770862    551.54514   0.05709577  0.057135265            2 
  806000     1.134348   -4.7632252    552.49953  0.057123607  0.057128545            2 
  807000    1.1409715   -4.7545606    553.28324   0.05713375  0.057121744            6 
  808000    1.1232278   -4.7806918    552.17862  0.056949115  0.057115112            6 
  809000    1.1061038   -4.7448817    553.89462  0.057055482  0.057108653            2 
  810000    1.1059774   -4.7496385    557.57982  0.057364179  0.057102586            4 
  811000    1.1107899   -4.7896562    556.04513  0.057135751  0.057096553            2 
  812000    1.1194764   -4.7772507    554.90089  0.056947957  0.057089055            5 
  813000    1.1186821   -4.7334807    558.48752  0.057245544  0.057081825            6 
  814000    1.1001096    -4.784563    555.73335  0.056893258  0.057074702            4 
  815000    1.1322393   -4.7490055    558.90917  0.057148176  0.057066807            3 
  816000    1.1377966   -4.7310791    558.40514  0.057026668  0.057059461            5 
  817000    1.0988103   -4.7454911    559.32058  0.057050243  0.057052138            3 
  818000    1.1123288   -4.7814179     557.2974  0.056774389  0.057044759            3 
  819000    1.1183883   -4.7265596    560.30099  0.057010683  0.057037645            3 
  820000     1.149568   -4.7692373     559.4437  0.056854034  0.057029897            3 
  821000    1.1309297   -4.7737085    560.11176  0.056852594  0.057022274            6 
  822000    1.1366846   -4.8082321    560.43792  0.056816497  0.057014151            5 
  823000    1.1290737   -4.7719381    561.11671  0.056816192   0.05700665            7 
  824000    1.1170321   -4.7434885    563.59563   0.05699794   0.05699956            2 
  825000    1.1107329   -4.7462412    565.07613  0.057078396  0.056992425            4 
  826000     1.118025   -4.7720524    565.96942  0.057099417  0.056985042            7 
  827000     1.118163   -4.7688606    566.27873  0.057061541  0.056977654            6 
  828000    1.1330548   -4.7515927    565.16795  0.056880833   0.05697068            3 
  829000    1.1194168   -4.7804428    567.74682  0.057071453  0.056963857            3 
  830000    1.1336157    -4.724775    567.47242  0.056975142  0.056957136            2 
  831000    1.1251667   -4.7750953    569.17882  0.057077699  0.056950015            8 
  832000    1.1061898   -4.7448014    567.28729   0.05681964  0.056942522            6 
  833000    1.1261793   -4.7804839    569.70361  0.056993158  0.056935451            3 
  834000    1.1182779    -4.762581    570.61692  0.057016079  0.056928352            2 
  835000    1.1287717   -4.7841289    567.34212   0.05662097  0.056921337            3 
  836000     1.105458   -4.7504327    569.53188  0.056771519  0.056913938            4 
  837000    1.1019851   -4.7605557    570.11972  0.056762218  0.056906442            5 
  838000    1.1256122   -4.8140027    571.59543  0.056841232  0.056899108            3 
  839000    1.1257537   -4.7736272    570.73919  0.056688437  0.056891241            2 
  840000    1.1376191   -4.7540715     573.8419   0.05692876  0.056883969            2 
  841000    1.1133833   -4.7850045     575.4711  0.057022503  0.056876948            1 
  842000    1.1363263   -4.7295998    576.05434  0.057012503  0.056870331            2 
  843000    1.1167803   -4.7623846    575.45701  0.056885825  0.056862874            5 
  844000    1.1290362   -4.8237285    574.07208  0.056681682  0.056854674            2 
  845000    1.1175479   -4.7918666    574.70117  0.056676644  0.056847089            4 
  846000    1.1069468   -4.7448132    577.11646  0.056847563   0.05683995            4 
  847000     1.111226    -4.769773    578.33577   0.05690041  0.056833075            3 
  848000    1.1135477   -4.7666281    582.06102  0.057199392  0.056825882            2 
  849000    1.1157958   -4.7842897    579.21136  0.056852313   0.05681897            7 
  850000    1.0986463   -4.7789479    580.61965  0.056923495  0.056812498            3 
  851000    1.1313985   -4.7751515     578.9742  0.056695476  0.056806186            2 
  852000    1.1193442   -4.7797739    579.76065  0.056705853  0.056800002            2 
  853000    1.1183141   -4.8118259    581.13984  0.056774115  0.056794065            2 
  854000    1.0967941   -4.7628307     585.8186  0.057164188  0.056788531            5 
  855000    1.1394232    -4.791498    583.31191  0.056853013  0.056782493            2 
  856000    1.1380053   -4.7571593    586.23239   0.05707091    0.0567765            5 
  857000    1.1091283    -4.767279    585.67174  0.056949799   0.05677133            6 
  858000    1.1286621   -4.7682042    584.68365  0.056787456  0.056764946            2 
  859000    1.1007045   -4.7442754    588.86871  0.057127348  0.056758478            4 
  860000    1.1068041   -4.7750016    584.73332  0.056660205  0.056752421            5 
  861000    1.1062503   -4.7677176    586.68595  0.056783387  0.056746674            6 
  862000    1.1428412   -4.8130084     588.8671  0.056928374  0.056741452            4 
  863000    1.1117991   -4.7943563    588.06791  0.056785237  0.056735994            2 
  864000    1.1351577   -4.7870949    589.29806  0.056838161  0.056730127            2 
  865000    1.1234648   -4.7492979    591.84542  0.057017863  0.056724297            3 
  866000    1.1042298   -4.7514703    588.89004  0.056667632  0.056718487            3 
  867000    1.0973782   -4.7735673    591.11628  0.056816251  0.056713452            3 
  868000    1.1281545   -4.7996675    591.08903  0.056748179  0.056707423            1 
  869000    1.1089217    -4.774754    592.61091  0.056828818  0.056701881            3 
  870000    1.1101251   -4.8091904    591.95216  0.056700399  0.056695993            4 
  871000    1.0998501   -4.7998543    594.54091   0.05688298  0.056689765            3 
  872000    1.1287903   -4.7795232    593.59706  0.056727548  0.056684214            1 
  873000    1.0903196   -4.7685845    597.16671  0.057003313  0.056678263            2 
  874000    1.1411297   -4.7526808     596.7913  0.056902298  0.056672673            3 
  875000    1.1033305    -4.752951     597.2628  0.056882172  0.056667042            2 
  876000    1.1123584    -4.790044    595.29779  0.056630307  0.056661172            4 
  877000    1.1143637    -4.744679     598.9979  0.056917322  0.056655957            1 
  878000    1.1085798   -4.7465469    597.79852   0.05673866  0.056650172            2 
  879000    1.1088104    -4.796124    596.90932   0.05658981  0.056644273            3 
  880000    1.0661575   -4.7820413    600.53845  0.056869171  0.056637977            3 
  881000    1.1115715   -4.7375745    600.44158  0.056795458  0.056632214            1 
  882000    1.1247627   -4.7867736    599.12872  0.056607022  0.056626223            2 
  883000    1.0842157   -4.7847429    598.82667  0.056514409  0.056619948            3 
  884000    1.1090039    -4.766043    601.53212  0.056705517    0.0566138            3 
  885000    1.1086811   -4.7968851    602.46786  0.056729554  0.056607678            2 
  886000    1.1256135   -4.7883832      606.833  0.057076091  0.056601428            2 
  887000    1.1193019   -4.7871849    603.11998  0.056662907  0.056595804            4 
  888000    1.0983317   -4.7951117    603.75472  0.056658663  0.056589592            4 
  889000    1.1518313   -4.8161893    603.42324  0.056563859  0.056583382            5 
  890000    1.1137948   -4.7932388     604.3738  0.056589307  0.056576844            1 
  891000    1.1140868   -4.7348542    606.39657   0.05671498  0.056570415            2 
  892000    1.1174418   -4.7702832    606.02147  0.056616356  0.056564917            1 
  893000    1.1219971   -4.7841411     607.5327  0.056693981  0.056558875            2 
  894000     1.110984   -4.7914694    606.92681  0.056574088   0.05655242            8 
  895000    1.0672148   -4.7552243    609.35052  0.056736547  0.056546073            2 
  896000    1.1050021   -4.7602367    606.16886  0.056377312  0.056539601            3 
  897000    1.0900281   -4.8261178    606.74627  0.056368104  0.056533271            4 
  898000    1.1226068   -4.7609675    611.09632  0.056709012  0.056526425            2 
  899000    1.0897833   -4.7798511    609.59454  0.056506725  0.056519133            3 
  900000    1.1072914    -4.746198     610.9058  0.056565352  0.056513308            2 
  901000    1.0888896   -4.7574689    613.79999  0.056770255  0.056507399            2 
  902000    1.0897579   -4.7925841    613.58876  0.056687801  0.056501919            2 
  903000    1.1249824   -4.7824031    613.30674  0.056598998  0.056495997            2 
  904000    1.1212803   -4.7776365    616.07605  0.056791671   0.05648995            6 
  905000    1.1020928   -4.7540234    614.63675  0.056596386  0.056484583            3 
  906000    1.1011202   -4.8117514    613.40957  0.056421042  0.056478934            4 
  907000    1.1134193   -4.7746732    616.92607  0.056681925  0.056473433            2 
  908000    1.0932985   -4.8121056    618.07309   0.05672477  0.056468493            2 
  909000    1.1190986   -4.7691808    617.77736  0.056635255  0.056463925            2 
  910000    1.1002386   -4.7916418    619.05078  0.056689632  0.056459349            3 
  911000    1.0973698   -4.8190276    620.35257  0.056746485  0.056454524            3 
  912000    1.1047872   -4.7768461    621.37456  0.056777646  0.056449567            2 
  913000    1.0870374   -4.7956383    620.24786   0.05661262   0.05644479            2 
  914000    1.1058422   -4.8069091    620.25593  0.056551416  0.056439872           13 
  915000    1.0919318   -4.7687278     623.3159  0.056768297  0.056435032            2 
  916000     1.106218   -4.7445665    624.39988  0.056804938  0.056430246            3 
  917000    1.1204015    -4.768877    620.23406  0.056364418  0.056425235            6 
  918000    1.1070483   -4.7441827    626.74397   0.05689397  0.056420888            4 
  919000    1.1070116   -4.8010361    625.76928  0.056743678  0.056416675            2 
  920000    1.1243849   -4.7943608    626.55924  0.056753555  0.056412645            4 
  921000    1.1014936    -4.765253    627.19167  0.056749155  0.056407518            4 
  922000    1.1124688   -4.7914991    626.66617  0.056640109   0.05640269            2 
  923000    1.1080942   -4.7883294    629.04157  0.056793208  0.056397624            2 
  924000    1.0869369     -4.77189    628.68064  0.056699192  0.056393079            5 
  925000     1.108541   -4.8098036    627.76173  0.056555111  0.056388016            3 
  926000    1.1058499   -4.7682409    630.37163  0.056728909  0.056382821            2 
  927000    1.1364212   -4.8287579    628.53514  0.056502619  0.056377545            2 
  928000    1.0924436   -4.7742483    631.26906  0.056687236  0.056372718            4 
  929000     1.117095   -4.7622305    634.87287  0.056949486  0.056368225            3 
  930000    1.1039301   -4.7633671    630.84543  0.056527368  0.056363393            6 
  931000    1.1172683   -4.7999412    630.71902  0.056455336   0.05635801            7 
  932000    1.0887086   -4.7984126     632.3059  0.056536651  0.056352748            1 
  933000    1.0878592   -4.7779181     633.7408  0.056604216  0.056347737            1 
  934000    1.1323414   -4.7719722    633.05796  0.056482687   0.05634314            5 
  935000     1.107016   -4.7851045    635.22242  0.056615189  0.056338193            1 
  936000    1.1019593   -4.7867689    635.57719  0.056586289  0.056332846            4 
  937000    1.0768049   -4.7817701    633.50448  0.056341558   0.05632784            2 
  938000    1.1309142   -4.8021247     636.6356  0.056559666  0.056322458            3 
  939000    1.1038671      -4.7823     638.1885  0.056637247  0.056317442            3 
  940000    1.0917649   -4.8245435    637.46669  0.056513004  0.056311995            1 
  941000    1.1243007   -4.8059246     639.6623  0.056647388  0.056306894            6 
  942000    1.1132896   -4.7797445    640.51586  0.056662762  0.056301518            4 
  943000     1.091498   -4.7811415    640.05763   0.05656218  0.056296391            3 
  944000    1.0883502   -4.8026292    639.81456  0.056480805  0.056291005            2 
  945000    1.0888475   -4.8148918      640.995  0.056525132  0.056285317            4 
  946000    1.0861843   -4.7818722    640.90442  0.056457401  0.056279653            6 
  947000    1.1145882   -4.8208801     643.0973  0.056590751  0.056274335            4 
  948000    1.1143766    -4.779958    641.33494  0.056376138  0.056268668            1 
  949000    1.1011112   -4.7989406    641.05654  0.056292285  0.056262947            9 
  950000    1.0966673   -4.7970993    642.31275  0.056343224  0.056257502            3 
  951000    1.0902715   -4.8012691    643.00571    0.0563447  0.056251557            4 
  952000    1.1083568   -4.7954273    645.32248  0.056488313  0.056245984            2 
  953000    1.1216847   -4.7598986    646.78364  0.056556806  0.056240447            2 
  954000    1.1043054   -4.7707597    645.72565  0.056405106  0.056235223            3 
  955000    1.1009998   -4.7806657     645.9188  0.056362897  0.056229379            2 
  956000    1.0819115   -4.8048427    645.77726  0.056291602  0.056223436            5 
  957000    1.0833896   -4.7607992    649.32388  0.056541613  0.056218329            4 
  958000    1.1203772   -4.7937085    647.22129  0.056299695  0.056213367            5 
  959000    1.0729914   -4.7946857    651.61326  0.056622633  0.056207801            4 
  960000    1.0924649   -4.7775017    648.81867  0.056321065  0.056202405            4 
  961000     1.101528   -4.7797329    650.27573  0.056388808  0.056196612            3 
  962000    1.1080841   -4.8057847    650.28823  0.056331274  0.056190781            3 
  963000    1.1046188   -4.7739006    651.64665  0.056390329  0.056185341            5 
  964000    1.0970603   -4.7915526    650.56076  0.056237963  0.056179699            2 
  965000     1.089052   -4.7821776    651.71313  0.056279199  0.056173518            4 
  966000    1.1034642   -4.8053422     652.3803  0.056278494   0.05616674            6 
  967000    1.1223781   -4.7664913    650.75297  0.056080056  0.056160485            3 
  968000    1.0984022   -4.7916076    651.19636  0.056060292  0.056153801            4 
  969000     1.087849   -4.8078094    651.78811  0.056053329  0.056147333            3 
  970000    1.1091488   -4.7995012    653.87208  0.056174578  0.056140745            1 
  971000    1.0776626   -4.8111169    655.21218  0.056231736  0.056133995            6 
  972000    1.0781864   -4.7828363    656.01914  0.056243067  0.056127163            3 
  973000    1.1154035   -4.7722136    657.15352  0.056282419  0.056120802            2 
  974000    1.1170633   -4.8045454    657.99455  0.056296591  0.056115014            3 
  975000    1.1148438   -4.8140344    655.76479  0.056048273  0.056108422            2 
  976000    1.0858098   -4.7802648    656.86518    0.0560848  0.056102175            3 
  977000    1.0949126   -4.7684756    660.68809   0.05635347  0.056096339            2 
  978000    1.1154763   -4.8168161    661.12688  0.056333238  0.056090803            6 
  979000    1.0784817    -4.799417    660.12213  0.056190171  0.056085001            3 
  980000    1.0727471   -4.7948496    661.91797  0.056285542  0.056078663            1 
  981000    1.0792572   -4.8287133    660.30013  0.056090735  0.056072516            3 
  982000    1.1003608   -4.7879414    662.15099  0.056190681  0.056066992            7 
  983000    1.0771554   -4.8079566    659.87224  0.055940339  0.056061167            3 
  984000      1.08393   -4.8147189    662.07826  0.056070314  0.056055035            3 
  985000     1.086035   -4.8153618    663.70333  0.056150874  0.056048586            2 
  986000    1.0784053   -4.8391216    661.81472  0.055934307  0.056042162            2 
  987000    1.0756002       -4.863    661.03942  0.055812177  0.056035601            3 
  988000    1.0379499    -4.807149    662.46989   0.05587634  0.056028798            2 
  989000     1.095845   -4.7993717    666.58753  0.056166796  0.056022265            2 
  990000    1.1135597   -4.7461659    666.89651   0.05613607  0.056016171            4 
  991000    1.1006256   -4.8313939    664.53331  0.055880702  0.056010165            6 
  992000     1.093685   -4.7993407    669.12751  0.056210308  0.056003788            3 
  993000     1.110184    -4.812576    669.12348  0.056153364  0.055997673            2 
  994000    1.0952327   -4.8127507    667.96202  0.055999498   0.05599091            2 
  995000    1.0763203   -4.7868805    668.23354  0.055965958  0.055984056            3 
  996000    1.0885435   -4.8409404    669.29407    0.0559985  0.055977286            2 
  997000    1.0992366   -4.8231103    668.92895  0.055911814  0.055970909            3 
  998000    1.0947198   -4.7970065    669.99733  0.055945001   0.05596455            3 
  999000    1.0914772   -4.8341976    670.99799  0.055972471  0.055958071            2 
 1000000    1.0785816   -4.8344462    670.59781  0.055883151  0.055951331            3 
 1001000    1.0953974   -4.8276691    673.29882  0.056052183  0.055944556            3 
 1002000    1.0836702   -4.8257852    671.77776   0.05586974  0.055937685            2 
 1003000    1.1103999   -4.8036157    672.12744  0.055843091  0.055930673            2 
 1004000    1.0961864   -4.8363303    673.76661  0.055923524  0.055923853            3 
 1005000    1.0840287    -4.835096    672.46281  0.055759768  0.055916992            4 
 1006000     1.096102   -4.7907453    677.80568  0.056146925  0.055910623            3 
 1007000    1.0864168   -4.8421691    676.12301  0.055951921  0.055903852            2 
 1008000     1.097604   -4.8204513    674.69695  0.055778518  0.055897356            4 
 1009000    1.0886641   -4.8606893    673.45526  0.055620685   0.05589059            2 
 1010000    1.0853112   -4.8552666    676.73614  0.055836315  0.055883212            4 
 1011000    1.1061987   -4.8408475    678.23021  0.055904237  0.055876623            9 
 1012000    1.0814653   -4.8034358    676.68846  0.055722041  0.055869959            2 
 1013000    1.0756413   -4.8229628     677.7166  0.055751613  0.055863377            3 
 1014000    1.0722537   -4.8477613    676.61551   0.05560614  0.055856891            2 
 1015000    1.0827519    -4.804655    683.23062  0.056094468  0.055850558            3 
 1016000    1.0945146   -4.8175363    681.90399  0.055930446  0.055844139            2 
 1017000    1.0954038   -4.8006417    683.12925  0.055975848  0.055837902            3 
 1018000    1.0794984   -4.8135533    683.03453  0.055913108  0.055831501            5 
 1019000     1.068013   -4.8522997    680.48896  0.055650062  0.055824996            3 
 1020000    1.0836923   -4.8469572    683.35395  0.055829571  0.055818561            2 
 1021000    1.0969687   -4.8135122    686.06822  0.055996427  0.055811821            2 
 1022000    1.0788351   -4.8199984    684.39367  0.055805094  0.055805923            3 
 1023000    1.0749336     -4.83536    685.14118  0.055811435  0.055799693            5 
 1024000    1.0592139   -4.8261759     684.2389  0.055683504  0.055793513            2 
 1025000    1.0848936   -4.8346531    686.39373  0.055804369  0.055786796            3 
 1026000    1.1002852   -4.8719744     685.4607  0.055674196  0.055780095            6 
 1027000    1.0831454    -4.819116    689.14548  0.055918978  0.055773696            5 
 1028000    1.1019749   -4.7845343    690.14897  0.055945928  0.055767964            3 
 1029000    1.0946574   -4.8719836    686.48759  0.055595043  0.055761738            4 
 1030000    1.0761786   -4.8328217    688.91395  0.055737375  0.055755452            3 
 1031000    1.0966262   -4.8321274    690.45901  0.055808197  0.055748587            3 
 1032000    1.0559777   -4.8232057    691.11533  0.055807116  0.055741611            4 
 1033000    1.0997855   -4.8075707    691.61684  0.055793549  0.055734939            3 
 1034000    1.1126072   -4.8130235    687.98834  0.055447158  0.055727771            1 
 1035000    1.0920765   -4.8263532    692.48051  0.055755275  0.055720729            5 
 1036000    1.0835463   -4.8368811     693.0988   0.05575119  0.055713669            5 
 1037000    1.0895702   -4.8051695    692.73345  0.055668069  0.055706504            3 
 1038000    1.0831428   -4.8447495    691.87872  0.055545819  0.055699919            3 
 1039000    1.0794201   -4.8189262    695.76374  0.055803958  0.055693049            5 
 1040000    1.0960441   -4.8147768    695.95417  0.055765559  0.055686557            4 
 1041000    1.0934165   -4.8269767    697.04038  0.055798942  0.055679951            3 
 1042000    1.0919776   -4.8517495    694.86104    0.0555711  0.055673128            1 
 1043000    1.0888179   -4.8509863    694.61364  0.055498054   0.05566634            5 
 1044000    1.0906911   -4.8395653    697.01432   0.05563652  0.055659647            4 
 1045000    1.0956569   -4.8395007    697.90789  0.055654537  0.055652545            4 
 1046000    1.0706215   -4.8370264    696.66639  0.055502421  0.055645357            3 
 1047000    1.0753036   -4.8571063    694.14835  0.055248993  0.055637483            4 
 1048000    1.0675248   -4.8050729    700.71685  0.055718579  0.055629463            4 
 1049000    1.0949308     -4.84766    700.17754   0.05562262  0.055622282            3 
 1050000    1.0872542   -4.8276395    698.51923  0.055438034  0.055614838            4 
 1051000    1.1071621   -4.8372954      697.952  0.055340311  0.055606933            2 
 1052000    1.0883813    -4.847897    696.62087  0.055182261  0.055598751            3 
 1053000    1.0856243   -4.8187626    702.16394   0.05556853  0.055590391            4 
 1054000    1.0841316   -4.8193169     702.0613  0.055507693  0.055582253            3 
 1055000    1.0528303    -4.834402    700.91888  0.055364841   0.05557325            4 
 1056000     1.069721   -4.8429388     698.6963  0.055137018  0.055564194            3 
 1057000      1.06282   -4.8255691    698.11709   0.05503919  0.055555343            3 
 1058000    1.0845352    -4.847961    702.17101  0.055306475  0.055546809            3 
 1059000    1.0690981    -4.819753    700.43629  0.055117744  0.055538134            2 
 1060000    1.0743029   -4.8149611    702.01164  0.055189595  0.055529501            1 
 1061000    1.0731312   -4.8148085     702.2572  0.055156865  0.055520774            2 
 1062000    1.0826913   -4.8403944    703.18533  0.055177757   0.05551224            3 
 1063000    1.1184282   -4.8372939    702.60162  0.055080089  0.055503747            2 
 1064000    1.0684733   -4.8233421    705.42747  0.055249646  0.055495279            8 
 1065000    1.0457592   -4.8339539    704.90447  0.055156845  0.055487203            4 
 1066000    1.0638313   -4.8358925    706.45988  0.055226694  0.055479118            4 
 1067000    1.0678683   -4.8448263    708.28501   0.05531748  0.055470546            2 
 1068000    1.0713516   -4.8224475    709.22618  0.055339121  0.055462482            1 
 1069000    1.0715273   -4.7778398    708.35542  0.055219475  0.055454219            1 
 1070000    1.0612197   -4.8196535    709.38247  0.055247856  0.055446061            4 
 1071000    1.0873206   -4.8375539    708.74933  0.055147007  0.055437802            2 
 1072000     1.076663   -4.8353408    707.29221  0.054982292  0.055429502            4 
 1073000    1.0813454   -4.8323701    710.27246  0.055162508  0.055420934            4 
 1074000    1.0893168   -4.8363533    706.14114  0.054790591  0.055412314            3 
 1075000     1.077782   -4.8820204    705.75781  0.054709908   0.05540323            3 
 1076000    1.0759254   -4.8281553    708.61979  0.054880715  0.055394048            4 
 1077000    1.0664059   -4.8465823    709.09415  0.054866462   0.05538475            4 
 1078000    1.0867219   -4.8504722    707.99734  0.054730777  0.055375151            3 
 1079000    1.0855327   -4.8486371    711.97217  0.054987038  0.055366091            2 
 1080000    1.0531929   -4.8587285    712.05594  0.054942588   0.05535729            3 
 1081000    1.0713164   -4.8436595    713.55829  0.055007577  0.055348806            2 
 1082000    1.0740228   -4.8330526    712.98194  0.054912349  0.055339808            1 
 1083000    1.0976929   -4.8306159    714.55392  0.054982604  0.055330804            3 
 1084000    1.1023674   -4.8551018    711.44669  0.054693011  0.055321849            2 
 1085000    1.0691199   -4.8691914    712.47198   0.05472135  0.055312607            3 
 1086000    1.0920213   -4.8537379    715.70704  0.054919202  0.055303115            3 
 1087000    1.0714643   -4.8512093    712.66998  0.054635846  0.055293653            1 
 1088000     1.085066   -4.8595692    713.18692  0.054625224  0.055284297            2 
 1089000    1.0918303   -4.8325317     716.9086  0.054859856  0.055274594            4 
 1090000    1.0731011   -4.8166254    719.46111  0.055004672  0.055265075            4 
 1091000    1.0680296   -4.8436411    716.04023   0.05469296  0.055255949            2 
 1092000    1.0654294   -4.8162457    718.69711  0.054845628  0.055246621            2 
 1093000    1.0866828   -4.8022235    722.07561  0.055053035  0.055238364            2 
 1094000    1.0534405   -4.8583008    721.37106  0.054949045   0.05522985            4 
 1095000    1.0836301   -4.8639514    722.08712  0.054953357   0.05522133            2 
 1096000    1.0849304   -4.8041665    721.58124  0.054864754  0.055212429            2 
 1097000    1.0515148   -4.8725466    721.33708  0.054796193  0.055203342            5 
 1098000    1.0799636   -4.8382313      724.166   0.05496099  0.055194405            2 
 1099000    1.0537981   -4.8501055    722.42384  0.054778878  0.055185264            2 
 1100000    1.0609298   -4.8681201    720.41985  0.054577261  0.055175992            3 
 1101000    1.0718834   -4.8345529    723.70771  0.054776545  0.055167226            3 
 1102000    1.0588945   -4.8825711    724.43691   0.05478198  0.055158599            4 
 1103000    1.0620509   -4.8211149    725.97074  0.054848198  0.055150034            2 
 1104000    1.0629243   -4.8300301    729.85137  0.055091438  0.055141602            2 
 1105000    1.0578693   -4.8767452    728.10592  0.054909949  0.055133603            1 
 1106000     1.073244   -4.8382831    729.03979  0.054930665  0.055125556            3 
 1107000    1.0771463   -4.8265289    731.80771  0.055089409  0.055117829            1 
 1108000    1.0735963   -4.8147714    731.27376  0.054999531  0.055109569            5 
 1109000    1.0756022   -4.8673584    729.70082  0.054831742  0.055101033            2 
 1110000    1.0751222   -4.8424238    730.95071  0.054876179   0.05509297            5 
 1111000     1.085889    -4.845012      731.478  0.054866337  0.055084422            3 
 1112000    1.0798144   -4.8612558    731.34801  0.054807255  0.055076173            2 
 1113000    1.0837096   -4.8632645    730.57188  0.054699901  0.055067761            2 
 1114000    1.0628379   -4.8695928    729.82736  0.054595105  0.055059465            2 
 1115000    1.0832851   -4.8576862    732.56961  0.054751092  0.055051547            6 
 1116000    1.0723284   -4.8131684    734.78605  0.054867537  0.055043261            2 
 1117000    1.0948259   -4.8157106    736.73722  0.054963983  0.055035312            3 
 1118000    1.0668511   -4.8175374    733.68314  0.054687175  0.055027041            2 
 1119000    1.0813905   -4.8115744    736.95139  0.054881694   0.05501854            2 
 1120000    1.0651214   -4.8302623    737.69332  0.054887895  0.055010639            3 
 1121000    1.0615121   -4.8212727    737.53159  0.054826909  0.055001848            3 
 1122000    1.0669241   -4.8478141    735.56646   0.05463209  0.054993872            3 
 1123000    1.0706935   -4.8687175    739.00535  0.054838628  0.054985142            2 
 1124000    1.0565655   -4.8827437    736.26207  0.054586452  0.054976826            4 
 1125000    1.0559735   -4.8366545    741.16973  0.054901461  0.054968373            7 
 1126000    1.0805884   -4.8462809    738.77921  0.054675785   0.05496025            7 
 1127000    1.0618795   -4.8648047    738.68251  0.054620121   0.05495247            1 
 1128000    1.0645037   -4.8737928     740.6497  0.054717028  0.054944536            2 
 1129000    1.0774903   -4.8271072    743.28615  0.054863164  0.054936469            2 
 1130000    1.0432948   -4.8530659    742.88845  0.054785284  0.054928243            3 
 1131000    1.0511717   -4.8680352    739.36272  0.054477064  0.054920047            2 
 1132000    1.0439688   -4.8725167    738.48588   0.05436439  0.054911883            2 
 1133000    1.0775449   -4.8675916    740.05367   0.05443172  0.054903379            9 
 1134000    1.0789095   -4.8506713     742.6113  0.054571671   0.05489494            2 
 1135000    1.0585674   -4.8390846    742.56533  0.054520215  0.054886806            3 
 1136000    1.0405512   -4.8734933    745.87459  0.054714979  0.054878378            2 
 1137000    1.0777704   -4.8639911    741.03074   0.05431184  0.054869369            4 
 1138000    1.0791075   -4.8627588    745.55994  0.054595778  0.054860966            2 
 1139000    1.0929174   -4.8566901    748.15593  0.054737776    0.0548525            2 
 1140000    1.0756595   -4.8699763    748.63218  0.054724574  0.054844348            3 
 1141000     1.074791   -4.8732781    746.20118  0.054499064  0.054836441            1 
 1142000    1.0706372   -4.8833821    748.67826  0.054632097  0.054828738            2 
 1143000    1.0633697   -4.8825466    748.66899  0.054583624  0.054821101            2 
 1144000    1.0594192     -4.88556    749.33617  0.054584511  0.054813405            4 
 1145000    1.0598888   -4.8353799    751.47655  0.054692617   0.05480574            3 
 1146000    1.0872562   -4.8420602    752.50957  0.054720009  0.054797842            6 
 1147000    1.0983179   -4.8635928    750.36328  0.054516368  0.054790442            4 
 1148000    1.0704502   -4.8699885    752.59032   0.05463054  0.054782353            3 
 1149000    1.0679628   -4.8327361    753.12907  0.054622067  0.054774722            2 
 1150000    1.0676674   -4.8517868    753.43545  0.054596772   0.05476684            3 
 1151000    1.0525607   -4.8673136    754.35091  0.054615617  0.054758892            3 
 1152000    1.0720607   -4.8570085    755.06512  0.054619872  0.054751225            5 
 1153000    1.0737417   -4.8674399    756.39364   0.05466852  0.054743227            5 
 1154000    1.0774329   -4.8575618    756.71393  0.054644276  0.054735502            8 
 1155000    1.0636522   -4.8478768    754.81549  0.054459992  0.054728195            6 
 1156000    1.0615945    -4.874736    756.93906  0.054565965  0.054720196            4 
 1157000    1.0770525   -4.8750949    759.91909  0.054733441  0.054712193            6 
 1158000    1.0437553   -4.8841431    758.44163  0.054579852  0.054704262            2 
 1159000    1.0600204   -4.8688446    758.95852  0.054569925  0.054696445            4 
 1160000    1.0654364   -4.8566872    759.55179  0.054565502  0.054688591            2 
 1161000    1.0842425   -4.8733975    760.00768  0.054551226  0.054680652            2 
 1162000     1.066046   -4.8682359    760.08569  0.054509874  0.054673114            3 
 1163000    1.0575683   -4.8657792    761.31192  0.054550868  0.054665626            6 
 1164000    1.0857023   -4.8817352    763.18465  0.054638076  0.054658147            3 
 1165000     1.045787   -4.8907299    762.46127  0.054539433  0.054650929            2 
 1166000    1.0833229   -4.8754624    764.27489  0.054622277  0.054643657            3 
 1167000    1.0493596   -4.8593163    764.70986  0.054606531  0.054636086            4 
 1168000    1.0635747   -4.8810135    764.55612   0.05454881   0.05462862            3 
 1169000    1.0978089   -4.8851017    765.20723  0.054548562  0.054621189            4 
 1170000    1.0596562    -4.869391    766.33555  0.054582304  0.054613523            3 
 1171000    1.0563979   -4.8402052    768.17653  0.054666705  0.054605958            2 
 1172000       1.0774   -4.8365692    765.14331  0.054404388   0.05459858            4 
 1173000    1.0700125   -4.8971851    767.00412  0.054490205  0.054590645            2 
 1174000    1.0429802   -4.9043499    765.38822   0.05432909  0.054582908            3 
 1175000    1.0557576   -4.8824341    764.60727  0.054227466  0.054574703            2 
 1176000    1.0706008   -4.8611283     768.8531  0.054482221  0.054566618            4 
 1177000    1.0826691   -4.8204947    769.92491  0.054511817  0.054558976            3 
 1178000    1.0521493   -4.8912462    768.29266  0.054350075  0.054551668            8 
 1179000    1.0832646   -4.8476576    769.20358  0.054368362   0.05454394            4 
 1180000    1.0646018   -4.8769917    771.34885  0.054473789  0.054536129            2 
 1181000    1.0613556   -4.8535857    771.46688  0.054435992   0.05452868            9 
 1182000    1.0458993   -4.8711973    770.51169  0.054322595  0.054521449            2 
 1183000     1.049703   -4.8813944    771.74542  0.054363583   0.05451374            2 
 1184000    1.0771989   -4.9048208    773.12076  0.054414468  0.054506419            4 
 1185000    1.0544094   -4.8661297    775.51243  0.054536739  0.054498596            2 
 1186000    1.0685384   -4.8850692    771.48614  0.054207851  0.054490757            2 
 1187000    1.0445969   -4.8650589    772.24019  0.054215121  0.054482771            2 
 1188000    1.0768637   -4.8599417    775.70766  0.054412715  0.054474516            3 
 1189000    1.0913043   -4.8770116    775.81815  0.054374695  0.054466685            3 
 1190000    1.0607387   -4.8868193    773.98586   0.05420069    0.0544587            6 
 1191000    1.0709037   -4.8904918     773.5205  0.054122621  0.054450527            2 
 1192000    1.0484783   -4.8590971    777.15869  0.054331564  0.054442518            5 
 1193000    1.0431214   -4.9043546    776.19934  0.054219009  0.054434427            2 
 1194000    1.0854639   -4.9002054    774.03411  0.054022481  0.054426076            4 
 1195000    1.0367596   -4.9367141    775.40179  0.054072649  0.054417762            4 
 1196000    1.0892757   -4.8711455    776.60344  0.054111165  0.054409349            2 
 1197000    1.0528135   -4.9008243    776.60257  0.054065899  0.054400815            2 
 1198000    1.0825336   -4.8979834    778.04558  0.054121145  0.054392387            5 
 1199000    1.0412869   -4.8842438    776.36924  0.053959497  0.054383861            3 
 1200000    1.0752269   -4.8848862    779.88977  0.054159011  0.054375823            1 
 1201000    1.0497576   -4.8668317    779.53987  0.054089638  0.054367379            2 
 1202000    1.0576121   -4.8532738    779.79267  0.054062165  0.054358742            4 
 1203000    1.0623145   -4.8597211     780.0036  0.054031837  0.054350213            5 
 1204000     1.036099    -4.882793    779.70008  0.053965952  0.054341479            4 
 1205000    1.0607306   -4.8939665    779.65374  0.053917963  0.054332706            4 
 1206000    1.0666526   -4.8748729    782.27162  0.054054148  0.054323863            4 
 1207000    1.0481771   -4.8818586    781.67422  0.053968118  0.054315468            2 
 1208000    1.0517311   -4.8905075     779.8977   0.05380089  0.054306633            1 
 1209000    1.0545236   -4.8900159    783.55581  0.054008534  0.054297962            3 
 1210000     1.066342   -4.8856038    782.66981   0.05390288  0.054289246            2 
 1211000    1.0484415   -4.8810839    784.95721  0.054015773  0.054279946            6 
 1212000    1.0510011   -4.8900282    782.38558  0.053794388  0.054271235            3 
 1213000    1.0560629   -4.8663546    786.34496   0.05402205  0.054262537            2 
 1214000    1.0711978   -4.8850062    783.86988  0.053807652  0.054253812            3 
 1215000    1.0537721   -4.9006051    786.63012  0.053952683  0.054245054            2 
 1216000    1.0428079   -4.8934603     784.4543  0.053759203  0.054235898            2 
 1217000    1.0446833   -4.8941399    785.96636  0.053818567  0.054227126            4 
 1218000    1.0518263   -4.8549062    790.05272  0.054053962  0.054218627            1 
 1219000     1.049537   -4.8702648    788.20092  0.053883027    0.0542102            2 
 1220000    1.0434285   -4.8654937    791.59317  0.054070572  0.054202238            3 
 1221000    1.0425004   -4.8857583    790.71641  0.053966449   0.05419389            2 
 1222000     1.060935    -4.867867    790.62931  0.053916347  0.054185444            6 
 1223000    1.0629794   -4.8601469    789.42161  0.053789971  0.054176806            3 
 1224000    1.0498167   -4.8742205      792.663  0.053966708  0.054168826            5 
 1225000    1.0729095   -4.8743014    794.81309  0.054068918  0.054160882            3 
 1226000    1.0627036   -4.8875955    794.99394  0.054037108  0.054152873            1 
 1227000    1.0368394   -4.8990097    793.78408  0.053910899  0.054144602            4 
 1228000    1.0739143   -4.9010565    795.49207  0.053982904  0.054136381            1 
 1229000    1.0403234   -4.8848811    795.90988  0.053967309  0.054128187            2 
 1230000    1.0741231   -4.9103667    795.90059  0.053922805  0.054120318            3 
 1231000    1.0450001   -4.8889826    797.10082  0.053960251  0.054112432            3 
 1232000    1.0499634   -4.8677777    800.70182  0.054160026  0.054104707            4 
 1233000    1.0818976   -4.8699049    800.43363  0.054097975  0.054097233            5 
 1234000    1.0607981   -4.9009542    797.82414  0.053877913  0.054089944            2 
 1235000    1.0488424      -4.9034    800.65737  0.054025463  0.054082296            1 
 1236000    1.0573503   -4.9018519    801.48765  0.054037732  0.054074708            2 
 1237000    1.0677588   -4.8613009    802.37643  0.054053923  0.054066963            4 
 1238000    1.0449637   -4.8576804    801.93819  0.053980761  0.054059229            2 
 1239000    1.0456622   -4.8661339    802.40925  0.053968876  0.054051346            3 
 1240000    1.0623739   -4.9059306     800.2044  0.053777178  0.054043507            2 
 1241000    1.0536527     -4.90223    802.19784  0.053867704  0.054036115            5 
 1242000     1.046656   -4.9095342    802.74598   0.05386111  0.054028396            3 
 1243000    1.0560994   -4.8824011    803.62619   0.05387679  0.054020689            8 
 1244000    1.0660988   -4.8643188    804.60518  0.053899061   0.05401293            3 
 1245000    1.0463353   -4.8809397    807.89519  0.054075983  0.054005683            6 
 1246000    1.0857673   -4.8852321    806.26516  0.053923566  0.053998434            3 
 1247000    1.0400163   -4.9123062    805.77549    0.0538476  0.053991021            3 
 1248000      1.07155   -4.8630044    810.59758  0.054126441  0.053983481            2 
 1249000    1.0541978   -4.8747142    807.73522  0.053892128   0.05397588            3 
 1250000    1.0449802   -4.8912938    807.31781  0.053821187   0.05396847            5 
 1251000    1.0524281   -4.8806839    810.21489  0.053971149  0.053960842            3 
 1252000    1.0403473   -4.8770872    809.69107  0.053893175  0.053953452            4 
 1253000    1.0541059   -4.8951883    810.12939  0.053879316  0.053946092            5 
 1254000    1.0488982   -4.9200693    811.94677  0.053957122  0.053938708            5 
 1255000    1.0751249   -4.8641194    812.31186  0.053938371  0.053931601            3 
 1256000    1.0632468   -4.9154075    810.98073  0.053807108  0.053924226            2 
 1257000    1.0418588   -4.9080369    811.65728  0.053809154  0.053916682            2 
 1258000    1.0439581   -4.8464356    815.32185  0.054009132  0.053909733            2 
 1259000    1.0663202   -4.8968565    813.59659  0.053852038  0.053902622            3 
 1260000    1.0512047   -4.8899932    818.63255  0.054142364  0.053895945            2 
 1261000    1.0683656   -4.8830133    815.92382  0.053920422  0.053888941            3 
 1262000    1.0581787   -4.9103161    811.46071  0.053582984  0.053882037            3 
 1263000    1.0406825   -4.9031079    815.31566   0.05379491  0.053874675            2 
 1264000     1.043254   -4.8991135    818.17809  0.053941066  0.053867398            3 
 1265000    1.0471305   -4.8533148    819.21466   0.05396671  0.053860627            5 
 1266000    1.0440889   -4.8760935    818.63244  0.053885758  0.053853752            6 
 1267000    1.0505446   -4.9013645    818.87718  0.053859325  0.053846671            5 
 1268000    1.0342053   -4.9003866    818.77505  0.053810137  0.053839678            2 
 1269000    1.0328238   -4.8808168    820.69912  0.053894084  0.053833072            4 
 1270000    1.0509486    -4.898116    820.88633  0.053863933  0.053826357            2 
 1271000    1.0682676   -4.8989892    820.93981  0.053825059  0.053819316            5 
 1272000    1.0502514   -4.8872634    822.15351  0.053862258  0.053812589            2 
 1273000    1.0581829   -4.8978625     823.3571  0.053898736  0.053805949            3 
 1274000    1.0609568   -4.8913914    822.34609  0.053790299  0.053799407            2 
 1275000    1.0667453   -4.8796761    826.80828  0.054039757  0.053793082            2 
 1276000    1.0588375   -4.9042152    827.00061  0.054009966  0.053786445            2 
 1277000    1.0527627   -4.9401725     824.8914  0.053830032  0.053779831            5 
 1278000     1.053184   -4.8729792    827.63123  0.053966564  0.053772932            4 
 1279000     1.030809   -4.8901921    828.10186  0.053955034  0.053766372            1 
 1280000    1.0350126   -4.8736322    827.65106  0.053883533  0.053759653            2 
 1281000    1.0547188   -4.8520434    829.38886  0.053954518  0.053752763            3 
 1282000    1.0624316   -4.8955369    825.38268   0.05365202  0.053745823            5 
 1283000    1.0338245   -4.8909462    827.89986  0.053773698  0.053738619            4 
 1284000    1.0354056   -4.9113073    827.09847  0.053679807  0.053731669            2 
 1285000    1.0459967   -4.9268065    825.21272   0.05351574  0.053724536            2 
 1286000    1.0458306   -4.9032111    832.26964  0.053931418  0.053717372            2 
 1287000    1.0320365   -4.8558848    830.83772  0.053796796  0.053710326            1 
 1288000    1.0560045    -4.913422    827.55863  0.053542872  0.053703109            3 
 1289000    1.0435299   -4.8961003    831.84202  0.053778253  0.053695908            2 
 1290000    1.0504626   -4.8792063    832.83809   0.05380091  0.053688597            4 
 1291000     1.048542    -4.901672    828.74827  0.053495241  0.053681199            4 
 1292000    1.0310381   -4.9187201     828.0098  0.053406205  0.053673356            4 
 1293000    1.0316917    -4.905514    829.37829  0.053453099  0.053665602            4 
 1294000    1.0575832   -4.8887035    829.48342  0.053418561  0.053657615            2 
 1295000    1.0402267   -4.9329467    828.36791  0.053305529  0.053649308            2 
 1296000    1.0427371   -4.9408974    830.92125  0.053428578  0.053640997            2 
 1297000    1.0604709   -4.9114831    832.98084  0.053519715   0.05363283            1 
 1298000    1.0515687   -4.8887298    832.54647  0.053450595  0.053625099            3 
 1299000    1.0384911   -4.8980197    832.98482  0.053437569  0.053617113            2 
 1300000    1.0301847   -4.9088922    833.96129  0.053459057  0.053609415            3 
 1301000    1.0400135   -4.9482784    832.20091  0.053305208  0.053601432            6 
 1302000    1.0546916   -4.8923134    835.89984  0.053501014  0.053593544            6 
 1303000    1.0534944   -4.9313793    830.95321  0.053143592  0.053585221            3 
 1304000    1.0285633   -4.9358961    836.28755  0.053443734  0.053576957            2 
 1305000    1.0446956   -4.9185088     832.6205  0.053168614  0.053568743            3 
 1306000     1.017267    -4.904798    834.23519  0.053230934  0.053560443            2 
 1307000    1.0329054   -4.9380575    833.63241  0.053151773  0.053551871            5 
 1308000    1.0485853   -4.9188592    836.21311  0.053275555  0.053542963            2 
 1309000    1.0336314   -4.8736142     837.9818  0.053347454  0.053534377            3 
 1310000    1.0320089   -4.9039863    838.24759  0.053323638  0.053526162            2 
 1311000     1.029448   -4.9171523    839.35925  0.053353626  0.053517561            3 
 1312000    1.0379338   -4.8946235    837.54219  0.053197548  0.053509026            3 
 1313000    1.0333277    -4.921771    836.71777  0.053104707  0.053500291            3 
 1314000    1.0486259   -4.9343068    837.87324  0.053137572  0.053491489            4 
 1315000     1.034303   -4.9170508    837.27798  0.053059441  0.053482495            2 
 1316000    1.0478142    -4.918224    838.24586  0.053080411  0.053473615            2 
 1317000    1.0655656   -4.9199362    838.84632  0.053078102  0.053464611            3 
 1318000    1.0363195   -4.9333561    839.79351  0.053097718  0.053455577            2 
 1319000    1.0486565   -4.8813306      838.455  0.052972896  0.053446634            2 
 1320000     1.058839   -4.9568691    841.68983  0.053136984    0.0534377            3 
 1321000    1.0361805   -4.9298963     841.0394  0.053055728  0.053428745            3 
 1322000    1.0202631   -4.8775543    844.49763  0.053233587   0.05341992            3 
 1323000    1.0459408   -4.9182978    842.94449  0.053095521  0.053411191            2 
 1324000    1.0295071   -4.9230103    843.82058   0.05311056  0.053402479            3 
 1325000    1.0469294   -4.9495725    839.79582  0.052817347  0.053393525            1 
 1326000    1.0246041   -4.8797789     843.1561  0.052988694  0.053384247            4 
 1327000    1.0479028   -4.8826676    844.15468  0.053011472  0.053375461            1 
 1328000    1.0615286   -4.9060008    843.06493  0.052903171  0.053366605           10 
 1329000    1.0270068   -4.8983803    848.99163  0.053234991  0.053357862            1 
 1330000    1.0450078   -4.9175631    848.50219  0.053164298  0.053349369            3 
 1331000    1.0491984   -4.8871131    847.70248  0.053074285  0.053340865            3 
 1332000    1.0323382    -4.921024    848.30192  0.053071942   0.05333242            2 
 1333000    1.0266366   -4.9534769    845.78007  0.052874473  0.053323311            3 
 1334000    1.0244494   -4.9432781      849.264  0.053052474   0.05331443            5 
 1335000    1.0614535   -4.9307304    847.50983  0.052903235  0.053305607            3 
 1336000     1.039057   -4.9134345    851.80376  0.053131472  0.053296658            2 
 1337000    1.0519395   -4.8965546     852.2851  0.053121734  0.053288144            2 
 1338000    1.0375861   -4.9173715    851.20968  0.053015052  0.053279451            3 
 1339000    1.0749572    -4.911372    850.63022  0.052939396  0.053270721            3 
 1340000     1.036754   -4.9400396     849.4431  0.052826064   0.05326221            3 
 1341000    1.0303496   -4.9049762    857.11662  0.053263524   0.05325377            4 
 1342000    1.0446728   -4.9435743    853.77483  0.053016321  0.053245215            4 
 1343000    1.0164518   -4.9008494    855.78878  0.053101811  0.053236724            6 
 1344000     1.029299   -4.9194409    853.42131  0.052915508  0.053228307            2 
 1345000     1.021325   -4.9406398    855.27611  0.052991085  0.053219963            4 
 1346000    1.0285789   -4.9039438    854.41907  0.052898655  0.053211417            3 
 1347000    1.0513037   -4.9050903    858.70366  0.053124453  0.053202953            3 
 1348000    1.0276909   -4.9177028    856.52825  0.052950559   0.05319474            4 
 1349000     1.049143   -4.9195839    855.63836  0.052856335  0.053186365            5 
 1350000    1.0183803    -4.905661    855.81243  0.052827928  0.053177878            2 
 1351000    1.0448218   -4.9312227    855.40403  0.052763634  0.053169191            6 
 1352000    1.0443259   -4.9409423    857.69189  0.052865625  0.053160623            3 
 1353000    1.0443315    -4.949279    856.84928  0.052774654  0.053152085            3 
 1354000    1.0194212   -4.8999334    861.97073  0.053050882  0.053143677            2 
 1355000    1.0389107   -4.8773183    862.99735  0.053074868  0.053135359            4 
 1356000    1.0448259   -4.9210395    859.45701  0.052818154  0.053126881            4 
 1357000    1.0104547   -4.8978225    861.30097  0.052892469  0.053118646            2 
 1358000    1.0315605   -4.9319941    864.27786  0.053036197   0.05310999            3 
 1359000    1.0432985   -4.9071406     862.9806  0.052917623  0.053101772            5 
 1360000    1.0172976   -4.8767811    863.95476  0.052938404  0.053093542            3 
 1361000    1.0343745   -4.9363585    861.48287  0.052748155   0.05308546            4 
 1362000    1.0154921   -4.9184142    862.29599  0.052759177  0.053076808            2 
 1363000     1.010865   -4.9108247    864.41483  0.052850014  0.053068276            2 
 1364000    1.0261936   -4.9376683    862.92842  0.052720456   0.05305994            4 
 1365000    1.0561898   -4.8785738    869.14296  0.053061231  0.053051342            3 
 1366000    1.0088048   -4.9179521    864.25031  0.052723909  0.053043358            4 
 1367000    1.0406819   -4.9351775    865.10622  0.052737516  0.053035314            4 
 1368000    1.0241845   -4.9451007    867.03661  0.052816558  0.053026913            2 
 1369000    1.0478025   -4.9585321    865.03033  0.052655851   0.05301843            4 
 1370000    1.0427921   -4.9476733    868.08862  0.052803444  0.053010455            2 
 1371000    1.0353314   -4.9441146    869.72574  0.052864438  0.053001893            2 
 1372000    1.0629905   -4.9308472    868.64679  0.052760374  0.052993996            2 
 1373000    1.0231224   -4.9611466    867.43113  0.052648163  0.052985703            5 
 1374000    1.0270687   -4.9097424    869.66475  0.052745315  0.052977487            2 
 1375000    1.0212053   -4.9412282     869.5094  0.052697539  0.052969181            4 
 1376000    1.0315141   -4.9355954    872.91054  0.052865222  0.052961047            2 
 1377000    1.0203236    -4.924795    874.35507   0.05291425  0.052953086            3 
 1378000    1.0304554   -4.9238223    874.44599  0.052881349  0.052945315            2 
 1379000    1.0461612   -4.9544348    873.48764  0.052785088  0.052937676            3 
 1380000    1.0315849   -4.9345689    871.51963  0.052627997  0.052930105            3 
 1381000    1.0315266   -4.9555619     873.3735  0.052701756  0.052921998            3 
 1382000     1.065147    -4.920616    875.44918  0.052788783  0.052914364            5 
 1383000    1.0357626   -4.9492583    875.62282  0.052761076  0.052906312            6 
 1384000    1.0006784   -4.9449535    876.61367  0.052782615  0.052898187            2 
 1385000    1.0483938   -4.9360691    878.37431   0.05285044  0.052890253            3 
 1386000    1.0191775   -4.9318281    874.99533  0.052609147  0.052882085            4 
 1387000    1.0251623   -4.9511085    875.39649  0.052595319  0.052873886            2 
 1388000    1.0376074   -4.9552999    875.09692   0.05253944  0.052865698            3 
 1389000    1.0252456   -4.9198344    877.87059  0.052668022  0.052857447            3 
 1390000    1.0293727   -4.9684896    875.76436  0.052503859  0.052849309            2 
 1391000    1.0511079   -4.9197816    879.99917  0.052719816  0.052841039            2 
 1392000    1.0153938   -4.9165419    876.91953  0.052497577  0.052832679            3 
 1393000    1.0566814   -4.8902429    881.24757  0.052718806  0.052824344            7 
 1394000    1.0326473      -4.9456     879.4516  0.052573625  0.052815723            3 
 1395000    1.0257752   -4.9175449    880.36096   0.05259026  0.052807251            3 
 1396000    1.0283592   -4.9292707    878.97391  0.052469789  0.052798695            4 
 1397000    1.0154053   -4.9383774    880.02115    0.0524947  0.052790421            3 
 1398000     1.030491   -4.9468474    878.81681  0.052385361  0.052782121            4 
 1399000    1.0192486   -4.9525254    875.83194  0.052170118  0.052773268            3 
 1400000    1.0411047   -4.9942558     881.7349   0.05248422  0.052764555            5 
 1401000    1.0079373   -4.9239372    882.91344  0.052516859  0.052755983            3 
 1402000    1.0248759   -4.9622707    882.48719  0.052454065  0.052747468            4 
 1403000     1.028772   -4.9435167    884.65566  0.052545477  0.052739033            3 
 1404000    1.0362913   -4.9423053    880.78327  0.052278209  0.052730111            6 
 1405000     1.025097   -4.9353915    882.76254  0.052358395  0.052721135            1 
 1406000    1.0346857   -4.9664373    882.45347  0.052302837  0.052711991            2 
 1407000    1.0411544   -4.9414618    885.66524  0.052455889  0.052702914            2 
 1408000    1.0370501   -4.9434042    883.51141  0.052291158   0.05269425            4 
 1409000    1.0320514   -4.9026536    888.42396  0.052544592  0.052685527            2 
 1410000    1.0296164   -4.9403733    884.01146   0.05224654  0.052676728            5 
 1411000    1.0046767   -4.9010888     890.9447  0.052618988  0.052668019            2 
 1412000    1.0239466   -4.9291133    884.86387  0.052222844  0.052659185            1 
 1413000    1.0081776   -4.9711857    884.74871  0.052179094  0.052650397            5 
 1414000    1.0134215   -4.9622352    883.82912  0.052087996  0.052641424            3 
 1415000    1.0167305   -4.9675581    884.61203  0.052097293  0.052632288            4 
 1416000     1.041585   -4.9370782    890.64986  0.052415835  0.052623355            5 
 1417000   0.99766227   -4.9251858    892.61502  0.052494414  0.052614727            2 
 1418000    1.0264913   -4.9287862    890.44804  0.052330045  0.052606338            2 
 1419000    1.0457403   -4.9474858    890.02749  0.052268469   0.05259782            3 
 1420000    1.0197763   -4.8899749    893.65327  0.052444441   0.05258936            2 
 1421000   0.98751711   -4.9259024    892.74253  0.052354125  0.052581086            2 
 1422000    1.0100627    -4.926822    895.08782  0.052454748  0.052572398            2 
 1423000    1.0226334   -4.9212474    893.82117  0.052343709  0.052563933            3 
 1424000    0.9892461   -4.9231109    894.28293  0.052333973  0.052555326            2 
 1425000    1.0247657   -4.9675886    890.75214  0.052090768  0.052546583            5 
 1426000    1.0287403   -4.9691423    898.97729  0.052534905  0.052538065            3 
 1427000   0.99715217   -4.9203424    897.44572   0.05240865  0.052529722            3 
 1428000    1.0128605   -4.9290633    895.54014  0.052260746  0.052521525            3 
 1429000     1.022872   -4.9183226    896.45378  0.052277454  0.052512957            1 
 1430000    1.0085006   -4.9492234    895.23864  0.052170084  0.052504732            2 
 1431000    1.0239043   -4.9401507    899.16112   0.05236205  0.052496374            3 
 1432000    1.0227492   -4.9656227     900.3334  0.052393704  0.052487994            4 
 1433000    1.0273373   -4.9168494    900.52559  0.052368318  0.052479769            5 
 1434000    1.0485154   -4.9333866    901.51204  0.052389123  0.052471719            4 
 1435000    1.0193011   -4.9358762    902.15887  0.052390178  0.052463596            3 
 1436000    1.0362224   -4.9553184    901.80081  0.052332916  0.052455295            4 
 1437000    1.0304437   -4.9327759    901.39955  0.052273228  0.052447065            3 
 1438000    1.0329267   -4.9592829     901.8714  0.052264221  0.052438835            2 
 1439000    1.0066354   -4.9886881    899.86204  0.052111538  0.052430534            3 
 1440000    1.0237688   -4.9255376    903.87047  0.052307319  0.052422376            2 
 1441000    1.0337716   -4.9705844    898.92224  0.051984863  0.052413979            3 
 1442000    1.0235876   -4.9653158      901.766  0.052113153  0.052405482            6 
 1443000    1.0345441   -4.8912107    905.83207  0.052311855  0.052397218            4 
 1444000    1.0040897   -4.9736926    903.45316   0.05213834   0.05238888            3 
 1445000    1.0176496   -4.9295685    908.26715  0.052379882  0.052380537            2 
 1446000    1.0230341   -4.9549373    903.32081  0.052058599   0.05237203            3 
 1447000    1.0127983   -4.9378122    905.62885  0.052155543  0.052363599            2 
 1448000    1.0369755   -4.9548393    902.39056  0.051933158  0.052355014            4 
 1449000    1.0127445   -4.9513364    908.94013  0.052273989  0.052346457            4 
 1450000    1.0240154   -4.9210464    906.37537  0.052090538  0.052338349            2 
 1451000    1.0232287   -4.9660724    907.98068  0.052146835  0.052329959            1 
 1452000    1.0149404   -4.9603832    905.20707  0.051951737  0.052321544            4 
 1453000    1.0308927   -4.9782157     907.0473  0.052021524  0.052313351            3 
 1454000    1.0290047   -4.9643163    909.74816  0.052140541  0.052304711            3 
 1455000     1.009511   -4.9488825    910.43483  0.052144034  0.052296202            4 
 1456000    1.0157986   -4.9659109    907.98316  0.051967901  0.052287597            5 
 1457000    1.0173124   -4.9577664    907.47902  0.051903398  0.052279084            3 
 1458000     1.019135   -4.9829023    908.92932  0.051950693  0.052270292            5 
 1459000    1.0316726   -4.9601176    909.23361  0.051932466  0.052261684            3 
 1460000    1.0395131   -4.9551574    908.86962   0.05187612  0.052253022            3 
 1461000    1.0113557   -4.9482642    912.38555  0.052041156  0.052244592            5 
 1462000    1.0378535   -4.9650156    911.41711   0.05195036  0.052235835            4 
 1463000   0.99944429    -4.990185    908.90446  0.051771728  0.052226808            5 
 1464000    1.0257482   -4.9593305     910.5749  0.051831449  0.052218047            4 
 1465000   0.99956276   -4.9367958    917.31571  0.052179506  0.052209121            2 
 1466000    1.0182618   -4.9662393    913.13888  0.051906485  0.052200385            2 
 1467000    1.0073378   -4.9353386    916.60949  0.052068251  0.052191436            4 
 1468000    1.0157755   -4.9677565    916.84832   0.05204634  0.052182833            4 
 1469000    1.0004775   -4.9496417    915.05446  0.051909148  0.052174296            2 
 1470000    1.0253749   -4.9847111    913.92118   0.05180959  0.052165483            4 
 1471000    1.0220613   -4.9721964    915.59459   0.05186917  0.052157088            2 
 1472000    1.0306677    -4.950392      914.627  0.051779155  0.052148253            1 
 1473000    1.0115241   -4.9549122    915.88827  0.051815358  0.052139464            8 
 1474000    1.0066148   -4.9473553    921.67835   0.05210755  0.052131268            2 
 1475000   0.98898214    -4.946342    920.96081  0.052031684  0.052123041            3 
 1476000    1.0389499   -4.9402433    921.28914  0.052014969  0.052115269            4 
 1477000    1.0107507   -4.9644398    920.52598  0.051936695  0.052107233            2 
 1478000   0.99703574   -4.9434691    921.94343  0.051981474  0.052098996            2 
 1479000     1.011664   -4.9581807    919.63574  0.051816303  0.052090719            4 
 1480000    1.0215883   -4.9734126    921.32086  0.051876175   0.05208217            3 
 1481000    1.0263402   -4.9645506    924.41979  0.052015518  0.052073913            3 
 1482000    1.0099594   -4.9701359    923.42692   0.05192459  0.052065764            2 
 1483000     1.036076   -4.9493304    920.57001  0.051729041  0.052057384            5 
 1484000    1.0294995   -4.9320257    923.29993   0.05184748  0.052049304            4 
 1485000    1.0033655   -4.9389466    924.72984  0.051892808  0.052041232            2 
 1486000    1.0058871   -4.9648046    927.11525  0.051991658  0.052033416            2 
 1487000    1.0279695   -4.9483277    927.02598  0.051951691  0.052025273            3 
 1488000    1.0147319   -4.9447724    928.05431  0.051974368  0.052017126            2 
 1489000    1.0175125    -4.945999    926.82692   0.05187077  0.052008905            4 
 1490000    1.0032127   -4.9671602    924.67667  0.051715697  0.052000619            8 
 1491000    1.0058591   -4.9631333    926.47198  0.051781354  0.051992249            1 
 1492000    1.0198522    -4.932945    929.37425  0.051908749  0.051983847            3 
 1493000    1.0146768   -4.9659789    928.21534  0.051809296   0.05197583            2 
 1494000   0.99448838   -4.9564825    927.92932  0.051758663  0.051967457            2 
 1495000     1.026852   -4.9766719    924.77347  0.051548131  0.051958987            3 
 1496000    1.0366598   -4.9945378    928.94217  0.051745887  0.051950794            4 
 1497000    1.0280535   -4.9761261    928.62353  0.051693583  0.051942316            3 
 1498000    1.0139106   -4.9613748    931.31173  0.051808619  0.051934026            5 
 1499000    1.0004681   -4.9388661    932.50967  0.051840653  0.051925954            4 
 1500000    1.0153827   -4.9501412    932.09471  0.051783039  0.051917918            6 
 1501000   0.98759754   -4.9854538    929.93985  0.051628906  0.051909467            3 
 1502000    1.0238423   -4.9806529    928.22481  0.051499379  0.051900938            4 
 1503000    1.0135042   -4.9549557    932.31913  0.051692123  0.051892516            3 
 1504000    1.0232996   -4.9653946    931.76453  0.051627024  0.051883933            4 
 1505000   0.98845272   -4.9736571    934.27046  0.051731476  0.051875707            3 
 1506000    1.0060792   -4.9658591    936.78293  0.051836151  0.051867457            5 
 1507000    1.0054121   -4.9841921    933.26442   0.05160719  0.051859334            2 
 1508000    1.0187217   -4.9762305    934.14187  0.051621456   0.05185099            5 
 1509000    1.0097656   -4.9561538    934.31631   0.05159688   0.05184266            2 
 1510000    1.0283079   -4.9666961     935.3032  0.051617174  0.051834029            5 
 1511000    1.0272393   -4.9475182    936.51338  0.051649756  0.051825353            3 
 1512000   0.99855166   -4.9816813    934.40401  0.051499339  0.051816773            4 
 1513000   0.99089953   -4.9847285    938.69509  0.051701646  0.051808343            2 
 1514000    1.0178767   -4.9684056    936.52775  0.051548203  0.051799968            3 
 1515000    1.0336093    -4.963162     936.4294  0.051508768  0.051791632            2 
 1516000   0.99440959    -4.970579     941.1577  0.051734702  0.051783032            2 
 1517000   0.99672002   -4.9504347    937.00846  0.051472669  0.051774434            3 
 1518000    1.0096436   -4.9428694    937.30145  0.051454845   0.05176535            5 
 1519000    1.0072993   -4.9617334     938.3303  0.051477414  0.051756288            5 
 1520000   0.99165937   -4.9483873    941.56694  0.051620994  0.051747139            5 
 1521000   0.99990167   -4.9901055    938.54823  0.051421665  0.051738643            2 
 1522000    1.0207312   -4.9920037    938.33205  0.051376043  0.051729984            3 
 1523000   0.98222591   -4.9899188     939.0318  0.051380597  0.051721288            4 
 1524000    1.0293451   -4.9854506    939.20856  0.051356548  0.051712821            2 
 1525000    1.0017151   -4.9560808    945.70106  0.051677653  0.051704172            3 
 1526000    1.0044034   -4.9829533     939.5784  0.051309436  0.051695451            6 
 1527000   0.99973303   -4.9632798    944.53388  0.051546272   0.05168687            5 
 1528000    1.0034806    -5.007713    940.10178  0.051270821  0.051677874            4 
 1529000    1.0251521   -4.9671618    940.69013  0.051269355  0.051668862            6 
 1530000    1.0096161   -5.0073527    940.97217  0.051251208  0.051660042            6 
 1531000    0.9765581    -4.980529      944.898  0.051431418  0.051651219            5 
 1532000    1.0116893   -4.9799007    943.58622  0.051326491  0.051642571            4 
 1533000   0.99802555   -4.9873763    942.91745  0.051256657  0.051633675            3 
 1534000    1.0062921   -4.9719966    945.60469  0.051369225  0.051624901            4 
 1535000   0.98383175   -4.9817383    945.71732  0.051341874  0.051616062            3 
 1536000    1.0001509   -4.9690215     943.5493  0.051190826  0.051607263            5 
 1537000    1.0081841    -4.993423    947.42656  0.051367738  0.051598484            3 
 1538000    1.0118804   -4.9901532    946.30984  0.051273832  0.051589776            4 
 1539000    1.0026522   -4.9645952    947.47744  0.051303738  0.051581152            4 
 1540000   0.98715428   -4.9414901    951.89661  0.051509557  0.051572325            2 
 1541000   0.98713977   -5.0018193    946.69013  0.051194578  0.051563605            2 
 1542000   0.99182006   -4.9374414    953.73349  0.051542017  0.051554854            4 
 1543000    1.0047741   -4.9385769    955.53279  0.051605789  0.051546443            5 
 1544000    1.0013688   -4.9951198    950.96079  0.051325604  0.051537919            2 
 1545000   0.99862808   -4.9788892    952.81673  0.051392488  0.051529169            4 
 1546000    1.0012447   -4.9849091    952.79208  0.051357917  0.051520457            4 
 1547000    1.0256939   -5.0114624    948.85448  0.051112609  0.051511923            2 
 1548000    0.9829658   -4.9833556    952.59519  0.051280964  0.051503526            2 
 1549000    1.0111718   -5.0046625    952.36162  0.051235293  0.051495109            8 
 1550000    1.0099094   -4.9917714    951.63425  0.051163132  0.051486625            3 
 1551000    1.0084454   -4.9954732    952.67108  0.051185852  0.051477966            3 
 1552000   0.99955055    -4.964289    954.26685  0.051238555  0.051469409            2 
 1553000    1.0146449   -4.9897435    955.94243  0.051295473  0.051460802            2 
 1554000    1.0041815   -4.9985939    954.99287  0.051211544  0.051452429            2 
 1555000   0.99915003   -4.9977313     953.9524  0.051122851  0.051443841            2 
 1556000    1.0212425   -4.9718025    955.11276   0.05115214   0.05143547            2 
 1557000    1.0058947   -5.0061683    957.42997  0.051243308  0.051427073            5 
 1558000     0.997552   -4.9701137    954.92774   0.05107658   0.05141858            6 
 1559000   0.98352229   -4.9691866    958.70364  0.051245651  0.051410281            4 
 1560000   0.98201882   -4.9676491    957.51591  0.051149354  0.051401991            3 
 1561000    1.0179101   -4.9601534     958.5904  0.051173948  0.051393571            5 
 1562000    0.9911563   -5.0085389    960.01576   0.05121723   0.05138508            5 
 1563000   0.98695933   -4.9985616    955.76706  0.050957937  0.051376581            2 
 1564000    1.0123078    -4.987129    957.53359  0.051019479  0.051367787            4 
 1565000    1.0150268   -4.9891527    959.05187  0.051067725  0.051359139            4 
 1566000   0.99899809   -4.9759556     959.4513   0.05105637  0.051350359            4 
 1567000   0.98280414   -4.9750542    957.59415  0.050925024  0.051341444            5 
 1568000   0.99471492   -4.9518567    963.21579  0.051191315  0.051332674            3 
 1569000   0.98988701   -5.0034188    957.17025  0.050837595  0.051323761            3 
 1570000   0.97609182   -5.0080682    959.82396   0.05094607  0.051314838            3 
 1571000   0.98018117   -4.9989547    960.38342  0.050943318  0.051305757            3 
 1572000    1.0061361   -4.9902915    960.09424  0.050895581  0.051296958            7 
 1573000    1.0242933   -4.9790712     963.8604  0.051062746  0.051287925            5 
 1574000   0.98164315   -5.0091388     960.4981  0.050852293  0.051278835            8 
 1575000   0.97754107   -4.9841119    960.44478  0.050817184  0.051269608            2 
 1576000    1.0038619    -5.007915     957.4304   0.05062555   0.05126035            2 
 1577000   0.98211621    -5.017715    963.33521  0.050905475  0.051251158            2 
 1578000   0.97807105   -5.0166934    961.71963  0.050787898  0.051241585            3 
 1579000    1.0015932   -4.9978502    962.10809  0.050776234  0.051231818            3 
 1580000   0.97673997   -4.9720319    962.04994  0.050741031  0.051222405            3 
 1581000   0.99567037   -4.9644604    965.95609  0.050914827  0.051213308            2 
 1582000   0.99677994   -4.9995227    965.61633  0.050864746  0.051203823            2 
 1583000    0.9968677   -4.9822819    963.60206  0.050726577  0.051194394            3 
 1584000    1.0329141   -4.9910483    959.37524  0.050472182  0.051184836            3 
 1585000   0.98551829   -5.0066556    964.31518  0.050700062  0.051175104            2 
 1586000    1.0242308   -4.9983624    968.09689  0.050866797  0.051165572            3 
 1587000   0.98706603   -5.0176396    964.31425  0.050636119  0.051155979            5 
 1588000    1.0034067   -5.0148962    967.62552  0.050777997  0.051146387            4 
 1589000   0.99522629    -5.013592    962.32882  0.050468262  0.051136927            3 
 1590000    1.0104121   -4.9746438    968.33083  0.050751091  0.051127544            2 
 1591000   0.97738188   -5.0459807    964.34653  0.050510503  0.051118209            5 
 1592000    1.0253466   -4.9695558      967.023  0.050618876  0.051108766            3 
 1593000    1.0147854   -4.9897724     968.3807  0.050658124  0.051099268            2 
 1594000    1.0010364    -5.013594    969.44538  0.050682004  0.051089769            3 
 1595000    1.0084379   -4.9987853    968.66088  0.050609242  0.051080002            6 
 1596000    1.0130327   -4.9972079    967.75712  0.050530342   0.05107039            8 
 1597000    1.0138289   -5.0077677    970.55557  0.050644728   0.05106101            4 
 1598000   0.99174018   -5.0232705    967.99148  0.050479322  0.051051457            4 
 1599000    1.0034615   -4.9862941    969.95773  0.050550226   0.05104179            3 
 1600000    0.9954797   -4.9982693    971.75257  0.050612113  0.051032211            2 
 1601000     1.011143   -5.0212599    967.41137  0.050354537  0.051022523            3 
 1602000    1.0094715   -4.9915571     972.1215  0.050568118   0.05101287            6 
 1603000    1.0032907   -5.0025837    970.10028  0.050431497  0.051003369            3 
 1604000   0.97488467   -4.9990883    974.89503   0.05064916  0.050993643            3 
 1605000   0.98758678   -4.9734026    971.51776  0.050442251  0.050984413            3 
 1606000    1.0189465   -4.9675401    971.63511  0.050416932  0.050975183            1 
 1607000   0.99043031   -5.0021096    973.24975  0.050469288   0.05096577            3 
 1608000    1.0043963   -4.9740139    976.40079  0.050601202  0.050956251            2 
 1609000    1.0012318   -4.9772592    975.38425  0.050517104  0.050946699            3 
 1610000   0.98872575   -5.0029645    974.62672  0.050446518  0.050937065            4 
 1611000   0.98815943   -5.0214258    974.94621   0.05043173  0.050927428            4 
 1612000   0.99486526    -4.986262    978.99493  0.050609746  0.050917913            4 
 1613000     0.968004   -4.9720951    979.02873  0.050580116  0.050908592            2 
 1614000   0.97517103    -4.985586     976.3983  0.050412965  0.050899584            8 
 1615000   0.97381781   -5.0315767    973.13554  0.050213392  0.050889952            3 
 1616000    1.0030387   -5.0102008    978.77841  0.050473309  0.050880512            4 
 1617000    1.0054648   -4.9651985    977.59806  0.050381265  0.050870808            2 
 1618000   0.98359147   -5.0018052    981.84866  0.050569049  0.050861092            5 
 1619000   0.99111166   -5.0039575    976.97693  0.050287056  0.050851719            2 
 1620000   0.99632108   -5.0041471    980.33143  0.050428571  0.050842051            2 
 1621000    1.0075015   -4.9942903    976.98361  0.050225355  0.050832269            3 
 1622000    1.0019615   -5.0256638    977.94788  0.050243931  0.050822331            6 
 1623000   0.97865174   -5.0020668    981.83606  0.050412614  0.050812551            4 
 1624000   0.98985459   -4.9928172    979.56401  0.050264984  0.050802997            4 
 1625000   0.98901847   -5.0079717    978.82711  0.050196262  0.050793526            3 
 1626000   0.99741739   -4.9935542    983.20886  0.050389958  0.050783783            7 
 1627000   0.98604607   -4.9967023    982.62583  0.050329125  0.050774111            3 
 1628000    1.0151183   -4.9878063    981.94175  0.050263193  0.050764741            3 
 1629000    0.9884324   -4.9895127    982.17484  0.050244262  0.050755013            2 
 1630000   0.99748796   -5.0250874    982.57275   0.05023378  0.050745307            3 
 1631000   0.97378244   -5.0068393    979.95236  0.050069096  0.050735556            4 
 1632000   0.98384946    -5.023462     984.5564  0.050273509  0.050726105            3 
 1633000    1.0046061   -5.0427366    982.56817  0.050141262  0.050716625            3 
 1634000   0.99509034   -4.9920667    988.27349  0.050401545  0.050707228            4 
 1635000   0.99780242   -5.0025784    986.72388  0.050291737  0.050697982            2 
 1636000   0.97586921   -4.9614002    991.97446  0.050528446   0.05068899           10 
 1637000    1.0034884   -4.9864732     988.0412  0.050297353  0.050679977            7 
 1638000   0.97905584   -5.0375405    988.86897  0.050308759  0.050670517            2 
 1639000   0.98916203   -5.0060821    987.01056  0.050183575  0.050661132            2 
 1640000     1.003285    -5.029963    985.38337  0.050070293  0.050651672            2 
 1641000   0.98096962   -5.0075078    988.45799  0.050195916  0.050641953            3 
 1642000    0.9975358   -5.0093223    988.36355  0.050160554  0.050632505            2 
 1643000   0.99576604   -5.0207778    985.88163   0.05000414  0.050622845            4 
 1644000    1.0029794   -4.9970266    992.63801  0.050316201  0.050613265            7 
 1645000   0.98150489   -5.0438803     987.5872  0.050029747  0.050603874            4 
 1646000   0.98128304      -4.9946     987.7304  0.050006602   0.05059429            4 
 1647000    1.0167716   -5.0132301    994.00497  0.050293714  0.050584834            3 
 1648000   0.99984938   -5.0335589     991.9211  0.050157823  0.050575437            2 
 1649000   0.98865189   -4.9773933    993.22921  0.050193512  0.050566253            4 
 1650000    1.0100803   -5.0181147    994.72352  0.050238562  0.050556847            4 
 1651000   0.99084177   -4.9983465    994.44813  0.050194232  0.050547411            8 
 1652000   0.98868305    -5.038716    994.09201  0.050145884  0.050537904            4 
 1653000    1.0084369   -5.0336638    991.45409  0.049982561    0.0505284            5 
 1654000   0.97659766   -5.0183191    996.12484  0.050187668  0.050518878            3 
 1655000   0.99359956   -4.9995293    998.19817  0.050261741  0.050509635            5 
 1656000   0.97238829   -4.9891481    997.68737  0.050205685  0.050500671            5 
 1657000    1.0034094   -5.0136047    996.85388  0.050133468  0.050491305            3 
 1658000   0.99211963   -4.9908733    998.99832  0.050211013  0.050482082            6 
 1659000   0.96491962    -4.980552    998.03815  0.050132517  0.050472923            5 
 1660000   0.99753563   -5.0331346    996.86746  0.050043547  0.050463763            4 
 1661000   0.97104521   -4.9898979    998.86433  0.050113603  0.050454514            3 
 1662000   0.97176711   -5.0129179    999.79151  0.050129939  0.050445159            5 
 1663000    0.9768463    -5.001946    998.93386  0.050056818  0.050435881            4 
 1664000   0.97858097    -5.011081    1000.0778  0.050084023  0.050426375            3 
 1665000   0.96244646   -5.0078865    1001.7024  0.050135258  0.050417051            3 
 1666000    0.9907014   -5.0523083    997.53201  0.049896559  0.050407389            2 
 1667000   0.98985461   -5.0047359    999.44555  0.049962285  0.050397652            5 
 1668000   0.98479883   -5.0076462    997.85197  0.049852716  0.050388137            5 
 1669000   0.99136298   -4.9719881    1006.0852  0.050233933  0.050378789            4 
 1670000   0.97628218   -5.0156568    999.42601  0.049871557  0.050369334            2 
 1671000   0.96714741   -5.0411373    1003.6321  0.050051473  0.050359782            6 
 1672000   0.95284784   -4.9865944    1002.8163  0.049980875  0.050350308            3 
 1673000   0.97747678   -5.0126446    998.92024  0.049756935  0.050340906            4 
 1674000   0.98669225   -5.0322392    1005.2798  0.050043796   0.05033132            3 
 1675000   0.99215449   -4.9993858    1003.9853  0.049949516  0.050321921            4 
 1676000   0.99134576   -5.0520919    1002.4168  0.049841725    0.0503125            5 
 1677000   0.99519811    -5.021495    1002.7881  0.049830456  0.050302917            3 
 1678000   0.97397698   -4.9924542    1002.5764  0.049790244  0.050293288            2 
 1679000   0.96600359   -5.0119598    1005.7513   0.04991817  0.050283539            3 
 1680000   0.97161294    -5.027531    1001.2404  0.049664702  0.050273852            2 
 1681000   0.98892201   -5.0323357    1001.9644  0.049671047  0.050264357            4 
 1682000   0.98879655    -5.058894    1004.3708  0.049760744  0.050254445            3 
 1683000   0.97865179   -5.0126915    1006.8034  0.049851622  0.050244835            2 
 1684000   0.98522112   -5.0021597    1005.5932  0.049762133  0.050235344            4 
 1685000   0.98271349   -5.0681075    1001.6228  0.049536244  0.050225563            2 
 1686000   0.98037091   -5.0297344    1005.1998   0.04968366   0.05021569            4 
 1687000   0.99835042   -5.0243625    1004.5881  0.049623992  0.050205807            1 
 1688000   0.99777915   -5.0267547     1008.785  0.049801785  0.050196299            8 
 1689000    1.0005415   -5.0334645    1008.5296  0.049759699  0.050186605            4 
 1690000   0.96715096   -5.0205361    1006.3758  0.049624054  0.050176967            1 
 1691000   0.97753068   -5.0326233    1008.5156   0.04970016  0.050167332            5 
 1692000   0.99920908   -5.0219272    1008.4323  0.049666681  0.050157805            5 
 1693000   0.98255561   -5.0375822    1007.4085  0.049586952    0.0501482            3 
 1694000   0.97953707   -5.0513978    1009.7329  0.049672022    0.0501387            2 
 1695000    0.9904567    -5.000001    1009.7349  0.049642817  0.050129068            3 
 1696000   0.98028594   -5.0358976    1006.7162   0.04946522  0.050119208            3 
 1697000   0.98113934   -5.0459085    1010.5498   0.04962433   0.05010919            3 
 1698000   0.97383612   -5.0599986    1006.7731  0.049409751  0.050099382            3 
 1699000   0.97474153   -5.0146417    1013.4526  0.049708291  0.050089945            4 
 1700000   0.98344297   -5.0612704    1013.0825  0.049660905  0.050080219            4 
 1701000    0.9880574   -5.0005072    1014.4793  0.049700141  0.050070887            3 
 1702000   0.97090495   -5.0489472    1008.2061  0.049363795  0.050061601            3 
 1703000   0.98184596   -5.0012912    1013.0782  0.049573215  0.050052108            3 
 1704000   0.99681502   -5.0418193    1010.8152  0.049433449   0.05004253            4 
 1705000   0.95875302   -5.0145114    1016.9454  0.049704078  0.050033174            2 
 1706000   0.98368032   -5.0193867    1013.2465  0.049494259  0.050023681            3 
 1707000   0.98429902   -5.0413189    1018.1693  0.049705588  0.050014097            3 
 1708000   0.97673665   -5.0547502    1011.7973  0.049365598  0.050004468            3 
 1709000   0.98753896   -5.0431269     1013.969  0.049442607  0.049994611            3 
 1710000   0.97107296   -5.0211399    1017.9684  0.049608596  0.049984849            4 
 1711000   0.97505262   -5.0070321    1018.8214  0.049621148  0.049975088            5 
 1712000   0.97042118   -5.0352263    1014.1011  0.049362399  0.049965263            2 
 1713000   0.96556426   -5.0523444    1013.6473  0.049311503  0.049955549            5 
 1714000   0.97425835   -5.0454155    1017.0973  0.049450472  0.049945936            4 
 1715000   0.98989561   -5.0318277    1015.4869  0.049343388  0.049936232            4 
 1716000   0.97223296   -5.0453646    1014.4633  0.049264924  0.049926338            4 
 1717000   0.96238605   -5.0319973    1017.0195  0.049360293  0.049916465            9 
 1718000   0.97782468     -5.03171    1018.2496  0.049391231  0.049906488            6 
 1719000   0.97655756   -5.0379303    1018.5762   0.04937833  0.049896675            3 
 1720000    0.9808082   -5.0221921    1016.9318   0.04926995  0.049886951            2 
 1721000   0.97203232   -5.0454456    1018.0788  0.049296863  0.049877123            3 
 1722000   0.97432401    -5.079689    1014.0148  0.049071563  0.049867182            3 
 1723000    0.9822242   -5.0528494    1018.9409  0.049281334  0.049857425            2 
 1724000   0.98352681   -5.0465112    1021.9098  0.049396257  0.049847707            2 
 1725000   0.98255562   -5.0215817    1024.0784  0.049472386  0.049838123            3 
 1726000   0.96276012   -5.0592677     1021.227  0.049306055  0.049828323            2 
 1727000    0.9630134   -5.0122411    1023.6947  0.049396578   0.04981878            4 
 1728000   0.99134214   -5.0586204    1022.2724  0.049299401  0.049809075            3 
 1729000   0.98294314   -5.0283406    1021.5129  0.049234282  0.049799322            2 
 1730000   0.98871701   -5.0218234    1023.9482   0.04932313  0.049789595            3 
 1731000    0.9681136   -5.0275743     1020.243  0.049116264  0.049779758            3 
 1732000   0.97638235   -5.0446698    1022.5322  0.049198047  0.049769934            2 
 1733000   0.99087692   -5.0334564    1021.6313  0.049126335  0.049760271            3 
 1734000   0.96317092    -5.047259    1024.2592  0.049224298  0.049750462            4 
 1735000   0.97361878   -5.0208179    1027.6409  0.049358353  0.049740877            6 
 1736000   0.95909503   -5.0115545    1031.1312  0.049497464  0.049731447            4 
 1737000   0.99181214   -5.0430083    1025.4062  0.049194309  0.049721851            3 
 1738000   0.96310259   -5.0174456    1026.5697  0.049221792  0.049712108            2 
 1739000   0.97346863   -5.0244454    1030.4854  0.049381128  0.049702201            2 
 1740000   0.96964198   -5.0479561    1026.3033  0.049152456  0.049692548            3 
 1741000   0.97082272   -5.0611831    1028.3298  0.049221221  0.049682509            2 
 1742000   0.99223787   -5.0681194    1024.3714  0.049003606  0.049672779            3 
 1743000   0.96986385   -5.0713681    1027.3095  0.049115966  0.049662843            4 
 1744000   0.96604578   -5.0376072    1029.3795  0.049186711  0.049653101            2 
 1745000   0.97302728    -5.042893    1025.5862  0.048977374  0.049643369            3 
 1746000    0.9718551   -5.0480254    1026.0749  0.048972649  0.049633509            7 
 1747000   0.95569472   -5.0418906    1029.8265  0.049123568  0.049623648            9 
 1748000   0.96530709    -5.039791    1033.3922  0.049265454  0.049613836            5 
 1749000   0.98190444   -5.0512442    1032.1893  0.049179976  0.049604056            7 
 1750000   0.95180668   -5.0695669    1029.0685  0.049003262  0.049594233            4 
 1751000   0.96648675   -5.0699796    1025.0082   0.04878204  0.049584343            2 
 1752000   0.97141294   -5.0144579    1033.6048  0.049163092  0.049574579            2 
 1753000   0.96867796   -5.0400445    1033.8641  0.049147374  0.049565096            5 
 1754000   0.97340566   -5.0537553    1031.9473  0.049028282  0.049555451            3 
 1755000   0.96425726   -5.0601239    1033.9146  0.049093762  0.049545749            4 
 1756000   0.96315979   -5.0644999    1031.7603  0.048963567  0.049535996            6 
 1757000   0.95781802    -5.058315    1038.0067  0.049231962  0.049526188            2 
 1758000   0.97212343   -5.0273179    1034.5013  0.049037793   0.04951663            2 
 1759000      0.98354   -5.0755122    1032.1609  0.048899038  0.049506945            2 
 1760000   0.96560286   -5.0352146    1037.2515  0.049112288  0.049497359            3 
 1761000   0.98656362    -5.031915    1038.8048  0.049157902   0.04948772            4 
 1762000   0.97942639    -5.060721    1037.9046  0.049087429  0.049478269            2 
 1763000   0.95370356   -5.0157015    1036.7911  0.049006953  0.049468504            2 
 1764000   0.96685675   -5.0277384    1038.8967  0.049078641  0.049458715            5 
 1765000   0.95709674   -5.0725294    1037.5023  0.048985002  0.049449112            2 
 1766000   0.98147969   -5.0388616    1033.9503  0.048789654  0.049439456            4 
 1767000   0.96084763   -5.0340729    1040.0622  0.049050285  0.049430061            5 
 1768000   0.96457251   -5.0344293    1039.0742  0.048975973  0.049420542            4 
 1769000   0.93904407   -5.0564707    1035.8299  0.048795454  0.049410792            2 
 1770000   0.96177871   -5.0371288    1040.8422  0.049003869  0.049400844            5 
 1771000   0.96606683    -5.043287    1040.7297  0.048970906  0.049391181            3 
 1772000   0.95851546   -5.0414496     1040.972  0.048954664  0.049381413            3 
 1773000   0.97464629   -5.0499787    1039.4807   0.04885696  0.049371565            3 
 1774000   0.95275853   -5.0505825    1039.3521  0.048823379  0.049361846            5 
 1775000   0.97088042   -5.0659127     1036.762  0.048674274  0.049351924            4 
 1776000   0.96654609   -5.0467952    1036.9145   0.04865402  0.049342063            3 
 1777000   0.96298643   -5.0600248    1041.2491  0.048829914   0.04933222            5 
 1778000   0.95343179   -5.0318552    1041.4605   0.04881236  0.049322092            5 
 1779000   0.94169497   -5.0448714    1045.4362  0.048971155  0.049312369            3 
 1780000    0.9482432   -5.0246462    1044.9673  0.048921689  0.049302551            3 
 1781000   0.97891713   -5.0561459    1043.9639  0.048847273   0.04929284            4 
 1782000   0.95013518   -5.0476778    1041.2536  0.048693114  0.049282908            5 
 1783000   0.97115689   -5.0427478     1046.634  0.048917272  0.049272859           10 
 1784000    1.0052634   -5.0354483    1047.3293  0.048922333  0.049263032            6 
 1785000   0.97497508   -5.0726769    1041.5192   0.04862368  0.049253144            6 
 1786000   0.97431469   -5.0666712    1042.6031  0.048647027  0.049243042            4 
 1787000   0.96530199   -5.0874083      1038.83  0.048443853   0.04923292            4 
 1788000   0.96738682   -5.0230952    1046.3617  0.048767791  0.049222848            4 
 1789000   0.95351102   -5.0392214    1044.1156  0.048635904  0.049212731            3 
 1790000   0.97422954   -5.0380133    1044.9085  0.048645648  0.049202787            3 
 1791000   0.98497452   -5.0454295    1046.9461  0.048713293  0.049192802            3 
 1792000   0.94801249   -5.0731547    1045.4206   0.04861517  0.049182952            5 
 1793000   0.96628272   -5.0479975    1045.4309  0.048588533  0.049173266            7 
 1794000   0.95619373   -5.0596461     1043.084  0.048452433  0.049163149            3 
 1795000    0.9599175   -5.0482874     1048.906  0.048695728  0.049152943            5 
 1796000   0.98480266   -5.1024987    1045.4122  0.048506505   0.04914282            2 
 1797000   0.95933077   -5.0636811     1051.079  0.048742303  0.049132979            4 
 1798000   0.95644197   -5.0696615    1047.0249  0.048527294  0.049123176            5 
 1799000   0.95603226   -5.0698613    1047.8345  0.048537824  0.049113105            1 
 1800000   0.96021623   -5.0587101    1049.3377  0.048580448  0.049103139            7 
 1801000      0.95373   -5.0653214    1052.3682  0.048693697  0.049093377            4 
 1802000   0.94897739   -5.0733843    1052.6175  0.048678206  0.049083424            3 
 1803000   0.96782257   -5.0324878    1051.0958  0.048580874  0.049073587            3 
 1804000   0.95336516   -5.0428599    1052.6505  0.048625761  0.049063866            9 
 1805000   0.96672564   -5.0674803    1053.8556   0.04865446  0.049054131            3 
 1806000   0.96092759   -5.0391012    1055.7522  0.048715034  0.049044319            3 
 1807000   0.94660373    -5.068308    1052.3385  0.048530643  0.049034692            5 
 1808000   0.95297348   -5.0563544    1054.5222  0.048604454  0.049025222            3 
 1809000   0.97432779   -5.0590884    1057.2152  0.048701639  0.049015689            4 
 1810000   0.96328066   -5.0505268     1051.941  0.048431906  0.049005945            4 
 1811000   0.94833644   -5.0383091    1056.5378  0.048616685  0.048996432            4 
 1812000   0.95209681   -5.0576863    1059.6813  0.048734421  0.048987081            8 
 1813000   0.95695127   -5.0869982    1055.2657  0.048504582  0.048977775            3 
 1814000   0.96979435   -5.0529032    1061.9223  0.048783643  0.048968488            4 
 1815000   0.96728914    -5.069895    1061.2234  0.048724675  0.048959077            9 
 1816000   0.95807019   -5.1042768    1056.5271  0.048482336  0.048949467            2 
 1817000   0.96509628   -5.0418202    1062.7488     0.048741  0.048939881            3 
 1818000   0.92289392   -5.0921023    1058.0985   0.04850103  0.048930522            3 
 1819000   0.97011858   -5.0435291    1060.9529  0.048605134  0.048920995            2 
 1820000   0.95014696   -5.0758576    1057.9201  0.048439567   0.04891145            4 
 1821000   0.96806155   -5.0486631    1058.5648  0.048442469  0.048901836            3 
 1822000    0.9453232    -5.047278    1058.5191   0.04841379  0.048892117            4 
 1823000   0.94735132   -5.0671648    1058.5489  0.048388596  0.048882476            3 
 1824000   0.93927978   -5.0659933    1060.6505  0.048458083  0.048872819            4 
 1825000    0.9626805    -5.075064    1062.1802  0.048501379  0.048863196            4 
 1826000   0.94344519   -5.0748475     1059.705  0.048361856  0.048853589            3 
 1827000   0.95690939   -5.0580946     1064.563   0.04855697  0.048844119            6 
 1828000    0.9634782   -5.0616861    1059.0417  0.048278706  0.048834491            4 
 1829000   0.96233309   -5.1033038    1061.6689   0.04837201    0.0488249            3 
 1830000   0.96591241   -5.1036857    1060.9804  0.048314224  0.048815164            5 
 1831000   0.99655428    -5.081731    1062.8528  0.048373058  0.048805611            3 
 1832000   0.92746269   -5.0340482    1062.9102  0.048349264  0.048795869            3 
 1833000   0.96431713   -5.0560445    1062.6621  0.048311605  0.048786278            2 
 1834000   0.95091385   -5.0741832    1066.2415  0.048447904  0.048776691            4 
 1835000   0.96291028   -5.0886463    1063.7759  0.048309533  0.048767062            5 
 1836000   0.95875377   -5.0842635    1063.8993  0.048288821  0.048757362            3 
 1837000     0.960146   -5.1007194    1064.6461  0.048296413  0.048747726            3 
 1838000     0.970863   -5.0810083    1068.0235  0.048423263  0.048737993            2 
 1839000   0.95273109   -5.0618605    1066.3084  0.048319211  0.048728136            4 
 1840000   0.95550911   -5.0762193    1064.8365  0.048226291  0.048718468            2 
 1841000   0.93595698   -5.0647049    1068.6441  0.048372448  0.048708875            4 
 1842000   0.95672538   -5.0865172    1063.5498  0.048115715  0.048699034            4 
 1843000   0.94362166   -5.0817105    1066.2726  0.048212725  0.048689326            3 
 1844000   0.94791703   -5.0556811    1064.4689  0.048105065  0.048679624            3 
 1845000   0.96177497   -5.0197213    1072.6566  0.048448809  0.048670103            2 
 1846000   0.94822287   -5.0721745    1070.4274  0.048321928  0.048660276            3 
 1847000   0.96015362   -5.0525006    1067.5343  0.048165237  0.048650492            5 
 1848000   0.94288518   -5.1039103    1069.9017  0.048245928  0.048640565            5 
 1849000   0.93636606   -5.0760364    1065.6204  0.048026878  0.048630682            5 
 1850000   0.95954914   -5.0845996    1071.3838   0.04826053  0.048620974            3 
 1851000   0.94021354   -5.0883092    1068.9961  0.048126962  0.048611379            4 
 1852000   0.95644477   -5.0689263    1071.5506  0.048215921  0.048601635            2 
 1853000   0.95687156   -5.0658463    1069.7731  0.048109963  0.048591916            2 
 1854000   0.96794828   -5.0715951     1072.354  0.048200018   0.04858227            4 
 1855000   0.97766095   -5.0959616    1068.2406  0.047989245  0.048572576            4 
 1856000   0.94688906   -5.0961226    1069.0264  0.047998671  0.048562887            4 
 1857000   0.96279748   -5.1174182    1067.0695  0.047885008  0.048553046            6 
 1858000     0.952597   -5.1065216    1073.0558  0.048127727   0.04854333            6 
 1859000   0.96316021   -5.0759518    1075.3819  0.048206108  0.048533449            5 
 1860000   0.97006053   -5.0611851    1074.6475  0.048147288  0.048523835            4 
 1861000   0.95880159   -5.0905161    1073.3801  0.048064664  0.048514226            3 
 1862000   0.95391411   -5.0950024    1070.8505  0.047925641  0.048504611            3 
 1863000   0.95274878   -5.0751819    1073.7469  0.048029475  0.048494751            9 
 1864000   0.95111376   -5.0811948    1073.1424  0.047976682  0.048485161            2 
 1865000    0.9515186   -5.0689508    1075.1339  0.048039943  0.048475294            4 
 1866000   0.94481723   -5.0916293    1075.8076  0.048044283  0.048465548            5 
 1867000   0.95305489   -5.0711269    1076.2425   0.04803796  0.048455907            3 
 1868000   0.95577276   -5.0835798    1079.1237  0.048140777   0.04844619            4 
 1869000   0.96325591   -5.0660779    1078.3834  0.048082016  0.048436478            3 
 1870000   0.93486884   -5.1006467    1074.3119  0.047874861  0.048426836            4 
 1871000   0.94755319   -5.0694156    1081.8301   0.04818413  0.048417283            8 
 1872000   0.93984962   -5.0643499    1081.6132  0.048148737  0.048407725            2 
 1873000   0.94781169   -5.0912859    1074.4624  0.047804875  0.048398018            8 
 1874000   0.94462951   -5.0662463    1082.5225  0.048137785  0.048388214           11 
 1875000   0.96822953     -5.09995    1076.1069  0.047826975  0.048378359            2 
 1876000   0.94031302   -5.1032678    1082.1415  0.048069542  0.048368473            2 
 1877000   0.95771899     -5.09197    1080.2251  0.047958849  0.048358713            4 
 1878000   0.96141538   -5.0922558    1076.4473  0.047765679  0.048348753            5 
 1879000   0.94078556    -5.101249    1077.6668  0.047794342  0.048338979            3 
 1880000   0.96394522    -5.075729    1077.3582  0.047755238  0.048329021            3 
 1881000   0.93933383   -5.0658836    1081.1433  0.047897542  0.048319396            6 
 1882000   0.93526726   -5.0605942    1081.8712   0.04790432  0.048309624            2 
 1883000   0.95278732   -5.0754001     1081.636  0.047868471  0.048299853            3 
 1884000   0.92963957   -5.0842733     1082.689  0.047889641   0.04829041            6 
 1885000   0.95113285   -5.1040035     1083.991  0.047921793   0.04828065            3 
 1886000   0.95044533   -5.0741641    1079.2444  0.047686657  0.048270929            5 
 1887000   0.95383867    -5.108837    1085.8822  0.047954522  0.048261277            2 
 1888000    0.9698513   -5.0963556    1084.6641   0.04787536  0.048251437            3 
 1889000    0.9521728   -5.1091723     1082.716  0.047764072  0.048241686            4 
 1890000   0.95967836   -5.0734938    1084.8925  0.047834768  0.048232163            2 
 1891000   0.95235526   -5.1070882    1084.2268  0.047780134  0.048222529            5 
 1892000   0.95059501   -5.1139974    1082.2445  0.047667572  0.048212725            5 
 1893000   0.96453294   -5.0790102    1087.7946  0.047886715  0.048203086            2 
 1894000   0.95951605   -5.0904209    1083.5748  0.047675765  0.048193356            2 
 1895000   0.96864893   -5.0944405    1084.3453   0.04768449  0.048183459            2 
 1896000   0.94978031   -5.0954781     1088.263   0.04783153  0.048173578            3 
 1897000   0.95996217   -5.0871298    1083.5376  0.047598737  0.048163653            3 
 1898000   0.95283913   -5.0791963    1087.2518  0.047736733  0.048153783            4 
 1899000    0.9644955   -5.0980174    1083.7251  0.047556834   0.04814378            2 
 1900000   0.96960297   -5.0938788    1084.7132  0.047575142  0.048133826            2 
 1901000   0.96371907   -5.0726365    1084.4845  0.047540088  0.048123963            1 
 1902000   0.94273123   -5.1012768      1086.82  0.047617421  0.048113944            2 
 1903000   0.93991079   -5.1038592    1085.9578  0.047554644  0.048103961            2 
 1904000   0.95149528   -5.0960358    1086.6027  0.047557893  0.048093959            2 
 1905000   0.96146296   -5.0759064    1089.4051  0.047655514  0.048083922            3 
 1906000   0.95580806   -5.0808769    1091.4639  0.047720526  0.048073961            3 
 1907000    0.9619227    -5.079772    1088.6716  0.047573483  0.048064148            4 
 1908000   0.93701038   -5.0689647    1089.0023  0.047562992   0.04805412            4 
 1909000   0.95393895   -5.0681937    1086.2954  0.047419916  0.048044203            2 
 1910000   0.95472666   -5.0840857    1087.9198   0.04746596   0.04803406            5 
 1911000   0.96308615   -5.0961901    1088.4407  0.047463835  0.048023952            5 
 1912000    0.9485951   -5.0581823    1092.6683   0.04762327  0.048013868            5 
 1913000   0.95153592   -5.0973719    1087.2723  0.047363318  0.048003884            5 
 1914000   0.94156685   -5.0962004    1090.3022  0.047470492  0.047993839            4 
 1915000   0.93936943   -5.1160151    1090.5953  0.047458454  0.047983701            2 
 1916000   0.95173197   -5.1031246    1090.8343  0.047444082  0.047973495            3 
 1917000   0.94427654   -5.0913264    1090.0481  0.047385155   0.04796331            6 
 1918000   0.94954858   -5.1051629    1091.8798  0.047440032  0.047953126            7 
 1919000   0.93118243   -5.1351372    1091.8103  0.047412294   0.04794274            5 
 1920000   0.93232994   -5.1204111    1089.2448  0.047276249  0.047932426            7 
 1921000   0.94558571   -5.1075894    1086.6938  0.047140977  0.047921991            5 
 1922000     0.927066   -5.0868018     1091.622  0.047330123   0.04791158            3 
 1923000   0.95610094   -5.1290192    1088.8566  0.047185672  0.047901302            4 
 1924000   0.95133889   -5.1121262    1093.2539  0.047351608  0.047891016            3 
 1925000   0.93414808   -5.1009452    1089.8041  0.047177668  0.047880559            6 
 1926000   0.93497513   -5.1053564    1092.3462   0.04726316   0.04787039            6 
 1927000   0.94360308   -5.1041046    1092.6399  0.047251335  0.047860113            9 
 1928000   0.93655875   -5.1029131    1091.7528  0.047188485  0.047849848            2 
 1929000   0.93597526    -5.096064    1093.6409  0.047245588  0.047839607           13 
 1930000   0.94834447    -5.095745     1094.442    0.0472557  0.047829521            7 
 1931000    0.9371646   -5.1080752    1096.6776  0.047327704  0.047819316            7 
 1932000   0.94274659   -5.0828177    1097.4268  0.047335526  0.047809232            5 
 1933000   0.95166202   -5.1208623    1095.4375  0.047225277  0.047799132            6 
 1934000   0.94610737   -5.0754614    1093.9995  0.047138897  0.047789157            4 
 1935000   0.93484619   -5.1227399    1094.3448  0.047129405  0.047778922            2 
 1936000   0.95035702   -5.1269777     1095.854  0.047170025  0.047768808            5 
 1937000   0.93769475   -5.1080128    1095.9736  0.047150817  0.047758591            4 
 1938000   0.94810046   -5.1413626    1097.3321  0.047184905   0.04774853            6 
 1939000   0.94758141   -5.0994022     1100.667  0.047303894  0.047738287            3 
 1940000    0.9144591   -5.0987505    1097.1879  0.047130066  0.047728132            2 
 1941000   0.92087023    -5.105752    1097.2292  0.047107558  0.047717986            7 
 1942000    0.9543148   -5.1315865     1097.404  0.047090798  0.047707597            8 
 1943000   0.92368564   -5.1143697    1099.3122  0.047148405   0.04769735            7 
 1944000   0.92093705   -5.0678814    1101.7751  0.047229727  0.047687278            4 
 1945000   0.95806399   -5.1067519    1102.2174  0.047224396   0.04767719            8 
 1946000   0.92975482   -5.1063782    1095.4501  0.046910333   0.04766702            5 
 1947000   0.94225719   -5.1104214    1102.1857  0.047174531  0.047656796            3 
 1948000   0.93523022    -5.119811    1098.5657  0.046995454  0.047646502            1 
 1949000   0.94154141   -5.1092358     1101.622   0.04710202  0.047636209            6 
 1950000   0.95752481   -5.0950939    1100.0998  0.047012813  0.047625864            4 
 1951000   0.92185231   -5.1060351    1099.7961  0.046975742  0.047615691            3 
 1952000   0.94107396   -5.1278481    1101.9441  0.047043378  0.047605575            2 
 1953000   0.93018797   -5.1259119    1101.7658  0.047011681  0.047595318            2 
 1954000    0.9472825   -5.1380088    1099.9061  0.046908313  0.047585338            3 
 1955000   0.92428579   -5.0829249     1106.012  0.047144588  0.047575368            4 
 1956000   0.92518509   -5.0643614    1112.1812  0.047383316  0.047565544           10 
 1957000   0.95351044   -5.0819956    1109.1433  0.047229744  0.047556027            7 
 1958000   0.94701434   -5.1111426     1106.933   0.04711155  0.047546404            5 
 1959000   0.94183492   -5.0939131    1110.4491  0.047237074   0.04753652            8 
 1960000   0.94633072   -5.1320394    1107.9303   0.04710588  0.047526739            6 
 1961000    0.9404649   -5.1217544    1106.8751  0.047037018  0.047516986            3 
 1962000    0.9473034   -5.1073515    1108.5788  0.047085408  0.047507133            7 
 1963000   0.94908953   -5.1352567    1111.1613  0.047171051  0.047497352            3 
 1964000   0.93735113   -5.1348002    1109.1769  0.047062835    0.0474876            3 
 1965000   0.92508471    -5.096046    1109.4513   0.04705052  0.047477981            3 
 1966000   0.91710251   -5.1234239    1109.0933  0.047011414  0.047468254            4 
 1967000   0.94440756   -5.1007455    1109.3327  0.046997656  0.047458422            4 
 1968000   0.93332494   -5.1226866    1109.5251  0.046981925  0.047448677            4 
 1969000   0.95346933   -5.1171505    1110.6791  0.047006905  0.047438946            7 
 1970000    0.9341398   -5.1305493    1110.3607  0.046969573  0.047429324            6 
 1971000    0.9361802    -5.114962    1115.8683  0.047178602   0.04741959            6 
 1972000    0.9236812   -5.0779723    1114.6737  0.047104198  0.047409742            4 
 1973000   0.93537448   -5.0957599    1117.6309  0.047205227  0.047400135            3 
 1974000   0.93537211   -5.1173977    1110.3541  0.046874118   0.04739036            6 
 1975000    0.9512559    -5.120149    1117.5332  0.047153298  0.047380975            4 
 1976000   0.94317989   -5.1057253    1116.0559  0.047067134  0.047371666            3 
 1977000   0.92921651   -5.1065876    1114.3834   0.04697283  0.047362108            6 
 1978000   0.93649886   -5.0980202    1122.7097   0.04729987  0.047352572           10 
 1979000   0.93548451    -5.095472     1119.791  0.047153067  0.047343222            3 
 1980000   0.92445393   -5.1048495    1118.4201  0.047071553  0.047333821            6 
 1981000   0.93461642   -5.1185071    1120.9716  0.047155122  0.047324344           20 
 1982000   0.90962875    -5.133346    1119.3413  0.047062785  0.047314889            4 
 1983000   0.93487074   -5.1266602    1119.6976  0.047054024  0.047305527            3 
 1984000   0.94016191   -5.1409682    1118.4482  0.046977831  0.047296165            4 
 1985000   0.93802341    -5.137076    1118.9133  0.046973689  0.047286794            6 
 1986000   0.93816207   -5.0985677    1122.3556  0.047094478  0.047277543            3 
 1987000    0.9247804   -5.0786844    1121.6389  0.047040717  0.047268425            3 
 1988000   0.92215394   -5.0957077      1119.42  0.046924043  0.047259101            3 
 1989000   0.92071166   -5.1298188    1122.5476  0.047031491  0.047249782            4 
 1990000   0.92398511   -5.1223605    1120.1523  0.046907549  0.047240398            4 
 1991000    0.9244143   -5.1350272    1125.1672  0.047093889  0.047231196            6 
 1992000   0.94059323    -5.117279    1125.1542  0.047069706  0.047221928            4 
 1993000   0.91667355   -5.1197632    1123.9655  0.046996382  0.047212619            4 
 1994000   0.94006409   -5.1134638    1122.5359   0.04691307  0.047203213            4 
 1995000   0.93546249   -5.1341875    1126.7101  0.047063914  0.047193767            3 
 1996000   0.94353963    -5.127665    1127.2143  0.047061386  0.047184334            5 
 1997000   0.93707478   -5.1488276    1119.8352  0.046729897  0.047174931            3 
 1998000   0.93271336   -5.1261257    1125.5315  0.046944092  0.047165576            3 
 1999000   0.92746802   -5.1433263    1121.0726  0.046734727    0.0471561            6 
 2000000   0.94432747   -5.1110582    1124.3547  0.046848114  0.047146594            9 
 2001000   0.92105323   -5.1111423    1124.8546   0.04684552  0.047137161            3 
 2002000   0.91617128    -5.154811    1122.9697  0.046743659  0.047127743            7 
 2003000   0.93201044   -5.1263733    1124.4327  0.046781192  0.047118334            5 
 2004000   0.91577786   -5.1299015    1126.1852  0.046830724  0.047108863            3 
 2005000   0.94754942    -5.141194     1121.388  0.046607978  0.047099293            5 
 2006000   0.94214961   -5.1414518    1125.2785  0.046746365  0.047089654            7 
 2007000   0.91756687   -5.1068706    1127.6852  0.046823004  0.047080091            4 
 2008000   0.92758548    -5.128421    1123.5161  0.046626666  0.047070603            3 
 2009000   0.92574981   -5.1146915     1129.393   0.04684723  0.047061203            4 
 2010000   0.92808289   -5.1380305    1127.1531  0.046731059  0.047051926            5 
 2011000   0.93206882   -5.1409177    1125.2157  0.046627537  0.047042417            6 
 2012000   0.92487842   -5.0896211    1132.5876  0.046909694  0.047032894            3 
 2013000   0.94464324   -5.0986187    1130.0094  0.046779658  0.047023657            3 
 2014000   0.92945243   -5.1324093    1129.0868  0.046718255  0.047014366            4 
 2015000   0.91225323   -5.1202639    1128.1639  0.046656902  0.047004969            3 
 2016000   0.93481403   -5.1448458    1128.8543  0.046662299  0.046995397            4 
 2017000   0.93455014   -5.1431083     1129.325  0.046658612  0.046986043            4 
 2018000   0.94414252   -5.0891802    1130.5676  0.046686803  0.046976621            6 
 2019000    0.9472433   -5.1350258     1136.116  0.046892685  0.046967176            4 
 2020000   0.95752197   -5.1301846    1132.2652  0.046710609  0.046957711            5 
 2021000   0.92831691   -5.1527956    1131.7989  0.046668273  0.046948102            5 
 2022000   0.93905467   -5.1545255     1130.318  0.046584157  0.046938633            3 
 2023000   0.93618995   -5.1481441    1127.6451  0.046451026  0.046929125            4 
 2024000   0.92729917   -5.1472961    1131.8043  0.046599322  0.046919488            6 
 2025000   0.95060187   -5.1016136    1136.3162  0.046761983  0.046910293            2 
 2026000   0.96016096   -5.1366056    1130.6929  0.046507604  0.046900841            5 
 2027000   0.93086311   -5.1710399    1131.2127   0.04650603  0.046891215            7 
 2028000   0.93044736   -5.1330265    1136.3315  0.046693437  0.046881844            3 
 2029000   0.90475268   -5.1354967    1136.9684  0.046696585  0.046872382            3 
 2030000    0.9054005   -5.1725452    1129.8502  0.046381371  0.046862956            3 
 2031000   0.93853768   -5.1347095    1132.4984  0.046467191  0.046853319            2 
 2032000   0.93217271    -5.143255    1134.5702  0.046529291  0.046843735            2 
 2033000   0.94363903   -5.1542481    1136.1865  0.046572655  0.046834154            4 
 2034000   0.92556991   -5.1210016    1135.4366  0.046519034  0.046824788            5 
 2035000   0.90839698   -5.1499121    1134.5915  0.046461568  0.046815162            3 
 2036000   0.91824305   -5.1802774    1133.6348  0.046399592  0.046805513            3 
 2037000   0.92397435   -5.1030209     1138.699  0.046583989  0.046796035            4 
 2038000   0.93846596   -5.1181804    1138.3247  0.046545827  0.046786554            5 
 2039000   0.91490359   -5.1603699    1133.2258  0.046314606  0.046777086            5 
 2040000   0.95239282   -5.1531105     1135.395  0.046380513  0.046767534            3 
 2041000   0.93629422   -5.0785277    1141.5508  0.046609128  0.046758178            5 
 2042000   0.91825389   -5.1235383     1138.836  0.046475513  0.046748777            6 
 2043000   0.91146267   -5.1235803    1141.3196   0.04655407  0.046739236           13 
 2044000   0.92939113   -5.1362559    1139.9375  0.046474948  0.046729746            6 
 2045000   0.90777471   -5.1585764    1140.1689   0.04646165   0.04672038            5 
 2046000   0.90492536   -5.1636689    1138.8115  0.046383656  0.046710765            4 
 2047000   0.94306412   -5.1313031    1138.0499  0.046329992  0.046701366            5 
 2048000   0.91058844   -5.1423535    1141.7717  0.046458808  0.046692022            4 
 2049000   0.91504127   -5.1531476    1139.4083  0.046340015  0.046682598            5 
 2050000   0.91397849   -5.1133912    1143.0356  0.046464862   0.04667315            3 
 2051000   0.93322207   -5.1487454    1139.5988  0.046302566  0.046663877            9 
 2052000   0.94148494   -5.1432632    1144.5992  0.046483074  0.046654663           10 
 2053000   0.93939025   -5.1556241     1139.391  0.046249026  0.046645361            3 
 2054000   0.90904107   -5.1072678     1150.618  0.046682003  0.046636085            3 
 2055000   0.91012338   -5.1528427    1143.7431  0.046380499  0.046626738            3 
 2056000   0.92480897   -5.1671811    1145.8026  0.046441416  0.046617336            2 
 2057000   0.91762062   -5.1264094    1141.6632  0.046251144  0.046607971            4 
 2058000    0.9143331    -5.128394     1146.715  0.046433227  0.046598607            5 
 2059000   0.93721175   -5.1445009    1145.0444  0.046343064  0.046589167            4 
 2060000   0.92006991   -5.1127335    1149.9706  0.046519845  0.046579907            6 
 2061000   0.92615206   -5.1642133    1141.0234  0.046135507  0.046570568            3 
 2062000   0.93618879   -5.1238443    1143.2411  0.046202761  0.046561215            2 
 2063000   0.92534892   -5.1515225     1145.844  0.046285505  0.046551791            6 
 2064000   0.92734926   -5.1572007     1147.528  0.046331073  0.046542565            3 
 2065000   0.92363295   -5.1313237    1152.3582  0.046503561  0.046533328            4 
 2066000   0.92893718   -5.1156165    1153.8753  0.046542245  0.046524198            5 
 2067000   0.93995043   -5.1246813    1147.7064  0.046271022  0.046514954            4 
 2068000    0.9344653   -5.1543818    1149.0792  0.046303967  0.046505723            5 
 2069000   0.88736328   -5.1423662    1153.6374  0.046465175  0.046496515            3 
 2070000   0.90441326   -5.1294901    1150.5642  0.046319011  0.046487378            5 
 2071000    0.9488621   -5.1532467    1148.6716  0.046220488  0.046478368            4 
 2072000   0.91425988   -5.1614022    1152.5566  0.046354433  0.046469234            3 
 2073000   0.92159285   -5.1300022    1151.3005  0.046281578  0.046460066            4 
 2074000   0.91838967   -5.1535985    1146.6054  0.046070614  0.046450816            8 
 2075000   0.91946595   -5.1442928    1149.6784  0.046171824  0.046441481            4 
 2076000   0.95782305   -5.1683935    1149.5819  0.046145709  0.046432254            3 
 2077000   0.88742445   -5.1527668    1151.4997  0.046200436  0.046423039            9 
 2078000   0.91662834   -5.1510573    1148.1246  0.046042854  0.046413791            5 
 2079000   0.88943288   -5.1567444    1151.7938   0.04616778  0.046404411            7 
 2080000   0.90939733   -5.1637042    1151.5944  0.046137596  0.046395024            3 
 2081000   0.91456817   -5.1339099    1153.7298  0.046200936  0.046385634            6 
 2082000   0.91434563   -5.1571363     1153.779  0.046180714  0.046376297            3 
 2083000   0.92708269   -5.1792513    1149.7844  0.045998737  0.046366882            5 
 2084000   0.90788181   -5.1532246     1152.866   0.04609989  0.046357323            4 
 2085000   0.92837845   -5.1438673    1155.6476  0.046188954  0.046348026            2 
 2086000    0.9034178   -5.1576127    1153.5415  0.046082673  0.046338755            4 
 2087000   0.93360868   -5.1632535    1153.0395   0.04604055  0.046329316            7 
 2088000   0.91616712   -5.1563416    1152.8732   0.04601186  0.046319947            3 
 2089000   0.92690565   -5.1741239    1153.4997  0.046014829  0.046310651            7 
 2090000   0.91783267    -5.175457    1152.8843  0.045968272   0.04630101            3 
 2091000   0.93185288   -5.1590039    1155.6471  0.046056397  0.046291503            3 
 2092000   0.93104426   -5.1560251    1151.8722  0.045884012  0.046281994            5 
 2093000   0.91812216   -5.1455058    1156.8633  0.046060808   0.04627264            2 
 2094000    0.9475021   -5.1730559    1152.1427  0.045850952  0.046263283            7 
 2095000   0.88865581   -5.1529902    1155.1506  0.045948712  0.046253841            5 
 2096000   0.92507084   -5.1301819    1158.7941  0.046071649  0.046244634            3 
 2097000   0.92452845   -5.1526143    1155.2549  0.045909034  0.046235313            2 
 2098000   0.92414646   -5.1190489    1162.7669   0.04618553  0.046226071           10 
 2099000   0.93313806   -5.1796545    1159.3957  0.046029685  0.046216884            7 
 2100000    0.8942031   -5.1783169    1159.0975  0.045995932  0.046207597            4 
 2101000   0.92257424    -5.122868    1157.3109  0.045903175  0.046198267            8 
 2102000   0.90994108   -5.1344619    1160.5013  0.046007822  0.046188898            6 
 2103000   0.91545673   -5.1365458    1156.5552  0.045829576  0.046179437            3 
 2104000   0.90684421   -5.1333836    1164.1313  0.046107863  0.046170137            3 
 2105000   0.91263833   -5.1509872    1160.3202  0.045935083  0.046160812            5 
 2106000   0.89064213   -5.1790608    1160.8269  0.045933322  0.046151408            5 
 2107000   0.91028263   -5.1340337    1159.3097  0.045851516  0.046141953            4 
 2108000   0.91652237   -5.1940104     1157.467  0.045756918  0.046132638            6 
 2109000   0.91350575   -5.1579648    1159.1216  0.045800602  0.046123043            6 
 2110000   0.90529717   -5.1685039    1156.4243  0.045672366   0.04611364            4 
 2111000   0.91559138   -5.1571753    1161.4447  0.045848916  0.046104173            3 
 2112000   0.89680987   -5.1759224     1155.437  0.045590159   0.04609473           11 
 2113000   0.91424106   -5.1458828    1165.6773  0.045972442  0.046085342            4 
 2114000   0.90787084   -5.1823944    1161.2143  0.045774767  0.046075986           10 
 2115000   0.93605062   -5.1508993    1161.7624  0.045774719  0.046066696            7 
 2116000   0.92011882   -5.1376751    1163.8304  0.045834531  0.046057295            3 
 2117000   0.91191627   -5.1235486    1161.8618  0.045735388  0.046047828            3 
 2118000   0.91308729   -5.1425377     1160.013  0.045641052  0.046038269            2 
 2119000   0.90110217   -5.1484878    1165.6989  0.045843121  0.046028829            6 
 2120000    0.9078859   -5.1538276    1163.0101  0.045715807  0.046019224            6 
 2121000   0.93685668   -5.1465539    1164.6869  0.045760131  0.046009853            3 
 2122000   0.91567603   -5.1633124    1166.1992  0.045797957  0.046000507            4 
 2123000   0.93161802   -5.1701037    1162.9416  0.045648517  0.045991142            6 
 2124000   0.89930428   -5.1711537    1167.3687   0.04580072  0.045981724            5 
 2125000   0.89926709     -5.17077    1164.6175  0.045671274  0.045972225           10 
 2126000   0.89541996   -5.1546903    1169.0137  0.045822112  0.045962566            2 
 2127000   0.91624777   -5.1914877    1164.3809  0.045619062  0.045953061            6 
 2128000   0.91467478    -5.164431    1165.4817  0.045640731   0.04594349            3 
 2129000   0.92261621   -5.1593234     1165.534  0.045621339  0.045934069            6 
 2130000   0.89741415   -5.1916468     1165.745  0.045608175  0.045924596           10 
 2131000   0.91339586   -5.1940832    1161.7232    0.0454295  0.045915034            7 
 2132000   0.91299507   -5.1772014    1169.0496  0.045694558  0.045905568            5 
 2133000   0.90800604   -5.1738008    1164.7121  0.045503675  0.045896269            3 
 2134000    0.9038667   -5.1714323      1168.14  0.045616214  0.045886897            2 
 2135000   0.89987929    -5.184183    1167.9551  0.045587631  0.045877487            5 
 2136000   0.90662005   -5.1899063      1170.57  0.045668307  0.045868093            4 
 2137000   0.91410956   -5.1569101    1168.1779  0.045553655  0.045858656            6 
 2138000   0.89063294     -5.15801    1167.6182  0.045510531   0.04584925            4 
 2139000   0.91776604   -5.1950963    1165.1711  0.045393919  0.045839687            7 
 2140000    0.8907596   -5.1524736    1174.3651  0.045730727  0.045830202            5 
 2141000   0.92510574   -5.1800208    1169.7076  0.045528087  0.045820674           16 
 2142000   0.91677487   -5.1759466    1164.5884  0.045307674  0.045811246            3 
 2143000   0.89865119   -5.1907212    1171.6801    0.0455623  0.045801629            4 
 2144000   0.91727828   -5.1945008    1169.3143  0.045449094  0.045792092            4 
 2145000   0.91937066   -5.1672855    1173.3571   0.04558497  0.045782444            2 
 2146000   0.90354964   -5.1488205    1171.8401  0.045504819  0.045773077            4 
 2147000   0.91050568   -5.1700001    1170.8733    0.0454461  0.045763641            3 
 2148000   0.91598008   -5.1731844    1170.2782  0.045401853   0.04575404            2 
 2149000   0.90237502   -5.1461304    1170.3965  0.045385314  0.045744555            4 
 2150000   0.91301196   -5.1907388    1171.7129  0.045415229  0.045735135            4 
 2151000   0.90745532   -5.2032229    1167.7991  0.045242487  0.045725528            6 
 2152000   0.91248081   -5.1812278    1169.5972  0.045291094  0.045715815            2 
 2153000   0.88877184   -5.1735235    1172.9053    0.0453981   0.04570605            6 
 2154000   0.91535007   -5.1687096    1172.8317  0.045374176  0.045696413            7 
 2155000   0.91593431    -5.186976    1172.9956  0.045359458  0.045686906            5 
 2156000    0.9104979   -5.2044534    1172.2338  0.045308975  0.045677316            4 
 2157000   0.92664786   -5.1638802    1176.0903   0.04543696  0.045667801            4 
 2158000   0.89542723   -5.1696303    1174.4775  0.045353627  0.045658216           11 
 2159000   0.91800115    -5.154339     1177.036  0.045431372  0.045648616            6 
 2160000   0.91257393   -5.2042345    1169.6449  0.045125189  0.045639037            5 
 2161000   0.89528585   -5.1768128    1174.4236  0.045288585  0.045629367            4 
 2162000   0.90173546    -5.153653    1178.9969  0.045443915  0.045619815            4 
 2163000   0.91023339   -5.1790596    1176.2028  0.045315258  0.045610206            3 
 2164000   0.89697171   -5.1704979    1174.8782  0.045243308  0.045600565            3 
 2165000    0.9315487   -5.1724874    1173.7609  0.045179405  0.045590786            5 
 2166000   0.89572173   -5.1742522    1174.3837  0.045182507  0.045581199            4 
 2167000   0.90322621   -5.1583021    1177.5094  0.045281855  0.045571543            4 
 2168000   0.90044459   -5.2070087    1174.5839  0.045148522  0.045561967            3 
 2169000   0.88704602   -5.1432723    1181.6615  0.045399629  0.045552374            6 
 2170000    0.9009634   -5.1803074    1177.3934  0.045214799    0.0455428            6 
 2171000   0.90071109   -5.2070857    1177.9435  0.045215088  0.045533216            4 
 2172000   0.90853833   -5.1903634    1175.9454  0.045117609  0.045523602           11 
 2173000   0.90469505   -5.2112378    1176.9086  0.045133788  0.045513849            3 
 2174000   0.89952769   -5.1790432    1178.5068  0.045174285  0.045504127            2 
 2175000   0.88550233   -5.1909513    1177.7526   0.04512462  0.045494626            2 
 2176000   0.91303005   -5.1772937    1180.8525  0.045222599  0.045485039            4 
 2177000   0.89420009   -5.1662766    1180.1515   0.04517499  0.045475432            4 
 2178000   0.90892363   -5.1825138    1177.9296  0.045069239  0.045465767            6 
 2179000   0.88791226    -5.186977    1180.4505  0.045144962  0.045456163            3 
 2180000   0.90028643   -5.2182447    1179.9383  0.045104677   0.04544638            5 
 2181000   0.90660532   -5.1933771    1181.8664  0.045157666  0.045436814            3 
 2182000   0.90342648   -5.1951049    1181.8763  0.045137347  0.045427243            3 
 2183000   0.92252332   -5.1777141    1181.6616  0.045108474  0.045417781            4 
 2184000   0.89682397   -5.1882559    1183.1695  0.045145356  0.045408296            3 
 2185000   0.90612963   -5.2127613    1179.5695  0.044987396    0.0453987            4 
 2186000   0.90762091   -5.2050667    1179.6483  0.044969819  0.045389062            8 
 2187000   0.89942988   -5.1799566    1181.0431  0.045002403  0.045379451            3 
 2188000   0.91048792   -5.2162193     1180.215  0.044950297  0.045369737            3 
 2189000   0.91541506   -5.1785496    1182.0949  0.045001329  0.045360078            3 
 2190000   0.90205816    -5.213908    1181.6431  0.044963588  0.045350514            4 
 2191000   0.90007862   -5.1860052    1180.7684  0.044909798  0.045340946            4 
 2192000   0.91442578   -5.2151761    1181.9909  0.044935786  0.045331152            6 
 2193000   0.89119883   -5.1599511    1187.7075  0.045132522  0.045321541            3 
 2194000     0.889175   -5.2233648    1184.1369  0.044976335  0.045312056            5 
 2195000   0.91742758   -5.1824702    1182.4206  0.044890684  0.045302329            5 
 2196000   0.90900983   -5.1727791    1184.6702  0.044955607  0.045292718            6 
 2197000   0.89630418   -5.1605723    1183.9104  0.044906328  0.045283149            2 
 2198000   0.90682887   -5.2036465    1184.3924  0.044904169  0.045273638            4 
 2199000   0.92280273   -5.2442857    1184.7793   0.04489841  0.045264043            3 
 2200000    0.8944006   -5.2284154    1182.1813  0.044779595  0.045254224            6 
 2201000   0.88577455   -5.1970502    1188.0042  0.044979714  0.045244591            4 
 2202000   0.91547911   -5.1625255    1189.3678  0.045010891   0.04523508            3 
 2203000   0.92906523   -5.1814931    1191.0475  0.045053999  0.045225604            5 
 2204000   0.88686237   -5.1762654    1192.5682  0.045091056  0.045216135            4 
 2205000   0.90399179   -5.1713094    1189.3188  0.044947799  0.045206704            8 
 2206000   0.92145091    -5.183546    1187.5353  0.044860051  0.045197294            5 
 2207000   0.88180956   -5.1869891    1189.2098  0.044902954  0.045187823            3 
 2208000   0.89738033   -5.1871062    1188.0071  0.044837224  0.045178228            3 
 2209000   0.89157678   -5.2054987    1190.2376  0.044901071   0.04516848            8 
 2210000    0.8921318   -5.2237246    1187.5268  0.044778537  0.045158688            2 
 2211000   0.90209678   -5.2107295    1192.3138  0.044938709  0.045148936            5 
 2212000    0.8934378   -5.1782916    1187.6055  0.044741013   0.04513928            3 
 2213000   0.91920543   -5.1885557    1190.2923  0.044821972  0.045129602            4 
 2214000   0.89346651   -5.2090213    1188.6841  0.044741194  0.045119819            3 
 2215000   0.90307566   -5.1879465    1189.8847  0.044766165  0.045109951            4 
 2216000   0.90128271   -5.2027511    1188.5801  0.044696904   0.04510006            3 
 2217000   0.89400468   -5.1789359    1188.1492  0.044660548  0.045090177            3 
 2218000   0.90362816   -5.2034878    1186.0272  0.044560684  0.045080219            5 
 2219000   0.90678002   -5.1706035    1186.7298  0.044566991  0.045070276            4 
 2220000   0.89711968   -5.1735339    1189.1319  0.044637084  0.045060285            3 
 2221000   0.89967855   -5.2294516    1187.5255  0.044556714  0.045050216            9 
 2222000   0.89247945   -5.2149062     1188.566  0.044575682  0.045040115            5 
 2223000   0.90542261   -5.1915863    1187.4023  0.044512007  0.045030197            4 
 2224000   0.88315056   -5.1796705    1187.3142  0.044488692  0.045020366            4 
 2225000   0.90497528   -5.1969857    1193.4482  0.044698433  0.045010382            3 
 2226000   0.89089959    -5.215368    1189.1796  0.044518555  0.045000386            5 
 2227000   0.89899283   -5.2017657    1195.4727  0.044734048  0.044990579            8 
 2228000   0.88669639   -5.2097638    1189.8216  0.044502604  0.044980525            3 
 2229000   0.90621578   -5.1958822    1191.9276  0.044561372  0.044970538            3 
 2230000   0.87578609   -5.1988982    1189.9327  0.044466842  0.044960589            7 
 2231000    0.9151547   -5.2037898    1190.2795  0.044459866  0.044950754            7 
 2232000   0.88415991   -5.1983966    1191.9004  0.044500464  0.044940777            4 
 2233000   0.90635187   -5.2217615    1191.5349  0.044466895  0.044930694            6 
 2234000   0.87918178   -5.2027741    1193.2795  0.044512067  0.044920467            7 
 2235000     0.882944   -5.2123004    1190.9811  0.044406454  0.044910434            3 
 2236000   0.91259632   -5.2176997    1188.7122  0.044302033  0.044900319            6 
 2237000   0.89047763   -5.1801408     1193.855  0.044473811  0.044890401            3 
 2238000   0.90005417   -5.1936714    1196.7567  0.044561986  0.044880508            5 
 2239000    0.9014639   -5.2008029    1197.4215  0.044566827  0.044870551            4 
 2240000   0.89577208   -5.1778267     1198.146  0.044573882  0.044860794            4 
 2241000   0.92316199   -5.2168287    1192.9337  0.044360169  0.044850939            5 
 2242000   0.88103129    -5.221588    1191.8866  0.044301466  0.044840869            6 
 2243000   0.89336489   -5.2404923     1190.975  0.044247846  0.044830781            5 
 2244000   0.90625628   -5.2145893    1193.5611  0.044324163  0.044820894            4 
 2245000   0.88038193   -5.2572286    1191.6072  0.044231895  0.044811006            3 
 2246000   0.89026825   -5.2178339    1197.9234   0.04444655   0.04480117            3 
 2247000   0.90097123   -5.2207419    1194.5612  0.044302077  0.044791404            2 
 2248000   0.89422153   -5.1774616    1196.1924  0.044342838  0.044781675            6 
 2249000   0.90039878   -5.2193352    1197.4879  0.044371123  0.044771838            3 
 2250000   0.89033709   -5.2124213    1192.2079  0.044155849  0.044761905            4 
 2251000   0.89719555   -5.2039934      1194.95  0.044237747  0.044751776            3 
 2252000   0.87107689   -5.2148443    1193.6642  0.044170523  0.044741696            4 
 2253000    0.8929303   -5.1897849     1197.933  0.044308809  0.044731601            7 
 2254000   0.91069888   -5.1830495    1199.5289  0.044348154  0.044721597            5 
 2255000    0.8916113   -5.2171434    1198.2369  0.044280743  0.044711641            3 
 2256000   0.90541622   -5.2221383    1200.4927  0.044344441  0.044701669            8 
 2257000   0.89958955   -5.2098361    1195.2403  0.044130862  0.044691517           10 
 2258000    0.8716978   -5.2045209    1196.8049  0.044169061   0.04468136            6 
 2259000   0.87086355   -5.2156319    1197.2927  0.044167504  0.044671307           15 
 2260000   0.89579233   -5.2264757    1194.7747  0.044055115  0.044661061            4 
 2261000   0.90338776   -5.2298965    1198.0285  0.044155556  0.044650952           10 
 2262000   0.92798093    -5.247267    1194.5526  0.044007978  0.044640892            5 
 2263000   0.90363344   -5.1700239    1203.6611  0.044323947  0.044630898            7 
 2264000   0.89159756   -5.2203016    1198.4169  0.044111342  0.044621017            4 
 2265000   0.91206729   -5.2461705    1199.4014  0.044128086  0.044610937            7 
 2266000   0.88218898   -5.2192485    1202.3583  0.044217354  0.044600961            4 
 2267000   0.88190787   -5.2378337    1198.0898  0.044040944  0.044591005            3 
 2268000   0.87815419   -5.2188137    1200.8248  0.044122016  0.044580898            6 
 2269000   0.88570951    -5.230979    1199.5317  0.044055079  0.044570815            4 
 2270000   0.90954759   -5.1909366    1201.6867  0.044114783  0.044560789            3 
 2271000   0.88366493   -5.1719348    1203.4193  0.044158934  0.044550806            2 
 2272000    0.8987959   -5.2144504    1204.1052  0.044164656  0.044540713            5 
 2273000    0.8896729   -5.1813287    1202.0113  0.044068461  0.044530774            3 
 2274000   0.88492069   -5.2249673    1201.5019  0.044030414   0.04452081            5 
 2275000   0.86975325   -5.2425825    1202.0614  0.044031552  0.044510554            3 
 2276000   0.88538294   -5.2038651     1201.229  0.043981731  0.044500337            4 
 2277000   0.87381005    -5.217618    1198.0928  0.043847636  0.044490212            6 
 2278000   0.86849857   -5.2119555    1201.4012  0.043949416  0.044480096            6 
 2279000   0.87759219   -5.2219141    1201.5353  0.043935032  0.044469917            6 
 2280000    0.8910096   -5.2269524    1204.1041  0.044009654  0.044459692            2 
 2281000   0.87844138   -5.2008418    1202.5524  0.043933669  0.044449631            4 
 2282000   0.88327263   -5.2198559    1208.3461  0.044125989  0.044439568            4 
 2283000   0.89063085   -5.2060167    1207.7576   0.04408518  0.044429464            3 
 2284000   0.89598965   -5.2177087    1204.0491   0.04393057  0.044419247            4 
 2285000   0.89250149   -5.2480508    1198.6028   0.04371272  0.044409163            7 
 2286000   0.88933299   -5.2104208    1203.7335  0.043880633  0.044398948            3 
 2287000   0.90092995   -5.2119278    1206.7305  0.043970651  0.044388803            4 
 2288000   0.88635225   -5.2026494    1202.8208  0.043809033  0.044378651            7 
 2289000   0.87229777   -5.2211165    1202.7867  0.043788651  0.044368507            4 
 2290000   0.86816587   -5.2206152    1204.4684  0.043830728  0.044358243            3 
 2291000   0.89198788   -5.2311116    1204.5891  0.043815986  0.044348108           12 
 2292000   0.86664061    -5.204104    1205.7509   0.04383911  0.044337977            4 
 2293000   0.89082542   -5.2083762    1206.7776  0.043857307  0.044327899            3 
 2294000   0.87951714   -5.2150933    1202.2384  0.043673291  0.044317695            8 
 2295000   0.89988971   -5.2160265     1205.154  0.043760129  0.044307477            9 
 2296000   0.88781369   -5.1991508    1206.2107  0.043779425   0.04429721            9 
 2297000   0.88542177   -5.2005052    1208.4656   0.04384217  0.044286992            3 
 2298000   0.89063526   -5.2395682    1207.2971  0.043780719  0.044276823            3 
 2299000   0.88845479   -5.2139083    1206.0811  0.043717598  0.044266663            5 
 2300000      0.87523   -5.1915053    1209.9137  0.043837452  0.044256654            3 
 2301000   0.88482669   -5.1908923    1207.3639  0.043726057  0.044246547            6 
 2302000   0.89028239   -5.2104048    1207.6879  0.043718791  0.044236406            5 
 2303000   0.88603986   -5.2362154    1209.1948  0.043754336    0.0442262            6 
 2304000   0.88151199   -5.2324069    1205.0763  0.043586384  0.044215901            5 
 2305000    0.8745911    -5.241007    1208.8365  0.043703418  0.044205755            2 
 2306000   0.88112059   -5.2338473    1208.7892  0.043682756  0.044195447            4 
 2307000   0.87295558   -5.1993569    1209.5927  0.043692843  0.044185138            4 
 2308000   0.87470073   -5.2146122    1211.2411   0.04373343  0.044175015            2 
 2309000   0.88511432   -5.2173338    1206.7351  0.043551867  0.044164648            4 
 2310000   0.90237001   -5.1895659    1207.3729  0.043556022  0.044154365            5 
 2311000    0.8976548   -5.2147348    1210.9024  0.043664445  0.044144147            3 
 2312000   0.90266393   -5.1905698    1209.9565  0.043611464  0.044133852            5 
 2313000   0.87980803   -5.2351501    1211.4737  0.043647272  0.044123497           10 
 2314000   0.89664989   -5.2128174     1213.522  0.043702175  0.044113146            7 
 2315000   0.87936627   -5.2043191    1210.1235   0.04356096  0.044102883            4 
 2316000   0.86461267   -5.2413587    1210.0937  0.043541081  0.044092678            4 
 2317000   0.87329181   -5.2267795    1208.0904  0.043450239  0.044082327            2 
 2318000   0.88013834   -5.2157227    1211.3647  0.043549204  0.044071974            5 
 2319000   0.89584899   -5.2369209    1208.8029  0.043438369  0.044061724            6 
 2320000   0.88017538   -5.2343652    1208.1947  0.043397797  0.044051508            5 
 2321000   0.88427518   -5.2398382    1213.3132  0.043562876  0.044041193            4 
 2322000   0.87871094   -5.2595285     1208.937  0.043387059  0.044030786            4 
 2323000   0.88347232   -5.2106671    1208.4577  0.043351188  0.044020394            4 
 2324000   0.88212655   -5.2828461    1209.7867   0.04338019  0.044010033            5 
 2325000   0.86980083   -5.2146533    1212.5759    0.0434615  0.043999618            3 
 2326000   0.90727628   -5.2341284    1213.0866  0.043461115  0.043989304            6 
 2327000   0.88045691    -5.246489    1215.8694  0.043542091  0.043979106            3 
 2328000   0.87823216   -5.2306863    1216.2712  0.043537771  0.043968972           10 
 2329000   0.86872705   -5.2549735    1216.5714   0.04352982  0.043958806            4 
 2330000   0.88250785   -5.2537398    1214.0347  0.043420412   0.04394874            5 
 2331000   0.88270391   -5.2198804    1216.3134  0.043483248  0.043938515            3 
 2332000   0.86877823   -5.2105952    1219.4387  0.043576285  0.043928462            9 
 2333000   0.88305003   -5.2287775    1212.5185  0.043310421    0.0439184            8 
 2334000   0.88678145   -5.2336188    1217.2374  0.043460346  0.043908123            9 
 2335000   0.87354793   -5.2570493    1211.0762   0.04322185  0.043897859           11 
 2336000   0.88663238   -5.2087488    1214.7717  0.043335178  0.043887502            3 
 2337000   0.85850762   -5.2649254    1213.8096  0.043282328  0.043877111            3 
 2338000   0.86794003   -5.2563915    1208.8991  0.043088792  0.043866602            5 
 2339000   0.87244952   -5.2217101     1213.999  0.043252065   0.04385621            5 
 2340000    0.8714956   -5.2247776     1212.838  0.043192238  0.043845669            5 
 2341000    0.8681446   -5.2709292    1212.9701  0.043178487  0.043835131           13 
 2342000   0.89023126   -5.2457156    1214.8899  0.043228363  0.043824639            4 
 2343000   0.87311311   -5.2325904    1218.2587  0.043329731  0.043814269            2 
 2344000   0.87078635   -5.2159411    1217.4845  0.043283723  0.043804059            6 
 2345000   0.88816179   -5.2439309    1219.7082  0.043344285  0.043793643           11 
 2346000   0.89924796   -5.2126359    1219.5213  0.043319171  0.043783354            5 
 2347000   0.89749817   -5.2551527    1216.8191  0.043204767   0.04377303            6 
 2348000   0.89297532   -5.2446474    1218.9032  0.043260334  0.043762643            3 
 2349000   0.85271972    -5.252391    1215.3497  0.043115853  0.043752276            5 
 2350000    0.8708073   -5.2150255    1218.9525  0.043225267  0.043741979            5 
 2351000   0.87207037   -5.2380725    1213.8706  0.043026749  0.043731677            3 
 2352000   0.88524002   -5.2473171    1219.0257  0.043191103  0.043721272            7 
 2353000   0.89448623   -5.2493898    1215.4039  0.043044479  0.043710835            5 
 2354000   0.88785016   -5.2318455     1220.212  0.043196404  0.043700553            8 
 2355000   0.85721602   -5.2152474    1220.2447  0.043179218  0.043690298            4 
 2356000   0.86578791   -5.2733271    1221.2214  0.043195436  0.043679992            4 
 2357000   0.89368277   -5.2182098    1221.2064  0.043176579  0.043669708            7 
 2358000   0.86363402   -5.2353651    1220.9926  0.043150712  0.043659529            6 
 2359000   0.86114822   -5.2255533    1223.0417  0.043204808  0.043649319            3 
 2360000   0.88639688   -5.2575454    1219.8094  0.043072365  0.043639082            4 
 2361000   0.88733108   -5.1966424    1227.5085   0.04332587  0.043628879            8 
 2362000   0.87087134    -5.279106    1218.2323  0.042980252  0.043618681            7 
 2363000    0.8750406   -5.2377101     1222.758  0.043121667  0.043608386            5 
 2364000   0.86546088    -5.232138    1224.7406  0.043173315  0.043598208            7 
 2365000   0.86528706   -5.2483153    1222.5905  0.043079297  0.043588087           17 
 2366000   0.88137794   -5.2408557    1222.9833  0.043074924  0.043577866            6 
 2367000   0.88121379   -5.2606756       1225.3  0.043138291  0.043567698            5 
 2368000   0.85649532   -5.2419996     1227.136  0.043184685  0.043557562            5 
 2369000   0.86605918   -5.2480982    1223.3432  0.043033038  0.043547372            3 
 2370000   0.86526529   -5.2318968    1220.2817  0.042907233  0.043537267           10 
 2371000   0.86578723   -5.2130367    1228.2642  0.043169697  0.043527174            3 
 2372000   0.86636589   -5.2935717    1224.0447  0.043003256  0.043517111            8 
 2373000   0.89669091   -5.2345367    1227.9656  0.043122828  0.043507104           12 
 2374000   0.87751427   -5.2235482    1230.8636  0.043206387  0.043497132            6 
 2375000   0.86846356   -5.2870814    1225.0894  0.042985594  0.043487206            6 
 2376000   0.87345331   -5.2442441    1226.5864  0.043020004  0.043477106            5 
 2377000   0.88310419   -5.2515896    1228.7723   0.04307854  0.043467138            2 
 2378000   0.86994463   -5.2630116    1226.4821  0.042980168  0.043457289            6 
 2379000    0.8801708    -5.245603    1230.7747  0.043112465  0.043447398            6 
 2380000   0.86618691    -5.238671    1231.1365  0.043107019   0.04343746            7 
 2381000   0.87039294   -5.2455588     1231.552  0.043103458  0.043427462            7 
 2382000   0.86786484   -5.2479383    1228.6354  0.042983326  0.043417638            6 
 2383000   0.86192394    -5.242434    1234.6534  0.043175739  0.043407727            3 
 2384000   0.87264155   -5.2423713    1231.2668  0.043039246  0.043397692            7 
 2385000   0.88471942   -5.2688425    1230.5642  0.042996652  0.043387756            4 
 2386000   0.86606429   -5.2618501    1233.4369  0.043078965  0.043377795           10 
 2387000   0.87356147   -5.2447813    1235.1465  0.043120603  0.043367799            8 
 2388000   0.88114814   -5.2554071    1231.5061  0.042975508  0.043357838            3 
 2389000   0.88041573   -5.2242523    1229.9797  0.042904274    0.0433479            5 
 2390000   0.86467319   -5.2464126    1233.7123  0.043016466  0.043338086           11 
 2391000   0.87816871   -5.2648234    1229.9874  0.042868654  0.043328131            3 
 2392000   0.86507119   -5.2659492    1231.1527  0.042891327  0.043318117            5 
 2393000   0.86500324   -5.2518272    1227.8522  0.042758471  0.043308078            2 
 2394000   0.86051002   -5.2534605    1234.2433  0.042963077  0.043298088            6 
 2395000   0.85866567   -5.2677778    1232.0062  0.042867299  0.043288077            7 
 2396000   0.86275527   -5.2378747    1235.4715  0.042969931  0.043278359            7 
 2397000    0.8640152   -5.2214195    1236.0514  0.042972168  0.043268478            4 
 2398000   0.86279752   -5.2654271     1235.746  0.042943633  0.043258549            3 
 2399000   0.85890903    -5.267267    1231.3653  0.042773561  0.043248547            8 
 2400000   0.87122231   -5.2689392    1234.5794  0.042867339  0.043238579            7 
 2401000    0.8689228   -5.2314463    1233.7895  0.042822071  0.043228547            3 
 2402000   0.87482968   -5.2558959    1235.1844  0.042852637  0.043218622            3 
 2403000   0.87508373   -5.2431104     1231.449  0.042705265  0.043208669            3 
 2404000   0.87347062   -5.2681209    1234.3492  0.042788035  0.043198727            5 
 2405000   0.87982925   -5.2647571    1233.6726  0.042746798  0.043188778            6 
 2406000   0.84973175   -5.2665252    1234.6669   0.04276347  0.043178744            4 
 2407000   0.85375687   -5.2262346     1239.638  0.042917808  0.043168731            2 
 2408000   0.86264514   -5.2706072    1235.8679  0.042769515   0.04315878            4 
 2409000   0.87240539   -5.2546063    1236.2376  0.042764551  0.043148906            3 
 2410000   0.86069144   -5.2229836    1236.0428  0.042740068  0.043139035            4 
 2411000   0.87230289   -5.2877641     1232.402  0.042596503   0.04312913            4 
 2412000   0.85846436   -5.2729185    1235.8976  0.042699615  0.043119278           15 
 2413000   0.86186492   -5.2516278    1234.5844  0.042636567  0.043109452            4 
 2414000   0.87581135   -5.2548958    1238.2884   0.04274677  0.043099494            7 
 2415000   0.86100447   -5.2569157    1236.4516  0.042665687  0.043089733            5 
 2416000   0.87835447   -5.2801908    1241.5632  0.042824338  0.043079932            2 
 2417000   0.87960015   -5.2546217    1238.0668  0.042686073  0.043070087            3 
 2418000    0.8598895   -5.2600186    1238.8913  0.042696831   0.04306041            3 
 2419000   0.86405217   -5.2674415    1241.2855  0.042761663   0.04305059            3 
 2420000   0.84467637   -5.2569668    1243.5456  0.042821818  0.043040872            5 
 2421000   0.87595991   -5.2662391    1239.0183  0.042648298  0.043031064            4 
 2422000   0.85942127   -5.2715472    1241.8208  0.042727114  0.043021344            6 
 2423000   0.86208149   -5.2824373     1241.502  0.042698514  0.043011717            3 
 2424000   0.86403752   -5.2674375     1243.351  0.042744464  0.043001909            6 
 2425000   0.88585522   -5.2711362    1243.5142  0.042732448  0.042992304            5 
 2426000   0.86638396   -5.2581921    1240.5479  0.042612939  0.042982584            4 
 2427000   0.83970261   -5.2482834    1242.1149  0.042649187  0.042972846            4 
 2428000   0.84052528   -5.3035437    1237.7155  0.042480626  0.042962966            4 
 2429000   0.88375531   -5.2906402    1240.9714  0.042574838  0.042953204            5 
 2430000   0.86245872   -5.2626573    1243.6521   0.04264925  0.042943389            3 
 2431000   0.88549319   -5.2670641    1241.1549  0.042546102  0.042933521            5 
 2432000   0.87517413   -5.2873337    1240.3541  0.042501169  0.042923582            8 
 2433000   0.86895767   -5.2818466    1242.6261  0.042561518  0.042913695            8 
 2434000   0.87154012   -5.2880877    1241.0436  0.042489852  0.042903839            5 
 2435000   0.85904874   -5.2507056    1246.4618  0.042657829  0.042894002            9 
 2436000   0.85828082   -5.2609501    1245.2852   0.04260007  0.042884314            4 
 2437000   0.86039494   -5.2759154    1242.8628  0.042499754  0.042874409            8 
 2438000   0.84777698   -5.2512639    1242.8534  0.042482001  0.042864448            3 
 2439000   0.87553715   -5.2561185    1245.7697  0.042564222  0.042854557            9 
 2440000   0.88750997   -5.2696367    1246.3544  0.042566747  0.042844837            3 
 2441000   0.87258579   -5.2723178     1249.143  0.042644509  0.042834926            3 
 2442000    0.8662796   -5.2708334    1247.0769  0.042556541  0.042825111            3 
 2443000   0.86102109   -5.2838009    1247.5175   0.04255415   0.04281522           12 
 2444000   0.84119071   -5.2723053    1248.6165  0.042574213  0.042805425            3 
 2445000   0.85535273   -5.2545605    1244.2931  0.042409445   0.04279555            3 
 2446000   0.86049217   -5.2589431     1244.322  0.042393092  0.042785686            3 
 2447000   0.87012645   -5.2539606    1248.0288  0.042502003  0.042775888            4 
 2448000   0.85869543    -5.255681    1245.8669  0.042411046  0.042766093            4 
 2449000   0.85413284   -5.2785633    1242.6782  0.042285225  0.042756229            4 
 2450000   0.83142154   -5.2493057    1249.2826  0.042492606  0.042746319            4 
 2451000   0.86095944   -5.2937675    1244.8785   0.04232553  0.042736366            5 
 2452000   0.86539718   -5.2636915    1243.8929  0.042274773  0.042726461            5 
 2453000   0.85062494   -5.2993343    1245.6871  0.042318491  0.042716605            4 
 2454000   0.86396924   -5.2818149    1247.3699  0.042358392  0.042706814            4 
 2455000   0.86522318   -5.2814024    1246.4472  0.042309817  0.042697011            6 
 2456000   0.87947375   -5.2852782    1247.7276  0.042336035  0.042687139           12 
 2457000   0.85996366   -5.2720456    1250.6452  0.042417759  0.042677266           12 
 2458000   0.87218396   -5.2431077     1245.518  0.042226673  0.042667434            6 
 2459000   0.86072743    -5.290103    1248.4041   0.04230731  0.042657455            6 
 2460000   0.84981318   -5.2519042    1250.1419  0.042348982  0.042647576            6 
 2461000   0.85768221   -5.2860001     1246.828  0.042219557  0.042637793            7 
 2462000   0.85795456   -5.2619488    1251.1204    0.0423477  0.042627894            4 
 2463000   0.85189041   -5.2711726    1247.2739  0.042200361  0.042618143            4 
 2464000   0.85051467   -5.2807314     1255.804  0.042471728  0.042608317            6 
 2465000    0.8686977   -5.2814266    1252.3459  0.042337589  0.042598472            4 
 2466000   0.87817828   -5.2732074    1252.0748  0.042311261  0.042588656            4 
 2467000   0.84641748   -5.2887401    1247.8639  0.042151868  0.042578783            6 
 2468000   0.84490134     -5.28268      1247.32  0.042116423  0.042568858            4 
 2469000   0.85794195   -5.2586354    1257.5536  0.042444769  0.042559069            6 
 2470000   0.85835151   -5.2629515    1251.2337  0.042214362  0.042549348            6 
 2471000   0.87386905   -5.2790338    1250.3316  0.042166857  0.042539466            5 
 2472000   0.85015019   -5.2332076    1256.3404  0.042352361  0.042529747            5 
 2473000   0.84996301   -5.2647912    1249.7483  0.042113098  0.042519889            5 
 2474000   0.84974635   -5.3023462    1248.1618  0.042042637  0.042510057            4 
 2475000   0.86069459   -5.2814212    1250.8129  0.042114912  0.042500173            8 
 2476000    0.8519716   -5.2522179    1251.4299  0.042118669  0.042490383            4 
 2477000   0.85973518   -5.2979557    1250.9285  0.042084798  0.042480505            4 
 2478000   0.83722638   -5.2674114    1252.0278  0.042104782  0.042470693            8 
 2479000    0.8679906   -5.2179478     1255.861  0.042216655  0.042460814            3 
 2480000   0.85007598   -5.3208898    1250.4372  0.042017381  0.042450951           13 
 2481000   0.86055647   -5.2925445    1248.6645  0.041940901  0.042441106            4 
 2482000   0.85227193   -5.2782722    1250.9462   0.04200061  0.042431283            9 
 2483000   0.86561717   -5.2899666    1252.0925  0.042022168  0.042421449           15 
 2484000   0.86088087   -5.2954485    1252.0715  0.042004547  0.042411575            3 
 2485000   0.85300223   -5.2859363     1256.818  0.042146814  0.042401763            6 
 2486000   0.85984607   -5.3114616    1251.4759  0.041950789  0.042391855            3 
 2487000   0.83600973   -5.2762439    1251.7486  0.041943058  0.042382032            4 
 2488000   0.87024617   -5.3068992    1255.4368  0.042049733  0.042372168            4 
 2489000   0.85367683   -5.2718035    1255.1231  0.042022334   0.04236227            5 
 2490000   0.83138006   -5.2901404    1255.0738   0.04200381  0.042352401            7 
 2491000   0.86734698   -5.2692212    1257.7518  0.042076535  0.042342548            4 
 2492000   0.87175155    -5.266366    1256.3862  0.042013986   0.04233278            7 
 2493000   0.86365151   -5.2911453      1254.16  0.041922717  0.042322881            6 
 2494000   0.87470692   -5.2710189    1257.8375  0.042028784  0.042313036            7 
 2495000    0.8539943   -5.3021705    1261.2221  0.042124988  0.042303145            5 
 2496000   0.86293183    -5.251848    1257.2632  0.041975935  0.042293421            6 
 2497000   0.85349715   -5.2808017    1260.1478  0.042055393  0.042283649            5 
 2498000   0.83064067   -5.2908934    1256.7187  0.041924163  0.042273924            4 
 2499000   0.86414054   -5.2900117    1258.6544  0.041971936   0.04226401            4 
 2500000   0.85556887   -5.3089666    1257.0087   0.04190029  0.042254096            4 
 2501000   0.84519029   -5.2830749    1258.8349  0.041944384  0.042244214            8 
 2502000   0.84399836    -5.304459    1257.7411   0.04189119  0.042234444            3 
 2503000   0.83650818   -5.2906993    1258.6866  0.041905933  0.042224628            6 
 2504000   0.84710299   -5.2746112    1258.1329  0.041870769  0.042214708            4 
 2505000   0.85946567   -5.2907639    1258.1874  0.041855867  0.042204946            6 
 2506000   0.84618764   -5.2799095    1258.5428  0.041850983  0.042195103            4 
 2507000   0.86939963   -5.2828992    1263.7592  0.042007684  0.042185314            4 
 2508000   0.82864409   -5.3191373    1260.3523  0.041877736  0.042175378            4 
 2509000   0.84637183   -5.3219058    1256.6058   0.04173661   0.04216549            8 
 2510000   0.81926894   -5.2991504    1258.1247  0.041770409   0.04215544            4 
 2511000   0.84553417   -5.2855826    1259.7291   0.04180702  0.042145523            3 
 2512000   0.84646483   -5.2916914    1259.7465  0.041790954  0.042135523            5 
 2513000   0.84797405   -5.2878223    1259.7189  0.041773408  0.042125469            8 
 2514000    0.8448072   -5.3056723    1257.5151  0.041683741  0.042115397            4 
 2515000   0.84740929   -5.2864128    1258.0689  0.041685516  0.042105339            6 
 2516000   0.87256261   -5.2666164    1255.6482  0.041588773  0.042095405            3 
 2517000    0.8454404   -5.3169929    1256.8011  0.041610418  0.042085361            3 
 2518000   0.85861106    -5.307412    1257.6673   0.04162256  0.042075312            4 
 2519000   0.86530439   -5.2774301    1261.1434  0.041721034  0.042065409            7 
 2520000   0.87325189   -5.2690115    1256.7112   0.04155791  0.042055524            3 
 2521000   0.84669264   -5.3192436    1257.1479  0.041555862  0.042045542            5 
 2522000   0.86083965   -5.3188441    1256.2719  0.041510439  0.042035464            3 
 2523000   0.85489966    -5.304415     1257.949  0.041549378  0.042025252            5 
 2524000   0.85628573   -5.3046401     1261.756   0.04165861  0.042015246            4 
 2525000   0.83212802   -5.2963267    1261.2135  0.041624207  0.042005358            7 
 2526000   0.82644557    -5.301325    1259.7038  0.041557923  0.041995285            7 
 2527000    0.8596586   -5.3119996    1256.5612  0.041437843  0.041985266            3 
 2528000   0.84304688   -5.2578937    1262.9487  0.041632012  0.041975281            8 
 2529000   0.85332334   -5.3146644    1260.7222  0.041542183  0.041965433            5 
 2530000   0.84602989   -5.2636879    1263.2322   0.04160844  0.041955516            3 
 2531000   0.83885714   -5.3090141    1260.0343  0.041486709  0.041945652            5 
 2532000   0.83236035   -5.3020024    1260.8778  0.041498083  0.041935625            4 
 2533000   0.82770608   -5.3245359     1262.646  0.041539875  0.041925573           18 
 2534000   0.84494562   -5.3015042    1263.3737  0.041547413  0.041915527            7 
 2535000   0.84762058   -5.3060102    1262.6884  0.041508493  0.041905517            5 
 2536000   0.84545057   -5.3323824    1264.6573  0.041556823    0.0418956            4 
 2537000    0.8374764    -5.307108    1263.4694  0.041501424  0.041885628           10 
 2538000   0.84900199   -5.2865159    1264.6624  0.041524244  0.041875625            3 
 2539000   0.84021211    -5.325308    1262.6294  0.041441165  0.041865554            6 
 2540000   0.84674775   -5.2967233    1265.5451  0.041520507  0.041855568            2 
 2541000   0.86928252   -5.2982303    1264.2971  0.041463241  0.041845596            4 
 2542000    0.8459015   -5.2795966    1265.0966  0.041473139  0.041835578            7 
 2543000   0.84980612   -5.2772147    1266.0778  0.041488982    0.0418256            4 
 2544000   0.86289395   -5.3177054    1262.7109  0.041362386  0.041815452           14 
 2545000   0.84577828   -5.2974939    1267.0157  0.041487088  0.041805334            5 
 2546000   0.84892888   -5.3147784    1265.7708  0.041430046  0.041795218            6 
 2547000   0.82910747   -5.2860062    1261.4048  0.041270934  0.041785037            9 
 2548000   0.83671554   -5.3332416    1262.8258   0.04130121  0.041774866            6 
 2549000   0.83163752   -5.2902935    1260.9714  0.041224381  0.041764589            5 
 2550000   0.84826673   -5.2985623     1267.598  0.041424771  0.041754465            4 
 2551000   0.86832643   -5.2791314    1262.5737  0.041244403  0.041744246            3 
 2552000   0.81241292   -5.3037904    1262.5672   0.04122803  0.041734016            9 
 2553000    0.8467853   -5.3182865    1263.0254  0.041226839  0.041723721            9 
 2554000   0.85046516   -5.2816536    1264.8745   0.04127103   0.04171345            4 
 2555000   0.85780458   -5.2951267    1262.7144  0.041184421   0.04170334            8 
 2556000   0.83402506   -5.2794069    1268.9845  0.041372736  0.041693194            5 
 2557000   0.81900558   -5.2875675    1265.2305  0.041234209  0.041683057            6 
 2558000   0.83540419   -5.2825104    1266.3319   0.04125397  0.041672897            3 
 2559000   0.84658615   -5.2948869    1262.0887  0.041099671  0.041662719            9 
 2560000   0.84778307   -5.3203858    1267.1647  0.041248851  0.041652542            6 
 2561000   0.85164957   -5.3064957     1265.645  0.041183294  0.041642306            4 
 2562000   0.82905676   -5.2966138    1264.7417  0.041137837  0.041632233            7 
 2563000   0.83067735   -5.2964769    1267.1436  0.041199882  0.041622146           10 
 2564000   0.82255102   -5.3182512    1266.2088  0.041153433  0.041612133            4 
 2565000   0.87703346   -5.3351403     1269.185  0.041234082  0.041602049            5 
 2566000   0.85103144    -5.302125    1270.7074  0.041267452  0.041591999            4 
 2567000   0.83774041    -5.314116    1268.6649   0.04118507  0.041582004            4 
 2568000   0.84483147   -5.3019686     1266.542  0.041100141  0.041572005            3 
 2569000   0.85214321   -5.3083886    1265.8806   0.04106269  0.041561963            7 
 2570000   0.82784646    -5.300179    1272.0412  0.041246473  0.041551885            5 
 2571000   0.83722782    -5.301008    1269.5083   0.04114833  0.041541856           11 
 2572000   0.81444887    -5.277226    1270.2278  0.041155643  0.041531808           13 
 2573000   0.82476368   -5.3122396    1268.0132  0.041067924   0.04152167            5 
 2574000   0.83294666   -5.2996029    1269.9504  0.041114684  0.041511708            5 
 2575000   0.84705436   -5.3128745    1265.5973  0.040957842  0.041501716            6 
 2576000   0.84124608   -5.3027177     1271.253  0.041124902  0.041491687            7 
 2577000   0.83843898   -5.3085325    1269.7279  0.041059626  0.041481601            5 
 2578000    0.8469222   -5.3193434    1271.9878  0.041116749  0.041471474            5 
 2579000    0.8112362   -5.2942416    1270.8051  0.041062591  0.041461423           11 
 2580000   0.84288083   -5.3070995    1268.9879  0.040987982  0.041451285            5 
 2581000   0.81404726   -5.3191273    1271.7128  0.041060079  0.041441313            5 
 2582000   0.83815535   -5.2871714     1271.276   0.04103008  0.041431278            2 
 2583000    0.8354779   -5.3216191    1273.2979  0.041079426  0.041421291            5 
 2584000   0.83005103   -5.3002862    1277.2504  0.041190996  0.041411306            5 
 2585000    0.8552909   -5.2866776     1272.739  0.041029625  0.041401381            5 
 2586000   0.84863547   -5.2945469    1275.0467  0.041088126  0.041391367            6 
 2587000   0.83759193   -5.3069393    1275.5531  0.041088554  0.041381466            5 
 2588000   0.84876983    -5.324541     1273.034  0.040991564  0.041371465            7 
 2589000    0.8141283   -5.3448468    1264.5718  0.040703355  0.041361334           11 
 2590000   0.85755338   -5.3445456    1270.2696  0.040870965  0.041351226            9 
 2591000   0.84156047   -5.2944147    1276.5963  0.041058674  0.041341277           11 
 2592000   0.84514384   -5.3096078    1273.5824  0.040945935   0.04133144            5 
 2593000   0.82750532   -5.3396812     1273.549  0.040929072  0.041321431            5 
 2594000   0.81727514   -5.3345617    1271.0377  0.040832617  0.041311425            9 
 2595000   0.82569832   -5.3371563    1272.3407  0.040858726   0.04130143            4 
 2596000    0.8237573   -5.3175292     1272.837  0.040858917  0.041291344            3 
 2597000   0.83905438   -5.3113126    1275.0577  0.040914442  0.041281343            3 
 2598000   0.82996432   -5.3359585    1272.2542   0.04080877  0.041271252            6 
 2599000   0.84019415   -5.3012693    1275.6506   0.04090197  0.041261236            6 
 2600000   0.83578874    -5.357817    1272.3188  0.040779448  0.041251172            9 
 2601000   0.84649867   -5.2937199    1274.2046  0.040824188  0.041241057            8 
 2602000   0.83944274   -5.3482641     1277.049  0.040899597   0.04123097            7 
 2603000    0.8353964   -5.3022051    1275.0389  0.040819533  0.041220986            6 
 2604000   0.84034849    -5.318065    1273.2266  0.040745858  0.041210962            6 
 2605000    0.8414924   -5.3304751    1273.9259  0.040752587  0.041200968           10 
 2606000   0.84044264   -5.3349536    1278.5712  0.040885496  0.041190905            8 
 2607000   0.82112655   -5.3055523    1274.2214  0.040730769  0.041180933            5 
 2608000   0.83458939   -5.3407273    1278.4273  0.040849542  0.041170908            5 
 2609000    0.8420297   -5.3214902    1276.4314  0.040770134  0.041160905            2 
 2610000   0.82469399   -5.3333595    1277.8683  0.040800392  0.041150938            7 
 2611000   0.84011461   -5.3026398    1278.4616  0.040803702  0.041140918            4 
 2612000   0.83437058   -5.3370337    1278.5121  0.040789693  0.041130891            4 
 2613000    0.8406224   -5.3310353    1276.4283  0.040707627  0.041120945            9 
 2614000   0.83501217   -5.3352766    1276.2948  0.040687797  0.041110954            4 
 2615000   0.83681898   -5.3563579    1273.7117  0.040589922  0.041100936            8 
 2616000   0.81394568   -5.3450318    1277.7737    0.0407038  0.041090929            8 
 2617000    0.8365605   -5.3051977    1283.9548  0.040885073  0.041080864            7 
 2618000   0.84904448   -5.3090117       1281.4  0.040788134   0.04107088            5 
 2619000   0.83772571   -5.3423354    1279.7991  0.040721619  0.041060885            8 
 2620000   0.84400689   -5.3376218    1278.9616  0.040679441  0.041050839            9 
 2621000   0.81303676   -5.3311528    1278.4588  0.040647932  0.041040703            4 
 2622000   0.83722982   -5.3190539    1277.8165  0.040612016  0.041030725            4 
 2623000   0.83379229    -5.314319    1279.9399  0.040663996  0.041020664           17 
 2624000   0.81721246   -5.3504368    1275.2292  0.040498894  0.041010627            3 
 2625000   0.83108219   -5.3566352    1279.1307  0.040607323  0.041000545            4 
 2626000   0.84944949   -5.3627184    1278.1488  0.040560701  0.040990571            6 
 2627000    0.8377891   -5.3392991    1278.6832  0.040562213  0.040980428            4 
 2628000   0.82645298    -5.362076    1278.4707  0.040540041  0.040970301            6 
 2629000   0.83554582   -5.3176643    1281.7325  0.040628012  0.040960243            3 
 2630000   0.83614921   -5.3592319    1273.9723  0.040366675  0.040950166            4 
 2631000   0.82965276   -5.3624978    1274.9071  0.040380943  0.040940013            5 
 2632000   0.82538277   -5.3103381    1284.2395  0.040661078  0.040929896            8 
 2633000   0.81524465    -5.309507    1281.8507  0.040570032  0.040919788           13 
 2634000   0.83477742   -5.3622503    1278.1869  0.040438715  0.040909603            5 
 2635000   0.85152094    -5.351652    1279.9849  0.040480232  0.040899348            8 
 2636000   0.83167828   -5.3354165    1281.7875  0.040521862  0.040889135            6 
 2637000   0.84521586   -5.3393339    1277.3316  0.040365681  0.040878974            2 
 2638000   0.84796586   -5.3517596    1282.1936  0.040503966  0.040868808            4 
 2639000   0.82497234   -5.3180611    1282.8622  0.040509733  0.040858685            9 
 2640000   0.84606536   -5.3307398    1282.0876  0.040469937  0.040848602            4 
 2641000   0.83276167   -5.3411845     1278.769    0.0403499  0.040838457            3 
 2642000    0.8357736   -5.3612673    1280.3127  0.040383319  0.040828221            7 
 2643000   0.83228073   -5.3394899    1280.1387  0.040362552   0.04081801            8 
 2644000   0.82914666   -5.3509761    1279.6636  0.040332311   0.04080778            6 
 2645000   0.82313968   -5.3640265    1278.0702  0.040266862  0.040797626            7 
 2646000   0.83496934    -5.338322    1279.5455  0.040298106  0.040787533            3 
 2647000   0.82573761   -5.3453095    1283.1102  0.040395109  0.040777399            6 
 2648000   0.82560683    -5.352592    1281.6572  0.040334125  0.040767291            7 
 2649000   0.84223555   -5.3642385    1277.4031  0.040185073   0.04075714            7 
 2650000   0.84042451   -5.3320591      1282.29  0.040323584  0.040746983            7 
 2651000   0.83108429   -5.3861272    1282.6952  0.040321113  0.040736864            5 
 2652000   0.81405284   -5.3744665     1283.293  0.040324692  0.040726757            5 
 2653000   0.84386404   -5.3451344    1284.7633  0.040355675  0.040716655            6 
 2654000    0.8178943   -5.3485052    1285.5831  0.040366212  0.040706456            5 
 2655000   0.83209944   -5.3440575    1277.4621  0.040096112  0.040696336            9 
 2656000   0.83112747   -5.3016971    1287.2127  0.040386945  0.040686299            5 
 2657000   0.81940141   -5.3512571    1283.8059  0.040264896  0.040676221            5 
 2658000   0.83325041   -5.3397589    1287.2498   0.04035772  0.040666186            5 
 2659000   0.81549622   -5.3745974    1283.0827  0.040211943   0.04065604            3 
 2660000   0.82595894   -5.3351466    1288.0758  0.040353252  0.040646088            5 
 2661000   0.80472136   -5.3382764    1285.3598   0.04025303  0.040636038            6 
 2662000   0.82402149   -5.3326699    1285.2991   0.04023601  0.040625992            4 
 2663000   0.84115534   -5.3432717    1285.4159  0.040224555  0.040615925            3 
 2664000   0.83094822   -5.3617022    1290.3104  0.040362564  0.040605917            5 
 2665000   0.83215578   -5.3233978    1285.7583  0.040205075  0.040595936            4 
 2666000   0.81115077    -5.347092    1283.1015   0.04010695  0.040585862           12 
 2667000   0.82385148    -5.349507    1288.0779  0.040247404  0.040575672           14 
 2668000   0.82188862   -5.3469446    1286.1265  0.040171368  0.040565664            8 
 2669000    0.8332374    -5.347186    1286.0357   0.04015348  0.040555517            5 
 2670000   0.82119544   -5.3364039    1286.6706  0.040158257  0.040545377           19 
 2671000   0.80181211   -5.3557477    1280.9641  0.039965186  0.040535257            5 
 2672000   0.81515018   -5.3775947     1284.693  0.040066523  0.040525163            7 
 2673000   0.82120046   -5.3550508    1286.3913  0.040104479  0.040514925            9 
 2674000   0.81635923   -5.3598375    1285.3023  0.040055544  0.040504683            4 
 2675000   0.81137428   -5.3239961    1285.8237  0.040056814  0.040494561            7 
 2676000   0.82403735   -5.3401957    1288.8392  0.040135748  0.040484464            7 
 2677000   0.80729366   -5.3504488    1286.5259  0.040048747  0.040474296            4 
 2678000   0.80767892   -5.3651266    1284.9736  0.039985486  0.040464217            3 
 2679000   0.84166383   -5.3726487     1291.065  0.040160041  0.040454108            4 
 2680000    0.8251087   -5.3176981    1292.4692   0.04018872  0.040444054            5 
 2681000    0.8172642   -5.3670751    1287.3293  0.040013965  0.040434045            7 
 2682000   0.83600412   -5.3393182    1290.6393  0.040101892  0.040424015           10 
 2683000   0.83370177   -5.3321376    1291.9089  0.040126381  0.040413999            3 
 2684000   0.80780944    -5.348129    1290.5766  0.040070062  0.040403915            9 
 2685000   0.80965332   -5.3591239    1289.9937  0.040037049  0.040393922            6 
 2686000   0.82028232   -5.3574572    1285.9127  0.039895531  0.040383807            8 
 2687000   0.83032007   -5.3435654    1291.0554  0.040040174  0.040373739            2 
 2688000   0.81254797   -5.3606347    1288.3188  0.039940438  0.040363692            4 
 2689000    0.8268243   -5.3308204    1283.6053  0.039779512  0.040353566            5 
 2690000   0.83948915    -5.353674    1288.6514  0.039921046  0.040343491            4 
 2691000   0.80384151   -5.3319943    1288.6125  0.039905008  0.040333357            4 
 2692000   0.82884263   -5.3412063    1290.6923  0.039954567   0.04032324            4 
 2693000   0.82614996   -5.3840293    1288.5692   0.03987403  0.040313068            3 
 2694000   0.81386671    -5.368769    1292.0388  0.039966556  0.040302904            4 
 2695000   0.82742334   -5.3649042    1287.5496  0.039812912   0.04029279            5 
 2696000   0.81472082   -5.3999458    1286.0862   0.03975291  0.040282597            7 
 2697000   0.82838989   -5.3642431    1288.7772   0.03982132   0.04027248            6 
 2698000   0.82120628   -5.3630668    1292.0536  0.039907758  0.040262345           11 
 2699000   0.81421987   -5.3412105     1288.037  0.039768959  0.040252137            7 
 2700000   0.83386167   -5.3635599    1290.5683  0.039832355  0.040241941            5 
 2701000   0.81932682   -5.3551116    1294.2051  0.039929813  0.040231747            4 
 2702000    0.8195691   -5.3829084    1289.6253  0.039773789  0.040221553            7 
 2703000   0.82999466     -5.36524     1290.885  0.039797909  0.040211259            4 
 2704000   0.80709156   -5.3687977    1288.9168  0.039722533  0.040201045            4 
 2705000    0.8047186   -5.3610549    1288.6161  0.039698586  0.040190809            7 
 2706000   0.82145896   -5.3549375    1290.0903  0.039729315  0.040180517            8 
 2707000   0.81255705   -5.3723856    1288.3166  0.039660037  0.040170142            7 
 2708000   0.81144002   -5.3631102    1289.4287  0.039679614  0.040159821            9 
 2709000   0.81436835   -5.3657357    1292.2295  0.039751124  0.040149444            3 
 2710000   0.82082555   -5.3509548    1290.1542  0.039672639  0.040139229            3 
 2711000   0.81427036   -5.3604049    1288.9919  0.039622275  0.040128985            4 
 2712000    0.8357831   -5.3579359    1288.7632  0.039600638  0.040118745            9 
 2713000   0.80294927   -5.3852535    1292.5441  0.039702179  0.040108519            7 
 2714000   0.83497673   -5.4083187     1287.211  0.039523796  0.040098244            7 
 2715000   0.82054049   -5.3634713     1291.518  0.039641435  0.040087949            4 
 2716000   0.81244073   -5.3648509    1289.4957  0.039564792  0.040077703            6 
 2717000   0.79860611   -5.3557228    1292.4086  0.039639573  0.040067448            6 
 2718000   0.81338641   -5.3508177    1296.5974  0.039753416  0.040057245            3 
 2719000   0.81384212   -5.3625502    1289.6618  0.039526228  0.040047108            6 
 2720000   0.82366084   -5.3538317    1292.6052  0.039601875  0.040036882            4 
 2721000    0.8282095   -5.3710249    1294.4425   0.03964359  0.040026738           17 
 2722000   0.81819795   -5.3805171    1291.0059  0.039523815  0.040016623            4 
 2723000   0.81199185   -5.3867029    1291.7322  0.039531528  0.040006397            3 
 2724000    0.7920681   -5.3845168    1290.6664  0.039484411  0.039996189            3 
 2725000   0.81156081   -5.3694359    1294.6389  0.039591404   0.03998594            7 
 2726000   0.79875527     -5.36521    1293.5706  0.039544223  0.039975797            7 
 2727000   0.83882503    -5.351826    1294.6703  0.039563327  0.039965679            9 
 2728000   0.81969764   -5.3710383    1296.4716  0.039603849  0.039955699            3 
 2729000   0.80337855   -5.4065148    1290.5799  0.039409425  0.039945511            8 
 2730000   0.81998238    -5.364899      1297.08  0.039593405   0.03993544            4 
 2731000   0.81974387   -5.3461574    1299.2551  0.039645281  0.039925432            6 
 2732000   0.81118385   -5.3777806    1297.2452   0.03956946  0.039915354            5 
 2733000   0.82733605   -5.3546812    1296.7951  0.039541258  0.039905265            5 
 2734000   0.81411542   -5.3700194    1296.3158  0.039512186  0.039895151            7 
 2735000    0.7937125   -5.3720631     1295.405  0.039469988   0.03988512            3 
 2736000   0.80941099   -5.3962895    1294.9629  0.039442097  0.039875048            5 
 2737000   0.82733577   -5.4091107    1292.2333  0.039344577  0.039864798            7 
 2738000   0.81309249   -5.3616743    1296.3474  0.039455423  0.039854673           10 
 2739000   0.81558345   -5.3671833    1297.8707  0.039487364  0.039844646            4 
 2740000   0.81262998   -5.3591898    1296.4156  0.039428697   0.03983464            4 
 2741000   0.81072979   -5.3782841    1297.5692  0.039449386  0.039824518            5 
 2742000    0.8107789   -5.3721294    1296.6226  0.039406231  0.039814551            6 
 2743000    0.8097746   -5.3669396    1296.9328  0.039401288  0.039804415            4 
 2744000   0.80968822   -5.3624441    1299.4854  0.039464451  0.039794449           11 
 2745000   0.80755575   -5.3714595    1296.4625  0.039358302  0.039784364            4 
 2746000   0.80899718   -5.3672899    1300.3321  0.039461402  0.039774253            6 
 2747000   0.80614258   -5.3804321    1298.0158  0.039376769  0.039764123            8 
 2748000   0.80818348   -5.3876628    1297.4445  0.039345113  0.039754032           11 
 2749000   0.80837349   -5.3755982    1300.7485   0.03943096  0.039744023            4 
 2750000   0.80907874   -5.3700866    1304.6596   0.03953514  0.039734045            7 
 2751000   0.80785161   -5.3890801    1296.1739  0.039263718  0.039724025           12 
 2752000   0.79953694   -5.3916608    1303.0412  0.039457402  0.039713933            7 
 2753000   0.80278435   -5.4092115    1302.4002  0.039423666  0.039703856           10 
 2754000   0.81281791    -5.382551    1299.4209  0.039319198  0.039693774           10 
 2755000   0.79964513   -5.3647809    1301.4474  0.039366225  0.039683834            4 
 2756000   0.81317084   -5.4073706    1298.9853  0.039277495  0.039673884            5 
 2757000   0.81938509   -5.3610095    1302.7098  0.039375824  0.039663874           15 
 2758000   0.80609964    -5.369646    1303.7539  0.039393097  0.039653854            7 
 2759000   0.80516054   -5.3891749    1300.0287  0.039266301  0.039643838            5 
 2760000   0.81616168   -5.4197486    1299.2621  0.039228927  0.039633844           12 
 2761000   0.81669575   -5.3687165     1303.588  0.039345287  0.039623866            7 
 2762000   0.81063528   -5.3670447    1302.1544  0.039287786  0.039614022            6 
 2763000   0.81198805    -5.376687    1302.8278  0.039293879  0.039604038            4 
 2764000   0.79946345   -5.3779955     1304.394   0.03932688  0.039594126            9 
 2765000   0.81927143   -5.4069985     1299.677  0.039170494   0.03958413           11 
 2766000   0.80747027   -5.3876268    1303.3473  0.039266912  0.039574133            9 
 2767000   0.80174087   -5.3763063    1305.3995  0.039314526  0.039564078            3 
 2768000   0.81593863   -5.3971091    1302.5224  0.039213703   0.03955415           12 
 2769000   0.81818318   -5.3755133    1306.1368  0.039308318  0.039544189            8 
 2770000   0.80142727   -5.3988784    1303.8719   0.03922599  0.039534344            6 
 2771000   0.81953324   -5.3887713    1303.9174  0.039213202  0.039524521            4 
 2772000   0.80381015   -5.3690557    1306.5348  0.039277742  0.039514703            6 
 2773000   0.80888235   -5.3977387    1302.7835  0.039150844  0.039504836            6 
 2774000   0.80995389   -5.3800456    1305.3554  0.039213992  0.039495054           12 
 2775000    0.8249886   -5.3768169    1304.2699  0.039167266  0.039485176            3 
 2776000   0.79997207   -5.3769771    1306.9215  0.039232753  0.039475373            5 
 2777000   0.81712979   -5.3685607    1308.9002  0.039278004  0.039465603            4 
 2778000   0.78876748   -5.3888686    1305.2834   0.03915537  0.039455762           10 
 2779000   0.79124122   -5.3813681    1307.4609  0.039206577  0.039445827            5 
 2780000   0.82342453   -5.4164332    1306.7075   0.03916989   0.03943608            4 
 2781000   0.79403559   -5.3815696    1310.6801  0.039274845  0.039426236           10 
 2782000   0.81784844    -5.379031    1307.0518  0.039152044   0.03941648            6 
 2783000   0.81490443   -5.3551755    1308.7351   0.03918838  0.039406883            3 
 2784000   0.78159546   -5.3865524    1309.1774   0.03918754  0.039397178            8 
 2785000    0.8332753   -5.3833407    1310.7495   0.03922051  0.039387415            5 
 2786000    0.7908523    -5.391692    1307.8278  0.039119042  0.039377709           10 
 2787000   0.81287004   -5.3832698    1310.7816  0.039193325   0.03936793            4 
 2788000   0.80507228    -5.390083    1308.9932  0.039125812   0.03935817            5 
 2789000   0.79281961   -5.3927932    1311.4933  0.039186486  0.039348453            5 
 2790000    0.8199568   -5.3769354    1309.5479  0.039114333  0.039338666            6 
 2791000   0.79686988   -5.3734193    1311.4745  0.039157844  0.039328965            9 
 2792000   0.79730623   -5.3995029    1306.2517  0.038987932   0.03931915            6 
 2793000   0.79857312   -5.4024513    1302.7302  0.038868904  0.039309314            8 
 2794000    0.8157178   -5.4269096    1306.1186  0.038956056  0.039299409            4 
 2795000    0.8012942    -5.389975    1307.3999  0.038980319   0.03928962            3 
 2796000    0.8170058   -5.3819066    1310.9302  0.039071597  0.039279842           10 
 2797000   0.80040985   -5.3823097     1307.809  0.038964635  0.039270081            5 
 2798000   0.79188766    -5.379612    1309.1106  0.038989474  0.039260309            6 
 2799000   0.80150498   -5.3940676    1310.7573  0.039024572  0.039250466            5 
 2800000   0.81990308   -5.3988333    1309.9498  0.038986601  0.039240642            5 
 2801000   0.78915603   -5.4073562     1313.444   0.03907664  0.039230862            7 
 2802000   0.79845856   -5.3925832    1313.0344   0.03905051  0.039221086            5 
 2803000    0.7970748    -5.401795    1309.6308  0.038935392  0.039211313           14 
 2804000   0.79965509   -5.3732978     1314.501  0.039066245  0.039201586            6 
 2805000   0.80084118   -5.3994164    1311.3571  0.038958914   0.03919186            5 
 2806000   0.79185222   -5.4289991    1311.9502  0.038962646  0.039182074            6 
 2807000   0.79791563   -5.4008745    1314.5585    0.0390262  0.039172318            4 
 2808000   0.80441009   -5.4049525    1311.5772  0.038923826  0.039162632            6 
 2809000   0.79918384   -5.4023385     1308.462   0.03881755  0.039152866            5 
 2810000   0.81597691   -5.4041759    1312.8661  0.038934345  0.039143114           10 
 2811000   0.80935181   -5.4247391    1314.1891  0.038959715  0.039133398            5 
 2812000   0.78029249    -5.370582    1316.0111  0.038999855  0.039123747            9 
 2813000   0.80826885     -5.41679    1314.5875  0.038943817  0.039114196            6 
 2814000   0.78506109   -5.4093421    1314.1163  0.038916024  0.039104539            8 
 2815000   0.80366382   -5.3853494     1314.075  0.038900976  0.039094904            3 
 2816000    0.8270998   -5.4189585    1314.7886   0.03890828  0.039085278            4 
 2817000    0.7867252   -5.3756529    1319.0078  0.039019283  0.039075699            4 
 2818000   0.82066414    -5.403679    1314.3442  0.038867525  0.039066218            4 
 2819000   0.80689581   -5.3912738    1316.6087  0.038920677  0.039056733            7 
 2820000   0.78584462   -5.3926958    1319.4582  0.038991082  0.039047295            9 
 2821000   0.80675276   -5.3825141    1314.7351  0.038837739  0.039037767            4 
 2822000    0.7747061   -5.3986973    1320.2081  0.038985593  0.039028298            6 
 2823000   0.78076975   -5.3952389    1316.9937  0.038876894  0.039018915            6 
 2824000    0.8051358   -5.3845077    1321.2202  0.038987848  0.039009463            4 
 2825000   0.79377834   -5.4008786    1318.7247  0.038900434  0.038999993            6 
 2826000   0.78507603   -5.4271308    1315.5637  0.038793456  0.038990462            7 
 2827000    0.8125355   -5.3824645    1321.0269  0.038940775  0.038980953            5 
 2828000   0.81818788   -5.4069541    1320.4932  0.038911279  0.038971596            4 
 2829000   0.79795684   -5.4038135    1316.8013  0.038788775  0.038962086            4 
 2830000   0.78972456   -5.4224247    1319.3263  0.038849421  0.038952506            6 
 2831000   0.80435115   -5.4206566     1319.291  0.038834659  0.038942956            9 
 2832000    0.8025161   -5.4123986    1320.4898  0.038856221  0.038933446            7 
 2833000   0.79555677    -5.405554    1323.0576  0.038918036  0.038923997           15 
 2834000   0.80620679   -5.4137697    1319.5562  0.038801348   0.03891465            6 
 2835000    0.7979225   -5.4198955    1319.6351  0.038789979  0.038905205            7 
 2836000   0.80741203   -5.3817372    1321.4007  0.038828183  0.038895753           11 
 2837000     0.795779   -5.4314872    1319.5032  0.038758759  0.038886228            5 
 2838000   0.82413577   -5.3803707    1322.5745  0.038835287  0.038876794            5 
 2839000   0.81783248   -5.3726274    1324.4746   0.03887738  0.038867418            3 
 2840000   0.79066691   -5.4073455      1326.41  0.038920481  0.038857962            6 
 2841000    0.8052418   -5.4277526    1318.0909  0.038662761  0.038848431            3 
 2842000   0.79068902   -5.4048285    1317.9846  0.038646042  0.038838834            7 
 2843000   0.78697929   -5.3972262    1320.4338  0.038704239  0.038829288            6 
 2844000   0.78239777   -5.4536029    1316.9256  0.038587833  0.038819743           10 
 2845000   0.78558664   -5.4084609    1322.5791  0.038739868   0.03881016            6 
 2846000   0.80582832   -5.4109619    1321.8835  0.038705889  0.038800656           16 
 2847000   0.80683226   -5.3950527    1322.1257  0.038699384  0.038791126           10 
 2848000   0.80349215   -5.4134945     1319.922  0.038621313  0.038781596            4 
 2849000   0.78388523   -5.4102154    1322.5326  0.038684118  0.038772068            3 
 2850000   0.79272901   -5.3991526    1322.6415  0.038673728  0.038762527            5 
 2851000   0.78372171   -5.4287136    1318.6004  0.038542044    0.0387531            7 
 2852000   0.81977815   -5.4154312    1321.3122  0.038607768  0.038743575            6 
 2853000   0.81022241   -5.4196725    1324.8735  0.038698255  0.038734069            7 
 2854000   0.80681817    -5.392324    1320.5971   0.03855983  0.038724503           12 
 2855000   0.78778879   -5.4048371    1321.7885    0.0385811  0.038714973            5 
 2856000   0.79606219   -5.3884132    1320.6523  0.038534439  0.038705422            7 
 2857000    0.7974123   -5.4236068    1322.3168  0.038569502  0.038695805            8 
 2858000   0.77462661   -5.4342952    1323.6217  0.038594054  0.038686197            7 
 2859000   0.81286991   -5.4115801    1320.7319  0.038496325  0.038676631            5 
 2860000   0.79391754   -5.4266395    1319.4524  0.038445584  0.038667087            6 
 2861000   0.78542046   -5.4207981    1319.1431  0.038423137  0.038657528            4 
 2862000   0.79151078   -5.4100886    1325.4844   0.03859435   0.03864807            9 
 2863000   0.79229114   -5.3925569    1320.3456  0.038431295  0.038638559            6 
 2864000   0.80007067   -5.4043172    1325.7891  0.038576265  0.038629027            4 
 2865000   0.79092899   -5.4319693    1324.2573  0.038518247  0.038619461            8 
 2866000   0.80773187   -5.3945331     1326.892  0.038581413  0.038609948            6 
 2867000   0.79813076   -5.4184103    1324.5283  0.038499253  0.038600377            8 
 2868000   0.76314363   -5.4518868    1324.5835  0.038487433  0.038590785            9 
 2869000   0.79292543   -5.4292605    1323.1444  0.038432217  0.038581164           20 
 2870000   0.78403231    -5.451798    1322.1269  0.038389284  0.038571662           14 
 2871000   0.79399294   -5.3989839    1327.2299  0.038524032  0.038562183            3 
 2872000    0.7982057   -5.4264846    1324.8651  0.038442001  0.038552707            6 
 2873000   0.78308372   -5.4110326    1328.0755  0.038521741   0.03854322            6 
 2874000   0.80752465   -5.4021565    1323.6907  0.038381198  0.038533658            9 
 2875000   0.80945116   -5.4046526    1325.8369  0.038430056  0.038524187            4 
 2876000   0.79184111   -5.4100267    1328.4967  0.038493763  0.038514697            6 
 2877000   0.79552109   -5.4479328    1321.2958  0.038271804  0.038505182            7 
 2878000   0.77979634   -5.4248621    1325.1767  0.038370879  0.038495659            3 
 2879000   0.79903011   -5.3938411    1332.3295  0.038564591  0.038486186            9 
 2880000   0.81559851   -5.4231385    1323.0058  0.038281417   0.03847674            9 
 2881000    0.7981432   -5.3977296    1327.2777  0.038391696  0.038467308            6 
 2882000   0.78483411   -5.4200583    1325.6989  0.038332723   0.03845784            7 
 2883000   0.77820174   -5.3857379    1327.6611  0.038376143  0.038448396           11 
 2884000   0.77920059   -5.4569105    1324.1698  0.038261956  0.038438935            8 
 2885000   0.79722972   -5.4184415    1325.5571  0.038288766   0.03842945            3 
 2886000   0.79655054   -5.4144278    1325.0059  0.038259583  0.038420003            8 
 2887000    0.7851381   -5.4264924    1324.0025  0.038217367  0.038410518            6 
 2888000   0.78324397   -5.4019645       1329.8  0.038371421  0.038401015            3 
 2889000   0.78476465   -5.4442566    1322.7432  0.038154587  0.038391475            9 
 2890000    0.7812592   -5.4381735    1328.3043  0.038301738  0.038381922           21 
 2891000    0.7838707   -5.4378279     1328.925  0.038306382  0.038372365            6 
 2892000   0.79188196   -5.4242926    1324.4436  0.038164004  0.038362835            6 
 2893000    0.8035955   -5.4341616    1324.7165  0.038158674  0.038353326            5 
 2894000   0.77299739   -5.4100981    1329.1632   0.03827353  0.038343811            4 
 2895000   0.80028591   -5.4318877    1328.7557  0.038248581   0.03833436            6 
 2896000   0.80768259   -5.4175967     1327.733  0.038205945  0.038324873            8 
 2897000   0.77288503   -5.4235772    1331.8427  0.038310975  0.038315421            4 
 2898000   0.78557152   -5.4330952    1327.6552   0.03817734  0.038305904            7 
 2899000   0.79640239   -5.4262966    1328.8198  0.038197648  0.038296392           13 
 2900000   0.77122564   -5.4002836    1333.9725  0.038332543  0.038286968            7 
 2901000   0.77509559   -5.4166126    1329.5454  0.038192158  0.038277526            5 
 2902000   0.78706262   -5.4211516    1325.7043  0.038068697  0.038268028            4 
 2903000   0.80597102   -5.4251575    1330.2751  0.038186791   0.03825853            3 
 2904000   0.78394209   -5.4219323    1328.3198  0.038117533  0.038249165            5 
 2905000   0.79341363   -5.4352406    1326.8883  0.038063348  0.038239659            4 
 2906000   0.79179927   -5.3915483    1333.9265  0.038252078   0.03823024           13 
 2907000   0.77485404   -5.4546299    1331.4079  0.038166722  0.038220774            4 
 2908000   0.78438786   -5.4326669    1328.3421   0.03806574  0.038211335            4 
 2909000   0.79552907    -5.439731    1328.8149  0.038066198  0.038201894            5 
 2910000    0.7835747    -5.413139    1333.4873  0.038186923  0.038192481            8 
 2911000   0.78289017   -5.4513833    1330.9484  0.038101122  0.038183105           10 
 2912000   0.78660946   -5.4344783    1330.7602  0.038082654  0.038173721            5 
 2913000   0.78753072    -5.414841    1333.9006  0.038159416  0.038164308           16 
 2914000   0.78014373   -5.4522342    1328.8069  0.038000655  0.038154856           10 
 2915000   0.80246629   -5.4640632    1331.3782  0.038061127  0.038145387           10 
 2916000   0.76702524   -5.4168669    1336.1793  0.038185279  0.038135976            7 
 2917000   0.79640304   -5.4177252    1333.6168  0.038098983   0.03812662            6 
 2918000   0.76815902   -5.4294161    1334.8648  0.038121567  0.038117254            4 
 2919000   0.77971564   -5.4353789    1332.2375  0.038033502  0.038107969            8 
 2920000   0.77654575   -5.4032552    1335.1631  0.038103971  0.038098645            5 
 2921000   0.78169012   -5.4236439     1337.637  0.038161503  0.038089332            7 
 2922000   0.77216188    -5.449349    1334.6783  0.038064064  0.038080028            9 
 2923000   0.77044621   -5.4339773    1338.2719  0.038153492  0.038070752            6 
 2924000   0.77792821   -5.4209101    1336.7592  0.038097333  0.038061376            5 
 2925000   0.77422372   -5.4389224    1336.9267  0.038089079  0.038052095            4 
 2926000   0.80327913   -5.4365981    1334.3986   0.03800406   0.03804277            6 
 2927000   0.78420513    -5.429603     1340.451  0.038163392  0.038033423            7 
 2928000   0.79313642    -5.451666      1334.03  0.037967611  0.038024056            8 
 2929000   0.79015339   -5.4467633      1333.29  0.037933594  0.038014701            5 
 2930000   0.78596968   -5.4395489    1333.5439  0.037927868  0.038005387            4 
 2931000   0.77553433   -5.4274592     1333.646  0.037917832   0.03799603            5 
 2932000   0.77210967     -5.42127    1339.2243  0.038063445  0.037986629            8 
 2933000   0.79578178   -5.4299383    1333.9291   0.03790002  0.037977248            5 
 2934000    0.7829174   -5.4160449    1338.3454  0.038012537  0.037967891            7 
 2935000    0.7818548   -5.4590467    1334.6937  0.037895903  0.037958435            7 
 2936000   0.77617594   -5.4603462    1336.0086  0.037920317  0.037949081            7 
 2937000   0.78319231    -5.413381    1342.8056  0.038100262  0.037939707           10 
 2938000   0.78573154   -5.4262563    1337.3979  0.037933909   0.03793039            5 
 2939000   0.76676317   -5.4553332     1338.613  0.037955455  0.037921021           19 
 2940000   0.76961262   -5.4536819    1338.8488  0.037949228  0.037911646            3 
 2941000   0.78188408   -5.4014645     1340.838   0.03799269  0.037902371            9 
 2942000   0.79168518   -5.4457042    1332.5513  0.037745052  0.037893096           10 
 2943000   0.79176315   -5.4315577    1338.9287  0.037912806  0.037883779            8 
 2944000   0.78998051   -5.4396778    1335.8513   0.03781282  0.037874499            6 
 2945000   0.78048456   -5.4428298     1340.367  0.037927758  0.037865172            5 
 2946000   0.78103915   -5.4184732    1342.2781  0.037968944  0.037855934           10 
 2947000   0.77016359   -5.4194741    1342.1083  0.037951258  0.037846768            5 
 2948000    0.7835655   -5.4302974    1339.8861  0.037875569  0.037837485            4 
 2949000   0.77630176   -5.4404761    1338.3279  0.037818692   0.03782824            6 
 2950000    0.7847644   -5.4611798    1340.1928  0.037858553  0.037818992            8 
 2951000    0.7909584   -5.4410881    1339.5189  0.037826696  0.037809728            5 
 2952000   0.77269329   -5.4515518    1336.7388    0.0377354  0.037800473            9 
 2953000   0.78238111   -5.4645385    1342.4204  0.037882956  0.037791248            5 
 2954000   0.76676793   -5.4428535    1341.2143  0.037836107  0.037782057            3 
 2955000    0.7652104   -5.4487657    1341.5685  0.037833291  0.037772879            4 
 2956000   0.77650857   -5.4490444    1341.7845   0.03782658  0.037763666            7 
 2957000   0.78511219   -5.4673834     1339.031  0.037736191   0.03775444           20 
 2958000   0.76628843    -5.446382     1341.314  0.037787751  0.037745278            7 
 2959000   0.78080032   -5.4621545    1342.9283  0.037820443  0.037736096            8 
 2960000   0.78948586   -5.4785817    1336.2133  0.037618617  0.037726854            9 
 2961000   0.77653782   -5.4356342    1341.1671  0.037745332  0.037717659            5 
 2962000    0.7644425   -5.4593083    1340.4189  0.037711538  0.037708475            4 
 2963000   0.78808475   -5.4470709    1345.1872  0.037832916  0.037699359            5 
 2964000   0.79068812   -5.4422921    1343.5141  0.037773114  0.037690232           10 
 2965000   0.77703333   -5.4738263    1339.9577  0.037660418  0.037681068            4 
 2966000   0.76337116   -5.4679064    1341.2648  0.037684447  0.037671752            7 
 2967000   0.77107166   -5.4613422    1342.5982  0.037709196  0.037662567            6 
 2968000   0.78805332   -5.3999755      1348.88  0.037872866  0.037653401            5 
 2969000   0.78147157   -5.4745806     1342.183   0.03767214  0.037644279           11 
 2970000   0.77534447   -5.4568659    1343.7292  0.037702838   0.03763505           14 
 2971000   0.79991704    -5.444309    1343.5822  0.037686025    0.0376258            6 
 2972000   0.76547409   -5.4761407     1341.313  0.037609718  0.037616624            7 
 2973000   0.78404389   -5.4702118    1343.0294  0.037645178   0.03760742           10 
 2974000   0.77293355   -5.4793598    1342.6629  0.037622252  0.037598164           11 
 2975000   0.77102678   -5.4358272    1347.9664  0.037758164  0.037588811            6 
 2976000   0.76960675   -5.4767914    1342.7977  0.037600742  0.037579574            6 
 2977000   0.78663136   -5.4807887    1346.8431  0.037701352  0.037570354            9 
 2978000   0.78457056   -5.4580274    1343.5171  0.037595621  0.037561109            4 
 2979000   0.76431311   -5.4711354    1341.2723  0.037520206  0.037551889            7 
 2980000   0.76490289   -5.4323083     1343.982  0.037583388  0.037542676            3 
 2981000   0.76757375   -5.4515248    1340.8696  0.037483775  0.037533436            7 
 2982000   0.78216313   -5.4281426    1345.0212  0.037587222  0.037524142           11 
 2983000   0.79267381   -5.4583384    1345.7818   0.03759587  0.037514986           18 
 2984000   0.77858957   -5.4557605    1344.1891  0.037538794  0.037505898            4 
 2985000   0.78506514   -5.4477096    1346.5975  0.037593454  0.037496721            5 
 2986000   0.76779746   -5.4689202    1341.8431  0.037448177  0.037487488            9 
 2987000   0.76884108   -5.4330648    1345.0697  0.037525659  0.037478145            4 
 2988000   0.76956714   -5.4557485    1342.5309  0.037442294  0.037468893            2 
 2989000    0.7580549   -5.4545367    1347.1087  0.037557396  0.037459634            7 
 2990000   0.77443352   -5.4586685    1342.1129  0.037405598  0.037450338           11 
 2991000   0.77845649   -5.4428244    1347.0041  0.037529367  0.037441021            5 
 2992000   0.76275039   -5.4502357    1344.0945  0.037435788  0.037431781            7 
 2993000   0.78073993   -5.4292244     1344.754  0.037441642  0.037422467            9 
 2994000   0.76003102   -5.4789803    1343.4449  0.037392699  0.037413146            6 
 2995000   0.77100628   -5.4432204    1345.6694  0.037442109  0.037403859            7 
 2996000   0.76412147   -5.4664917    1344.5899  0.037399585  0.037394633           10 
 2997000   0.78210224   -5.4474606    1344.5701  0.037386555  0.037385357            6 
 2998000   0.75825503   -5.4548724    1344.3569   0.03736816  0.037376036            4 
 2999000   0.76694897   -5.4576255    1347.0068  0.037429333  0.037366737            5 
 3000000   0.78105856   -5.4517489    1342.9295  0.037303598  0.037357417           10 
 3001000    0.7796613   -5.4660512    1344.7391  0.037341416  0.037348073            7 
 3002000    0.7732984   -5.4704881    1345.5823  0.037352386  0.037338782            5 
 3003000   0.75852091   -5.4467445    1343.8619  0.037292206  0.037329599            5 
 3004000   0.76646014   -5.4535117    1343.1449  0.037259899  0.037320357            4 
 3005000   0.78497569   -5.4804423    1343.0086   0.03724372  0.037311014           18 
 3006000   0.78438061   -5.4876196    1346.2363  0.037320811  0.037301649            4 
 3007000   0.77058519     -5.46046    1347.8425  0.037352913  0.037292293            5 
 3008000   0.76516134   -5.4661353    1352.6236  0.037472949  0.037283042            9 
 3009000   0.77513366   -5.4511304    1349.0733  0.037362171  0.037273772            9 
 3010000   0.77294466   -5.4359157    1351.0475  0.037404415  0.037264512            4 
 3011000   0.77441471   -5.4520648    1350.5546  0.037378351  0.037255323            7 
 3012000   0.75907117   -5.4843787    1345.6181  0.037229362  0.037246134           15 
 3013000   0.79765443   -5.4424882     1346.231  0.037233957  0.037236898            5 
 3014000   0.77055413   -5.4654716    1347.5121  0.037257026  0.037227702            5 
 3015000   0.76870283   -5.4940771    1346.3031  0.037211253  0.037218487            6 
 3016000   0.76349044   -5.4558163    1346.6548  0.037208633  0.037209241            8 
 3017000   0.78376066   -5.4750306    1345.8417   0.03717384  0.037200006            7 
 3018000   0.76878213   -5.4652278    1347.8393  0.037216681  0.037190796            5 
 3019000   0.76492708     -5.47664    1347.1855  0.037186305  0.037181532            6 
 3020000    0.7802015   -5.4765905    1349.3281  0.037233116  0.037172264            6 
 3021000   0.76106176   -5.4838581     1347.395  0.037167466   0.03716303            6 
 3022000   0.77238607   -5.4842435    1350.6433  0.037244741  0.037153791            6 
 3023000   0.74910718   -5.4699486    1347.6912  0.037151043  0.037144557           12 
 3024000   0.75215509   -5.4725334    1349.0726  0.037176824  0.037135394            4 
 3025000   0.76955806   -5.4987427    1347.5975  0.037123897  0.037126182            4 
 3026000    0.7743468   -5.4890942    1348.5409   0.03713761  0.037116966            8 
 3027000   0.77024813   -5.4867547    1348.6258  0.037127678  0.037107739            6 
 3028000   0.76722231   -5.4754403    1355.9578  0.037317201  0.037098526            4 
 3029000   0.76650068   -5.4719369    1350.5795  0.037156913  0.037089292            6 
 3030000    0.7750257   -5.4822709    1351.8578  0.037179806  0.037080029            5 
 3031000   0.76182601   -5.4563752    1351.6023  0.037160516  0.037070837            5 
 3032000   0.77268381   -5.4894093    1350.3175  0.037112949  0.037061591            8 
 3033000   0.76523669   -5.4610277    1350.2556   0.03709901  0.037052312            5 
 3034000   0.74642525   -5.4973381    1350.2974   0.03708793  0.037043048            8 
 3035000   0.74345858   -5.4592722    1347.3439  0.036994616  0.037033759            8 
 3036000   0.76579594   -5.4661025    1349.4854   0.03704121  0.037024527            5 
 3037000   0.76618414   -5.4670637    1349.3138  0.037024305  0.037015301            4 
 3038000   0.75586173   -5.4506107    1351.1143  0.037061508  0.037006072            4 
 3039000   0.76742132   -5.5070075    1350.5557  0.037033994  0.036996777           11 
 3040000   0.77896373   -5.4436075     1352.901  0.037086101  0.036987608            6 
 3041000   0.76844982   -5.4810913    1355.2319  0.037137782  0.036978391            7 
 3042000   0.79458245   -5.5183149    1346.9993  0.036900046  0.036969088           16 
 3043000   0.75199718   -5.5020478    1352.3731  0.037035084  0.036959754            8 
 3044000   0.76342936   -5.5039991    1349.8787  0.036954629  0.036950544            8 
 3045000   0.74231673    -5.472191    1352.8886  0.037024867  0.036941302            9 
 3046000   0.77097429   -5.4743342    1355.4886  0.037083843  0.036932144            5 
 3047000   0.75804827   -5.4635289    1350.6195  0.036938505   0.03692299            5 
 3048000   0.75277001   -5.5008798    1350.7965  0.036931226  0.036913838           18 
 3049000    0.7565353   -5.4823045    1350.9863  0.036924301  0.036904606            8 
 3050000   0.76200157   -5.5064435    1356.0334  0.037050093  0.036895429            4 
 3051000   0.76774862   -5.5153771    1348.6583  0.036836511  0.036886179           10 
 3052000   0.75537221   -5.4725524    1353.9806  0.036969763   0.03687701            8 
 3053000   0.76541789   -5.4845266    1358.0048  0.037067498  0.036867857            5 
 3054000   0.76607918    -5.483656    1352.5639  0.036906896  0.036858658           11 
 3055000   0.73666358   -5.4761871    1353.5359  0.036921327  0.036849473            5 
 3056000   0.76092967   -5.5042778     1356.282  0.036984128  0.036840332            6 
 3057000   0.75860548   -5.5026962    1350.9027  0.036825392  0.036831097            8 
 3058000   0.77719731   -5.4961837    1355.6539  0.036942825  0.036821864           10 
 3059000    0.7594308    -5.483062    1351.0469  0.036805243   0.03681267           11 
 3060000   0.74946366   -5.4714927     1354.674  0.036891993  0.036803523            9 
 3061000   0.74643778   -5.4642492    1359.2825  0.037005404  0.036794342            5 
 3062000   0.75857548   -5.4755622    1355.4468  0.036888929   0.03678521           12 
 3063000   0.75804003   -5.4837514    1350.7581  0.036749322  0.036775987           17 
 3064000   0.75905403   -5.5027588    1354.7626  0.036846242  0.036766726            9 
 3065000   0.75327658    -5.502341    1352.7775  0.036780248  0.036757442            8 
 3066000   0.78101534   -5.4970805    1355.0325  0.036829542  0.036748156            6 
 3067000   0.76699818    -5.508411    1353.2521  0.036769158  0.036738863           12 
 3068000   0.74990053   -5.5108431    1353.9419   0.03677591  0.036729609            6 
 3069000     0.752476    -5.484991    1351.1854  0.036689079  0.036720374            3 
 3070000   0.78182166   -5.4886024    1352.9255  0.036724361  0.036711139            7 
 3071000   0.77693577   -5.4757508    1356.4056  0.036806839  0.036701908            4 
 3072000   0.75540834   -5.4952799    1354.6694   0.03674776  0.036692758            9 
 3073000   0.77309181   -5.5016911    1352.7023  0.036682456   0.03668355            7 
 3074000   0.75610603   -5.5039405      1357.44  0.036798959  0.036674324            6 
 3075000   0.75302504   -5.5090205     1355.312  0.036729324  0.036665127           12 
 3076000    0.7669484    -5.526419    1355.1065  0.036711815  0.036655903            8 
 3077000   0.76974373   -5.4770762    1354.4475  0.036682036  0.036646707            8 
 3078000   0.76654947   -5.4900339    1352.5575   0.03661895  0.036637529            3 
 3079000    0.7538317   -5.5073924    1355.2714  0.036680508  0.036628378            7 
 3080000   0.74503111   -5.4836245    1357.2529   0.03672221  0.036619235            7 
 3081000   0.75271929   -5.4632488    1358.0559   0.03673201   0.03661012            6 
 3082000   0.77143383   -5.4870879    1359.1156  0.036748744  0.036600969            6 
 3083000    0.7531908   -5.5084602      1351.61  0.036533949  0.036591851            6 
 3084000   0.74475562   -5.5141807    1354.1425  0.036590535  0.036582637           14 
 3085000   0.74691446   -5.4797946    1355.9885  0.036628539   0.03657338            5 
 3086000   0.75781615   -5.4753584    1357.7623  0.036664568  0.036564268            6 
 3087000   0.76417788   -5.4891224     1358.907  0.036683593  0.036555194            8 
 3088000   0.75971021   -5.4910184    1358.9576  0.036673079  0.036546134           10 
 3089000   0.77747567   -5.4765553    1354.6615  0.036545308  0.036536991           13 
 3090000   0.73128207   -5.4907598    1359.2614  0.036657536  0.036527798            7 
 3091000   0.75465803   -5.5083381    1357.3995  0.036595478  0.036518628            7 
 3092000   0.75203119   -5.5289268    1356.9697   0.03657206  0.036509431            4 
 3093000   0.75866516   -5.5253292    1355.4194  0.036518465  0.036500237            6 
 3094000   0.75515238   -5.5039149    1359.8441  0.036625838  0.036490988            8 
 3095000   0.76798105   -5.5082194    1357.1316   0.03654097  0.036481862            4 
 3096000   0.75685971   -5.4953353    1357.9064  0.036550021  0.036472648            4 
 3097000   0.75916197   -5.4723129     1360.006  0.036594714  0.036463509            5 
 3098000   0.75290961   -5.4889812    1358.5758  0.036544432  0.036454396            9 
 3099000   0.75616421   -5.4923089    1359.4717   0.03655673  0.036445258           11 
 3100000   0.77038182   -5.4897053    1359.3636  0.036542033  0.036436063            5 
 3101000   0.74698506   -5.5151908    1358.5217  0.036507625  0.036426952           10 
 3102000   0.74992936   -5.5230751    1357.4185  0.036466219  0.036417786           13 
 3103000   0.74218239   -5.5238144    1358.4753  0.036482848  0.036408513            5 
 3104000   0.76217418    -5.506776    1353.2826  0.036331686  0.036399294           17 
 3105000   0.76128177   -5.4904311    1356.6047  0.036409144  0.036390098            6 
 3106000   0.75079468   -5.5054603    1358.7018  0.036453687  0.036380945           14 
 3107000   0.76687787    -5.531935    1359.9974  0.036476702  0.036371782            7 
 3108000   0.73711903   -5.5023348    1359.8073   0.03645987  0.036362595            3 
 3109000   0.74792441   -5.5113334    1358.6126  0.036416119  0.036353433            7 
 3110000       0.7546   -5.5131164    1361.8995  0.036492483  0.036344279           11 
 3111000   0.75453796   -5.5261498     1360.104  0.036432657  0.036335049            6 
 3112000   0.75644097   -5.4973146    1360.4462  0.036430114  0.036325912            8 
 3113000   0.76404026   -5.5276776    1358.6414    0.0363701  0.036316806           18 
 3114000   0.74769585   -5.5003299    1361.2629  0.036428573  0.036307688            9 
 3115000   0.74990371   -5.5110667    1363.2399  0.036469768  0.036298512           10 
 3116000   0.74918958   -5.5088985    1359.3085  0.036352922  0.036289331            6 
 3117000   0.73812967    -5.499402    1364.7344  0.036486321  0.036280216            6 
 3118000   0.75808017   -5.5043642    1360.1694  0.036352613   0.03627109            6 
 3119000   0.74122806    -5.503323    1362.2288  0.036395982  0.036262012            7 
 3120000   0.76019241   -5.5463106    1365.7602  0.036478637  0.036252929           10 
 3121000   0.73584885   -5.4850575    1359.5117  0.036300108  0.036243837            5 
 3122000   0.74742413   -5.5069735    1363.5751  0.036396945  0.036234737            6 
 3123000   0.76504505   -5.5373381    1361.4046  0.036327372  0.036225534            5 
 3124000   0.76389146   -5.5104334    1361.7602  0.036325229  0.036216388            5 
 3125000   0.73347438     -5.52583    1358.3297  0.036222125   0.03620731            5 
 3126000    0.7589619   -5.5190047    1360.9488  0.036280359  0.036198133            7 
 3127000   0.75093114   -5.5239788    1358.8602  0.036213094  0.036188949            7 
 3128000   0.75555345   -5.5188116    1362.4813   0.03629799  0.036179766           14 
 3129000   0.74246483    -5.517903    1360.0124  0.036220634  0.036170644            7 
 3130000   0.75146343   -5.4965056    1359.5117  0.036195732  0.036161466            8 
 3131000   0.76563862   -5.5146364    1362.6611  0.036267996  0.036152279            9 
 3132000   0.74291879   -5.5466623    1356.9738  0.036105093   0.03614307           10 
 3133000   0.76023085   -5.5217941    1360.3682  0.036183854  0.036133768            3 
 3134000   0.74241836    -5.513528      1355.06  0.036031164   0.03612447           10 
 3135000   0.74817614   -5.5275559    1359.9605  0.036149934  0.036115181           16 
 3136000     0.733802   -5.5059949    1362.8583  0.036215409  0.036105949            7 
 3137000   0.75144963   -5.4994202    1361.5187  0.036168279  0.036096769           12 
 3138000   0.75994396    -5.495695    1364.2173  0.036228419   0.03608764            6 
 3139000   0.74513674   -5.5036564    1360.5342  0.036119098  0.036078444           13 
 3140000   0.76407811   -5.5324838    1361.1747  0.036124595  0.036069151            8 
 3141000   0.74754526   -5.5222182    1360.8934   0.03610563  0.036059917            8 
 3142000   0.76308233   -5.5099523    1361.1675   0.03610141  0.036050671            8 
 3143000   0.75617317   -5.5192622    1360.6595  0.036076453  0.036041515            7 
 3144000   0.73500865   -5.5312978    1363.2214  0.036132882  0.036032292            9 
 3145000   0.74606015   -5.5045764    1363.5219  0.036129356  0.036023091            7 
 3146000   0.76311679   -5.5247039    1364.5498    0.0361451  0.036013931           10 
 3147000   0.73281129   -5.5011096    1359.9278  0.036011221  0.036004706           14 
 3148000   0.75278733   -5.4958742    1360.9236  0.036026143  0.035995445            9 
 3149000    0.7424887    -5.528442    1361.5855  0.036032219   0.03598614            7 
 3150000   0.77168632   -5.5526958     1358.431  0.035937327  0.035976793            6 
 3151000   0.74331761   -5.5070493     1361.662  0.036011372  0.035967463            8 
 3152000   0.74069615   -5.5156925    1360.7129  0.035974854  0.035958183            5 
 3153000   0.76034366   -5.5134575    1362.2725  0.036004665  0.035948943           12 
 3154000   0.74689436    -5.514015     1361.413  0.035970539  0.035939679            4 
 3155000   0.74399085   -5.5004997     1361.417  0.035959244   0.03593046            4 
 3156000   0.75881486   -5.4959545    1363.3072  0.035997762  0.035921281           13 
 3157000   0.74272439   -5.5121598    1364.7252  0.036023789  0.035912027            4 
 3158000   0.72326026    -5.519743     1361.867  0.035936959  0.035902842           10 
 3159000   0.74879967   -5.5009144    1365.2197  0.036014025  0.035893609            5 
 3160000   0.73382189   -5.5079009     1364.632   0.03598713  0.035884395            7 
 3161000   0.74413431   -5.5138556    1361.5879  0.035895493  0.035875145           14 
 3162000   0.74490117   -5.5228503    1362.4772   0.03590758  0.035865931            5 
 3163000   0.74823399   -5.4972319     1364.648  0.035953419  0.035856748            6 
 3164000    0.7387272    -5.516896    1364.5515  0.035939515   0.03584755            4 
 3165000   0.75378347   -5.5010338    1363.2952  0.035895082  0.035838276            6 
 3166000   0.74605128   -5.5358143    1363.5785  0.035891202  0.035829082            8 
 3167000   0.74558329   -5.5416502    1362.9238  0.035862641  0.035819847            4 
 3168000   0.76235359   -5.5258105    1359.3844  0.035758218  0.035810556            4 
 3169000   0.74744126   -5.5327628    1360.5954  0.035778778  0.035801312            8 
 3170000   0.74829082   -5.5097232    1366.3533  0.035918856  0.035792076           10 
 3171000   0.74619277    -5.533151     1360.989  0.035766555  0.035782836            9 
 3172000   0.74392027   -5.5218466    1362.4921   0.03579477   0.03577355            6 
 3173000   0.74081644   -5.5085706    1361.3177  0.035752643  0.035764299            7 
 3174000   0.73962162   -5.5280563    1365.0272  0.035838773  0.035755036           16 
 3175000   0.73519536   -5.5285708    1363.5931  0.035789845  0.035745788            7 
 3176000   0.74091736   -5.5498731    1360.5807  0.035699535  0.035736499           12 
 3177000   0.77584197   -5.5466792    1363.5586   0.03576641   0.03572714            7 
 3178000   0.75814869   -5.5281713    1361.9428  0.035712785  0.035717886            9 
 3179000   0.74412067   -5.5388548    1363.5437  0.035743517  0.035708628            6 
 3180000   0.73487831   -5.5531032    1362.6498  0.035708852  0.035699329            4 
 3181000   0.72525142    -5.541421    1364.7962  0.035753857  0.035690023            6 
 3182000   0.73315352   -5.5507829    1363.3112  0.035703728  0.035680747            8 
 3183000   0.74972756   -5.5297398    1364.5131  0.035723979  0.035671512           15 
 3184000   0.75090831   -5.5321404    1362.3797  0.035656924  0.035662312            3 
 3185000   0.74619367   -5.5443585    1365.0004  0.035714295  0.035653031            6 
 3186000   0.72964882   -5.5290677    1368.0587   0.03578308  0.035643844            8 
 3187000   0.74767298   -5.5405395    1363.6879  0.035657565  0.035634686            5 
 3188000   0.74510253   -5.5248707    1367.3274  0.035741516  0.035625491            4 
 3189000    0.7348894   -5.5226615    1362.4021  0.035601602  0.035616273            5 
 3190000   0.74903912   -5.5225874    1368.5837  0.035751926  0.035607037           10 
 3191000   0.74510745   -5.5451277    1363.8274  0.035616511  0.035597865            6 
 3192000   0.73438311   -5.5348786    1360.8108  0.035526598  0.035588643           15 
 3193000   0.75183005   -5.5322887    1361.9475  0.035545137  0.035579368            8 
 3194000   0.74325828   -5.5290583    1361.8545  0.035531582  0.035570106           13 
 3195000   0.74504216   -5.4984419     1365.302  0.035610381  0.035560848            5 
 3196000   0.74198856   -5.5410708    1366.2328  0.035623508  0.035551607            8 
 3197000   0.72956146   -5.5219781    1362.3084  0.035510072  0.035542357            5 
 3198000   0.72934742   -5.5512848    1358.8577  0.035409049  0.035532975            4 
 3199000   0.73219594   -5.5489167    1362.0619   0.03548145  0.035523622           14 
 3200000   0.73842736   -5.5374329    1364.3871  0.035530914  0.035514258            8 
 3201000   0.73727988   -5.5617507    1362.3845  0.035467681  0.035504893            7 
 3202000   0.75879536   -5.5345218    1363.7935  0.035493271  0.035495589            6 
 3203000   0.74378493   -5.5613512    1365.1984  0.035518743  0.035486229            3 
 3204000   0.74577477   -5.5069185    1368.3126  0.035588656  0.035476952            9 
 3205000   0.73446297   -5.5260434    1366.9992  0.035543402  0.035467705            4 
 3206000   0.74997907   -5.5527728    1365.5304  0.035494137   0.03545846            6 
 3207000    0.7325082   -5.5423268    1362.2196  0.035397039   0.03544916            9 
 3208000    0.7243939   -5.5349003    1366.6633  0.035501436  0.035439922            7 
 3209000   0.72620332   -5.5251598    1363.5111  0.035408515  0.035430673           10 
 3210000   0.73586311   -5.5447659    1365.0439  0.035437278  0.035421393            9 
 3211000   0.73412594   -5.5239144    1367.0307  0.035477804  0.035412101           10 
 3212000   0.73525651   -5.5302925    1360.1879  0.035289226  0.035402749           10 
 3213000    0.7389533   -5.5409408    1362.4923  0.035338009  0.035393455           10 
 3214000   0.74548874   -5.5289187     1363.403  0.035350627  0.035384108            5 
 3215000   0.72290229   -5.5594832    1362.7116  0.035321711   0.03537472            7 
 3216000   0.73629515   -5.5285983     1369.146  0.035477456  0.035365422           11 
 3217000   0.74505246   -5.5373345    1362.0464   0.03528252  0.035356058            8 
 3218000   0.74087814    -5.548063    1363.1507  0.035300154   0.03534674            8 
 3219000   0.74756128   -5.5693518    1363.0805   0.03528737   0.03533745            9 
 3220000     0.737869   -5.5317412    1362.7551  0.035267989  0.035328082           11 
 3221000   0.74086515   -5.5481371    1360.2685  0.035192708  0.035318692            5 
 3222000   0.74056634   -5.5490838    1362.0648  0.035228244  0.035309304           11 
 3223000   0.73767228     -5.56218     1363.947  0.035265979  0.035299942            4 
 3224000    0.7348882   -5.5602918     1361.582   0.03519391  0.035290553            8 
 3225000   0.73068314    -5.551292    1364.7761  0.035265532  0.035281173           10 
 3226000   0.74369575   -5.5546176    1365.3093  0.035268374   0.03527184           20 
 3227000   0.72711804   -5.5498451    1362.1604   0.03517613  0.035262492            8 
 3228000   0.73150468   -5.5483963    1364.4749  0.035224983  0.035253137           11 
 3229000   0.74372992   -5.5639524    1365.1143  0.035230574  0.035243759            8 
 3230000   0.72565192   -5.5519421    1365.6307   0.03523299   0.03523441            4 
 3231000   0.73304058   -5.5477894    1366.6772  0.035249076  0.035225082            7 
 3232000   0.73928799   -5.5463814    1366.2514  0.035227193  0.035215784            7 
 3233000   0.73841127   -5.5476041    1365.4691  0.035196131  0.035206435            7 
 3234000   0.72909454   -5.5607368    1364.2618  0.035154139  0.035197045            7 
 3235000   0.72743665   -5.5678994    1364.8417   0.03515821  0.035187718            9 
 3236000   0.74544173   -5.5649736    1363.9397  0.035124116  0.035178316            7 
 3237000   0.73547279    -5.526118    1365.4789  0.035152891  0.035168958            8 
 3238000   0.73719666   -5.5482263    1366.6001  0.035170891  0.035159648           12 
 3239000   0.74649698   -5.5710098    1364.7594  0.035112673  0.035150209           10 
 3240000   0.72091931   -5.5515654    1365.3298  0.035116508  0.035140742            7 
 3241000   0.72550923    -5.544298    1366.8792  0.035145511  0.035131416            4 
 3242000   0.73934096   -5.5462071    1366.8644  0.035134289  0.035122062           14 
 3243000   0.74719181    -5.593894    1362.1511  0.035002341  0.035112693            4 
 3244000    0.7293431   -5.5416567    1367.0269  0.035116804   0.03510338            8 
 3245000    0.7372896   -5.5506147    1367.9401  0.035129432  0.035094058           10 
 3246000   0.74660548   -5.5777435    1365.1331  0.035046548  0.035084697           11 
 3247000   0.73424675   -5.5650953    1365.0274  0.035033042  0.035075343           11 
 3248000   0.73400939   -5.5626307    1366.0577  0.035048689  0.035066028            8 
 3249000    0.7459154   -5.5503948    1365.7358  0.035029645  0.035056711            6 
 3250000   0.71073231   -5.5604414    1366.7068  0.035043765  0.035047404            4 
 3251000   0.74553237   -5.5567828    1363.7859  0.034958114  0.035038054           10 
 3252000   0.73010149   -5.5397287    1366.0607  0.035005656  0.035028675            6 
 3253000   0.73364927   -5.5651115    1364.4427  0.034953446   0.03501929           19 
 3254000   0.72053951   -5.5729419    1368.6063  0.035049332   0.03500998            7 
 3255000   0.73351695   -5.5193296    1373.2686  0.035157926  0.035000675            6 
 3256000   0.72989477   -5.5700733    1366.7231  0.034979604  0.034991453           12 
 3257000   0.73880809   -5.5618736    1368.8702  0.035023801  0.034982139           13 
 3258000   0.72685164   -5.5603927     1366.535  0.034953321  0.034972814           12 
 3259000   0.72715089   -5.5541877    1367.5406  0.034968309  0.034963467           18 
 3260000   0.74089945   -5.5299159    1366.4751  0.034930344  0.034954122           13 
 3261000   0.72763024   -5.5366507     1370.316  0.035017787  0.034944825           14 
 3262000   0.73848133   -5.5496116    1367.3879  0.034932247  0.034935527            8 
 3263000   0.72492464   -5.5447526    1367.4791  0.034923872  0.034926287           16 
 3264000   0.74284229   -5.5812644    1366.9063  0.034898547  0.034917023           18 
 3265000   0.71942661   -5.5329008    1369.4586  0.034953001  0.034907727            6 
 3266000   0.74270739    -5.549133    1368.1565  0.034909077   0.03489851            9 
 3267000   0.72188458    -5.575417    1368.3396  0.034903062  0.034889234           14 
 3268000   0.71344354   -5.5747184    1367.0566  0.034859665  0.034879942           12 
 3269000   0.74810242   -5.5832439    1366.6476  0.034838575  0.034870675            7 
 3270000   0.73300805    -5.573843    1368.6045   0.03487779  0.034861369            6 
 3271000   0.72153107   -5.5594776    1372.2557  0.034960147  0.034852078            5 
 3272000   0.72937139   -5.5624854    1367.9551  0.034839933  0.034842696           13 
 3273000   0.74224532   -5.5807955    1370.0773  0.034883321  0.034833372            7 
 3274000   0.74237659   -5.5737838    1366.3133  0.034776862  0.034824027            6 
 3275000   0.72547249   -5.5724965    1366.9129  0.034781498  0.034814736            7 
 3276000   0.72643711   -5.5226327    1372.4646  0.034912104  0.034805472            4 
 3277000   0.72852058   -5.5527202    1369.5623  0.034827644  0.034796231           10 
 3278000   0.71212034    -5.562177    1368.6097  0.034792803  0.034786943            9 
 3279000   0.74213885   -5.5732671    1368.7913  0.034786807  0.034777718            4 
 3280000   0.72767064   -5.5671067    1371.1327  0.034835689  0.034768461            6 
 3281000   0.73006476   -5.5832225         1366  0.034694708  0.034759201            5 
 3282000   0.72920009   -5.5461354    1370.7763   0.03480541  0.034749928           16 
 3283000   0.71483738   -5.5718754    1367.2303  0.034704801  0.034740636           11 
 3284000   0.71038806   -5.5861932    1367.3771  0.034697958  0.034731355            9 
 3285000   0.72104338   -5.5980375    1368.0941  0.034705583   0.03472204            7 
 3286000   0.72177726   -5.5545361    1368.0312  0.034693426  0.034712726            6 
 3287000   0.73161789   -5.5639553     1370.146  0.034736487  0.034703478            6 
 3288000   0.72871761   -5.5734018    1371.6251   0.03476341  0.034694231            9 
 3289000   0.74254039   -5.5569928    1366.8588  0.034632075  0.034684966            9 
 3290000   0.73341104   -5.5755946    1370.8762  0.034723307  0.034675669           14 
 3291000   0.71305541   -5.5627877    1372.8276   0.03476217  0.034666373            8 
 3292000   0.70862315    -5.567954    1365.3959  0.034563485  0.034657134            6 
 3293000   0.72088675    -5.559572      1372.41  0.034730488  0.034647886            6 
 3294000   0.72041231   -5.5803906    1371.0665  0.034685957  0.034638629            9 
 3295000   0.72420882   -5.5889138    1368.3939  0.034607838  0.034629368            8 
 3296000   0.72250009   -5.5784849    1373.3434  0.034722476  0.034620127            7 
 3297000   0.73425263   -5.5291076    1376.7197  0.034797282  0.034610923            6 
 3298000   0.72284904    -5.565601    1370.6498  0.034633359  0.034601693            8 
 3299000   0.70708682   -5.5687681    1369.4801  0.034593314  0.034592419            7 
 3300000    0.7284114   -5.5887091    1370.8928  0.034618506  0.034583126            7 
 3301000   0.72167303   -5.5767847     1372.563  0.034650183  0.034573894           11 
 3302000   0.73111449   -5.5807849    1370.7141  0.034593027  0.034564643            7 
 3303000   0.73351729   -5.5533747     1372.642  0.034631193  0.034555389            7 
 3304000   0.70887634    -5.541965    1375.5376  0.034693746  0.034546139            7 
 3305000   0.71536879    -5.571222    1370.8432  0.034564882  0.034536938           10 
 3306000   0.71912689   -5.5628172    1371.5248  0.034571607  0.034527741            9 
 3307000   0.72784061    -5.570775    1370.9923  0.034547735  0.034518468            8 
 3308000   0.73293827    -5.588332    1370.4395  0.034523365  0.034509234           11 
 3309000   0.73382837    -5.598038    1369.7514  0.034495603  0.034499933           12 
 3310000   0.71534596   -5.5800574    1368.1891  0.034445849  0.034490661            6 
 3311000   0.73881085   -5.6005432    1373.2604  0.034563082  0.034481439            8 
 3312000   0.74366798   -5.5713557    1370.9366  0.034494179  0.034472224           12 
 3313000   0.72599923   -5.5901826     1372.301  0.034518085  0.034463054            8 
 3314000   0.71351413   -5.5929969    1373.2669  0.034531958  0.034453876            6 
 3315000   0.71090843   -5.5998588    1370.0477  0.034440617  0.034444728            5 
 3316000   0.73018139   -5.5920121    1372.6304  0.034495134  0.034435585           12 
 3317000    0.7171638   -5.5641895    1374.2553  0.034525557  0.034426432           14 
 3318000   0.73456538   -5.5601309    1378.4836  0.034621348  0.034417354            8 
 3319000   0.72132301   -5.5729427    1373.8655  0.034494966   0.03440821            9 
 3320000   0.72328545   -5.6051521    1373.9409  0.034486469  0.034398995            9 
 3321000   0.71291791   -5.5881624    1371.7019  0.034419902  0.034389844            8 
 3322000   0.71816422   -5.5859445    1373.6116  0.034457445  0.034380641           19 
 3323000    0.7173581   -5.5951869    1371.6778  0.034398582   0.03437148           12 
 3324000   0.70331328   -5.6031802    1368.1396  0.034299529  0.034362279            4 
 3325000   0.73490108   -5.6140922    1370.8842  0.034358001  0.034353054            7 
 3326000   0.72511176   -5.6056197     1374.004  0.034425838  0.034343805           11 
 3327000   0.71120391   -5.5800666     1377.287  0.034497721  0.034334589            7 
 3328000     0.728739   -5.6065671    1372.0812  0.034357001  0.034325435           10 
 3329000   0.73332024   -5.5973284    1375.4588  0.034431231  0.034316273           13 
 3330000   0.70456158   -5.5965348    1372.7035   0.03435194  0.034307098           14 
 3331000   0.73974097      -5.5989    1371.9697  0.034323268  0.034297968            9 
 3332000   0.73082641   -5.5852214    1375.8309  0.034409537  0.034288822            8 
 3333000   0.71421656    -5.569713    1376.6888  0.034420663  0.034279655            4 
 3334000   0.70703244    -5.595073    1373.5292  0.034331365  0.034270521            7 
 3335000   0.70754506   -5.6010291    1374.5714   0.03434711  0.034261368            5 
 3336000   0.71879495   -5.5756616    1376.5136  0.034385333  0.034252196           12 
 3337000   0.71506197   -5.6065335    1376.6212  0.034377714  0.034243072           19 
 3338000   0.72530888   -5.6177526     1373.265  0.034283627  0.034233839            7 
 3339000   0.72298702   -5.6094124    1372.9041  0.034264354  0.034224633            5 
 3340000   0.70739417   -5.5605624    1372.7775  0.034250935   0.03421549            5 
 3341000   0.72170606   -5.5720196    1378.9104  0.034393654  0.034206328            6 
 3342000   0.73763997   -5.5811205    1374.4509  0.034272164  0.034197204            6 
 3343000   0.72454618   -5.5745769    1377.1252  0.034328576  0.034188117            8 
 3344000   0.71961871   -5.5523137     1380.228  0.034395633   0.03417904            6 
 3345000   0.71638301   -5.6371538    1375.5705  0.034269319  0.034169896           10 
 3346000   0.72058166   -5.5809978    1376.6406   0.03428573  0.034160752           10 
 3347000   0.71515328   -5.5811409    1376.4791  0.034271464  0.034151634            8 
 3348000   0.71148469   -5.5747108    1375.8633    0.0342459  0.034142496            7 
 3349000   0.71973306   -5.6130064    1374.0136  0.034189648  0.034133357            7 
 3350000   0.72765469   -5.5863156    1376.2767  0.034235739  0.034124156            7 
 3351000   0.71950347   -5.5904825    1375.6719  0.034210483  0.034114973            7 
 3352000   0.72657175   -5.5955014    1377.4667  0.034244895  0.034105809            8 
 3353000   0.70454667   -5.6071852    1374.8769  0.034170317  0.034096618           11 
 3354000   0.73899626   -5.5906428     1374.897  0.034160629  0.034087442            5 
 3355000   0.71064684   -5.6038522    1374.9523   0.03415182  0.034078258            6 
 3356000   0.68909112   -5.5661753    1379.9273   0.03426518  0.034069197           14 
 3357000   0.70207143   -5.5927138    1375.0834  0.034134729  0.034060083            9 
 3358000    0.7310937   -5.5901952    1381.0804  0.034273386  0.034050938           12 
 3359000   0.71855103   -5.5964487    1376.3996  0.034147058   0.03404178            8 
 3360000   0.71332712   -5.6038957    1377.1738  0.034156095  0.034032702            8 
 3361000   0.70000212   -5.5788146    1377.7743  0.034160823  0.034023589            9 
 3362000    0.7261537    -5.574413    1379.5451  0.034194554  0.034014443           13 
 3363000   0.71537616   -5.6011636    1374.3645  0.034056015  0.034005318           11 
 3364000   0.70184903   -5.5834135    1376.9873  0.034110863  0.033996185           21 
 3365000   0.71674804    -5.597502    1378.2752  0.034132621  0.033986994           21 
 3366000   0.70670081   -5.5973062    1375.9528  0.034064984  0.033977855           14 
 3367000   0.69946924   -5.6469444    1374.1019  0.034009057  0.033968687           10 
 3368000   0.72101425   -5.5890093    1378.8419  0.034116239  0.033959509           17 
 3369000   0.70731234   -5.6019269    1377.0503  0.034061795  0.033950425            7 
 3370000   0.70320164   -5.6312551     1376.431  0.034036374  0.033941285           15 
 3371000   0.70236051   -5.6055654    1377.5974  0.034055112  0.033932148            6 
 3372000   0.70944893   -5.5810964    1379.7671  0.034098634  0.033923086           24 
 3373000   0.70461213    -5.615069    1377.9913   0.03404465   0.03391402           26 
 3374000   0.71865367   -5.5953243    1379.2621  0.034065947  0.033904957            4 
 3375000   0.71652155   -5.5940293    1376.5595  0.033989124  0.033895849            8 
 3376000   0.70416804   -5.6093531    1375.8203   0.03396081  0.033886775            9 
 3377000   0.71076938   -5.5811251    1379.5522  0.034042845  0.033877687            9 
 3378000   0.71082175   -5.5902171    1378.1025  0.033997001  0.033868605            8 
 3379000   0.71222494   -5.5851935    1378.2118  0.033989636  0.033859612            8 
 3380000   0.69766528     -5.61948    1377.4107   0.03395983  0.033850542            6 
 3381000   0.70734723   -5.6123481     1377.044  0.033940748  0.033841406            3 
 3382000   0.70403724   -5.5858176    1382.0276  0.034053508  0.033832372            7 
 3383000   0.72513398   -5.6160671     1378.649  0.033960219  0.033823362           12 
 3384000   0.72676518   -5.5929206    1380.2574   0.03398979  0.033814314           19 
 3385000   0.71295282   -5.5845304    1378.4777  0.033935936  0.033805265            7 
 3386000   0.70757474   -5.6147746    1379.7709  0.033957741  0.033796168           12 
 3387000   0.70277813    -5.612555    1376.9976   0.03387948  0.033787067           25 
 3388000   0.70042762   -5.6119486     1376.598  0.033859652   0.03377799            5 
 3389000   0.70173591   -5.6352818    1378.1547  0.033887938    0.0337689           15 
 3390000   0.69859684   -5.6100722    1377.7838  0.033868825  0.033759795            6 
 3391000   0.69858044   -5.5941854    1380.9159  0.033935807   0.03375074           10 
 3392000   0.70050506   -5.6173456    1377.4755  0.033841281  0.033741649           12 
 3393000   0.72049149   -5.5810215    1381.2943  0.033925099  0.033732632            6 
 3394000   0.71868863   -5.5971825    1382.9421  0.033955562   0.03372362            7 
 3395000   0.70479467   -5.6154509    1376.7539  0.033793664  0.033714586           14 
 3396000   0.70091967   -5.6193205    1379.6523  0.033854836  0.033705546            8 
 3397000   0.71823563   -5.6086365    1381.2914  0.033885081   0.03369654           13 
 3398000   0.69438964   -5.6214145    1380.9183  0.033865957  0.033687463            7 
 3399000   0.69855837   -5.6259621    1380.3929  0.033843113  0.033678439           16 
 3400000   0.69945143   -5.6113433    1384.3386  0.033929867   0.03366941            8 
 3401000   0.69862549   -5.6089554    1382.0773  0.033864482   0.03366041           11 
 3402000   0.69634701   -5.6022268    1379.8223  0.033799293  0.033651413            9 
 3403000    0.7091262   -5.6139055    1382.0818  0.033844691  0.033642391           20 
 3404000   0.72426197   -5.5989781    1382.6801  0.033849396  0.033633389            9 
 3405000   0.70445007   -5.6209832    1377.0032  0.033700519  0.033624384            5 
 3406000   0.70520778   -5.6009757    1379.8432  0.033760109  0.033615362           14 
 3407000   0.70068079   -5.6072922    1380.7233  0.033771727  0.033606361            6 
 3408000   0.69344084   -5.6117604    1378.4617  0.033706516  0.033597319            8 
 3409000   0.71539168   -5.6199986    1379.5702  0.033723726  0.033588318           15 
 3410000   0.70725109   -5.6104897    1382.5635  0.033786986  0.033579304           11 
 3411000    0.6939177   -5.6298995    1379.4395  0.033700759  0.033570284           13 
 3412000   0.69831924   -5.5987083    1383.3477  0.033786334  0.033561259            7 
 3413000   0.71496396   -5.6086652    1379.3922  0.033679856   0.03355232            5 
 3414000     0.697046   -5.6273436    1380.9559  0.033708159  0.033543349            8 
 3415000   0.70161633   -5.6130958    1383.2471  0.033754199  0.033534395           16 
 3416000   0.70830362   -5.6224459    1378.8372  0.033636738  0.033525409            7 
 3417000   0.71319797    -5.601922    1380.6138  0.033670222  0.033516401            9 
 3418000   0.70734623   -5.6106848    1381.9733  0.033693516  0.033507416            5 
 3419000   0.70228917    -5.588822    1379.6765   0.03362768  0.033498405           15 
 3420000   0.69545601   -5.6245292    1383.6268  0.033714103  0.033489483            4 
 3421000   0.70383605   -5.6297432    1379.7418  0.033609613  0.033480426            7 
 3422000   0.70423789   -5.6088924    1379.2319  0.033587373  0.033471392            7 
 3423000   0.69589124   -5.6352007    1376.7135  0.033516251  0.033462335            8 
 3424000   0.69760245   -5.6475146    1379.6631  0.033578249  0.033453251            7 
 3425000   0.68682385   -5.6562628    1377.4625  0.033514903  0.033444168           12 
 3426000   0.70819933   -5.6087518    1382.4499  0.033626434   0.03343506           11 
 3427000    0.7224129   -5.5897307    1383.2721  0.033636614  0.033426037            8 
 3428000   0.70588939   -5.6360808      1376.57  0.033463876  0.033417002            9 
 3429000   0.70924789    -5.645028    1381.0991  0.033564184   0.03340791           15 
 3430000   0.69761919   -5.5809346    1381.0942   0.03355428  0.033398838           12 
 3431000   0.70927783   -5.6204309     1378.837  0.033489679  0.033389851           15 
 3432000   0.70092203   -5.6261803    1381.6276  0.033547679  0.033380818            8 
 3433000   0.71243181   -5.6138026    1378.6363  0.033465295   0.03337182           12 
 3434000   0.70962399   -5.6306299    1379.2656  0.033470822  0.033362815           13 
 3435000   0.69715171   -5.6445808    1380.1149  0.033481682  0.033353783           25 
 3436000   0.69621802   -5.6305526    1378.5536  0.033434071  0.033344738            8 
 3437000   0.68954501   -5.6250678    1380.9216  0.033481756    0.0333357            7 
 3438000   0.71041778   -5.6447989    1382.1445  0.033501659  0.033326647           10 
 3439000   0.70742898   -5.6474454    1377.1133  0.033370004  0.033317619            8 
 3440000   0.68968957   -5.6200529    1383.7927   0.03352211  0.033308573            7 
 3441000   0.68749183   -5.6416718    1382.4836  0.033480664  0.033299559           11 
 3442000   0.69193021   -5.6314685     1380.269   0.03341732  0.033290551           20 
 3443000   0.71278627   -5.6303516    1382.2785  0.033456253  0.033281532           11 
 3444000   0.70767995   -5.5964387    1385.9539  0.033535471  0.033272581           14 
 3445000    0.7003084   -5.6201813    1382.5168  0.033442594  0.033263587           14 
 3446000   0.69183528   -5.6454174    1382.9076   0.03344234  0.033254615           12 
 3447000   0.70473102   -5.6320723     1386.877  0.033528599  0.033245625           14 
 3448000   0.71319698   -5.6230573    1384.4958  0.033461326  0.033236694            7 
 3449000   0.69283616   -5.6447149    1382.8599  0.033412097  0.033227683           12 
 3450000   0.70400449   -5.6417874     1381.158  0.033361304  0.033218675           18 
 3451000   0.69871765    -5.637287    1378.9064  0.033297267  0.033209717            6 
 3452000   0.71039308   -5.6227987    1383.9523  0.033409432  0.033200742            7 
 3453000   0.69905588   -5.6226621    1384.7733  0.033419569  0.033191771            6 
 3454000   0.69733007   -5.6099271    1381.7618  0.033337237  0.033182857            5 
 3455000   0.70793446    -5.624184    1386.7929  0.033448936  0.033173952            7 
 3456000   0.70261622   -5.6321273    1386.1108  0.033422812  0.033165019            8 
 3457000   0.69686756   -5.6370943      1386.38  0.033419633  0.033156127            7 
 3458000   0.69495757   -5.6441082    1381.2199  0.033285615  0.033147185           14 
 3459000   0.69647195   -5.6290845    1381.8128  0.033290276  0.033138257            7 
 3460000   0.69118622   -5.6380038    1385.1879  0.033361944  0.033129385            6 
 3461000   0.69662686   -5.6116234    1388.0135  0.033420338  0.033120528           22 
 3462000   0.70671468   -5.6367734    1383.3362  0.033298099  0.033111632           13 
 3463000   0.70560014   -5.6386009    1385.9553   0.03335151   0.03310267           15 
 3464000   0.69381862   -5.6378854    1386.9132  0.033364925  0.033093725            7 
 3465000   0.68049416   -5.6556272    1381.8598  0.033233762   0.03308479           12 
 3466000   0.69831208   -5.6575596    1383.2873  0.033258495  0.033075862            8 
 3467000   0.70788342   -5.6478671     1385.654  0.033305788  0.033066921           38 
 3468000   0.68602612   -5.6385213    1385.2303  0.033286003  0.033057978           11 
 3469000   0.68595011   -5.6283356    1383.2068  0.033227798  0.033049061            9 
 3470000   0.70371445   -5.6561039    1384.8861  0.033258552   0.03304015            5 
 3471000    0.7012996   -5.6197878    1383.7697  0.033222168  0.033031166            7 
 3472000   0.69475241   -5.6352743     1385.021  0.033242632  0.033022251            6 
 3473000   0.68706858   -5.6177312    1387.8052  0.033299867  0.033013353           10 
 3474000    0.7062329   -5.6264922    1387.6821  0.033287327  0.033004448           13 
 3475000   0.69364888   -5.6595961    1385.8578     0.033234  0.032995547           17 
 3476000   0.68794388   -5.6416228    1385.3154  0.033211436  0.032986658           13 
 3477000   0.69100058   -5.6238854    1385.1747  0.033198511  0.032977779            9 
 3478000   0.68186247   -5.6203788    1386.4427  0.033219348   0.03296889           11 
 3479000   0.68532471   -5.6415348    1385.1576  0.033179016  0.032960011            7 
 3480000   0.67572644   -5.6055115    1387.8209  0.033233259  0.032951135            7 
 3481000   0.68856727   -5.6121431    1386.1961  0.033184816  0.032942315            7 
 3482000   0.69376096   -5.6322197    1386.1828  0.033174967  0.032933412           12 
 3483000   0.69705838   -5.6306149     1386.418  0.033171068   0.03292455            9 
 3484000   0.68770412   -5.6434056    1385.8309  0.033147504  0.032915654           23 
 3485000   0.69179291   -5.6032481    1384.0323  0.033094985  0.032906814            7 
 3486000   0.71023732   -5.6470655    1382.8309  0.033056772  0.032897901           12 
 3487000   0.70537627   -5.6243089    1385.6033  0.033113547  0.032889009            7 
 3488000    0.6867111   -5.6761639     1384.997   0.03308957  0.032880081           11 
 3489000    0.6914828   -5.6561507    1386.9219   0.03312606  0.032871217            7 
 3490000   0.71029007   -5.6578523    1382.1617  0.033002905  0.032862318           18 
 3491000   0.68872624   -5.6326527     1386.725  0.033102383  0.032853428            7 
 3492000   0.69081818   -5.6560708    1384.2108  0.033032905  0.032844568           10 
 3493000   0.69574564   -5.6432471    1387.7046  0.033106799  0.032835675            9 
 3494000   0.68706622    -5.656811    1383.3602  0.032993708  0.032826773           14 
 3495000   0.69782342   -5.6737548    1387.1295  0.033074142  0.032817841           14 
 3496000   0.68880923   -5.6713236    1381.9169   0.03294043  0.032808896           12 
 3497000   0.66714005   -5.6646553    1382.8469  0.032953172  0.032799989            9 
 3498000   0.68859777   -5.6712149    1384.6342   0.03298633  0.032791142           13 
 3499000   0.67772809   -5.6584166    1386.8177  0.033028906  0.032782226           15 
 3500000   0.68647892   -5.6547363    1386.9652  0.033022981  0.032773261            6 
 3501000   0.68350504   -5.6678373    1388.5015  0.033050117  0.032764337            9 
 3502000    0.7077183   -5.6413987    1387.0277   0.03300561  0.032755448            7 
 3503000    0.6917939    -5.667432    1388.5787  0.033033085   0.03274658           10 
 3504000    0.7012235   -5.6263119    1393.2625  0.033135049  0.032737751           27 
 3505000   0.68878544   -5.6570857    1391.2028  0.033076623  0.032728926            8 
 3506000   0.69005548    -5.656594    1390.0527  0.033039853  0.032720086            8 
 3507000   0.68664243   -5.6296971    1389.8577  0.033025799  0.032711323            9 
 3508000    0.6948742   -5.6453303     1384.592  0.032891296   0.03270251           12 
 3509000   0.68068299   -5.6470611    1388.8935  0.032984077  0.032693672           16 
 3510000    0.6960657    -5.665004    1387.7575  0.032947708   0.03268488           10 
 3511000   0.68917978   -5.6393896     1390.438  0.033001945  0.032676081           14 
 3512000   0.68056914   -5.6618586    1388.4505  0.032945389  0.032667338           12 
 3513000   0.69735564   -5.6490785    1391.8863  0.033017513  0.032658553           15 
 3514000   0.69571035   -5.6496377    1387.4056  0.032901858  0.032649708           17 
 3515000   0.69475385   -5.6504218    1389.1321  0.032933431  0.032640887            4 
 3516000    0.6960639   -5.6790651    1388.7489  0.032914981  0.032632056            6 
 3517000   0.67664324   -5.6799135     1386.895  0.032861696  0.032623219           22 
 3518000   0.69877199   -5.6436348    1393.4669  0.033008027  0.032614385            4 
 3519000   0.68326895   -5.6590565    1388.7131  0.032886072  0.032605616            6 
 3520000   0.68668843   -5.6697259     1387.577  0.032849835    0.0325968           10 
 3521000   0.68084223   -5.6547645    1389.7649  0.032892286  0.032587966            4 
 3522000   0.69923575   -5.6546884    1388.6583  0.032856764  0.032579186            4 
 3523000   0.68574383   -5.6530755    1385.4563  0.032771698  0.032570404            6 
 3524000   0.69339133   -5.6531869    1389.1175  0.032848977  0.032561653            9 
 3525000   0.68986767   -5.6609643    1388.3306  0.032821055  0.032552895            8 
 3526000   0.69899535   -5.6625436    1386.7259  0.032773821  0.032544139           16 
 3527000   0.71872213   -5.6737986    1390.7773  0.032860251  0.032535374           13 
 3528000   0.68275504   -5.6620346    1390.0321  0.032833337  0.032526618           17 
 3529000   0.68489528   -5.6484864    1390.6128  0.032837744  0.032517831            7 
 3530000   0.69109083   -5.6853675    1388.8774  0.032787475   0.03250903            7 
 3531000   0.69864109   -5.6316145    1392.0867  0.032853929  0.032500282           13 
 3532000   0.68079491   -5.6459024    1391.8571   0.03283921  0.032491521            9 
 3533000   0.69806011   -5.6592517    1395.9411  0.032926246  0.032482784           12 
 3534000   0.68941234   -5.6526665    1389.2454  0.032759041  0.032474017           16 
 3535000   0.68443734   -5.6625516    1389.3202  0.032751537  0.032465253           18 
 3536000   0.69132838   -5.6688774    1391.0383  0.032782764  0.032456505           12 
 3537000   0.69266253   -5.6327639    1394.7789  0.032861627  0.032447817           12 
 3538000   0.71313588   -5.6720227    1387.7994  0.032687946  0.032439131           10 
 3539000   0.68520591    -5.675835    1390.5464  0.032743392    0.0324304           11 
 3540000   0.67284797   -5.6706365     1393.582  0.032805603  0.032421706           12 
 3541000   0.69868139   -5.6684824    1389.6432  0.032703642     0.032413            7 
 3542000   0.68344177   -5.6586474    1393.4266  0.032783423  0.032404319            6 
 3543000   0.69855049   -5.6592371    1391.3972  0.032726438  0.032395613            5 
 3544000   0.68431908   -5.6802874    1390.7438  0.032701839  0.032386886            7 
 3545000   0.68755412   -5.6835925    1391.1407  0.032701944  0.032378154            6 
 3546000   0.68786334   -5.6682877    1393.1846  0.032740756  0.032369465            6 
 3547000   0.68501176   -5.6867942    1389.4165  0.032642997  0.032360768            9 
 3548000    0.6787934    -5.659857     1390.551  0.032660443  0.032352064           14 
 3549000   0.69473175   -5.6555254    1395.4301  0.032765806  0.032343347           12 
 3550000   0.68060925   -5.6556231    1392.0307  0.032676777  0.032334641           15 
 3551000   0.67022392   -5.6593642    1392.7513  0.032684485  0.032325964           14 
 3552000   0.67910829    -5.639943    1389.7132  0.032604006   0.03231724            6 
 3553000   0.67949416   -5.6409058    1391.1163  0.032627739  0.032308519           30 
 3554000   0.67276181   -5.6793246    1393.6011  0.032676821  0.032299838           21 
 3555000    0.6914322   -5.6792608    1392.2983  0.032637091  0.032291141           10 
 3556000    0.6838786   -5.6572181    1392.8959  0.032641918  0.032282391           11 
 3557000   0.69757114   -5.6692641    1392.9622  0.032634294  0.032273675           12 
 3558000   0.67758325   -5.6871215    1388.8725  0.032529336  0.032264922           12 
 3559000    0.6838448   -5.6959574     1388.533  0.032512246  0.032256166           10 
 3560000   0.69026802   -5.6932628    1385.5962  0.032434367  0.032247394           23 
 3561000   0.68075821    -5.669053    1391.5031  0.032563492  0.032238641           11 
 3562000   0.66587049   -5.6717056     1391.194  0.032547117  0.032229904            8 
 3563000   0.67015078   -5.6704576    1392.9514  0.032579086  0.032221148           10 
 3564000   0.67565399   -5.6679006    1391.4467  0.032534762  0.032212391           24 
 3565000   0.69128664   -5.6422127    1392.8187  0.032557706  0.032203729           15 
 3566000   0.68751497   -5.6580696    1393.3857  0.032561828  0.032195073            8 
 3567000   0.68951718   -5.6640854    1392.0004  0.032520335  0.032186375            9 
 3568000   0.66859044   -5.6913143    1388.4978  0.032429414  0.032177593           16 
 3569000   0.68451184   -5.6931554    1391.8033  0.032497508   0.03216886           31 
 3570000   0.68988233   -5.6720891    1389.7557  0.032440608  0.032160155            5 
 3571000   0.68357338   -5.6662131    1394.3883  0.032539632  0.032151441           12 
 3572000   0.67847572   -5.6710807    1396.7294  0.032585139  0.032142751           12 
 3573000   0.69216605   -5.6495778    1393.2257  0.032494302  0.032134042           18 
 3574000   0.68325135    -5.650311    1394.6715  0.032518922  0.032125377           12 
 3575000   0.68027379   -5.6570938    1394.1067  0.032496661  0.032116674            6 
 3576000   0.67666263   -5.6694023    1392.7731  0.032456494  0.032107943           17 
 3577000   0.66857195   -5.6725692    1390.8808  0.032403336   0.03209924           13 
 3578000   0.67712539   -5.6861503     1391.716  0.032413733  0.032090513           12 
 3579000   0.68288649   -5.6703161    1396.7927  0.032522881  0.032081805           15 
 3580000   0.67450809   -5.6832892    1391.4219  0.032388777  0.032073091            8 
 3581000   0.67317871   -5.6603777    1394.5145  0.032451701  0.032064383           14 
 3582000   0.68637782   -5.6993785    1390.3132  0.032344899    0.0320557            8 
 3583000   0.67657753   -5.6869544    1391.5268  0.032364099     0.032047           29 
 3584000   0.68719068   -5.6931527    1390.9628  0.032341956  0.032038286           15 
 3585000   0.67507312   -5.6737115    1392.2353  0.032362513   0.03202958           14 
 3586000   0.68243341   -5.6940573    1391.1439  0.032328125  0.032020873           17 
 3587000   0.67099465   -5.6801414    1391.8057  0.032334488  0.032012185            7 
 3588000   0.67187731   -5.6857229    1393.6195  0.032367603  0.032003553            6 
 3589000   0.68116433   -5.6877405    1394.5721  0.032380703  0.031994933           12 
 3590000    0.6648714   -5.6805992    1393.9887   0.03235814   0.03198629            6 
 3591000   0.67766178    -5.662754    1397.0252  0.032419596  0.031977638           15 
 3592000   0.68720289   -5.6938866    1392.2863   0.03230063     0.031969            6 
 3593000   0.68174565   -5.6870451    1393.4712   0.03231912  0.031960367           16 
 3594000     0.672301    -5.681343    1394.2985  0.032329311  0.031951675           12 
 3595000   0.67922043   -5.6829755     1394.636   0.03232814  0.031943041            7 
 3596000   0.68849876   -5.6918001    1391.8355  0.032254253  0.031934408           28 
 3597000   0.67808029   -5.6632418    1394.3311  0.032303101  0.031925718            9 
 3598000   0.67680857   -5.6851816    1397.1564  0.032359561   0.03191709           23 
 3599000   0.68096042   -5.6883946    1392.5073  0.032242923  0.031908471           11 
 3600000   0.65890632   -5.6995166     1396.541  0.032327338   0.03189981            7 
 3601000   0.67022082   -5.6724859    1391.9595  0.032212336  0.031891191           20 
 3602000     0.684549   -5.6938759    1395.8862  0.032294238  0.031882575            6 
 3603000   0.67540523   -5.6843656    1395.1973  0.032269342  0.031873946           13 
 3604000   0.67524649   -5.6908182    1396.5393  0.032291418  0.031865282           13 
 3605000    0.6736782   -5.6765788    1393.8465  0.032220214  0.031856678            8 
 3606000   0.66153575   -5.7055398    1396.2569  0.032266984  0.031848077           13 
 3607000   0.67456815   -5.7052519    1393.1009  0.032185124   0.03183946           15 
 3608000   0.66673329   -5.6793249    1395.5582  0.032232959  0.031830847            4 
 3609000   0.66995565   -5.6624086     1397.802  0.032275839  0.031822267            7 
 3610000   0.68896946   -5.6914432    1396.4682  0.032236109  0.031813711            7 
 3611000   0.68838597   -5.6900769     1395.505  0.032204953  0.031805133           13 
 3612000    0.6848349   -5.7205816    1393.2162   0.03214323   0.03179651           12 
 3613000   0.66345968   -5.6832935    1393.7925  0.032147627  0.031787904           12 
 3614000   0.67408357   -5.7124056    1395.1061  0.032169021  0.031779231           14 
 3615000   0.66297325   -5.6817501    1394.9409  0.032156313  0.031770607           19 
 3616000    0.6734179   -5.6823399    1398.7658   0.03223557  0.031762006           13 
 3617000   0.68034814   -5.6850966    1397.9496  0.032207852  0.031753461            8 
 3618000   0.67171522    -5.703938    1393.8413  0.032104324    0.0317449            8 
 3619000   0.66507399   -5.7149733    1392.2579  0.032058993  0.031736285           16 
 3620000   0.68137253   -5.6919128    1395.5336  0.032125542  0.031727665           10 
 3621000   0.67007653   -5.6869142    1396.1485  0.032130823  0.031719107           14 
 3622000   0.67524462   -5.7033849    1393.5181  0.032061432  0.031710466            6 
 3623000   0.67305503   -5.7183405    1392.5736  0.032030858  0.031701872            9 
 3624000    0.6821903   -5.6816889    1397.6233  0.032138136  0.031693283            9 
 3625000   0.66323099   -5.6964598     1396.613  0.032106046  0.031684686            9 
 3626000   0.66813697   -5.6930847    1397.0803   0.03210793  0.031676077           10 
 3627000   0.68248053   -5.6937144     1398.954  0.032142128  0.031667494            9 
 3628000   0.68789957   -5.6906402    1394.0658  0.032020989  0.031658939           16 
 3629000   0.67502883   -5.6979392    1394.2044  0.032015349  0.031650345            8 
 3630000   0.66897749   -5.6975339    1397.1754  0.032074734  0.031641757           19 
 3631000   0.67654605   -5.7055459    1398.3239  0.032092259  0.031633177            4 
 3632000   0.66792343   -5.6873469    1394.9881  0.032006886  0.031624576           11 
 3633000   0.66478743   -5.6744041    1397.7725  0.032061944  0.031616017            6 
 3634000   0.67446298   -5.6839545    1394.9433  0.031988244  0.031607473           13 
 3635000   0.67712476   -5.6866409    1396.3783  0.032012341  0.031598917           14 
 3636000   0.67685328   -5.7176097    1396.7445  0.032011929   0.03159033           10 
 3637000   0.64824847   -5.7170857    1393.2362  0.031922744  0.031581762           14 
 3638000   0.67408759   -5.6890812    1395.6088  0.031968316  0.031573175           11 
 3639000   0.66328374   -5.6998786    1394.4885  0.031933877  0.031564638            4 
 3640000   0.65252765   -5.7005624    1396.6193  0.031973886  0.031556116           22 
 3641000   0.67064551    -5.682295    1401.4424  0.032075493   0.03154758           15 
 3642000   0.66031589   -5.6954797    1400.5803  0.032046958  0.031539061           14 
 3643000   0.67574031   -5.6874595    1398.8976   0.03199967  0.031530579           11 
 3644000    0.6780144    -5.699094    1400.7128    0.0320324  0.031522067           12 
 3645000   0.66465129   -5.6937498    1398.4647  0.031972216   0.03151355           16 
 3646000   0.66096092   -5.7237769    1394.6451  0.031876145   0.03150502           14 
 3647000   0.66654191   -5.7172396    1396.1315  0.031901368  0.031496428           20 
 3648000   0.66892842   -5.7258761    1395.5808  0.031880045  0.031487865           30 
 3649000   0.64972114   -5.7077079    1394.9805  0.031857599  0.031479231            9 
 3650000   0.66531088   -5.7099155    1394.6834  0.031842087  0.031470586            6 
 3651000   0.66746189   -5.7238148    1392.5188  0.031783958  0.031461963            7 
 3652000   0.66965929   -5.7065392    1398.3866   0.03190915  0.031453374           10 
 3653000   0.65461591   -5.6784885    1400.0861  0.031939184   0.03144482           12 
 3654000   0.66221949   -5.6928271    1395.8619  0.031834106  0.031436329           11 
 3655000   0.66144941   -5.6868336    1396.6012  0.031842253  0.031427785            6 
 3656000   0.64903141   -5.7008428    1401.6166  0.031947861  0.031419249            6 
 3657000   0.67272823   -5.7075947    1395.4734  0.031799138  0.031410724            6 
 3658000   0.67278634   -5.7023656    1397.5554  0.031837876  0.031402172           14 
 3659000   0.66204555   -5.6885683    1399.4464  0.031872241  0.031393626            7 
 3660000   0.67024363   -5.7194647    1399.1418  0.031856599  0.031385129           13 
 3661000   0.66100912   -5.7136754     1398.096  0.031824093  0.031376574           26 
 3662000   0.66843638   -5.7225843    1395.3079  0.031751955  0.031368016            9 
 3663000    0.6709565   -5.7061258    1396.0889  0.031761053  0.031359506           19 
 3664000   0.67127406   -5.7292093    1393.8575  0.031701634  0.031350996           23 
 3665000   0.65234883   -5.6944748    1397.3729  0.031772918  0.031342495           21 
 3666000   0.65858559   -5.7036663    1401.4806  0.031857623  0.031334017           14 
 3667000   0.65671281   -5.7050972    1398.5601  0.031782566  0.031325523            8 
 3668000   0.68386166   -5.6874864    1402.1476  0.031855407  0.031317068           11 
 3669000   0.66250242   -5.7263788    1397.0778  0.031731576  0.031308576           12 
 3670000   0.65679975   -5.7026488    1401.7973  0.031830092  0.031300094           14 
 3671000   0.66753274   -5.7176356    1403.0015  0.031848759  0.031291646            8 
 3672000   0.66048593   -5.7208231    1397.2575   0.03170973  0.031283208            6 
 3673000   0.65290447   -5.7208821    1399.3963  0.031749621  0.031274708           36 
 3674000   0.67788396   -5.7274725    1399.8184  0.031750552  0.031266203           11 
 3675000   0.68084406   -5.7128466    1399.4488  0.031733533  0.031257744           20 
 3676000   0.66792018     -5.71614    1400.9491  0.031758911  0.031249271           13 
 3677000   0.67934682   -5.6959425    1402.6082  0.031787875  0.031240825           18 
 3678000    0.6684436   -5.7226599    1398.8484  0.031694046  0.031232369           16 
 3679000   0.66852293   -5.7143948    1397.8425  0.031662645  0.031223886           16 
 3680000    0.6636542   -5.7419309    1397.7268  0.031651422  0.031215381           18 
 3681000   0.66678456   -5.7177443    1399.6436  0.031686217  0.031206872           22 
 3682000   0.66140242   -5.7120125    1399.7368  0.031679722  0.031198351            7 
 3683000   0.66744385   -5.7120473     1397.369  0.031617545  0.031189862            8 
 3684000   0.64812182   -5.7350319     1395.359  0.031563495  0.031181381            6 
 3685000   0.66812382   -5.7042239    1403.1136  0.031730294  0.031172911            6 
 3686000   0.67260372   -5.7164927    1400.2554  0.031657066  0.031164474           10 
 3687000   0.65802255    -5.727428    1396.6139  0.031566177  0.031156036           17 
 3688000   0.64206001   -5.7308509    1400.6168  0.031648066  0.031147568           17 
 3689000    0.6704759   -5.7021136      1400.51  0.031637074   0.03113913           16 
 3690000   0.65208627    -5.703416    1401.1307  0.031642517  0.031130693           16 
 3691000   0.66325069   -5.7305047     1397.786   0.03155843  0.031122215            7 
 3692000   0.66745413   -5.7044889    1400.0671   0.03160137  0.031113792            7 
 3693000   0.65397037   -5.7415936    1399.5928  0.031582111   0.03110533           19 
 3694000   0.64800812   -5.7321438     1405.549  0.031707926  0.031096876           26 
 3695000   0.65752402   -5.7555368    1398.5219  0.031540863   0.03108842           10 
 3696000   0.65348433   -5.7365594    1402.0285  0.031611393  0.031079938           11 
 3697000   0.67859815   -5.7262991    1402.0984  0.031604418  0.031071522           12 
 3698000   0.67906214   -5.6965301    1405.5271  0.031673137  0.031063109           15 
 3699000   0.66459268   -5.7161148    1405.3347   0.03166024  0.031054718           13 
 3700000   0.65187237    -5.722108    1402.6431  0.031591061  0.031046305           12 
 3701000   0.67054174   -5.7278183    1395.9645  0.031432146  0.031037861           16 
 3702000   0.65586623   -5.7111932     1403.644  0.031596525  0.031029405           15 
 3703000   0.66921949   -5.7534761    1400.4798  0.031516784  0.031020967            7 
 3704000   0.65161865   -5.7334335    1399.5558  0.031487486  0.031012567           12 
 3705000   0.65185571   -5.7037473      1403.19  0.031560729  0.031004186           15 
 3706000   0.66434518   -5.7258934    1401.1418  0.031506158   0.03099582            5 
 3707000   0.66107403   -5.7365263      1400.89  0.031491997  0.030987457            8 
 3708000   0.64955601   -5.7300572    1401.3838  0.031494601  0.030979067           13 
 3709000   0.65800336   -5.7107885     1403.563  0.031535072  0.030970676           11 
 3710000   0.65398082   -5.7095833    1408.1177  0.031628879  0.030962341           10 
 3711000   0.64507119   -5.6905691    1402.5718  0.031495819  0.030954016            7 
 3712000   0.65186288   -5.7202666    1400.1187  0.031432261  0.030945661           11 
 3713000   0.65467832   -5.7019298    1405.6385  0.031547682  0.030937261           13 
 3714000   0.65883907   -5.7125849    1405.4313  0.031534538  0.030928886            9 
 3715000   0.65432468   -5.7126389    1404.3764  0.031502387   0.03092051           16 
 3716000   0.65404529   -5.7289814    1401.1239  0.031420971  0.030912145           19 
 3717000   0.65281553   -5.7234147    1403.9068  0.031474908  0.030903746            8 
 3718000   0.66203773   -5.7240285    1402.1138  0.031426256  0.030895389            9 
 3719000   0.64221413   -5.7454114    1401.7251  0.031409095  0.030887031           10 
 3720000   0.66150361   -5.7003245    1402.9052  0.031427087  0.030878686           17 
 3721000    0.6472002   -5.7300795    1402.4027  0.031407388  0.030870337           11 
 3722000   0.65106127   -5.7432125    1402.9953  0.031412218  0.030861989           37 
 3723000   0.65901214   -5.7227953    1403.7334  0.031420301  0.030853611           18 
 3724000   0.66168092   -5.7320898    1406.4485  0.031472621  0.030845328            8 
 3725000   0.65131115   -5.7313044    1403.8152  0.031405262   0.03083705           11 
 3726000   0.66231833   -5.7220903    1405.2303  0.031428483  0.030828752           23 
 3727000   0.64423709   -5.7321941    1401.9668   0.03134708  0.030820439            9 
 3728000   0.65230164   -5.7217719    1404.0094   0.03138433  0.030812117           11 
 3729000   0.65124963   -5.7346713    1401.0222  0.031309159  0.030803758           12 
 3730000   0.64401311   -5.7436345    1403.3547  0.031352875  0.030795409           22 
 3731000   0.65359013    -5.743941    1403.1008  0.031338801  0.030787074           11 
 3732000   0.64780545   -5.7262232    1404.2929  0.031357022  0.030778743            7 
 3733000   0.65427426   -5.7231868    1405.2289  0.031369517  0.030770415           10 
 3734000   0.64254093   -5.7047364    1404.2207  0.031338615  0.030762116            6 
 3735000   0.65304804   -5.7398717    1400.0576   0.03123734  0.030753812           20 
 3736000   0.65555911   -5.7274131    1402.5625  0.031284852  0.030745508            8 
 3737000   0.66108896   -5.7257165    1406.4983  0.031364247  0.030737237           13 
 3738000   0.65756008   -5.7290606    1400.7947  0.031228703  0.030728897           10 
 3739000   0.62787511   -5.7402001    1403.1868  0.031273666  0.030720551           17 
 3740000   0.66260863   -5.7583438    1401.2109  0.031221277  0.030712211           11 
 3741000    0.6450322   -5.7534425    1402.1961  0.031234876  0.030703858           19 
 3742000    0.6436267   -5.7491055    1401.0842  0.031201768  0.030695528            7 
 3743000   0.65417642    -5.718007    1405.0745  0.031282272  0.030687232           11 
 3744000   0.65859243   -5.7474895    1405.9061  0.031292426  0.030678996            9 
 3745000    0.6268284   -5.7451694    1402.6515   0.03121165  0.030670721           11 
 3746000    0.6458997   -5.7486433    1404.6877  0.031248615   0.03066243           14 
 3747000   0.64183151   -5.7441484    1399.8178  0.031131968  0.030654152            8 
 3748000   0.65364428   -5.7323341    1403.2255  0.031199428  0.030645854           14 
 3749000   0.65697329   -5.7452939    1403.3196  0.031193197  0.030637578           19 
 3750000   0.66063803   -5.7372096    1402.1005  0.031157789  0.030629276            8 
 3751000   0.66169303    -5.748981    1401.8589  0.031144114  0.030620969           13 
 3752000   0.65264845   -5.7391741    1405.6313  0.031219601  0.030612703            7 
 3753000   0.66651509    -5.712535    1407.2876   0.03124806  0.030604435           15 
 3754000   0.65392376   -5.7306793     1405.109  0.031191373  0.030596207           10 
 3755000   0.65640262   -5.7502075    1404.1353  0.031161458  0.030587973           11 
 3756000   0.64909187   -5.7652499    1403.4193  0.031137277  0.030579666           12 
 3757000   0.65288906   -5.7318741    1405.1367  0.031167081  0.030571426           11 
 3758000   0.64859128   -5.7304523    1401.5797  0.031079913  0.030563169           14 
 3759000   0.64977128    -5.720946    1407.5499  0.031203997  0.030554918           12 
 3760000   0.64131094   -5.7113734    1409.4837  0.031238558  0.030546713           13 
 3761000   0.63992651   -5.7361628    1404.3698  0.031116942  0.030538483           22 
 3762000   0.65370504   -5.7441487    1407.0853  0.031168822  0.030530248           12 
 3763000    0.6444548   -5.7302916    1403.1487  0.031073361  0.030522008           11 
 3764000   0.64754025   -5.7375797    1403.7401  0.031078198  0.030513738           20 
 3765000    0.6536966   -5.7401293    1408.6255  0.031178077  0.030505495            9 
 3766000   0.64596433   -5.7415586    1403.6407  0.031059496  0.030497253           18 
 3767000   0.65744119   -5.7717115    1404.3974  0.031067989  0.030489015           20 
 3768000   0.64114343   -5.7516417    1405.0426  0.031074014   0.03048076           12 
 3769000   0.64094166   -5.7862051    1404.0911  0.031044731   0.03047248           22 
 3770000    0.6349651   -5.7528717    1403.7663  0.031029317  0.030464239           62 
 3771000   0.64633274   -5.7392636    1405.2955  0.031054881  0.030455992           13 
 3772000   0.65225965    -5.736397    1405.7227  0.031056087  0.030447753           13 
 3773000   0.64926679   -5.7701778    1403.6661  0.031002431  0.030439514           10 
 3774000   0.64082688   -5.7443194    1407.2853  0.031074133  0.030431275           20 
 3775000   0.64292886   -5.7338204    1405.6718  0.031030283  0.030423037            8 
 3776000   0.64693811   -5.7393674     1404.349  0.030992872  0.030414854           12 
 3777000   0.66091671     -5.74009    1404.6976  0.030992358  0.030406666           14 
 3778000   0.66981534   -5.7762253     1405.508  0.031002028  0.030398486           20 
 3779000   0.64710106    -5.728171    1406.1946  0.031008966  0.030390298           20 
 3780000   0.64941665    -5.752712    1404.9688  0.030973739  0.030382104           11 
 3781000   0.62696372   -5.7631056    1405.4022    0.0309751  0.030373897           28 
 3782000   0.64211404    -5.742737    1405.9518  0.030979019  0.030365667           13 
 3783000   0.62056699   -5.7521808    1406.2487  0.030977369  0.030357476           25 
 3784000   0.65337689   -5.7401179    1408.2762  0.031013834  0.030349257           20 
 3785000    0.6575728   -5.7711048    1404.1439   0.03091466  0.030341088           13 
 3786000    0.6417665   -5.7754044    1403.7878  0.030898657  0.030332842           15 
 3787000   0.63975481   -5.7593204    1403.7385  0.030889414  0.030324656            4 
 3788000   0.65320649   -5.7535111    1410.5038  0.031030091  0.030316469            9 
 3789000   0.64564763   -5.7436481    1406.4439   0.03093261  0.030308312            9 
 3790000   0.64382634   -5.7202254    1405.1598  0.030896215  0.030300167           15 
 3791000   0.64838989   -5.7332046    1407.8018  0.030946141     0.030292           12 
 3792000   0.63516661   -5.7511274    1408.2729  0.030948331  0.030283856            9 
 3793000   0.64954841   -5.7552476    1406.9494  0.030911094  0.030275685           12 
 3794000   0.64377392   -5.7656703    1408.0067   0.03092617  0.030267522            6 
 3795000   0.65320358   -5.7862719     1405.314  0.030858894  0.030259305           16 
 3796000   0.65652976   -5.7751169    1405.2939  0.030850323  0.030251105           10 
 3797000   0.64919582   -5.7897628    1405.9289  0.030856134  0.030242937           13 
 3798000   0.63749301   -5.7681071    1407.3685  0.030879596  0.030234757           21 
 3799000   0.65856649   -5.7568899    1405.9291  0.030839895  0.030226574           15 
 3800000   0.64672153   -5.7585645    1406.7253  0.030849239  0.030218446           10 
 3801000   0.65172893   -5.7711689     1407.952  0.030868017  0.030210271           15 
 3802000   0.64483785   -5.7518737    1407.1104  0.030841452  0.030202119            7 
 3803000   0.64698037   -5.7356363    1410.7194  0.030912424  0.030193976           11 
 3804000   0.64618154   -5.7891771    1406.2657  0.030806731  0.030185794           15 
 3805000   0.64528634   -5.7716194    1405.3699  0.030779017  0.030177602            6 
 3806000   0.63750433   -5.7685108    1409.9761  0.030871783  0.030169471           18 
 3807000   0.64700418   -5.7711906    1407.1708  0.030802268  0.030161359           13 
 3808000   0.64088221   -5.7477752    1411.3816  0.030886327  0.030153263           11 
 3809000   0.65467324   -5.7727834    1408.8663  0.030823189   0.03014517           12 
 3810000   0.64011377   -5.7821041    1409.6085  0.030831332   0.03013705           15 
 3811000   0.65090154   -5.7560044    1408.1153   0.03079059   0.03012897           26 
 3812000   0.63694804   -5.7649066    1415.5934  0.030945991  0.030120915            8 
 3813000   0.63413113   -5.7400717    1409.4343  0.030803268  0.030112794           20 
 3814000   0.64670048   -5.7668782    1405.1107  0.030700722  0.030104698            7 
 3815000   0.63891079   -5.7733448    1408.0745  0.030757415  0.030096606            9 
 3816000   0.64399156   -5.7719622    1410.1211  0.030794048  0.030088465           21 
 3817000   0.63607595   -5.7603094    1406.2798  0.030702118  0.030080306           13 
 3818000   0.65369998   -5.7542927    1411.6884  0.030812127  0.030072186           15 
 3819000   0.63048622   -5.7361219    1409.9758  0.030766688   0.03006409           15 
 3820000   0.64276095   -5.7500365    1407.6315  0.030707492  0.030056003            8 
 3821000   0.64293282   -5.7655251    1407.3756  0.030693875  0.030047868           21 
 3822000   0.63917857   -5.7377886    1407.4497   0.03068746  0.030039742            8 
 3823000   0.64355441   -5.7492675    1408.4348  0.030700907  0.030031679           12 
 3824000   0.60934923   -5.7472454    1408.5512  0.030695415  0.030023637            8 
 3825000   0.64477533   -5.7536923    1409.2997  0.030703697  0.030015571           12 
 3826000   0.64694431   -5.7512768    1410.0542  0.030712106  0.030007493            7 
 3827000   0.63362546   -5.7623501    1410.1224  0.030705566  0.029999387           23 
 3828000    0.6508864   -5.7981189    1405.3006  0.030592578   0.02999129           14 
 3829000   0.63025051   -5.7822306     1409.057   0.03066634  0.029983166           13 
 3830000   0.63899121    -5.795785    1409.4844  0.030667632  0.029974975           35 
 3831000   0.64180088   -5.7614962    1408.5417  0.030639121  0.029966808           25 
 3832000   0.64134678   -5.7897339    1406.7353  0.030591843  0.029958668           28 
 3833000   0.63043927    -5.765464     1408.691  0.030626379   0.02995053           15 
 3834000   0.65066138   -5.7585236    1405.4761  0.030548515  0.029942421           18 
 3835000   0.63657919   -5.7771418    1406.4298  0.030561273  0.029934331           10 
 3836000   0.63286885   -5.7736949    1407.7238  0.030581417  0.029926199           17 
 3837000   0.62715969   -5.7595014    1408.6891  0.030594413  0.029918076           29 
 3838000    0.6303083   -5.7605742    1411.7106  0.030652046  0.029909978            9 
 3839000   0.63705913   -5.7597848    1409.4176  0.030594287   0.02990185           11 
 3840000   0.65196817   -5.7819734     1407.773   0.03055063   0.02989374            9 
 3841000   0.64420191   -5.7586377    1409.9721  0.030590386  0.029885581           10 
 3842000   0.63253555   -5.7935298    1403.1892  0.030435302  0.029877428           12 
 3843000   0.64580004   -5.7762093    1409.3272  0.030560482  0.029869262           17 
 3844000   0.62206557   -5.7647062    1407.5791  0.030514635  0.029861118           13 
 3845000   0.63791644   -5.7836586    1406.1574  0.030475886   0.02985296            3 
 3846000   0.63705868   -5.7952914    1405.4601  0.030452854  0.029844805           20 
 3847000   0.63662196    -5.808388    1402.9165  0.030389837  0.029836582            6 
 3848000   0.61334127   -5.7856903    1405.2737  0.030432989  0.029828378           18 
 3849000   0.66666388   -5.7828144    1405.7331  0.030435029  0.029820225           19 
 3850000   0.61323361   -5.7683837    1406.6101  0.030446107  0.029812094            9 
 3851000   0.62533768   -5.7720856    1410.5288  0.030522999  0.029803967           18 
 3852000   0.63217557   -5.7733035    1407.3717  0.030446775   0.02979584           20 
 3853000    0.6361863   -5.7793245     1406.703   0.03042441   0.02978773           12 
 3854000   0.63821246    -5.784398    1407.5089  0.030433941  0.029779631           18 
 3855000   0.61801465   -5.7803086    1407.5475   0.03042688  0.029771485           12 
 3856000   0.62752257   -5.7776005    1405.5302  0.030375393  0.029763337           10 
 3857000   0.62934299   -5.7986133    1405.7027  0.030371246  0.029755148           15 
 3858000   0.64532988   -5.7714531    1405.6337  0.030361882  0.029746996           14 
 3859000   0.64585323   -5.7905253    1408.4463  0.030414751  0.029738915           15 
 3860000    0.6371786   -5.7995036    1405.9667  0.030353339  0.029730793            8 
 3861000    0.6528879   -5.7694982    1406.9265  0.030366194  0.029722676            7 
 3862000   0.64377962   -5.7643916    1407.5747  0.030372319  0.029714551           28 
 3863000   0.63557753   -5.7790194    1406.2139    0.0303351  0.029706409            9 
 3864000   0.63601864   -5.7483642    1410.6058  0.030421967   0.02969829           24 
 3865000   0.62684715    -5.767263    1408.6803  0.030372582  0.029690173           19 
 3866000   0.63648965   -5.7879298    1409.5188  0.030382798   0.02968201           11 
 3867000   0.62569054    -5.789226    1406.3833  0.030307373  0.029673841           18 
 3868000   0.63593173   -5.8051928    1405.2504   0.03027513  0.029665727           17 
 3869000   0.62020653   -5.7866755    1408.5338  0.030338024  0.029657607           32 
 3870000   0.63931572   -5.7859475    1405.8423  0.030272229  0.029649467            9 
 3871000   0.64405003   -5.7901432    1407.6959  0.030304311  0.029641315           23 
 3872000   0.63843529   -5.7830761    1407.8222  0.030299204  0.029633163           12 
 3873000      0.62778   -5.7919593    1408.1483  0.030298397  0.029625061           19 
 3874000   0.62021457   -5.7592504    1409.7675  0.030325406   0.02961699           31 
 3875000   0.63375386   -5.7695685    1406.3321  0.030243701  0.029608911           31 
 3876000   0.63908528   -5.8065746    1405.4875  0.030217739  0.029600792           20 
 3877000   0.63304755   -5.7857973      1407.19  0.030246539  0.029592715           27 
 3878000   0.63026018   -5.8121131    1407.4284  0.030243864  0.029584624           11 
 3879000   0.63296419   -5.7899907    1406.9283  0.030225322  0.029576526           14 
 3880000   0.63019513   -5.7963159    1407.9329  0.030239108  0.029568439           24 
 3881000   0.62640643   -5.7773358    1407.0803  0.030213011  0.029560343           10 
 3882000   0.62459191   -5.7921811    1406.9357  0.030202124  0.029552247           18 
 3883000   0.61340207   -5.7861143    1410.7231  0.030275626  0.029544151           14 
 3884000   0.64073639   -5.8187883    1408.6255  0.030222827  0.029536054           39 
 3885000    0.6254125   -5.8007651    1406.4781  0.030168985  0.029527935            9 
 3886000   0.64460413   -5.8168195    1403.3686   0.03009454  0.029519801            9 
 3887000   0.62165407   -5.8202122    1405.1625  0.030125258  0.029511624           20 
 3888000    0.6333752   -5.8162989    1406.8337  0.030153329  0.029503442           18 
 3889000   0.61888834   -5.8057123    1406.4995  0.030138415  0.029495286           11 
 3890000   0.62875051   -5.7893217    1405.4318  0.030107794  0.029487146           24 
 3891000   0.62479976   -5.7826294    1409.0597  0.030177754  0.029479045           12 
 3892000   0.62244175   -5.7739196    1405.5235  0.030094285  0.029470915           15 
 3893000   0.63890622   -5.7810863    1406.4063  0.030105453  0.029462834           19 
 3894000    0.6294236   -5.7864084    1408.6724  0.030146217  0.029454754           20 
 3895000   0.62621336   -5.7972142    1406.4459  0.030090841  0.029446696           29 
 3896000   0.63406704   -5.7662877    1405.8163  0.030069651  0.029438572           21 
 3897000   0.63605148   -5.8126581    1404.6424  0.030036831  0.029430482            7 
 3898000   0.63104696   -5.8039074    1413.4568  0.030217565  0.029422374            8 
 3899000    0.6275205   -5.7864849    1408.5536  0.030105018  0.029414307           11 
 3900000   0.62435733   -5.8125634    1405.8674  0.030039902  0.029406208           10 
 3901000   0.63995982   -5.7795442     1408.217  0.030082394  0.029398114            6 
 3902000   0.62799235   -5.7902794    1409.9527  0.030111752  0.029390009           15 
 3903000   0.62680638   -5.7818614    1408.5176  0.030073397  0.029381943           15 
 3904000   0.62628008   -5.8250835    1406.5572  0.030023846  0.029373866           14 
 3905000   0.63134245   -5.8084658    1411.3265  0.030117937  0.029365765           19 
 3906000   0.62919747   -5.8069079    1407.9856   0.03003895  0.029357662           40 
 3907000   0.62203496   -5.7996694    1411.0232  0.030096049  0.029349574           24 
 3908000   0.63278391   -5.7856575    1408.7694  0.030040289   0.02934147           15 
 3909000   0.62352099   -5.7888413     1408.976  0.030037009  0.029333415           24 
 3910000   0.61657221   -5.8011717     1406.546  0.029977536  0.029325351           24 
 3911000   0.61403361    -5.797957    1409.2329  0.030027122  0.029317279           16 
 3912000   0.63773107   -5.7906687    1410.0009  0.030035807   0.02930923           16 
 3913000   0.62159746   -5.8191934    1409.4525  0.030016452   0.02930115            6 
 3914000   0.62364032    -5.766601    1406.0643  0.029936643  0.029293075            9 
 3915000   0.61300976   -5.7916928    1411.4242  0.030043087  0.029285075            8 
 3916000   0.64127819   -5.8173693    1404.1453  0.029880517  0.029277058           11 
 3917000   0.62311243   -5.7931153    1407.7267  0.029949082   0.02926902           17 
 3918000   0.61873766   -5.8102479    1409.2825  0.029974531  0.029260952           40 
 3919000   0.62553835   -5.8302354    1408.0678  0.029941053  0.029252938            9 
 3920000   0.62428095   -5.8004984    1412.0921  0.030018966  0.029244895           25 
 3921000   0.60752007   -5.8001499    1411.4903  0.029998519  0.029236866           18 
 3922000   0.64999675   -5.7861781    1411.7484  0.029996353  0.029228874           21 
 3923000   0.61349865   -5.7709411    1409.8178  0.029947697  0.029220887           18 
 3924000   0.63690316   -5.7983984    1411.8269  0.029982732  0.029212889           10 
 3925000   0.62207349   -5.8210414    1406.8875  0.029870222  0.029204885            9 
 3926000   0.61290937   -5.8098596    1409.8194  0.029924847  0.029196861           20 
 3927000   0.63083839   -5.7805839    1412.1959  0.029967658  0.029188846           13 
 3928000   0.62408894   -5.8074217    1410.1833   0.02991733  0.029180825           26 
 3929000   0.63040527   -5.7968495    1410.2053  0.029910182  0.029172813           11 
 3930000   0.62918878   -5.7897862      1408.95  0.029875953  0.029164791           33 
 3931000   0.63313096   -5.8233099     1409.467  0.029879315  0.029156782           31 
 3932000   0.61934933   -5.8170344    1408.7395  0.029856296  0.029148739           36 
 3933000   0.61929543   -5.8141277    1405.6282  0.029782781  0.029140698           12 
 3934000   0.62888157   -5.8091485    1406.7224   0.02979839   0.02913267           18 
 3935000   0.63379894   -5.8151102    1409.2074  0.029843444  0.029124629           14 
 3936000    0.6135871    -5.813071    1406.3745  0.029775883  0.029116599           16 
 3937000   0.63517061   -5.8048848    1409.1499  0.029827066  0.029108602           16 
 3938000    0.6225036   -5.7885952    1410.7631  0.029853629  0.029100607           20 
 3939000   0.61279093   -5.8259112    1409.9472  0.029828789  0.029092623           27 
 3940000   0.61683321   -5.8083608    1407.6054  0.029771688  0.029084615           24 
 3941000   0.62285751   -5.7965415    1410.2016   0.02981903  0.029076619            9 
 3942000   0.61832073   -5.8140475    1409.7971  0.029802914  0.029068595           13 
 3943000   0.60961058   -5.8335708    1407.6428  0.029749828  0.029060579           13 
 3944000   0.61840585   -5.7917726    1412.2763  0.029840186  0.029052576            9 
 3945000   0.63606947    -5.790914     1414.201  0.029873278  0.029044578           13 
 3946000   0.62514058   -5.8122453    1412.0261  0.029819777    0.0290366           13 
 3947000   0.61858414    -5.809541    1409.1619  0.029751751  0.029028616           16 
 3948000   0.62341508   -5.7946504     1407.697  0.029713293  0.029020606            7 
 3949000   0.63270584   -5.7814992    1408.9491  0.029732192  0.029012604           13 
 3950000   0.61786365    -5.810209    1408.0933   0.02970661  0.029004594           10 
 3951000   0.61818726   -5.8304724    1407.7236  0.029691293  0.028996566           23 
 3952000    0.6216856   -5.8276943    1408.4454  0.029699001  0.028988529           26 
 3953000   0.61042273    -5.828308    1409.3648  0.029710869   0.02898051           20 
 3954000   0.61786995   -5.8405231    1408.5791  0.029686797  0.028972484           18 
 3955000   0.61484686    -5.840366    1410.0237  0.029709729  0.028964516           34 
 3956000   0.61984764   -5.8270422    1408.4219  0.029668475   0.02895651           20 
 3957000   0.62386114   -5.8109643     1410.066  0.029695603  0.028948524           30 
 3958000   0.59807768   -5.8031614    1408.3398  0.029651755  0.028940526           17 
 3959000   0.63197309   -5.8379384    1409.4373  0.029667367  0.028932521           19 
 3960000   0.62729578   -5.8185135    1409.8316  0.029668172  0.028924532           10 
 3961000   0.62650309   -5.8095714    1411.0345   0.02968599  0.028916562            7 
 3962000   0.62713006    -5.805111    1410.3426  0.029663944  0.028908627           12 
 3963000   0.63070911   -5.8388103    1409.6615  0.029642139  0.028900675           18 
 3964000    0.6207922   -5.8276586    1408.7123  0.029614704  0.028892686           27 
 3965000   0.61428075   -5.8202851    1408.2461  0.029597438  0.028884699           20 
 3966000   0.62986787   -5.8032144    1407.3182  0.029570479  0.028876715           14 
 3967000   0.61693673   -5.8385493    1408.2821  0.029583273  0.028868754           16 
 3968000   0.60800067   -5.8442452    1412.0498  0.029654943  0.028860815           31 
 3969000   0.60822033   -5.8519402    1409.7508  0.029599203  0.028852815           46 
 3970000   0.61746193   -5.8180998    1407.8401   0.02955164  0.028844826           30 
 3971000   0.60858631    -5.838478     1409.841  0.029586187  0.028836812           34 
 3972000    0.6286918    -5.856258    1408.2007  0.029544324  0.028828828           22 
 3973000   0.61220999   -5.8297053    1406.8558  0.029508679  0.028820841           24 
 3974000   0.61749576   -5.8273797    1408.0713  0.029526744  0.028812875           10 
 3975000   0.61935809   -5.8399815    1406.8784  0.029494305  0.028804896           22 
 3976000   0.61673549   -5.8327513    1410.0013   0.02955234  0.028796913           13 
 3977000   0.62302366   -5.8230542    1409.3862  0.029532021   0.02878894           14 
 3978000   0.61874025   -5.8597749    1408.4642  0.029505282  0.028780955            9 
 3979000   0.62185544   -5.8304618    1404.7707  0.029420514  0.028772994           23 
 3980000   0.61424748   -5.8488158    1407.3533  0.029467196  0.028764999           27 
 3981000   0.61405638   -5.8343079    1409.0488  0.029495286  0.028756987           26 
 3982000   0.61813284   -5.8505675    1407.0724  0.029446517  0.028748969           12 
 3983000   0.62151196   -5.8350536    1408.2994  0.029464797  0.028740989           22 
 3984000   0.60443684   -5.8236045    1414.7183  0.029591665  0.028733019           18 
 3985000   0.62136763   -5.8445552     1409.076  0.029466248  0.028725077           27 
 3986000   0.61384549   -5.8266486    1409.6692  0.029471257  0.028717123           25 
 3987000   0.61536465   -5.8315628    1407.2826  0.029413984  0.028709197           18 
 3988000   0.62002383   -5.8243269    1408.8793  0.029439972  0.028701299           19 
 3989000   0.59858557   -5.8366241    1407.1253  0.029395949  0.028693372           29 
 3990000   0.61847983    -5.826568    1411.2595  0.029474927  0.028685428           32 
 3991000   0.61700352   -5.8445025    1408.2405  0.029404504  0.028677493            9 
 3992000   0.63029637   -5.8594034    1409.6125  0.029425779  0.028669539           14 
 3993000    0.6208462   -5.8176371    1412.9652   0.02948838   0.02866159            9 
 3994000   0.60905243   -5.8555383    1411.4716  0.029449832  0.028653677           24 
 3995000   0.59578467    -5.826395    1408.6182  0.029382941  0.028645742           18 
 3996000   0.59817893   -5.8355945    1412.1705  0.029449669  0.028637842           13 
 3997000   0.62944577   -5.8329424    1411.5776  0.029429938  0.028629952           22 
 3998000   0.61457753   -5.8336402     1409.991  0.029389507  0.028622051           36 
 3999000   0.61263326   -5.8342905    1412.7086  0.029438788  0.028614159           17 
 4000000   0.60337311    -5.813496    1410.7647  0.029390931  0.028606229           20 
 4001000   0.61223076   -5.8424728    1410.0221  0.029368119  0.028598285           22 
 4002000   0.60753249   -5.8444035    1413.4394  0.029431937  0.028590371           15 
 4003000   0.61283724   -5.8424918     1412.652  0.029408194  0.028582454           28 
 4004000   0.61150915   -5.8371352    1409.6167  0.029337677   0.02857456           23 
 4005000   0.61947347   -5.8102282    1412.1451  0.029382962  0.028566663           14 
 4006000    0.6143727    -5.831881    1409.6618  0.029323967  0.028558761           13 
 4007000   0.60623341   -5.8425187    1411.4303  0.029353429  0.028550854           16 
 4008000   0.61553301   -5.8630566    1408.7387  0.029290144  0.028542957           12 
 4009000   0.61193497   -5.8126331    1413.6892  0.029385741  0.028535073           22 
 4010000   0.60932756   -5.8383471    1413.4688  0.029373831  0.028527191           14 
 4011000    0.6077012   -5.8406487    1409.4828  0.029283694  0.028519308           49 
 4012000   0.60281121   -5.8323821    1410.7314  0.029302331   0.02851141           12 
 4013000   0.60559782    -5.845307     1410.895  0.029298427  0.028503502           15 
 4014000   0.61475743   -5.8381689    1410.7604  0.029288332  0.028495591           16 
 4015000   0.60212805   -5.8422194    1409.2145  0.029248951  0.028487679           13 
 4016000   0.60921136   -5.8274356    1412.1844  0.029303294  0.028479763           13 
 4017000    0.6106556    -5.875717    1408.8918  0.029227695  0.028471822           23 
 4018000   0.62044492   -5.8630415    1407.0758  0.029182758  0.028463893           14 
 4019000   0.62089375   -5.8461033    1409.9231  0.029234533  0.028455968           16 
 4020000   0.60034469   -5.8703841    1411.6695  0.029263464  0.028448029           22 
 4021000   0.60850594   -5.8476863    1409.2924  0.029206923  0.028440121           37 
 4022000   0.60897226   -5.8643676    1405.2717  0.029116353  0.028432211           18 
 4023000   0.59362368   -5.8505627    1408.2689    0.0291712  0.028424283           23 
 4024000   0.59844776   -5.8716096    1410.4441  0.029208999  0.028416345           15 
 4025000   0.62027683   -5.8329149    1408.9392  0.029170583  0.028408439           11 
 4026000   0.61162853   -5.8735066    1409.1492  0.029167686  0.028400523           19 
 4027000   0.61144561   -5.8336245    1409.5552  0.029168843  0.028392589           21 
 4028000   0.61548186   -5.8578802     1407.606  0.029121277  0.028384653           15 
 4029000   0.62695333   -5.8579895     1407.096  0.029103501  0.028376755           36 
 4030000   0.60039733   -5.8478652    1410.3335  0.029163223  0.028368849           26 
 4031000   0.60231892   -5.8586297    1407.9048   0.02910578  0.028360983           37 
 4032000     0.608062    -5.854449    1409.6258  0.029134131  0.028353121            8 
 4033000    0.6100127   -5.8496746    1412.5673  0.029187686  0.028345233           14 
 4034000   0.60525991   -5.8630001    1410.4547  0.029136809  0.028337371           10 
 4035000   0.60759779   -5.8631692    1410.3134   0.02912667   0.02832945           11 
 4036000   0.61794601   -5.8699812     1406.082  0.029032087   0.02832153           24 
 4037000   0.61412779   -5.8671593    1410.5595  0.029117322  0.028313654           44 
 4038000   0.60292567   -5.8310885    1405.7845  0.029011566  0.028305758           34 
 4039000   0.62161629   -5.8497098    1410.6308  0.029104373  0.028297913           20 
 4040000   0.60537999   -5.8628001    1408.6534  0.029056382  0.028290002           37 
 4041000   0.59863594   -5.8736512    1411.0838  0.029099312  0.028282112           21 
 4042000   0.61691507   -5.8804176    1408.8731  0.029046535   0.02827422           20 
 4043000   0.61279751   -5.8438175    1410.9506  0.029082172  0.028266339           13 
 4044000   0.60476459   -5.8599056    1408.8037  0.029030738  0.028258474           24 
 4045000   0.60038482   -5.8539162    1408.6923  0.029021268  0.028250611           16 
 4046000   0.58834471   -5.8587737    1409.2057  0.029024668  0.028242739           17 
 4047000   0.59873605   -5.8390708    1415.5078  0.029147266  0.028234909           16 
 4048000   0.60774573   -5.8589227    1409.9351  0.029025343  0.028227066           11 
 4049000   0.60999936   -5.8661431    1411.6521  0.029053513  0.028219214           17 
 4050000   0.59641693   -5.8700349    1406.7454  0.028945378  0.028211348           26 
 4051000   0.59514457   -5.8578326    1409.2635  0.028990033  0.028203467           25 
 4052000   0.60750679   -5.8725478    1408.1085  0.028959125  0.028195579           19 
 4053000   0.61220278   -5.8348434    1410.7658  0.029006617  0.028187695           49 
 4054000   0.58822283   -5.8462288    1412.0036  0.029024906  0.028179844           20 
 4055000   0.60802356   -5.8522266    1408.8707  0.028953364  0.028171989           22 
 4056000   0.61409298   -5.8445999    1410.5967  0.028981689  0.028164159           42 
 4057000   0.60113734   -5.8417659    1408.3926  0.028929271  0.028156288           13 
 4058000   0.60373407   -5.8660732    1406.8121  0.028889685  0.028148404           37 
 4059000    0.6066991   -5.8860015    1405.7091  0.028859922  0.028140485           19 
 4060000   0.60996965   -5.8619684    1409.8273  0.028937341  0.028132557           16 
 4061000   0.61304421   -5.8740915    1405.1638  0.028834519  0.028124634           20 
 4062000   0.59045851   -5.8757954    1406.4378  0.028853557  0.028116698           20 
 4063000   0.61031381   -5.8549881    1411.4629  0.028949522  0.028108819           12 
 4064000   0.60183845   -5.8579108    1410.7619  0.028928024  0.028100944           25 
 4065000   0.59670349   -5.8599554    1410.6551  0.028918718   0.02809303           27 
 4066000   0.60069849   -5.8732193    1406.8211  0.028833027   0.02808514           27 
 4067000   0.60124003   -5.8808196    1407.4394  0.028838607  0.028077243           29 
 4068000    0.6009323    -5.876123    1405.5752  0.028793331  0.028069356           27 
 4069000   0.60787496   -5.8533302    1408.0787  0.028837525  0.028061475           70 
 4070000   0.59528414   -5.8653015    1408.7025  0.028843213  0.028053575           39 
 4071000    0.5892699   -5.8503162    1409.7657  0.028857892  0.028045687           19 
 4072000   0.60381903   -5.8854428    1409.2805  0.028840875  0.028037778           22 
 4073000   0.58903672   -5.8656852    1407.2234  0.028791705  0.028029924           10 
 4074000   0.60729648   -5.8484558    1411.4256  0.028870594  0.028022084           18 
 4075000   0.57897392   -5.8851218    1409.8503  0.028831295  0.028014229           21 
 4076000   0.59605871    -5.858408    1408.0414  0.028787238  0.028006342           19 
 4077000   0.60313218   -5.8676621    1406.4783  0.028748227  0.027998483           40 
 4078000   0.60077992   -5.8872258     1406.562  0.028742888  0.027990561           29 
 4079000   0.58867417   -5.8741692     1409.791  0.028801811  0.027982654           10 
 4080000   0.60875123   -5.8522703    1407.7894  0.028753868  0.027974765           34 
 4081000   0.60229854   -5.8674623    1409.5272  0.028782308  0.027966888           16 
 4082000   0.60113966   -5.8665534    1410.0223  0.028785364  0.027959019           27 
 4083000   0.58887904   -5.8564804     1413.591  0.028851151  0.027951145           34 
 4084000   0.60802408   -5.8876153     1408.682   0.02874392  0.027943259           16 
 4085000   0.60040645   -5.8907903    1406.0995  0.028684201  0.027935356           37 
 4086000   0.61310325    -5.883028    1408.0527  0.028717016  0.027927453           49 
 4087000   0.60325108   -5.8713965    1410.5976  0.028761879   0.02791958           29 
 4088000   0.59785352   -5.8621568    1405.8828  0.028658733  0.027911695           28 
 4089000    0.6016532   -5.8706212    1408.7523  0.028710205  0.027903811           22 
 4090000   0.60027068   -5.8722071    1409.2086  0.028712482  0.027895952           39 
 4091000   0.58985088   -5.8541521    1408.1566  0.028684034  0.027888116           24 
 4092000   0.60908849   -5.8752339    1405.8529   0.02863011  0.027880229           16 
 4093000   0.59719715    -5.878911    1407.2258  0.028651067  0.027872354           14 
 4094000    0.5988845   -5.8664617    1407.7338  0.028654408  0.027864503           13 
 4095000   0.59720827   -5.8456162     1408.286  0.028658648  0.027856673           15 
 4096000   0.59787538   -5.8534269    1413.3911  0.028755516  0.027848867           14 
 4097000   0.60168394   -5.8577202    1413.3893  0.028748459  0.027841074           10 
 4098000   0.60118612   -5.8293976    1411.7044  0.028707182  0.027833306           10 
 4099000   0.60180754   -5.8759019    1410.3409  0.028672458  0.027825548           14 
 4100000   0.60399466   -5.8485918    1410.6124  0.028670984   0.02781778           13 
 4101000   0.59617799    -5.858062    1410.3849   0.02865937   0.02781003           15 
 4102000   0.61181719   -5.8671099    1409.1812   0.02862793  0.027802256           15 
 4103000   0.59612213   -5.8875521    1406.4447  0.028565373  0.027794451           18 
 4104000   0.60727675   -5.8757415    1408.0347  0.028590699   0.02778664            9 
 4105000   0.59248357   -5.8873646    1409.0107  0.028603546  0.027778811           10 
 4106000   0.59394754   -5.8563295    1409.6126  0.028608796  0.027771052            8 
 4107000   0.59503062   -5.8810199    1409.5828  0.028601226  0.027763284           14 
 4108000   0.59159328    -5.865906    1408.0494  0.028563158  0.027755508           16 
 4109000   0.59275855   -5.8892835    1409.0429  0.028576355  0.027747716           21 
 4110000    0.5879797   -5.8893412    1410.0071  0.028588951  0.027739929            8 
 4111000   0.59631365   -5.8569083    1411.2318  0.028606823  0.027732146           18 
 4112000    0.5956569   -5.8556665    1407.7471  0.028529245  0.027724386           18 
 4113000   0.59354716    -5.872094    1408.8058  0.028543759  0.027716619           11 
 4114000   0.58075856   -5.8895754    1407.6213  0.028512827  0.027708839           27 
 4115000   0.59798353   -5.8988949     1407.364  0.028500688   0.02770105           36 
 4116000   0.58800922    -5.876817    1410.4723  0.028556696  0.027693257           17 
 4117000   0.59145048   -5.8816019    1411.0684  0.028561825  0.027685467           43 
 4118000   0.60424847   -5.9050342    1405.1082  0.028434276  0.027677687           19 
 4119000   0.58406048   -5.8744437    1410.9362  0.028545282   0.02766992           10 
 4120000   0.58573486   -5.8864923    1413.4611  0.028589424  0.027662165           11 
 4121000   0.61399169   -5.8836969    1411.9736  0.028552406  0.027654404           18 
 4122000   0.59209243   -5.8666268    1412.5358  0.028556845  0.027646653           10 
 4123000   0.60546977   -5.8864721    1409.5446  0.028489463  0.027638897            8 
 4124000   0.58936616   -5.8622458    1410.1102  0.028493983  0.027631155            7 
 4125000   0.58197907   -5.8654454    1408.4035  0.028452596  0.027623407           16 
 4126000   0.61056204    -5.861787    1409.6892  0.028471667  0.027615676           18 
 4127000   0.58803961   -5.8370303    1410.3051  0.028477205  0.027607952           18 
 4128000    0.6016759    -5.859578    1413.5428  0.028535668  0.027600236           20 
 4129000   0.59088128     -5.87947    1412.7771  0.028513302  0.027592495           12 
 4130000   0.60192079   -5.8689903    1408.8027  0.028426205  0.027584769            8 
 4131000   0.60209408    -5.857673    1411.6411  0.028476581  0.027577032           15 
 4132000   0.60442263   -5.8644276    1411.3033  0.028462877  0.027569314           17 
 4133000   0.59659331   -5.8595531    1408.7321  0.028404147  0.027561621           15 
 4134000    0.6031782   -5.8818553    1409.1255  0.028405208  0.027553881           26 
 4135000   0.59634286   -5.8786873    1411.2187  0.028440522  0.027546144           13 
 4136000    0.5913373   -5.8988557    1412.3195  0.028455825  0.027538417           41 
 4137000   0.58442302    -5.872467    1410.8972  0.028420296  0.027530686           32 
 4138000   0.59351164   -5.8735358    1410.6876  0.028409208  0.027522961           44 
 4139000   0.58553951   -5.8736352    1412.0138  0.028429044  0.027515225           35 
 4140000   0.60531429   -5.9108947     1411.857  0.028419021  0.027507499           19 
 4141000   0.59346789    -5.882544     1409.757    0.0283699  0.027499757           40 
 4142000   0.59819499   -5.9067515    1408.3431  0.028334604  0.027492014           17 
 4143000   0.59099644   -5.9062524    1408.1637  0.028324155  0.027484279           26 
 4144000    0.5935742   -5.8897679    1411.3353  0.028381099   0.02747656           15 
 4145000   0.58575228   -5.8948936    1407.3601  0.028294332  0.027468826           16 
 4146000    0.5872072    -5.867825    1413.2648  0.028406191  0.027461111           24 
 4147000   0.59015163   -5.8741869    1412.0858  0.028375648  0.027453438           11 
 4148000   0.58135397   -5.8905292    1407.9511  0.028285742  0.027445717           38 
 4149000   0.60674813   -5.8925802    1411.2264  0.028344711  0.027438001           19 
 4150000   0.58425988   -5.9109665    1410.3347  0.028319974  0.027430291           29 
 4151000   0.57869943   -5.8865636    1410.8824  0.028324147  0.027422562           36 
 4152000   0.58653206    -5.912434    1409.4881   0.02828934  0.027414809           51 
 4153000   0.58195893   -5.8984709    1412.4412  0.028341784   0.02740708           20 
 4154000   0.58428638   -5.9130144    1412.1649  0.028329419  0.027399366           19 
 4155000   0.59048666    -5.907461    1410.2568  0.028284331  0.027391646           52 
 4156000   0.59417651   -5.8940528    1408.2702  0.028237692  0.027383935           35 
 4157000   0.56926359   -5.9091549    1410.9168  0.028283955  0.027376224           24 
 4158000   0.59005252   -5.8982209    1409.9651  0.028258078  0.027368523           16 
 4159000   0.58038732   -5.8704996    1410.8429  0.028268873  0.027360853           25 
 4160000   0.58445978   -5.9155817    1408.3488  0.028212114  0.027353138           25 
 4161000   0.58469101   -5.9239306    1408.8635  0.028215643  0.027345433           28 
 4162000   0.59465102   -5.9042445    1410.1396  0.028234414  0.027337716           12 
 4163000   0.58104509   -5.9079324    1405.7348  0.028139458  0.027330009           16 
 4164000   0.58662514   -5.9082487    1409.5259  0.028208571   0.02732228            8 
 4165000   0.59064713   -5.9332848    1408.2387  0.028176044  0.027314569           33 
 4166000   0.57860399   -5.9027818    1410.2722  0.028209958   0.02730686           72 
 4167000    0.5875217   -5.9124841    1410.1728  0.028201199  0.027299146           22 
 4168000   0.57373499   -5.9003003    1412.7212  0.028245385    0.0272914           37 
 4169000   0.59459199   -5.9142466    1410.4829  0.028193869  0.027283679           22 
 4170000   0.58798291   -5.9173876    1408.1776  0.028141039  0.027276011           53 
 4171000   0.59284625   -5.8979855    1409.5682  0.028162076  0.027268336           21 
 4172000   0.58637365    -5.900852    1407.8649  0.028121302  0.027260637           16 
 4173000   0.57365533   -5.9190365    1408.9743  0.028136717  0.027252933           13 
 4174000   0.58384257   -5.9170971    1408.9881  0.028130252  0.027245238           21 
 4175000   0.58058548   -5.9057467    1409.2193   0.02812813  0.027237567           23 
 4176000   0.56878744   -5.9127488     1407.953  0.028096125  0.027229902           26 
 4177000   0.58557815   -5.9235054    1408.5734  0.028101775   0.02722222           50 
 4178000   0.58446253   -5.9312971    1406.1036  0.028045787  0.027214517           23 
 4179000   0.58764025   -5.9193297    1410.9564  0.028135847  0.027206797           18 
 4180000   0.58348377   -5.9257522    1407.8723   0.02806763  0.027199097           21 
 4181000   0.57693768   -5.8864137    1408.2742  0.028068927  0.027191422           23 
 4182000   0.58884631   -5.9153184    1407.2469  0.028041744  0.027183731            9 
 4183000   0.58312907   -5.9179065    1408.6828  0.028063647  0.027176024           34 
 4184000   0.58255828   -5.9207347    1409.0828  0.028064906  0.027168325           14 
 4185000   0.58185306   -5.9043192    1411.7996  0.028112297  0.027160625           23 
 4186000   0.59054535   -5.9129408    1407.2684  0.028015377  0.027152956           20 
 4187000   0.57558801   -5.9173141    1408.2861  0.028028941  0.027145273           23 
 4188000   0.56969383   -5.9095939     1410.414  0.028064588  0.027137596           17 
 4189000   0.57657773   -5.8946114    1408.8509  0.028026795  0.027129932           16 
 4190000   0.57357604   -5.9185471    1407.5459  0.027994151  0.027122261           30 
 4191000   0.57545594   -5.9218057    1409.2599  0.028021553  0.027114605           23 
 4192000    0.5816862   -5.9063075    1412.4072  0.028077434  0.027106972           31 
 4193000   0.58073406   -5.9107809    1412.9806  0.028082132   0.02709935           33 
 4194000   0.58279572   -5.8971963    1412.8369  0.028072582  0.027091735           13 
 4195000   0.57504015    -5.911667    1408.6906  0.027983524  0.027084113           21 
 4196000   0.57650753   -5.9038403    1410.6234   0.02801524  0.027076481           23 
 4197000   0.58096871    -5.903588    1411.0208  0.028016456  0.027068836           16 
 4198000   0.59037614   -5.9272768    1408.0302  0.027950417  0.027061214           37 
 4199000   0.58288252   -5.9226958    1410.8343   0.02799941  0.027053569           42 
 4200000   0.58452956   -5.9139568    1411.4035  0.028004037   0.02704593           39 
 4201000   0.56783139   -5.9241624    1411.1188  0.027991724  0.027038274           27 
 4202000   0.57537143   -5.9386562    1409.4929  0.027952818  0.027030605           39 
 4203000   0.57922666   -5.9196794     1411.728  0.027990482  0.027022951           55 
 4204000   0.58051969   -5.9190535    1410.2182  0.027953897  0.027015308           50 
 4205000   0.58105889   -5.9310575      1411.44  0.027971462    0.0270077           50 
 4206000   0.56439965   -5.9044774    1410.6857  0.027949867  0.027000076           32 
 4207000   0.58535464   -5.9114588     1410.009   0.02792982  0.026992415           28 
 4208000     0.573686    -5.917251    1411.5344  0.027953391  0.026984762           34 
 4209000   0.58987999   -5.9136669    1410.8341  0.027932884  0.026977123           45 
 4210000   0.55433458   -5.8982774    1413.8724   0.02798639  0.026969524           37 
 4211000   0.57892612   -5.9365378    1411.2146  0.027927146  0.026961904           60 
 4212000   0.57809906   -5.9230845    1411.5798  0.027927742  0.026954299           36 
 4213000   0.57403269   -5.9083093    1411.2818  0.027915218  0.026946702           28 
 4214000   0.58446871   -5.9125406    1410.0813  0.027884853  0.026939095           29 
 4215000   0.56773009   -5.9114561    1407.1079  0.027819452  0.026931486           47 
 4216000   0.59522118   -5.9102805    1410.8759  0.027887333  0.026923869           80 
 4217000   0.58066652    -5.922398    1407.6175  0.027816328  0.026916268           87 
 4218000   0.57622019   -5.9095478    1407.1482  0.027800463   0.02690865           33 
 4219000   0.56959197   -5.8958568     1408.501  0.027820593  0.026901024           30 
 4220000   0.57808772   -5.9009072    1410.7485  0.027858383  0.026893425           16 
 4221000   0.58948804   -5.9145002    1410.6629  0.027850093  0.026885821           39 
 4222000   0.57051934   -5.9125482    1412.0865  0.027871596  0.026878233           10 
 4223000   0.58297332   -5.9245728    1406.8277  0.027761222  0.026870624           10 
 4224000   0.57374581   -5.9267807    1408.8741  0.027795023  0.026863011           10 
 4225000   0.58172895   -5.9304867    1413.0463  0.027870736  0.026855425           17 
 4226000    0.5695033   -5.9190263    1409.8564  0.027801238  0.026847819           17 
 4227000   0.56979398    -5.925517    1410.1414   0.02780028  0.026840231           10 
 4228000   0.57545667   -5.9043679    1408.3966  0.027759314  0.026832663           10 
 4229000   0.58395114   -5.9073068    1408.2802  0.027750457  0.026825096           13 
 4230000   0.57943948    -5.939548    1408.3636  0.027745539  0.026817486            7 
 4231000   0.58283521   -5.9122421    1411.4722  0.027800209  0.026809883           18 
 4232000   0.56642585   -5.9124157    1412.2233   0.02780843  0.026802282           36 
 4233000   0.57615546   -5.9357302    1410.0364  0.027758807  0.026794696           15 
 4234000   0.56837018   -5.9400764    1411.0559  0.027772317   0.02678709           32 
 4235000    0.5617716   -5.9264551    1410.6073  0.027756933  0.026779475           36 
 4236000   0.56943154   -5.9431053    1408.2633  0.027704267  0.026771893           23 
 4237000   0.56371407   -5.9187448    1413.0388  0.027791654  0.026764305           34 
 4238000   0.56701322   -5.9355257    1407.3547  0.027673328  0.026756727           75 
 4239000    0.5771435   -5.9118727    1407.1341  0.027662462  0.026749162           76 
 4240000   0.58380397   -5.9185116    1410.0143  0.027712545  0.026741572           75 
 4241000   0.59676104   -5.9237222     1409.702  0.027699874  0.026733975           97 
 4242000   0.56088274   -5.9357574    1409.7845  0.027694965  0.026726393           90 
 4243000   0.57790848   -5.9325759    1409.9947  0.027692566  0.026718803          132 
 4244000   0.56558699   -5.9290581    1408.9445   0.02766542  0.026711209          154 
 4245000   0.56804741   -5.9147007    1408.8044  0.027656153  0.026703598          113 
 4246000   0.56411399   -5.9143563    1410.9869  0.027692474  0.026696001           84 
 4247000   0.56859587   -5.9393033    1409.2325  0.027651529  0.026688433           79 
 4248000   0.57246948   -5.9293717    1407.1484  0.027604136  0.026680838           50 
 4249000   0.58053258   -5.9345308    1410.5817  0.027664974  0.026673271           91 
 4250000   0.58273067   -5.9282268    1410.7563  0.027661888  0.026665682           62 
 4251000   0.56965202   -5.9287443    1407.8205  0.027597829  0.026658117           71 
 4252000   0.56677178   -5.9332222    1405.1167  0.027538348  0.026650545           42 
 4253000   0.56516664   -5.9542745    1405.5384  0.027540137  0.026642963           48 
 4254000   0.56187005   -5.9086264    1408.3972  0.027589664  0.026635405           57 
 4255000   0.57021634   -5.9306985     1409.989  0.027614356  0.026627862           41 
 4256000   0.56603993   -5.9240112    1410.7749  0.027623254  0.026620325           40 
 4257000   0.56114978   -5.9069044    1411.5347   0.02763164  0.026612779           41 
 4258000    0.5795072   -5.9205773    1410.9965  0.027614617  0.026605232           25 
 4259000   0.56434944   -5.9134941    1410.3088  0.027594678   0.02659771           21 
 4260000   0.57603883   -5.9326781    1411.4235  0.027610006  0.026590177           35 
 4261000   0.56891156   -5.9410695    1409.5372  0.027566634  0.026582619           42 
 4262000   0.56667068   -5.9108355     1411.784  0.027604099  0.026575117           25 
 4263000   0.57125489   -5.9351726    1411.1504  0.027585238    0.0265676           20 
 4264000   0.57038256    -5.935131    1410.1332  0.027558888  0.026560083           22 
 4265000   0.57442275   -5.9172259    1413.0354  0.027609132  0.026552559           33 
 4266000   0.57713465   -5.9237042    1412.0891  0.027584175  0.026545056           18 
 4267000   0.56811873   -5.9293669    1410.9653  0.027555764  0.026537527           25 
 4268000   0.57200049   -5.9164523    1410.1576  0.027533537  0.026530032           13 
 4269000   0.57397867   -5.9369345      1408.14  0.027487702   0.02652253           41 
 4270000   0.56760063   -5.9503637    1407.9092   0.02747676  0.026515008           29 
 4271000   0.57944485   -5.9337349    1407.7168  0.027466573    0.0265075           44 
 4272000   0.56624322    -5.930802    1412.5168  0.027553777  0.026499992           38 
 4273000   0.56281212   -5.9475558    1410.2473  0.027503068  0.026492489           27 
 4274000     0.566958   -5.9405008     1409.395  0.027480014  0.026484963           29 
 4275000   0.56372223   -5.9421045    1408.6521  0.027459105  0.026477449           67 
 4276000   0.56299571   -5.9529614    1411.4983  0.027508151  0.026469914           31 
 4277000    0.5695675   -5.9409265    1407.7624  0.027428931  0.026462388           22 
 4278000   0.55633415   -5.9612419    1408.3098  0.027433182  0.026454869           25 
 4279000   0.56942465   -5.9632599    1409.3758  0.027447531  0.026447329           28 
 4280000   0.57027995   -5.9357698    1408.1291  0.027416844  0.026439792           34 
 4281000   0.55647919   -5.9804635    1408.1913  0.027411651  0.026432248           29 
 4282000   0.56409314   -5.9265512    1409.8225  0.027436995  0.026424712           41 
 4283000   0.56758693   -5.9767876    1407.3305  0.027382102    0.0264172           30 
 4284000   0.57939175   -5.9569463    1407.0537  0.027370326  0.026409691           34 
 4285000   0.57639763   -5.9499968    1409.9719   0.02742069  0.026402178           45 
 4286000   0.55983142   -5.9605659    1412.9432  0.027472064  0.026394696           19 
 4287000   0.55559231   -5.9461754     1407.591  0.027361616  0.026387209           39 
 4288000   0.56009136    -5.959599    1409.5851  0.027393989  0.026379696           29 
 4289000   0.57696512   -5.9466929    1407.6781  0.027350549  0.026372203           46 
 4290000   0.57108678   -5.9502339    1410.1464  0.027392122  0.026364711           32 
 4291000   0.57371971   -5.9560271    1408.5814  0.027355344  0.026357198           30 
 4292000   0.56340651   -5.9450279    1409.9919  0.027376357  0.026349723           30 
 4293000    0.5536172    -5.934609     1410.651  0.027382774  0.026342244           27 
 4294000    0.5769218   -5.9374288    1408.1144  0.027327169  0.026334749           27 
 4295000   0.57553859    -5.927867    1409.8926  0.027355309  0.026327252           27 
 4296000    0.5741317   -5.9619376    1409.4939  0.027341208  0.026319757           33 
 4297000   0.55663107   -5.9468632    1408.0115  0.027306095   0.02631227           33 
 4298000   0.55791736   -5.9434952    1410.3255  0.027344609  0.026304765           21 
 4299000   0.57110353     -5.96563    1407.0505  0.027274763  0.026297275           42 
 4300000   0.55809602   -5.9515357    1410.3399  0.027332169  0.026289812           13 
 4301000   0.56019591   -5.9620572    1412.6351  0.027370285  0.026282335           37 
 4302000   0.56066031   -5.9736006    1407.7884  0.027270038  0.026274842           35 
 4303000   0.56878998   -5.9541411    1409.3461  0.027293868  0.026267345           69 
 4304000   0.56597623   -5.9339561    1408.3005   0.02726728  0.026259864           18 
 4305000   0.55865988   -5.9585102     1406.213  0.027220539  0.026252393           29 
 4306000   0.56704035    -5.952384    1405.7823  0.027205881  0.026244905           32 
 4307000   0.55756779   -5.9683597    1409.3037  0.027267698  0.026237425           37 
 4308000   0.56425576   -5.9602361    1407.5304  0.027227067  0.026229939           68 
 4309000   0.56289637   -5.9580524    1407.4625  0.027219434   0.02622245           46 
 4310000   0.56913798   -5.9569239    1408.6793  0.027236645   0.02621497           85 
 4311000   0.55500654   -5.9645468    1409.5865  0.027247864  0.026207485           29 
 4312000   0.55399133   -5.9604685    1407.8717  0.027208404  0.026200001           34 
 4313000   0.56534033   -5.9585074    1407.4242  0.027193451  0.026192501           36 
 4314000   0.55535739   -5.9763016     1409.315  0.027223672  0.026184991           62 
 4315000   0.56592143   -5.9663402    1406.9364  0.027171425  0.026177508           47 
 4316000   0.56620903   -5.9673056    1409.6912  0.027218319  0.026170033           45 
 4317000   0.55572561   -5.9447359    1407.0512  0.027161053  0.026162559           79 
 4318000   0.56518543   -5.9690822    1407.9114  0.027171363    0.0261551           47 
 4319000   0.56231828   -5.9500302    1409.3026  0.027191916  0.026147662           42 
 4320000   0.55826745   -5.9516536    1410.3079  0.027205014  0.026140217           41 
 4321000   0.55650602   -5.9509553    1406.1739   0.02711899  0.026132775           45 
 4322000   0.56559358   -5.9712587    1406.6379  0.027121662  0.026125322           28 
 4323000   0.55985352   -5.9509528    1408.8366  0.027157772  0.026117863           47 
 4324000   0.56891081   -5.9522949     1411.337   0.02719968    0.0261104           53 
 4325000   0.56057894   -5.9891891    1405.1411  0.027074011  0.026102938           59 
 4326000   0.55033411   -5.9763463    1408.8059  0.027138349  0.026095474           40 
 4327000    0.5641437     -5.96298    1407.5738  0.027108348  0.026088001           42 
 4328000   0.55317699   -5.9479735    1405.7301  0.027066584  0.026080538           47 
 4329000   0.55345138   -5.9794851    1406.7484  0.027079935  0.026073068           44 
 4330000   0.55186044   -5.9716096    1406.6899  0.027072554   0.02606559           35 
 4331000   0.55303157   -5.9809709     1404.119  0.027016836  0.026058103           29 
 4332000   0.54392048   -5.9550441    1406.4984  0.027056372   0.02605064           29 
 4333000   0.55791832   -5.9655867    1407.2931  0.027065412  0.026043183           18 
 4334000   0.56067868   -5.9653887    1405.4773  0.027024253  0.026035711           28 
 4335000   0.55623968   -5.9651181    1406.7334  0.027042165  0.026028243           46 
 4336000   0.55918094   -5.9615721    1405.5317  0.027012833   0.02602079           44 
 4337000   0.55995069    -5.937779    1405.9691  0.027015008  0.026013334           80 
 4338000   0.55379051   -5.9636903    1406.9915  0.027028421  0.026005906           27 
 4339000   0.54977831   -5.9595804    1410.2871  0.027085487  0.025998472           32 
 4340000   0.55931098   -5.9771075    1407.5769  0.027027206  0.025991031           33 
 4341000   0.56468398   -5.9560369    1408.8674  0.027045753  0.025983582           13 
 4342000   0.56491936   -5.9551147    1407.1306  0.027006191  0.025976158           31 
 4343000   0.56353149   -5.9809915    1407.5924  0.027008834  0.025968741           20 
 4344000   0.54890171   -5.9799651    1407.4451  0.026999792  0.025961321           19 
 4345000   0.55407734   -5.9581594    1408.3459  0.027010853  0.025953933           35 
 4346000   0.55050757   -5.9653544     1409.701  0.027030623  0.025946536           29 
 4347000   0.56860959   -5.9765595    1406.2644  0.026958523  0.025939132           33 
 4348000   0.55612424   -5.9845921    1409.4461  0.027013304  0.025931732           53 
 4349000   0.55990158   -5.9747202    1407.4526  0.026968893  0.025924348           20 
 4350000   0.56392421   -5.9660895    1406.0961  0.026936706  0.025916955           30 
 4351000    0.5556768   -5.9737647    1404.6111  0.026902075  0.025909548           31 
 4352000    0.5517271   -5.9694207    1407.1764  0.026945014  0.025902116           18 
 4353000   0.55282533   -5.9763598    1409.3025  0.026979526  0.025894723            8 
 4354000   0.56670164   -5.9735153    1410.3833  0.026994014  0.025887344           19 
 4355000   0.55207172   -5.9594361    1408.8818  0.026959086  0.025879968           18 
 4356000   0.54902787   -5.9634727    1410.7215   0.02698809  0.025872588           14 
 4357000   0.55489988   -5.9814727    1408.5226  0.026939839  0.025865195           14 
 4358000   0.56493609   -5.9601805    1410.3676  0.026968939  0.025857791           22 
 4359000   0.55824014   -5.9781691    1408.9111  0.026934908  0.025850422           11 
 4360000   0.55414447   -5.9562029    1413.0652  0.027008127  0.025843053           30 
 4361000    0.5487181   -5.9801118    1407.1042  0.026888027  0.025835679           23 
 4362000   0.57073144   -5.9722507    1408.4178  0.026906958  0.025828288           43 
 4363000   0.55192365   -5.9944086    1409.3202  0.026918026  0.025820917           21 
 4364000   0.55621962   -5.9816233    1408.0632  0.026887855   0.02581353           19 
 4365000   0.56213098   -5.9849502    1408.5259   0.02689053  0.025806159           58 
 4366000   0.57555897   -5.9808449    1407.6386  0.026867435  0.025798775           73 
 4367000   0.55210119   -5.9908917     1409.037  0.026887967  0.025791388           52 
 4368000   0.55537062   -5.9828881    1407.4895  0.026852287  0.025784006           42 
 4369000   0.54817043    -5.973619    1407.6959  0.026850078  0.025776625           36 
 4370000    0.5424008   -5.9753022    1407.7124  0.026844249  0.025769247           38 
 4371000   0.55347236   -5.9869456     1407.386  0.026831884  0.025761866           20 
 4372000   0.55341509   -5.9699913    1408.4671  0.026846354  0.025754498           17 
 4373000   0.56115832   -5.9988573     1404.287  0.026760558  0.025747114           28 
 4374000   0.54631644   -6.0014083    1406.6567  0.026799587  0.025739748           23 
 4375000    0.5368159   -5.9625772    1409.5948  0.026849424  0.025732374           24 
 4376000   0.54924205   -5.9851671    1406.2099   0.02677883  0.025725001           16 
 4377000   0.54646769   -5.9856916    1406.9977  0.026787711  0.025717621           22 
 4378000   0.55676918   -5.9943104    1410.5326  0.026848878  0.025710244           14 
 4379000   0.54786064   -5.9833273    1406.8419  0.026772511  0.025702866           25 
 4380000   0.55721783   -5.9966517    1403.4807  0.026702449  0.025695466           33 
 4381000   0.54912997   -5.9890746    1407.4205  0.026771295  0.025688068           69 
 4382000   0.56352617   -5.9855146    1405.1274  0.026721577  0.025680681           33 
 4383000   0.55558821   -6.0056332    1405.4102  0.026720856  0.025673289           54 
 4384000   0.54186236   -6.0114625    1406.7942  0.026741071  0.025665882           36 
 4385000   0.55007639    -5.980472     1407.737  0.026752888  0.025658491           60 
 4386000   0.55893997   -5.9989266    1407.7162  0.026746393  0.025651115           52 
 4387000   0.56266577   -5.9956298    1406.0234  0.026708142  0.025643724           63 
 4388000   0.55941521   -5.9962877    1407.1432  0.026723321  0.025636348           62 
 4389000    0.5576484    -6.003733    1405.9892  0.026695322  0.025628955           86 
 4390000   0.53703931   -6.0021176    1403.0964  0.026634329  0.025621561           98 
 4391000    0.5586288   -6.0007063    1406.7614  0.026697817  0.025614172           70 
 4392000   0.54879482   -5.9915826     1408.316  0.026721236  0.025606804           41 
 4393000   0.55861854   -5.9791153    1404.1711  0.026636526  0.025599428           14 
 4394000   0.55464114     -6.00777     1405.127  0.026648593  0.025592043           89 
 4395000   0.54561435   -5.9938476    1406.8463  0.026675129  0.025584667           76 
 4396000    0.5463727   -5.9871399    1407.7833  0.026686823  0.025577313           57 
 4397000   0.55419107   -6.0012385    1406.7022  0.026660265   0.02556995           84 
 4398000   0.54580199   -6.0034566    1405.8685  0.026638406  0.025562564           60 
 4399000   0.55275433   -5.9937812    1409.2006  0.026695472  0.025555191           35 
 4400000   0.55270761   -5.9923383    1407.8121  0.026663107  0.025547817           30 
 4401000   0.53897511   -6.0209587    1407.5772  0.026652602  0.025540443           53 
 4402000   0.54379917   -5.9946665    1406.3097  0.026622552  0.025533096           27 
 4403000   0.53927103   -6.0005513    1404.1823  0.026576241  0.025525737           45 
 4404000   0.53551524     -6.01071    1407.4997   0.02663298  0.025518363           45 
 4405000   0.55018923   -6.0026847    1405.0679  0.026580929  0.025511007           30 
 4406000   0.53332559   -5.9793046     1408.581  0.026641341  0.025503663           64 
 4407000   0.54628804   -6.0204829    1405.2167   0.02657168  0.025496337           45 
 4408000   0.54117057   -5.9975211    1408.1578  0.026621254  0.025489005           49 
 4409000   0.55795074   -5.9908575    1407.5035  0.026602848  0.025481662           40 
 4410000   0.54406127   -6.0039339    1407.2952  0.026592879  0.025474359           58 
 4411000   0.54555747   -5.9727835     1404.916  0.026541903   0.02546704           65 
 4412000    0.5548675   -6.0076337    1404.4845  0.026527736  0.025459707           67 
 4413000   0.55407326   -5.9922301    1408.1694  0.026591309  0.025452362           37 
 4414000   0.53919204   -6.0236639    1407.1726  0.026566466   0.02544503           37 
 4415000   0.54579866   -5.9977327    1407.1654  0.026560313  0.025437697           27 
 4416000   0.54462601   -6.0176783    1403.1205  0.026477969  0.025430358           47 
 4417000   0.54893773   -5.9779419    1403.8522  0.026485779  0.025423027           42 
 4418000   0.54997267   -5.9971506    1407.9968  0.026557959   0.02541569           62 
 4419000   0.52512504   -6.0199593    1406.1607  0.026517325  0.025408368           32 
 4420000    0.5367901   -6.0215728    1406.0628  0.026509479  0.025401019           63 
 4421000   0.54418004   -6.0021925    1406.0672  0.026503567  0.025393671           42 
 4422000   0.54424902   -5.9959426    1409.2428  0.026557417   0.02538635           14 
 4423000   0.53456487   -6.0081642    1407.7488  0.026523265  0.025379025           53 
 4424000    0.5337921   -6.0015294    1407.6697  0.026515779  0.025371699           29 
 4425000   0.53044689   -6.0089447    1408.0771   0.02651746  0.025364368           52 
 4426000   0.54443825    -6.009412     1407.418  0.026499058  0.025357054           75 
 4427000   0.54916617   -6.0061687    1406.9793  0.026484814  0.025349724           36 
 4428000   0.54711788   -6.0140159    1407.2059  0.026483098  0.025342415           51 
 4429000   0.54065611   -6.0264216    1402.2286  0.026383469  0.025335087           27 
 4430000   0.55143554   -6.0205888    1403.6989  0.026405172  0.025327761           60 
 4431000   0.54870186   -6.0305561    1404.9946   0.02642358  0.025320436           42 
 4432000   0.53905845   -6.0018466    1405.3136  0.026423616  0.025313127           20 
 4433000   0.53768607   -6.0185807    1405.4549  0.026420312  0.025305823           27 
 4434000   0.55273858    -6.002001    1404.7533  0.026401167  0.025298524           54 
 4435000   0.53914694   -5.9835074    1406.5975  0.026429867  0.025291221           26 
 4436000   0.54584945   -6.0080441    1405.9386   0.02641153  0.025283926           20 
 4437000   0.55242303   -5.9884947    1406.8695  0.026423061  0.025276627           17 
 4438000   0.55187735   -6.0063904    1403.3304  0.026350653  0.025269324           22 
 4439000    0.5373241   -6.0175666    1404.8344  0.026372951  0.025261996           93 
 4440000   0.54285993   -5.9983056    1403.7808  0.026347237  0.025254675           42 
 4441000   0.53514947   -6.0097609    1403.8509   0.02634262  0.025247392           39 
 4442000    0.5431266   -6.0050637    1402.8829   0.02631853  0.025240071           18 
 4443000   0.54351873   -6.0154854    1404.7416  0.026347468  0.025232748           27 
 4444000   0.54550288   -6.0123167    1401.8994  0.026288243  0.025225436           28 
 4445000   0.53879495   -6.0139014    1403.8081  0.026318112  0.025218153           43 
 4446000   0.54268532    -6.002382    1405.6225  0.026346201  0.025210865           34 
 4447000    0.5466319   -6.0148377    1406.0958  0.026349146  0.025203551           23 
 4448000   0.53981527   -6.0228507    1406.8244  0.026356872  0.025196243           71 
 4449000   0.54748952   -6.0222492    1402.2608  0.026265467  0.025188956           35 
 4450000   0.53924434   -6.0153114    1407.3513  0.026354893  0.025181678           33 
 4451000    0.5361045   -6.0067734    1406.0451  0.026324517    0.0251744           66 
 4452000   0.55471892   -6.0198897    1405.8435   0.02631483  0.025167141           82 
 4453000   0.53880683   -6.0154388     1404.295  0.026279943  0.025159873           76 
 4454000   0.54825882   -6.0278445    1405.3754  0.026294256    0.0251526          104 
 4455000   0.53552714   -6.0191569    1402.4274   0.02623321  0.025145309          105 
 4456000   0.54399884   -6.0101607    1407.4131  0.026320563   0.02513803           64 
 4457000   0.53197361   -6.0162224    1403.1791  0.026235493  0.025130761           92 
 4458000   0.54274663   -6.0231736    1404.9811  0.026263293  0.025123479           93 
 4459000   0.54329138   -6.0236852    1403.8229  0.026235757  0.025116195           79 
 4460000   0.53774073   -6.0447878    1405.2644  0.026256808  0.025108907           82 
 4461000   0.53500217    -6.031117    1405.0641  0.026247181  0.025101633           39 
 4462000   0.53321123   -6.0224243     1400.308  0.026152474  0.025094369          155 
 4463000   0.53874228   -6.0129449     1404.663  0.026227929  0.025087099           97 
 4464000   0.52953813   -6.0117363    1405.7583  0.026242501  0.025079836           53 
 4465000   0.52172432   -6.0297973    1404.1896  0.026207347  0.025072572          100 
 4466000   0.53854631   -6.0069521    1409.1052    0.0262932  0.025065304          101 
 4467000     0.541584   -6.0267111     1403.838  0.026189053   0.02505804           79 
 4468000   0.53919002    -6.022529    1405.3736  0.026211832  0.025050774           83 
 4469000   0.54571533   -6.0464904     1403.949  0.026179402  0.025043503           53 
 4470000   0.53443511   -6.0396661    1402.4114  0.026144882  0.025036232           92 
 4471000   0.52983387   -6.0300432    1402.5684  0.026141959  0.025028968           45 
 4472000   0.53178399   -6.0299687    1403.4343  0.026152249   0.02502171           37 
 4473000   0.53544085   -6.0359144    1406.1737  0.026197439  0.025014461           34 
 4474000   0.53235813   -6.0334713    1404.8481  0.026166892  0.025007208           52 
 4475000   0.53123962   -6.0396325    1404.1188  0.026147464  0.024999948           86 
 4476000   0.53429359   -6.0199866    1402.4655  0.026110842  0.024992691           46 
 4477000   0.55144753   -6.0287728     1402.991  0.026114791  0.024985446           41 
 4478000   0.53024338   -6.0457757    1402.5743  0.026101205  0.024978214           49 
 4479000   0.54184102   -6.0415702     1404.567  0.026132451  0.024970963           38 
 4480000    0.5334784   -6.0213936    1401.4991  0.026069551  0.024963727           24 
 4481000   0.52586068   -6.0206718    1404.5894  0.026121205  0.024956506           48 
 4482000   0.53902801   -6.0347613    1408.0852  0.026180373  0.024949273           83 
 4483000   0.53783868   -6.0184031    1403.7138  0.026093274  0.024942041           56 
 4484000   0.53420947   -6.0316843    1403.7072  0.026087332  0.024934808           66 
 4485000   0.53623952    -6.037926    1402.6501  0.026061875  0.024927558           79 
 4486000   0.53377623   -6.0380982    1404.6758  0.026093695  0.024920302           63 
 4487000   0.52723161   -6.0560136    1402.5586  0.026048559  0.024913053          103 
 4488000   0.53133071   -6.0687227    1405.0113  0.026088296  0.024905809          110 
 4489000   0.54229482   -6.0380662    1405.7811  0.026096775  0.024898564           75 
 4490000   0.53445904   -6.0279434    1401.4105  0.026009846  0.024891322           71 
 4491000   0.53700131   -6.0228268    1403.4766  0.026042391  0.024884098           75 
 4492000   0.54163471    -6.042301    1403.6275  0.026039394  0.024876878           95 
 4493000   0.52605358   -6.0337752    1404.7669  0.026054732  0.024869663          108 
 4494000   0.53420182   -6.0265415    1402.4116  0.026005258  0.024862461           79 
 4495000   0.54359927   -6.0414682    1403.9246  0.026027523  0.024855241           66 
 4496000   0.53868894    -6.036093    1402.4967  0.025995268  0.024848027           95 
 4497000   0.52816618   -6.0212515    1405.1503  0.026038661   0.02484082           64 
 4498000   0.52575776   -6.0343905    1404.7844  0.026026094  0.024833615          113 
 4499000   0.53284712   -6.0477737    1404.7449  0.026019577  0.024826399          205 
 4500000   0.52396137   -6.0560993    1405.4615  0.026027065   0.02481918           65 
 4501000   0.54019333   -6.0483726    1399.8656  0.025917678  0.024811955           77 
 4502000   0.52539434    -6.062688    1401.0643  0.025934108  0.024804735           71 
 4503000   0.52706246   -6.0564301     1403.579  0.025974887    0.0247975          175 
 4504000   0.53997632   -6.0574823    1405.0033  0.025995472  0.024790282          174 
 4505000   0.53494945   -6.0462717    1403.7154  0.025965879  0.024783052          145 
 4506000   0.52472643   -6.0505164    1404.1582  0.025968306  0.024775819          219 
 4507000   0.53255943   -6.0634917    1400.7437  0.025899411  0.024768586          172 
 4508000   0.53317737   -6.0680712    1401.3186  0.025904292  0.024761358          261 
 4509000   0.52460458   -6.0458075    1400.6082  0.025885417  0.024754128          243 
 4510000   0.53506052   -6.0491305    1402.2766  0.025910506  0.024746889          230 
 4511000   0.53067831   -6.0240959    1404.4617  0.025945128   0.02473966          169 
 4512000   0.54231941   -6.0346306    1400.8075  0.025871888  0.024732443          170 
 4513000   0.53932674   -6.0443262    1401.1061  0.025871669  0.024725232          160 
 4514000   0.53896627   -6.0442757    1399.2392  0.025831472  0.024718017          153 
 4515000   0.53966172   -6.0528344    1401.2565  0.025862985  0.024710802          130 
 4516000   0.52734427   -6.0427741    1401.3474  0.025858935  0.024703599          118 
 4517000   0.52358077   -6.0622092    1403.8073  0.025898592  0.024696391          158 
 4518000   0.52608518   -6.0617943    1403.4199  0.025885715  0.024689181          146 
 4519000   0.52763716   -6.0707313    1401.9643  0.025853144  0.024681979          117 
 4520000   0.53315191   -6.0611906    1403.9364  0.025883783  0.024674761          281 
 4521000   0.53970204   -6.0492448     1403.244  0.025865296  0.024667563          102 
 4522000   0.53288913   -6.0463508     1401.929  0.025835342  0.024660376          291 
 4523000   0.52701307   -6.0384229    1402.2888  0.025836258  0.024653167          305 
 4524000   0.52451574   -6.0763423    1402.2667  0.025830141  0.024645964          320 
 4525000   0.52626722   -6.0636746    1403.7132  0.025851072  0.024638773          309 
 4526000   0.52061828   -6.0541215     1399.513  0.025768026  0.024631579          226 
 4527000    0.5250659   -6.0589588    1400.2126  0.025775212  0.024624409          268 
 4528000   0.52318499   -6.0592395     1404.847  0.025854811  0.024617229          155 
 4529000    0.5340266   -6.0611957    1399.1278   0.02574387  0.024610042          336 
 4530000   0.52833534   -6.0506315    1405.0976  0.025848005  0.024602855          271 
 4531000   0.52368267   -6.0615732    1401.8388  0.025782366  0.024595661          240 
 4532000   0.52250273   -6.0528937    1399.2894  0.025729798  0.024588468          257 
 4533000    0.5326081   -6.0654164    1399.8169   0.02573382  0.024581278          260 
 4534000   0.52595458   -6.0637878    1400.0093  0.025731681  0.024574094          268 
 4535000   0.53340735   -6.0497203    1402.5879   0.02577339  0.024566916          288 
 4536000   0.53467677   -6.0578226    1403.5409  0.025785216  0.024559733          223 
 4537000   0.52556076   -6.0378533    1400.7562  0.025728386  0.024552565          267 
 4538000   0.51344426   -6.0500539     1401.287  0.025732463  0.024545385          274 
 4539000   0.53336338   -6.0422852    1403.7345  0.025771729  0.024538217          239 
 4540000   0.51859018   -6.0582565    1402.8801  0.025750369  0.024531047          326 
 4541000   0.52519455   -6.0597673     1401.857  0.025725923  0.024523877          202 
 4542000   0.52395941   -6.0465655    1404.0762  0.025760975  0.024516708          182 
 4543000    0.5295519   -6.0540136    1401.0865  0.025700464  0.024509539          263 
 4544000    0.5159946   -6.0609725    1402.8528  0.025727201  0.024502374          194 
 4545000   0.52384028   -6.0548062    1403.1468   0.02572693  0.024495219          238 
 4546000   0.52036401   -6.0681777    1401.2975  0.025687371  0.024488067          307 
 4547000   0.51743286   -6.0556488    1401.1425  0.025678882  0.024480911          357 
 4548000    0.5156143   -6.0553015    1400.3306   0.02565836  0.024473749          263 
 4549000   0.51219649   -6.0727171    1400.3574   0.02565321  0.024466579          283 
 4550000   0.52202233    -6.045812    1400.5717  0.025651496  0.024459431          226 
 4551000   0.51352957    -6.044269    1404.1157  0.025710754  0.024452293          288 
 4552000    0.5231945   -6.0728177    1401.2875   0.02565333  0.024445139          280 
 4553000   0.51977715   -6.0647093    1400.9403   0.02564134  0.024437986          328 
 4554000   0.51794755   -6.0373372     1404.766  0.025705717  0.024430837          287 
 4555000   0.53318627   -6.0614483    1402.1006   0.02565131  0.024423692          351 
 4556000     0.524763   -6.0626215    1399.7112  0.025601975  0.024416535          291 
 4557000   0.52572201    -6.056264    1399.2224  0.025587419  0.024409392          322 
 4558000   0.51561823   -6.0648544    1402.1424   0.02563519  0.024402245          329 
 4559000   0.51747714   -6.0530031    1402.2067  0.025630743  0.024395111          292 
 4560000   0.51006875    -6.052595    1403.3352  0.025645745  0.024387995          309 
 4561000    0.5162668   -6.0481943    1402.2936  0.025621091   0.02438087          217 
 4562000   0.53081813   -6.0457787    1401.5674   0.02560221  0.024373753          211 
 4563000    0.5129433   -6.0666405    1403.2697  0.025627689  0.024366635          235 
 4564000   0.52534218    -6.054574    1402.4388  0.025606903  0.024359525          218 
 4565000   0.51629648    -6.054885    1403.6944  0.025624213  0.024352406          229 
 4566000   0.50887489   -6.0725293    1403.9823  0.025623856    0.0243453          273 
 4567000   0.51349413   -6.0508974    1400.3559  0.025552075  0.024338176          322 
 4568000   0.52503743   -6.0771062    1398.3935  0.025510681  0.024331049          219 
 4569000   0.50994768   -6.0494647    1402.1128  0.025572934  0.024323943          288 
 4570000     0.520103   -6.0539705    1401.3431  0.025553303  0.024316856          212 
 4571000   0.52257387   -6.0647179    1400.8329  0.025538411   0.02430976          189 
 4572000   0.52372365   -6.0573156    1402.2797  0.025559196  0.024302672          300 
 4573000   0.51651525   -6.0557839    1403.7445  0.025580299  0.024295578          271 
 4574000   0.51001101   -6.0676553     1398.738  0.025483495  0.024288458          214 
 4575000    0.5304199   -6.0545356    1396.9415  0.025445201  0.024281343          264 
 4576000   0.52330224   -6.0681492    1402.5069  0.025540991  0.024274234          290 
 4577000    0.5151509   -6.0845226    1398.9068  0.025469864   0.02426712          278 
 4578000   0.51532511   -6.0729868    1402.4852  0.025529438  0.024260005          328 
 4579000   0.52009328   -6.0806179    1402.4657  0.025523508  0.024252907          358 
 4580000   0.51301472     -6.06723    1402.2579  0.025514154  0.024245818          367 
 4581000   0.51040768   -6.0596201    1402.7093  0.025516796  0.024238708          343 
 4582000   0.52873562   -6.0679244     1399.082  0.025445257  0.024231605          304 
 4583000      0.51739   -6.0838684     1396.349   0.02539001  0.024224487          337 
 4584000   0.51700443   -6.0702054    1399.8629  0.025448351  0.024217358          362 
 4585000   0.50609029   -6.0846774    1400.4595  0.025453643  0.024210249          325 
 4586000   0.50895453   -6.0688049    1400.9001  0.025456101   0.02420315          280 
 4587000   0.51896698   -6.0551503    1399.8656  0.025431757  0.024196067          211 
 4588000   0.50960017   -6.0748748    1400.4492  0.025436813  0.024188976          186 
 4589000   0.53185577   -6.0631184    1400.6311  0.025434574  0.024181891          220 
 4590000    0.5241916   -6.0677966    1400.0204  0.025417945  0.024174809          212 
 4591000   0.52706943    -6.059318    1399.9507  0.025411142  0.024167726          250 
 4592000   0.51472369    -6.066755    1397.8886  0.025368188   0.02416064          228 
 4593000    0.5166456    -6.089408    1398.6912  0.025377225  0.024153554          145 
 4594000   0.51640237    -6.080051    1401.5512  0.025423582  0.024146478          158 
 4595000   0.51703601   -6.0654646    1401.1419  0.025410626  0.024139415          150 
 4596000   0.51427104   -6.0827245    1399.6679   0.02537837  0.024132351          228 
 4597000   0.52178399   -6.0891872    1398.2548  0.025347233  0.024125289          184 
 4598000   0.51889476    -6.068055     1402.082  0.025411084  0.024118233          140 
 4599000    0.5083949   -6.0639912     1400.816  0.025382619  0.024111169          240 
 4600000   0.51287847   -6.0661171    1398.4564  0.025334354  0.024104119          167 
 4601000   0.51360624   -6.0932296    1400.9997  0.025374913  0.024097055          172 
 4602000   0.51984962   -6.0883589    1400.3929  0.025358411      0.02409          158 
 4603000   0.51409338   -6.0783794    1402.0456  0.025382822  0.024082957          101 
 4604000   0.51593355   -6.0765525     1401.714  0.025371307  0.024075914          121 
 4605000   0.52123152    -6.059597    1400.8463  0.025350097  0.024068891          113 
 4606000   0.52169586   -6.0610263    1400.0393  0.025329992  0.024061875          100 
 4607000   0.51325676   -6.0802505    1399.6492  0.025317438  0.024054845          165 
 4608000   0.51462049   -6.0491757    1404.3627  0.025397185  0.024047834           91 
 4609000   0.51190453     -6.04897    1400.9753  0.025330428  0.024040825          116 
 4610000   0.51937893    -6.078019    1400.3555   0.02531373  0.024033821          121 
 4611000   0.52535299    -6.075038    1400.6845  0.025314185  0.024026801           57 
 4612000   0.52273802   -6.0665348    1400.7725  0.025310286  0.024019793          144 
 4613000   0.52266591   -6.0470018    1399.4169   0.02528031  0.024012782          160 
 4614000   0.51678755   -6.0682786    1401.6021  0.025314299  0.024005772          140 
 4615000    0.5190632   -6.0666284    1401.6221  0.025309175  0.023998775          104 
 4616000   0.51274844   -6.0615821     1400.494  0.025283326  0.023991772          133 
 4617000   0.51738838   -6.0653633    1402.0722  0.025306335  0.023984764           89 
 4618000   0.52275307   -6.0726875    1404.4751  0.025344217   0.02397776          134 
 4619000    0.5077968   -6.0782893    1401.0321  0.025276614  0.023970755          107 
 4620000   0.52433581   -6.0740241     1400.264  0.025257287  0.023963767          122 
 4621000   0.51523463   -6.0967275    1397.7895  0.025207198  0.023956779           89 
 4622000   0.51758419   -6.0967283    1402.7543  0.025291257  0.023949781          139 
 4623000   0.51692176   -6.0826222    1402.0453  0.025273007  0.023942793          141 
 4624000   0.52074629    -6.058711    1400.8513  0.025246022  0.023935806          153 
 4625000   0.50067502   -6.0740549    1399.1415  0.025209758  0.023928816          125 
 4626000   0.52205569   -6.0963123    1400.4255  0.025227437  0.023921809          228 
 4627000   0.50940053   -6.0805115    1402.4564  0.025258563  0.023914827          153 
 4628000   0.51848345   -6.0812876    1400.9086  0.025225234  0.023907831          113 
 4629000   0.50427316   -6.0911215    1398.2549  0.025172012  0.023900826          167 
 4630000   0.51155495   -6.0898976    1401.1503  0.025218688  0.023893833          120 
 4631000   0.50643864   -6.0831054    1399.7554  0.025188141  0.023886847           94 
 4632000    0.5047717   -6.0965144    1401.2847  0.025210217  0.023879838          149 
 4633000     0.499265   -6.0973179    1400.4912  0.025190503   0.02387283          175 
 4634000   0.52692251   -6.0979297     1400.853  0.025191573   0.02386585          164 
 4635000   0.51242649   -6.1017826    1400.4048  0.025178079  0.023858854          150 
 4636000   0.50810811   -6.1064171    1397.3227  0.025117248  0.023851855          200 
 4637000   0.50255362   -6.1040902    1398.2709  0.025128871  0.023844843          156 
 4638000    0.5017342   -6.1103564    1398.6361  0.025130015  0.023837841          200 
 4639000   0.51144209   -6.0888752    1397.7099  0.025107959  0.023830838          208 
 4640000     0.511001    -6.091895    1397.2234  0.025093811  0.023823851          258 
 4641000   0.50791295   -6.0848496    1399.8112   0.02513487  0.023816862          164 
 4642000   0.51247136   -6.0810297    1397.6455  0.025090576   0.02380989          166 
 4643000   0.51070977   -6.0823889    1397.6898  0.025085969  0.023802908          181 
 4644000   0.51074074   -6.0962784    1399.6098  0.025115019  0.023795931          180 
 4645000    0.5162684   -6.0992619    1401.6126  0.025145543  0.023788976          162 
 4646000   0.52031782   -6.0900015    1396.4052  0.025046728  0.023782019          131 
 4647000   0.51075267   -6.0881307    1401.3324  0.025129697  0.023775051          107 
 4648000   0.51202704   -6.0892035    1399.5955   0.02509315  0.023768091          130 
 4649000   0.49080327   -6.1113009    1398.6951  0.025071612  0.023761127          161 
 4650000   0.50423992   -6.0919713    1396.6072  0.025028803  0.023754169          140 
 4651000   0.50813527   -6.0875388    1397.2997   0.02503583  0.023747232          152 
 4652000   0.50196814   -6.0920457    1398.2248  0.025047019  0.023740289          123 
 4653000   0.49851687   -6.0901285    1399.6803  0.025067704  0.023733349          263 
 4654000   0.50852103   -6.0755012    1398.7403  0.025045486    0.0237264          146 
 4655000   0.49845231   -6.0908616    1400.7768  0.025076563  0.023719452          117 
 4656000   0.50067943    -6.091147     1401.332  0.025081114  0.023712519          119 
 4657000   0.50715429   -6.0853922    1399.8506  0.025049219  0.023705606          150 
 4658000   0.51300905   -6.0928508    1398.8523  0.025025981  0.023698677          242 
 4659000   0.50531491   -6.0829618    1399.2467  0.025027665  0.023691749          176 
 4660000   0.50129883   -6.0760437    1398.6461  0.025011554  0.023684812          139 
 4661000   0.49510511   -6.0961309     1399.757  0.025026049  0.023677881          164 
 4662000   0.51173479   -6.1066138    1398.4174  0.024996735  0.023670945          239 
 4663000   0.51090176   -6.1111937    1397.9869  0.024983681  0.023663987          225 
 4664000   0.50142826   -6.1065704    1398.6721  0.024990568   0.02365703          256 
 4665000   0.49880972   -6.1291912    1397.9154  0.024971694  0.023650082          259 
 4666000   0.51879068   -6.1001169    1400.3233  0.025009346   0.02364314          210 
 4667000   0.50288861   -6.1098039    1398.0371  0.024963165  0.023636216          265 
 4668000   0.49906461   -6.1144912    1397.9819  0.024956832  0.023629279          213 
 4669000   0.51374047   -6.0973959    1398.1953  0.024955296  0.023622363          190 
 4670000    0.5164292    -6.111745    1398.8697  0.024961985  0.023615439          289 
 4671000   0.50172792   -6.1060344    1398.9646  0.024958335  0.023608515          205 
 4672000   0.50584229   -6.1164932    1397.9351  0.024934631  0.023601594          313 
 4673000   0.49548187    -6.104427    1396.5343  0.024904315  0.023594666          210 
 4674000    0.4954423    -6.119236     1396.392  0.024896448  0.023587732          347 
 4675000   0.50361888   -6.1183277    1396.7655   0.02489778  0.023580793          336 
 4676000   0.49686897   -6.1250996     1399.189  0.024935646  0.023573863          287 
 4677000   0.49443365   -6.1084589     1399.659  0.024938689  0.023566944          208 
 4678000   0.49888423    -6.118575    1398.9342  0.024920446  0.023560027          201 
 4679000   0.49974552   -6.1023831    1398.7156  0.024911228  0.023553126          286 
 4680000   0.51087153   -6.1006657    1396.6465  0.024869062  0.023546233          143 
 4681000   0.51138285   -6.1203998    1396.9098  0.024868436  0.023539328          257 
 4682000   0.50275952   -6.1186166    1398.8336  0.024897365  0.023532429          326 
 4683000   0.50039097   -6.1179885    1399.5077  0.024904044  0.023525528          182 
 4684000   0.49430443    -6.105146      1398.24  0.024876175  0.023518609          185 
 4685000   0.50950987   -6.1054703     1400.511  0.024911259  0.023511705          145 
 4686000   0.51680051   -6.1305753    1398.8571  0.024876532  0.023504805          284 
 4687000   0.49374695   -6.0958162    1395.1687  0.024805645  0.023497911          181 
 4688000    0.5085221   -6.0872643    1398.0949   0.02485237  0.023491021          199 
 4689000    0.4998986   -6.0905409    1398.0011  0.024845402  0.023484138          166 
 4690000    0.4999479    -6.111544    1396.8662  0.024819939  0.023477245          284 
 4691000   0.50864228   -6.1123708    1397.5338  0.024826509  0.023470353          314 
 4692000   0.50092455   -6.1159025    1395.4471  0.024784155   0.02346346          333 
 4693000   0.49308046   -6.1063851    1395.6008  0.024781603  0.023456572          371 
 4694000   0.49667072   -6.1164953    1396.5505  0.024793185  0.023449679          338 
 4695000   0.50250383   -6.1283111    1395.7532  0.024773752  0.023442787          250 
 4696000   0.50605026   -6.1294638    1398.3176  0.024813983  0.023435886          369 
 4697000   0.50363395   -6.1173036    1396.8927   0.02478342  0.023428994          371 
 4698000    0.5041055    -6.120172    1396.9626  0.024779385  0.023422104          281 
 4699000   0.49214466   -6.1263061    1398.8013   0.02480672  0.023415208          414 
 4700000   0.49362379    -6.123975    1397.1637  0.024772407  0.023408312          265 
 4701000   0.49929281   -6.1304665    1395.9052  0.024744827  0.023401432          437 
 4702000   0.49596484   -6.1373576    1395.9513  0.024740382   0.02339455          342 
 4703000   0.49965071   -6.1387873    1396.3083  0.024741447  0.023387675          327 
 4704000   0.49061922   -6.1250864     1398.009  0.024766316  0.023380795          339 
 4705000    0.4883173   -6.1159543    1399.0149  0.024778867  0.023373938          279 
 4706000   0.49151356   -6.1242654    1397.5768  0.024748138  0.023367064          377 
 4707000   0.50662737   -6.1251231     1399.103  0.024769899  0.023360202          349 
 4708000   0.48877404   -6.1210293    1396.2348   0.02471387  0.023353336          358 
 4709000   0.50026584    -6.121975    1397.3225   0.02472787  0.023346485          350 
 4710000   0.48692378   -6.1216735    1398.5644  0.024744593  0.023339647          318 
 4711000   0.49177691   -6.1106705    1398.9512  0.024746182  0.023332799          371 
 4712000   0.49516388   -6.1187574     1397.668  0.024718238  0.023325961          327 
 4713000    0.4940619   -6.1303938    1396.1626  0.024686374  0.023319131          314 
 4714000   0.49259342   -6.1288969     1395.997   0.02467821  0.023312281          470 
 4715000   0.49744749   -6.1204229    1396.8649  0.024688316  0.023305434          432 
 4716000   0.50293186   -6.1045798    1396.3849  0.024674599  0.023298584          419 
 4717000   0.50574482   -6.1093999    1396.9345  0.024679078  0.023291733          377 
 4718000   0.50196865     -6.14195    1396.3918  0.024664262  0.023284876          383 
 4719000   0.49809155   -6.1304345    1397.8422  0.024684648  0.023278021          424 
 4720000   0.48821448   -6.1432466    1396.8124  0.024661235  0.023271163          441 
 4721000     0.506444   -6.1152291    1397.5378  0.024668817   0.02326431          392 
 4722000   0.50994393   -6.1231382    1395.9285  0.024635192  0.023257464          396 
 4723000   0.49369057   -6.1193649    1395.9939  0.024631129  0.023250612          453 
 4724000   0.50077951   -6.1264753    1395.5626  0.024618307   0.02324377          458 
 4725000   0.51038621   -6.1367925    1394.4449  0.024593384  0.023236931          392 
 4726000   0.49354637   -6.1292335    1395.6495  0.024609421  0.023230092          451 
 4727000   0.49189069   -6.1312453    1396.9317  0.024626819  0.023223263          391 
 4728000   0.49111363   -6.1228171    1396.4377  0.024612903  0.023216433          465 
 4729000   0.49624307   -6.1322671    1396.3064  0.024605385  0.023209617          472 
 4730000   0.49419981   -6.1285904    1398.6778  0.024641963  0.023202787          496 
 4731000   0.49938544   -6.1394642     1392.479  0.024527566  0.023195943          561 
 4732000   0.50230948   -6.1266909     1395.867  0.024582048    0.0231891          483 
 4733000   0.49217563   -6.1323954    1397.5799  0.024607012  0.023182265          512 
 4734000   0.49537601   -6.1290124     1395.589  0.024566768   0.02317542          541 
 4735000   0.49416947   -6.1477794    1395.4902  0.024559842  0.023168576          557 
 4736000   0.49202527   -6.1527243    1397.5439  0.024590792  0.023161728          517 
 4737000   0.51092399   -6.1415198    1397.4139  0.024583314  0.023154888          544 
 4738000   0.50255294   -6.1545386    1395.9512  0.024552399  0.023148053          470 
 4739000   0.49684544   -6.1308297    1398.4176  0.024590588   0.02314121          588 
 4740000   0.49379423   -6.1610705    1393.7375  0.024503121  0.023134369          634 
 4741000   0.49571694   -6.1400661    1395.8777  0.024535571  0.023127521          565 
 4742000   0.50065194   -6.1534191    1393.3749  0.024486414  0.023120684          526 
 4743000    0.5000049   -6.1203898    1397.0804  0.024546356  0.023113855          495 
 4744000   0.49281714   -6.1269853    1395.5602  0.024514478  0.023107033          586 
 4745000   0.49991762   -6.1546595    1396.9325  0.024533413  0.023100214          554 
 4746000   0.48579425   -6.1543138    1396.0121  0.024512081  0.023093407          533 
 4747000   0.49064919    -6.140164    1397.8527   0.02453923  0.023086601          634 
 4748000     0.495599   -6.1456652    1399.5286  0.024563475  0.023079804          534 
 4749000   0.49160689   -6.1622158    1396.7636  0.024509784  0.023073008          598 
 4750000    0.4887202   -6.1376685    1397.4968  0.024517488  0.023066195          554 
 4751000   0.50316249   -6.1423719    1397.3706  0.024510113  0.023059388          510 
 4752000   0.49608504   -6.1186956    1394.0315    0.0244464    0.0230526          554 
 4753000   0.49247069   -6.1418842    1396.3769  0.024482377  0.023045815          558 
 4754000   0.48867342   -6.1521602    1397.2787  0.024493035  0.023039031          619 
 4755000   0.47936757   -6.1555418    1395.9349  0.024464335  0.023032243          542 
 4756000    0.4828114    -6.142996    1393.0999  0.024409516   0.02302545          619 
 4757000    0.5048048   -6.1350286    1393.0495  0.024403502  0.023018669          670 
 4758000   0.49156472   -6.1593419    1394.0189  0.024415352  0.023011886          611 
 4759000   0.48577816   -6.1264788    1396.7041  0.024457241  0.023005104          679 
 4760000   0.49965878   -6.1398794    1393.0338  0.024387846  0.022998312          588 
 4761000   0.48948804   -6.1329487    1394.4062  0.024406746  0.022991539          639 
 4762000   0.48141729   -6.1405725     1393.565  0.024386901  0.022984753          715 
 4763000   0.47628676    -6.131616    1395.5244  0.024416061  0.022977984          567 
 4764000    0.4989703   -6.1410309    1397.6287  0.024447746  0.022971226          754 
 4765000   0.48599474   -6.1361996    1395.1343  0.024398991  0.022964453          627 
 4766000   0.48684724   -6.1373755    1399.7957  0.024475376  0.022957687          558 
 4767000   0.49415423   -6.1291019    1396.1869  0.024407154  0.022950919          566 
 4768000   0.49808895   -6.1498486    1397.1899  0.024419567  0.022944151          621 
 4769000    0.4777275    -6.150871    1393.6919  0.024353321  0.022937379          660 
 4770000   0.48721083   -6.1401975    1397.1917  0.024409359  0.022930619          568 
 4771000   0.48385229   -6.1484647    1397.3428  0.024406882  0.022923864          642 
 4772000   0.49190931     -6.15112    1396.7075  0.024390673  0.022917096          711 
 4773000    0.4878283   -6.1640417    1395.2199   0.02435959  0.022910328          631 
 4774000   0.47866538    -6.163609    1394.7256  0.024345859  0.022903562          724 
 4775000    0.4859695   -6.1529871    1395.9875  0.024362784  0.022896803          646 
 4776000   0.49992264   -6.1514373    1394.8485  0.024337809  0.022890034          679 
 4777000   0.48054434   -6.1472664    1397.2248  0.024374168  0.022883272          625 
 4778000   0.49473738   -6.1479965     1397.645  0.024376394  0.022876514          575 
 4779000   0.47711729   -6.1590569    1394.6899  0.024319764   0.02286976          677 
 4780000   0.49676061   -6.1510823    1394.2281  0.024306626     0.022863          603 
 4781000   0.47496652   -6.1643881    1395.2386  0.024319155  0.022856251          600 
 4782000   0.48928021   -6.1679612    1394.7288  0.024305186  0.022849495          554 
 4783000   0.49659768   -6.1624038    1394.5474  0.024296943  0.022842736          578 
 4784000   0.48405766   -6.1610728    1392.7077   0.02425982  0.022835976          685 
 4785000   0.48662438   -6.1447797    1393.5464  0.024269355   0.02282923          756 
 4786000   0.48435968   -6.1488546    1394.4685  0.024280339  0.022822479          757 
 4787000   0.48823355   -6.1600545    1392.6694  0.024243948  0.022815719          719 
 4788000   0.47974131   -6.1759017    1392.4543  0.024235142  0.022808962          724 
 4789000   0.48028646    -6.155571    1393.4654  0.024247675  0.022802213          728 
 4790000   0.49270021   -6.1787802    1391.9916  0.024216973  0.022795459          724 
 4791000   0.49258903   -6.1632768    1393.8395  0.024244061  0.022788699          656 
 4792000   0.48936425   -6.1528881    1393.8097  0.024238482  0.022781942          609 
 4793000   0.48818789   -6.1518788    1393.2718  0.024224072  0.022775188          666 
 4794000   0.48234889   -6.1577216     1392.757  0.024210071  0.022768439          695 
 4795000   0.48604737   -6.1532361    1394.9623  0.024243349  0.022761695          697 
 4796000   0.48618262   -6.1530581     1392.571  0.024196744  0.022754953          672 
 4797000   0.47782466   -6.1767248    1393.9695  0.024215994  0.022748215          768 
 4798000   0.48868545   -6.1744752      1394.97  0.024228325  0.022741482          639 
 4799000   0.47659148   -6.1680055    1392.7124  0.024184073  0.022734745          738 
 4800000   0.47985124   -6.1757158     1392.195  0.024170052  0.022728004          710 
 4801000   0.47999016   -6.1739246    1391.5378   0.02415361   0.02272127          634 
 4802000   0.48361657   -6.1617399    1391.8829  0.024154569  0.022714538          593 
 4803000   0.49480517   -6.1742647    1391.8299   0.02414862  0.022707816          623 
 4804000   0.47680385   -6.1647109    1392.3412  0.024152463  0.022701076          723 
 4805000   0.47850374   -6.1662104    1393.8916  0.024174325  0.022694354          742 
 4806000   0.48873906   -6.1655781    1396.0054  0.024205948  0.022687631          825 
 4807000   0.47296696   -6.1700718    1393.3989  0.024155727  0.022680899          824 
 4808000   0.47268167   -6.1650453     1391.723  0.024121654  0.022674183          652 
 4809000   0.47900236   -6.1658355    1392.6447  0.024132612  0.022667458          684 
 4810000   0.48366757   -6.1728296    1393.4061  0.024140785  0.022660737          731 
 4811000   0.48197535   -6.1669218    1391.6816  0.024105896  0.022654028          723 
 4812000   0.48527629   -6.1707939    1388.9722  0.024053965  0.022647311          764 
 4813000   0.48091391   -6.1636246      1391.78  0.024097583  0.022640595          725 
 4814000   0.47465957   -6.1766295     1390.044  0.024062526   0.02263388          766 
 4815000   0.48001853   -6.1558052     1392.402  0.024098339  0.022627158          834 
 4816000   0.49138467   -6.1919278    1390.5676  0.024061593  0.022620438          837 
 4817000   0.49007725   -6.1763284    1392.5065   0.02409014  0.022613727          708 
 4818000   0.49406695   -6.1750517    1391.2553  0.024063499  0.022607014          742 
 4819000   0.48495631    -6.182871    1391.7677  0.024067366  0.022600292          733 
 4820000    0.4773636   -6.1670212    1391.6888   0.02406101  0.022593574          822 
 4821000   0.47234111   -6.1716448    1392.8175  0.024075529  0.022586872          836 
 4822000   0.47591609   -6.1696287     1393.162   0.02407649  0.022580165          821 
 4823000   0.47977564   -6.1844758    1393.3822  0.024075302  0.022573461          835 
 4824000   0.47829288   -6.1640307    1394.0503  0.024081854  0.022566769          789 
 4825000   0.47555514   -6.1829033    1390.8084   0.02402087  0.022560071          867 
 4826000   0.48153131   -6.1862953    1393.8325  0.024068113  0.022553372          836 
 4827000   0.47416576   -6.1855874    1392.2704  0.024036157  0.022546672          847 
 4828000   0.46874375     -6.16678    1393.5383  0.024053064  0.022539975          830 
 4829000   0.47912373   -6.1942889    1392.7843  0.024035071  0.022533284          779 
 4830000   0.47596839   -6.1697819    1391.9923  0.024016431  0.022526607          828 
 4831000    0.4720171   -6.1798216    1394.2947  0.024051174  0.022519921          840 
 4832000   0.48754465   -6.1749016    1392.8024  0.024020461  0.022513252          820 
 4833000   0.48477357   -6.1737213    1390.4532  0.023974985  0.022506572          803 
 4834000   0.48183402   -6.1775019    1391.3751  0.023985918  0.022499885          866 
 4835000   0.47947744   -6.1765424     1390.298  0.023962392  0.022493212          833 
 4836000   0.47699035   -6.1829281    1391.5891  0.023979686  0.022486547          753 
 4837000   0.46513947   -6.1695576    1392.4113  0.023988893  0.022479883          781 
 4838000   0.47945538   -6.1865434    1391.7937  0.023973297  0.022473228          674 
 4839000   0.48169073   -6.1865903    1393.4058  0.023996105  0.022466564          776 
 4840000   0.47143276    -6.177786    1390.8942  0.023947904  0.022459907          788 
 4841000   0.46256391   -6.1867531    1391.5782   0.02395473   0.02245324          757 
 4842000   0.47378031    -6.172849    1393.1186  0.023976294  0.022446583          808 
 4843000   0.47580083   -6.1934266     1391.811  0.023948843   0.02243992          755 
 4844000   0.48137317   -6.1898371    1393.6705  0.023975889  0.022433259          807 
 4845000   0.48107054   -6.1916079     1390.593  0.023918008  0.022426597          785 
 4846000   0.47737939   -6.1923397    1389.9941  0.023902774  0.022419945          815 
 4847000    0.4705551   -6.1825766    1392.4639  0.023940305  0.022413296          799 
 4848000   0.48336785   -6.1859661    1391.9103  0.023925852  0.022406641          819 
 4849000   0.47387574   -6.1879209     1391.905  0.023920826  0.022399993          874 
 4850000    0.4851195   -6.1811689    1392.5777  0.023927453  0.022393344          907 
 4851000   0.48620848   -6.1698871    1393.4386  0.023937308   0.02238671          881 
 4852000   0.47011988   -6.1758946     1389.976  0.023872905  0.022380074          838 
 4853000   0.48085397   -6.1918579    1391.2909  0.023890565  0.022373436          844 
 4854000   0.48503987    -6.185238    1389.9469  0.023862568  0.022366792          763 
 4855000   0.48770161   -6.1881711    1390.1376  0.023860926   0.02236015          824 
 4856000   0.47208219   -6.1931714    1390.9455  0.023869878  0.022353519          817 
 4857000    0.4701459   -6.2048617    1389.1389  0.023833967  0.022346878          893 
 4858000   0.47943977   -6.1964449    1392.3678  0.023884448   0.02234024          848 
 4859000   0.47606854   -6.1899396    1392.4813  0.023881479  0.022333602          913 
 4860000   0.46544854   -6.1867394    1391.6696  0.023862647  0.022326966          899 
 4861000   0.47252684   -6.2040402    1389.2483  0.023816229  0.022320322          879 
 4862000   0.47188208   -6.1967915    1391.2869  0.023846272  0.022313693          849 
 4863000   0.46593282   -6.2049282    1387.8279  0.023782094  0.022307056          917 
 4864000   0.47496117   -6.2055887    1391.6115  0.023842029  0.022300422          893 
 4865000   0.47298731   -6.1907244    1390.1618  0.023812295  0.022293798          931 
 4866000   0.46670245   -6.1895782    1388.7431  0.023783106  0.022287178          905 
 4867000   0.47303865   -6.2079599     1392.806  0.023847785  0.022280572         1099 
 4868000   0.46966915   -6.1913682    1390.8536  0.023809464  0.022273953          971 
 4869000   0.47417014   -6.1936622    1390.4808  0.023798192  0.022267344         1039 
 4870000   0.46971848   -6.1885263    1389.8801  0.023783028  0.022260728          912 
 4871000   0.48149979   -6.1830111     1391.658  0.023808561  0.022254114          952 
 4872000   0.47601905   -6.1721591    1391.0949  0.023794042  0.022247518          959 
 4873000   0.47659079   -6.1928237    1392.5973  0.023814852  0.022240923          997 
 4874000   0.47034869   -6.1873514    1391.4642  0.023790593  0.022234331         1018 
 4875000   0.47026764   -6.1840141    1388.8967  0.023741823  0.022227735          906 
 4876000   0.46651658   -6.2051338    1390.2804  0.023760603  0.022221129          964 
 4877000   0.46918269   -6.1981613    1390.2508  0.023755225  0.022214536          958 
 4878000   0.47320948   -6.1982986    1387.3534  0.023700857  0.022207932         1079 
 4879000   0.47544504   -6.1916019    1388.6274   0.02371776  0.022201333         1022 
 4880000   0.47935551   -6.1896017    1391.5085  0.023762098  0.022194739         1025 
 4881000   0.47678081   -6.1968976    1390.2359  0.023735503  0.022188142          980 
 4882000   0.46918827   -6.1874533    1390.7643  0.023739661   0.02218155          941 
 4883000   0.46221921   -6.1993409    1389.3928  0.023711394  0.022174958         1014 
 4884000   0.46389093    -6.195054    1390.4556  0.023724672  0.022168363          981 
 4885000   0.46086361   -6.2070118    1390.4493  0.023719708  0.022161782          897 
 4886000   0.47450958   -6.2073846    1389.3306  0.023695774  0.022155202          972 
 4887000   0.47697845   -6.1971058    1388.6694   0.02367965  0.022148627          964 
 4888000   0.46856566   -6.1912021    1390.4519  0.023705195  0.022142044          946 
 4889000   0.46896885   -6.1849231    1390.3615  0.023698806   0.02213547         1034 
 4890000   0.48196663   -6.2090236    1390.0832  0.023689217  0.022128889          909 
 4891000   0.47159841   -6.1933485    1390.5846  0.023692916  0.022122317         1045 
 4892000   0.45799653   -6.2009253    1390.2611  0.023682561  0.022115749          906 
 4893000   0.46745622   -6.1796033    1389.2554  0.023660593  0.022109177          910 
 4894000   0.46005795   -6.2046542    1388.7732  0.023647548  0.022102618         1099 
 4895000   0.47436576   -6.1871551    1387.8123  0.023626358  0.022096047         1038 
 4896000    0.4693012   -6.2092622    1387.5236   0.02361662  0.022089476         1050 
 4897000   0.46930507   -6.1908715    1388.4528  0.023627608  0.022082898          999 
 4898000   0.45999086   -6.1972048    1389.5517  0.023641481  0.022076329         1003 
 4899000   0.46361366   -6.1845359    1388.5329  0.023619325  0.022069765         1030 
 4900000    0.4712972   -6.2012214    1388.7718  0.023618569  0.022063203         1040 
 4901000   0.48679698   -6.1897972    1390.9396  0.023650608  0.022056647         1057 
 4902000   0.47586902   -6.2004262    1389.7648  0.023625812  0.022050108         1071 
 4903000   0.46642273   -6.2050815    1389.1982  0.023611364  0.022043549         1120 
 4904000   0.45782946   -6.2016679    1389.5302   0.02361219     0.022037         1050 
 4905000   0.47323394   -6.2001327    1389.3833  0.023604881   0.02203045          984 
 4906000   0.46442291   -6.2203756    1389.9408  0.023609539  0.022023898         1042 
 4907000   0.45945536   -6.2024938    1389.3377  0.023594485  0.022017349         1096 
 4908000   0.47055009   -6.2092212    1390.7356  0.023613413  0.022010811          958 
 4909000   0.46247715   -6.2095621    1390.5861  0.023606065  0.022004262         1043 
 4910000   0.46734742   -6.2096564    1389.8486  0.023588741  0.021997711         1028 
 4911000   0.46224542   -6.2035467    1390.2555  0.023590843  0.021991168         1125 
 4912000     0.475108   -6.2129515    1390.2416  0.023585803  0.021984613         1076 
 4913000   0.46197578   -6.2261535    1390.0899  0.023578429  0.021978063         1131 
 4914000   0.45877269   -6.2108512    1390.6725  0.023583511  0.021971511         1121 
 4915000   0.46395785   -6.2084349    1388.7612  0.023546308  0.021964965         1182 
 4916000   0.46305034   -6.2052523    1389.2636  0.023550034  0.021958421         1141 
 4917000   0.47754362   -6.2074099    1391.7891  0.023588046  0.021951888         1103 
 4918000    0.4682067   -6.2165062    1386.1352  0.023487448  0.021945358         1183 
 4919000   0.47192074   -6.2124717     1387.315  0.023502661  0.021938827         1202 
 4920000   0.46909531   -6.2207887    1387.4933  0.023500904  0.021932296         1155 
 4921000   0.46395478   -6.2004902    1388.2077  0.023508224  0.021925776         1133 
 4922000   0.47284946   -6.2235827    1388.6796  0.023511439  0.021919269         1094 
 4923000   0.46056406   -6.2118174    1390.7593  0.023541866  0.021912754         1098 
 4924000   0.46046988    -6.223034    1389.2453  0.023511462  0.021906232         1085 
 4925000   0.46082571   -6.2061115    1386.1449  0.023454228   0.02189973         1117 
 4926000   0.46955225   -6.2127703     1389.275   0.02350242  0.021893218         1143 
 4927000   0.45819379   -6.2156373    1387.3929  0.023465816  0.021886712         1251 
 4928000   0.46259051   -6.2127828    1389.9684  0.023504606  0.021880207         1154 
 4929000   0.44731566    -6.198238    1389.8748  0.023498255  0.021873697         1100 
 4930000   0.46203337   -6.2055559    1390.4962  0.023503992  0.021867187         1105 
 4931000   0.46117642   -6.1997949     1389.309  0.023479162  0.021860681         1087 
 4932000   0.44842674   -6.2258977    1387.6478  0.023446333   0.02185417         1129 
 4933000   0.46532982   -6.2294928    1389.1242  0.023466521  0.021847675         1164 
 4934000   0.46468414   -6.2149624    1387.8438  0.023440139  0.021841175         1130 
 4935000   0.46000989   -6.2134831    1391.1864  0.023491833  0.021834679         1144 
 4936000   0.46432952   -6.2014537    1389.7876  0.023463459  0.021828184         1118 
 4937000   0.45830791   -6.2242072     1388.364  0.023434677  0.021821689         1124 
 4938000   0.45373123   -6.2197317    1387.6487  0.023417859  0.021815195         1127 
 4939000     0.463561   -6.2118195    1387.4702  0.023410106  0.021808709         1126 
 4940000   0.44836277   -6.2150412    1388.9091   0.02342964  0.021802213         1129 
 4941000   0.45833271   -6.2187904    1385.6449  0.023369845  0.021795716         1091 
 4942000   0.46045263   -6.2323753    1384.8543  0.023351785  0.021789215         1115 
 4943000   0.45066337   -6.2172102    1387.4571  0.023390941  0.021782723         1098 
 4944000   0.45947691   -6.2317564    1388.2509  0.023399591  0.021776241         1184 
 4945000   0.46314939   -6.2326185     1390.806  0.023437916  0.021769762         1179 
 4946000   0.46052966   -6.2210084    1385.3179  0.023340711  0.021763289         1202 
 4947000   0.45903415   -6.2305681    1388.1174  0.023383151  0.021756814         1208 
 4948000   0.45773949   -6.2148735     1389.039  0.023393947  0.021750347         1185 
 4949000    0.4665821    -6.223518    1388.4206  0.023378808  0.021743874         1145 
 4950000   0.47154893   -6.2251734    1385.8648  0.023331058  0.021737402         1143 
 4951000   0.45311527   -6.2001534    1387.3299  0.023351005  0.021730943         1243 
 4952000   0.46708484   -6.2259318    1385.7817  0.023320236  0.021724482         1164 
 4953000   0.45617748   -6.2345658    1386.7647  0.023332067  0.021718017         1250 
 4954000   0.45443339   -6.2303893    1388.1683  0.023350967  0.021711549         1239 
 4955000   0.45592322   -6.2331284    1386.8996  0.023324917  0.021705085         1259 
 4956000   0.46101931   -6.2296534    1391.6154  0.023399505   0.02169862         1160 
 4957000   0.45939329   -6.2520571    1387.7866  0.023330419  0.021692148         1216 
 4958000   0.46176132   -6.2354288    1385.1047  0.023280635  0.021685674         1205 
 4959000   0.46472962   -6.2373506    1387.0587  0.023308776  0.021679201         1161 
 4960000   0.46237745   -6.2466971    1385.1372  0.023271795   0.02167273         1188 
 4961000   0.45546461   -6.2371622    1384.4898  0.023256228  0.021666258         1193 
 4962000   0.46386616    -6.235691     1385.029  0.023260598  0.021659794         1177 
 4963000   0.46801347    -6.241153    1386.7481  0.023284776  0.021653332         1136 
 4964000   0.44882006   -6.2318776    1388.1868  0.023304237  0.021646882         1215 
 4965000   0.45539571   -6.2232599    1387.0426  0.023280339  0.021640427         1177 
 4966000   0.46149963   -6.2531174    1384.4498  0.023232142  0.021633977         1166 
 4967000   0.47260844   -6.2186677    1387.4122  0.023277167  0.021627524         1242 
 4968000   0.45811283   -6.2371604     1385.073  0.023233243  0.021621081         1193 
 4969000   0.46183615   -6.2287539    1385.9355  0.023243031  0.021614632         1161 
 4970000    0.4686647   -6.2310049    1386.4146  0.023246388  0.021608193         1209 
 4971000   0.46129859   -6.2455574     1385.406  0.023224803   0.02160174         1231 
 4972000   0.45996137   -6.2607401    1385.9983   0.02323006  0.021595294         1241 
 4973000   0.46189881   -6.2296217    1389.8887  0.023290581  0.021588859         1252 
 4974000   0.45313436   -6.2288216    1386.5369  0.023229744  0.021582426         1302 
 4975000   0.45518017   -6.2303208    1385.4753  0.023207291  0.021575988         1210 
 4976000   0.46165164   -6.2401753    1386.3533  0.023217332  0.021569557         1263 
 4977000   0.45637081   -6.2607836    1386.2922  0.023211644  0.021563127         1229 
 4978000   0.45345057   -6.2443399     1386.542  0.023211163  0.021556704         1213 
 4979000   0.45627318   -6.2461813    1387.2397  0.023218178  0.021550276         1269 
 4980000   0.45045225   -6.2350216    1387.7445  0.023221964  0.021543841         1199 
 4981000     0.458934   -6.2436793     1387.839  0.023218882  0.021537403         1216 
 4982000   0.45229711   -6.2380752    1388.5923  0.023226821  0.021530978         1230 
 4983000   0.46237278   -6.2532864    1387.1074  0.023197328  0.021524551         1207 
 4984000   0.45894335   -6.2398565    1384.0658  0.023141818  0.021518123         1262 
 4985000   0.46251125   -6.2413447    1384.4959  0.023144364   0.02151169         1200 
 4986000   0.45431796   -6.2475157    1386.9649  0.023180988  0.021505271         1298 
 4987000   0.45868897   -6.2379351     1385.419  0.023150508  0.021498857         1233 
 4988000   0.45485955   -6.2470431    1384.1512  0.023124686  0.021492443         1229 
 4989000   0.44137114   -6.2508833    1384.3742  0.023123775  0.021486027         1279 
 4990000   0.45309683   -6.2581199    1385.1562  0.023132202  0.021479621         1286 
 4991000   0.44640012   -6.2497019    1384.5234     0.023117  0.021473211         1254 
 4992000   0.46405321   -6.2471213    1384.5384   0.02311262  0.021466795         1286 
 4993000   0.45631205   -6.2426325     1386.609   0.02314255  0.021460386         1256 
 4994000   0.44671232   -6.2493747    1384.6663  0.023105499   0.02145398         1287 
 4995000   0.45606476   -6.2513602      1384.66  0.023100767  0.021447573         1324 
 4996000    0.4463608   -6.2525015    1387.1946   0.02313842  0.021441169         1266 
 4997000   0.45068122   -6.2456184    1384.6843  0.023091927  0.021434771         1294 
 4998000   0.44546569   -6.2489477    1383.6034  0.023069284   0.02142837         1222 
 4999000   0.45425494   -6.2445115    1386.6033  0.023114678  0.021421977         1212 
 5000000   0.44805211   -6.2448187    1387.3586  0.023122643  0.021415578         1227 
 5001000   0.45219876    -6.242515    1385.8559  0.023092979  0.021409178         1226 
 5002000   0.45260005   -6.2585394    1383.2649  0.023045197  0.021402789         1243 
 5003000   0.45595603   -6.2420183    1384.4469  0.023060279  0.021396389         1266 
 5004000   0.44991305   -6.2450624    1387.1394  0.023100509  0.021389993         1203 
 5005000   0.45155782    -6.248533    1385.0449   0.02306102  0.021383601         1288 
 5006000   0.45124331   -6.2436809    1388.2508  0.023109782  0.021377211         1215 
 5007000   0.44884331   -6.2503813     1384.837   0.02304835   0.02137083         1294 
 5008000   0.44542037   -6.2425059    1385.0086  0.023046602   0.02136445         1188 
 5009000   0.44799531   -6.2396615    1387.6393  0.023085768  0.021358077         1280 
 5010000   0.45041095   -6.2385347    1384.1741  0.023023521  0.021351707         1247 
 5011000   0.45593694   -6.2490363     1383.803  0.023012756  0.021345334         1250 
 5012000   0.44437966   -6.2437523    1383.2237  0.022998531  0.021338961         1218 
Loop time of 12770.7 on 48 procs for 5000000 steps with 4000 atoms

Performance: 67654.709 tau/day, 391.520 timesteps/s
99.4% CPU use with 48 MPI tasks x no OpenMP threads

MPI task timing breakdown:
Section |  min time  |  avg time  |  max time  |%varavg| %total
---------------------------------------------------------------
Pair    | 918.86     | 973.42     | 1018.7     |  85.2 |  7.62
Neigh   | 86.973     | 89.999     | 93.19      |  18.7 |  0.70
Comm    | 830.11     | 881.33     | 943.02     | 105.5 |  6.90
Output  | 20.304     | 20.309     | 20.418     |   0.4 |  0.16
Modify  | 10653      | 10686      | 10713      |  12.2 | 83.67
Other   |            | 120.1      |            |       |  0.94

Nlocal:        83.3333 ave          91 max          77 min
Histogram: 2 2 9 6 10 8 3 6 0 2
Nghost:        2372.08 ave        2388 max        2355 min
Histogram: 4 1 6 5 7 4 10 5 2 4
Neighs:        16252.2 ave       18420 max       14329 min
Histogram: 5 3 6 5 9 4 5 5 3 3
FullNghs:      32504.6 ave       35620 max       30054 min
Histogram: 2 3 6 12 9 4 6 4 0 2

Total # of neighbors = 1560220
Ave neighs/atom = 390.05500
Neighbor list builds = 268786
Dangerous builds = 0

#clear
#
#next RN
#
#jump SELF
Total wall time: 3:32:59
