
units lj                  # Use reduced LJ style units
atom_style atomic         # Uncharged point particles
atom_modify map hash      # Needed for indexing of clusters etc
                          # Used to be able to find where atoms are in relation to each other.

lattice fcc 1.0 spacing 1 1 1
Lattice spacing in x,y,z = 1.5874011 1.5874011 1.5874011
region box block 0 10 0 10 0 10 units lattice
create_box 2 box
Created orthogonal box = (0.0000000 0.0000000 0.0000000) to (15.874011 15.874011 15.874011)
  3 by 4 by 4 MPI processor grid
create_atoms 1 box
Created 4000 atoms
  using lattice units in orthogonal box = (0.0000000 0.0000000 0.0000000) to (15.874011 15.874011 15.874011)
  create_atoms CPU = 0.002 seconds
set type 1 type/fraction 2 0.94 78393
Setting atom values ...
  3760 settings made for type/fraction
mass 1 1.0
mass 2 1.0
pair_style lj/cut  3.5
pair_modify tail  yes
pair_coeff 1  1  1.0  1.0   # Intearaction between 1 and 1 set with epsilon = 1 and sigma = 1
pair_coeff 1  2  1.5  0.8
pair_coeff 2  2  0.5  0.88

write_data data.0
System init for write_data ...
Neighbor list info ...
  update every 1 steps, delay 10 steps, check yes
  max neighbors/atom: 2000, page size: 100000
  master list distance cutoff = 3.8
  ghost atom cutoff = 3.8
  binsize = 1.9, bins = 9 9 9
  1 neighbor lists, perpetual/occasional/extra = 1 0 0
  (1) pair lj/cut, perpetual
      attributes: half, newton on
      pair build: half/bin/atomonly/newton
      stencil: half/bin/3d
      bin: standard
WARNING: Not all mixed pair coeffs generated from mixing. Use write_data with 'pair ij' option to store all pair coeffs. (../write_data.cpp:312)


#############################
#   M E L T   S Y S T E M   #
#############################

velocity all create 2.4 9622624 mom yes dist gaussian # Assign velocities
                                                    # Temperature 2.4, random number seed, zero linear momentum
                                                                                # Gaussian distribution

timestep 0.002   # simulation timestep
thermo 1000       # output thermodynamic data every 1000 steps bf 100

# Define a fix  in this case with index 1 applied to all
# particles in the simulation. This fix is for simulations
# in the anisotropic NPT ensemble. Note that we use the MTK
# correction.
fix 1 all npt temp 2.4 2.4 0.1 iso 5.68 5.68 0.5 mtk yes tchain 5 pchain 5 # Use NPT ensemble
                                                                         # Set temperature and pressure and damping
                                                                         # Numbers of thermostats in chain and in barostat
run 10000          # run for 10000 steps
Per MPI rank memory allocation (min/avg/max) = 3.642 | 3.644 | 3.648 Mbytes
Step Temp E_pair E_mol TotEng Press Volume 
       0          2.4   -2.9877486            0    0.6113514   -2.2401145         4000 
    1000     2.425934   -1.8923674            0    1.7456238    5.9251719    4075.1523 
    2000    2.3813658    -1.870471            0    1.7006847    5.8075368    4105.9907 
    3000    2.4201277    -1.916743            0    1.7125411    5.6758464    4098.3315 
    4000    2.3680641   -1.9372544            0    1.6139538    5.3835634    4134.2757 
    5000    2.3557904   -1.9035907            0    1.6292116     5.896059    4053.1837 
    6000     2.362096   -1.8626433            0    1.6796148     5.636236     4138.452 
    7000    2.3915382   -1.8692376            0    1.7171728     5.739343     4125.144 
    8000     2.427246   -1.9086604            0    1.7312984    5.7670456    4093.0088 
    9000    2.3769987    -1.893114            0    1.6714927    5.6538195    4114.4324 
   10000    2.4025979   -1.8471941            0    1.7558018    6.0219106    4092.6196 
Loop time of 2.49645 on 48 procs for 10000 steps with 4000 atoms

Performance: 692182.305 tau/day, 4005.685 timesteps/s
99.6% CPU use with 48 MPI tasks x no OpenMP threads

MPI task timing breakdown:
Section |  min time  |  avg time  |  max time  |%varavg| %total
---------------------------------------------------------------
Pair    | 1.048      | 1.1303     | 1.2813     |   4.2 | 45.28
Neigh   | 0.20418    | 0.21414    | 0.2429     |   1.4 |  8.58
Comm    | 0.71418    | 0.86876    | 0.97546    |   5.5 | 34.80
Output  | 0.00024255 | 0.00024653 | 0.00031821 |   0.0 |  0.01
Modify  | 0.22318    | 0.2682     | 0.33257    |   5.1 | 10.74
Other   |            | 0.01482    |            |       |  0.59

Nlocal:        83.3333 ave          90 max          75 min
Histogram: 4 0 4 1 10 5 10 6 4 4
Nghost:        1614.50 ave        1645 max        1576 min
Histogram: 1 0 5 6 5 11 8 8 0 4
Neighs:        9316.54 ave       10311 max        7874 min
Histogram: 2 1 3 4 4 6 8 12 7 1

Total # of neighbors = 447194
Ave neighs/atom = 111.79850
Neighbor list builds = 911
Dangerous builds = 235

# Equilibrate just above the melting temperature to avoid step fn in T

fix 1 all npt temp 1.25 1.25 0.1 iso 5.68 5.68 0.5 mtk yes tchain 5 pchain 5
run 2000
Per MPI rank memory allocation (min/avg/max) = 3.643 | 3.645 | 3.649 Mbytes
Step Temp E_pair E_mol TotEng Press Volume 
   10000    2.4025979   -1.8471941            0    1.7558018    6.0219106    4092.6196 
   11000    1.2457894   -2.8669503            0  -0.99873332    5.4903387    3212.2298 
   12000    1.2555448   -2.8607263            0  -0.97787997    5.6429844    3209.3992 
Loop time of 0.591741 on 48 procs for 2000 steps with 4000 atoms

Performance: 584039.725 tau/day, 3379.860 timesteps/s
99.7% CPU use with 48 MPI tasks x no OpenMP threads

MPI task timing breakdown:
Section |  min time  |  avg time  |  max time  |%varavg| %total
---------------------------------------------------------------
Pair    | 0.26197    | 0.28349    | 0.32208    |   2.5 | 47.91
Neigh   | 0.037372   | 0.039828   | 0.044984   |   0.8 |  6.73
Comm    | 0.17747    | 0.2192     | 0.24487    |   3.1 | 37.04
Output  | 5.0147e-05 | 5.2068e-05 | 6.9308e-05 |   0.0 |  0.01
Modify  | 0.038959   | 0.044416   | 0.049765   |   1.6 |  7.51
Other   |            | 0.004758   |            |       |  0.80

Nlocal:        83.3333 ave          95 max          75 min
Histogram: 1 3 11 7 9 7 5 4 0 1
Nghost:        1904.06 ave        1930 max        1871 min
Histogram: 2 1 1 5 7 11 12 4 3 2
Neighs:        11897.6 ave       13526 max       10401 min
Histogram: 2 2 7 11 8 4 6 1 2 5

Total # of neighbors = 571083
Ave neighs/atom = 142.77075
Neighbor list builds = 140
Dangerous builds = 12

#############################
# L I N E A R  Q U E N C H  #
#############################

# Define solid atoms. This closely follows ten Wolde  Ruiz-Montero and Frenkel  Faraday Discuss  1996  104  93-110
# Compute components of the per-atom q6 vector
compute q6 all orientorder/atom degrees 1 6 components 6 nnn NULL cutoff 1.3 # compute the Q6 parameter.
                                                                             # Use all neighbours within 1.3 unit cell.

# get number of connections
compute coord_number all coord/atom orientorder q6 0.5

# An atom is solid if it has 8 or more connections (of a possible 14)
variable is_solid atom c_coord_number>=8
group solid dynamic all var is_solid    # Must be dynamic to update
dynamic group solid defined

# do clustering
compute cluster solid cluster/atom 1.3 # Create a cluster where all atoms within are solid and max 1.3 units from another member

# define chunks one chunk per cluster
compute clus_chunks solid chunk/atom c_cluster nchunk every compress yes  # Says which atoms are in which chunk

# count the size of each chunk
compute size_chunks solid property/chunk clus_chunks count


# Find the maximum entry in the vector of chunk sizes
variable max_n equal max(c_size_chunks)


# Thermo style which includes this variable
# thermo_style custom step temp pe vol v_max_n

thermo ${N}  # Print the thermo information every 100 steps
thermo 1000  

# Reset the npt fix at a lower temperature (below freezing)
fix 1  all npt temp  ${temp} ${temp}  0.1  iso  5.68  5.68  0.5  mtk yes tchain  5  pchain  5
fix 1  all npt temp  0.45 ${temp}  0.1  iso  5.68  5.68  0.5  mtk yes tchain  5  pchain  5
fix 1  all npt temp  0.45 0.45  0.1  iso  5.68  5.68  0.5  mtk yes tchain  5  pchain  5

dump dmp2 all dcd ${N} traj.dcd
dump dmp2 all dcd 1000 traj.dcd


compute msd all msd com yes
variable twopoint equal c_msd[4]/6/(step*dt+1.0e-6)
fix 9 all vector 10 c_msd[4]
variable fit equal slope(f_9)/6/(10*dt)
thermo_style custom step temp pe c_msd[4] v_twopoint v_fit v_max_n

fix 1 all npt temp 1.25 ${temp} 0.1 iso 5.68 5.68 0.5 mtk yes tchain 5 pchain 5
fix 1 all npt temp 1.25 0.45 0.1 iso 5.68 5.68 0.5 mtk yes tchain 5 pchain 5
run 2000000 # 5000000  # Run for this many steps
Neighbor list info ...
  update every 1 steps, delay 10 steps, check yes
  max neighbors/atom: 2000, page size: 100000
  master list distance cutoff = 3.8
  ghost atom cutoff = 3.8
  binsize = 1.9, bins = 8 8 8
  4 neighbor lists, perpetual/occasional/extra = 1 3 0
  (1) pair lj/cut, perpetual
      attributes: half, newton on
      pair build: half/bin/atomonly/newton
      stencil: half/bin/3d
      bin: standard
  (2) compute orientorder/atom, occasional
      attributes: full, newton on
      pair build: full/bin/atomonly
      stencil: full/bin/3d
      bin: standard
  (3) compute coord/atom, occasional
      attributes: full, newton on
      pair build: full/bin/atomonly
      stencil: full/bin/3d
      bin: standard
  (4) compute cluster/atom, occasional
      attributes: full, newton on
      pair build: full/bin/atomonly
      stencil: full/bin/3d
      bin: standard
Per MPI rank memory allocation (min/avg/max) = 9.816 | 9.822 | 9.828 Mbytes
Step Temp PotEng c_msd[4] v_twopoint v_fit v_max_n 
   12000    1.2555448   -2.8607263 1.9262011e-30 1.3376396e-32 8.3333333e+20            2 
   13000    1.2157879   -2.8718606    1.0703755 0.0068613814  0.090721531            2 
   14000    1.2373402   -2.8815852    2.2650712  0.013482566   0.09473308            3 
   15000    1.2392695   -2.8590589    3.4459472  0.019144151  0.097951728            1 
   16000    1.2707622   -2.8842324    4.7139085  0.024551606  0.099088904            2 
   17000    1.2645152   -2.8499484    5.8688527  0.028768885  0.099343395            2 
   18000    1.2634589   -2.8668989    7.1201498  0.032963656  0.099991989            1 
   19000    1.2518968   -2.8722138    8.3908093  0.036801794     0.100568            1 
   20000    1.2849484   -2.8835153    9.6304707   0.04012696    0.1013721            3 
   21000    1.2636125   -2.8800743    10.790193  0.042818224   0.10154495            1 
   22000    1.2364832   -2.8650336    11.959636  0.045301649    0.1015761            1 
   23000     1.275109   -2.8475761    13.230369  0.047936119   0.10153694            4 
   24000    1.2426916   -2.8512241    14.328602   0.04975209   0.10129348            1 
   25000    1.2528661   -2.8846005    15.526955  0.051756517   0.10093057            2 
   26000    1.2484793   -2.8762972    16.705508  0.053543295   0.10078894            1 
   27000    1.2394492     -2.87018    17.833735  0.055042391   0.10055829            1 
   28000    1.2396217   -2.8788785    19.068236    0.0567507   0.10030989            1 
   29000     1.258633   -2.8893722    20.052297  0.057621543   0.10003409            1 
   30000    1.2332013   -2.8762872    21.441468  0.059559633  0.099713811            2 
   31000    1.2003526   -2.8721278    22.810459  0.061318438    0.0997369            1 
   32000    1.2741764   -2.8671869    23.975424     0.062436  0.099843371            1 
   33000     1.250723   -2.8802892    25.081735  0.063337714   0.09982829            1 
   34000    1.2404761   -2.8763341    26.160205  0.064118149   0.09969496            1 
   35000    1.2263614   -2.9193968    27.421518  0.065289327  0.099678038            2 
   36000     1.246197   -2.8643023    28.993381  0.067114307  0.099735481            1 
   37000    1.2520161   -2.8546657    30.082691  0.067753809  0.099862496            2 
   38000    1.2300747   -2.8644605    31.400139  0.068859954   0.10002181            3 
   39000    1.2248951   -2.8703737    32.436434  0.069308619   0.10018113            1 
   40000    1.2204292   -2.8730476     33.62982  0.070062124   0.10023338            1 
   41000    1.2338257   -2.8712079    34.763825  0.070658181   0.10024834            3 
   42000    1.2506731   -2.8899471    35.727272  0.070887444   0.10016861            2 
   43000    1.2442112   -2.8575752    37.069579  0.071840268   0.10006116            1 
   44000    1.2393861   -2.8798511    38.406789   0.07274013   0.10002699            3 
   45000    1.2262207   -2.9198583    39.386846  0.072938603   0.10001854            2 
   46000    1.2378125   -2.9240612    40.135028  0.072708384  0.099882832            1 
   47000    1.2464757   -2.9015969     41.63135   0.07381445  0.099797542            2 
   48000    1.2443587   -2.8805665    42.880917  0.074446035  0.099757842            2 
   49000    1.1919436   -2.8663431    44.497671   0.07567631  0.099819684            2 
   50000     1.225988   -2.9135194    45.314648  0.075524413  0.099805392            2 
   51000    1.2489771   -2.8653638    46.477815  0.075944142  0.099785996            6 
   52000    1.2182601   -2.8992744    47.497245  0.076117378  0.099749566            2 
   53000    1.2337381   -2.8885047    48.596843   0.07641013  0.099609021            2 
   54000    1.2548842   -2.8972901    49.429865  0.076280655  0.099440926            1 
   55000    1.2400791   -2.8992599    50.715472  0.076841623  0.099299865            1 
   56000    1.2435684   -2.8924747    51.900951  0.077233558  0.099174716            3 
   57000    1.2498703   -2.8498363    53.159968   0.07771925   0.09903502            3 
   58000    1.2185309   -2.9055063    53.878647  0.077411849  0.098883326            1 
   59000    1.2675565    -2.868061    55.672821  0.078633927  0.098783271            1 
   60000    1.2142595   -2.8768656    56.892583  0.079017476  0.098712726            1 
   61000    1.2264541   -2.8865422     58.08094  0.079345546  0.098663928       -1e+20 
   62000    1.2470543   -2.8825971    59.361601  0.079787098  0.098634321            1 
   63000    1.2233461   -2.8958045    60.376943   0.07986368  0.098608383            1 
   64000    1.2486588   -2.8526699     61.66879  0.080297902  0.098563223            1 
   65000    1.2084536   -2.9270607    62.503943   0.08013326  0.098558346            1 
   66000    1.2184881   -2.9169332    64.233715  0.081103174  0.098559983            2 
   67000     1.248379   -2.8794695    64.681539  0.080449675   0.09855569            1 
   68000    1.2311067   -2.8955814    66.468487  0.081456478  0.098539918            1 
   69000    1.1950823   -2.8821172    67.320566  0.081305031  0.098544601            2 
   70000    1.2261588   -2.8764788    68.569737  0.081630638  0.098475473            3 
   71000    1.2455942   -2.9031301    69.126366  0.081134232  0.098388433            2 
   72000    1.2029221   -2.8845399    70.078906  0.081109844  0.098264809            2 
   73000    1.2160429   -2.9055833    70.927492  0.080967456  0.098112162            3 
   74000    1.2170802   -2.9055283    72.231074  0.081341298  0.097980525            2 
   75000    1.2172763   -2.8787779    73.075025  0.081194472  0.097863978            2 
   76000    1.2439307   -2.9022464    74.273993  0.081440781  0.097729675            2 
   77000    1.2028935   -2.9042611    75.565595  0.081780946  0.097606893            1 
   78000    1.2387549   -2.9007034    76.517808  0.081749794  0.097498135            2 
   79000    1.2153692   -2.9155156    78.071349  0.082353743  0.097400567            2 
   80000    1.2208508   -2.8997071    78.547453  0.081820263  0.097285517            1 
   81000    1.2115779   -2.8900587    79.804385  0.082103276  0.097167926            1 
   82000    1.2079442   -2.8580623    81.057097  0.082375098  0.097062193            2 
   83000    1.2106532   -2.8968429    82.627485  0.082959322  0.096995404            1 
   84000     1.187645   -2.8881872      83.8991  0.083233234  0.096938311            1 
   85000    1.2224785   -2.8961348    85.116584  0.083447631  0.096885781            2 
   86000    1.2239541   -2.9078489    85.591737  0.082937729  0.096815653            1 
   87000      1.22709   -2.8719203    86.765563  0.083108777  0.096732528            1 
   88000    1.2557947   -2.8841481    88.260674  0.083580183  0.096667184            1 
   89000    1.1604117    -2.878112    89.151198  0.083474904  0.096596697            1 
   90000    1.2342127   -2.8785843    90.236843  0.083552632  0.096527756            1 
   91000    1.2259207   -2.9367712    91.153166  0.083473595  0.096459741            1 
   92000     1.219153   -2.8811847    92.681815  0.083950919   0.09638711            2 
   93000    1.2274302   -2.9021025    93.087246   0.08341151  0.096321701            3 
   94000    1.2289958   -2.8928063    94.250017  0.083554979  0.096254521            1 
   95000    1.2037086   -2.9149771    95.604474  0.083863573  0.096169397            1 
   96000    1.1765202   -2.8723384     96.26704  0.083565138  0.096092276            1 
   97000    1.2156074    -2.925306    97.445531  0.083716091  0.096005139            1 
   98000    1.2326677   -2.9201389    98.627104  0.083866585  0.095941166            1 
   99000    1.2462564   -2.9182449    99.832509  0.084034098   0.09586623            2 
  100000    1.2216384   -2.8948268    100.78951   0.08399126  0.095788161            3 
  101000    1.2145702   -2.8959797    101.62838  0.083851797  0.095703296            2 
  102000     1.202641   -2.8829028     102.8565  0.084033086  0.095613791            2 
  103000    1.2155105   -2.9479171    103.91526  0.084073838  0.095523498            1 
  104000    1.2205798   -2.9132058    105.75508  0.084739648  0.095459596            1 
  105000    1.2089116    -2.903581    106.49464  0.084519556  0.095395064            1 
  106000    1.2148221   -2.9309984    107.86218  0.084797312  0.095349577            1 
  107000    1.2107494   -2.9468286    108.48847  0.084492576  0.095307039            3 
  108000    1.2091114   -2.9500385    109.82834  0.084744086  0.095259572            1 
  109000    1.1874883   -2.9052187    111.18659  0.085005034  0.095221178            2 
  110000    1.2226655   -2.8941927    112.49572  0.085224028  0.095180218            1 
  111000     1.202574    -2.905662    113.38952  0.085127265  0.095149187            2 
  112000    1.2080262    -2.934866    114.52345    0.0852109  0.095102546            2 
  113000    1.1724421   -2.9225625    115.76942  0.085375675  0.095053948            1 
  114000    1.2345905    -2.915251    117.10656  0.085604209  0.095012982            2 
  115000    1.1856141   -2.9058277    117.62256  0.085233735  0.094966935            2 
  116000    1.2159648   -2.9277138    118.29283  0.084980479  0.094910193            1 
  117000    1.1978833   -2.9013288    119.46121   0.08508633  0.094858282            2 
  118000    1.2056221   -2.9234423    120.86292  0.085355171  0.094811211            1 
  119000    1.1830963   -2.9464197    122.07329  0.085485496  0.094760894            2 
  120000    1.2029672   -2.9349705      122.995  0.085413194  0.094718492            3 
  121000    1.2048487   -2.9249786    124.15491  0.085506135   0.09468096            2 
  122000    1.1935454    -2.917416     125.7615  0.085902664  0.094646242            2 
  123000    1.2174082   -2.9297985    126.97884  0.086029027  0.094621043            2 
  124000    1.1979248   -2.9015142    127.99818  0.086020282  0.094594215            1 
  125000    1.1969438   -2.9199721    129.27224  0.086181496  0.094575054            1 
  126000    1.2218172   -2.9219073    129.80189  0.085847808  0.094548703            1 
  127000    1.2107026   -2.9314135    131.63638  0.086375577  0.094518628            1 
  128000    1.2153162   -2.9074748    131.83522   0.08583022   0.09448781            1 
  129000    1.2126482   -2.9458239     132.7795  0.085774873  0.094447649            1 
  130000    1.1874512   -2.9277174    134.25126  0.086058498  0.094403599            3 
  131000    1.2080063   -2.9107216    134.76029  0.085725373  0.094360194            2 
  132000    1.2025098   -2.9314838    135.96112  0.085834038  0.094319708            1 
  133000    1.1875833   -2.9190085    137.68543  0.086269064  0.094275645            1 
  134000    1.2068805   -2.9465249    138.33881  0.086031598  0.094243739            1 
  135000    1.2128999    -2.942758    139.85488  0.086330173  0.094212929            1 
  136000    1.1864572   -2.9271959    141.57965  0.086752238  0.094180756            2 
  137000     1.213744   -2.9368806    142.21035  0.086502648  0.094160877            2 
  138000    1.2156987   -2.9275792    143.79703  0.086833953  0.094143181            3 
  139000    1.1938955   -2.9229761    145.19852  0.087049471  0.094139507            6 
  140000    1.2444475    -2.931815    145.71982  0.086737986  0.094129894            2 
  141000    1.2121899   -2.9208557    147.08221  0.086928018  0.094115642            1 
  142000    1.1835539   -2.9295731    147.18777  0.086377798  0.094102693            2 
  143000    1.2006215   -2.9520853    147.92457  0.086203127   0.09408513            2 
  144000    1.1939668    -2.921593    150.29055  0.086973696  0.094059496            2 
  145000    1.1902826   -2.9337388    151.51791  0.087079256  0.094030474            1 
  146000    1.2030788   -2.9076401    152.67864  0.087145341   0.09401489            1 
  147000     1.207414   -2.9395207     154.2897  0.087465817  0.093993379            1 
  148000    1.1929652   -2.9264481    154.27176   0.08686473  0.093960887            2 
  149000    1.1920052   -2.9211723    155.13615  0.086765187  0.093936303            2 
  150000    1.1942655   -2.9414904    156.66047  0.087033593  0.093908267            2 
  151000    1.1908007   -2.9286883    156.89727  0.086587899  0.093882331            2 
  152000      1.19181   -2.9512663    158.26098  0.086765886    0.0938588            2 
  153000    1.2151874   -2.9142845    159.72043  0.086993697  0.093833544            3 
  154000    1.2015722   -2.9695254    160.51317  0.086857778  0.093811514            1 
  155000    1.1805165   -2.9007835    162.72668  0.087487461  0.093787916            2 
  156000    1.1917767   -2.9370078    162.70861  0.086916993  0.093765869            1 
  157000    1.1889366   -2.9524252     163.9429  0.087018523  0.093745385            1 
  158000    1.1903108   -2.9499997    165.28156  0.087173816  0.093723917            2 
  159000    1.2141499   -2.9374377    165.27379  0.086621482  0.093694123            2 
  160000    1.1732008   -2.9415209    166.56854  0.086754446  0.093670247            2 
  161000    1.2102066   -2.9091762    168.54831  0.087240324  0.093640695            2 
  162000    1.1925042   -2.9396294    169.24301   0.08705916  0.093621149            2 
  163000    1.1920488   -2.9317523    170.79125  0.087316591  0.093602701            1 
  164000    1.1898287   -2.9392497    171.32387   0.08705481  0.093585717            2 
  165000    1.1980646   -2.9342975    173.52718   0.08763999  0.093565588            1 
  166000    1.2125502   -2.8978404    174.26693  0.087483397  0.093561518            5 
  167000    1.1938345   -2.9287361    175.14004  0.087395227  0.093551009            1 
  168000    1.1867171   -2.9537428    176.22844  0.087414899  0.093537942            3 
  169000    1.2089329    -2.921264    177.75194  0.087648884  0.093526765            3 
  170000    1.2030107    -2.939804    178.76317  0.087629003  0.093513641            1 
  171000     1.188538   -2.9448284    179.09288   0.08727723  0.093505342            1 
  172000    1.1692823   -2.9230164    182.05162  0.088203304  0.093498543            2 
  173000    1.1724036   -2.9612582      182.809  0.088058286  0.093503307            1 
  174000    1.1940985   -2.9594545    183.10168  0.087692376  0.093502296            1 
  175000    1.1480339    -2.921668    185.66777  0.088413221  0.093502194            3 
  176000    1.1880666   -2.8981864    186.23414  0.088179045  0.093498378            1 
  177000    1.1858849   -2.9413891    186.57827  0.087842874  0.093490105            1 
  178000    1.1485943   -2.9212126    187.70663  0.087877633  0.093477327            1 
  179000    1.1985437   -2.9466072    188.12548  0.087581696  0.093461189            1 
  180000    1.1750597   -2.9625694    189.65834  0.087804788  0.093447194            2 
  181000    1.1943602   -2.9380885    190.74871   0.08782169  0.093431983            3 
  182000    1.1852651   -2.9446304    192.00277  0.087913355  0.093414049            1 
  183000    1.1820884    -2.926785    193.28554  0.088017094  0.093396398            2 
  184000    1.1656377    -2.961074    193.15742  0.087480713  0.093378935            2 
  185000    1.2005512   -2.9721903    194.93383  0.087808031  0.093366003            2 
  186000    1.1833191   -2.9297103    196.11975  0.087867269  0.093351451            3 
  187000     1.188176   -2.9516511    196.95283  0.087768641   0.09334125            1 
  188000    1.1936449   -2.9272402    197.98196  0.087757963  0.093321015            3 
  189000    1.1864749   -2.9411057    198.65232  0.087589208  0.093303255            1 
  190000    1.1748806   -2.9474344    200.49077  0.087934546  0.093285675            3 
  191000    1.1878526   -2.9205208    202.00583  0.088135181  0.093269739            1 
  192000    1.1678198   -2.9576732    202.77579  0.088010326   0.09326424            3 
  193000    1.1833993   -2.9560173    204.23432  0.088184076  0.093248905            1 
  194000    1.1897589     -2.93688     204.7177  0.087937158  0.093231663            1 
  195000    1.1679571   -2.9640571     204.5591  0.087418419  0.093210626            3 
  196000    1.1739429   -2.9768133    206.20704  0.087673061  0.093188106            2 
  197000    1.1569032   -2.9482411    207.65303  0.087839692  0.093170515            2 
  198000    1.1728994   -2.9628468    208.62145  0.087803639    0.0931534            1 
  199000    1.1933832   -2.9492527    210.86819  0.088303262  0.093138892            2 
  200000    1.1548337   -2.9467178    211.82732  0.088261384  0.093128399            3 
  201000    1.1877838   -2.9442029    211.90787  0.087855669  0.093114104            2 
  202000    1.1885356   -2.9409596    213.98566  0.088277913  0.093095457            2 
  203000    1.1422407   -2.9765697      212.786  0.087350574  0.093073077            1 
  204000    1.1487055   -2.9521055    215.61427  0.088077724  0.093049882            1 
  205000    1.1761716    -2.956845    216.56338  0.088033893  0.093027673            3 
  206000     1.204686   -2.9669635    216.96967  0.087770903  0.093009937            8 
  207000    1.2092739   -2.9647813    218.00112  0.087762124  0.092990122            2 
  208000    1.1793488   -2.9810556    220.06382  0.088166594   0.09297589            1 
  209000    1.1621703   -2.9405601    221.70618  0.088399594  0.092962352            2 
  210000    1.1931677     -2.97015    221.48623  0.087891361  0.092957249            5 
  211000    1.1706613   -2.9730275     224.2017  0.088547277  0.092953227            2 
  212000     1.150705   -2.9597223    225.87413  0.088787001  0.092950456            2 
  213000    1.1782701   -2.9596945    226.77045  0.088720834   0.09294821            1 
  214000    1.1790874    -2.950279    227.46804  0.088577895  0.092945826            1 
  215000    1.1750574   -2.9609084    228.57262  0.088594037  0.092940851            1 
  216000     1.199306   -2.9608962    228.86569  0.088296946  0.092929847            1 
  217000    1.1745232   -2.9618516     229.5062  0.088136022  0.092916293            4 
  218000    1.1522133   -2.9717479    231.78125  0.088601394  0.092906284            3 
  219000    1.1543455   -2.9778758    232.15615  0.088339479  0.092893456            2 
  220000    1.1903556   -2.9734226    232.67173  0.088133233  0.092879532            2 
  221000    1.1818123   -2.9443372    234.81511   0.08854265  0.092864949            2 
  222000    1.1726935   -3.0091413    234.63238  0.088075217  0.092846428            2 
  223000    1.1694307   -2.9783095    235.87409  0.088144277  0.092827924            2 
  224000    1.1545697   -2.9976088    236.86608  0.088119821  0.092806301            1 
  225000     1.164337   -2.9792411    237.62858  0.088010586    0.0927844            1 
  226000    1.1535689   -2.9783826    238.66804  0.088004438  0.092761177            1 
  227000    1.1832991   -2.9332924    240.44134  0.088267746  0.092739384            1 
  228000    1.1608569   -2.9447124    241.00343   0.08808605  0.092718354            1 
  229000    1.1243479   -2.9855199    242.96595  0.088415558  0.092697023            1 
  230000    1.1782568   -3.0035758    241.92727  0.087654809  0.092676705            1 
  231000    1.1573773    -2.960222    243.41449  0.087811863  0.092654061            1 
  232000    1.1538617   -2.9713704    244.91781  0.087973352  0.092629339            1 
  233000    1.1498072   -2.9911242    245.56337  0.087826669  0.092601901            2 
  234000    1.1571232   -2.9651989    246.49103  0.087781707  0.092575895            1 
  235000    1.1484666   -2.9661931    248.97133  0.088287707  0.092553476            4 
  236000    1.1327316   -2.9647709    249.01428  0.087928769  0.092528413            2 
  237000    1.1672958   -2.9599235       250.63  0.088125878  0.092498159            2 
  238000    1.1613789   -3.0097335     251.3283  0.088000104  0.092476621            1 
  239000    1.1976034   -2.9532016    253.77922  0.088486477  0.092457897            1 
  240000    1.1530388   -2.9571379    253.06538  0.087869923  0.092441091            2 
  241000    1.1782211   -2.9760572    254.95237  0.088157803  0.092426441            1 
  242000    1.1899935   -3.0272984    255.78804   0.08808128  0.092414448            4 
  243000    1.1856216   -2.9703581    257.81525  0.088414009  0.092402025            2 
  244000    1.1422929   -2.9910799    257.44287  0.087924476  0.092383914            2 
  245000    1.1261117   -2.9608844    258.03673  0.087767594  0.092368294            2 
  246000    1.1751542   -2.9899444    260.88008  0.088374011  0.092355783            2 
  247000    1.1416209   -2.9745379    262.48418  0.088557416  0.092341769            2 
  248000    1.1511589   -2.9776544    262.70153  0.088273362  0.092329417            2 
  249000    1.1332858   -2.9883357    263.58524  0.088214605   0.09231465            2 
  250000    1.1357181   -2.9824845    265.84438  0.088614794  0.092296384            1 
  251000    1.1608313   -3.0050138    265.06958  0.088004507  0.092281202            3 
  252000    1.1472831   -2.9548578    266.44729  0.088110875  0.092264932            1 
  253000    1.1474417   -2.9778313    267.87976  0.088234441  0.092246617            3 
  254000    1.1532236   -2.9719403    269.48253  0.088412903  0.092229969            4 
  255000    1.1518956   -2.9974665    270.12694  0.088276778  0.092212785            2 
  256000    1.1740448   -3.0122756    270.36857  0.088010602  0.092193932            3 
  257000    1.1482885   -2.9863687    271.67598  0.088092083  0.092174891            1 
  258000    1.1314691   -2.9997792    271.69041  0.087755301  0.092153624            2 
  259000    1.1619884   -2.9818298    273.41863  0.087972531   0.09212954            2 
  260000    1.1387857   -2.9974856    274.76759  0.088066534  0.092104591            1 
  261000     1.152801   -3.0161583    273.51686  0.087329777   0.09207733            2 
  262000    1.1571504   -2.9757389    275.55059  0.087643318  0.092045579            4 
  263000     1.174249   -2.9411593    276.46448  0.087599646  0.092011357            1 
  264000    1.1555635   -3.0210259    276.68068  0.087336074  0.091973886            2 
  265000    1.1546469   -3.0147059    277.75162  0.087343278  0.091934272            3 
  266000    1.1103755   -2.9567357    278.34506  0.087200834  0.091895605            3 
  267000    1.1512775   -2.9890022    280.63883  0.087590147   0.09185652            1 
  268000    1.1392707   -2.9916399    279.58176  0.086934626  0.091816237            1 
  269000    1.1673823   -3.0030767    281.64467  0.087250519  0.091775331            2 
  270000    1.1587264   -2.9814318    281.78786  0.086971562  0.091732753            2 
  271000    1.1502333   -2.9726436    283.99636  0.087329753   0.09169583            1 
  272000     1.148417   -2.9880339    283.92302  0.086986219  0.091661681            2 
  273000    1.1501253   -2.9788188    284.08668  0.086717545  0.091617879            1 
  274000    1.1560103   -2.9874417    286.41659  0.087109668  0.091581948            2 
  275000    1.1173986   -2.9951731    289.03979  0.087587816  0.091547436            1 
  276000    1.1671586   -3.0035293    287.95742  0.086943667  0.091514073            3 
  277000    1.1277063   -3.0004204    290.56851  0.087415315  0.091480092            1 
  278000    1.1310596   -3.0200564    291.00731  0.087232408   0.09144484            2 
  279000    1.1632248    -3.009565    291.54452  0.087080203  0.091412989            1 
  280000    1.1575109   -2.9567875    294.14961  0.087544527  0.091383562            1 
  281000    1.1635512   -2.9849872    292.35828  0.086701742  0.091348918            2 
  282000    1.1386321   -2.9963868    293.35375   0.08668846  0.091309104            4 
  283000    1.1326291   -2.9755575    295.66971  0.087064107  0.091272376            2 
  284000     1.159863   -3.0310663    296.36043   0.08696022  0.091236526            4 
  285000    1.1107099   -3.0045066    296.84814  0.086797701  0.091197209            1 
  286000    1.1334264    -2.980761    298.21711  0.086893097  0.091155697            3 
  287000    1.1230501   -2.9996789    298.32204    0.0866208  0.091116714            2 
  288000    1.1331682   -2.9746708     298.9857  0.086512065  0.091071307            1 
  289000     1.105301    -2.987662    299.51283  0.086364714   0.09102888            1 
  290000    1.1324859   -2.9731472      301.418  0.086614367  0.090987357            1 
  291000    1.1357331   -2.9979841    303.60637  0.086943405  0.090943137            2 
  292000    1.1351483   -3.0017519    303.38071  0.086581253  0.090900682            1 
  293000    1.1261949   -3.0109386    304.02993  0.086470401  0.090861034            1 
  294000    1.1473893   -2.9887596    305.28031    0.0865307  0.090823539            2 
  295000    1.1452383   -3.0239319     305.2018  0.086215197  0.090783826            2 
  296000    1.1303682   -3.0064762    308.60258  0.086881356  0.090746985            1 
  297000     1.172834    -3.018579    308.73053  0.086624728  0.090714131            4 
  298000    1.1469646   -3.0211329    309.72777  0.086612911  0.090682538            2 
  299000    1.1442892   -3.0057217    311.57936  0.086839287  0.090647694            2 
  300000    1.1679958   -3.0141609    311.04094  0.086400262  0.090611134            4 
  301000    1.1322919   -3.0081403    312.93462  0.086637492  0.090572549            2 
  302000    1.0932713   -3.0014449    314.64323  0.086822084  0.090535579            1 
  303000    1.1426842   -2.9962078    313.49589  0.086219991  0.090497364            1 
  304000    1.1250399   -3.0234279    314.77665  0.086287459  0.090458192            1 
  305000    1.1433908   -2.9960066    316.04877  0.086352124  0.090417296            4 
  306000    1.1224446   -2.9952839    317.29127  0.086408298  0.090383087            1 
  307000    1.1183921   -3.0249557    318.21667  0.086378032  0.090345544            2 
  308000    1.1345011   -2.9876394    319.96029  0.086569342  0.090308171            3 
  309000     1.126814   -3.0363552    320.93379  0.086551724  0.090272076            4 
  310000    1.1194566   -2.9922138    320.69666  0.086208779   0.09023622            1 
  311000     1.153689   -3.0373415    322.18146  0.086329436  0.090198895            2 
  312000    1.1375871     -3.01795    322.05984  0.086020257  0.090162044            2 
  313000    1.1719737   -3.0080736    323.84821  0.086221569   0.09012363            2 
  314000    1.1274498   -3.0100094     325.6485   0.08642476  0.090085513            1 
  315000    1.1416987   -3.0226094    325.15014  0.086018556  0.090046584            1 
  316000    1.1393823   -3.0142696    327.44111  0.086350503  0.090007441            1 
  317000    1.1267051   -2.9925857    327.96341  0.086215407   0.08996698            1 
  318000    1.1232455   -3.0327761    329.09486  0.086240792  0.089928266            2 
  319000    1.1232488      -2.9931    329.97217  0.086199627  0.089891182            2 
  320000    1.1496229   -3.0334903    330.23138  0.085997755   0.08985322            3 
  321000    1.1137327   -3.0208443    332.03955  0.086199259  0.089815228            1 
  322000    1.1226553   -3.0134687    333.68827  0.086358248     0.089782            2 
  323000    1.1266851   -3.0263883    333.30506  0.085992018   0.08974473            3 
  324000    1.1260284   -3.0066228    335.24599  0.086225821  0.089711869            1 
  325000    1.1559871   -2.9925037    336.83271  0.086367362  0.089677722            1 
  326000    1.1125867   -3.0387282    335.28656  0.085707199  0.089639881            3 
  327000    1.1128056   -3.0391929    336.88612  0.085852731  0.089601446            2 
  328000    1.1140644   -3.0160749    337.81272  0.085826401  0.089561741            2 
  329000    1.1402506   -3.0216029    338.59256  0.085763061  0.089523825            1 
  330000    1.1546701   -3.0002337    340.86397   0.08607676   0.08948536            1 
  331000    1.1246924   -2.9890144    341.78578  0.086048787  0.089449126            3 
  332000    1.1130426   -3.0594966     341.5259  0.085724373  0.089413794            1 
  333000    1.1279117    -3.018306    342.51834  0.085715299   0.08937894            2 
  334000    1.1263864   -3.0220045    343.87819  0.085797953  0.089345886            5 
  335000      1.13079   -3.0659853    345.34368  0.085906388  0.089313312            2 
  336000    1.1246301   -3.0335892    347.13569  0.086095161  0.089281636            2 
  337000    1.1293138   -3.0122148    348.51839  0.086181599  0.089250588            5 
  338000     1.118842   -3.0473944    348.84023  0.086005973  0.089218848            5 
  339000    1.1241543   -3.0146455    349.81355  0.085991531  0.089188374            2 
  340000    1.0915154   -3.0225099    352.57115  0.086414497  0.089158936            1 
  341000    1.1262894   -3.0262608    351.24579  0.085837192  0.089127542            1 
  342000    1.1430061   -3.0743671    351.92806  0.085752452  0.089096617            2 
  343000     1.145415   -3.0168223    353.66533  0.085924521  0.089063974            2 
  344000    1.1321376   -3.0067017    355.39152  0.086092906   0.08903161            2 
  345000    1.1258517   -3.0275849     355.0023  0.085749347  0.088999745            2 
  346000    1.1054382   -3.0393016    354.23476  0.085316657  0.088965065            3 
  347000    1.1124538   -3.0153461    356.64101  0.085648657  0.088930551            3 
  348000    1.1186201   -3.0210665    358.09723  0.085751251  0.088896974            2 
  349000    1.1290023   -3.0036455    360.58478  0.086099517  0.088862931            2 
  350000    1.1094347   -3.0187499    359.87675  0.085684941  0.088828898            1 
  351000    1.1253572   -3.0321655    359.23307  0.085288004  0.088793203            1 
  352000    1.1161126   -3.0046287    361.67419  0.085623625  0.088756081            1 
  353000    1.1202526   -3.0355363    362.54043  0.085585558  0.088721755            3 
  354000    1.1133683   -3.0260897    363.62532  0.085599181  0.088688223            2 
  355000    1.1228686   -3.0638016    362.94595   0.08519858  0.088655594            2 
  356000    1.0988814   -3.0526258    364.58274  0.085342401  0.088622228            2 
  357000    1.1019903   -3.0430189    364.37908  0.085055808  0.088590286            1 
  358000    1.1174264   -3.0469874    368.00503  0.085662251  0.088556842            2 
  359000    1.0915425   -3.0208138    367.04616  0.085201058  0.088524361            2 
  360000    1.1050391   -3.0405001    368.88372   0.08538975  0.088489376            3 
  361000    1.1289637   -3.0394369     368.6604  0.085101661  0.088455084            4 
  362000    1.0994446   -3.0386657     372.1412  0.085667864  0.088421992            1 
  363000    1.1079371   -3.0075603    372.82205  0.085588166  0.088390232            2 
  364000    1.1000464    -3.060646    372.59589  0.085301258  0.088358005            3 
  365000    1.0993032   -3.0130236    372.74802  0.085102287  0.088323965            2 
  366000    1.1126514   -3.0594362    372.78647  0.084878523  0.088289875            4 
  367000    1.1058197   -3.0302888    375.69492  0.085307656  0.088255266            1 
  368000    1.1027429   -3.0561109    376.12739  0.085173775  0.088221048            1 
  369000    1.1158857   -3.0592553    377.40717  0.085231971  0.088186373            2 
  370000    1.1087723   -3.0234252    377.94347  0.085122403  0.088152806            1 
  371000     1.105273   -3.0233767    380.53639   0.08547538   0.08811799            2 
  372000    1.1032116   -3.0206524    381.34331  0.085426369  0.088083554            3 
  373000    1.1002087   -3.0454755    382.74023  0.085509435  0.088047984            2 
  374000    1.1134129   -3.0536623    380.45539    0.0847717  0.088013722            1 
  375000    1.1074664   -3.0294988    381.96931  0.084882068   0.08798036            3 
  376000    1.1221529   -3.0095788    384.61274  0.085242186  0.087945792            2 
  377000    1.0953456   -3.0228148    385.91029  0.085302893  0.087913767            2 
  378000    1.1086511   -3.0744676    384.66798  0.084803347  0.087879868            2 
  379000    1.0940009   -3.0161229    386.91106  0.085072793  0.087844483            1 
  380000    1.1121935   -3.0645853    387.73124  0.085028781  0.087812149            1 
  381000    1.1115582    -3.039442    387.13076   0.08467427  0.087777474            1 
  382000    1.0934963   -3.0615579    386.55892  0.084327862  0.087743375            3 
  383000    1.1081466   -3.0584566     390.8162  0.085033987  0.087707624            1 
  384000    1.0985752   -3.0357566    391.05427  0.084864208  0.087674371            2 
  385000    1.1025103   -2.9983355    391.80877  0.084807093  0.087640248            2 
  386000    1.1260416    -3.044354    393.79231  0.085015612  0.087606883            1 
  387000    1.0466424   -3.0345749    392.25121  0.084464086  0.087572799            2 
  388000     1.092875   -3.0548131    393.47939  0.084510177  0.087538283            3 
  389000    1.1079171   -3.0385114    395.70703  0.084770144  0.087504347            1 
  390000    1.0860258   -3.0318657    396.88971  0.084805494  0.087471294            4 
  391000     1.106875   -3.0612303    398.31092    0.0848915  0.087439982            2 
  392000    1.1183941   -3.0611252    399.83202  0.084998303  0.087409924            2 
  393000    1.0836063   -3.0445729    400.19378  0.084858732  0.087381975            2 
  394000    1.0842224   -2.9999658    401.72946   0.08496816  0.087352734            2 
  395000    1.1016823   -3.0384666    399.93966  0.084375456  0.087322736            1 
  396000    1.0828964   -3.0270367    402.69673  0.084742578  0.087291453            5 
  397000    1.1000285   -3.0745444    403.61567  0.084722014  0.087260971            3 
  398000    1.1094181   -3.0428733     403.7081  0.084528496  0.087228828            1 
  399000    1.0942845    -3.059376    405.32541   0.08465443  0.087197972            4 
  400000    1.1003458   -3.0227135    405.21159  0.084419081   0.08716583            2 
  401000    1.0929727   -3.0424888    404.56959  0.084075143  0.087135682            2 
  402000    1.0828396   -3.0555326    408.88274  0.084760103  0.087102791            2 
  403000    1.0833642   -3.0262314    407.56474  0.084277242  0.087072923            2 
  404000    1.1218993    -3.083006    409.82473  0.084534804  0.087040101            3 
  405000    1.0995014   -3.0282657    409.74885  0.084310463  0.087010168            3 
  406000    1.0971127   -3.0586507    412.00006  0.084564873  0.086980556            2 
  407000    1.1091241   -3.0460459    411.30497  0.084214777  0.086951604            2 
  408000    1.0673728   -3.0541037    413.72582  0.084502823  0.086920299            1 
  409000    1.0839367   -3.0701441    414.84454  0.084524153  0.086891913            2 
  410000    1.0999453   -3.0806247    413.93054  0.084132223   0.08686266            1 
  411000    1.1015561   -3.0833501    414.47758  0.084038439  0.086831377            2 
  412000    1.1055275   -3.0643735    417.48015  0.084441778  0.086798192            1 
  413000    1.0727279   -3.0771165    419.33777   0.08461214  0.086768283            1 
  414000    1.0846905   -3.0641069    419.58097  0.084456717  0.086737933            2 
  415000    1.0824728   -3.0361013    418.68079  0.084072448  0.086707139            1 
  416000    1.0937826   -3.0426828    419.15777  0.083965898  0.086674499            1 
  417000    1.1249561   -3.0722198      419.626  0.083858114  0.086642998            2 
  418000    1.0882807    -3.044851    422.24392  0.084179411  0.086610824            2 
  419000    1.0750719   -3.0577664    422.74766  0.084078691  0.086579165            2 
  420000    1.1082785   -3.0820396    422.39931  0.083809386  0.086547785            7 
  421000    1.0841131    -3.049646     423.0678  0.083742636  0.086516439            1 
  422000    1.0807737   -3.0910353    423.81819  0.083692375  0.086484804            2 
  423000    1.0821584   -3.0714311    424.26524  0.083582592  0.086449929            2 
  424000    1.0866672   -3.0910239    426.38965  0.083802996  0.086416911            3 
  425000    1.0729775   -3.0928548    426.08345  0.083545775  0.086380735            3 
  426000    1.0918585   -3.0790908    427.49535  0.083625851  0.086346553            2 
  427000    1.0640882    -3.055258     428.5852  0.083642702  0.086311398            2 
  428000    1.0791333    -3.096307    429.67217  0.083658912   0.08627526            2 
  429000    1.0793716   -3.0816274    429.43125  0.083417103  0.086239612            1 
  430000    1.0548448   -3.0709071    430.39586   0.08341005  0.086204288            2 
  431000    1.0867557   -3.0614056    431.72221  0.083472971  0.086167306            3 
  432000    1.0764267   -3.0813086    431.75845  0.083286738  0.086128826            3 
  433000    1.0695257    -3.082833    433.51034   0.08343155  0.086092813            2 
  434000    1.0747834   -3.0607391    434.66498  0.083461017   0.08605667            1 
  435000    1.1028873   -3.0669785    436.45149  0.083611397  0.086021963            2 
  436000    1.1082054   -3.0819744    435.86814  0.083308131  0.085987897            1 
  437000    1.0884243   -3.0670922    438.98528  0.083711914  0.085954362            1 
  438000    1.0969088   -3.0663946    440.83385  0.083872498  0.085922031            3 
  439000    1.0770529   -3.0794981    440.72464  0.083660714   0.08589093            2 
  440000    1.0752561   -3.0890901    441.83485  0.083680843  0.085862358            2 
  441000     1.063296   -3.0699615    444.53645  0.084001597  0.085836829            1 
  442000    1.0701761   -3.0508939    444.60642  0.083824741  0.085809384            1 
  443000     1.081864   -3.0548829    446.79539   0.08404729  0.085782879            3 
  444000    1.0599395   -3.0920676    444.69699  0.083464149   0.08575627            2 
  445000    1.1033916   -3.1104572    445.17884  0.083366825  0.085727303            2 
  446000    1.0740322   -3.1044651    447.43743  0.083601912  0.085698317           10 
  447000    1.0625179   -3.1093767    448.66703  0.083644114  0.085668301            1 
  448000    1.0936886   -3.0640114    449.51529  0.083615195  0.085638627            4 
  449000    1.0414791   -3.0963653    448.62006  0.083262818  0.085608667            1 
  450000    1.0757398   -3.0829897    449.15079  0.083176072  0.085577986            2 
  451000    1.0819507   -3.0890183    452.30916  0.083575232  0.085547744            4 
  452000    1.0541841     -3.07052    452.25092  0.083379594  0.085515961            1 
  453000    1.0613978   -3.0814732    450.74626  0.082918739  0.085485758            3 
  454000    1.0709882   -3.0676769    452.45398  0.083049556  0.085455336            1 
  455000    1.1047766   -3.1023912    455.04589  0.083341738  0.085423829            3 
  456000    1.0604748   -3.0819411    453.87866  0.082945661  0.085391406            2 
  457000    1.0545006   -3.0601395    454.42002  0.082862877  0.085358795            4 
  458000    1.0593179   -3.0988355    456.13248  0.082993537  0.085324543            2 
  459000    1.0758211   -3.0634555    455.84147  0.082759888  0.085289939            1 
  460000    1.0612394   -3.0666831    458.07888  0.082985304  0.085255876            2 
  461000    1.0549213   -3.1041981    456.94056  0.082599523  0.085221237            2 
  462000    1.0435996   -3.0880175    456.74361  0.082385211  0.085186076            1 
  463000    1.0745614   -3.0823953    459.89221  0.082773975  0.085152109            2 
  464000    1.0792059   -3.0945949    461.27177  0.082843349  0.085118666            1 
  465000    1.0769462   -3.0665653    463.04519  0.082983009  0.085085959            3 
  466000     1.066176   -3.1028119    462.29106  0.082670075  0.085052952            3 
  467000    1.0657356   -3.0792013    462.98408  0.082616717  0.085019332            1 
  468000    1.0360086   -3.0965844    463.78352  0.082582536  0.084984625            2 
  469000    1.0719854   -3.0651069    462.76307  0.082225136  0.084948967            2 
  470000    1.0633383   -3.0900224    465.56923  0.082547736  0.084913509            2 
  471000    1.0721867   -3.0815766    466.43939  0.082526431  0.084878157            2 
  472000    1.0791282   -3.0892574    466.95465  0.082442559   0.08484216            3 
  473000    1.0516175   -3.0822013    467.54796  0.082372791  0.084806739            2 
  474000    1.0859727   -3.0692606    469.69774  0.082576958  0.084773432            3 
  475000    1.0792069   -3.1030857    471.51019  0.082721086  0.084740364            1 
  476000    1.0355806   -3.1230803    473.07304  0.082820911  0.084709582            2 
  477000    1.0698283   -3.0877484     474.1685  0.082838661  0.084678452            2 
  478000    1.0599318   -3.0781972    473.27024  0.082508758  0.084648059            3 
  479000    1.0498841   -3.0957733    474.72105   0.08258891  0.084615806            3 
  480000    1.0693443   -3.0878662    474.91634  0.082450753  0.084583949            3 
  481000    1.0734441   -3.0844112    478.03184  0.082819099  0.084553103            2 
  482000    1.0684568   -3.1093431    475.61243  0.082228982  0.084521649            5 
  483000    1.0593723   -3.0766351    478.13107  0.082493284  0.084489931            1 
  484000    1.0636842   -3.1027875    477.74017  0.082255538  0.084458152            2 
  485000    1.0823762   -3.1059464    479.95587  0.082466644  0.084426828            2 
  486000    1.0689526   -3.1029326    477.82318  0.081931272  0.084396002            3 
  487000    1.0367233   -3.1282347    479.84095  0.082108307  0.084364835            1 
  488000    1.0669918   -3.1205494    483.21842  0.082516807  0.084333518            4 
  489000    1.0758715    -3.110846    484.14468  0.082505909  0.084302696            1 
  490000    1.0568038   -3.1107623      484.195  0.082346088  0.084274562            2 
  491000    1.0823676   -3.1207736    486.99436  0.082653489  0.084246771            1 
  492000    1.0663459   -3.0691957    489.18456  0.082856464  0.084220145            2 
  493000    1.0379466   -3.1119833     488.0038   0.08248881   0.08419461            1 
  494000    1.0549712   -3.0611765    490.10391  0.082676098  0.084167668            2 
  495000    1.0259339   -3.0962685    489.86321  0.082468554  0.084141654            5 
  496000    1.0571577   -3.1119776    488.78065  0.082120405  0.084115346            2 
  497000    1.0371343    -3.113027     489.8748  0.082138632   0.08408959            4 
  498000    1.0600609   -3.0850252    492.72021  0.082449834  0.084062878            3 
  499000    1.0526174   -3.1197933    493.92917  0.082486501   0.08403614            4 
  500000    1.0606179   -3.1061695    495.87686  0.082646144  0.084010063            2 
  501000    1.0557981   -3.1087413      495.567  0.082429641  0.083984152            2 
  502000     1.051449   -3.1192446    496.50548  0.082421228  0.083957992            2 
  503000    1.0523313   -3.1138317    496.11165  0.082192123  0.083933331            3 
  504000    1.0521013   -3.1106808    500.34097  0.082728335  0.083907858            2 
  505000    1.0633092   -3.1117819    497.74901  0.082136801    0.0838825            3 
  506000    1.0587688   -3.1264459    499.04266  0.082187527  0.083856852            5 
  507000    1.0682952   -3.0875913    502.14737  0.082535729  0.083832214            2 
  508000    1.0467486   -3.0907304    500.52379   0.08210692  0.083805156            3 
  509000    1.0626572   -3.1265975    502.76817  0.082313059  0.083779237            3 
  510000    1.0728572    -3.106884    502.52186  0.082111415  0.083753326            2 
  511000    1.0446321   -3.1265082     502.7774  0.081992401  0.083726744            2 
  512000    1.0203562   -3.1355762    502.72593  0.081823881  0.083700335            4 
  513000    1.0747184    -3.106805    504.37367  0.081932046  0.083673364            2 
  514000     1.052092    -3.094203    504.58001  0.081806097  0.083645933            4 
  515000    1.0582685   -3.1074086    505.94151  0.081867558  0.083616291            6 
  516000    1.0612164   -3.1202446    504.97007  0.081552014  0.083585899            3 
  517000    1.0416026   -3.1216885    506.94843  0.081713157  0.083554233            2 
  518000    1.0463913   -3.1111309    507.68358  0.081673678  0.083524044            1 
  519000    1.0604149   -3.1289575    509.67212    0.0818356  0.083493556            1 
  520000    1.0284703   -3.1418631    508.60528  0.081507257  0.083461704            2 
  521000    1.0382058   -3.1230841    513.11985  0.082072912  0.083432575            3 
  522000    1.0156157   -3.1160056    511.27063   0.08162047  0.083401939            4 
  523000     1.041984   -3.1309939     513.1828  0.081769088  0.083372828            3 
  524000    1.0370664   -3.1230366    514.50326  0.081823037   0.08334385            2 
  525000    1.0421233   -3.1434452    515.30182  0.081793939  0.083316274            2 
  526000    1.0716594   -3.1115766    516.29242  0.081795378  0.083289797            2 
  527000    1.0610446   -3.1274154    516.50192  0.081673295  0.083262657            2 
  528000    1.0596834   -3.1091446    516.73591  0.081555542  0.083235988            4 
  529000    1.0502778    -3.114089    518.89695    0.0817418  0.083207337            2 
  530000    1.0453856    -3.115263    518.17104  0.081473433  0.083180962            2 
  531000    1.0569289   -3.1278559    517.96263  0.081287293  0.083152764            3 
  532000    1.0341919   -3.1068327    519.77823  0.081418895  0.083124443            3 
  533000    1.0465369   -3.1156583    523.13718  0.081791304  0.083097096            3 
  534000    1.0304917   -3.0952733    522.24047    0.0814982   0.08306892            2 
  535000    1.0318987   -3.1202718    522.37074  0.081366158  0.083040413            3 
  536000    1.0361124   -3.1040885     523.9008  0.081452238  0.083011456            1 
  537000    1.0380292   -3.1189089    523.74323  0.081276106   0.08298245            3 
  538000    1.0511291   -3.1121214    524.44382  0.081233553  0.082951979            1 
  539000    1.0480565   -3.0981108    524.76833  0.081133013  0.082920092            2 
  540000    1.0303281   -3.1269744    524.89962  0.081003028   0.08288817            2 
  541000    1.0168673   -3.1423507    525.35609  0.080923612  0.082856506            2 
  542000    1.0459233   -3.1351257    524.76425   0.08068331   0.08282381            3 
  543000    1.0417513     -3.11895    525.82184  0.080697029  0.082792188            3 
  544000    1.0346465   -3.1133827    529.14448  0.081057671  0.082760902            1 
  545000     1.031086   -3.1403493    531.35715  0.081247271  0.082729476            4 
  546000    1.0511572   -3.1288177    529.23593  0.080774714  0.082698736            2 
  547000    1.0506752   -3.1311932    529.91879  0.080731078  0.082666381            1 
  548000    1.0289318   -3.1093471    533.98089  0.081201473  0.082635647            3 
  549000    1.0730123   -3.1158372    534.91191  0.081194885  0.082606228            1 
  550000    1.0362295   -3.1276143       533.79  0.080877273  0.082575153            1 
  551000    1.0488788   -3.1392559    533.71727   0.08071949  0.082544392            1 
  552000    1.0364437   -3.1317894    536.11397  0.080935079  0.082513992            3 
  553000    1.0051624   -3.1345447    536.09175  0.080785376  0.082485371            2 
  554000    1.0185846   -3.1197992     536.9577  0.080769811  0.082455433            3 
  555000    1.0151159   -3.1778287    536.27746  0.080522142  0.082426391            4 
  556000     1.039958   -3.1376702    538.61439  0.080727577  0.082396376            1 
  557000    1.0582125   -3.1284762    538.86687  0.080620417  0.082367069            2 
  558000    1.0353802   -3.1442066    542.54428  0.081025131   0.08233833            5 
  559000    1.0210005   -3.1493882    540.53382  0.080580473  0.082309659            3 
  560000    1.0249085   -3.1253664    545.28905  0.081144204  0.082280464            3 
  561000    1.0408863   -3.1545167    543.17132  0.080684985  0.082252107            2 
  562000    1.0271352   -3.1386374     544.6204  0.080756287  0.082223744            2 
  563000    1.0195385   -3.1235389    544.27236  0.080561331  0.082194648            1 
  564000    1.0363723   -3.1378129    544.40255  0.080437729  0.082166281            2 
  565000    1.0493426   -3.1283572    544.26471  0.080275031  0.082137608            3 
  566000    1.0502418     -3.12155     546.8382  0.080512102  0.082109215            3 
  567000    1.0056581    -3.153869    548.14004   0.08056144  0.082080883            2 
  568000    1.0382951   -3.1278274    549.04967  0.080553062  0.082051632            2 
  569000    1.0242375   -3.1535488    547.68056  0.080210978  0.082023011            3 
  570000    1.0310771   -3.1545023    548.74917  0.080226486  0.081993689            4 
  571000    1.0060566   -3.1619408    550.41639  0.080329304  0.081963339            4 
  572000    1.0336301   -3.1500475     550.2737   0.08016808  0.081932737            1 
  573000     1.038303   -3.1797569    551.05369  0.080141607  0.081902752            5 
  574000    1.0017845   -3.1197245    554.86473  0.080555275  0.081872841            3 
  575000    1.0492766   -3.1577597    553.01541  0.080147161  0.081843816            2 
  576000    1.0281928   -3.1559286    555.94665  0.080432096   0.08181467            4 
  577000    1.0349844   -3.1944293    552.74039  0.079829634  0.081785322            2 
  578000    1.0437456   -3.1178644     557.0303   0.08031002    0.0817563            1 
  579000    1.0078365   -3.1354435    559.40045  0.080512443  0.081727594            3 
  580000    1.0151313   -3.1310549    558.57918  0.080255629  0.081699985            1 
  581000    1.0196935   -3.1765467    556.09649  0.079761402  0.081669662            3 
  582000     1.016891    -3.161464    557.16362  0.079777151  0.081638386            2 
  583000     1.034165   -3.1404103    558.69854  0.079859711  0.081608642            4 
  584000    1.0277767   -3.1489548    561.45048  0.080115651  0.081578959            3 
  585000     1.007385   -3.1424535    561.05785  0.079922771  0.081549031            1 
  586000    1.0305195   -3.1675556     560.8518  0.079757082  0.081517772            1 
  587000    1.0420134    -3.113313    564.92295  0.080199169  0.081487872            4 
  588000    1.0125946   -3.1457672    563.62752  0.079879183  0.081456455            2 
  589000    1.0497499   -3.1476376    562.09799  0.079527163  0.081426626            3 
  590000   0.99442214   -3.1679888    565.53689  0.079878092  0.081396247            2 
  591000    1.0140092   -3.1675304    563.50257  0.079456088  0.081365554            2 
  592000    1.0367702   -3.1379258    566.16985  0.079697333  0.081335263            3 
  593000    1.0184023   -3.1608978    570.15062  0.080122347  0.081305461            3 
  594000    1.0215176   -3.1485133    568.14223    0.0797057  0.081276249            5 
  595000    1.0215845   -3.1595092    567.71201  0.079511486  0.081245628            2 
  596000    1.0274371   -3.1505983    569.71154  0.079657654  0.081216503            5 
  597000    1.0012735   -3.1801047    571.23139  0.079736374   0.08118784            2 
  598000    1.0127147   -3.1906046    571.86606  0.079691479  0.081158194            2 
  599000   0.99486115   -3.1479207    570.25529  0.079334347  0.081128836            4 
  600000    1.0043655   -3.1748365    572.22361  0.079475501  0.081098972            3 
  601000    1.0211458    -3.154588    574.45249  0.079652315  0.081070218            2 
  602000    1.0157925   -3.1489383    574.89327  0.079581017  0.081042205            2 
  603000    1.0038407   -3.1406229    575.84654  0.079580783  0.081012903            3 
  604000    1.0061394     -3.14337    577.93871  0.079737681  0.080983354            2 
  605000    1.0310235   -3.1482856    575.27276  0.079238673  0.080953315            4 
  606000    1.0048577     -3.14569    577.31147  0.079388265  0.080922558            2 
  607000    1.0239581   -3.1497803    577.97918  0.079349146  0.080891083            2 
  608000    1.0266413   -3.1519618    575.03944  0.078815713  0.080859382            3 
  609000    1.0289049   -3.1633161    577.95568  0.079085342   0.08082638            3 
  610000    1.0132575   -3.1550091    574.55267  0.078490802    0.0807928            2 
  611000     1.009937   -3.1827075    578.39599  0.078886523  0.080758182            2 
  612000   0.98930418   -3.1547816    578.36908  0.078753959  0.080723572            1 
  613000    1.0169705   -3.1582524    579.64957  0.078799561  0.080688676            3 
  614000    1.0071972   -3.1810273    579.22452  0.078613534   0.08065508            1 
  615000   0.99979762   -3.1840635    578.97576     0.078452  0.080620296            3 
  616000    1.0233953   -3.1858886     582.3452  0.078780466  0.080585987            2 
  617000    1.0149019    -3.167069    579.89216   0.07832147   0.08055123            4 
  618000    1.0267228   -3.1671404     582.1416  0.078498058   0.08051746            5 
  619000    1.0077762   -3.1482793    585.85669   0.07887139  0.080483311            4 
  620000    0.9973467   -3.1918405    581.36304  0.078140193  0.080448778            5 
  621000    1.0007714   -3.1671041    586.16626  0.078658919  0.080413733            2 
  622000    1.0147246   -3.1938667    583.67564  0.078198773   0.08037891            5 
  623000    1.0090152   -3.1415577     586.1956  0.078410326  0.080344502            4 
  624000    1.0116388    -3.159235    587.24465  0.078424766  0.080310509            2 
  625000    1.0076706   -3.1843116    587.51467   0.07833529  0.080276685            3 
  626000    1.0120635   -3.1746138    589.11319  0.078422949  0.080242312            2 
  627000    1.0002524   -3.1985812     591.5465  0.078621279  0.080209445            3 
  628000   0.98040684   -3.1444997    591.15148  0.078443668  0.080175426            3 
  629000    1.0036264   -3.1362144    592.06171  0.078439548  0.080144037            3 
  630000    1.0079191   -3.1696469    593.26015  0.078473564  0.080111958            4 
  631000    1.0180113   -3.1781095    594.26807  0.078482312  0.080079473            2 
  632000     0.980153   -3.1700125    594.17962  0.078346469  0.080046375            3 
  633000   0.98919663   -3.1985562    593.30133  0.078107073  0.080012519            2 
  634000   0.99387317   -3.1812175     595.7295  0.078303036   0.07997963            2 
  635000    1.0088354    -3.189716    597.98645  0.078475911  0.079947266            5 
  636000   0.99545103   -3.1884627    597.00459  0.078223871  0.079915932            6 
  637000   0.98255176   -3.1657038    598.38944  0.078282239  0.079883134            2 
  638000   0.99651618   -3.1518324    598.43322  0.078165258  0.079851028            2 
  639000    1.0369226   -3.1846188    600.69919  0.078338445  0.079818954            2 
  640000    1.0119861   -3.1631113    599.59699  0.078072524  0.079786958            2 
  641000   0.99701681   -3.1992279    601.28367  0.078170004  0.079754826            1 
  642000   0.99250934   -3.1597799    604.85546  0.078511872  0.079722477            1 
  643000    1.0047481   -3.1624756    600.42243  0.077815245   0.07968973            1 
  644000    0.9975749   -3.1721642    600.13892  0.077657728  0.079657921            2 
  645000   0.98200015   -3.1579538    604.96542  0.078160907  0.079625496            3 
  646000   0.98433168    -3.204664    604.79196  0.078017538   0.07959356            3 
  647000    1.0030015   -3.1827027    605.85738   0.07803418  0.079561079            4 
  648000    1.0041609   -3.2243692    604.87646  0.077787611  0.079528277            2 
  649000   0.98000686   -3.1908188    609.76232   0.07829511  0.079496225            1 
  650000   0.98212847   -3.1766068    606.88104  0.077805262  0.079465605            2 
  651000    1.0265869   -3.1726169    609.00295  0.077957367  0.079434638            2 
  652000   0.99134311     -3.20147    608.75476  0.077806079  0.079404253            1 
  653000    1.0041126   -3.1595979    612.61403  0.078179432  0.079374125            2 
  654000   0.98530499   -3.1926406    610.14695  0.077745534  0.079344008            3 
  655000   0.99038966   -3.2260017    610.06392  0.077616274  0.079312048            6 
  656000    1.0024096   -3.1661697    613.28254  0.077906827  0.079281024            3 
  657000    1.0154437   -3.1835305    614.39919  0.077929882  0.079250903            3 
  658000   0.98216886   -3.1921723    612.98363  0.077632172  0.079220923            3 
  659000    1.0030602   -3.1947764    613.99199   0.07764188  0.079190521            2 
  660000   0.99359074   -3.1741186    616.98407  0.077902029  0.079160521            2 
  661000   0.99671992   -3.1804717    614.35481  0.077452699  0.079129746            1 
  662000   0.99847689   -3.1965154    617.70855  0.077757873  0.079098996            1 
  663000   0.99498133   -3.1988229    618.77308  0.077774394  0.079067115            1 
  664000   0.97777859   -3.1949761    616.61432  0.077386336  0.079036125            4 
  665000   0.99149091   -3.1807812    618.92956  0.077560095  0.079004632            2 
  666000   0.99457558   -3.2075279    619.14748  0.077470906  0.078974157            3 
  667000   0.98408712   -3.1612956     620.4957  0.077523201  0.078941818            5 
  668000    0.9798526   -3.2006863    618.79802  0.077195361  0.078910215            2 
  669000   0.96539837   -3.2143893    619.43919   0.07715984  0.078877739            2 
  670000   0.99089809   -3.1988216    621.49575  0.077300466  0.078843658            2 
  671000   0.97374603   -3.1957708    620.90221  0.077111551  0.078811521            2 
  672000   0.99396792   -3.1838916    622.00601  0.077133681  0.078778747            4 
  673000   0.97777731   -3.2048621    623.62538  0.077219587  0.078745865            5 
  674000   0.99085059   -3.1839155    624.93053  0.077266386  0.078713436            1 
  675000   0.97112168   -3.1906797    623.49448  0.076974627  0.078681001            3 
  676000   0.96189701   -3.2144371    624.91964  0.077036445  0.078648598            3 
  677000    1.0212413   -3.2024403    627.47857  0.077237638  0.078616147            2 
  678000   0.95594643   -3.1782759     627.0898  0.077075934   0.07858357            2 
  679000   0.97715732   -3.1810701    628.32199  0.077113646  0.078552235            4 
  680000   0.99127472   -3.2146347    626.95295  0.076832469  0.078520529            3 
  681000   0.96934975   -3.2042006    629.18085  0.076992273    0.0784886            4 
  682000   0.97393091   -3.1966712    629.55384  0.076924956  0.078456957            3 
  683000   0.98867581   -3.1967436    629.54206   0.07681089  0.078425781            2 
  684000   0.99756752   -3.2116672    632.43102  0.077050563  0.078394433            3 
  685000   0.96770299   -3.1962623    633.95087  0.077122977  0.078364327            3 
  686000   0.99163102   -3.2018727    637.11336  0.077394723  0.078334279            4 
  687000   0.97739789   -3.2001953      637.489  0.077327632  0.078306322            2 
  688000   0.98042605   -3.2162068    637.43512  0.077208711  0.078277227            4 
  689000   0.98840701   -3.2014569    637.38605  0.077090718  0.078247423            2 
  690000    0.9954639   -3.2025067    638.75712   0.07714458  0.078217871            1 
  691000   0.97930732   -3.2034207    638.73778  0.077030605   0.07818905            2 
  692000   0.95967958   -3.2174289    639.77028  0.077043627  0.078158737            2 
  693000   0.98317723    -3.197976    638.64769  0.076797461  0.078127884            2 
  694000    0.9786687   -3.2123288    639.24242  0.076758216  0.078097697            5 
  695000    1.0014992   -3.1843017     640.9897  0.076857279  0.078066405            1 
  696000   0.99497046   -3.1924677    641.50991  0.076809137  0.078035094            3 
  697000   0.96747556   -3.2038644    639.79883  0.076494361  0.078004091            2 
  698000   0.98554126   -3.2329845    641.05864  0.076535177  0.077971792            2 
  699000   0.97622583   -3.2072786    642.29929  0.076573592  0.077939832            3 
  700000     0.984349   -3.2144599    642.74121  0.076516811   0.07790653            2 
  701000   0.97799284   -3.2037117    640.93496  0.076192934   0.07787369            4 
  702000   0.95103507   -3.2221974    639.44776  0.075907853  0.077839985            3 
  703000   0.99880311   -3.2074774    644.11301  0.076352894  0.077806923            1 
  704000    0.9656323    -3.215481    644.53754   0.07629469   0.07777491            1 
  705000   0.99594315   -3.2149564    644.98829   0.07623975  0.077742841            3 
  706000   0.98642172   -3.1998293    646.16324  0.076270449  0.077710783            2 
  707000    0.9578862   -3.2211452    644.53599  0.075970767  0.077678595            4 
  708000   0.97766961   -3.2051482    645.82278  0.076014922   0.07764554            2 
  709000   0.96156143   -3.2325486    645.34543  0.075851602  0.077613381            1 
  710000   0.96726223   -3.2056716    649.23959  0.076201829  0.077579732            3 
  711000   0.97574264   -3.1903226    649.41725  0.076115477   0.07754667            3 
  712000   0.98442127   -3.2346133    648.57661  0.075910183  0.077514014            2 
  713000   0.96171964   -3.2005869    651.53105  0.076149024   0.07748137            3 
  714000   0.97116502    -3.220526    649.41122   0.07579496  0.077448183            2 
  715000   0.98807629   -3.2350374    649.76719  0.075730442  0.077414623            1 
  716000   0.95972827    -3.216995    651.71357  0.075851206  0.077380927            4 
  717000   0.97338958   -3.2026628    650.34548  0.075586411  0.077347275            2 
  718000   0.96405924   -3.2191922    652.71467  0.075756113  0.077314521            3 
  719000    0.9445136   -3.1889032    655.14552  0.075932489  0.077281186            1 
  720000   0.95703134   -3.2235529    654.07982  0.075703683  0.077248255            3 
  721000   0.97625674   -3.2237365    656.27579  0.075852495  0.077215858            2 
  722000   0.96080661   -3.2194482    655.76751  0.075688771  0.077183994            3 
  723000   0.96550272   -3.2181923    655.90742   0.07560021  0.077151965            2 
  724000   0.96691127   -3.2582895    657.74548  0.075707352  0.077119233            3 
  725000    0.9545358   -3.2336015    659.57141  0.075812806  0.077087005            4 
  726000   0.96266047   -3.2230035    657.36269  0.075454854  0.077054608            3 
  727000    0.9402281   -3.1992711    662.91331  0.075987313  0.077023793            7 
  728000    0.9443896   -3.2145126    660.15174  0.075566819  0.076992368            2 
  729000   0.96036407   -3.2206102    660.82638  0.075540281  0.076960992            2 
  730000   0.94969292   -3.2464468    661.69886  0.075536399  0.076929319            1 
  731000   0.95700704   -3.2241939    665.55927   0.07587315  0.076898739            2 
  732000   0.95993164   -3.2410792    664.36488  0.075633525  0.076868284            2 
  733000   0.96585849   -3.2275659    666.60531  0.075785051  0.076837553            3 
  734000   0.94911622   -3.2423804    664.45921  0.075438149  0.076806256            3 
  735000   0.95285408   -3.2773528    664.10568  0.075295428  0.076774886            7 
  736000    0.9566668    -3.213729    666.33901  0.075445993  0.076744134            2 
  737000   0.95380651   -3.2186825    664.93801  0.075185212  0.076713016            3 
  738000   0.97535102   -3.2090596    666.61354  0.075272531  0.076681591            3 
  739000   0.95145149   -3.2296802    668.65968  0.075401408  0.076649217            5 
  740000   0.95599949   -3.2695921    668.04669  0.075230483  0.076617062            5 
  741000   0.98817369    -3.246158    667.77315  0.075098195  0.076583949            4 
  742000   0.95927182   -3.2346384    671.47249  0.075412454   0.07655139            2 
  743000   0.95434654    -3.233458    668.20172  0.074944113  0.076518431            5 
  744000   0.94863901   -3.2497495    668.85947  0.074917055  0.076485256            2 
  745000   0.94914538   -3.2232233    673.35246  0.075319067  0.076452884            3 
  746000   0.96142079   -3.2429147    671.08464  0.074964772  0.076421266            5 
  747000   0.94347075   -3.2494509    672.92535  0.075069763  0.076389715            3 
  748000   0.93098016   -3.2203333    676.52221  0.075370121   0.07635845            2 
  749000   0.96929508   -3.2350602    673.23824  0.074904121  0.076327236            1 
  750000   0.95815298   -3.2541087     674.7928  0.074976978  0.076295608            2 
  751000   0.94100782   -3.2403158    674.81268  0.074879347  0.076263011            3 
  752000   0.94891457   -3.2603437    673.46249  0.074630151   0.07623071            3 
  753000    0.9646102   -3.2368111    679.28539  0.075175453  0.076198343            2 
  754000    0.9503582   -3.2333882    678.53457  0.074992769   0.07616579            6 
  755000   0.96101226   -3.2458866    674.72996  0.074473505   0.07613276            2 
  756000   0.94578988    -3.228893    676.65446  0.074587131  0.076099675            3 
  757000   0.94616364   -3.2611788    676.58569  0.074481031  0.076065773            3 
  758000   0.95321353   -3.2385734    675.47359  0.074260509  0.076031936            5 
  759000   0.96085837   -3.2625481    678.32695  0.074475949  0.075998352            3 
  760000    0.9566466   -3.2409219    679.96534  0.074557603  0.075964896            2 
  761000   0.94529522   -3.2409164    681.42105  0.074619037  0.075931937            4 
  762000   0.94213874   -3.2446216    679.06345  0.074263281  0.075898787            3 
  763000   0.93975812   -3.2731404    680.69235  0.074343856  0.075865766            4 
  764000    0.9503149   -3.2631437    683.12644  0.074512046   0.07583299            5 
  765000   0.95234631   -3.2365657    683.20021  0.074422681  0.075800576            3 
  766000   0.95056399   -3.2358797    684.43015  0.074459328   0.07576724            3 
  767000   0.95551423   -3.2653593    685.21408  0.074447423  0.075733614            2 
  768000   0.95565958   -3.2198405    685.52108  0.074383798  0.075700744            3 
  769000   0.94759376   -3.2793392    685.74556  0.074311396   0.07566796            5 
  770000   0.96136919   -3.2381173    687.00055  0.074350709  0.075634051            3 
  771000   0.95863551   -3.2320377    686.99496  0.074253671  0.075599986            2 
  772000   0.95042645   -3.2217106     688.5498  0.074325323  0.075567199            2 
  773000   0.96022576   -3.2504327     688.7968    0.0742558  0.075534596            4 
  774000   0.93245569    -3.247726    689.37368  0.074221972  0.075502306            3 
  775000    0.9650862   -3.2483602    691.17052  0.074319411  0.075468819            2 
  776000   0.95154313   -3.2672669    689.09547  0.074000802   0.07543573            1 
  777000   0.93538374   -3.2408322    689.62383  0.073962229  0.075402353            2 
  778000   0.93258493   -3.2271279    690.43227  0.073953757    0.0753692            2 
  779000   0.95099609   -3.2704655    689.46199  0.073755027   0.07533596            3 
  780000   0.92268857   -3.2439576    691.90978  0.073921985  0.075301936            3 
  781000   0.95335691   -3.2573106    689.89065  0.073611891  0.075268788            4 
  782000    0.9533662   -3.2297601    695.29463  0.074093631  0.075235545            2 
  783000   0.93733224   -3.2796419    692.78579  0.073731992  0.075202373            5 
  784000   0.95020498    -3.261444    692.52054  0.073609751  0.075168148            2 
  785000   0.93045938   -3.2402744     693.9175  0.073664278  0.075134947            3 
  786000    0.9475182   -3.2619992    694.95919     0.073681  0.075100607            3 
  787000   0.93928887    -3.253281     693.1943  0.073400498  0.075067375            2 
  788000   0.93144766   -3.2477009    694.17251  0.073410798  0.075033151            1 
  789000   0.92898594   -3.2292948    697.13102   0.07363023  0.074998793            2 
  790000   0.92280417   -3.2498859     696.4932  0.073469747  0.074964723            3 
  791000   0.93592084   -3.2892693    698.20225  0.073556917  0.074930169            2 
  792000   0.95129241   -3.2563861    700.42599   0.07369802  0.074896393            3 
  793000   0.93672917   -3.2615641    698.72329  0.073426155  0.074863123            3 
  794000   0.95515991   -3.2471051     699.2453  0.073388466  0.074830003            2 
  795000   0.92773622   -3.2741194    702.62173  0.073650077  0.074797604            4 
  796000   0.92824647   -3.2482508    700.77432  0.073364146  0.074764018            1 
  797000   0.93328638   -3.2739655    700.74104  0.073268615  0.074730531            3 
  798000   0.92756086   -3.2745011     704.8567  0.073606589  0.074697109            1 
  799000   0.95148267   -3.2793031    704.07291  0.073432719  0.074663809            3 
  800000   0.93477546   -3.2459298    703.12582  0.073242273  0.074630481            1 
  801000   0.93179545    -3.253051    703.24975  0.073163727   0.07459596            3 
  802000   0.94879102   -3.2610411    705.47038   0.07330324   0.07456197            2 
  803000   0.92027424   -3.2700501    706.31473  0.073299578  0.074528381            3 
  804000   0.91670356   -3.2886666    705.28242  0.073101411  0.074495027            5 
  805000   0.92192845   -3.3019335    704.17375  0.072895834  0.074461174            3 
  806000    0.9224863   -3.2737244    707.12664  0.073110695  0.074427062            3 
  807000   0.92912685   -3.2896348    708.24364  0.073135444  0.074392706            2 
  808000   0.94208796   -3.2795704    704.89891   0.07269997  0.074358614            1 
  809000   0.93140583   -3.2696027    708.21286  0.072951469  0.074324516            4 
  810000   0.92271064    -3.270547    707.45874  0.072783821  0.074291202            2 
  811000    0.9349524   -3.2862666    707.65278  0.072714013  0.074257497            2 
  812000   0.92750197   -3.2751712     709.5066  0.072814717  0.074224162            3 
  813000   0.92424445   -3.2896489    710.22167  0.072798449  0.074190136            3 
  814000   0.92431847   -3.2587925    710.61468   0.07274925  0.074156496            4 
  815000   0.92773561   -3.2804729    709.32514  0.072528133  0.074122948            3 
  816000   0.92748052   -3.2658499    712.23036  0.072735943  0.074088632            3 
  817000   0.92725626   -3.2638843    713.46243  0.072772586  0.074055106            6 
  818000   0.90726886   -3.2919357    711.87283  0.072521682  0.074020923            4 
  819000   0.92975228   -3.2824135     714.8677  0.072737861  0.073987563            3 
  820000    0.9256338   -3.2646337     717.2914  0.072895467  0.073954866            2 
  821000    0.9225132    -3.277812    715.10468  0.072584721   0.07392255            2 
  822000   0.92403236   -3.2834243    718.68326  0.072859211   0.07388987            2 
  823000   0.92523711   -3.2849828    722.44661  0.073151742  0.073857554            3 
  824000   0.93215067   -3.2859359    718.42492  0.072656242  0.073825792            2 
  825000   0.93156882   -3.2745935    718.58335  0.072584176  0.073794634            2 
  826000   0.94564799   -3.2552469    719.34018  0.072572657  0.073762727            4 
  827000   0.92088624   -3.2718233    722.78776  0.072832301  0.073731044            2 
  828000   0.92189749   -3.2764378    722.12927  0.072678067  0.073699836            5 
  829000   0.92881379    -3.290966    721.96762  0.072574148  0.073667169            5 
  830000   0.93152433   -3.2709555    721.47771  0.072437521  0.073634456            3 
  831000   0.92107375   -3.2891796    721.37835  0.072340388  0.073601477            2 
  832000   0.94001322   -3.2752551    721.90088  0.072305777  0.073568037            2 
  833000   0.90522662   -3.3073622    719.63212  0.071992009  0.073534695            1 
  834000   0.94073471   -3.2740455    721.63897  0.072106212  0.073500952            2 
  835000   0.90969385   -3.2743448    723.54909  0.072210488  0.073466903            3 
  836000   0.92641517   -3.2893248    720.60975  0.071831116  0.073432789            3 
  837000   0.90871006    -3.292523    722.47449  0.071930953  0.073398783           10 
  838000    0.9064112   -3.2889871    724.81819  0.072078182  0.073363942            3 
  839000    0.9072597    -3.268754    723.77775   0.07188893   0.07332932            3 
  840000   0.92788295   -3.2944422    723.71646  0.071797267  0.073295029            2 
  841000   0.93271777   -3.2705321    724.06276  0.071746211  0.073261264            5 
  842000   0.90517833    -3.292784    723.48483  0.071603803  0.073226803            6 
  843000   0.91136838   -3.2988047    727.54255  0.071919983  0.073192999            4 
  844000   0.93225092   -3.2927448    726.99894  0.071781096  0.073159658            1 
  845000   0.92568115   -3.3152894    730.34166  0.072025805  0.073126657            5 
  846000   0.91368932    -3.287033    727.33188  0.071644196  0.073092801            4 
  847000   0.90832144   -3.2748925    729.89028  0.071811322  0.073059247            5 
  848000   0.90364247   -3.2603907    730.61702  0.071798057  0.073025208            1 
  849000   0.90248396   -3.2691426    728.62894  0.071518349  0.072991299            1 
  850000   0.90545381   -3.3184316    729.21147   0.07149132  0.072956939            6 
  851000   0.91826521   -3.3015735    731.01104  0.071583533  0.072922955            7 
  852000   0.91633861   -3.3057168    729.81424  0.071382457  0.072889214            2 
  853000   0.92224681   -3.2887396    730.67665  0.071383026  0.072854535            2 
  854000   0.91393332    -3.315801    733.12148  0.071538005  0.072820266            3 
  855000   0.89594039   -3.3051691    733.84213  0.071524574  0.072786175            3 
  856000   0.91415401   -3.2791033    732.12052  0.071273415   0.07275245            5 
  857000   0.88499477   -3.2973637    732.39804  0.071217234  0.072718679            3 
  858000   0.91431539   -3.2817218    732.72426  0.071165915  0.072684821            1 
  859000   0.89494706   -3.3043049    734.34014  0.071239827  0.072650475            2 
  860000   0.90618363   -3.2831011    738.37117  0.071547594   0.07261664            2 
  861000   0.90485234   -3.2763193    734.00976  0.071042369  0.072582472            4 
  862000    0.8945617   -3.2698193    735.89187  0.071141906  0.072548463            2 
  863000   0.90282403   -3.3019247    735.12555  0.070985473  0.072514583            2 
  864000    0.8970584   -3.3107596    738.57344  0.071235864    0.0724799            2 
  865000    0.9084795   -3.2968483    739.18635  0.071212558  0.072445781            1 
  866000   0.92329406   -3.3176093    736.83325  0.070903892  0.072410935            5 
  867000   0.90412487   -3.3183741    738.03819  0.070937926  0.072376303            2 
  868000   0.89506616   -3.3120115    737.54037  0.070808408  0.072341703            1 
  869000   0.92485261   -3.3003107    737.02237   0.07067725  0.072307397            3 
  870000     0.898536   -3.3259947     739.7091  0.070853362  0.072273178            2 
  871000   0.91853812     -3.31549    740.92692   0.07088853  0.072238148            3 
  872000   0.92114681   -3.3282804    743.92839  0.071094073   0.07220438            3 
  873000   0.90323779    -3.302299    741.80717  0.070810154  0.072170834            3 
  874000   0.91376909   -3.3037481    743.39649  0.070880672  0.072136247            3 
  875000    0.8993181   -3.3117595    741.72169  0.070640161  0.072102322            3 
  876000   0.90118589   -3.3079659    744.85681  0.070857763  0.072067501            9 
  877000   0.87890187   -3.2933033    745.16375  0.070806133  0.072033179            4 
  878000   0.90995746   -3.3072587    745.22085  0.070730908  0.071998441            3 
  879000   0.91665469   -3.3138029    742.80644  0.070421543  0.071963657            5 
  880000   0.91272725   -3.3106236    744.50302   0.07050218  0.071929182            4 
  881000   0.90842266   -3.3387136    740.34564   0.07002891  0.071894409            2 
  882000   0.90640834   -3.2785161    748.13708  0.070685665  0.071859378            1 
  883000   0.89874838   -3.3097807    748.65514  0.070654506  0.071824797            1 
  884000   0.90018845   -3.3300064    743.35219  0.070074678  0.071789104            2 
  885000   0.89194808      -3.2933    748.21998  0.070453858  0.071754486            3 
  886000   0.90929491   -3.3349431    746.80931  0.070241658  0.071719188            2 
  887000   0.91172916   -3.3321549    747.94641  0.070269298  0.071684639            5 
  888000   0.87841474    -3.314392     743.6539  0.069787341  0.071649466            5 
  889000   0.90821764   -3.3014297    750.63906  0.070363617   0.07161446            4 
  890000   0.89227298   -3.3145324    749.98551  0.070223362  0.071579331            3 
  891000   0.90576081    -3.351481    749.43359  0.070092929  0.071543888            4 
  892000   0.90056938   -3.3408989    752.21065   0.07027379   0.07150861            6 
  893000   0.91241806   -3.3056723    752.18141  0.070192368  0.071473554            2 
  894000   0.89010082   -3.3228655    748.53895  0.069774324   0.07143797            3 
  895000   0.89861014   -3.3202468    748.62133  0.069704035    0.0714023            2 
  896000   0.91389682   -3.3224005    750.39875   0.06979155  0.071366657           11 
  897000   0.90487787   -3.3119805    751.51297  0.069817259  0.071331033            8 
  898000   0.89445196   -3.3291991    753.56113  0.069929578  0.071294715            2 
  899000   0.88656571   -3.2969751    753.53793  0.069849641   0.07125923            2 
  900000   0.88239855   -3.3438027    753.66352  0.069783659  0.071223329            2 
  901000   0.89085146   -3.3283921    751.13115  0.069471989   0.07118734            2 
  902000   0.91256097    -3.316241    755.62408  0.069810059  0.071151564            3 
  903000   0.90947337   -3.3367722      753.142  0.069503691  0.071116264            5 
  904000   0.88778492   -3.3207465    753.98249  0.069504285  0.071080487            1 
  905000     0.915129    -3.315115    753.91662   0.06942142  0.071044195            2 
  906000   0.88873796    -3.335114    752.94761  0.069255667  0.071007777            3 
  907000   0.88171485   -3.3471495    751.68397   0.06906321  0.070971179            4 
  908000    0.8938203    -3.301098    755.69491  0.069355259  0.070934187            6 
  909000   0.91113892   -3.3485615    755.99634  0.069306595  0.070897323            3 
  910000   0.90564355   -3.3355194    760.08346  0.069604712  0.070860888            6 
  911000   0.89090677    -3.350498    755.97494  0.069152483  0.070824528            7 
  912000   0.88404902   -3.3127257    760.44573  0.069485173  0.070788523            2 
  913000   0.88904431   -3.3445171    759.24729   0.06929968  0.070752951            5 
  914000    0.9050907   -3.3350242    758.93829  0.069195687  0.070717634            3 
  915000   0.88461648   -3.3173722     759.8589  0.069203907  0.070682345            5 
  916000   0.90761922   -3.3343485     760.1688   0.06915655  0.070646525            3 
  917000   0.89537543    -3.331914    760.58497  0.069118954  0.070610476            3 
  918000   0.90022339   -3.3281781    760.41408  0.069028148  0.070574668            4 
  919000    0.8768968   -3.3049757    764.17474  0.069294046  0.070538378            4 
  920000   0.89362298   -3.3216188    762.80086  0.069094281   0.07050216            2 
  921000   0.88929025   -3.3536387    761.70314  0.068919937  0.070466021            4 
  922000   0.89187234   -3.3136229    763.57649  0.069014506  0.070430684            4 
  923000   0.88196839   -3.3660403    760.68071  0.068678287  0.070394218            4 
  924000   0.89767943   -3.3609045    763.93698  0.068897635  0.070358108            3 
  925000   0.88486321   -3.3236789    764.20267  0.068847088  0.070322251            2 
  926000   0.87155839   -3.3323882    766.39374  0.068969919  0.070287463            3 
  927000   0.88832475   -3.3485918    766.44049   0.06889972  0.070252026            3 
  928000    0.8939533    -3.377092    763.84986   0.06859284  0.070216506            3 
  929000   0.87571393    -3.314038    768.31608  0.068919634   0.07018096            4 
  930000   0.87844876   -3.3182363    765.85056  0.068624602  0.070145607            3 
  931000   0.87549537   -3.3508417    766.56723   0.06861504  0.070110068            5 
  932000   0.89497015    -3.319178    768.01708  0.068671055  0.070074406            3 
  933000   0.88785299   -3.3272524    769.89663  0.068765329  0.070038762            5 
  934000   0.89242619   -3.3553147    767.34875  0.068464378  0.070003206            3 
  935000   0.89775311   -3.3538137    771.76783  0.068785011  0.069967571            6 
  936000   0.90445337    -3.329864    767.78366  0.068356807  0.069931968            3 
  937000   0.88936726   -3.3698424     767.9006  0.068294254  0.069896407            4 
  938000   0.87604157    -3.326524    771.97048  0.068583021  0.069860544            2 
  939000   0.89005212   -3.3521577    769.70014  0.068308497  0.069824569            5 
  940000   0.87940882   -3.3533171    768.70788  0.068147862  0.069788412            3 
  941000   0.90311641   -3.3230505     772.6574  0.068425204  0.069753042            5 
  942000   0.89156464   -3.3574476     773.8478  0.068457873  0.069718103            3 
  943000   0.88876181   -3.3713583    773.40494  0.068346142  0.069682828            1 
  944000   0.88414375   -3.3458195     773.8478  0.068312835  0.069647488            6 
  945000   0.87998727   -3.3578609    774.18829  0.068270572  0.069611937            2 
  946000   0.87880472   -3.3754703    772.53043  0.068052363   0.06957639            4 
  947000   0.88156396   -3.3752083    773.66244  0.068080116  0.069541148            2 
  948000    0.8523238   -3.3379079    778.08998  0.068397501  0.069506535            5 
  949000   0.86918677   -3.3423759    775.34654  0.068084522  0.069471089            3 
  950000   0.85088386   -3.3781802    773.12804  0.067818249  0.069435943            5 
  951000   0.88282966   -3.3482815    777.90004  0.068165093  0.069400554            7 
  952000   0.86776551    -3.350156    776.34604  0.067957461  0.069365505            3 
  953000   0.88086563   -3.3868938    779.07091  0.068124423   0.06933029            6 
  954000   0.86847085   -3.3584881    779.09005  0.068054686  0.069295616            2 
  955000    0.8806463   -3.3522139    778.04826  0.067892518  0.069260981            5 
  956000   0.87816013   -3.3362088    783.16157  0.068267222  0.069226557            2 
  957000   0.86746343   -3.3708469    782.20608  0.068112685  0.069192775            3 
  958000   0.87232824   -3.3695799    779.31906  0.067790454  0.069158726            2 
  959000   0.86382901   -3.3616586     781.7536  0.067931317  0.069124697            4 
  960000   0.85903656   -3.3817925      783.824  0.068040278   0.06909025            2 
  961000   0.88324292   -3.3565301    782.69364  0.067871457  0.069056372            3 
  962000   0.86404805   -3.3844542    782.37221  0.067773061  0.069022569            1 
  963000   0.87862591   -3.3627039     785.5347   0.06797635  0.068988351            9 
  964000    0.8596422   -3.3519178    784.41631  0.067809155  0.068954161            4 
  965000   0.85546089   -3.3561362    784.63766  0.067758001  0.068919678            4 
  966000   0.86913719   -3.3751902    785.12649  0.067730029  0.068885851            4 
  967000   0.86131919   -3.3440688    789.30185  0.068019808   0.06885256            4 
  968000   0.87385222   -3.3279281    789.08926  0.067931238  0.068819211            2 
  969000   0.88261426   -3.3429412    788.30092  0.067793336  0.068786238            9 
  970000   0.85419937   -3.3688698    789.54626  0.067830434  0.068753129            3 
  971000    0.8568787   -3.3689324    791.03422  0.067888278  0.068719977            4 
  972000   0.86950301   -3.3410719    790.19363  0.067746367  0.068687035           10 
  973000   0.85922587   -3.3738494    787.75835  0.067468169  0.068653762            3 
  974000    0.8812441   -3.3472555    789.52488  0.067550041  0.068620245            3 
  975000   0.85057249   -3.3560512    791.92973  0.067686301  0.068586944            8 
  976000   0.85141293   -3.3573963    789.28927  0.067391502  0.068553466            2 
  977000   0.86123069   -3.3793606    790.11177  0.067392679  0.068520483            3 
  978000   0.84280497   -3.3612286    791.53521  0.067445059  0.068486644            3 
  979000   0.86275875   -3.3460696    792.20397  0.067433092  0.068452604            6 
  980000    0.8591848   -3.3492041    792.01106  0.067347879  0.068419044            6 
  981000    0.8583035    -3.367142    795.13758  0.067544816  0.068385725            3 
  982000   0.86238772   -3.3796394    792.76532  0.067274721  0.068352162            6 
  983000   0.85581155   -3.3754874    791.49338  0.067098455  0.068317934            4 
  984000   0.86360846   -3.3974624    793.77755  0.067223708  0.068284301            3 
  985000   0.90014245   -3.3940528    795.20792  0.067276473  0.068251023            4 
  986000   0.84749242    -3.378832    794.57493  0.067154744  0.068217109            3 
  987000   0.86058604   -3.3743601    793.69042  0.067012025    0.0681829            4 
  988000   0.87879612   -3.3883106    795.04579  0.067058518  0.068149186            2 
  989000   0.86177262   -3.3723628    797.70104  0.067214445  0.068115539            6 
  990000   0.87408679   -3.4212403     794.9115  0.066911743  0.068081511            3 
  991000   0.85996836   -3.3685352    800.16919  0.067286343  0.068047603            3 
  992000   0.86822777   -3.3748526    797.24507  0.066972872  0.068014502            2 
  993000   0.85198428   -3.3399115    803.22517  0.067407282   0.06798101            4 
  994000   0.86862414   -3.3685625    800.55682  0.067115763  0.067948136            4 
  995000   0.85568505    -3.383173    800.53772   0.06704671  0.067915344            2 
  996000   0.85464466    -3.410011    800.75151  0.066997282  0.067882153            5 
  997000    0.8510948   -3.3874212    799.67568  0.066840161  0.067848688            3 
  998000   0.86054773   -3.3585934    798.52628  0.066677211  0.067815325            9 
  999000   0.83263312   -3.3685444    803.00711  0.066984244  0.067782008            8 
 1000000   0.85636707   -3.3776051    802.10858  0.066842382  0.067748828            4 
 1001000   0.86917564   -3.3684307    804.00217  0.066933248  0.067715922            4 
 1002000   0.84722391   -3.3494456    805.47863  0.066989241  0.067683631            2 
 1003000   0.86035652   -3.3907166    804.35242  0.066828882  0.067651442            3 
 1004000   0.85254742   -3.3876575    807.66885  0.067037587  0.067618863            7 
 1005000   0.85402284    -3.382896    808.71382  0.067057531  0.067586258            4 
 1006000   0.86221088   -3.3982964    805.47906  0.066722918  0.067553437            4 
 1007000   0.83470646   -3.3878958    804.19399  0.066550313  0.067521467            5 
 1008000   0.84231109   -3.3892037     806.7626  0.066696643  0.067489051            7 
 1009000   0.83753724   -3.3752748    808.85958  0.066803731  0.067456742            4 
 1010000   0.84923602    -3.373387    808.06443  0.066671983    0.0674245            4 
 1011000   0.86932044   -3.4096279     805.0602  0.066358408  0.067392045            3 
 1012000   0.85080714    -3.399216    808.28171  0.066558112  0.067359463            4 
 1013000    0.8479358    -3.384623    808.80487  0.066535445  0.067326693            4 
 1014000   0.85347301   -3.3786633    809.39667  0.066518464    0.0672939            2 
 1015000   0.85545543   -3.3801703    809.62121  0.066471363  0.067261939            3 
 1016000   0.84858259   -3.4013904    808.40886  0.066306501  0.067229768            3 
 1017000   0.85222459   -3.3726808      811.929  0.066529745  0.067198344            2 
 1018000   0.84230929   -3.3914119    814.73353  0.066693969  0.067167176            5 
 1019000   0.85177611   -3.4118091    811.29276  0.066347134  0.067135599            2 
 1020000   0.83794455   -3.4024533    811.05169  0.066262393  0.067103739            3 
 1021000   0.86161631   -3.3927531     813.6914  0.066412945  0.067071806            3 
 1022000   0.82487121   -3.4159269    813.58553  0.066339329   0.06703998            8 
 1023000   0.85614899   -3.3850536    814.34701  0.066336511  0.067007885            4 
 1024000   0.82615213   -3.4376504    811.96411  0.066077809   0.06697606            7 
 1025000   0.86370873   -3.3864682    817.61923  0.066473108  0.066944837            5 
 1026000   0.84347966   -3.3899101    817.67061  0.066412493  0.066913427            6 
 1027000   0.84895049   -3.4314855    817.18462  0.066308392  0.066881388            8 
 1028000   0.83183047   -3.4032271    815.58861  0.066114511  0.066849905            5 
 1029000    0.8392359   -3.3996135    816.41185   0.06611693  0.066818396            4 
 1030000   0.83737439   -3.3751992    820.41066  0.066376267  0.066786948            5 
 1031000   0.85883038   -3.3890906    819.58204  0.066244911  0.066755784            3 
 1032000    0.8418288   -3.3839299    821.47582  0.066333642  0.066724788            2 
 1033000    0.8401324   -3.4146944    819.42883  0.066104294  0.066693894            2 
 1034000   0.82965161   -3.4142912     820.3637  0.066115707   0.06666236            2 
 1035000   0.84189755   -3.4198728    818.23328  0.065880296  0.066630702            3 
 1036000   0.83900209   -3.3961843    818.91605  0.065871626  0.066599728            2 
 1037000   0.83778422   -3.3932921    824.16946  0.066230269  0.066568334            3 
 1038000   0.84539518    -3.423547    821.80391   0.06597655  0.066536781            3 
 1039000   0.83017859   -3.3879085    822.55293  0.065973126  0.066505475            2 
 1040000   0.84826066   -3.4171993    822.28135  0.065887929  0.066474387            4 
 1041000    0.8401633   -3.4015127    825.04513   0.06604588  0.066443021            3 
 1042000   0.82455303   -3.4010165    822.68386  0.065793654  0.066411638            8 
 1043000   0.83964281   -3.4230611     825.7911  0.065978835  0.066379665            4 
 1044000    0.8243453   -3.4341884    821.35523  0.065561561  0.066347563            4 
 1045000   0.83847621   -3.3782146    824.23287  0.065728299  0.066315996            3 
 1046000   0.81525181   -3.4299065    821.27235  0.065429601  0.066284518            3 
 1047000   0.82412597   -3.4207294    823.45535  0.065540859  0.066252503            6 
 1048000   0.83966057   -3.3902073    825.48134  0.065639419  0.066220849            2 
 1049000   0.82258789   -3.4165329     824.8514  0.065526803  0.066189234            3 
 1050000   0.84069912   -3.4161366    827.72359  0.065692349  0.066157253            3 
 1051000   0.83015619   -3.3981604    826.30706  0.065517527  0.066125615            2 
 1052000   0.83178558   -3.4634692    822.16721  0.065127314  0.066093854            3 
 1053000   0.84504861   -3.4105947    826.74735  0.065427932  0.066061583            4 
 1054000   0.81988148   -3.4142717    826.78962  0.065369198  0.066029482            4 
 1055000   0.84653814   -3.4092206    827.48203  0.065361929  0.065997676            4 
 1056000   0.83862539   -3.4078859    825.38075  0.065134213  0.065965282            4 
 1057000   0.84539059   -3.4150907    826.66406  0.065173767  0.065932798            3 
 1058000   0.83462759   -3.4309927    827.47286  0.065175871  0.065899785            3 
 1059000   0.83633824   -3.4186487    825.24204  0.064938782  0.065866797            3 
 1060000   0.82192996   -3.4091409    827.62293  0.065064696  0.065834157            5 
 1061000   0.83183218   -3.4141468    828.80553  0.065096256  0.065801412            2 
 1062000   0.81785021   -3.4176878    829.22597  0.065067951  0.065768781            5 
 1063000   0.82650077   -3.4011654    829.53815  0.065031212  0.065736344            4 
 1064000   0.83035152   -3.4238488    828.45884  0.064885561  0.065703779            2 
 1065000   0.84224592   -3.4016833    830.31035  0.064969511  0.065671349            5 
 1066000   0.83534321   -3.4326714    832.65185  0.065091608  0.065638777            3 
 1067000   0.82258394   -3.4324293    829.44622  0.064780242  0.065606217            9 
 1068000   0.83642784   -3.4174526    830.91517  0.064834205  0.065573885            7 
 1069000   0.83696517   -3.4338787     831.6304  0.064829311  0.065541455            3 
 1070000   0.82817579   -3.4194959    833.24306  0.064894319  0.065508661            2 
 1071000   0.82001964   -3.4035297    832.43138  0.064770571  0.065476243            5 
 1072000   0.83319591   -3.4153783    834.34141  0.064858629  0.065443662            3 
 1073000    0.8235354   -3.4190022    837.22413  0.065022066  0.065411147            7 
 1074000   0.82410365   -3.4159301    834.83462  0.064776119  0.065378467            3 
 1075000   0.81967505   -3.4057291    832.44001  0.064530233  0.065346028            2 
 1076000   0.82961041   -3.4469904    830.80571  0.064343688  0.065313427           11 
 1077000   0.83521799   -3.4171426    833.78104  0.064514163  0.065280866            3 
 1078000   0.81926189   -3.4447694    834.08593  0.064477886  0.065248179            4 
 1079000   0.83494482   -3.4188649     835.9121  0.064559167   0.06521542            7 
 1080000    0.7979631   -3.4304065    835.81929  0.064492229  0.065182702            3 
 1081000   0.81752092   -3.4152063    834.67109  0.064344055  0.065149809            3 
 1082000   0.81251417   -3.4214634    834.66265  0.064283938  0.065117127            3 
 1083000   0.81199487   -3.4246628    837.89879  0.064473591  0.065084583            3 
 1084000   0.84760983   -3.4442633    838.80714  0.064483944  0.065052291            5 
 1085000   0.80654706    -3.438055    838.88568  0.064430543  0.065020213            3 
 1086000   0.81908229   -3.4270462    839.78217  0.064440007  0.064987864            6 
 1087000   0.81381684   -3.4293665    838.07846  0.064250112  0.064955498            5 
 1088000   0.80603343   -3.4460349    838.30468  0.064208385  0.064923356            6 
 1089000   0.80616016   -3.4647686    839.63067  0.064250893  0.064890591            7 
 1090000   0.82572782   -3.4384701    837.33715  0.064016602  0.064857979            5 
 1091000   0.80768575   -3.4303952    840.64037  0.064210233  0.064825703            2 
 1092000   0.81699848   -3.4314278    840.80982  0.064164364   0.06479375            1 
 1093000   0.83894042   -3.4564859    840.27798   0.06406511  0.064761247            3 
 1094000    0.8135305   -3.4604859    839.51302   0.06394828  0.064728858            4 
 1095000   0.81479274   -3.4214631    841.95021  0.064075358  0.064696492            5 
 1096000   0.80497789   -3.4540566    842.48791  0.064057779  0.064664794            3 
 1097000   0.81870253   -3.4442082    841.19653  0.063901286  0.064632871            3 
 1098000   0.80133652   -3.4365527     841.6628  0.063878476  0.064601079            6 
 1099000   0.81798546    -3.424112    843.94146  0.063993135   0.06456885            8 
 1100000    0.8250726    -3.468442    843.32977  0.063888619  0.064536238            7 
 1101000   0.81838869   -3.4435454    842.67686  0.063781173  0.064503711            2 
 1102000   0.81950631   -3.4460028     844.1469   0.06383446  0.064471606            4 
 1103000   0.81798628   -3.4380852    844.14235  0.063776243  0.064439045            2 
 1104000   0.80053278   -3.4517087    841.50304  0.063519251  0.064406525            3 
 1105000   0.80319864   -3.4796156    843.52771  0.063614457  0.064374233            4 
 1106000   0.80403772   -3.4305282    842.71741  0.063495887  0.064342039            2 
 1107000   0.79162742   -3.4332657    844.70989  0.063588519  0.064309816            3 
 1108000   0.80608836   -3.4674085    846.22029  0.063644727  0.064277399            4 
 1109000    0.7953171   -3.4271053    847.27249  0.063666403  0.064244821            5 
 1110000   0.79510476   -3.4351933    847.96237  0.063660838  0.064212704            3 
 1111000   0.81891212   -3.4616022    847.61155  0.063577224    0.0641805            4 
 1112000   0.81643056   -3.4582652    849.51223  0.063662487  0.064148244            5 
 1113000   0.82893756   -3.4621605    846.78865  0.063401366  0.064116223            2 
 1114000   0.81435292   -3.4636519    848.41984  0.063466475  0.064084189            2 
 1115000   0.80073236   -3.4482382    847.92339  0.063372451  0.064052469            5 
 1116000   0.80294701   -3.4407996    849.33352  0.063420962   0.06402056            2 
 1117000   0.78055915   -3.4461403    847.84761  0.063253328  0.063988363            2 
 1118000   0.80993413   -3.4352335    852.54488  0.063546875  0.063955955            3 
 1119000   0.80323668   -3.4739794    849.66099   0.06327532  0.063923502            5 
 1120000   0.80028392   -3.4229149    850.08152  0.063250113  0.063891062            3 
 1121000    0.8087871   -3.4486074    850.24671   0.06320597  0.063858977            3 
 1122000   0.79362763   -3.4737346    847.20121  0.062923441  0.063826658            5 
 1123000   0.81100391   -3.4910382    849.54866  0.063041604  0.063794099            5 
 1124000   0.80757036   -3.4604275    852.34934   0.06319316  0.063761777            7 
 1125000   0.80215899   -3.4579509    849.02228  0.062890539  0.063729303            6 
 1126000   0.80790311   -3.4741936    850.47731   0.06294237  0.063697112            5 
 1127000   0.81076101    -3.454216     853.5387  0.063112888  0.063664894            5 
 1128000   0.82472985   -3.4657014    852.55834  0.062984511  0.063633154            3 
 1129000   0.80793103    -3.442167    853.07717  0.062967019  0.063600794            7 
 1130000   0.79870361    -3.465103    853.42361  0.062936844  0.063568809            4 
 1131000    0.8145265   -3.4815495    854.42505  0.062954984  0.063536948            6 
 1132000   0.79805575    -3.448378    855.85409  0.063004571  0.063505259            2 
 1133000   0.79173521   -3.4537154    855.68306  0.062936383  0.063473764            5 
 1134000   0.79083152    -3.450353    856.99732  0.062977463  0.063442831            4 
 1135000   0.79625497   -3.4433024    859.19055  0.063083007  0.063411548            3 
 1136000   0.80928925   -3.4403268    857.01087  0.062867581  0.063380212            5 
 1137000   0.78365097   -3.4618902    856.94313  0.062807324  0.063348598            4 
 1138000   0.77765848   -3.4522347     858.3166  0.062852709  0.063316816            6 
 1139000   0.79198105   -3.4492023    859.85433  0.062910033   0.06328519            4 
 1140000   0.80346941   -3.4917895    856.87114  0.062636779  0.063253545            4 
 1141000   0.80956391    -3.454769     855.9269   0.06251292  0.063221863            4 
 1142000   0.80189469   -3.4603399    856.95639  0.062533303   0.06318975            3 
 1143000   0.81131469   -3.5088188    851.75577  0.062099429  0.063157479            3 
 1144000   0.81769476   -3.4788846    860.70323  0.062696913  0.063125209            5 
 1145000   0.79818503   -3.4519569    860.16408  0.062602917  0.063093033            3 
 1146000    0.8048919   -3.5012456    857.82755  0.062378385  0.063060914            5 
 1147000   0.82671881   -3.4624862     860.2523  0.062500167  0.063028863            3 
 1148000   0.80806869   -3.4733071    857.16555  0.062221657  0.062996399            7 
 1149000   0.80791261   -3.4565451    860.97834  0.062444034  0.062963955            2 
 1150000   0.78225828   -3.4622074    863.30997  0.062558693  0.062931678            8 
 1151000   0.78154137   -3.4882437    858.45901  0.062153128  0.062899556            5 
 1152000   0.80343614   -3.4792612    861.15292  0.062294048  0.062867354            3 
 1153000   0.78769188   -3.4851001    864.59111  0.062488516  0.062835464            2 
 1154000    0.7909327    -3.478954    860.21878  0.062118629  0.062803408            4 
 1155000   0.79646439   -3.4885589    863.02084  0.062267016  0.062771492            4 
 1156000   0.78856358    -3.482392    863.07751  0.062217237  0.062739729            3 
 1157000   0.78540952   -3.4809954    861.46326  0.062047195  0.062707848            5 
 1158000   0.79351031    -3.481609    861.66986  0.062008482  0.062675754            4 
 1159000   0.77714052   -3.4902192    860.68315  0.061884034  0.062643519            5 
 1160000   0.78349544    -3.482736    861.62432  0.061898299  0.062611133            3 
 1161000   0.78557882   -3.4874003    861.90495  0.061865127  0.062578769            3 
 1162000   0.78051549   -3.4385621    862.64958  0.061865288  0.062546585            5 
 1163000   0.77098617   -3.5009227    863.63789   0.06188291  0.062514197            6 
 1164000   0.77295253   -3.4601546    863.69118  0.061833561  0.062481706            4 
 1165000   0.78390189   -3.4895544    863.74242   0.06178415  0.062449483           10 
 1166000    0.7997906   -3.5005279    862.65942  0.061653761  0.062417209            4 
 1167000   0.79447715   -3.5043237    867.55954  0.061950838  0.062384888            2 
 1168000   0.78137762   -3.4965845    864.75361  0.061697603  0.062352699            7 
 1169000   0.80011509   -3.4960212    866.91148  0.061798651  0.062320281            4 
 1170000   0.77870916   -3.4796639     865.6998   0.06165953  0.062287887            3 
 1171000   0.78367732   -3.4908958     869.0524   0.06184546  0.062255896            4 
 1172000   0.77764424   -3.4822682    866.84796  0.061635947  0.062223389            5 
 1173000   0.78544874   -3.5012572    867.12236  0.061602896  0.062190922            4 
 1174000   0.77369678     -3.49932    865.12898  0.061408928  0.062158383            2 
 1175000   0.79058453   -3.4684764    867.52419  0.061526538  0.062125696            5 
 1176000   0.77160141   -3.4834699    867.50351  0.061472754  0.062093196            2 
 1177000    0.7958977    -3.508121    864.33118   0.06119592  0.062060758            9 
 1178000   0.77389207   -3.4658222    866.68937  0.061310793  0.062028403            6 
 1179000   0.80149354   -3.4752668    870.25444  0.061510775  0.061996023            4 
 1180000   0.79501932    -3.479053    869.24207  0.061387152  0.061963777            4 
 1181000   0.79128737   -3.4954523     871.2639  0.061477837   0.06193132            5 
 1182000   0.78480425   -3.4973297    868.50187  0.061231096  0.061898852            2 
 1183000   0.77395633   -3.4901637    870.08675   0.06129098  0.061866203            4 
 1184000   0.78740803   -3.4867938    868.20721  0.061106927  0.061833861            7 
 1185000   0.76816832   -3.5021187    869.06564  0.061115727  0.061801223            5 
 1186000   0.78229364   -3.4995392    870.14056  0.061139725  0.061768832            8 
 1187000   0.78695377   -3.4991564    871.36695  0.061174316  0.061736149            7 
 1188000   0.77187422   -3.5008962    871.61597  0.061140289   0.06170372            9 
 1189000   0.79439205   -3.4771002    871.89252   0.06110825   0.06167164            2 
 1190000   0.77408734   -3.4834454    871.98216  0.061063177  0.061639655            7 
 1191000   0.78521508   -3.4749379    873.43081  0.061113267  0.061607581            2 
 1192000   0.78890924   -3.5008186    873.87632  0.061093143  0.061575627            6 
 1193000   0.76379201   -3.5323797    871.98877  0.060910084  0.061543678            4 
 1194000    0.7845185   -3.5036235    873.92817  0.060994428  0.061511135            5 
 1195000   0.80059548   -3.5002429    874.32398  0.060970989  0.061478887            2 
 1196000   0.76907025   -3.4836052    875.01127  0.060967898  0.061446556            8 
 1197000   0.78506262   -3.4854141    874.29519  0.060867111  0.061414428            5 
 1198000   0.77812818   -3.4881809    870.73227  0.060568466  0.061382203            6 
 1199000   0.77971666    -3.503894    874.14129  0.060754886  0.061349808            7 
 1200000   0.79204108   -3.5142495    874.11549  0.060702464  0.061317315           14 
 1201000   0.77801421   -3.4986445    876.51697  0.060818552  0.061284965            2 
 1202000    0.7749779   -3.5181758    872.43994  0.060485298  0.061252502            4 
 1203000    0.7667945   -3.4915107    876.72561  0.060731893  0.061219716            3 
 1204000   0.77538657   -3.5196197    873.16641  0.060435106  0.061187059            5 
 1205000   0.77519682   -3.5189352    872.52568  0.060340642   0.06115442            4 
 1206000   0.75615999   -3.4855941    874.37846  0.060418633  0.061121738            3 
 1207000   0.77855718   -3.4897541    877.33246  0.060572526  0.061088895            4 
 1208000    0.7782805   -3.5068453    875.99544  0.060430149  0.061056087            3 
 1209000   0.77154198   -3.4875972    874.63989   0.06028673  0.061022978            3 
 1210000   0.76863824   -3.5245014    874.93842  0.060257467  0.060990501            3 
 1211000   0.77786744   -3.5093376    874.77531  0.060196484  0.060957962            3 
 1212000    0.7599182   -3.5040963    878.26515  0.060386768  0.060925515            6 
 1213000   0.77605916   -3.5235731    878.99815  0.060387342  0.060893315            8 
 1214000   0.76448998   -3.4937615    877.39328  0.060227435  0.060860688            5 
 1215000   0.78138913   -3.5195947    877.58893  0.060191284  0.060828282            6 
 1216000   0.76867884   -3.5154744    879.66972  0.060284383  0.060795732            4 
 1217000   0.76263153   -3.4895748    877.87422  0.060111902  0.060763373            5 
 1218000   0.76553013   -3.5005367    878.26716  0.060089434  0.060730819            3 
 1219000    0.7690062   -3.5084141    879.85392  0.060148614  0.060698288            2 
 1220000   0.77357541   -3.5051107    881.03306  0.060179854  0.060665892            4 
 1221000   0.76040659   -3.5308751    877.19771  0.059868803  0.060633406            3 
 1222000   0.76195426   -3.4957273    882.72742  0.060196905  0.060600875            3 
 1223000   0.77682722   -3.5239084    878.57565  0.059864789  0.060568484            3 
 1224000   0.76737159   -3.5160033    881.28251  0.060000171  0.060536215            4 
 1225000   0.75355575   -3.5192366    883.51036  0.060102746  0.060504021            4 
 1226000   0.76815347    -3.506421    882.49582  0.059984762  0.060471806            5 
 1227000     0.760628   -3.5064996    881.69391  0.059881412  0.060439454            2 
 1228000   0.76849369   -3.5354556    881.77051  0.059837847  0.060407468            6 
 1229000   0.75461301   -3.5174134    882.60026   0.05984542  0.060375407            9 
 1230000   0.76935455   -3.5269954    885.34493  0.059982719  0.060343504            5 
 1231000   0.77553596   -3.5249279    882.51242  0.059742244  0.060311654            3 
 1232000   0.77752506   -3.5057714    886.47802  0.059961987  0.060279587            8 
 1233000   0.74838912   -3.5088235    887.15853  0.059959349  0.060247798            4 
 1234000   0.77435675   -3.5429518    882.35545  0.059586402  0.060215416           11 
 1235000   0.76178808   -3.5185056    883.75016  0.059632265  0.060183374            7 
 1236000    0.7653177   -3.5223647    888.59395  0.059910595  0.060151434            6 
 1237000    0.7503372   -3.5065964    885.90352  0.059680916  0.060119692            6 
 1238000   0.75907754   -3.5544621    884.03692  0.059507063  0.060087851            4 
 1239000   0.76601808   -3.5364048    884.89916  0.059517027  0.060056165            3 
 1240000   0.74339911   -3.5141339    888.83501  0.059733535  0.060024444            7 
 1241000   0.75367417   -3.5315435    886.38389  0.059520809  0.059992684            3 
 1242000   0.75278617   -3.5271135    888.23799  0.059597288  0.059960876            4 
 1243000   0.77407094   -3.5464361    888.28868   0.05955274  0.059929534            8 
 1244000   0.75564629   -3.5278652    889.37017  0.059577316  0.059897646           12 
 1245000   0.75766507   -3.5333213    887.24154  0.059386984  0.059865815            5 
 1246000   0.75299235   -3.5298067    888.81843  0.059444785   0.05983423           10 
 1247000   0.75436163   -3.5414826    890.72412  0.059524467  0.059802359            5 
 1248000   0.76092637   -3.5352522    888.68285  0.059340468  0.059770545            4 
 1249000   0.76406614   -3.5390335    889.05726  0.059317938  0.059738765            3 
 1250000   0.75175828   -3.5408602    885.69276  0.059046184  0.059706687            6 
 1251000   0.75082086   -3.5245795    891.65463  0.059396125   0.05967486            4 
 1252000   0.75500588   -3.5267039     891.0304  0.059307135  0.059643233           11 
 1253000   0.75895723    -3.561798      888.503  0.059091713  0.059611359            3 
 1254000   0.75519178   -3.5500238    887.41019  0.058971969  0.059579142            5 
 1255000   0.76107548   -3.5492774    890.21844   0.05911145  0.059547009            6 
 1256000   0.73900852   -3.5366237    890.67974  0.059094993  0.059514752            7 
 1257000   0.76414378   -3.5166017    889.12131  0.058944664  0.059482872            4 
 1258000   0.73392783   -3.5431206    888.90864   0.05888372  0.059450866            3 
 1259000   0.73402113   -3.5312822    890.53488  0.058944591  0.059418798            6 
 1260000   0.74519374   -3.5459679    890.81445    0.0589163  0.059387076            4 
 1261000   0.76237691   -3.5424698    891.34505  0.058904643   0.05935522            5 
 1262000   0.74311556   -3.5598253    891.83576   0.05889037   0.05932327            5 
 1263000   0.74780262   -3.5526593    893.57397   0.05895843  0.059291664            2 
 1264000   0.74854385   -3.5593618    891.90421  0.058801702  0.059259995            4 
 1265000    0.7660488    -3.544751    895.92194  0.059019891  0.059228277            6 
 1266000   0.74058559   -3.5632172     893.0248   0.05878257   0.05919675            3 
 1267000   0.75470329   -3.5417312     894.3825  0.058825473  0.059165386            5 
 1268000   0.74612059    -3.549189     892.2889  0.058641489  0.059134169            7 
 1269000   0.76690884   -3.5524295    896.42311  0.058866766  0.059102689           10 
 1270000   0.74805875   -3.5555271    896.87622  0.058850146  0.059071446            5 
 1271000   0.74500301   -3.5353228    899.05494  0.058946692  0.059040284            7 
 1272000   0.74070598   -3.5586283    896.55304  0.058736442  0.059009482            6 
 1273000   0.74511364   -3.5559279    896.27111  0.058671845  0.058978339            9 
 1274000    0.7433288    -3.537901     897.7977  0.058725648  0.058947242           11 
 1275000   0.75920944   -3.5188462     901.8978  0.058947568   0.05891649            3 
 1276000   0.74648661   -3.5626168    896.22491  0.058530885  0.058886055            5 
 1277000   0.74386983   -3.5603373    901.24475   0.05881263  0.058854919            8 
 1278000    0.7376169   -3.5608576    898.72198  0.058602112   0.05882422            8 
 1279000   0.73143738   -3.5261233    898.99721  0.058574225  0.058792958            4 
 1280000   0.74350072   -3.5571235    898.67561  0.058507527  0.058762202            3 
 1281000   0.74247742   -3.5431035    897.57179  0.058390046  0.058731624            5 
 1282000   0.75621867   -3.5521109    896.92349  0.058302359  0.058700711            6 
 1283000   0.75306439   -3.5488461    901.04009  0.058524298  0.058670073            6 
 1284000   0.72603528   -3.5502687    897.95357  0.058278399   0.05863908            6 
 1285000   0.74480239   -3.5612338      902.211  0.058509144   0.05860809            4 
 1286000   0.75080649   -3.5777374    898.34935   0.05821341  0.058577168            9 
 1287000   0.73941698    -3.554512    898.24782  0.058161604  0.058546026            7 
 1288000   0.74218604   -3.5323313    899.80799  0.058217391  0.058514835            4 
 1289000   0.72464889   -3.5905936    899.26705  0.058137254  0.058483897           10 
 1290000   0.73135275   -3.5572068    901.33764  0.058225945  0.058452684            6 
 1291000   0.74139309   -3.5627559    903.08304  0.058293509  0.058421947            3 
 1292000   0.73664555   -3.5673242    901.26711  0.058131264  0.058391006            7 
 1293000   0.74319192   -3.5628558    903.02883  0.058199848  0.058360024            5 
 1294000    0.7372896   -3.5794771    900.05109  0.057963105  0.058329252            6 
 1295000   0.71825023   -3.5669349    902.02894   0.05804562  0.058298464            4 
 1296000    0.7514403   -3.5677321    901.40954  0.057961004  0.058267819            5 
 1297000   0.74360944   -3.5672442    902.80146  0.058005748  0.058237215            2 
 1298000   0.73722955   -3.5641509    903.33265  0.057995163  0.058206675            6 
 1299000   0.73153425   -3.5388681    907.53615  0.058220179  0.058176365            6 
 1300000   0.75553642   -3.5639645    904.59891  0.057987109  0.058146207            3 
 1301000   0.74197344   -3.5632835    904.83018  0.057957352  0.058115994            4 
 1302000   0.73969768   -3.5527437    908.64446  0.058156968  0.058085825            4 
 1303000   0.73133867   -3.5884869    903.71367  0.057796986  0.058055587            5 
 1304000   0.73388283    -3.582394    905.27477  0.057852426  0.058024782            5 
 1305000   0.72666928   -3.5615726    907.81156  0.057970087   0.05799416            3 
 1306000   0.71786122    -3.577179    906.59903   0.05784833  0.057963481            4 
 1307000   0.74899752   -3.5687462    908.31839  0.057913695  0.057932913            9 
 1308000   0.72318736   -3.5552714    908.04034  0.057851703  0.057902704            6 
 1309000   0.72474599    -3.568596     905.9275  0.057673001  0.057872565            7 
 1310000   0.72050349   -3.5863388    906.53666  0.057667727  0.057841864            6 
 1311000   0.72209744   -3.5826375    908.18874  0.057728753  0.057811583            4 
 1312000   0.71224049   -3.5865192    907.43109  0.057636629   0.05778136            7 
 1313000   0.72233337   -3.5714989    909.21641  0.057706043  0.057751341            5 
 1314000   0.72834309   -3.5890592    907.42549  0.057548547  0.057721273           10 
 1315000   0.71769729   -3.5762619     906.4119  0.057440551  0.057690982            5 
 1316000   0.73258467    -3.601336    906.10518  0.057377481  0.057660523            4 
 1317000   0.73947087   -3.5796786    910.26329  0.057597019  0.057630064            7 
 1318000   0.72724489   -3.5894188    908.33907  0.057431656  0.057599658            4 
 1319000   0.71844126   -3.5495551    909.33063   0.05745076  0.057569157            4 
 1320000   0.71933913    -3.579807    909.34761  0.057408309  0.057538598            7 
 1321000    0.7256955   -3.5850141    910.33705  0.057427268  0.057507996            3 
 1322000   0.72846723    -3.584524    909.07155  0.057304056  0.057477429            5 
 1323000   0.72616572   -3.5931435    907.33772  0.057151532  0.057446756            5 
 1324000   0.72460346    -3.566261    911.14621  0.057348075  0.057416185            4 
 1325000   0.71792326   -3.5806869    910.58536   0.05726952  0.057385791            4 
 1326000   0.72401362   -3.5980031    908.70225  0.057107985  0.057355171            6 
 1327000   0.73903672   -3.5823557    910.18779  0.057158239  0.057324214            5 
 1328000   0.72007237   -3.5676869    911.68393  0.057209082  0.057293718            5 
 1329000   0.72090751   -3.5580869    912.24886  0.057201459  0.057263339            7 
 1330000   0.71880932   -3.5967054    907.28308  0.056847311  0.057232944            9 
 1331000    0.7240096   -3.5684029    910.91601  0.057032057    0.0572023            5 
 1332000   0.71358422    -3.607314    914.81702  0.057233297  0.057171949           10 
 1333000    0.7239433   -3.5951668    912.09132  0.057019962  0.057141306           13 
 1334000   0.71730783   -3.5682745    917.01085  0.057284536  0.057111096           10 
 1335000   0.71501096   -3.5694514    915.90897  0.057172844  0.057080824            4 
 1336000   0.72465654   -3.6004559    914.51999  0.057043413  0.057050497            3 
 1337000   0.72038291   -3.5923205    913.37622  0.056929458  0.057020294           10 
 1338000   0.71456252   -3.5907995    917.08995  0.057118208  0.056990189            7 
 1339000       0.7248   -3.5896557    914.11698  0.056890526  0.056960096            3 
 1340000   0.70725962   -3.6060678     915.1219  0.056910566  0.056929956            6 
 1341000   0.72962601   -3.5885186    915.36265  0.056883088  0.056900081            6 
 1342000    0.7260925   -3.5954015    914.52101  0.056788438  0.056870083            7 
 1343000   0.70922867   -3.6021782    917.12458  0.056907705  0.056840145           12 
 1344000   0.72429226   -3.5959067    916.44179  0.056823028  0.056810215            5 
 1345000   0.72510631   -3.5945799    918.97853  0.056937951  0.056780195            5 
 1346000    0.7040117   -3.6121451    915.25881  0.056665355  0.056750103            5 
 1347000   0.72088607   -3.6112657    915.35364  0.056629154  0.056720161            7 
 1348000   0.72502524   -3.5947845    916.29525  0.056645354  0.056690551            7 
 1349000     0.710839   -3.6153047    917.13035  0.056654951   0.05666078            8 
 1350000   0.71801737   -3.6018441     918.0045  0.056666944   0.05663112            3 
 1351000   0.71608542   -3.6165793    915.43015  0.056466207  0.056601408           10 
 1352000   0.70602385   -3.6230858    919.63772  0.056683785  0.056571396            7 
 1353000   0.72949085   -3.6041243    920.42771  0.056690546  0.056541614           12 
 1354000   0.70757227   -3.5905752    916.87671  0.056430127  0.056511847            4 
 1355000   0.70298662   -3.5966714    920.76044  0.056627333  0.056482321            8 
 1356000   0.71401147   -3.5920147    920.87334  0.056592511   0.05645273            4 
 1357000   0.72650953   -3.5965908    918.36581   0.05639682  0.056423328            6 
 1358000   0.71997399   -3.6064447    920.56259  0.056490095  0.056393766           11 
 1359000   0.69817705   -3.5908649    921.43169  0.056501821  0.056364358            3 
 1360000   0.71554925   -3.6049293    924.25126  0.056633043  0.056335183            3 
 1361000   0.71947587    -3.596884    919.83565  0.056321066  0.056305931            5 
 1362000   0.69801089    -3.631465    921.04968  0.056353994  0.056276506            6 
 1363000   0.70267649   -3.5954515    919.78614  0.056235396  0.056247294            4 
 1364000   0.70719443   -3.6308679    920.00095  0.056207292  0.056217722            5 
 1365000    0.6880956   -3.6034964    923.63969  0.056388259  0.056188283            8 
 1366000   0.71536695   -3.6065604    924.26062   0.05638486  0.056159032            9 
 1367000   0.71966469   -3.6095007    923.71494  0.056310347  0.056129877            5 
 1368000   0.71755463   -3.6083708    923.78885  0.056273687  0.056100461            6 
 1369000   0.70183709   -3.6152381    927.56695  0.056462561  0.056071349            4 
 1370000   0.71894533   -3.6326356    921.94824  0.056079577  0.056042065            8 
 1371000   0.71059659   -3.6065156      926.656  0.056324824  0.056012857            8 
 1372000   0.71034661   -3.6000207    924.67687  0.056163561  0.055983632            7 
 1373000   0.71050339   -3.6440138    922.27977  0.055977165  0.055954342            3 
 1374000   0.71203301   -3.6221912    925.21212  0.056114272  0.055925227            5 
 1375000    0.7095012   -3.6285367    923.71635  0.055982809  0.055895925           10 
 1376000   0.70275917   -3.6046707    926.90756   0.05613539  0.055867016            5 
 1377000   0.71326319   -3.6378809    923.52861  0.055890136  0.055837805            4 
 1378000   0.70011106   -3.6220713    925.78903  0.055986274  0.055808488            6 
 1379000   0.70716123   -3.6186977     922.9726  0.055775478  0.055779388            3 
 1380000   0.71776957   -3.6338326    925.00039  0.055857511  0.055749872            7 
 1381000   0.69756832   -3.6167783    925.91289  0.055872127  0.055720787            4 
 1382000   0.69920267   -3.6136067    924.19025  0.055727825  0.055691751            6 
 1383000   0.70569886   -3.6088639    927.48963  0.055886336  0.055662734            4 
 1384000   0.70505364   -3.6484873    925.17996  0.055706886  0.055633478            8 
 1385000   0.69918067   -3.6316235    926.02939  0.055717773  0.055604247            4 
 1386000   0.71550005   -3.6436265    923.81279    0.0555443  0.055574978            9 
 1387000   0.70088802   -3.6115586    928.72313  0.055799275  0.055545631            5 
 1388000   0.69825927   -3.6253466    929.51888  0.055806849  0.055516664            5 
 1389000   0.69488407   -3.6267283    926.29437  0.055573216  0.055487494            6 
 1390000   0.69538112   -3.6322681    929.35843  0.055716932   0.05545833            5 
 1391000   0.69634192     -3.62854    926.61719  0.055512652  0.055429012            5 
 1392000   0.71463908   -3.6415197    928.29343  0.055573122  0.055399741            6 
 1393000   0.69759783   -3.6356057    928.52671  0.055547183  0.055370472            6 
 1394000   0.71223891   -3.6405544    927.81472  0.055464773  0.055341332            3 
 1395000   0.68670729   -3.6276484    926.92981  0.055372151  0.055312279            4 
 1396000   0.69175254   -3.6477407    928.39497  0.055419948  0.055283019            7 
 1397000   0.67894534   -3.6478435    930.14779  0.055484836  0.055253656            4 
 1398000   0.68443838   -3.6451449    932.71738  0.055598318  0.055224595            7 
 1399000   0.70083769   -3.6332368    926.48323  0.055187231  0.055195623            5 
 1400000   0.68216233   -3.6477991    929.43019  0.055323226  0.055166557            9 
 1401000   0.69513275   -3.6163224    929.80749  0.055306179  0.055137573            7 
 1402000   0.68177925   -3.6358827    930.69798  0.055319661  0.055108614           13 
 1403000   0.69306715   -3.6176524    931.19394   0.05530969  0.055079698            4 
 1404000   0.69505507   -3.6457648     933.4003  0.055401253  0.055050788            5 
 1405000    0.6916735   -3.6512432    931.45821  0.055246632  0.055021716            4 
 1406000   0.69576808   -3.6406873    930.19348  0.055132378  0.054992853           10 
 1407000   0.68864095   -3.6406084    931.61817  0.055177574  0.054964074            5 
 1408000   0.68975927   -3.6301286    935.10418  0.055344708  0.054935276            5 
 1409000   0.68897128   -3.6483972    935.38279  0.055321906  0.054906749            5 
 1410000   0.68747388   -3.6486903      934.768  0.055246336  0.054878102            4 
 1411000   0.68770323   -3.6409647    932.58239    0.0550781  0.054849202            3 
 1412000   0.69505062   -3.6331503    933.91055  0.055117478  0.054820471            5 
 1413000   0.69734005   -3.6490967     932.0025  0.054965941  0.054791634            5 
 1414000   0.69592986   -3.6352051     933.7671  0.055031064  0.054762995            7 
 1415000   0.69315564   -3.6426415    933.05914  0.054950479  0.054734278            4 
 1416000   0.68952187   -3.6570795    930.45315  0.054758307   0.05470582            5 
 1417000   0.67858293    -3.664283    931.91879  0.054805857  0.054676913            6 
 1418000    0.6841365   -3.6479044    934.64026  0.054927143  0.054648084            4 
 1419000    0.6788245   -3.6381336    932.97016  0.054790355  0.054619118            7 
 1420000   0.67629883   -3.6597784    932.24027  0.054708936  0.054590137            4 
 1421000   0.69294266    -3.668603    930.20568  0.054551119  0.054560895            9 
 1422000    0.6897291   -3.6726486    936.55429  0.054884804  0.054531902            7 
 1423000   0.67801149   -3.6493599    934.42257  0.054721397  0.054502823           10 
 1424000    0.6772634   -3.6368935    935.25228  0.054731524  0.054474321            6 
 1425000   0.69952207   -3.6369833     934.7553  0.054664052  0.054445596            5 
 1426000    0.6752682   -3.6388216    935.61323  0.054675855  0.054416791            5 
 1427000   0.67479783   -3.6782969    934.54009  0.054574871  0.054387903            4 
 1428000     0.683765   -3.6521515    933.07899  0.054451388  0.054358997            5 
 1429000   0.68015931   -3.6319044    934.38498  0.054489444  0.054330502            7 
 1430000   0.67669495   -3.6504675    933.29924  0.054388068  0.054301504            5 
 1431000   0.68950038   -3.6520333    933.45322  0.054359028  0.054272593            3 
 1432000   0.68705521    -3.661729    933.58258  0.054328595  0.054243573            5 
 1433000   0.69356938   -3.6432784    935.28867  0.054389897   0.05421461            7 
 1434000   0.67270312   -3.6791095    933.66289   0.05425749  0.054185497            6 
 1435000   0.67626832   -3.6474427    936.40362   0.05437884  0.054156227            9 
 1436000   0.67241167    -3.664876    938.02452  0.054435035  0.054127212            7 
 1437000   0.67994812   -3.6683311    937.21867  0.054350421  0.054098396            4 
 1438000   0.68519095   -3.6565738    938.33764  0.054377471  0.054069589            6 
 1439000   0.67590498   -3.6790226    936.74032  0.054247181  0.054040869            6 
 1440000   0.67219717   -3.6362854    938.13833  0.054290412  0.054012417            6 
 1441000   0.67546356   -3.6742846    939.48412  0.054330564  0.053983897            8 
 1442000   0.68280772   -3.6542926    936.64604  0.054128874  0.053955182            7 
 1443000   0.67187779   -3.6651083    939.17272  0.054237279  0.053926476            5 
 1444000   0.66726706   -3.6509381    939.44535  0.054215452  0.053897669           12 
 1445000   0.68345959   -3.6755037     938.6264  0.054130704  0.053868984            7 
 1446000   0.66649687   -3.6745228    938.52437  0.054087389  0.053840454           10 
 1447000   0.67185532   -3.6676524     938.8191  0.054066983  0.053811841            9 
 1448000   0.67973634   -3.6793234    938.84238  0.054030984  0.053783446            4 
 1449000   0.67464536   -3.6480809     938.8427  0.053993714   0.05375515            6 
 1450000   0.67265962   -3.6525724    939.54124  0.053996623  0.053726721           13 
 1451000   0.67665896   -3.6931723    942.57989  0.054133924  0.053698403           14 
 1452000   0.66979099   -3.6547669    943.82376   0.05416803  0.053669941            4 
 1453000   0.68202577   -3.6567717    941.10632  0.053974898   0.05364164           11 
 1454000   0.66558287    -3.692962    943.13394  0.054053986  0.053613048            8 
 1455000   0.66655672   -3.6737168    944.67125  0.054104882   0.05358482            9 
 1456000   0.65959197   -3.6613471    940.91033  0.053852469  0.053556591            6 
 1457000   0.67101292   -3.6796932    941.54963  0.053852072  0.053528142            7 
 1458000   0.69417345   -3.6628594    943.40218  0.053921021  0.053499765            4 
 1459000    0.6633182   -3.6727054    939.26892  0.053647985  0.053471449            8 
 1460000   0.69019551    -3.680719    940.32638  0.053671597  0.053443034            8 
 1461000   0.67578007   -3.6772535    941.76007  0.053716637  0.053414764            5 
 1462000   0.67496357    -3.664418    939.46311  0.053548969  0.053386403            8 
 1463000   0.68025507   -3.6628311    942.38712   0.05367892   0.05335778            7 
 1464000   0.68495438   -3.6911873    939.10428  0.053455389  0.053328921            2 
 1465000   0.67461711   -3.6786469    941.75044  0.053569422   0.05330022           11 
 1466000   0.65463656   -3.6684813    944.71426  0.053701356  0.053271737           14 
 1467000   0.68000004    -3.677793    943.52145  0.053596992   0.05324324            6 
 1468000   0.65713033   -3.6921847     943.2704  0.053546231  0.053214898            4 
 1469000   0.66195422   -3.6899927    943.84698  0.053542488  0.053186165            7 
 1470000   0.66144203   -3.6570028      944.801  0.053560148  0.053157661            8 
 1471000   0.67871568   -3.6964179    943.95806  0.053475983  0.053129064            4 
 1472000   0.66386388     -3.68454    942.10557  0.053334781  0.053100542            6 
 1473000   0.66305769   -3.6657399    942.03407  0.053294528  0.053071967            7 
 1474000   0.66271631   -3.6858227     942.1538   0.05326514  0.053043493            4 
 1475000   0.66604664   -3.6768054     945.4381  0.053414582  0.053014946            4 
 1476000   0.66259044   -3.6756217    943.47838   0.05326775  0.052986536            8 
 1477000   0.65539518   -3.6761125    945.13528  0.053325168  0.052958064            6 
 1478000    0.6632748   -3.6931559    941.02335  0.053057248  0.052929669            8 
 1479000   0.67198861   -3.7037652    944.59944  0.053222867  0.052901282            8 
 1480000   0.64741037   -3.6893701    945.83662  0.053256566  0.052872848            7 
 1481000   0.65753508   -3.6807712     946.5601  0.053261315  0.052844438            6 
 1482000   0.66822936   -3.7024582     942.9317  0.053021351  0.052816055            9 
 1483000   0.66202025   -3.6833401    945.19024  0.053112511  0.052787914            4 
 1484000   0.66208182   -3.6949814     947.8007   0.05322331  0.052759689           10 
 1485000   0.66277707   -3.6818884    947.25357  0.053156766  0.052731497            5 
 1486000   0.66085032   -3.6776049    943.78603  0.052926538   0.05270317            5 
 1487000   0.65833835   -3.6950455    946.91716  0.053066418  0.052674721           14 
 1488000   0.66456519   -3.6785466    947.13643  0.053043035  0.052646273            9 
 1489000   0.66716075   -3.6912333    949.10715  0.053117705  0.052617886            7 
 1490000   0.65634145   -3.6836527    948.16085   0.05302913   0.05258939            7 
 1491000   0.64132565   -3.7022009    946.69563  0.052911672  0.052561045            5 
 1492000   0.66083857   -3.6831622     948.0053  0.052949358  0.052532747            3 
 1493000   0.65905167   -3.7106702    947.32185  0.052875745  0.052504242            5 
 1494000   0.65330627   -3.7015681      948.709  0.052917726   0.05247587            8 
 1495000   0.65350442   -3.7043204    950.17783  0.052964205   0.05244764           12 
 1496000   0.65639763   -3.6787277     948.7556  0.052849577  0.052419538            9 
 1497000    0.6477181   -3.6886071    948.99814  0.052827774  0.052391447            6 
 1498000    0.6470406   -3.6844549    950.64909  0.052884351  0.052363394            8 
 1499000   0.65731878   -3.7154745    948.46296  0.052727538   0.05233545            5 
 1500000   0.67279222   -3.7062572    950.15987  0.052786659  0.052307436            5 
 1501000   0.65863273   -3.6978784    952.16029  0.052862552  0.052279458           11 
 1502000   0.65758903   -3.6902725    950.44174  0.052732009  0.052251383           10 
 1503000   0.65950556   -3.6812043    949.40625  0.052639513  0.052223083            7 
 1504000   0.65579364    -3.716954    948.32365  0.052544529  0.052194948            5 
 1505000   0.65264226    -3.701277     948.4621  0.052517282  0.052166944            6 
 1506000   0.65539435   -3.7062753    951.27932  0.052638298  0.052138825            5 
 1507000   0.63968222   -3.7051568    951.95096  0.052640509  0.052110733            3 
 1508000   0.65711393   -3.6928611    953.07187  0.052667543  0.052082939            6 
 1509000   0.63616749   -3.7268577    950.92993  0.052514354  0.052054985            3 
 1510000   0.64515987   -3.7018636    952.77194  0.052581233  0.052026981            8 
 1511000   0.64737044   -3.7093346    952.00812  0.052504309  0.051999161            8 
 1512000   0.63748439   -3.7181796    948.71811  0.052288255  0.051971042            4 
 1513000   0.65181112   -3.7256714    951.64959  0.052415157  0.051942902           13 
 1514000   0.64840866   -3.6982247    951.72501  0.052384688  0.051914838            8 
 1515000   0.64720825   -3.7157175    951.01737  0.052311187  0.051886766            8 
 1516000   0.64843181   -3.7002169    950.32503  0.052238623   0.05185865            5 
 1517000   0.66502249    -3.693417    953.76784  0.052393311  0.051830692            6 
 1518000   0.65299831   -3.7364586    950.71962  0.052191459  0.051802676           18 
 1519000    0.6509988   -3.7108557    954.82175  0.052382146   0.05177454            8 
 1520000   0.64470466    -3.732846    952.50649   0.05222075  0.051746614           10 
 1521000   0.64148509    -3.709559    953.34433  0.052232321  0.051718652            7 
 1522000   0.64444996    -3.717696    952.06453  0.052127931  0.051690755            6 
 1523000   0.64074892   -3.7260427    952.25592  0.052104176  0.051663019           15 
 1524000    0.6315697   -3.7395645    955.93445  0.052271131  0.051635419            5 
 1525000    0.6436412   -3.6975811    954.72308   0.05217066  0.051607782            4 
 1526000   0.64023613   -3.6996768    955.19404  0.052162191  0.051580398           14 
 1527000   0.64784232   -3.7316881    955.30034  0.052133832  0.051553064            8 
 1528000   0.63725344   -3.7330819    958.13853  0.052254501  0.051525449            6 
 1529000   0.65418446   -3.7190849    956.05824  0.052106946  0.051497887            6 
 1530000   0.64309587   -3.7291333    952.79418  0.051895108  0.051470304            6 
 1531000   0.64051299    -3.705925    954.54975  0.051956769  0.051442724            5 
 1532000   0.63974814    -3.722081    955.20269  0.051958371  0.051415369            9 
 1533000    0.6464365   -3.7357661    954.81605   0.05190346  0.051388025            5 
 1534000   0.64782243   -3.7420259     950.7477  0.051648615  0.051360269            9 
 1535000   0.64097204    -3.720663    955.47103  0.051871391  0.051332529           13 
 1536000   0.64186241   -3.7256289    955.68587  0.051849277  0.051304935            4 
 1537000   0.64011118   -3.7273663    956.29708  0.051848682  0.051277313            4 
 1538000   0.63805222   -3.7302406    954.76746  0.051732091  0.051249612           15 
 1539000   0.64514934   -3.7351769    956.93303  0.051815737  0.051221971            4 
 1540000   0.64419442   -3.7267901    955.65751  0.051713069   0.05119435           12 
 1541000   0.64940613   -3.7431878    954.73531  0.051629641  0.051166848           13 
 1542000   0.65332325    -3.737782     957.3976  0.051740035  0.051139341            7 
 1543000   0.62805173   -3.7383034    957.86201  0.051731584  0.051111898            7 
 1544000   0.62322075   -3.7303337    957.26283   0.05166574  0.051084281            4 
 1545000   0.62541807   -3.7235548    956.32929  0.051581947  0.051056817           12 
 1546000   0.64767026   -3.7315598    959.98849  0.051745822  0.051029425            6 
 1547000   0.63447213   -3.7319301    958.64724  0.051640123  0.051001999            9 
 1548000   0.62337016   -3.7174077    956.45602  0.051488804  0.050974764            7 
 1549000    0.6371229   -3.7412952    957.28659  0.051500247  0.050947294            9 
 1550000   0.63761699   -3.7610451    957.72466  0.051490573  0.050919642           13 
 1551000   0.63333095   -3.7255324    958.84393  0.051517512   0.05089209            4 
 1552000   0.64198348   -3.7553912    955.66765   0.05131377  0.050864583           13 
 1553000   0.64340845   -3.7598974    958.84139   0.05145103  0.050837045            9 
 1554000   0.64138165   -3.7318351    959.01606  0.051427288  0.050809661           12 
 1555000   0.64928921   -3.7322126    957.66688  0.051321912  0.050782209            8 
 1556000   0.63000724   -3.7359161    957.40542  0.051274926  0.050754461            6 
 1557000   0.63255548    -3.751059    956.87354  0.051213527  0.050726829            7 
 1558000   0.63701662   -3.7581775    958.49349  0.051267303  0.050699497            8 
 1559000   0.64053498   -3.7257753    958.81635  0.051251676  0.050671993            5 
 1560000   0.64076197   -3.7265723    960.16242  0.051290728  0.050644661            7 
 1561000   0.62899908   -3.7448349    957.02561  0.051090413  0.050617219            9 
 1562000   0.64501192   -3.7539193     960.4458  0.051240173   0.05058964           18 
 1563000   0.62928818   -3.7517408    957.36046  0.051042891  0.050562057           11 
 1564000   0.61525932   -3.7332443    959.84804  0.051142798  0.050534654            7 
 1565000   0.63040232   -3.7583881    959.34322  0.051083239  0.050507115            5 
 1566000   0.63671943   -3.7580211    958.02668   0.05098056  0.050479722            7 
 1567000   0.61943624   -3.7663478    959.06174  0.051003071  0.050452114           14 
 1568000   0.63791587   -3.7630479    959.13092   0.05097422  0.050424659            9 
 1569000   0.62616112    -3.752749    958.82874  0.050925682  0.050397066            7 
 1570000    0.6208342   -3.7594038    960.62123  0.050988388  0.050369779            7 
 1571000   0.61881459   -3.7645013    960.90402  0.050970933  0.050342419            7 
 1572000   0.61214384   -3.7466117    960.90012  0.050938301  0.050314985            8 
 1573000   0.61542243   -3.7368551    961.80378  0.050953792  0.050287734            4 
 1574000   0.63591323   -3.7405517    961.63866  0.050912678  0.050260302            6 
 1575000   0.63274119   -3.7711828    958.97843    0.0507396  0.050232651            7 
 1576000    0.6326394   -3.7742389    959.78692  0.050750154  0.050204898            7 
 1577000   0.62686998   -3.7494389    960.43839  0.050752398   0.05017731           10 
 1578000    0.6243132   -3.7525731    961.51484  0.050777083  0.050149859            5 
 1579000   0.62633992   -3.7583164    960.30046  0.050680835  0.050122397           11 
 1580000   0.63188518   -3.7570402    961.58589  0.050716555  0.050094987           15 
 1581000    0.6229112    -3.784106    960.81019   0.05064359  0.050067552            9 
 1582000   0.63121545   -3.7633159    960.09024  0.050573654   0.05004015            4 
 1583000    0.6171084   -3.7710423    960.58664  0.050567837  0.050012714            5 
 1584000   0.61863178   -3.7656954    961.43143  0.050580357   0.04998527            8 
 1585000   0.62662369   -3.7623223    961.59775   0.05055719  0.049957912           15 
 1586000   0.63147092   -3.7645532    963.29039  0.050614249  0.049930607           11 
 1587000   0.63308532   -3.7639904    964.12552  0.050626209  0.049903333            7 
 1588000   0.61772809   -3.7802798    959.22998  0.050337425   0.04987593            8 
 1589000   0.61350567   -3.7627251    966.51315  0.050687704  0.049848576            4 
 1590000   0.63640645   -3.7589647    962.94827  0.050468987  0.049821223            9 
 1591000   0.60799364   -3.7438545    960.72205  0.050320661  0.049793754            4 
 1592000   0.62208171   -3.7480513    960.38601  0.050271462  0.049766268            6 
 1593000   0.62733059   -3.7570397    961.35041  0.050290354  0.049738678            9 
 1594000   0.62453997   -3.7667494    960.79022  0.050229518   0.04971121            8 
 1595000   0.62156151   -3.7690547    958.98805  0.050103869  0.049683718            9 
 1596000   0.60662835   -3.7903538    962.39903  0.050250576   0.04965618            7 
 1597000   0.60856142   -3.7785114    962.27089  0.050212424  0.049628601            6 
 1598000   0.60658182    -3.763987    961.62523  0.050147332  0.049601001           10 
 1599000   0.62118927   -3.7864394    961.77086   0.05012356  0.049573365            6 
 1600000   0.60499138    -3.755817    963.58583  0.050186762  0.049545826            6 
 1601000   0.60294689   -3.7627128    963.34234  0.050142741  0.049518397            5 
 1602000   0.60520503   -3.7928003    963.25284  0.050106785  0.049490804            5 
 1603000   0.61570132   -3.7972827    960.16594  0.049915052  0.049463277           10 
 1604000   0.61564286   -3.7891704     960.6041  0.049906697   0.04943573            4 
 1605000   0.61027248   -3.7679898    964.55016  0.050080486  0.049408439            6 
 1606000   0.60772671   -3.7571531    964.09534  0.050025703  0.049381189            7 
 1607000   0.60730994   -3.7782941    964.44987  0.050012958  0.049353826           11 
 1608000    0.6149218   -3.7884425    965.74625  0.050049038  0.049326548            8 
 1609000   0.61227883   -3.7760506    963.07917  0.049879799  0.049299274            7 
 1610000   0.61752965   -3.7989339    964.00597  0.049896789  0.049272041            4 
 1611000   0.61486822    -3.768427    961.75982  0.049749628  0.049244588            2 
 1612000   0.61789026   -3.7882258    965.03605  0.049888133  0.049217214           19 
 1613000   0.59919637   -3.7905412    961.84995  0.049692599  0.049189738            8 
 1614000   0.60117777   -3.7754053    963.60276  0.049752311  0.049162183           11 
 1615000   0.61174256   -3.7701632    963.92112  0.049737932  0.049134832            8 
 1616000   0.60422078   -3.7789396    964.04303   0.04971344  0.049107512            4 
 1617000   0.60926853   -3.7645134    967.08617  0.049839526   0.04908027            8 
 1618000   0.60764803   -3.7807213    965.24723  0.049714011  0.049053148           14 
 1619000   0.59815503   -3.7851209    963.52105  0.049594454  0.049025967            6 
 1620000   0.61348737   -3.8075639    964.02733  0.049589883  0.048998529           13 
 1621000   0.59675084   -3.7909577    962.87488  0.049500045  0.048971144            6 
 1622000   0.60273035    -3.798826    963.69614  0.049511721  0.048943748            5 
 1623000   0.60704219   -3.8028318    964.48977  0.049521964  0.048916507           14 
 1624000   0.59621364     -3.77965    965.01769   0.04951856  0.048889205            7 
 1625000   0.59990039   -3.7925242    963.53198  0.049411897  0.048861782           19 
 1626000    0.6094466    -3.785917    964.75379  0.049444126  0.048834381            7 
 1627000   0.60314561   -3.7809496    965.85611  0.049470196  0.048807128            5 
 1628000   0.61037763   -3.7714131    961.85868  0.049235191  0.048779861            9 
 1629000   0.59890609   -3.7876408    964.19737  0.049324605  0.048752584            7 
 1630000   0.61332673   -3.7903719    968.08441  0.049493068  0.048725449            6 
 1631000   0.60071758   -3.8098579    966.32445  0.049372801  0.048698247            9 
 1632000   0.60800461   -3.8016386    965.51786  0.049301361  0.048671181            6 
 1633000   0.59453503   -3.8027144    967.30403   0.04936232  0.048644078            9 
 1634000   0.60798275   -3.7975042    967.97264   0.04936621  0.048616904            7 
 1635000   0.60176019   -3.7855965    967.68553  0.049321383  0.048589771            5 
 1636000   0.59737543   -3.7931451    963.97115  0.049102035  0.048562688            8 
 1637000   0.59627533   -3.7895259    967.32945  0.049242998  0.048535692           16 
 1638000   0.60214443   -3.7958703    968.65752  0.049280501  0.048508575           13 
 1639000   0.59348006   -3.8114905    965.89902   0.04911018  0.048481634            7 
 1640000   0.58534557   -3.7887412    969.28526    0.0492523  0.048454773            6 
 1641000   0.59487806   -3.7969153     968.7983  0.049197557  0.048427911            6 
 1642000   0.60488267   -3.7912003    968.63606  0.049159362  0.048401134           12 
 1643000   0.58988785   -3.8128675    970.37279  0.049217528  0.048374476            8 
 1644000   0.59873602   -3.8155937    969.11336  0.049123751  0.048347844            5 
 1645000   0.60201867   -3.7997614    968.52065  0.049063863  0.048320999           12 
 1646000   0.59361516   -3.8096158    970.06368  0.049112175  0.048294181            7 
 1647000    0.5974208   -3.8210266    969.31866   0.04904466  0.048267342            8 
 1648000   0.60487514   -3.8081136    969.92869  0.049045747  0.048240433           10 
 1649000    0.5930667    -3.821393    969.70652  0.049004777  0.048213564            6 
 1650000   0.60344756   -3.8308735    965.14394  0.048744644  0.048186422            8 
 1651000    0.5972304    -3.794675    970.10936  0.048965746  0.048159468            7 
 1652000   0.59335376   -3.8186537    968.26077  0.048842855  0.048132562           11 
 1653000   0.58334028   -3.8046902    969.21756  0.048861543  0.048105618           10 
 1654000   0.60195457   -3.8123414    969.15619  0.048828909  0.048078657           13 
 1655000   0.59685917   -3.7997518    970.73889  0.048879098  0.048051714           14 
 1656000   0.60412364   -3.8244269     967.3235  0.048677712  0.048024816           14 
 1657000   0.59644076   -3.8015896    971.11292  0.048838912  0.047998155           12 
 1658000   0.58913125   -3.8045518    969.01621  0.048704071  0.047971421            7 
 1659000   0.59947888   -3.8006522    969.13089  0.048680475  0.047944714            8 
 1660000   0.58301875   -3.8061563    969.00418  0.048644788  0.047918053           12 
 1661000   0.59694215   -3.8147091    970.32107  0.048681571  0.047891163            7 
 1662000   0.59840696    -3.811596    969.38764  0.048605478  0.047864403            7 
 1663000   0.59084289   -3.8336708    969.30338  0.048572027  0.047837701            8 
 1664000    0.6049645   -3.8107635    972.29326  0.048692571  0.047811188            9 
 1665000   0.59194872   -3.8068919    971.12743  0.048604977  0.047784761           14 
 1666000   0.60933257   -3.8284616    970.16594  0.048527708  0.047758447           11 
 1667000   0.58406751   -3.8187785    971.96056   0.04858831  0.047732059           15 
 1668000   0.58218863   -3.8194421    972.74454  0.048598348  0.047705682           10 
 1669000   0.57755328   -3.8135372     969.9586  0.048430128   0.04767938            8 
 1670000   0.57988406   -3.8287277     974.7986  0.048642645  0.047653087            9 
 1671000   0.59803825   -3.8311305    973.02118  0.048524894  0.047626771           11 
 1672000   0.57894722   -3.8244403    970.80334  0.048385334  0.047600479           10 
 1673000   0.59792049   -3.8172034    973.36287  0.048483905  0.047574158           16 
 1674000   0.58798413   -3.8157683    974.39418  0.048506281  0.047547891            5 
 1675000   0.57734119   -3.8239397     972.0196  0.048359184  0.047521729           10 
 1676000   0.57549162   -3.8073453    975.77415  0.048517012  0.047495566            8 
 1677000   0.57839846   -3.8419223    973.14776  0.048357571  0.047469267           10 
 1678000   0.59991251   -3.8209812    973.95852  0.048369017  0.047443015           11 
 1679000   0.57296804   -3.8197554    972.76866  0.048281153   0.04741675           10 
 1680000   0.59716456   -3.8395606    974.39012  0.048332843   0.04739051           12 
 1681000   0.59150301   -3.8524447    974.14847  0.048292112  0.047364099            8 
 1682000   0.58177869    -3.842064    971.88986  0.048151499  0.047337748            7 
 1683000   0.59422637   -3.8401634    970.37569  0.048047915  0.047311442            8 
 1684000   0.59600189   -3.8424098    971.50578  0.048075306  0.047285164           13 
 1685000   0.58216066   -3.8333321    970.56094  0.048000047  0.047258783            5 
 1686000   0.57418706   -3.8324542    973.29612  0.048106767  0.047232469           13 
 1687000   0.58729841   -3.8342159    975.24459    0.0481745  0.047206166            9 
 1688000   0.57164215   -3.8224232    971.82109  0.047976949  0.047179825            6 
 1689000   0.58412608   -3.8402912    972.21179  0.047967821  0.047153512            8 
 1690000   0.56447265   -3.8334192    972.02796  0.047930373  0.047127183           14 
 1691000   0.58021999   -3.8321438    972.51011  0.047925789   0.04710077            8 
 1692000   0.56421202   -3.8283085    971.00541  0.047823355  0.047074368           13 
 1693000   0.60968604   -3.8270105    971.48023   0.04781848   0.04704797           19 
 1694000   0.57123488   -3.8265095    971.26172  0.047779502  0.047021603            7 
 1695000   0.58323537   -3.8271771    973.26626  0.047849865  0.046995309            6 
 1696000   0.56982947   -3.8413362    972.84714  0.047801058  0.046968832            4 
 1697000   0.58223221   -3.8364941    970.99383  0.047681881  0.046942441            8 
 1698000   0.57067667   -3.8321505    970.88531  0.047648474  0.046915993            8 
 1699000   0.58093616   -3.8481963    971.13887  0.047632866  0.046889677            8 
 1700000   0.57133137   -3.8333843    971.11172  0.047603516  0.046863205            5 
 1701000   0.57718588   -3.8410415    974.52142  0.047742574  0.046836662           12 
 1702000   0.56603271   -3.8537135    973.17511  0.047648605   0.04681021           13 
 1703000   0.57287455   -3.8459308    971.19352   0.04752366  0.046783709           10 
 1704000   0.58252244   -3.8617017    971.32251  0.047502079  0.046757403            9 
 1705000   0.57287031   -3.8439286    973.43248  0.047577345  0.046731137           20 
 1706000   0.55924731   -3.8455489    972.34316  0.047496247  0.046704706           10 
 1707000    0.5674118   -3.8298169    973.10457  0.047505593  0.046678197           31 
 1708000   0.58326953     -3.82888     971.2282  0.047386232  0.046651709            7 
 1709000    0.5754068   -3.8587123    971.82044  0.047387382  0.046625251           11 
 1710000   0.56322652   -3.8516187    976.02159  0.047564405  0.046598779            9 
 1711000   0.55731022   -3.8368453     974.4868  0.047461855  0.046572323            9 
 1712000   0.56298054   -3.8355101    975.55012   0.04748589  0.046545998            8 
 1713000     0.570803   -3.8591241    972.18099  0.047294269   0.04651957            6 
 1714000   0.57109302   -3.8546159     972.4544  0.047279969  0.046493164            5 
 1715000   0.57018286   -3.8710515    973.78299  0.047316958  0.046466666            8 
 1716000   0.56231417   -3.8823104    971.71841  0.047189122  0.046440153           13 
 1717000    0.5652285   -3.8537643    971.51975  0.047151997  0.046413573            8 
 1718000   0.56428435   -3.8624303    974.04669  0.047247123  0.046386996            9 
 1719000    0.5645476   -3.8627253     971.0859  0.047076105  0.046360468           16 
 1720000   0.57955561   -3.8689334    970.23729  0.047007621  0.046333939           25 
 1721000   0.56934794   -3.8643316    971.68411  0.047050364  0.046307447            6 
 1722000   0.56259858   -3.8585011    971.89558  0.047033274  0.046281116            6 
 1723000   0.56149874   -3.8584713    972.61608  0.047040824  0.046254826           13 
 1724000   0.56507655   -3.8625805     977.6272  0.047255762  0.046228446           16 
 1725000   0.55221342   -3.8782411    972.95856  0.047002829  0.046202084            7 
 1726000   0.57497098   -3.8811147    970.45461  0.046854703  0.046175631           10 
 1727000   0.56362591   -3.8609979    974.16884  0.047006796  0.046149166           16 
 1728000   0.56214502   -3.8531207    973.34635  0.046939928  0.046122867           10 
 1729000   0.56936056   -3.8523428    974.06707  0.046947516  0.046096491           11 
 1730000   0.56532599   -3.8621819    975.38791  0.046984003  0.046070167            4 
 1731000   0.57762521   -3.8848896     972.4304  0.046814481   0.04604404           13 
 1732000   0.58324669    -3.872697    973.00088    0.0468149  0.046017775           20 
 1733000    0.5594045   -3.8805669    970.50302  0.046667774   0.04599137           10 
 1734000   0.56177355   -3.8717818    975.65226  0.046888324  0.045965153           15 
 1735000   0.55264441   -3.8880974    975.36203   0.04684736  0.045938897           13 
 1736000   0.56194184   -3.8764309    975.58258  0.046830961  0.045912627           10 
 1737000   0.55690068   -3.8685967    973.75884  0.046716506  0.045886321           13 
 1738000   0.55084739   -3.8701264    974.83785  0.046741362  0.045860174            9 
 1739000   0.56093181   -3.8610192    976.36148  0.046787497  0.045834046           16 
 1740000   0.56444251   -3.8662789    978.13854  0.046845715  0.045808088            9 
 1741000   0.56195766   -3.8755922    976.33513  0.046732488  0.045782169            6 
 1742000   0.55276783   -3.8514344    975.03715  0.046643568  0.045756244           14 
 1743000   0.54725112   -3.8932049    974.88745   0.04660965  0.045730217            8 
 1744000    0.5477408   -3.8970502    973.91815  0.046536609  0.045704156           15 
 1745000   0.56002131   -3.8915375    977.20279    0.0466668   0.04567819           18 
 1746000   0.56193822   -3.8970154    976.91262  0.046626223   0.04565219           12 
 1747000   0.55995283   -3.9135032    975.26244  0.046520819  0.045626252            8 
 1748000   0.56023158   -3.8824836    977.87454  0.046618733  0.045600347            9 
 1749000   0.55651352   -3.8895101    978.46669  0.046620292  0.045574457           16 
 1750000   0.55469753   -3.8683121    978.53962  0.046597125  0.045548641           18 
 1751000   0.55568199   -3.8972069    978.50069   0.04656866  0.045522916            5 
 1752000   0.54225403   -3.8721365    979.25011  0.046577726  0.045497274           18 
 1753000   0.54883275   -3.8865135    977.32641  0.046459708   0.04547144            8 
 1754000   0.53858675   -3.8759158    978.30872   0.04647989  0.045445709           10 
 1755000    0.5446754   -3.8857213    977.46321  0.046413258   0.04541995           15 
 1756000   0.55523858   -3.8832085    975.46777  0.046292131  0.045394178           13 
 1757000   0.54446849   -3.8889019    975.56663  0.046270472  0.045368364           11 
 1758000   0.54729583    -3.885983    978.39817  0.046378373  0.045342672            9 
 1759000   0.55474578   -3.8795133    973.20148  0.046105812  0.045316949           10 
 1760000   0.54906097   -3.8955439     977.1902  0.046268475  0.045291111           12 
 1761000   0.56304519    -3.874505    975.97919  0.046184895  0.045265382           18 
 1762000   0.54833636   -3.8897705    976.39126  0.046178172  0.045239737           28 
 1763000   0.54420464   -3.8870247    978.61269  0.046256981   0.04521408           28 
 1764000   0.54089993   -3.8823914    977.44372  0.046175535  0.045188485           15 
 1765000   0.53819225   -3.8925249    977.49165  0.046151636  0.045162823           13 
 1766000   0.55002563   -3.9129965    976.72637  0.046089391  0.045137104           13 
 1767000    0.5661823   -3.8860166    977.70051  0.046109249  0.045111438           32 
 1768000   0.54268865   -3.8966489    978.05343  0.046099803  0.045085775           14 
 1769000    0.5562847   -3.9117696    978.54862  0.046097071  0.045060042           15 
 1770000   0.55314252   -3.9127587    978.17328  0.046053356    0.0450345           15 
 1771000   0.55138138   -3.8961423    978.57169  0.046046099  0.045008868           14 
 1772000    0.5552024   -3.8889424    976.08945  0.045903379  0.044983209           18 
 1773000   0.55097887   -3.9055378    978.28458  0.045980663  0.044957532           17 
 1774000   0.54167387    -3.880876    978.08328  0.045945287  0.044931739           10 
 1775000   0.54497533   -3.9011966    976.33402  0.045837278  0.044906047           11 
 1776000   0.54828522   -3.9116138    974.23129  0.045712805  0.044880103           22 
 1777000   0.54634789   -3.9066621    976.99309  0.045816596  0.044854299           13 
 1778000   0.54212947   -3.9227668    978.40657  0.045857076  0.044828419           13 
 1779000   0.54635445    -3.908213    976.78914  0.045755534  0.044802603           16 
 1780000   0.54341337   -3.9085707    976.59101  0.045720553  0.044776804           33 
 1781000   0.53422987   -3.9006013    979.33216  0.045823141  0.044751123            9 
 1782000   0.54490097    -3.910772    976.60458  0.045669874  0.044725427           29 
 1783000   0.53087515   -3.9121214    976.79744  0.045653273  0.044699769           24 
 1784000   0.54206484   -3.9190978    978.92025  0.045726843  0.044673968           10 
 1785000   0.53075661   -3.8854497    977.09653  0.045616084  0.044648349            5 
 1786000   0.55136117   -3.9004705    978.06896  0.045635916  0.044622645           11 
 1787000    0.5475847   -3.9094766    979.65836  0.045684497  0.044596897           20 
 1788000   0.55323723   -3.9141353     977.5421  0.045560314  0.044571101            8 
 1789000   0.53158394   -3.9375755    974.49543  0.045392931  0.044545343           12 
 1790000   0.54534715   -3.9103805    978.37275  0.045548079  0.044519629            9 
 1791000    0.5513174   -3.9248783    977.63159  0.045488163  0.044493945            8 
 1792000    0.5338003   -3.9113353    975.44223  0.045360967  0.044468211            7 
 1793000   0.54341912    -3.914084    976.22456  0.045372028  0.044442531           16 
 1794000   0.53338545   -3.9125049     979.0892  0.045479803   0.04441697           16 
 1795000   0.53538571    -3.925582    978.40983  0.045422926  0.044391488           26 
 1796000   0.52900603   -3.9011381    978.39337  0.045396871  0.044366166            7 
 1797000   0.53551623    -3.897987    977.92596  0.045349933  0.044340694           20 
 1798000   0.53855957   -3.9099374    978.40349  0.045346843  0.044315144           14 
 1799000   0.54242152   -3.9186449    980.36849   0.04541266  0.044289725           21 
 1800000   0.53164144    -3.916086    980.00008  0.045370374   0.04426423           11 
 1801000   0.53491544   -3.9216691    980.42614  0.045364896  0.044238709           32 
 1802000   0.52549612   -3.9389659    976.66166  0.045165633  0.044213215            6 
 1803000    0.5329791   -3.9195109    977.77822   0.04519219  0.044187716           13 
 1804000   0.53955396   -3.9376387    980.25808  0.045281692  0.044162283            9 
 1805000   0.52893018     -3.93068    977.91867    0.0451486   0.04413672           17 
 1806000    0.5354098   -3.9302505     978.6207  0.045155994   0.04411125           16 
 1807000   0.53084759   -3.9427384    978.82101  0.045140242  0.044085823           29 
 1808000   0.52423133   -3.9447026    978.13604  0.045083704  0.044060269            9 
 1809000   0.53431749   -3.9204651    978.69786  0.045084663  0.044034742           11 
 1810000   0.52241188   -3.9345561    977.14373  0.044988201  0.044009246           10 
 1811000    0.5399319   -3.9313803    980.03777  0.045096529  0.043983776           19 
 1812000   0.52928186   -3.9331367    981.39884  0.045134236  0.043958365           30 
 1813000   0.53802474   -3.9067443    978.14962  0.044959993  0.043932952           16 
 1814000   0.52786928   -3.9241501    976.30094  0.044850282  0.043907492            8 
 1815000   0.53564799   -3.9391498    977.49734  0.044880502  0.043882098           14 
 1816000    0.5471627    -3.927936    979.67892  0.044955898  0.043856673            9 
 1817000    0.5336284   -3.9266817    981.13039  0.044997725  0.043831312           29 
 1818000   0.52147404   -3.9366558    979.62901  0.044904153   0.04380605           20 
 1819000   0.52085904   -3.9402126    979.66266  0.044881009  0.043780693           44 
 1820000   0.51891293   -3.9187014    976.40305  0.044707099  0.043755215           20 
 1821000   0.52706449   -3.9230721    979.72159  0.044834413  0.043729837           10 
 1822000   0.52661962    -3.945752    980.65359  0.044852433  0.043704455           10 
 1823000   0.50470073     -3.93609    981.00302  0.044843803  0.043679172           10 
 1824000   0.51766036    -3.941462    977.30726  0.044650368   0.04365384           15 
 1825000   0.52292732   -3.9501055    978.12557  0.044663268  0.043628438           14 
 1826000   0.53041369   -3.9213445    979.60562  0.044706354   0.04360314           40 
 1827000   0.52890011   -3.9340802    980.11689  0.044705204  0.043577852           15 
 1828000   0.53441435   -3.9359027    977.64881  0.044568235  0.043552433           12 
 1829000   0.52351724   -3.9434127     978.2665  0.044572011  0.043526991           21 
 1830000   0.52656816    -3.942098    979.49738  0.044603706  0.043501655           12 
 1831000   0.53438502   -3.9365783      979.059  0.044559394  0.043476379           11 
 1832000   0.53673947   -3.9437842    979.22665  0.044542697  0.043451074           13 
 1833000   0.51565159   -3.9332151    979.37286  0.044525044  0.043425703           34 
 1834000    0.5211279   -3.9401416    979.33402  0.044499001   0.04340035           17 
 1835000   0.53111978   -3.9381923    977.92077  0.044410571  0.043375023           30 
 1836000   0.53247429   -3.9497396    974.73118  0.044241611  0.043349668           17 
 1837000   0.52398009   -3.9584553    979.97431  0.044455376   0.04332423           23 
 1838000   0.52073086   -3.9538957    978.63057  0.044370265  0.043298878           15 
 1839000     0.505521    -3.935689    976.79151  0.044262802   0.04327348           12 
 1840000   0.51697945    -3.958629    978.92329  0.044335294  0.043248109            8 
 1841000   0.50503612   -3.9521488    978.11689   0.04427471  0.043222858           18 
 1842000   0.52281066   -3.9627943    978.87571  0.044285003  0.043197456            6 
 1843000   0.50797326   -3.9830434    978.15686  0.044228471   0.04317202           16 
 1844000   0.50728817   -3.9637089    979.16645  0.044250111  0.043146603           16 
 1845000   0.51456085   -3.9358644    977.96399  0.044171815  0.043121354           14 
 1846000   0.52252625   -3.9617295    977.18936  0.044112918  0.043096223           13 
 1847000   0.50910569   -3.9559541    981.52386    0.0442846  0.043071011           16 
 1848000   0.51724718   -3.9589955    980.32278  0.044206475  0.043045713           14 
 1849000   0.52308325   -3.9571998    981.45314  0.044233511  0.043020502           11 
 1850000   0.50965582   -3.9479983    979.13373  0.044105123  0.042995281           14 
 1851000   0.51211315   -3.9586164    982.05017  0.044212595    0.0429702           15 
 1852000   0.51568637   -3.9557659    978.90543  0.044047221  0.042945115           14 
 1853000   0.51654442   -3.9517088     981.9667  0.044161122  0.042920072            8 
 1854000   0.50757671   -3.9523733    980.79007  0.044084415  0.042895088           13 
 1855000   0.50628303   -3.9420752    979.24993  0.043991461  0.042870132           12 
 1856000   0.51147394   -3.9554414    981.14199  0.044052712  0.042845024           21 
 1857000   0.51136705   -3.9564598    979.60593  0.043960058  0.042819933           17 
 1858000   0.51879217    -3.961492    976.90877  0.043815428  0.042794675           29 
 1859000   0.51330726   -3.9711026    979.80755  0.043921801  0.042769546           27 
 1860000   0.51680659   -3.9652324     978.9052   0.04385776  0.042744388           15 
 1861000   0.51763961    -3.975512    980.39659  0.043900976  0.042719284           13 
 1862000   0.50717512   -3.9794694    978.79616  0.043805771  0.042694165           19 
 1863000   0.52148831    -3.965298    979.57322  0.043817016  0.042669077           10 
 1864000   0.50724997   -3.9627984    982.26089  0.043913666  0.042644088           12 
 1865000    0.5062709   -3.9587348    978.47622  0.043721011  0.042619028           29 
 1866000   0.50531007   -3.9508058    977.07754  0.043635117  0.042594049           11 
 1867000   0.51836737   -3.9703871     978.3642  0.043669175  0.042568931           11 
 1868000    0.5079222     -3.95736    980.58379  0.043744816  0.042543866           11 
 1869000   0.49890595   -3.9683722    977.92734  0.043602967  0.042518814           12 
 1870000   0.49966403    -3.966746    978.08621   0.04358673   0.04249373           10 
 1871000   0.49028255   -3.9657677    977.95845  0.043557743  0.042468655           30 
 1872000   0.49779685    -3.982497    980.62855  0.043653336  0.042443567           11 
 1873000   0.50384505   -3.9605838    980.80476   0.04363787  0.042418632           25 
 1874000   0.51489997   -3.9799238     979.0349  0.043535881  0.042393671           17 
 1875000   0.51499474   -3.9735085    979.73335  0.043543704  0.042368756           27 
 1876000   0.50344928   -3.9901226    978.99683  0.043487777  0.042343603           90 
 1877000   0.49608154   -3.9729506    978.96628  0.043463251   0.04231856           28 
 1878000   0.50837291   -3.9614735    982.22527  0.043584721  0.042293566           24 
 1879000   0.49442888   -3.9778766    979.77949  0.043453055  0.042268692           17 
 1880000   0.50017383   -3.9818117    980.01715  0.043440477  0.042243707           10 
 1881000   0.50357176   -3.9788461    976.54282   0.04326346  0.042218761            8 
 1882000   0.49878464   -3.9653652    979.76772  0.043383268  0.042193764           14 
 1883000   0.50162281   -3.9807288    981.27667  0.043427008  0.042168842           13 
 1884000   0.49878673   -3.9875791    979.22118  0.043313039  0.042143844           10 
 1885000   0.50059797   -3.9712366    978.60562  0.043262848  0.042118782           10 
 1886000   0.49998665   -3.9741352    975.00178  0.043080673  0.042093774           46 
 1887000   0.50471644   -3.9800598    979.32262  0.043248658  0.042068771           16 
 1888000   0.50641867   -3.9808147    979.23441  0.043221858  0.042043857           20 
 1889000   0.49668289   -3.9693295    981.42259  0.043295509  0.042018906           25 
 1890000   0.48025994   -3.9988955    979.05057  0.043168015  0.041993958           39 
 1891000   0.49742507   -3.9905979    979.87946  0.043181714  0.041969044           11 
 1892000   0.49864956    -3.996039    978.36044  0.043091986  0.041944147           21 
 1893000   0.49836749    -3.990462    980.18481  0.043149534  0.041919297            9 
 1894000   0.50480876   -4.0049943     979.5493   0.04309879  0.041894347           14 
 1895000   0.49429549   -3.9982451    980.20978  0.043105092  0.041869476           16 
 1896000   0.50012583   -3.9889808    980.11572  0.043078222  0.041844633            7 
 1897000   0.50126437   -3.9925512    980.81579  0.043086267   0.04181976           19 
 1898000   0.48988735   -4.0028439    979.36432  0.042999838  0.041794855           14 
 1899000   0.49444574   -3.9744987      981.159  0.043055951  0.041770051           26 
 1900000    0.4941955   -4.0016293    979.63804  0.042966581  0.041745291           17 
 1901000   0.49207626   -3.9984612    978.50217  0.042894186  0.041720417           52 
 1902000   0.49481386   -4.0024434    980.36394  0.042953204  0.041695537           42 
 1903000   0.48582766   -4.0014758     977.1255   0.04278882  0.041670683           22 
 1904000   0.49463065   -3.9982964    980.99663  0.042935777  0.041645936           38 
 1905000   0.49984963   -4.0078546    979.45467  0.042845786  0.041621151           20 
 1906000   0.48609593   -4.0062834    979.51642  0.042826006  0.041596362            8 
 1907000   0.48037605   -4.0093943    979.26301  0.042792476  0.041571672            7 
 1908000   0.50196439   -3.9992957      979.811  0.042793981  0.041546865            9 
 1909000   0.48458875   -4.0012439    977.58192  0.042674259  0.041522056           15 
 1910000   0.49632636   -4.0024759    979.74128  0.042746129  0.041497433           18 
 1911000   0.48918007   -3.9780523    980.10132  0.042739461  0.041472752           18 
 1912000    0.4948904   -3.9943067    980.80496  0.042747775   0.04144808            9 
 1913000    0.4917459   -4.0086113    980.59576  0.042716316  0.041423504           10 
 1914000   0.49273723   -4.0073668    977.34583    0.0425525  0.041398859           16 
 1915000   0.48553986   -4.0096079    980.28609  0.042658229  0.041374247           12 
 1916000    0.4884771   -4.0061595    982.12929  0.042716131  0.041349544           15 
 1917000   0.50283065   -4.0081649    980.55444  0.042625389  0.041324982           28 
 1918000   0.49950452   -4.0053738    981.23809  0.042632868  0.041300377            9 
 1919000   0.49764771   -3.9999656    982.20786  0.042652764  0.041275846           19 
 1920000   0.49257787   -3.9954853    980.26055  0.042546031  0.041251322           37 
 1921000   0.48692246   -4.0113427    980.10138  0.042516978  0.041226781           56 
 1922000   0.47601949   -4.0027873    978.45198  0.042423343  0.041202204           34 
 1923000   0.48436069   -4.0141539    982.17958  0.042562818  0.041177757           29 
 1924000   0.48524596   -4.0019871    979.45017  0.042422478  0.041153213           24 
 1925000   0.48330246   -4.0099102    980.16195  0.042431253  0.041128723           17 
 1926000   0.49525953   -4.0110726    981.63163  0.042472812  0.041104299           24 
 1927000   0.48842083   -4.0116637    979.92535  0.042376983   0.04107984           17 
 1928000    0.4813542   -4.0110064    981.94596  0.042442339  0.041055408           50 
 1929000    0.4931675   -4.0267877    977.44219  0.042225773  0.041030882           30 
 1930000   0.47568424   -4.0217502    977.64524  0.042212661  0.041006217           13 
 1931000   0.47523967   -4.0141306    979.16496  0.042256385  0.040981589           18 
 1932000   0.47798354   -4.0329366    978.93271  0.042224496  0.040956983           38 
 1933000   0.47373943   -4.0272925    981.53629  0.042314894  0.040932451           22 
 1934000   0.47904984    -4.030732    979.39949  0.042200943  0.040907931           43 
 1935000   0.49534804   -4.0197089    978.69786  0.042148917  0.040883411           22 
 1936000   0.47616697   -4.0262693    980.09913  0.042187463  0.040858964           30 
 1937000   0.48802862   -4.0372579    980.92406  0.042201173  0.040834506           19 
 1938000   0.48488924   -4.0273963    978.92093  0.042093263  0.040810085           11 
 1939000   0.47284312   -4.0296021    979.28532  0.042087215  0.040785616           14 
 1940000   0.47390573   -4.0140255    978.44172  0.042029284  0.040761307           24 
 1941000   0.47171905   -4.0269807    979.34063  0.042046223  0.040737042           28 
 1942000   0.47627433   -4.0362265    978.72085  0.041997977  0.040712741           20 
 1943000   0.47751121   -4.0326444      977.798  0.041936782  0.040688352           13 
 1944000   0.48950733   -4.0206482    979.76378  0.041999476  0.040663997            9 
 1945000   0.48052679   -4.0244487      980.061  0.041990617   0.04063964           49 
 1946000    0.4848398   -4.0168292    977.89327  0.041876211  0.040615239           16 
 1947000   0.47248879   -4.0274608    980.46115   0.04196461  0.040590916           21 
 1948000   0.47807394   -4.0312407     981.6785  0.041995145  0.040566619           30 
 1949000    0.4624826   -4.0327739    979.54972  0.041882577  0.040542298           17 
 1950000   0.47848777   -4.0265521    981.17773  0.041930672  0.040517919           33 
 1951000    0.4622306   -4.0341008    979.57664  0.041840793  0.040493627           15 
 1952000   0.47457645    -4.054237    980.51717   0.04185951  0.040469316           29 
 1953000   0.47198182   -4.0397616    978.28199  0.041742703  0.040444925           13 
 1954000   0.47982942    -4.040631    979.91666  0.041791055  0.040420638           10 
 1955000   0.48040181   -4.0385068    977.36554  0.041660935  0.040396323           12 
 1956000   0.47203181   -4.0481436    978.30159  0.041679516  0.040371901           49 
 1957000   0.48280544   -4.0404752    977.05033  0.041604937  0.040347563           45 
 1958000   0.46452037   -4.0396707    979.52613  0.041689059   0.04032325           52 
 1959000   0.47370662   -4.0282262    980.17984  0.041695586  0.040298968           18 
 1960000   0.47022381   -4.0345412    978.71104  0.041611864  0.040274737           23 
 1961000   0.47092267   -4.0266845    980.01655  0.041646122  0.040250472           14 
 1962000   0.47066269   -4.0489321    977.79478  0.041530529  0.040226241           15 
 1963000   0.47648006   -4.0254827    980.50163  0.041624284  0.040202065           15 
 1964000   0.46245573   -4.0380337    979.00829  0.041539727  0.040177881           22 
 1965000   0.47014624   -4.0465674    977.47711  0.041453652  0.040153585           14 
 1966000   0.46126685   -4.0290022    979.01471  0.041497741  0.040129312           29 
 1967000   0.46009299   -4.0350756    978.07807  0.041436963  0.040105107           41 
 1968000   0.47966197   -4.0463479    977.40925  0.041387587  0.040080842           32 
 1969000   0.46874927   -4.0400977    978.93078  0.041430963  0.040056606           35 
 1970000   0.47093715   -4.0406822      978.824  0.041405415  0.040032358           15 
 1971000   0.46619683   -4.0641595    978.83161  0.041384729   0.04000818           24 
 1972000   0.46734314    -4.055897    977.29205  0.041298684  0.039983927           14 
 1973000   0.47528873   -4.0497634    977.47262  0.041285378  0.039959697           34 
 1974000    0.4586972   -4.0439097    976.94406   0.04124215  0.039935407           33 
 1975000   0.46812232   -4.0459829    977.20326  0.041232205    0.0399112           24 
 1976000   0.46420569   -4.0622364    976.69714  0.041189994  0.039887001            9 
 1977000   0.46545406   -4.0747868    978.92381  0.041263017  0.039862811           29 
 1978000   0.46444488   -4.0616841    978.64573   0.04123044  0.039838637           38 
 1979000   0.45358375   -4.0443234    979.18793  0.041232437  0.039814509           36 
 1980000   0.45826187   -4.0613813    979.21867  0.041212907  0.039790354           26 
 1981000    0.4560376   -4.0631546    978.22086  0.041150129  0.039766171           15 
 1982000   0.46657257   -4.0511253    978.46479  0.041139623  0.039742027           27 
 1983000   0.46488957   -4.0485303    975.80077  0.041006924  0.039717856           49 
 1984000   0.46405478    -4.057192    978.55334  0.041101871  0.039693731           39 
 1985000   0.46152141   -4.0606597    978.79347  0.041091246  0.039669602           31 
 1986000   0.46612403   -4.0535086    976.91313  0.040991655  0.039645455           22 
 1987000   0.46697169   -4.0652672    977.89566  0.041012232  0.039621353           32 
 1988000   0.46908246   -4.0680569    977.81427   0.04098819  0.039597321           38 
 1989000   0.45902201   -4.0396448    979.29967  0.041029817  0.039573288           27 
 1990000   0.45208469   -4.0485584     977.4301  0.040930909  0.039549267           49 
 1991000   0.45518417   -4.0492281     978.5693  0.040958032  0.039525261           67 
 1992000   0.46273706   -4.0564218    977.70769  0.040901426  0.039501257           28 
 1993000   0.45567963   -4.0578714    978.03451  0.040894569  0.039477304           39 
 1994000   0.45662631    -4.044198    978.43222  0.040890681  0.039453225           35 
 1995000   0.45567438   -4.0667267    975.98558  0.040767986   0.03942917           31 
 1996000   0.45818344   -4.0904836     977.7766  0.040822336  0.039405072           57 
 1997000    0.4619014   -4.0725993    976.34836  0.040742295  0.039380992           90 
 1998000   0.45726672   -4.0748574    976.52384  0.040729223  0.039356857           37 
 1999000   0.44810422    -4.079554    978.00415  0.040770558  0.039332814           66 
 2000000   0.44746916   -4.0794492    977.33722  0.040722384  0.039308813           36 
 2001000   0.44979555   -4.0874152    976.14004  0.040652176  0.039284789           47 
 2002000   0.45257937   -4.0714977    977.16244  0.040674427  0.039260831           28 
 2003000   0.45786487   -4.0870398    976.80809  0.040639378  0.039236851           54 
 2004000   0.44561252   -4.0710748    978.16568  0.040675552  0.039212987           84 
 2005000   0.45143769   -4.0820881    980.92442  0.040769926  0.039189127           43 
 2006000   0.45138297   -4.0784382    975.31224   0.04051646   0.03916519           20 
 2007000   0.45957436   -4.0815901    976.62464  0.040550766  0.039141255           72 
 2008000   0.45132065   -4.0775673    977.87363  0.040582405  0.039117385           37 
 2009000    0.4531474    -4.044444    980.61796  0.040676039  0.039093575           64 
 2010000   0.45249322   -4.0641091    978.63358  0.040573532  0.039069775           31 
 2011000   0.44747834   -4.0756857    977.60327  0.040510661  0.039045963           34 
 2012000   0.44680875   -4.0734959    978.03343  0.040508343  0.039022171           32 
Loop time of 4874.5 on 48 procs for 2000000 steps with 4000 atoms

Performance: 70899.607 tau/day, 410.299 timesteps/s
99.4% CPU use with 48 MPI tasks x no OpenMP threads

MPI task timing breakdown:
Section |  min time  |  avg time  |  max time  |%varavg| %total
---------------------------------------------------------------
Pair    | 321.8      | 338.75     | 357.28     |  52.7 |  6.95
Neigh   | 32.9       | 34.197     | 35.709     |  12.7 |  0.70
Comm    | 314.67     | 336.46     | 355.01     |  56.4 |  6.90
Output  | 4.1063     | 4.108      | 4.1397     |   0.2 |  0.08
Modify  | 4109.7     | 4116.2     | 4122.6     |   4.9 | 84.44
Other   |            | 44.8       |            |       |  0.92

Nlocal:        83.3333 ave          92 max          75 min
Histogram: 1 5 2 5 9 16 6 2 1 1
Nghost:        2211.75 ave        2230 max        2190 min
Histogram: 2 1 2 7 10 2 11 6 3 4
Neighs:        14783.5 ave       16905 max       12991 min
Histogram: 1 4 4 8 9 14 4 1 1 2
FullNghs:      29566.6 ave       32601 max       26458 min
Histogram: 1 5 2 5 4 15 12 0 3 1

Total # of neighbors = 1419196
Ave neighs/atom = 354.79900
Neighbor list builds = 108340
Dangerous builds = 0

#clear
#
#next RN
#
#jump SELF
Total wall time: 1:21:17
