
units lj                  # Use reduced LJ style units
atom_style atomic         # Uncharged point particles
atom_modify map hash      # Needed for indexing of clusters etc
                          # Used to be able to find where atoms are in relation to each other.

lattice fcc 1.0 spacing 1 1 1
Lattice spacing in x,y,z = 1.5874011 1.5874011 1.5874011
region box block 0 10 0 10 0 10 units lattice
create_box 2 box
Created orthogonal box = (0.0000000 0.0000000 0.0000000) to (15.874011 15.874011 15.874011)
  3 by 4 by 4 MPI processor grid
create_atoms 1 box
Created 4000 atoms
  using lattice units in orthogonal box = (0.0000000 0.0000000 0.0000000) to (15.874011 15.874011 15.874011)
  create_atoms CPU = 0.014 seconds
set type 1 type/fraction 2 0.75 78393
Setting atom values ...
  3002 settings made for type/fraction
mass 1 1.0
mass 2 1.0
pair_style lj/cut  3.5
pair_modify tail  yes
pair_coeff 1  1  1.0  1.0   # Intearaction between 1 and 1 set with epsilon = 1 and sigma = 1
pair_coeff 1  2  1.5  0.8
pair_coeff 2  2  0.5  0.88

write_data data.0
System init for write_data ...
Neighbor list info ...
  update every 1 steps, delay 10 steps, check yes
  max neighbors/atom: 2000, page size: 100000
  master list distance cutoff = 3.8
  ghost atom cutoff = 3.8
  binsize = 1.9, bins = 9 9 9
  1 neighbor lists, perpetual/occasional/extra = 1 0 0
  (1) pair lj/cut, perpetual
      attributes: half, newton on
      pair build: half/bin/atomonly/newton
      stencil: half/bin/3d
      bin: standard
WARNING: Not all mixed pair coeffs generated from mixing. Use write_data with 'pair ij' option to store all pair coeffs. (../write_data.cpp:312)


#############################
#   M E L T   S Y S T E M   #
#############################

velocity all create 2.4 1741580 mom yes dist gaussian # Assign velocities
                                                    # Temperature 2.4, random number seed, zero linear momentum
                                                                                # Gaussian distribution

timestep 0.002   # simulation timestep
thermo 1000       # output thermodynamic data every 1000 steps bf 100

# Define a fix  in this case with index 1 applied to all
# particles in the simulation. This fix is for simulations
# in the anisotropic NPT ensemble. Note that we use the MTK
# correction.
fix 1 all npt temp 2.4 2.4 0.1 iso 5.68 5.68 0.5 mtk yes tchain 5 pchain 5 # Use NPT ensemble
                                                                         # Set temperature and pressure and damping
                                                                         # Numbers of thermostats in chain and in barostat
run 10000          # run for 10000 steps
Per MPI rank memory allocation (min/avg/max) = 3.642 | 3.644 | 3.648 Mbytes
Step Temp E_pair E_mol TotEng Press Volume 
       0          2.4    -3.937065            0  -0.33796495   -3.5201857         4000 
    1000    2.4119611   -3.3616114            0    0.2554257    5.7769111    3759.6175 
    2000    2.4270112   -3.4488346            0   0.19077205    5.5669845    3710.4418 
    3000    2.3537786   -3.4126377            0    0.1171475    5.9328602    3687.3252 
    4000    2.4207834   -3.4690777            0   0.16118964    5.7133302    3702.1985 
    5000     2.399175   -3.4000905            0    0.1977723     5.662092    3729.4166 
    6000    2.4289271   -3.4503382            0   0.19214169    5.3816769    3746.7779 
    7000    2.4095004   -3.3886885            0   0.22465865    5.7101124     3752.474 
    8000    2.4251364   -3.4724319            0   0.16436334    5.2555243    3736.4671 
    9000    2.4094571   -3.4408734            0   0.17240876    5.7832695    3698.4053 
   10000    2.4222471   -3.4406079            0   0.19185445    5.6801248    3726.0968 
Loop time of 2.66274 on 48 procs for 10000 steps with 4000 atoms

Performance: 648955.491 tau/day, 3755.529 timesteps/s
99.6% CPU use with 48 MPI tasks x no OpenMP threads

MPI task timing breakdown:
Section |  min time  |  avg time  |  max time  |%varavg| %total
---------------------------------------------------------------
Pair    | 1.1637     | 1.2454     | 1.3276     |   3.4 | 46.77
Neigh   | 0.21175    | 0.22291    | 0.23996    |   1.0 |  8.37
Comm    | 0.80483    | 0.88513    | 0.97503    |   4.3 | 33.24
Output  | 0.00025001 | 0.00025602 | 0.00032244 |   0.0 |  0.01
Modify  | 0.26493    | 0.29353    | 0.32377    |   3.0 | 11.02
Other   |            | 0.01546    |            |       |  0.58

Nlocal:        83.3333 ave         100 max          72 min
Histogram: 1 6 4 17 9 1 6 3 0 1
Nghost:        1718.12 ave        1745 max        1699 min
Histogram: 2 8 5 9 9 5 6 2 1 1
Neighs:        10259.1 ave       12452 max        8595 min
Histogram: 2 4 6 9 13 5 5 2 1 1

Total # of neighbors = 492438
Ave neighs/atom = 123.10950
Neighbor list builds = 908
Dangerous builds = 205

# Equilibrate just above the melting temperature to avoid step fn in T

fix 1 all npt temp 1.25 1.25 0.1 iso 5.68 5.68 0.5 mtk yes tchain 5 pchain 5
run 2000
Per MPI rank memory allocation (min/avg/max) = 3.644 | 3.646 | 3.649 Mbytes
Step Temp E_pair E_mol TotEng Press Volume 
   10000    2.4222471   -3.4406079            0   0.19185445    5.6801248    3726.0968 
   11000    1.2362776   -5.0801855            0   -3.2262327    5.6686763    2838.5084 
   12000    1.2641565   -5.1077456            0   -3.2119849    5.6380445    2830.4791 
Loop time of 0.655916 on 48 procs for 2000 steps with 4000 atoms

Performance: 526897.090 tau/day, 3049.173 timesteps/s
99.6% CPU use with 48 MPI tasks x no OpenMP threads

MPI task timing breakdown:
Section |  min time  |  avg time  |  max time  |%varavg| %total
---------------------------------------------------------------
Pair    | 0.29066    | 0.31984    | 0.37048    |   2.4 | 48.76
Neigh   | 0.040411   | 0.042981   | 0.048084   |   0.7 |  6.55
Comm    | 0.18941    | 0.24431    | 0.27153    |   3.1 | 37.25
Output  | 5.1882e-05 | 5.3124e-05 | 6.8129e-05 |   0.0 |  0.01
Modify  | 0.03907    | 0.043764   | 0.047583   |   1.2 |  6.67
Other   |            | 0.004963   |            |       |  0.76

Nlocal:        83.3333 ave          89 max          74 min
Histogram: 1 0 2 2 8 7 10 2 11 5
Nghost:        2069.19 ave        2090 max        2052 min
Histogram: 2 2 10 7 6 8 7 4 1 1
Neighs:        13487.0 ave       15102 max       12167 min
Histogram: 3 4 5 7 13 4 5 3 2 2

Total # of neighbors = 647377
Ave neighs/atom = 161.84425
Neighbor list builds = 141
Dangerous builds = 13

#############################
# L I N E A R  Q U E N C H  #
#############################

# Define solid atoms. This closely follows ten Wolde  Ruiz-Montero and Frenkel  Faraday Discuss  1996  104  93-110
# Compute components of the per-atom q6 vector
compute q6 all orientorder/atom degrees 1 6 components 6 nnn NULL cutoff 1.3 # compute the Q6 parameter.
                                                                             # Use all neighbours within 1.3 unit cell.

# get number of connections
compute coord_number all coord/atom orientorder q6 0.5

# An atom is solid if it has 8 or more connections (of a possible 14)
variable is_solid atom c_coord_number>=8
group solid dynamic all var is_solid    # Must be dynamic to update
dynamic group solid defined

# do clustering
compute cluster solid cluster/atom 1.3 # Create a cluster where all atoms within are solid and max 1.3 units from another member

# define chunks one chunk per cluster
compute clus_chunks solid chunk/atom c_cluster nchunk every compress yes  # Says which atoms are in which chunk

# count the size of each chunk
compute size_chunks solid property/chunk clus_chunks count


# Find the maximum entry in the vector of chunk sizes
variable max_n equal max(c_size_chunks)


# Thermo style which includes this variable
# thermo_style custom step temp pe vol v_max_n

thermo ${N}  # Print the thermo information every 100 steps
thermo 1000  

# Reset the npt fix at a lower temperature (below freezing)
fix 1  all npt temp  ${temp} ${temp}  0.1  iso  5.68  5.68  0.5  mtk yes tchain  5  pchain  5
fix 1  all npt temp  0.45 ${temp}  0.1  iso  5.68  5.68  0.5  mtk yes tchain  5  pchain  5
fix 1  all npt temp  0.45 0.45  0.1  iso  5.68  5.68  0.5  mtk yes tchain  5  pchain  5

dump dmp2 all dcd ${N} traj.dcd
dump dmp2 all dcd 1000 traj.dcd


compute msd all msd com yes
variable twopoint equal c_msd[4]/6/(step*dt+1.0e-6)
fix 9 all vector 10 c_msd[4]
variable fit equal slope(f_9)/6/(10*dt)
thermo_style custom step temp pe c_msd[4] v_twopoint v_fit v_max_n

fix 1 all npt temp 1.25 ${temp} 0.1 iso 5.68 5.68 0.5 mtk yes tchain 5 pchain 5
fix 1 all npt temp 1.25 0.45 0.1 iso 5.68 5.68 0.5 mtk yes tchain 5 pchain 5
run 500000 # 5000000  # Run for this many steps
Neighbor list info ...
  update every 1 steps, delay 10 steps, check yes
  max neighbors/atom: 2000, page size: 100000
  master list distance cutoff = 3.8
  ghost atom cutoff = 3.8
  binsize = 1.9, bins = 8 8 8
  4 neighbor lists, perpetual/occasional/extra = 1 3 0
  (1) pair lj/cut, perpetual
      attributes: half, newton on
      pair build: half/bin/atomonly/newton
      stencil: half/bin/3d
      bin: standard
  (2) compute orientorder/atom, occasional
      attributes: full, newton on
      pair build: full/bin/atomonly
      stencil: full/bin/3d
      bin: standard
  (3) compute coord/atom, occasional
      attributes: full, newton on
      pair build: full/bin/atomonly
      stencil: full/bin/3d
      bin: standard
  (4) compute cluster/atom, occasional
      attributes: full, newton on
      pair build: full/bin/atomonly
      stencil: full/bin/3d
      bin: standard
Per MPI rank memory allocation (min/avg/max) = 9.840 | 9.844 | 9.849 Mbytes
Step Temp PotEng c_msd[4] v_twopoint v_fit v_max_n 
   12000    1.2641565   -5.1077456 1.9721523e-34 1.3695501e-36 8.3333333e+20            2 
   13000    1.2624383   -5.0887579   0.69525677  0.004456774  0.058113206            1 
   14000    1.2382513   -5.1312889    1.3717665 0.0081652766  0.057136097            2 
   15000    1.2742215   -5.0878864    2.0598186  0.011443436  0.057033061            2 
   16000    1.2423827   -5.0976359    2.7104468   0.01411691  0.056874594            2 
   17000    1.2326455   -5.0754805    3.4422619  0.016873832  0.056696619            1 
   18000    1.2442753   -5.1384921    4.1159927  0.019055521  0.056953155            4 
   19000    1.2456388   -5.1272052    4.8075131  0.021085583  0.057171087            2 
   20000    1.2481815   -5.1032639    5.4303711  0.022626546  0.057029522            2 
   21000    1.2188337   -5.1384016    6.1151745  0.024266565  0.056659469            3 
   22000    1.2404453   -5.1741608    6.8604432  0.025986527  0.056750017            3 
   23000    1.2398475   -5.1337414    7.5588833  0.027387258  0.056803423            3 
   24000    1.2381543   -5.1177997      8.27592  0.028735833   0.05696214            5 
   25000    1.2150955   -5.1489728      8.92411  0.029747033  0.057147169            2 
   26000    1.2214935    -5.167449    9.5744953  0.030687484   0.05713939            3 
   27000    1.2065469   -5.1333038     10.40117  0.032102375  0.057243024            2 
   28000    1.2269689   -5.1173158    11.005169  0.032753479  0.057338474            3 
   29000    1.2177208   -5.1406582     11.68502  0.033577644  0.057301749            4 
   30000    1.1931933   -5.1506236    12.275379  0.034098275  0.057194396            1 
   31000    1.2276287   -5.1801543    12.895692  0.034665838  0.057105754            3 
   32000    1.1933887   -5.1813307    13.472077  0.035083533  0.056854996            1 
   33000    1.2258073   -5.1944813    14.185824  0.035822786  0.056673974            3 
   34000    1.2353836   -5.2005453    14.724423  0.036089271  0.056489157            2 
   35000     1.213722   -5.1453248    15.371756  0.036599419  0.056290957            1 
   36000    1.1892434   -5.1719669    15.923399  0.036859719  0.056008805            4 
   37000    1.2054721    -5.199642    16.644185  0.037486902  0.055825833            2 
   38000    1.2542624   -5.1727519    17.414385  0.038189441  0.055752189            2 
   39000    1.1737388   -5.1389109    18.114768  0.038706769  0.055683238            3 
   40000      1.17751   -5.1747169    18.796229  0.039158809  0.055656716            2 
   41000    1.1998038   -5.1782908    19.399234  0.039429337  0.055624512            3 
   42000    1.2028225   -5.1748495    20.080042  0.039841353  0.055603817            1 
   43000    1.1811673   -5.2170346    20.848288  0.040403658  0.055596876            3 
   44000    1.1962518   -5.2230248    21.363948  0.040462023  0.055593055            3 
   45000    1.1982185   -5.2043947     21.91247  0.040578647  0.055523231            3 
   46000    1.1895329   -5.1845799    22.547458  0.040846843  0.055417525            2 
   47000    1.1948336   -5.2368448    23.112379  0.040979395  0.055315975            2 
   48000    1.1657786   -5.1729404    23.787904  0.041298444  0.055197951            3 
   49000    1.1932038   -5.2228857    24.173976  0.041112203   0.05504869            3 
   50000    1.2150233   -5.2318801    24.745064  0.041241773  0.054865513            2 
   51000    1.1989786   -5.2143199    25.141086  0.041080205  0.054655916            1 
   52000    1.2004159   -5.2584628    25.907804  0.041518916  0.054459314            3 
   53000    1.1920915    -5.223961    26.512082  0.041685663  0.054300993            3 
   54000    1.1947742   -5.2296597    27.183512  0.041949864  0.054166191            3 
   55000    1.1774475   -5.2575404    27.610079  0.041833452  0.054020949            4 
   56000    1.1687826   -5.2387234    28.281064  0.042084916  0.053849892            2 
   57000    1.1768416   -5.2432558     28.86924  0.042206491  0.053718105            2 
   58000    1.1824982   -5.2122513    29.435896  0.042292953  0.053565461            2 
   59000    1.1466155   -5.2404748     30.01612   0.04239565  0.053417615            2 
   60000    1.1708384   -5.2543513    30.636965  0.042551339  0.053284692            3 
   61000     1.192671   -5.2157073    31.332338   0.04280374  0.053166172            1 
   62000    1.1632872   -5.2711781    31.552508  0.042409285  0.053038741            3 
   63000    1.1787099   -5.2413832    32.497257   0.04298579   0.05292259            2 
   64000    1.1373131   -5.2551528    33.037447  0.043017509  0.052822619            1 
   65000    1.1571127   -5.2514376     33.83286  0.043375461  0.052742432            2 
   66000    1.1775539   -5.2918164    34.557439  0.043633129  0.052698175            3 
   67000    1.1582005   -5.2787152    35.119174  0.043680564  0.052655855            3 
   68000    1.1702098   -5.2444622    35.669996   0.04371323  0.052596306            2 
   69000    1.1558238   -5.3046384    36.043907  0.043531288  0.052504036            4 
   70000     1.176615   -5.2504068    36.706164  0.043697814   0.05242117            2 
   71000    1.1507249   -5.2763932    37.096319   0.04354028  0.052329929            3 
   72000    1.1633869   -5.2595969    37.919555  0.043888373  0.052264369            2 
   73000    1.1350578    -5.271207    38.357237    0.0437868   0.05218491            1 
   74000    1.1441737   -5.2788919    38.934867  0.043845571  0.052113852            3 
   75000    1.1471812   -5.2848323    39.278945  0.043643271   0.05201461            4 
   76000    1.1299878   -5.3056717    39.722469  0.043555339  0.051907762            2 
   77000    1.1497292   -5.3010288    40.376937  0.043697983  0.051791409            1 
   78000    1.1025727   -5.2952672    40.966718  0.043767861  0.051683632            1 
   79000     1.133529   -5.2835788    41.481909  0.043757288   0.05157611            3 
   80000    1.1082631   -5.2987242    42.230826  0.043990443  0.051484472            2 
   81000    1.1226347   -5.3332082    42.822307  0.044055871  0.051406231            2 
   82000    1.1387129   -5.3482354    43.433739  0.044139978  0.051331316            2 
   83000    1.1355147   -5.3283342    43.801784  0.043977694  0.051259825            5 
   84000    1.1308826    -5.293581    44.396875  0.044044519  0.051182322            1 
   85000    1.1094947   -5.3554027    44.994103  0.044111865  0.051103647            3 
   86000    1.1549492   -5.3333532    45.739291  0.044321018   0.05104321            3 
   87000    1.1140911   -5.3300901    46.266488  0.044316559  0.050981527            3 
   88000    1.1386794     -5.34129    46.658192  0.044183894  0.050918016            2 
   89000    1.1372577   -5.3554014    47.184578  0.044180316    0.0508477            2 
   90000    1.1360819   -5.3737662    47.817424  0.044275392  0.050777458            2 
   91000    1.1123792    -5.342981    48.365241  0.044290513  0.050699315            2 
   92000    1.1223113   -5.3509816    49.056161  0.044434928  0.050630566            1 
   93000    1.1168746   -5.3142515    49.106994  0.044002683  0.050544922            2 
   94000    1.1286495   -5.4039533     49.53513  0.043914122  0.050443065            2 
   95000    1.1152359    -5.315985    50.260826  0.044088443  0.050347397            1 
   96000    1.1317574   -5.3711219    50.447407  0.043791151  0.050245076            2 
   97000    1.1192285   -5.3717725    51.206047  0.043991449  0.050142012            3 
   98000     1.116617   -5.3931781    51.490406  0.043784358  0.050046842            3 
   99000     1.094036   -5.4010636    51.970436  0.043746158  0.049949733            6 
  100000    1.1255478   -5.3572823     52.60331  0.043836091  0.049852611            1 
  101000    1.1172081   -5.3603401    53.362538  0.044028497  0.049761629            3 
  102000    1.1009346   -5.3919485    53.780741  0.043938513  0.049670588            2 
  103000    1.1114172   -5.4234035    53.992905  0.043683579  0.049582484            2 
  104000    1.1066152   -5.3767193    54.980291   0.04405472  0.049495621            3 
  105000    1.1109682   -5.4049163    55.298157  0.043887426  0.049414096            3 
  106000    1.0712869   -5.3838018    55.984997  0.044013362  0.049328836            2 
  107000    1.0945704   -5.3861988    56.042668  0.043646937  0.049244839            2 
  108000    1.0645721   -5.4123485    56.920583  0.043920203   0.04916416            3 
  109000    1.0843004   -5.4304551    57.073311  0.043634029  0.049082825            2 
  110000    1.1028936   -5.3507591    57.694048  0.043707612  0.048990775            8 
  111000    1.0850974   -5.4302564    57.933833  0.043493868  0.048892912            3 
  112000    1.0928212   -5.3840626    58.651006  0.043639141  0.048804495            3 
  113000    1.0821061   -5.4085014    59.132397  0.043607962  0.048712917            6 
  114000     1.105616   -5.4593432    59.352754  0.043386516  0.048614893            4 
  115000     1.076531   -5.4309153    59.593899  0.043183985  0.048506646            2 
  116000    1.1025742   -5.4297559    60.096548  0.043172807  0.048400034            2 
  117000    1.0717686   -5.4608237      60.4494  0.043055128  0.048291514            2 
  118000    1.0970679   -5.4685303    60.939721  0.043036526  0.048184909            5 
  119000     1.112589   -5.4699199     61.27075  0.042906687  0.048079038            2 
  120000    1.0629579   -5.4518813    61.724921  0.042864528  0.047973672            3 
  121000     1.072699   -5.4841797    62.202579  0.042839241  0.047861891            3 
  122000    1.0769388   -5.4190328    62.996088  0.043030115  0.047754379            4 
  123000    1.0814908   -5.4085519    63.342228  0.042914788  0.047651846            2 
  124000    1.0733609   -5.4302978    63.860603  0.042917072  0.047552833            3 
  125000    1.0744985   -5.4242994    64.351856  0.042901237  0.047451148            3 
  126000     1.081215   -5.4705874    64.543269  0.042687347  0.047348551            2 
  127000    1.0865818   -5.4581549    64.948362  0.042617035  0.047243061            6 
  128000    1.0623347    -5.462723    65.304713  0.042516089  0.047138856            4 
  129000    1.0505815   -5.5242101    65.781414  0.042494453  0.047025276            1 
  130000    1.0643862   -5.5194449    66.120596  0.042384997   0.04692069            5 
  131000    1.0807994   -5.4449145    66.990667  0.042614928  0.046822904            4 
  132000     1.057965   -5.4994066    67.436423  0.042573499  0.046723998            3 
  133000    1.0486409   -5.4853794    67.406745  0.042234803  0.046621764            7 
  134000    1.0718117   -5.4899393     67.73267  0.042122307  0.046517609           10 
  135000    1.0425382   -5.5154717    68.093961  0.042033309  0.046414605            2 
  136000    1.0355365   -5.5063009    68.686543  0.042087343  0.046310449            3 
  137000       1.0541   -5.5279225    69.102134  0.042032928  0.046209082            4 
  138000    1.0461816   -5.5139501    69.442609  0.041933943   0.04610949            5 
  139000    1.0236133   -5.5150261    69.962999  0.041944244  0.046009918            4 
  140000    1.0301661   -5.4934735    70.580064  0.042011943  0.045912096            2 
  141000    1.0316706   -5.5323686    70.427972  0.041624097  0.045812203            3 
  142000    1.0220872   -5.5007444    71.204328  0.041786577  0.045709116            3 
  143000     1.042257   -5.5174673    71.658055  0.041758773  0.045610434            6 
  144000    1.0711651   -5.5044309    72.384301  0.041889063  0.045513018            4 
  145000     1.030448   -5.5429602    72.377556  0.041596296  0.045416671            4 
  146000    1.0214294   -5.5551887    72.855624   0.04158426  0.045321841            2 
  147000    1.0341689   -5.5135503    73.384185  0.041601012  0.045230937            5 
  148000    1.0168671   -5.5163441    73.753189  0.041527697   0.04513293            6 
  149000    1.0561086    -5.559925    74.476378  0.041653455  0.045037476            7 
  150000    1.0192861   -5.5416319    74.672683  0.041484824  0.044948873            1 
  151000    1.0178645   -5.5301419    74.892278  0.041331279  0.044860623            4 
  152000    1.0571057   -5.5277785    75.663329  0.041482088  0.044773716            1 
  153000    1.0092725   -5.5758208     76.05316  0.041423289  0.044686861            2 
  154000    1.0224692   -5.5632614    76.584153  0.041441641  0.044601678            3 
  155000    1.0501226   -5.5321292    77.427294  0.041627577  0.044525857            5 
  156000      1.01583   -5.5612124    77.712204  0.041512929  0.044449673            3 
  157000    1.0052151   -5.5764975    78.178025  0.041495767    0.0443736            4 
  158000    1.0130427   -5.5617204    78.751208  0.041535447  0.044297512            2 
  159000    1.0351583   -5.5801898    78.811074  0.041305594  0.044221937            2 
  160000     1.032553   -5.5913472    79.324021  0.041314594  0.044144585            3 
  161000     1.016899   -5.6113395    79.619509  0.041210926  0.044070612            6 
  162000    1.0238404   -5.5820566    80.179781  0.041244743  0.043996714            6 
  163000    1.0257394   -5.5970454    80.683747  0.041249359  0.043922343            4 
  164000    0.9866908   -5.5818571    80.639869  0.040975543  0.043847028            6 
  165000    1.0017536   -5.6135197    80.888391  0.040852723  0.043767282            5 
  166000   0.99471603   -5.6139659    81.097999  0.040711847  0.043685369            8 
  167000   0.99973331   -5.6126055    81.096735  0.040467432  0.043599425            4 
  168000    1.0043012    -5.644766    81.617714  0.040484977  0.043512971            3 
  169000   0.99223592   -5.6222956    82.373407  0.040618051  0.043427839            3 
  170000    1.0205688   -5.6444202    82.332588  0.040359112  0.043346867            2 
  171000   0.99067444    -5.629622    83.103531  0.040498797  0.043264069            4 
  172000   0.99428855   -5.6137525    83.531588  0.040470731  0.043179753            3 
  173000    1.0005508   -5.6309647    83.476233  0.040210131  0.043093321            4 
  174000   0.97771414    -5.587199    83.756998  0.040113504  0.043003761            3 
  175000   0.97890548    -5.677171    83.735034  0.039873826  0.042911253            6 
  176000    0.9746664   -5.5998676    83.882737  0.039717205  0.042816772            3 
  177000    0.9835519   -5.6260792    84.619218  0.039839557   0.04272125            4 
  178000   0.96940402   -5.6532136    84.517084  0.039567923  0.042626802            3 
  179000   0.98684994   -5.6650472    84.753201  0.039456797   0.04252784            3 
  180000   0.97936161   -5.6579836     85.44351  0.039557181   0.04243275            3 
  181000    1.0090914   -5.6572616    85.656021  0.039436474   0.04233708            4 
  182000    0.9802737   -5.6543745    85.653627  0.039218694  0.042241766            5 
  183000    0.9657084   -5.6537614    85.929325  0.039129929  0.042142962            5 
  184000   0.99791707   -5.6264881    86.944992  0.039377261  0.042046483           10 
  185000   0.98320668   -5.6542554    86.687411  0.039048383  0.041949246            4 
  186000   0.98192966   -5.6380843    86.991407  0.038974645  0.041853819            5 
  187000   0.97276827   -5.6837687    87.316972  0.038911307  0.041758742            4 
  188000   0.96825986   -5.6635318    88.290055  0.039135663  0.041667024            5 
  189000   0.96717716   -5.6909446    88.513171  0.039026971  0.041576585            4 
  190000   0.98206182   -5.6805946    88.349995  0.038749998   0.04148287            3 
  191000   0.96533179   -5.6860695    88.829782  0.038756449  0.041387724            4 
  192000   0.94975716   -5.6497096    89.309055  0.038762611  0.041293905            3 
  193000   0.94391094   -5.6688711    89.278207  0.038548449   0.04120118            4 
  194000   0.97452048   -5.7129888    89.594597  0.038485652  0.041106222            5 
  195000   0.94979523   -5.7075495     89.84755  0.038396389  0.041009599            5 
  196000     0.949443   -5.7099059    90.263325  0.038377264  0.040912645            7 
  197000   0.93494256   -5.7295646    90.535359  0.038297529   0.04081754            6 
  198000   0.94312869   -5.6899856    90.848946  0.038236088  0.040721403            2 
  199000   0.95819096   -5.7235183    90.747409  0.038001427  0.040627192            8 
  200000    0.9434905   -5.6885545    91.649813  0.038187422  0.040533205            6 
  201000   0.96218849   -5.7443518    91.623315  0.037986449  0.040438917            5 
  202000    0.9672264   -5.7071346    91.771644  0.037859589  0.040342959            4 
  203000   0.94092251   -5.7337476    91.712941   0.03764899  0.040246264            5 
  204000   0.94558391   -5.7453782    91.912126  0.037545803  0.040145192            5 
  205000   0.94224809   -5.7876418    92.069803  0.037426749  0.040042955            4 
  206000   0.93467256   -5.7477614    92.380031  0.037370563  0.039941539            7 
  207000   0.93106858   -5.7258036    93.169693  0.037507928  0.039842895           11 
  208000   0.92642493   -5.7534547    93.134765  0.037313608  0.039744258            4 
  209000    0.9361994   -5.7538872    93.113802  0.037126715   0.03964472            5 
  210000   0.93806578   -5.7531121     93.65069  0.037162972  0.039546604            8 
  211000   0.91275268   -5.7515133    93.628032  0.036977896  0.039446612            4 
  212000   0.92256734   -5.7542376    93.901699  0.036911045  0.039347055            4 
  213000   0.92162898   -5.7653715    93.963951  0.036762109  0.039247245            4 
  214000   0.92853557   -5.7704903     94.09271  0.036640463  0.039146048            5 
  215000    0.9232927   -5.7609033    94.845014  0.036761633  0.039044099            6 
  216000   0.92788915   -5.7590952    94.643701  0.036513773  0.038942774            4 
  217000   0.90995593   -5.7820614    94.652683  0.036348957  0.038840433            4 
  218000   0.91562319   -5.7932177    94.907625  0.036279673  0.038736887            3 
  219000   0.91613421   -5.8017366    94.892106  0.036108107  0.038630894            6 
  220000   0.92038625   -5.7955669    95.670383  0.036238781  0.038525616            4 
  221000   0.90418057   -5.7991264    95.726266  0.036095877  0.038423627            6 
  222000    0.8966168   -5.7822692    96.059279  0.036058288  0.038322056            5 
  223000   0.91996745     -5.81439    95.899864  0.035837019   0.03822069            2 
  224000   0.91141223   -5.8381505     96.23689  0.035802414  0.038117123            5 
  225000   0.92474448    -5.805623    96.288485  0.035662402  0.038013904            3 
  226000   0.89106285   -5.7922448    96.972371  0.035756774    0.0379137           11 
  227000   0.90022606   -5.8393197    97.089261  0.035642166  0.037814729            7 
  228000   0.91239142   -5.8159381    97.391615   0.03559635  0.037716395            2 
  229000   0.88937794   -5.8126311    98.083817  0.035692801  0.037620833            4 
  230000   0.90931047   -5.8413205    98.261217   0.03560189  0.037526084            6 
  231000   0.90001203   -5.8242176    98.330887  0.035472903  0.037432001            4 
  232000   0.91865641   -5.8369189    98.535147  0.035393372   0.03733626           15 
  233000   0.88619359   -5.8567995    98.702249  0.035301233  0.037241283            6 
  234000   0.92112662   -5.8711725    99.196416  0.035326359  0.037147009            6 
  235000   0.86997313   -5.8423601    99.441983  0.035263115  0.037052511            5 
  236000   0.88563393   -5.8664478    99.288173  0.035059383  0.036959288            5 
  237000   0.87609728   -5.8554471    99.965273  0.035149533  0.036864207            4 
  238000   0.89081321   -5.8347344    100.11208  0.035053248  0.036770904            4 
  239000   0.88677988   -5.8610392    99.950816  0.034850354  0.036677531            2 
  240000   0.88041033   -5.9010667    100.06384  0.034744388  0.036583064            4 
  241000   0.87252485   -5.8717074    100.13288  0.034624093  0.036487966            8 
  242000    0.8820657   -5.8569405     100.5986  0.034641392  0.036393917            5 
  243000   0.88379062   -5.8569853    100.52899  0.034474962  0.036301144            3 
  244000   0.88455904   -5.9258126    100.85509  0.034445045  0.036208577            3 
  245000   0.86913389   -5.8866011    101.21708  0.034427578  0.036114994            6 
  246000   0.89811346   -5.8909308    101.58768  0.034413171  0.036023545            7 
  247000   0.87060866    -5.898152    101.73532  0.034323658  0.035931096            5 
  248000   0.88490508   -5.8945701    101.78296  0.034201264  0.035840022           13 
  249000   0.87069322   -5.8936884    101.74269  0.034050431  0.035748402            5 
  250000   0.84137054   -5.8844503    102.26803  0.034089343  0.035656657            3 
  251000   0.84160198   -5.8901079    102.19947  0.033930769  0.035564436            6 
  252000   0.84281052   -5.9425015    102.27171  0.033820008  0.035472156            4 
  253000   0.88099272   -5.9068532    102.78325  0.033854824   0.03538039            6 
  254000   0.88244572   -5.9638004    102.58986  0.033658092  0.035288303            3 
  255000   0.85012203   -5.9706864    102.84927  0.033610874  0.035194429           14 
  256000   0.86524368   -5.9024152    103.37879   0.03365195  0.035101889            6 
  257000   0.86983404   -5.9476447    103.60449  0.033594191  0.035010856           10 
  258000   0.83590495   -5.9575576    103.43091  0.033407916  0.034920955            5 
  259000   0.88139748   -5.9221621    104.25633  0.033544507  0.034832036           10 
  260000   0.86180625   -5.9573007    103.73439    0.0332482   0.03474504            8 
  261000   0.83602095   -5.9691972    104.29995  0.033301388  0.034656986            8 
  262000   0.83826922   -5.9725971    104.34788  0.033189529  0.034567959            9 
  263000   0.84410095   -5.9213828    104.83106  0.033216431  0.034479456            5 
  264000   0.83850485   -5.9748793    104.72253  0.033056355  0.034392313            2 
  265000   0.83247143   -5.9549096    105.23827  0.033093795  0.034306392            8 
  266000   0.86523312   -5.9470315    105.30712  0.032990952  0.034219134            9 
  267000   0.81377995   -5.9641884      105.646  0.032973158  0.034131768            6 
  268000   0.83725911   -5.9650081    105.33378  0.032753041  0.034044388           10 
  269000   0.84261427   -5.9903045    105.85026  0.032791283  0.033957758            8 
  270000   0.83334144   -5.9584826     106.0486  0.032731048   0.03387241            6 
  271000   0.84817599   -5.9802724    106.29011  0.032684536  0.033787238            6 
  272000   0.83022408   -5.9732033    106.50689  0.032630787  0.033703316            7 
  273000   0.82366832   -6.0079402    106.41647  0.032483661  0.033617994            5 
  274000   0.83875214   -5.9916223    106.67446  0.032443572  0.033533393            5 
  275000   0.83273042   -5.9943712    106.81832  0.032369187  0.033447873            5 
  276000    0.8208692   -6.0393648    106.53443  0.032166193  0.033362785            3 
  277000   0.82849865   -6.0209164     107.3685  0.032300991  0.033277999            4 
  278000   0.82829333   -6.0025877    107.26115  0.032152622  0.033194381            4 
  279000   0.81124518   -6.0650146    107.15578  0.032005909  0.033109683            7 
  280000   0.81312889   -6.0557871    107.41413   0.03196849  0.033024377            3 
  281000   0.83150274   -6.0261823    107.41016  0.031853548  0.032940089            5 
  282000    0.8173361   -6.0210463    107.45303  0.031753258   0.03285535            7 
  283000   0.82293734   -6.0406413    107.45566  0.031641832  0.032770735            7 
  284000   0.81109495    -6.048675     107.8404  0.031643311  0.032686167            4 
  285000   0.81108419   -6.0300128    108.26124  0.031655333  0.032602624            6 
  286000    0.8106295    -6.045901    107.72777  0.031389212  0.032517442            2 
  287000   0.81300095   -5.9710604    108.53904  0.031515402  0.032432691            3 
  288000   0.78265262   -6.0414414    108.59089  0.031420976  0.032348685            8 
  289000   0.81808014   -6.0559643    108.47941  0.031280108  0.032264331            7 
  290000   0.81404855   -6.0526526    108.37946  0.031143524  0.032179122            4 
  291000   0.78979957   -6.0711826    108.74855  0.031142195  0.032094644            8 
  292000   0.79954944   -6.0922818    108.91478  0.031082984  0.032010687            4 
  293000   0.81396682   -6.0724546    109.17316  0.031050388  0.031927028            6 
  294000   0.81656205   -6.0953209    109.13226  0.030933181  0.031844038           25 
  295000   0.81010909   -6.0759328    109.38999  0.030901127  0.031760355           12 
  296000   0.80101947   -6.1000068    109.19843  0.030742801  0.031677459           10 
  297000   0.79743742   -6.0844952    109.66721  0.030770821  0.031593172            7 
  298000    0.7992373   -6.0839298    109.50553  0.030622351  0.031508767            5 
  299000   0.81045331   -6.1154156    109.28296  0.030457904  0.031424069            7 
  300000   0.79839525   -6.0901587    109.76921  0.030491447  0.031339341            7 
  301000   0.78069534     -6.07863    109.79747  0.030397971  0.031254972            8 
  302000   0.79448585   -6.1176308    109.74793  0.030283645  0.031171382           10 
  303000   0.77650331   -6.1462924    109.59426  0.030141434  0.031087003           10 
  304000    0.7954253   -6.1246404    109.93805  0.030136527  0.031003338            7 
  305000   0.76800014   -6.1188278    110.43255  0.030172828  0.030920081            7 
  306000    0.7790677   -6.1288675    110.32558  0.030045093  0.030836889           21 
  307000   0.76897503     -6.12958    110.26566  0.029930961  0.030753441           13 
  308000   0.75946423   -6.1270748    110.74671  0.029963936   0.03067035            7 
  309000   0.79055025   -6.1401118    110.56973  0.029819237  0.030587255            7 
  310000   0.76248572   -6.1123702    110.77534  0.029778318  0.030504732            5 
  311000   0.77630153   -6.1500305    110.64423  0.029647436   0.03042196            7 
  312000   0.77689424   -6.1377639    111.16419  0.029691289  0.030339861            6 
  313000   0.78995644   -6.1183665    111.30225  0.029633186  0.030258607           16 
  314000   0.77143643   -6.1692616    111.26691  0.029529433  0.030177253            4 
  315000   0.76931961   -6.1829499    111.22984  0.029425883  0.030095868           15 
  316000   0.75758635   -6.1769161    111.21623  0.029329175  0.030015091            8 
  317000   0.76909798   -6.1495017    111.54243  0.029322405  0.029934345            7 
  318000   0.76939812   -6.1595288    111.97531  0.029343634  0.029853887            5 
  319000   0.75402229   -6.1724487    111.74305  0.029190975  0.029774182            7 
  320000   0.76087157   -6.1713224    112.01373  0.029170242   0.02969437           11 
  321000   0.74527882   -6.1914671    112.23152  0.029135909  0.029615574           12 
  322000   0.76003556   -6.1955681    112.22504  0.029043748  0.029535967            8 
  323000   0.75106129   -6.2001648    112.00699  0.028897572  0.029456816            6 
  324000   0.74302701   -6.2029493    112.24659  0.028870008  0.029378552            9 
  325000    0.7625593   -6.1918592    112.28956  0.028792196  0.029299493           10 
  326000    0.7470543   -6.1824844    112.43798  0.028741814  0.029220773            6 
  327000   0.72624351   -6.1991877    112.41842  0.028648934  0.029142577            7 
  328000   0.73760279   -6.2244593    112.61455   0.02861142  0.029064188           27 
  329000   0.74731692   -6.2137284     112.4209  0.028475404  0.028985891            7 
  330000   0.74580077    -6.212241    112.92008  0.028515171  0.028907645           10 
  331000   0.73452682   -6.2446135    112.58371  0.028344339  0.028829801            9 
  332000   0.72713329   -6.2190988      112.902  0.028338855  0.028752275            7 
  333000   0.71616898   -6.2366114    112.63163  0.028186093  0.028674308            8 
  334000   0.74612505   -6.2497169    112.95244  0.028181748  0.028596419            6 
  335000   0.73235663    -6.222332    113.56641   0.02825035  0.028518978           11 
  336000    0.7258104   -6.2147898    113.81782  0.028228627  0.028442758           12 
  337000   0.73446909   -6.2323946    113.39779  0.028040997  0.028366036           15 
  338000   0.73620299   -6.2322912    113.45219  0.027971446  0.028288983           18 
  339000   0.72025926   -6.2496314    113.19581  0.027825911  0.028211255           15 
  340000   0.73157319   -6.2344657    113.43564  0.027802853  0.028133948            7 
  341000   0.72487875   -6.2480791    113.12778  0.027646084  0.028056401           10 
  342000   0.71816177   -6.2636709    113.15888  0.027572825   0.02797828           16 
  343000   0.71683001   -6.2855162    113.26091  0.027517229  0.027900277           12 
  344000   0.72050552   -6.2635952    113.17447  0.027416296   0.02782267            6 
  345000     0.711055   -6.2992631    113.08081  0.027314206  0.027744416           10 
  346000   0.71225721   -6.2707059    113.58774  0.027357356  0.027666349           12 
  347000   0.70861554   -6.2916973    113.38458  0.027229726  0.027588751           16 
  348000   0.70399855   -6.3279429    113.17071  0.027100266  0.027511335            9 
  349000   0.70878429   -6.2948292    113.18959  0.027027124  0.027433364           11 
  350000   0.71291404   -6.2969061    113.33569  0.026984689  0.027355333           10 
  351000   0.70362893    -6.319804    113.15832  0.026865697  0.027277512           13 
  352000   0.70069197    -6.316183    113.29554  0.026821861  0.027199528           13 
  353000   0.70786646   -6.3110473     113.8229  0.026870373  0.027122411           10 
  354000   0.70024065   -6.3016418    113.69304  0.026763899  0.027045534            8 
  355000   0.70425708   -6.2955821    114.06668  0.026776216   0.02696937           11 
  356000   0.67833924   -6.2903229    114.11938  0.026713338  0.026894013           15 
  357000    0.6836407   -6.3475516     113.8937  0.026585832  0.026819043            7 
  358000    0.7018666   -6.3675125    113.89787   0.02651254  0.026743171           21 
  359000   0.69052509   -6.3183472    113.86244  0.026430465  0.026667008           28 
  360000   0.70824363   -6.3248411    114.21486  0.026438625   0.02659129           10 
  361000   0.66985829   -6.3508834    114.26136  0.026376121  0.026515924           12 
  362000   0.69612814   -6.3321391    114.17031  0.026282299  0.026441016           11 
  363000   0.69167742   -6.3351503    114.29464   0.02623844  0.026366405           13 
  364000   0.69152374   -6.3377035    114.61759   0.02624029  0.026291674           27 
  365000   0.68127474   -6.3798976    114.38717  0.026115791  0.026217338           16 
  366000   0.67887443   -6.3699258    114.46029  0.026061087  0.026143307           25 
  367000   0.66545899    -6.380159     114.5497  0.026010377   0.02606934            5 
  368000   0.67855482   -6.3440229    114.47693  0.025923218  0.025995752           18 
  369000   0.67141749   -6.3975807    114.46177  0.025849542  0.025921885           11 
  370000   0.68507878   -6.3843134    114.61048  0.025813171  0.025848183           11 
  371000   0.67153772   -6.3724665    114.48008  0.025714304  0.025775009           10 
  372000   0.67850715   -6.4090081    114.89457  0.025738032  0.025702273           18 
  373000   0.68224126   -6.3678335    114.96012  0.025683673  0.025629679           43 
  374000   0.66634151   -6.3873162    114.63473  0.025542497  0.025557152           21 
  375000   0.64998867   -6.4057063    114.78297  0.025507326  0.025484517           18 
  376000   0.67458123   -6.4021167    114.52637  0.025382619  0.025411846           27 
  377000    0.6719597   -6.4254643    114.53489  0.025317173  0.025339239           24 
  378000   0.66101093   -6.4247849    114.73093  0.025293415  0.025267052           16 
  379000   0.66415106   -6.4106187    114.94096  0.025272859   0.02519516           25 
  380000   0.64771365   -6.4017528     114.9853  0.025216075  0.025123483           13 
  381000   0.65807454   -6.4437966     114.9111  0.025133661  0.025051569           12 
  382000   0.66100674   -6.4152135    114.75731  0.025034317   0.02497953            6 
  383000   0.64561696   -6.4406189    115.16147  0.025056891  0.024908185           14 
  384000   0.65489777   -6.4338962    114.56194  0.024861531  0.024836592           14 
  385000   0.65054055   -6.4533725    114.77871  0.024843876  0.024764851           12 
  386000   0.64818478   -6.4586635    114.61616  0.024744421  0.024693204           29 
  387000    0.6461369   -6.4870629    114.85328  0.024731542  0.024621729           23 
  388000   0.64906449   -6.4503294    114.92608  0.024683436  0.024550473           10 
  389000    0.6418744   -6.4805035    114.93917  0.024622786  0.024479331           10 
  390000   0.64773715   -6.4923503    114.64006   0.02449574  0.024408143           13 
  391000   0.63274557   -6.4444027    114.71843  0.024449794  0.024337058           11 
  392000   0.63525118    -6.475309     114.7422  0.024392475  0.024266301           30 
  393000   0.62881929   -6.4980662    115.04372  0.024394343  0.024195757           20 
  394000    0.6306397   -6.4837948    114.86415  0.024294448  0.024124842            9 
  395000   0.61915475   -6.4799845    114.82369  0.024224408  0.024054126           34 
  396000   0.63387841   -6.4982155    114.95973  0.024191863  0.023983308           36 
  397000   0.62176752    -6.525122    115.03497  0.024146718  0.023912763           71 
  398000   0.63124742   -6.5212467    114.79711  0.024036246  0.023842054           58 
  399000    0.6303971     -6.53281    114.68155  0.023951868  0.023771334           17 
  400000   0.62666941    -6.538509     114.7247   0.02390098  0.023700858           30 
  401000   0.62522478    -6.498876    114.77602  0.023852041  0.023630702           50 
  402000    0.6264813   -6.5091052    114.78471  0.023794509  0.023560848           23 
  403000   0.62290369   -6.5325475    114.36043  0.023647731  0.023490784           22 
  404000   0.61855376   -6.5392952    114.68755  0.023656673  0.023420742           22 
  405000   0.60531412   -6.5170361     114.7084  0.023602551  0.023351154           17 
  406000   0.61880559   -6.5374962    114.83893  0.023571208  0.023281831           16 
  407000   0.61255007   -6.5240407    115.14019  0.023574978  0.023212801           31 
  408000   0.59993579   -6.5395886    114.87526  0.023463083  0.023144111           29 
  409000   0.61742243   -6.5475505    114.86478  0.023403582  0.023075479           47 
  410000   0.62183554    -6.559601    114.85104  0.023343708  0.023007541           28 
  411000   0.61239294   -6.5523672    114.93402  0.023303735  0.022939562           45 
  412000   0.61806861   -6.5404385    114.91493   0.02324331  0.022871709           45 
  413000   0.60720076   -6.5644701    114.82342  0.023168566  0.022804002           27 
  414000   0.61400567   -6.5827328     114.7051  0.023088788  0.022737006           34 
  415000   0.59705462    -6.587183    114.79224   0.02305065  0.022669475           28 
  416000   0.60597035   -6.5687822    115.02381  0.023041629  0.022601935           75 
  417000   0.59929255   -6.5754893    114.78804  0.022939257  0.022534718           13 
  418000   0.59593826   -6.5560993     114.8397  0.022894677  0.022467349           54 
  419000   0.59971118   -6.5811946    114.82658  0.022837426  0.022400362           93 
  420000   0.58674335   -6.5812138    114.86291   0.02279026  0.022333554           62 
  421000   0.60492061    -6.576887    114.71566  0.022706979  0.022266954           52 
  422000   0.59845728   -6.6046357    114.87651  0.022684935  0.022200535          111 
  423000   0.59673872   -6.5944996    115.07691  0.022670787  0.022134239           82 
  424000   0.59767469   -6.6190557    114.81309  0.022565466  0.022067982           45 
  425000   0.59026535   -6.6209966    114.87602  0.022524709  0.022001834           60 
  426000   0.59208257   -6.6084929    114.82348  0.022461558  0.021935973           73 
  427000   0.58356533   -6.6235503    114.69735  0.022384339  0.021870346           51 
  428000   0.58753666   -6.6293756    114.95497  0.022382199  0.021804945           43 
  429000   0.57264091   -6.6472019    114.74759  0.022289741  0.021739728           28 
  430000   0.58757113   -6.6333505    114.83874   0.02225557   0.02167451           62 
  431000   0.57744702   -6.6295808    114.87092  0.022210155  0.021609542           69 
  432000   0.58953074   -6.6440853    114.81199  0.022147375  0.021544692           59 
  433000   0.57110299   -6.6562227    114.88258  0.022109812  0.021480373           82 
  434000   0.58309367   -6.6458136    114.97648  0.022076896  0.021416044           33 
  435000   0.56877703   -6.6712122    114.95175  0.022021407   0.02135183           46 
  436000   0.58387418   -6.6539776    115.01972  0.021983892  0.021287965           32 
  437000   0.56284319   -6.6348349    114.74022  0.021880285  0.021224448           35 
  438000   0.56052998   -6.6494237    114.86853  0.021854744  0.021161165          106 
  439000   0.56581688   -6.6613369    114.51332  0.021737531    0.0210979           26 
  440000   0.56049733   -6.6567975    114.84414  0.021750784  0.021034566           51 
  441000   0.57010623   -6.6732035    114.86521  0.021705443  0.020971501           55 
  442000    0.5544458   -6.6580508    114.85186  0.021653819  0.020908506           65 
  443000   0.56540225   -6.6536803    114.94445  0.021622358   0.02084569           89 
  444000   0.56208639   -6.6724619    114.52471  0.021494877  0.020782765           41 
  445000   0.55317784    -6.690746    114.64907  0.021469864  0.020719834           74 
  446000   0.55202964   -6.6889646    114.61528  0.021415412  0.020657342           60 
  447000   0.55895157    -6.694611    114.37704  0.021323088   0.02059495           78 
  448000   0.55141073   -6.6891386    114.41559  0.021282661   0.02053265           55 
  449000   0.55734165   -6.6862433    114.63163  0.021275358  0.020470723           52 
  450000   0.55527848   -6.6926593    114.52732  0.021208763  0.020409063           89 
  451000   0.55428271   -6.7020049    114.41986  0.021141881  0.020347501           90 
  452000   0.54246445   -6.7033511    114.48936   0.02110792  0.020285895           82 
  453000    0.5417416   -6.7296977      114.588   0.02107947  0.020224458          297 
  454000   0.53681427   -6.7342385    114.34019  0.020987554  0.020163225          117 
  455000   0.53875234   -6.7469354    114.30423  0.020934841  0.020102009          143 
  456000   0.53916393   -6.7394156    114.60619  0.020944113  0.020040968          200 
  457000   0.53660662   -6.7393865    114.51791  0.020882186  0.019980284          118 
  458000   0.52977802   -6.7203293    114.13153   0.02076629    0.0199199          173 
  459000   0.53196967   -6.7442458    114.28668  0.020749215  0.019859602          171 
  460000   0.52943557   -6.7414986    114.46829  0.020737009  0.019799286          157 
  461000   0.52564884   -6.7526257    114.22031    0.0206472  0.019739124           78 
  462000   0.53988155   -6.7766341    114.29389  0.020615781  0.019679183          142 
  463000   0.53080248   -6.7556944    114.22876  0.020559533  0.019619179          153 
  464000   0.52601573   -6.7691327    114.10343  0.020492714  0.019559527          174 
  465000    0.5235524    -6.768688     114.4096  0.020503512  0.019499998          185 
  466000   0.51143836   -6.7638071    114.13935  0.020411186  0.019440634          285 
  467000   0.52517405   -6.7595499    114.26915   0.02039064  0.019381555          236 
  468000   0.51964018   -6.7755735    114.39765  0.020369953  0.019322776          199 
  469000   0.51884152   -6.7774343    114.22749  0.020296284  0.019264103          246 
  470000   0.51543559   -6.7863987    114.16649  0.020242285   0.01920563          192 
  471000   0.50926413   -6.7878536    114.07258  0.020182694  0.019147278          230 
  472000   0.51612969   -6.7928112    114.09943  0.020144674  0.019089126          229 
  473000    0.5057267   -6.7974622    114.15287  0.020111499  0.019031356          213 
  474000      0.50383   -6.7653003    114.11316  0.020062089  0.018973741          337 
  475000   0.51105973   -6.8000961     114.2145  0.020037632  0.018916317          171 
  476000   0.50025784   -6.7956907    114.27096   0.02000542  0.018859019          239 
  477000   0.48475249   -6.7959964    114.18074  0.019947718   0.01880196           95 
  478000   0.51472387   -6.7847704    114.28551  0.019924253   0.01874516          220 
  479000   0.49587659   -6.8029769    114.17376  0.019863216  0.018688471          200 
  480000   0.50510746   -6.7896152    114.14265  0.019816433  0.018632026          288 
  481000   0.50384042   -6.7809915     114.3598  0.019812855  0.018575944          207 
  482000   0.49261339   -6.8297976     114.2052  0.019745021  0.018520066          258 
  483000   0.49499552   -6.8123366    114.16859  0.019697825  0.018464293           88 
  484000   0.49912994   -6.8047896    114.09016  0.019643623  0.018408825          183 
  485000   0.49661044   -6.8048151    114.13925  0.019611555  0.018353442           94 
  486000   0.50496501   -6.8019838    114.23812  0.019588156  0.018298178           98 
  487000   0.49925599   -6.8103909    114.09697  0.019523781  0.018243238          135 
  488000   0.47838904    -6.817683    114.19819  0.019501057   0.01818826          170 
  489000   0.48958775    -6.834749    114.23093  0.019466757  0.018133466          225 
  490000   0.48878117   -6.8336688    114.03047  0.019392936  0.018078991          104 
  491000   0.47318952   -6.8210336    114.04457  0.019355833  0.018024701          174 
  492000   0.48187243   -6.8343208    113.94588  0.019299777   0.01797042          271 
  493000    0.4773196   -6.8598479    113.93759  0.019259227   0.01791635          282 
  494000   0.47942094   -6.8397948    113.92469  0.019218065    0.0178625          214 
  495000   0.48519063    -6.836521    114.03979  0.019198619  0.017808816          140 
  496000   0.47898521   -6.8344015    114.12053  0.019173475  0.017755233          316 
  497000   0.47401833   -6.8472209    113.91629  0.019100653   0.01770182          273 
  498000   0.47471044   -6.8592161    113.83824  0.019049237  0.017648568          106 
  499000   0.46980048   -6.8487903    113.86656  0.019015791  0.017595525          296 
  500000   0.48110265   -6.8597285    114.17579  0.019029299  0.017542668          209 
  501000   0.46755291   -6.8694202    113.65893  0.018905344  0.017489972          313 
  502000   0.46202926   -6.8546492    113.81783  0.018894063  0.017437449          195 
  503000   0.47005835   -6.8742384    113.63039  0.018825445  0.017385074          294 
  504000   0.46726993   -6.8621378    113.98083  0.018846037  0.017333069          317 
  505000   0.46149139   -6.8728363    113.90098  0.018795541  0.017281219          312 
  506000    0.4585363   -6.8839327    113.80837  0.018743144  0.017229491          354 
  507000   0.47033848   -6.8920129    113.59465  0.018671048  0.017177973          385 
  508000   0.44748934   -6.8814303     113.8738  0.018680085  0.017126637          122 
  509000   0.45174334   -6.8810158    113.73742  0.018621057  0.017075395          135 
  510000   0.44978155   -6.9082492    113.50792  0.018547045  0.017024269          202 
  511000   0.44718848   -6.9035289    113.84074  0.018565025  0.016973348          251 
  512000   0.44898945   -6.9128336     113.6606  0.018499447  0.016922693          338 
Loop time of 1293.7 on 48 procs for 500000 steps with 4000 atoms

Performance: 66784.972 tau/day, 386.487 timesteps/s
99.4% CPU use with 48 MPI tasks x no OpenMP threads

MPI task timing breakdown:
Section |  min time  |  avg time  |  max time  |%varavg| %total
---------------------------------------------------------------
Pair    | 91.121     | 98.415     | 105.91     |  37.7 |  7.61
Neigh   | 8.9117     | 9.2348     | 9.6923     |   5.9 |  0.71
Comm    | 83.191     | 91.478     | 100.77     |  44.0 |  7.07
Output  | 0.92604    | 0.92675    | 0.94877    |   0.3 |  0.07
Modify  | 1077       | 1081.6     | 1085.3     |   5.6 | 83.60
Other   |            | 12.09      |            |       |  0.93

Nlocal:        83.3333 ave          89 max          72 min
Histogram: 1 0 1 0 7 8 7 9 11 4
Nghost:        2393.44 ave        2405 max        2379 min
Histogram: 1 2 1 9 5 13 6 3 3 5
Neighs:        16489.9 ave       18964 max       14475 min
Histogram: 6 3 5 8 8 4 5 2 2 5
FullNghs:      32979.0 ave       35288 max       28562 min
Histogram: 1 0 1 3 5 7 10 7 10 4

Total # of neighbors = 1582990
Ave neighs/atom = 395.74750
Neighbor list builds = 26783
Dangerous builds = 0

#clear
#
#next RN
#
#jump SELF
Total wall time: 0:21:37
