
units lj                  # Use reduced LJ style units
atom_style atomic         # Uncharged point particles
atom_modify map hash      # Needed for indexing of clusters etc
                          # Used to be able to find where atoms are in relation to each other.

lattice fcc 1.0 spacing 1 1 1
Lattice spacing in x,y,z = 1.5874011 1.5874011 1.5874011
region box block 0 10 0 10 0 10 units lattice
create_box 2 box
Created orthogonal box = (0.0000000 0.0000000 0.0000000) to (15.874011 15.874011 15.874011)
  3 by 4 by 4 MPI processor grid
create_atoms 1 box
Created 4000 atoms
  using lattice units in orthogonal box = (0.0000000 0.0000000 0.0000000) to (15.874011 15.874011 15.874011)
  create_atoms CPU = 0.002 seconds
set type 1 type/fraction 2 0.95 78393
Setting atom values ...
  3802 settings made for type/fraction
mass 1 1.0
mass 2 1.0
pair_style lj/cut  3.5
pair_modify tail  yes
pair_coeff 1  1  1.0  1.0   # Intearaction between 1 and 1 set with epsilon = 1 and sigma = 1
pair_coeff 1  2  1.5  0.8
pair_coeff 2  2  0.5  0.88

write_data data.0
System init for write_data ...
Neighbor list info ...
  update every 1 steps, delay 10 steps, check yes
  max neighbors/atom: 2000, page size: 100000
  master list distance cutoff = 3.8
  ghost atom cutoff = 3.8
  binsize = 1.9, bins = 9 9 9
  1 neighbor lists, perpetual/occasional/extra = 1 0 0
  (1) pair lj/cut, perpetual
      attributes: half, newton on
      pair build: half/bin/atomonly/newton
      stencil: half/bin/3d
      bin: standard
WARNING: Not all mixed pair coeffs generated from mixing. Use write_data with 'pair ij' option to store all pair coeffs. (../write_data.cpp:312)


#############################
#   M E L T   S Y S T E M   #
#############################

velocity all create 2.4 8172548 mom yes dist gaussian # Assign velocities
                                                    # Temperature 2.4, random number seed, zero linear momentum
                                                                                # Gaussian distribution

timestep 0.002   # simulation timestep
thermo 1000       # output thermodynamic data every 1000 steps bf 100

# Define a fix  in this case with index 1 applied to all
# particles in the simulation. This fix is for simulations
# in the anisotropic NPT ensemble. Note that we use the MTK
# correction.
fix 1 all npt temp 2.4 2.4 0.1 iso 5.68 5.68 0.5 mtk yes tchain 5 pchain 5 # Use NPT ensemble
                                                                         # Set temperature and pressure and damping
                                                                         # Numbers of thermostats in chain and in barostat
run 10000          # run for 10000 steps
Per MPI rank memory allocation (min/avg/max) = 3.642 | 3.644 | 3.648 Mbytes
Step Temp E_pair E_mol TotEng Press Volume 
       0          2.4   -2.9371918            0   0.66190816   -2.1469233         4000 
    1000    2.3928452   -1.7952341            0    1.7931363     5.634382    4174.5255 
    2000    2.4187536   -1.8288105            0    1.7984128    5.6900367    4123.0274 
    3000    2.3534844   -1.7990172            0    1.7303269    5.8400554    4117.8727 
    4000    2.4400425   -1.8263881            0    1.8327606    5.5951854    4132.0538 
    5000    2.3880464   -1.7773951            0     1.803779     5.865515     4135.094 
    6000    2.4113052   -1.8433405            0    1.7727131    5.5509264    4138.5428 
    7000    2.4052964   -1.7815339            0    1.8255086     6.144144    4085.5993 
    8000    2.4194116   -1.8375711            0    1.7906389    5.7032059    4118.9467 
    9000    2.3966477   -1.8159149            0    1.7781579    5.6282726    4138.5237 
   10000     2.403364   -1.7973099            0    1.8068349    5.6583652    4155.2066 
Loop time of 2.43385 on 48 procs for 10000 steps with 4000 atoms

Performance: 709986.200 tau/day, 4108.716 timesteps/s
99.6% CPU use with 48 MPI tasks x no OpenMP threads

MPI task timing breakdown:
Section |  min time  |  avg time  |  max time  |%varavg| %total
---------------------------------------------------------------
Pair    | 1.0342     | 1.1168     | 1.2825     |   3.9 | 45.89
Neigh   | 0.20026    | 0.21288    | 0.23972    |   1.4 |  8.75
Comm    | 0.6923     | 0.85212    | 0.95758    |   5.0 | 35.01
Output  | 0.00023873 | 0.00024257 | 0.00030542 |   0.0 |  0.01
Modify  | 0.20122    | 0.23719    | 0.27926    |   3.9 |  9.75
Other   |            | 0.01464    |            |       |  0.60

Nlocal:        83.3333 ave          94 max          76 min
Histogram: 2 5 10 10 4 9 3 2 1 2
Nghost:        1596.31 ave        1625 max        1569 min
Histogram: 2 4 4 8 4 10 7 5 2 2
Neighs:        9173.96 ave       10427 max        8199 min
Histogram: 4 3 5 10 10 6 4 2 1 3

Total # of neighbors = 440350
Ave neighs/atom = 110.08750
Neighbor list builds = 911
Dangerous builds = 234

# Equilibrate just above the melting temperature to avoid step fn in T

fix 1 all npt temp 1.25 1.25 0.1 iso 5.68 5.68 0.5 mtk yes tchain 5 pchain 5
run 2000
Per MPI rank memory allocation (min/avg/max) = 3.643 | 3.645 | 3.649 Mbytes
Step Temp E_pair E_mol TotEng Press Volume 
   10000     2.403364   -1.7973099            0    1.8068349    5.6583652    4155.2066 
   11000    1.2636752   -2.7607909            0  -0.86575191    5.4768571    3240.2221 
   12000    1.2522888   -2.7623793            0  -0.88441568    5.5652989    3230.2562 
Loop time of 0.584867 on 48 procs for 2000 steps with 4000 atoms

Performance: 590903.518 tau/day, 3419.581 timesteps/s
99.7% CPU use with 48 MPI tasks x no OpenMP threads

MPI task timing breakdown:
Section |  min time  |  avg time  |  max time  |%varavg| %total
---------------------------------------------------------------
Pair    | 0.2509     | 0.27791    | 0.3228     |   2.1 | 47.52
Neigh   | 0.038328   | 0.040262   | 0.046961   |   0.6 |  6.88
Comm    | 0.16919    | 0.2195     | 0.25167    |   2.7 | 37.53
Output  | 5.0503e-05 | 5.2484e-05 | 6.6251e-05 |   0.0 |  0.01
Modify  | 0.037393   | 0.042582   | 0.046535   |   1.2 |  7.28
Other   |            | 0.004566   |            |       |  0.78

Nlocal:        83.3333 ave          93 max          74 min
Histogram: 5 0 2 6 11 12 5 4 1 2
Nghost:        1897.15 ave        1918 max        1877 min
Histogram: 6 3 5 7 1 6 9 2 5 4
Neighs:        11818.8 ave       13348 max        9977 min
Histogram: 2 2 3 5 7 8 7 7 4 3

Total # of neighbors = 567302
Ave neighs/atom = 141.82550
Neighbor list builds = 143
Dangerous builds = 17

#############################
# L I N E A R  Q U E N C H  #
#############################

# Define solid atoms. This closely follows ten Wolde  Ruiz-Montero and Frenkel  Faraday Discuss  1996  104  93-110
# Compute components of the per-atom q6 vector
compute q6 all orientorder/atom degrees 1 6 components 6 nnn NULL cutoff 1.3 # compute the Q6 parameter.
                                                                             # Use all neighbours within 1.3 unit cell.

# get number of connections
compute coord_number all coord/atom orientorder q6 0.5

# An atom is solid if it has 8 or more connections (of a possible 14)
variable is_solid atom c_coord_number>=8
group solid dynamic all var is_solid    # Must be dynamic to update
dynamic group solid defined

# do clustering
compute cluster solid cluster/atom 1.3 # Create a cluster where all atoms within are solid and max 1.3 units from another member

# define chunks one chunk per cluster
compute clus_chunks solid chunk/atom c_cluster nchunk every compress yes  # Says which atoms are in which chunk

# count the size of each chunk
compute size_chunks solid property/chunk clus_chunks count


# Find the maximum entry in the vector of chunk sizes
variable max_n equal max(c_size_chunks)


# Thermo style which includes this variable
# thermo_style custom step temp pe vol v_max_n

thermo ${N}  # Print the thermo information every 100 steps
thermo 1000  

# Reset the npt fix at a lower temperature (below freezing)
fix 1  all npt temp  ${temp} ${temp}  0.1  iso  5.68  5.68  0.5  mtk yes tchain  5  pchain  5
fix 1  all npt temp  0.45 ${temp}  0.1  iso  5.68  5.68  0.5  mtk yes tchain  5  pchain  5
fix 1  all npt temp  0.45 0.45  0.1  iso  5.68  5.68  0.5  mtk yes tchain  5  pchain  5

dump dmp2 all dcd ${N} traj.dcd
dump dmp2 all dcd 1000 traj.dcd


compute msd all msd com yes
variable twopoint equal c_msd[4]/6/(step*dt+1.0e-6)
fix 9 all vector 10 c_msd[4]
variable fit equal slope(f_9)/6/(10*dt)
thermo_style custom step temp pe c_msd[4] v_twopoint v_fit v_max_n

fix 1 all npt temp 1.25 ${temp} 0.1 iso 5.68 5.68 0.5 mtk yes tchain 5 pchain 5
fix 1 all npt temp 1.25 0.45 0.1 iso 5.68 5.68 0.5 mtk yes tchain 5 pchain 5
run 500000 # 5000000  # Run for this many steps
Neighbor list info ...
  update every 1 steps, delay 10 steps, check yes
  max neighbors/atom: 2000, page size: 100000
  master list distance cutoff = 3.8
  ghost atom cutoff = 3.8
  binsize = 1.9, bins = 8 8 8
  4 neighbor lists, perpetual/occasional/extra = 1 3 0
  (1) pair lj/cut, perpetual
      attributes: half, newton on
      pair build: half/bin/atomonly/newton
      stencil: half/bin/3d
      bin: standard
  (2) compute orientorder/atom, occasional
      attributes: full, newton on
      pair build: full/bin/atomonly
      stencil: full/bin/3d
      bin: standard
  (3) compute coord/atom, occasional
      attributes: full, newton on
      pair build: full/bin/atomonly
      stencil: full/bin/3d
      bin: standard
  (4) compute cluster/atom, occasional
      attributes: full, newton on
      pair build: full/bin/atomonly
      stencil: full/bin/3d
      bin: standard
Per MPI rank memory allocation (min/avg/max) = 9.817 | 9.822 | 9.826 Mbytes
Step Temp PotEng c_msd[4] v_twopoint v_fit v_max_n 
   12000    1.2522888   -2.7623793 2.3523832e-30 1.6335994e-32 8.3333333e+20            1 
   13000    1.2799172   -2.7548548    1.0988849 0.0070441335  0.093110569            2 
   14000    1.2220056   -2.7385441    2.2759018  0.013547034  0.098087713            1 
   15000    1.2593946   -2.7804989    3.5024264  0.019457924  0.098967386            2 
   16000    1.2174408   -2.7774253    4.7502177  0.024740717  0.099813413            2 
   17000     1.249877    -2.762352    5.9616498  0.029223773    0.1003332            1 
   18000    1.2396141   -2.7278913    7.2447126  0.033540335   0.10101525            2 
   19000    1.2390891   -2.7786699    8.4896273  0.037235206    0.1017559            2 
   20000     1.212421   -2.7714974    9.8586522  0.041077717   0.10277634            1 
   21000    1.2447409   -2.7535774    11.176284  0.044350331   0.10364523            2 
   22000    1.2587214   -2.7686279    12.326922  0.046692884   0.10427287            1 
   23000    1.2686464   -2.7857821    13.444341   0.04871138   0.10431289            3 
   24000     1.188364   -2.8039953    14.515631  0.050401496   0.10385156            1 
   25000    1.2236522   -2.7779567    15.645586  0.052151951   0.10311104            5 
   26000    1.2015295   -2.7961136    16.950201  0.054327565   0.10246286            1 
   27000    1.2369381   -2.7532302    18.110004  0.055895073   0.10194188            1 
   28000    1.2179036   -2.8028365     19.29816  0.057434998   0.10161728            2 
   29000     1.233714   -2.8297722    20.719014  0.059537396   0.10159851            2 
   30000    1.2226195   -2.7999251     21.96454  0.061012609    0.1017995            3 
   31000    1.2092148   -2.8038668    23.202093  0.062371218   0.10191694            1 
   32000    1.1994691   -2.8218188    24.400784  0.063543708   0.10195198            2 
   33000    1.2303901   -2.8187676    25.515892   0.06443407   0.10192572            1 
   34000    1.2075173   -2.8051438    26.556921  0.065090492   0.10170533            3 
   35000     1.215905    -2.779459    27.796434  0.066181985   0.10145242            2 
   36000    1.1981346   -2.7623794    28.939308  0.066989139    0.1012276            2 
   37000    1.2353247   -2.8044021    29.963914  0.067486291   0.10096897            5 
   38000     1.196529   -2.7974166    31.235932   0.06849985   0.10069936            3 
   39000     1.219709   -2.7993068    32.437809  0.069311556   0.10058087            2 
   40000    1.2143622    -2.813107    33.383455  0.069548863   0.10044084            2 
   41000    1.2062616   -2.7908171    34.584566  0.070293833   0.10026376            2 
   42000    1.1918575   -2.8095452    35.930038  0.071289757   0.10017202            2 
   43000    1.1993631   -2.7720704     36.89309  0.071498235   0.10002112            3 
   44000    1.2190245   -2.8136648    37.627433  0.071264077  0.099711924            3 
   45000    1.2003995   -2.8040209    38.657377  0.071587735  0.099358595            1 
   46000    1.1926331   -2.8222339    39.977601  0.072423189  0.099062046            1 
   47000    1.2177419   -2.8013994    40.970888  0.072643417  0.098783013            2 
   48000    1.1878447    -2.812807    41.919491  0.072776894  0.098468138            2 
   49000    1.1990296   -2.8255447     43.27582  0.073598333  0.098205742            1 
   50000    1.1973972   -2.8021431    44.272111  0.073786851  0.097966998            2 
   51000    1.1809141    -2.795922    45.566376  0.074454862   0.09773283            3 
   52000    1.2107994   -2.8407598    46.261467  0.074136965  0.097485966            3 
   53000    1.1583646     -2.82071    47.168884  0.074164911  0.097156529            2 
   54000    1.1915872   -2.8460367    48.152954  0.074310114   0.09682633            2 
   55000     1.186705   -2.8225762    49.407453  0.074859777  0.096468434            2 
   56000    1.1736205   -2.8380534    50.219747  0.074731766  0.096150679            1 
   57000     1.165532   -2.8504148    51.126401    0.0747462  0.095810458            1 
   58000    1.1721613   -2.8471312    52.212364  0.075017763  0.095507259            2 
   59000     1.196102   -2.8278221    53.358908  0.075365689  0.095233462            2 
   60000    1.1756242   -2.8210532    54.702562  0.075975779  0.095014803            2 
   61000    1.1744615   -2.8554123    55.661289  0.076040012  0.094801185            2 
   62000    1.1701051   -2.8213847    56.941713  0.076534561  0.094636073            4 
   63000    1.1581576   -2.8350903    57.881834  0.076563272  0.094478965            2 
   64000    1.1366606    -2.845872    59.265861  0.077169089  0.094323463            2 
   65000    1.1813113   -2.8417468    60.138324  0.077100415  0.094191072            1 
   66000    1.1851525   -2.8334035    61.360075  0.077474841   0.09405997            3 
   67000    1.1444907   -2.8787566    62.342668  0.077540632  0.093938152            1 
   68000    1.1578755    -2.864624    63.348449  0.077632902  0.093825279            2 
   69000    1.1523434   -2.8736055    64.590056  0.078007313  0.093719757            2 
   70000    1.1755834   -2.8779208    65.821194  0.078358563  0.093625007            3 
   71000    1.1567662   -2.8430281    67.029245  0.078672823  0.093560551            1 
   72000    1.1543107    -2.843015    68.312415  0.079065295   0.09351766            2 
   73000    1.1638378   -2.8636627    69.114369  0.078897681   0.09347303            1 
   74000    1.1408689   -2.8886319    70.381572  0.079258526  0.093430209            2 
   75000    1.1532449    -2.864634    71.174522  0.079082802  0.093362515            2 
   76000    1.1384403   -2.9039581    71.898189  0.078835733  0.093262168            2 
   77000    1.1433557   -2.8861328    73.412416  0.079450667  0.093169119            4 
   78000    1.1358697   -2.8623793    74.258795  0.079336319  0.093098515            2 
   79000    1.1213299   -2.8612405    75.224525  0.079350764    0.0930314            2 
   80000    1.1518152   -2.8715297    75.954792  0.079119574  0.092932995            3 
   81000     1.133873   -2.8824976    77.250251  0.079475567  0.092819054            2 
   82000    1.1319404   -2.8608653    78.871277  0.080153736  0.092732643            2 
   83000    1.1228477   -2.8805875    79.364383  0.079683115  0.092643366            3 
   84000    1.1316025   -2.9036523    80.592357  0.079952734  0.092569844            1 
   85000    1.1101597   -2.8737297    81.754862  0.080151825  0.092497523            3 
   86000    1.1236993   -2.8639104    82.146793  0.079599606  0.092416749            2 
   87000    1.1524914   -2.8890515    83.383564  0.079869314   0.09231994            3 
   88000    1.1428608   -2.9020894    84.668232   0.08017825  0.092209335            2 
   89000    1.0945343   -2.8824834    85.625384   0.08017358  0.092097814            1 
   90000    1.1060057   -2.8945022    86.369364  0.079971633  0.091977353            1 
   91000    1.1146682   -2.9087522    87.169863  0.079825881  0.091843242            2 
   92000     1.133051   -2.8709709    88.674994  0.080321552   0.09172088            2 
   93000    1.1020357   -2.9391218    89.216687  0.079943267  0.091605525            2 
   94000    1.1070609   -2.8614975     90.24269  0.080002384  0.091481041            1 
   95000    1.1454994   -2.9010868    91.338786  0.080121742  0.091354492            2 
   96000    1.1167029   -2.9348246    92.439267  0.080242419   0.09125088            3 
   97000    1.1206454   -2.8715459    93.211291  0.080078428  0.091130186            2 
   98000    1.1136112   -2.8777127    94.397335  0.080269842  0.091021069            1 
   99000    1.1200955   -2.8847088    96.002707  0.080810359  0.090936036            2 
  100000    1.0833802   -2.9260757    96.822891  0.080685742  0.090850807            1 
  101000      1.08575   -2.9211802    97.894281  0.080770858  0.090767312            2 
  102000    1.1044361   -2.8535233    98.706631  0.080642672  0.090679657            1 
  103000    1.1250133   -2.9144086    99.281772  0.080325058  0.090582218            1 
  104000    1.0984037   -2.9026436    99.947724  0.080086317   0.09047642            1 
  105000     1.107146   -2.9225588    100.89727  0.080077198  0.090363474            2 
  106000    1.1145723   -2.9342228    102.02884  0.080211352  0.090254156       -1e+20 
  107000    1.0787176   -2.9159599    103.33305   0.08047745  0.090156229            3 
  108000    1.1011065   -2.9528203    103.80279  0.080094747  0.090054396            1 
  109000    1.1143369   -2.9273574    105.20405  0.080431228  0.089949575            2 
  110000    1.0898734   -2.9327774    105.40363  0.079851237  0.089839749            2 
  111000     1.071998   -2.9629093    106.33918  0.079834218  0.089699689            2 
  112000    1.1140147    -2.963432    107.31404  0.079846756  0.089550397            3 
  113000    1.0770364   -2.9445191     107.9834  0.079633775  0.089391369            2 
  114000    1.0975434   -2.9150704    108.96904  0.079655729  0.089245644            2 
  115000    1.0755118   -2.9504832    109.63949  0.079448908  0.089105332            4 
  116000    1.0826729   -2.9557727    110.73337  0.079549835  0.088964491            3 
  117000    1.0755345   -2.9234373    112.27029  0.079964597  0.088820874            1 
  118000    1.0580017   -2.9719383    112.63667  0.079545673  0.088681465            2 
  119000    1.0647251   -2.9574501    113.50179  0.079483045    0.0885493            1 
  120000    1.0835486   -2.9596702     114.2097  0.079312292  0.088405483            3 
  121000    1.0513134   -2.9906876    114.44538  0.078819132  0.088262727            1 
  122000    1.0533317   -2.9826442    115.35784  0.078796336  0.088106304            3 
  123000    1.0780968   -2.9802115    116.70822   0.07907061   0.08795835            4 
  124000    1.0640146   -2.9847145    117.92307  0.079249371  0.087826819            1 
  125000    1.0814776    -2.950841    118.30767  0.078871776  0.087691479            2 
  126000    1.0668125   -2.9659438    119.61959  0.079113482  0.087554236            3 
  127000    1.0679526   -2.9796283    120.23867  0.078896764  0.087412381            3 
  128000    1.0824229   -2.9858349    121.50417  0.079104278  0.087277536            3 
  129000    1.0674565   -2.9688969    122.16581  0.078918479  0.087143209            2 
  130000    1.0493122   -2.9713705    122.76979  0.078698581  0.086999732            1 
  131000    1.0557802   -2.9639381    123.80894   0.07875887  0.086865434            4 
  132000    1.0639096   -2.9806883    124.51786  0.078609758  0.086722069            5 
  133000    1.0733908   -2.9750644    125.46957  0.078615019  0.086570193            2 
  134000    1.0432097   -2.9925992    126.00939   0.07836405   0.08641579            4 
  135000    1.0507287   -2.9650851    126.35048  0.077994123  0.086265263            3 
  136000     1.034437    -2.967966     126.9045  0.077760111  0.086099502            1 
  137000     1.052668   -2.9755674    128.11534  0.077929037  0.085935991            1 
  138000    1.0389001   -2.9865839    128.68769  0.077709957  0.085770216            1 
  139000    1.0641369   -2.9499735     129.3693  0.077559532  0.085602376            2 
  140000    1.0314711   -2.9839845    130.61293  0.077745793  0.085440347            2 
  141000    1.0460028   -2.9854006    131.26841  0.077581801   0.08527686            4 
  142000    1.0397612   -3.0039203    132.01292  0.077472372  0.085123444            2 
  143000    1.0143966   -2.9955927    132.67965  0.077319143  0.084961563            4 
  144000    1.0253223   -3.0365326     132.4855  0.076669848  0.084798317            3 
  145000    1.0480301   -3.0047099    134.54958  0.077327343  0.084634225            3 
  146000    1.0336283   -3.0107201    134.80846  0.076945465   0.08446999            3 
  147000    1.0502701   -3.0171124    136.28748  0.077260477  0.084308345            1 
  148000    1.0465649   -3.0165776    137.05841   0.07717253  0.084153057            2 
  149000    1.0508742   -3.0398128    136.64557  0.076423696  0.084000033            4 
  150000    1.0044071   -3.0339274      138.717  0.077065002  0.083850935            2 
  151000    1.0233803   -2.9908587    138.84339  0.076624385  0.083702455            3 
  152000    1.0127203   -3.0078927    139.46056  0.076458641  0.083545289            3 
  153000    1.0041212   -3.0045628    139.93405  0.076216804  0.083382614            2 
  154000   0.98958037   -3.0001353    140.74729  0.076161955   0.08322134            6 
  155000    1.0042099   -3.0358745    141.48949  0.076069617  0.083051806            2 
  156000     1.043042   -3.0276654    141.64315  0.075664073  0.082885506            2 
  157000    1.0075367   -3.0135757    143.60468  0.076223293  0.082712602            4 
  158000    1.0185169   -3.0199827    143.28317  0.075571292   0.08254334            5 
  159000    1.0486006   -3.0318332    143.31911  0.075114838  0.082366078            2 
  160000    1.0150621   -3.0071257    145.12694  0.075586948  0.082190166            2 
  161000   0.98019778   -3.0459706    144.91512  0.075007828  0.082016827            2 
  162000     1.018335   -3.0604807    145.59486  0.074894473  0.081844268            3 
  163000   0.99065869   -3.0471993    147.55206  0.075435613  0.081674206            2 
  164000    1.0161252   -3.0391601    147.29713  0.074846102   0.08150751            1 
  165000    0.9934107   -3.0787409    147.74279  0.074617573  0.081340465            2 
  166000   0.97448036   -3.0401769    148.86878  0.074733323  0.081170467            2 
  167000    0.9827793   -3.0699567     148.3823  0.074043064  0.080993848            3 
  168000   0.98433435   -3.0764486    150.07714  0.074443026  0.080820224            2 
  169000    1.0008303   -3.0473959     150.2443   0.07408496  0.080649309            2 
  170000    0.9988178   -3.0555673    151.33892  0.074185747  0.080479964            3 
  171000   0.98990931   -3.0509821    152.35496  0.074247057  0.080315006            1 
  172000    1.0002771   -3.0555839    152.91467  0.074086564  0.080150471            2 
  173000     1.003093   -3.0547831    153.77088  0.074070753  0.079984706            2 
  174000   0.99916115    -3.034318    154.57672  0.074030998  0.079821267            2 
  175000   0.98554887   -3.0768016    155.06037  0.073838273  0.079666695            2 
  176000   0.97734039   -3.0520698    155.98288   0.07385553  0.079510203            1 
  177000    0.9710399   -3.0454752     157.0525  0.073941856  0.079360113            6 
  178000    0.9761338   -3.0660004    157.79994  0.073876377  0.079209172            2 
  179000   0.98301861   -3.0692929    158.24809  0.073672295  0.079058277            7 
  180000    0.9980746   -3.0881991    158.92188  0.073574944  0.078914262            4 
  181000   0.97594113   -3.0635474    159.83694  0.073589753  0.078767477            2 
  182000   0.97880577   -3.0746919    160.14267  0.073325398  0.078616483            5 
  183000   0.96750925   -3.1064498    160.17033  0.072937308  0.078466285            4 
  184000   0.98360047    -3.068331     161.5359  0.073159374  0.078313813            3 
  185000   0.95705785   -3.1300304     160.2644  0.072191169  0.078157565            4 
  186000   0.97197438    -3.099156    161.75652  0.072471557  0.077998961            3 
  187000   0.97342139   -3.1148882    163.01608  0.072645314  0.077849016            2 
  188000   0.97439224   -3.0927099    163.56479  0.072502123  0.077693895            2 
  189000    0.9851858   -3.0818175    164.63315  0.072589571  0.077548062            3 
  190000   0.96970353    -3.106481    165.74829  0.072696617  0.077405741            3 
  191000   0.96708724   -3.0899118    165.90749  0.072385465  0.077267209            6 
  192000   0.97503573   -3.0995757    166.77735  0.072386004  0.077125979            2 
  193000   0.95301681   -3.1197023    167.38106  0.072271613    0.0769831            2 
  194000   0.95982153   -3.0915787    168.12799  0.072219928  0.076842028            3 
  195000   0.97447299   -3.1202911     169.3143   0.07235654  0.076699459            3 
  196000   0.95743757   -3.1057894    168.82409  0.071778952  0.076556229            4 
  197000   0.96019384   -3.1208837    169.45064  0.071679628  0.076407938            4 
  198000   0.94890147   -3.1148394     170.6445  0.071820077  0.076265567            4 
  199000   0.94661989   -3.1177669    171.78338  0.071936087  0.076124314            7 
  200000   0.95014933   -3.1269915    171.32392  0.071384965  0.075981649            4 
  201000   0.94373162   -3.1115091    173.02003  0.071733012  0.075845636            3 
  202000   0.96945243   -3.1469273     173.5048  0.071577887  0.075713145            2 
  203000   0.91827109   -3.1371125    173.80206  0.071347315  0.075581168            2 
  204000   0.94955477   -3.1004939    176.15222  0.071957608  0.075454947            3 
  205000   0.92873455    -3.126439    176.04328  0.071562309  0.075331499            4 
  206000   0.95433638   -3.1468362    176.73146  0.071493308  0.075206965            3 
  207000    0.9284965     -3.12352    177.58905  0.071493177  0.075085677            3 
  208000   0.92411916   -3.1857515    177.47576  0.071104071  0.074958619            4 
  209000   0.92738016    -3.154196    178.38884  0.071127926  0.074838179            6 
  210000   0.92456164   -3.1252464    179.81307  0.071354393  0.074721204            3 
  211000   0.92347813   -3.1524825     180.8262  0.071416352  0.074602675            1 
  212000   0.94160222   -3.1349203    180.62515  0.071000452  0.074485093            2 
  213000    0.9322817   -3.1572678    181.95895  0.071188945  0.074368682            3 
  214000   0.92615343   -3.1466195    182.03232  0.070884861  0.074254351            5 
  215000    0.9246274   -3.1377228     183.0333   0.07094314  0.074133745            2 
  216000   0.91397595   -3.1446076    183.42778  0.070766888  0.074016852            2 
  217000   0.91655232   -3.1576956    183.85057  0.070603138  0.073901407            5 
  218000   0.89642811   -3.1928923    183.65099  0.070202977  0.073780103            3 
  219000   0.92305774   -3.1236862    184.67558   0.07027229  0.073655104            2 
  220000    0.9104592   -3.1849217    184.53384  0.069899181  0.073530776            2 
  221000   0.92637131   -3.1354587    185.41902  0.069916673  0.073404545            2 
  222000   0.91643902   -3.1701588     186.5126  0.070012237  0.073275568            1 
  223000   0.90877394   -3.1913368    187.26337  0.069978836  0.073149219            3 
  224000   0.89598046   -3.1613762    187.26218  0.069665988  0.073021953            3 
  225000   0.91222431   -3.1805053    187.11753  0.069302789  0.072896466            2 
  226000   0.89725739   -3.1988849    188.13731  0.069372164  0.072769961            4 
  227000    0.9017952   -3.1650091    189.54891   0.06958477  0.072643769            2 
  228000   0.90645842   -3.1992443    189.67352  0.069325118  0.072522134            4 
  229000   0.90624649   -3.1812867    190.64322  0.069375261  0.072400258            7 
  230000    0.8956363   -3.1847843    190.92931  0.069177288  0.072280671            2 
  231000   0.87861467   -3.1885642    191.71256  0.069160374  0.072159951            2 
  232000   0.89751278    -3.196713    191.60469  0.068823523  0.072041001            4 
  233000   0.88119648   -3.1831019    192.52965  0.068858958  0.071921757            3 
  234000   0.89332959   -3.1824372    192.85552  0.068680741  0.071802508            3 
  235000   0.88308531   -3.1877432    194.03241   0.06880582  0.071684997            3 
  236000   0.88661102   -3.1865961    195.69942  0.069102902  0.071570808            2 
  237000   0.89639824   -3.2034105    195.96055  0.068903148  0.071454851            3 
  238000   0.90099255    -3.198878    196.39229  0.068764806  0.071337997            3 
  239000   0.89074648   -3.2142986    195.78643   0.06826584  0.071218866            5 
  240000   0.87324381   -3.1941909    196.35541  0.068178961  0.071098827            4 
  241000     0.881838   -3.1930791    197.31023   0.06822622  0.070980408            7 
  242000   0.88701701   -3.1901901    197.97335  0.068172641  0.070862762            2 
  243000   0.86685363   -3.2040394    198.35442  0.068022777  0.070742945            7 
  244000   0.88468016   -3.2208894    198.30961  0.067728692  0.070625332            3 
  245000   0.85421889   -3.2101055    199.13031  0.067731399  0.070505997            2 
  246000   0.90076063   -3.2273257    199.42354  0.067555401  0.070386553            3 
  247000   0.87245431   -3.2423968    199.93712   0.06745517  0.070267159            5 
  248000   0.87093282   -3.2306215     200.2626  0.067292542  0.070142495            3 
  249000   0.87038788   -3.2087896    201.30178  0.067370074  0.070022965            2 
  250000   0.87791116   -3.2372676     201.0758  0.067025266  0.069900811            3 
  251000   0.87818824   -3.2199361    203.08939  0.067426757  0.069778721            2 
  252000   0.88112281   -3.2084767     202.9552  0.067114816  0.069657612            2 
  253000   0.84438325   -3.2216977    203.01016   0.06686764   0.06953783            2 
  254000   0.85902574   -3.2307046     202.7179  0.066508496   0.06941636            4 
  255000     0.857941   -3.2399257    203.06338  0.066360581  0.069292879            2 
  256000   0.86689943   -3.2461407    204.18016  0.066464897  0.069169794            7 
  257000   0.85928621   -3.2757177    204.22126  0.066219603  0.069047491            3 
  258000   0.86186235   -3.2570546     205.2522   0.06629593  0.068923981            9 
  259000   0.84843266   -3.2588891    205.43888  0.066100025  0.068799139            4 
  260000   0.84391286   -3.2638263    205.91059  0.065996983  0.068674153            3 
  261000   0.86084057   -3.2537887    206.42652  0.065908851  0.068551797            3 
  262000   0.82365793   -3.2766985    207.02795  0.065848584  0.068428541            3 
  263000   0.85530988   -3.2747756    206.53463  0.065441898  0.068303431            7 
  264000   0.83949086   -3.2505797    206.91114  0.065312861  0.068176785            4 
  265000   0.85577269   -3.2854095    207.07131  0.065116763  0.068050252            5 
  266000   0.82402053   -3.2536684    208.36623  0.065277641  0.067924437            2 
  267000   0.84617409   -3.2671302    209.09137   0.06525948  0.067798952            4 
  268000   0.81899392   -3.2824218     209.5151  0.065147729  0.067673527            2 
  269000   0.83804567    -3.286428    209.36255  0.064858287   0.06754662            2 
  270000   0.83512428   -3.2836759    209.72299  0.064729317  0.067416458            4 
  271000   0.82954717   -3.2799851    209.92379   0.06455221  0.067287878            2 
  272000   0.83762952   -3.2872738     210.2971  0.064429259  0.067160333            5 
  273000   0.83442061   -3.2708028    210.64167  0.064298434  0.067032566            5 
  274000   0.83747702   -3.2801059    210.99943  0.064172576  0.066904342            3 
  275000   0.80949421   -3.2909108     211.6625   0.06414015  0.066776871            2 
  276000   0.84146718   -3.2871471      211.581  0.063883151  0.066646873            4 
  277000    0.8076184   -3.2963737    212.35936   0.06388669  0.066518095            3 
  278000   0.83475814   -3.2877842    213.06945  0.063869739  0.066390641            3 
  279000   0.82568771   -3.3047377    213.35761  0.063726884  0.066265713            5 
  280000   0.82693784   -3.2736098    214.39233  0.063807242  0.066142513            3 
  281000   0.81638757   -3.2816484    213.97418  0.063456162  0.066017055            3 
  282000   0.80480476   -3.3066965    215.34196   0.06363533  0.065891487            7 
  283000   0.83623849   -3.3284911    215.89523   0.06357339   0.06576583            1 
  284000   0.80650167   -3.2863711    216.01753  0.063385426  0.065643119            3 
  285000   0.80343665   -3.3110825    216.19797  0.063215779  0.065518034            3 
  286000   0.80235979   -3.2845482    216.08159  0.062960835  0.065393002            4 
  287000    0.7931349   -3.3088364    216.75096   0.06293582  0.065270744            2 
  288000   0.80102244   -3.3266563    216.49123  0.062642139  0.065145473            2 
  289000   0.79589185   -3.3255094    217.71357  0.062777846  0.065018843            3 
  290000    0.8048878   -3.3546012    217.73036  0.062566195  0.064891142           10 
  291000   0.82900171   -3.3286356    218.02329  0.062435076  0.064764931            2 
  292000   0.79147348   -3.3182771    218.99149  0.062497571  0.064637366            6 
  293000   0.80320672   -3.3424364    218.69464   0.06219984   0.06451159            3 
  294000   0.79355862   -3.3485559    218.93109  0.062055296  0.064386879            4 
  295000   0.79933585   -3.3287707    219.06044  0.061881479  0.064263268            4 
  296000   0.79068716   -3.3510801    219.75934  0.061869182  0.064139641            2 
  297000   0.81023506   -3.3663689    220.20712  0.061786509  0.064015245            3 
  298000   0.80560765   -3.3344307    220.40832  0.061635437  0.063892327            2 
  299000   0.78942858   -3.3440131    220.55813   0.06147105  0.063769517            4 
  300000   0.78924721   -3.3548316    221.53348  0.061537079  0.063646283            4 
  301000   0.79492407   -3.3567512    222.25364  0.061532016  0.063524727            3 
  302000   0.79875989   -3.3538418    221.63801  0.061158392  0.063402285            5 
  303000   0.78506348   -3.3788277    221.73793  0.060984028  0.063278072            4 
  304000   0.80812933   -3.3372003    222.40491  0.060966258   0.06315366            3 
  305000   0.77355713   -3.3348764    222.49418   0.06079076  0.063028269            4 
  306000   0.78758607    -3.339624    222.30488  0.060540543  0.062901968            3 
  307000   0.77333973   -3.3877964    224.22899  0.060865631  0.062776441            6 
  308000   0.77886922   -3.3754717    223.45091  0.060457497  0.062648327            5 
  309000   0.77366738   -3.3604374    223.48859  0.060272003  0.062519832            5 
  310000   0.76604344   -3.3718534    223.40383  0.060054794  0.062392432            5 
  311000   0.77159432   -3.3911251    223.87505  0.059987957  0.062264714            6 
  312000   0.79828258   -3.3818474    224.16127  0.059872134  0.062134655            4 
  313000   0.78541472   -3.3780085    224.57713  0.059791569  0.062005863            5 
  314000   0.77974539   -3.3898847     224.6794  0.059628292  0.061877701            6 
  315000   0.75121742   -3.3720071    224.94858  0.059510206  0.061749092            8 
  316000   0.75858343   -3.3900574    225.59399  0.059492086  0.061620627            6 
  317000   0.76498594   -3.3796702    225.97389  0.059404282  0.061493071            3 
  318000   0.76937391   -3.3919345    227.23689   0.05954845  0.061366673            3 
  319000   0.76196538   -3.4079292    226.98909  0.059297044  0.061241048            3 
  320000   0.76521278   -3.3911872    227.79463  0.059321518  0.061117223            3 
  321000   0.75976408   -3.3752649    227.73701  0.059121758  0.060993974            9 
  322000   0.73972013   -3.3994881    228.61868  0.059166326  0.060870429            4 
  323000   0.75052828   -3.3816222    228.44025  0.058937113  0.060748033            3 
  324000   0.73668481   -3.4006443    228.08961  0.058665023  0.060623687            3 
  325000   0.74879925   -3.4173019    228.26756  0.058530143  0.060498899            5 
  326000   0.75021481   -3.4140361    228.82647  0.058493474  0.060373114           14 
  327000   0.74824299   -3.3974082    228.30783  0.058182425  0.060247241            7 
  328000   0.74643996   -3.4053775    228.94801  0.058167685  0.060121119            8 
  329000   0.74241304    -3.441802    228.74169  0.057938625  0.059995044            5 
  330000   0.74169613   -3.4107312    229.34877  0.057916356  0.059866976            3 
  331000    0.7453468   -3.4240649    229.57026  0.057797146  0.059739827            3 
  332000   0.74508396   -3.4444026    230.83663  0.057940921  0.059612889            5 
  333000   0.74148223   -3.4219546    230.27945  0.057627491  0.059485647            7 
  334000   0.74861545   -3.4408487    230.70561  0.057561279  0.059360159            4 
  335000   0.72196578   -3.4320061    231.45451  0.057575748  0.059235668            6 
  336000   0.73130531   -3.4179944    230.78564  0.057238501  0.059109941            4 
  337000   0.71507533   -3.4405452    232.40299  0.057468594  0.058985135            3 
  338000   0.72538159   -3.4352444    232.49967  0.057322403  0.058861305            5 
  339000   0.71029236   -3.4517129    232.30554   0.05710559   0.05873731           10 
  340000    0.7315354    -3.444959    232.81059  0.057061418   0.05861255            4 
  341000    0.7045065   -3.4597522    232.81485  0.056895125  0.058488177            5 
  342000   0.71859955   -3.4360008    233.17047  0.056815418   0.05836258            4 
  343000   0.70145218    -3.476079     232.1839  0.056410083  0.058237106            4 
  344000   0.72485896    -3.465987    233.59975  0.056589087  0.058112431            6 
  345000   0.70894714   -3.4902042     232.3262  0.056117439  0.057986676           14 
  346000    0.7213855    -3.450929    233.27481   0.05618372  0.057861903           12 
  347000   0.72185427   -3.4560112    233.85807  0.056161881  0.057738508            5 
  348000   0.71108522   -3.4591766    234.09067  0.056056196  0.057615557            8 
  349000   0.70335486    -3.468437    233.97732  0.055868511  0.057491957            3 
  350000   0.70902616   -3.4659088    234.61529  0.055860784  0.057367405            7 
  351000   0.72265099   -3.4482384    234.49969   0.05567419  0.057245384            5 
  352000   0.69191853     -3.48123    235.00977  0.055636783  0.057123028            3 
  353000    0.6939602   -3.4756563    235.21373  0.055527321  0.057000154            9 
  354000   0.70913184   -3.4726886    235.67547   0.05547916  0.056878357           10 
  355000   0.69466252    -3.471137    236.02168  0.055404149  0.056758932            5 
  356000   0.69308335   -3.4858172    236.97631  0.055471981  0.056639222            2 
  357000    0.6949328   -3.4795368    236.37044  0.055175174  0.056519985            6 
  358000   0.70891161   -3.4916849     236.6465  0.055085311  0.056400317            7 
  359000   0.69793416   -3.5071692    236.90977  0.054992982  0.056280614            5 
  360000   0.68479479   -3.5049083    237.44252  0.054963547  0.056160593            5 
  361000   0.69723737   -3.5049957     238.0672  0.054955494  0.056040977            5 
  362000   0.69436217   -3.5083539    237.58207  0.054692005  0.055923431           10 
  363000   0.67482065   -3.4941315     238.1982  0.054682782  0.055806307            4 
  364000    0.6975027   -3.5234326     238.9385  0.054702037   0.05568893           11 
  365000   0.68298613   -3.5205551    238.78326  0.054516726  0.055572717            6 
  366000   0.69594077   -3.5232459    238.98385  0.054413444  0.055457043            6 
  367000   0.70056163   -3.5395185    239.29663  0.054336201  0.055341528            3 
  368000   0.67326235   -3.5112547    239.89605  0.054324287  0.055226798           17 
  369000   0.68575923   -3.5229563    239.93708  0.054186332  0.055110774            8 
  370000   0.67842828    -3.541159    240.19177  0.054097245  0.054994528            8 
  371000     0.666445   -3.5296521    239.86785  0.053878671  0.054879096            4 
  372000   0.66361186   -3.5207517    241.08607  0.054006736  0.054764584            8 
  373000   0.67494013    -3.518657     240.4753  0.053725492  0.054648642            4 
  374000   0.66824638   -3.5231827    240.86131   0.05366785  0.054533182           10 
  375000   0.66789982   -3.5477161    240.52361  0.053449691  0.054417862            8 
  376000    0.6547906   -3.5472147    240.48706  0.053299436  0.054301776            4 
  377000   0.67023958   -3.5545438    241.16853  0.053308693  0.054185899            9 
  378000   0.65894375   -3.5572114    241.41204  0.053221349  0.054070956            5 
  379000   0.66982104   -3.5473169    241.52068  0.053104811  0.053957131            3 
  380000   0.65656809   -3.5358917    241.55724  0.052973078  0.053842569            9 
  381000   0.65058716   -3.5668412    241.19658  0.052755158  0.053727615            6 
  382000   0.65585972   -3.5633199    241.94239  0.052779753  0.053613138            7 
  383000   0.65488968   -3.5848815    242.52322  0.052768325   0.05349946            4 
  384000   0.64581335   -3.5656712     243.2709  0.052793164  0.053385954           22 
  385000    0.6497177   -3.5564124     243.2648   0.05265472  0.053273139           10 
  386000   0.66045433   -3.5811556    242.27512  0.052304646  0.053160512            4 
  387000   0.64329331   -3.5791365    243.44492  0.052421386  0.053048135            3 
  388000   0.65858429   -3.5846558     243.5809  0.052315486  0.052934772            8 
  389000   0.66231179   -3.5894315    242.48593  0.051946429  0.052821865           12 
  390000   0.65778913   -3.5794296    243.68314  0.052069046  0.052709559            8 
  391000   0.65397939   -3.5738652    243.59119   0.05191628  0.052596377           11 
  392000   0.64268228   -3.6019804    244.66213  0.052011508  0.052483711            4 
  393000   0.64675268   -3.5934109    244.48912  0.051842476  0.052371889            7 
  394000   0.63658361   -3.5834525    243.77869  0.051560636  0.052258832           23 
  395000    0.6416921   -3.5817291    243.80724  0.051436126  0.052146069            4 
  396000   0.64142213   -3.5955414    244.88266  0.051532547  0.052033424            6 
  397000    0.6209292   -3.5814836    244.27227  0.051274617  0.051920466           28 
  398000   0.63695912   -3.5947391    244.32908  0.051157679  0.051807975           11 
  399000   0.63593014   -3.6098529    243.81404  0.050921897  0.051695811           14 
  400000   0.61364013   -3.6155329    244.50242  0.050938003  0.051582502            8 
  401000   0.61644408   -3.6017853    244.87912   0.05088926  0.051470712           16 
  402000   0.63510233   -3.6278096    244.99461  0.050786611  0.051358731            6 
  403000   0.61798234   -3.6149213    245.27217  0.050717983  0.051246161            5 
  404000   0.60710279   -3.6414954    245.30097  0.050598385   0.05113437            8 
  405000   0.64427547   -3.6244827    245.76817  0.050569581  0.051023585            7 
  406000    0.6157923   -3.6229591    245.11788  0.050311551  0.050912249           12 
  407000   0.62144972   -3.6258865    246.02427  0.050373521  0.050800509            6 
  408000   0.62314651    -3.633178    245.54168  0.050151486  0.050688428           16 
  409000   0.60650461   -3.6231151    245.75703  0.050072744  0.050576121           11 
  410000   0.59870833   -3.6508358    245.74313   0.04994779  0.050464228           24 
  411000   0.61951756   -3.6444986    245.66912  0.049811258  0.050352301            6 
  412000   0.61706572   -3.6394825    246.30596  0.049819168  0.050241461            6 
  413000   0.59800004   -3.6636563    246.20065   0.04967729  0.050131094            5 
  414000   0.60676548   -3.6498593    246.43006  0.049603475  0.050020761            7 
  415000   0.60153137   -3.6456107     246.4085  0.049479619  0.049910137            9 
  416000   0.62008815   -3.6698345    246.45225  0.049369441  0.049799325           15 
  417000   0.59762927   -3.6505647    247.23176  0.049406827  0.049688868            7 
  418000   0.60404814    -3.655361    246.88422  0.049219341  0.049577844           10 
  419000   0.61425673   -3.6585952    246.88266  0.049101563  0.049467215           10 
  420000   0.58831428   -3.6616973    246.87318  0.048982774  0.049356151            3 
  421000   0.59253241   -3.6504514    246.76687  0.048845382  0.049244686            4 
  422000   0.59590037   -3.6493335    246.53627  0.048684098  0.049132912            8 
  423000   0.59875936   -3.6382685    245.86879  0.048437507  0.049021369           11 
  424000   0.57784574   -3.6659959    246.50788  0.048448875  0.048909343            8 
  425000   0.59418578   -3.6780977    246.54906  0.048342953  0.048796559            7 
  426000   0.59003846    -3.670258    245.67183   0.04805787  0.048684335            4 
  427000   0.58110366   -3.6806002    246.14836  0.048038323  0.048570949            5 
  428000   0.58658047   -3.6713172    246.19468    0.0479351  0.048458474            6 
  429000   0.58875496   -3.6889492    245.93774  0.047773454  0.048346401            6 
  430000   0.57183217   -3.7022971    246.55739  0.047782439  0.048234216            6 
  431000   0.56760707   -3.7037885    246.63963  0.047687477  0.048122164           16 
  432000   0.57408502   -3.6878415    247.11818  0.047669402  0.048011027           15 
  433000   0.58200713    -3.689298    246.56389  0.047452634  0.047900376           15 
  434000   0.56619959      -3.7099     247.1074  0.047447658  0.047789774           12 
  435000   0.56206529   -3.7287894    246.27485   0.04717909  0.047678396           20 
  436000   0.57784983   -3.7120095    246.91821  0.047193847  0.047567241            3 
  437000   0.56198868   -3.7188081    247.25859  0.047150761  0.047456367            6 
  438000   0.56919179   -3.7207339    247.60495  0.047109009  0.047345699           12 
  439000   0.56298647   -3.7079462    247.53114  0.046987688  0.047235614            7 
  440000   0.58323378    -3.720849    246.79372  0.046741236    0.0471258           14 
  441000   0.56177735   -3.7316177    247.15939  0.046704345  0.047015765            7 
  442000   0.55348826   -3.7230522    247.33332   0.04663147  0.046905702           11 
  443000   0.56637458   -3.7215064    247.06414  0.046475571  0.046795402           30 
  444000   0.55480801   -3.7267807    247.24367  0.046404592  0.046684971           11 
  445000   0.56099848   -3.7476292    247.40516  0.046330554  0.046575485            5 
  446000   0.55267036   -3.7545597    247.18069  0.046184733  0.046466032            7 
  447000   0.55134478   -3.7421896    247.45751  0.046133018  0.046356876           13 
  448000   0.54588999   -3.7443762     248.1992  0.046168006  0.046248235           11 
  449000    0.5596549    -3.724386    246.98126  0.045839135  0.046139588            8 
  450000   0.54956144   -3.7466948    247.74746  0.045879159  0.046031147            5 
  451000   0.54320783   -3.7462413    247.66332  0.045761885  0.045922437            5 
  452000   0.54679186    -3.747139     247.1762  0.045570833  0.045814184           16 
  453000   0.54692792   -3.7384193    247.77959  0.045581235  0.045706141           10 
  454000   0.53596152   -3.7481368     247.9178  0.045506205  0.045598352           11 
  455000   0.53895441   -3.7517114    247.39736  0.045310871  0.045490478            9 
  456000   0.55129616    -3.768666    247.48201  0.045226976  0.045382892           24 
  457000   0.54063471   -3.7646535     247.7851  0.045183279    0.0452747           10 
  458000   0.53239842   -3.7752978     247.7155  0.045071961  0.045166945           13 
  459000   0.51917081   -3.7619147    248.20473  0.045062588  0.045058943           23 
  460000   0.52369299   -3.7731597    248.08358  0.044942678  0.044951034           12 
  461000    0.5345041   -3.7817312    247.61057  0.044759684  0.044842801           11 
  462000   0.52016466   -3.7880895    247.74568  0.044687171  0.044734742           10 
  463000   0.51649313   -3.8048096      248.085  0.044651727  0.044626301            8 
  464000    0.5303981   -3.7823283    247.60327  0.044468977  0.044518602            6 
  465000   0.52074158   -3.7925551    247.89425  0.044425492  0.044411014           11 
  466000   0.52701023   -3.7920001    247.61437  0.044280109  0.044303573            7 
  467000   0.53059474    -3.782787    247.60514  0.044183643   0.04419605           13 
  468000   0.53017682    -3.817506    247.05055  0.043990482  0.044088634           19 
  469000   0.51695512   -3.7829208    247.78567  0.044027305  0.043981563           11 
  470000   0.52134661   -3.7964814    248.30592  0.044025873   0.04387527           26 
  471000   0.51197686   -3.8083738    247.71315  0.043827521  0.043768951           11 
  472000   0.51194115   -3.7928598     247.7204  0.043735946  0.043662914            9 
  473000   0.51582302   -3.8343069    247.85025  0.043666358  0.043556945           14 
  474000   0.51251075   -3.8237261    248.50088  0.043688622  0.043451298           26 
  475000   0.50542634   -3.8415139     247.5863  0.043436193  0.043345212           10 
  476000   0.50031952   -3.8266159    247.82851  0.043387345  0.043239264           14 
  477000   0.50226261   -3.8101454    247.86254   0.04330233  0.043133598           14 
  478000   0.49645815   -3.8334707      246.881  0.043040621  0.043028051           19 
  479000   0.50794241   -3.8356106    247.13884  0.042995622  0.042921647            9 
  480000   0.51061075   -3.8210748    247.24857    0.0429251  0.042815892           17 
  481000   0.49375917   -3.8528187     246.8473  0.042766337  0.042709782           13 
  482000   0.50656885   -3.8550971    247.73332  0.042830795  0.042603901           16 
  483000   0.49376995   -3.8534572    246.97915  0.042611999  0.042498096           17 
  484000   0.49447471   -3.8451236    247.78487  0.042662683  0.042392429           18 
  485000   0.50282046   -3.8628335     247.0781  0.042453282  0.042287356           11 
  486000   0.49499224   -3.8577659    247.02103  0.042356143  0.042182107           11 
  487000   0.48704972   -3.8529408    247.56236    0.0423618  0.042076948           13 
  488000   0.48542703   -3.8587614    247.41382  0.042249628  0.041972238           13 
  489000    0.4835394   -3.8814983     247.1146  0.042112235  0.041867667           27 
  490000   0.49136089   -3.8725354    247.08867  0.042021883  0.041763393           31 
  491000   0.48921362   -3.8689793    247.39744  0.041988703  0.041659636           20 
  492000   0.48851675   -3.8766669      247.727  0.041959181  0.041555823           10 
  493000   0.48784655   -3.8926557    247.46062  0.041829044  0.041451735           11 
  494000    0.4752886   -3.8868082    246.88027  0.041646468  0.041347706           17 
  495000   0.48138101   -3.8754403    247.08038  0.041596024  0.041243856           27 
  496000   0.46506129   -3.8887312    247.01102  0.041500507  0.041139691           13 
  497000   0.46741577   -3.8800731    246.39469  0.041313664  0.041036133           12 
  498000   0.47556528    -3.884549    246.79127  0.041297067  0.040933063           30 
  499000   0.46007853   -3.8983061    247.22182  0.041286208  0.040830158           15 
  500000   0.47181013   -3.8914952    246.63783  0.041106305  0.040727575           12 
  501000   0.48142471   -3.9016126    247.12322  0.041104993  0.040625233           23 
  502000   0.46021583   -3.8905448    247.05023  0.041010995  0.040523639           16 
  503000   0.46782063   -3.9012441    246.88281  0.040901725  0.040421843           36 
  504000   0.46555607    -3.911681    247.15399  0.040865409  0.040320229           20 
  505000   0.46018642   -3.9062846    247.00779  0.040760361  0.040218918           20 
  506000   0.46594548   -3.9246623    246.62956  0.040617516  0.040118048           28 
  507000   0.45917258   -3.9029387    247.56238  0.040690726  0.040017117           22 
  508000    0.4638398   -3.9177972    247.28489  0.040565106  0.039916645           31 
  509000   0.45053428   -3.9189266    246.64895  0.040381294  0.039816334           36 
  510000   0.46217049   -3.9319379    247.22459  0.040396175  0.039716259           31 
  511000    0.4593172   -3.9152948    247.10578  0.040297746  0.039616582           17 
  512000   0.45390271     -3.93977    247.50717  0.040284369  0.039517378           24 
Loop time of 1219.27 on 48 procs for 500000 steps with 4000 atoms

Performance: 70861.848 tau/day, 410.080 timesteps/s
99.4% CPU use with 48 MPI tasks x no OpenMP threads

MPI task timing breakdown:
Section |  min time  |  avg time  |  max time  |%varavg| %total
---------------------------------------------------------------
Pair    | 77.063     | 83.844     | 89.501     |  28.5 |  6.88
Neigh   | 8.1702     | 8.5197     | 8.8167     |   5.3 |  0.70
Comm    | 75.695     | 81.786     | 89.329     |  30.3 |  6.71
Output  | 0.85045    | 0.85088    | 0.861      |   0.2 |  0.07
Modify  | 1030.3     | 1033.9     | 1036.1     |   3.9 | 84.79
Other   |            | 10.4       |            |       |  0.85

Nlocal:        83.3333 ave          91 max          77 min
Histogram: 6 1 4 9 5 11 4 6 1 1
Nghost:        2203.69 ave        2223 max        2179 min
Histogram: 1 0 6 6 5 11 7 4 4 4
Neighs:        14674.5 ave       15982 max       13305 min
Histogram: 3 2 4 3 11 6 7 8 2 2
FullNghs:      29349.3 ave       32536 max       26878 min
Histogram: 4 2 4 12 7 9 4 4 1 1

Total # of neighbors = 1408768
Ave neighs/atom = 352.19200
Neighbor list builds = 27119
Dangerous builds = 0

#clear
#
#next RN
#
#jump SELF
Total wall time: 0:20:22
