
units lj                  # Use reduced LJ style units
atom_style atomic         # Uncharged point particles
atom_modify map hash      # Needed for indexing of clusters etc
                          # Used to be able to find where atoms are in relation to each other.

lattice fcc 1.0 spacing 1 1 1
Lattice spacing in x,y,z = 1.5874011 1.5874011 1.5874011
region box block 0 10 0 10 0 10 units lattice
create_box 2 box
Created orthogonal box = (0.0000000 0.0000000 0.0000000) to (15.874011 15.874011 15.874011)
  3 by 4 by 4 MPI processor grid
create_atoms 1 box
Created 4000 atoms
  using lattice units in orthogonal box = (0.0000000 0.0000000 0.0000000) to (15.874011 15.874011 15.874011)
  create_atoms CPU = 0.016 seconds
set type 1 type/fraction 2 0.13 78393
Setting atom values ...
  541 settings made for type/fraction
mass 1 1.0
mass 2 1.0
pair_style lj/cut  3.5
pair_modify tail  yes
pair_coeff 1  1  1.0  1.0   # Intearaction between 1 and 1 set with epsilon = 1 and sigma = 1
pair_coeff 1  2  1.5  0.8
pair_coeff 2  2  0.5  0.88

write_data data.0
System init for write_data ...
Neighbor list info ...
  update every 1 steps, delay 10 steps, check yes
  max neighbors/atom: 2000, page size: 100000
  master list distance cutoff = 3.8
  ghost atom cutoff = 3.8
  binsize = 1.9, bins = 9 9 9
  1 neighbor lists, perpetual/occasional/extra = 1 0 0
  (1) pair lj/cut, perpetual
      attributes: half, newton on
      pair build: half/bin/atomonly/newton
      stencil: half/bin/3d
      bin: standard
WARNING: Not all mixed pair coeffs generated from mixing. Use write_data with 'pair ij' option to store all pair coeffs. (../write_data.cpp:312)


#############################
#   M E L T   S Y S T E M   #
#############################

velocity all create 2.4 9622624 mom yes dist gaussian # Assign velocities
                                                    # Temperature 2.4, random number seed, zero linear momentum
                                                                                # Gaussian distribution

timestep 0.002   # simulation timestep
thermo 1000       # output thermodynamic data every 1000 steps bf 100

# Define a fix  in this case with index 1 applied to all
# particles in the simulation. This fix is for simulations
# in the anisotropic NPT ensemble. Note that we use the MTK
# correction.
fix 1 all npt temp 2.4 2.4 0.1 iso 5.68 5.68 0.5 mtk yes tchain 5 pchain 5 # Use NPT ensemble
                                                                         # Set temperature and pressure and damping
                                                                         # Numbers of thermostats in chain and in barostat
run 10000          # run for 10000 steps
Per MPI rank memory allocation (min/avg/max) = 3.642 | 3.644 | 3.648 Mbytes
Step Temp E_pair E_mol TotEng Press Volume 
       0          2.4     -7.50335            0     -3.90425   -3.2182506         4000 
    1000    2.3409479   -4.6783177            0   -1.1677738    5.7266031     4724.248 
    2000    2.3508663   -4.6943296            0   -1.1689117    5.4270213    4735.4788 
    3000    2.3679219   -4.6596682            0   -1.1086732    5.5388735    4758.0257 
    4000    2.3567997   -4.6530998            0    -1.118784    5.4201682     4771.999 
    5000     2.387847   -4.6891116            0   -1.1082366    5.7077086    4727.5701 
    6000    2.4022434   -4.6766813            0   -1.0742171     5.677535    4726.7672 
    7000    2.4276382    -4.634891            0  -0.99434406    5.9220219     4726.797 
    8000    2.3836933   -4.6932427            0   -1.1185966    5.5728667    4742.3658 
    9000    2.4343404   -4.6472339            0  -0.99663619      5.92065    4718.1885 
   10000    2.3987304   -4.6965942            0   -1.0993982    5.6426825    4723.3085 
Loop time of 2.26178 on 48 procs for 10000 steps with 4000 atoms

Performance: 764001.359 tau/day, 4421.304 timesteps/s
99.6% CPU use with 48 MPI tasks x no OpenMP threads

MPI task timing breakdown:
Section |  min time  |  avg time  |  max time  |%varavg| %total
---------------------------------------------------------------
Pair    | 0.91933    | 0.98696    | 1.1763     |   4.6 | 43.64
Neigh   | 0.19267    | 0.20145    | 0.23717    |   1.8 |  8.91
Comm    | 0.60273    | 0.80925    | 0.90406    |   6.2 | 35.78
Output  | 0.00025139 | 0.00025882 | 0.00031502 |   0.0 |  0.01
Modify  | 0.19987    | 0.24945    | 0.30855    |   5.4 | 11.03
Other   |            | 0.01441    |            |       |  0.64

Nlocal:        83.3333 ave          97 max          72 min
Histogram: 2 1 6 6 15 7 6 3 1 1
Nghost:        1470.08 ave        1498 max        1446 min
Histogram: 3 1 6 8 9 12 3 2 1 3
Neighs:        8066.52 ave        9289 max        6862 min
Histogram: 4 1 2 9 10 6 7 4 3 2

Total # of neighbors = 387193
Ave neighs/atom = 96.798250
Neighbor list builds = 908
Dangerous builds = 221

# Equilibrate just above the melting temperature to avoid step fn in T

fix 1 all npt temp 1.25 1.25 0.1 iso 5.68 5.68 0.5 mtk yes tchain 5 pchain 5
run 2000
Per MPI rank memory allocation (min/avg/max) = 3.642 | 3.644 | 3.648 Mbytes
Step Temp E_pair E_mol TotEng Press Volume 
   10000    2.3987304   -4.6965942            0   -1.0993982    5.6426825    4723.3085 
   11000    1.2369796    -6.309719            0   -4.4547134    5.7124612    3880.3298 
   12000    1.2561567   -6.3042984            0   -4.4205344    5.8828868    3874.3816 
Loop time of 0.490875 on 48 procs for 2000 steps with 4000 atoms

Performance: 704048.366 tau/day, 4074.354 timesteps/s
99.6% CPU use with 48 MPI tasks x no OpenMP threads

MPI task timing breakdown:
Section |  min time  |  avg time  |  max time  |%varavg| %total
---------------------------------------------------------------
Pair    | 0.21362    | 0.23173    | 0.26772    |   2.3 | 47.21
Neigh   | 0.031449   | 0.033592   | 0.038636   |   0.7 |  6.84
Comm    | 0.13917    | 0.17078    | 0.1898     |   2.7 | 34.79
Output  | 4.9224e-05 | 5.0791e-05 | 6.3454e-05 |   0.0 |  0.01
Modify  | 0.040461   | 0.049938   | 0.057537   |   2.2 | 10.17
Other   |            | 0.004791   |            |       |  0.98

Nlocal:        83.3333 ave          91 max          75 min
Histogram: 1 1 6 8 4 7 12 4 4 1
Nghost:        1674.08 ave        1703 max        1645 min
Histogram: 1 1 5 10 7 7 10 3 2 2
Neighs:        9834.69 ave       10799 max        8750 min
Histogram: 1 2 6 6 4 10 9 3 4 3

Total # of neighbors = 472065
Ave neighs/atom = 118.01625
Neighbor list builds = 142
Dangerous builds = 11

#############################
# L I N E A R  Q U E N C H  #
#############################

# Define solid atoms. This closely follows ten Wolde  Ruiz-Montero and Frenkel  Faraday Discuss  1996  104  93-110
# Compute components of the per-atom q6 vector
compute q6 all orientorder/atom degrees 1 6 components 6 nnn NULL cutoff 1.3 # compute the Q6 parameter.
                                                                             # Use all neighbours within 1.3 unit cell.

# get number of connections
compute coord_number all coord/atom orientorder q6 0.5

# An atom is solid if it has 8 or more connections (of a possible 14)
variable is_solid atom c_coord_number>=8
group solid dynamic all var is_solid    # Must be dynamic to update
dynamic group solid defined

# do clustering
compute cluster solid cluster/atom 1.3 # Create a cluster where all atoms within are solid and max 1.3 units from another member

# define chunks one chunk per cluster
compute clus_chunks solid chunk/atom c_cluster nchunk every compress yes  # Says which atoms are in which chunk

# count the size of each chunk
compute size_chunks solid property/chunk clus_chunks count


# Find the maximum entry in the vector of chunk sizes
variable max_n equal max(c_size_chunks)


# Thermo style which includes this variable
# thermo_style custom step temp pe vol v_max_n

thermo ${N}  # Print the thermo information every 100 steps
thermo 1000  

# Reset the npt fix at a lower temperature (below freezing)
fix 1  all npt temp  ${temp} ${temp}  0.1  iso  5.68  5.68  0.5  mtk yes tchain  5  pchain  5
fix 1  all npt temp  0.45 ${temp}  0.1  iso  5.68  5.68  0.5  mtk yes tchain  5  pchain  5
fix 1  all npt temp  0.45 0.45  0.1  iso  5.68  5.68  0.5  mtk yes tchain  5  pchain  5

dump dmp2 all dcd ${N} traj.dcd
dump dmp2 all dcd 1000 traj.dcd


compute msd all msd com yes
variable twopoint equal c_msd[4]/6/(step*dt+1.0e-6)
fix 9 all vector 10 c_msd[4]
variable fit equal slope(f_9)/6/(10*dt)
thermo_style custom step temp pe c_msd[4] v_twopoint v_fit v_max_n

fix 1 all npt temp 1.25 ${temp} 0.1 iso 5.68 5.68 0.5 mtk yes tchain 5 pchain 5
fix 1 all npt temp 1.25 0.45 0.1 iso 5.68 5.68 0.5 mtk yes tchain 5 pchain 5
run 5000000 # 5000000  # Run for this many steps
Neighbor list info ...
  update every 1 steps, delay 10 steps, check yes
  max neighbors/atom: 2000, page size: 100000
  master list distance cutoff = 3.8
  ghost atom cutoff = 3.8
  binsize = 1.9, bins = 9 9 9
  4 neighbor lists, perpetual/occasional/extra = 1 3 0
  (1) pair lj/cut, perpetual
      attributes: half, newton on
      pair build: half/bin/atomonly/newton
      stencil: half/bin/3d
      bin: standard
  (2) compute orientorder/atom, occasional
      attributes: full, newton on
      pair build: full/bin/atomonly
      stencil: full/bin/3d
      bin: standard
  (3) compute coord/atom, occasional
      attributes: full, newton on
      pair build: full/bin/atomonly
      stencil: full/bin/3d
      bin: standard
  (4) compute cluster/atom, occasional
      attributes: full, newton on
      pair build: full/bin/atomonly
      stencil: full/bin/3d
      bin: standard
Per MPI rank memory allocation (min/avg/max) = 9.758 | 9.763 | 9.768 Mbytes
Step Temp PotEng c_msd[4] v_twopoint v_fit v_max_n 
   12000    1.2561567   -6.3042984 1.1832914e-33 8.2173008e-36 8.3333333e+20            2 
   13000    1.2557631   -6.3063076    0.5695083 0.0036506941  0.047354004            1 
   14000    1.2403574    -6.267348    1.1000613 0.0065479836  0.045513172            3 
   15000     1.245331   -6.3255252     1.620586 0.0090032551  0.044536119            2 
   16000    1.2598374   -6.2964349    2.0853444  0.010861168  0.043272081            3 
   17000    1.2423403   -6.2987212    2.6708558   0.01309243  0.043143515            3 
   18000    1.2480264   -6.3205875    3.2489134  0.015041265  0.044009779            5 
   19000    1.2332699   -6.3261246    3.7953996  0.016646489  0.044565246            1 
   20000    1.2376109   -6.3141276    4.3662817   0.01819284  0.044910718            4 
   21000    1.2217162   -6.2910173    4.9296775  0.019562212  0.045239673            2 
   22000    1.2423034   -6.2905798    5.4406316  0.020608452  0.045444863            3 
   23000    1.2657944   -6.3097971    5.9590437  0.021590738  0.045381219            1 
   24000    1.2355018   -6.3150052    6.4785101  0.022494826  0.045291557            3 
   25000    1.2725613   -6.3375732    6.9697741   0.02323258  0.045054035            3 
   26000    1.2415682   -6.3444655    7.4734372  0.023953324  0.044863024            6 
   27000    1.2115415   -6.3296069    8.0334383  0.024794562   0.04471713            1 
   28000      1.22985   -6.3066435      8.61886  0.025651369  0.044683729            2 
   29000    1.2509265   -6.2957394    9.1174741  0.026199638   0.04472894            3 
   30000    1.2369595   -6.3246323    9.6511146  0.026808651  0.044700106            2 
   31000    1.2536533   -6.3322634    10.172067  0.027344265  0.044630098            2 
   32000     1.234762   -6.3251949    10.678253  0.027807949  0.044615895            2 
   33000    1.2296611   -6.3164769    11.200191  0.028283309  0.044574051            3 
   34000    1.2508505   -6.2780327    11.729471  0.028748703  0.044481567            2 
   35000    1.2060324   -6.2723486    12.260924  0.029192675   0.04441683            2 
   36000      1.27071   -6.3369909    12.720095  0.029444664     0.044337            5 
   37000     1.257645   -6.3342651     13.34051  0.030046192  0.044310509            3 
   38000    1.2658609   -6.3266675    14.037104  0.030783122  0.044345359            2 
   39000    1.2472705   -6.3229458    14.552694  0.031095501  0.044420492            3 
   40000    1.2193848   -6.3530875    15.145229   0.03155256  0.044502443            2 
   41000    1.2525631    -6.298926    15.694308     0.031899  0.044594765            7 
   42000    1.2320345   -6.3176084    16.305833  0.032352844  0.044700468            4 
   43000    1.2504858   -6.2984831    17.055658  0.033053601  0.044859476            2 
   44000    1.2278726   -6.3354312    17.362458  0.032883443   0.04495204            2 
   45000    1.2282348   -6.3001295    17.712095  0.032800175  0.044974207            3 
   46000     1.229645   -6.3106736    18.323372  0.033194514  0.044964809            2 
   47000    1.2276928   -6.3475064     19.11191  0.033886365  0.045015991            2 
   48000    1.2371746   -6.3325523    19.676476  0.034160548   0.04511496            2 
   49000    1.2351432   -6.3343248    20.195513   0.03434611  0.045202495            1 
   50000    1.2373824   -6.3127371    20.441569  0.034069282  0.045214049            2 
   51000    1.2540768   -6.3032634    20.945338  0.034224408  0.045182183            2 
   52000    1.2452286   -6.3055305     21.43239  0.034346778  0.045136101            4 
   53000    1.2326665   -6.3281562    22.167662  0.034854814   0.04508724            1 
   54000    1.2302907   -6.3278375      22.6949  0.035022994  0.045072206            2 
   55000    1.2439526   -6.3456423    23.195304    0.0351444  0.045064723            3 
   56000    1.2680832   -6.3011087     23.53841  0.035027395  0.045021618            2 
   57000    1.2420564   -6.3308786    23.964032  0.035035135  0.044954167            2 
   58000    1.2517051   -6.3074144    24.557868  0.035284293   0.04488467            2 
   59000    1.2600353   -6.3275044    24.950359   0.03524062  0.044819979            1 
   60000    1.2690372   -6.3590232    25.598153   0.03555299  0.044768424            2 
   61000    1.2426471   -6.3250966    26.082405  0.035631701  0.044724591            2 
   62000    1.2392227   -6.3046226    26.648729  0.035818184  0.044679095            3 
   63000    1.2312424   -6.3193299     27.14568  0.035906983  0.044640086            4 
   64000    1.2435209   -6.3439585    27.599282  0.035936565  0.044595873            2 
   65000    1.2426552   -6.3060111    28.155114    0.0360963  0.044549555            3 
   66000     1.241643   -6.3216188    28.794635  0.036356862  0.044515933            1 
   67000    1.2513104   -6.3490126    29.333696  0.036484696  0.044488495            2 
   68000    1.2575068   -6.3501052    29.770113  0.036482981  0.044459107            2 
   69000    1.2388555    -6.320881    30.198922  0.036472128  0.044420694            2 
   70000    1.2271711   -6.3359857    30.631382   0.03646593  0.044371463            2 
   71000    1.2557358   -6.3575417    31.229611  0.036654473  0.044337543            3 
   72000    1.2409552   -6.3252603    31.935721   0.03696264  0.044330888            2 
   73000    1.2558197   -6.3560515     32.53504  0.037140457  0.044328717            2 
   74000    1.2335662   -6.3272209    32.932594  0.037086254  0.044322621            3 
   75000     1.219154   -6.3314461    33.430804  0.037145338  0.044305015            2 
   76000    1.2308262   -6.3440319    34.023548  0.037306522  0.044286485            2 
   77000    1.2158492   -6.3781855    34.763027  0.037622324  0.044272147            2 
   78000    1.2363039   -6.3224093    35.269806  0.037681417    0.0442768            1 
   79000    1.2511565   -6.3366326    35.682251  0.037639505  0.044276222            1 
   80000    1.2437442   -6.3515281     36.27215  0.037783489  0.044274632            1 
   81000    1.2290595   -6.3533058     36.70358  0.037760885  0.044266078            3 
   82000    1.2293724   -6.3081061    37.210674  0.037815725   0.04425647            2 
   83000     1.249697   -6.3333833     37.53077  0.037681496  0.044235026            3 
   84000    1.2339537   -6.3798852    37.989739  0.037688233  0.044204495            2 
   85000    1.2568593   -6.3463582    38.708794  0.037949798  0.044192003            2 
   86000    1.2363682    -6.342276    39.218517  0.038002439  0.044187157            1 
   87000    1.2311926   -6.3282383    39.719548  0.038045544  0.044172923            1 
   88000     1.222878   -6.3055691    40.402648  0.038260084  0.044166759            3 
   89000    1.2420165   -6.3523758    40.911395  0.038306549  0.044168346            2 
   90000    1.2582363   -6.3156691    41.407481   0.03834026  0.044169566            4 
   91000    1.2210538    -6.329101    41.963748  0.038428341  0.044163013            2 
   92000    1.2430095   -6.2857606    42.474008  0.038472833  0.044155052            2 
   93000    1.2317343   -6.3557654    42.822377  0.038371305  0.044140261            1 
   94000    1.2580364   -6.3447574     43.51962  0.038581224  0.044128706            1 
   95000    1.2230474   -6.3865239    43.774897  0.038399033  0.044117411            1 
   96000    1.2374208   -6.3247572    44.401308  0.038542802  0.044097424            2 
   97000    1.2432292   -6.3463164    44.768979  0.038461322  0.044073774            2 
   98000    1.2150584   -6.3170922    45.404345  0.038609136  0.044055302            3 
   99000    1.2339073   -6.3568462    45.871536  0.038612404  0.044037911            3 
  100000     1.239116   -6.3477625    46.390984  0.038659153  0.044018193            3 
  101000    1.2199653   -6.3485238    47.054968  0.038824231  0.043999381            1 
  102000    1.2464571   -6.3634296    47.464068  0.038777833  0.043987717            2 
  103000     1.245068   -6.3407385    47.935771  0.038782986  0.043971328            2 
  104000    1.2356661   -6.3070924    48.549248  0.038901641  0.043957945            5 
  105000    1.2167287   -6.2931638    49.423364  0.039224892  0.043954539            4 
  106000     1.218858   -6.3734852    49.855336  0.039194446  0.043957351            2 
  107000    1.2442971    -6.340168     50.58105  0.039393341  0.043962053            2 
  108000     1.235944   -6.3229769    50.895785  0.039271439  0.043967579            2 
  109000    1.2184627   -6.3253909    51.390988  0.039289746  0.043962448            1 
  110000     1.261732   -6.3529252     51.93321   0.03934334  0.043965721            3 
  111000    1.2705139   -6.3221128    52.481496  0.039400522  0.043968655            2 
  112000    1.2198485   -6.3355808    53.089767  0.039501314  0.043971027            4 
  113000    1.2347791   -6.3615989    53.423824    0.0393981  0.043973733            4 
  114000     1.244907   -6.3004157    54.282821  0.039680425   0.04398082            2 
  115000    1.2194144   -6.3426328    54.629542  0.039586625  0.043989008            3 
  116000    1.2319116   -6.3369039    55.381084  0.039785262   0.04399647            4 
  117000    1.2254098    -6.321726    55.692953  0.039667345  0.043998964            2 
  118000    1.2266519   -6.3138528    56.309164  0.039766359   0.04399832            2 
  119000    1.2326667   -6.3563674    56.661126   0.03967866  0.044003493            1 
  120000    1.2377523   -6.3083191    57.366372  0.039837758  0.044003422            2 
  121000    1.2440517   -6.2993665    57.705917  0.039742367  0.044004015            1 
  122000    1.2634061   -6.3680421      58.6494  0.040061065  0.044009292            3 
  123000    1.2196588   -6.2995565    58.944385   0.03993522   0.04401453            3 
  124000    1.2376161    -6.316814     59.65701  0.040092077  0.044022613            2 
  125000    1.2210033   -6.3624798    60.658546  0.040439031    0.0440392            4 
  126000     1.248021    -6.377105    60.906306  0.040281948  0.044062148            2 
  127000    1.2412085   -6.3490512    61.557032  0.040391753    0.0440796            2 
  128000    1.2257946   -6.3677614    61.942482  0.040327137  0.044097889            1 
  129000    1.2371409   -6.3238615     62.51121  0.040381919    0.0441109            2 
  130000     1.232877   -6.3619242    62.622112  0.040142379  0.044121091            1 
  131000    1.2282174   -6.3536868    63.709633  0.040527756  0.044130024            1 
  132000    1.2311382   -6.3330827    63.974896  0.040388192  0.044137059            1 
  133000    1.2191034   -6.3600874    64.360062  0.040325853  0.044144161            5 
  134000    1.2566787   -6.3311089    64.909735   0.04036675   0.04414752            3 
  135000    1.2194755   -6.3264006    65.668507  0.040536115  0.044152843            1 
  136000    1.2600168   -6.3324998    66.184978   0.04055452  0.044164921            3 
  137000    1.2684053   -6.3900289    66.556181  0.040484295  0.044170921            2 
  138000    1.1997035   -6.3285387      67.0461  0.040486775  0.044173331            2 
  139000    1.1920062   -6.3343003    67.714839  0.040596426  0.044179029            9 
  140000    1.2499964   -6.3962391    68.263066  0.040632777  0.044188008            2 
  141000    1.2411847   -6.3230168    69.267312  0.040938128  0.044198642            2 
  142000    1.2293548   -6.2795812    69.469263  0.040768347  0.044207187            2 
  143000    1.2190723   -6.3316264     69.73951   0.04064074  0.044211108            2 
  144000    1.2250161   -6.2844342    70.341047  0.040706624  0.044213499            2 
  145000    1.2194627   -6.3965088    70.379735  0.040448124  0.044211497            2 
  146000    1.2126467   -6.3366267    70.810177  0.040416768  0.044202443            1 
  147000    1.2252617    -6.380089    71.176853   0.04034969  0.044192419            1 
  148000    1.2180015   -6.3485996    71.715522  0.040380361  0.044180247            2 
  149000    1.2193283   -6.3813068    72.449592  0.040519906  0.044170635            3 
  150000    1.2187464   -6.2958334    73.285931  0.040714406   0.04416704            4 
  151000    1.2299736   -6.3600345    73.633359  0.040636511  0.044165724            2 
  152000    1.2422273   -6.3358112    74.429788  0.040805804   0.04416546            3 
  153000    1.2139417   -6.3136817    75.656424  0.041207203   0.04417247            2 
  154000    1.2244052   -6.3397778    75.900894  0.041071912  0.044187098            2 
  155000    1.2264669   -6.3580616    76.497939  0.041127924  0.044202506            1 
  156000    1.2065598   -6.3374513    77.357704   0.04132356  0.044220281            1 
  157000    1.2261806   -6.3558249    77.867756  0.041331081   0.04423724            4 
  158000    1.2189525   -6.3809261    78.288573  0.041291441  0.044256013            1 
  159000    1.2358637   -6.3552036    78.804524  0.041302161  0.044272906            2 
  160000    1.2189864   -6.3654225    79.583248  0.041449608   0.04428816            3 
  161000    1.2068424    -6.359082    80.100268  0.041459766  0.044305968            2 
  162000    1.2170664   -6.3512137    80.261002  0.041286523  0.044318871            1 
  163000    1.2121747   -6.3461605    80.777776  0.041297432  0.044327667            5 
  164000    1.2308668   -6.3469749    81.011287  0.041164272  0.044333288            5 
  165000    1.2205673   -6.3563942    81.491899  0.041157524  0.044331791            1 
  166000    1.2530774   -6.3831305    81.970817  0.041150009  0.044333091            2 
  167000    1.2211114   -6.3364467    82.756642  0.041295729  0.044336241            2 
  168000    1.2428384   -6.3420931    83.509672  0.041423449  0.044340253            1 
  169000    1.2430486    -6.320349    83.437734  0.041142867   0.04434305            4 
  170000    1.1927372    -6.362158    83.888354  0.041121742  0.044342588            1 
  171000    1.1960512   -6.3282646    84.845458  0.041347689  0.044340339            2 
  172000    1.2221476   -6.3594963    84.788957  0.041079921  0.044338459            2 
  173000    1.2346718   -6.3344695    85.519129  0.041194185  0.044333728            2 
  174000    1.2250688   -6.3751094    85.872818  0.041126828  0.044327635            2 
  175000    1.2065906   -6.3558551    86.558748  0.041218451   0.04432017            5 
  176000    1.2177982   -6.3706047     86.89351   0.04114276  0.044312381            3 
  177000    1.2127817   -6.3400567    87.186421  0.041048221  0.044300801            4 
  178000    1.2208452   -6.3390269    87.964196  0.041181739   0.04429312            2 
  179000    1.2155037   -6.3894007    88.194717  0.041058993  0.044282301            2 
  180000    1.2098296   -6.3798982    88.793345   0.04110803  0.044270513            5 
  181000    1.2354493   -6.3476592    89.078599  0.041012246  0.044258465            2 
  182000    1.1804682   -6.3532013    89.817944  0.041125432  0.044247218            4 
  183000    1.2122021   -6.3531066    89.972555  0.040971109  0.044233255            2 
  184000    1.2122438   -6.3705131    90.261386  0.040879251  0.044217613            3 
  185000    1.2215164   -6.3388828    90.943611   0.04096559  0.044201986            1 
  186000    1.2101504   -6.3732273    91.493956  0.040991916  0.044190095            1 
  187000    1.2191538   -6.3394953    92.172958  0.041075293  0.044177468            4 
  188000    1.1954505   -6.3274331    92.907042  0.041182199  0.044165557            2 
  189000    1.2312459   -6.3585057    92.942945  0.040980134  0.044152988            1 
  190000    1.2178102    -6.390758    93.741555  0.041114717  0.044142654            2 
  191000    1.2347984   -6.3656959    94.143035  0.041074623  0.044130855            2 
  192000    1.2145643   -6.3581535    94.857348  0.041170724  0.044116921            2 
  193000    1.2287828   -6.3933965    95.190303  0.041101167   0.04410752            6 
  194000    1.1912191   -6.3473886    96.021438  0.041246322  0.044097487            5 
  195000    1.2486891   -6.3630605    96.207356  0.041114255  0.044089833            3 
  196000    1.2317826   -6.3744753    97.077761  0.041274558  0.044081235            2 
  197000    1.2184983   -6.3680381    97.753642  0.041350948  0.044074343            2 
  198000    1.2168167   -6.3638319    97.951465  0.041225364  0.044066716            1 
  199000    1.2273385   -6.3608951    98.381706  0.041198369  0.044055425            1 
  200000    1.2291593   -6.3312271    99.503495  0.041459789  0.044046422            3 
  201000    1.2140021   -6.3495754    99.608913  0.041297228  0.044038094            3 
  202000    1.2145951   -6.3361217    100.24829  0.041356553  0.044030793            2 
  203000    1.2237009    -6.352264    100.76733  0.041365898  0.044025315            3 
  204000    1.2347513   -6.3358637    101.34981  0.041401068  0.044018768            1 
  205000    1.2453935   -6.3747692    101.58092  0.041293056   0.04401047            2 
  206000    1.2324195   -6.3106827    101.91936  0.041229515   0.04400164            2 
  207000    1.2071705   -6.3797432    102.21724  0.041150258  0.043989768            2 
  208000    1.2042272   -6.3585937    103.06528   0.04129218  0.043975984            1 
  209000    1.1992011   -6.3567357     103.5938  0.041305344  0.043964935            4 
  210000    1.2252278   -6.4076687     103.5656   0.04109746  0.043957037            5 
  211000    1.2259192   -6.3928455    104.51463  0.041277498   0.04394856            2 
  212000    1.2205229   -6.4168037    104.90764  0.041237278  0.043940891            3 
  213000    1.2417575   -6.3846865    105.59474  0.041312496   0.04393212            3 
  214000    1.2193621   -6.3468386    106.21612  0.041361416  0.043924588            2 
  215000    1.2428373   -6.3549316    106.93401   0.04144729  0.043918692            2 
  216000    1.2020719   -6.3087405    108.14444  0.041722393  0.043917361            3 
  217000    1.2171129   -6.3849346    107.83068  0.041409633  0.043914977            1 
  218000      1.23329   -6.3694307    108.61506  0.041519519   0.04391026            2 
  219000    1.2152664   -6.3684998    108.69937  0.041362014  0.043902208            1 
  220000    1.1852821   -6.3228009     108.8179    0.0412189  0.043890747            2 
  221000    1.2096525   -6.3794994     109.6637  0.041351322  0.043880111            2 
  222000    1.2153954   -6.3899165    110.32497  0.041413278  0.043871866            1 
  223000    1.2324286   -6.3389827     111.1345  0.041530082  0.043866747            2 
  224000    1.2203373   -6.3768043    111.36382  0.041429994  0.043862035            8 
  225000     1.230129   -6.3568548     111.6554  0.041353852  0.043854885            1 
  226000    1.2027246   -6.3695334    112.05739  0.041319095  0.043846502            4 
  227000    1.2136711   -6.3819709    113.07614  0.041511063  0.043838192            1 
  228000    1.2292218   -6.3921589    113.40534   0.04144932  0.043831909            4 
  229000    1.2332706   -6.3416463    113.57825  0.041331241  0.043823666            1 
  230000    1.2121278     -6.30851     114.5678  0.041510071  0.043816501            3 
  231000    1.2100994   -6.4084582    114.55875   0.04132711  0.043806632            4 
  232000    1.2257333   -6.3974457    115.20807  0.041382211  0.043796517            1 
  233000    1.2063134   -6.4146263    115.79987  0.041416263  0.043788667            4 
  234000    1.2152902   -6.3622879    116.54332  0.041504031   0.04378073            2 
  235000    1.2226478   -6.3990476    117.12749  0.041534572  0.043775943            2 
  236000    1.2015115   -6.3639655    117.57114  0.041515234  0.043771759            3 
  237000    1.1765478   -6.3704487    118.37236  0.041621786  0.043767217            2 
  238000    1.2163304   -6.3535824     118.9687  0.041655709   0.04376214            2 
  239000    1.2273001   -6.3915073    118.80388  0.041423947  0.043756412            1 
  240000     1.233183   -6.3581513    119.59123  0.041524734  0.043751474            1 
  241000    1.2117144    -6.321369    120.12152  0.041535795  0.043747894            2 
  242000     1.198068   -6.3800681    120.22435   0.04139957  0.043742779            2 
  243000    1.2250097   -6.3863377    121.02669  0.041504353  0.043735677            4 
  244000    1.2294622   -6.3742334    121.40198  0.041462426  0.043728843            2 
  245000    1.1833045    -6.366927    121.96703  0.041485383  0.043722649            2 
  246000     1.235768    -6.357009    123.09962  0.041700414  0.043719331            1 
  247000     1.214486   -6.3637726    123.52468  0.041674992  0.043717478            2 
  248000    1.2303366   -6.3570051     124.3577  0.041786862   0.04371698            1 
  249000    1.2347032   -6.4019323    124.93237   0.04181137  0.043716782            1 
  250000    1.2445821   -6.3443774    124.84992  0.041616641  0.043714637            2 
  251000    1.2321406   -6.3475764    125.14753  0.041549644  0.043709647            1 
  252000     1.201239   -6.4064114    124.93786  0.041315431  0.043702326            3 
  253000    1.2340602   -6.3883679    125.51043  0.041340723  0.043692671            3 
  254000    1.2070866   -6.3737304    126.75004  0.041584659  0.043684002            2 
  255000    1.1825643    -6.385139    126.77817  0.041430774  0.043676954            1 
  256000    1.1848921   -6.3845938    127.37797  0.041464182  0.043669494            2 
  257000    1.2166163    -6.386042    127.89616   0.04147087  0.043663211            5 
  258000    1.2301594   -6.3737747    128.51551  0.041510177  0.043657548            3 
  259000    1.2190477   -6.3564626    129.11776  0.041543681  0.043652034            2 
  260000    1.1869034   -6.4333328    129.88208  0.041628871  0.043648167            3 
  261000     1.204994   -6.4042334    130.47598  0.041658998  0.043643891            3 
  262000     1.236936   -6.3888126    131.21537  0.041735169  0.043642164            1 
  263000     1.224999   -6.3776935    131.72281  0.041737265  0.043639189            2 
  264000    1.1936623   -6.3639998    132.38504  0.041788206  0.043635446            2 
  265000    1.2109253   -6.3398231    132.65941  0.041716796  0.043633231            2 
  266000    1.2013524   -6.3701933    133.30985  0.041763739  0.043630778            2 
  267000    1.2068337    -6.365413    133.48398  0.041661668  0.043629197            5 
  268000    1.2357257   -6.4416847    134.04112  0.041679454  0.043625311            1 
  269000    1.2351574   -6.3663624    134.69142  0.041725966  0.043621027            3 
  270000    1.2371857   -6.3957177    135.02787  0.041675267  0.043616502            2 
  271000    1.1924657   -6.3581739    135.57718    0.0416904  0.043612207            1 
  272000    1.2257039   -6.3539792    135.51635  0.041518489  0.043604813            2 
  273000    1.1892777   -6.4028757    135.67082  0.041413558  0.043593537            2 
  274000    1.2110383   -6.4288554    136.49374  0.041512694  0.043583503            8 
  275000    1.2138459   -6.3854092    137.19407  0.041573961  0.043574605            4 
  276000    1.1821138   -6.3725511    137.67324  0.041568009  0.043564818            2 
  277000     1.187334   -6.3959364    137.29509  0.041304179  0.043554442            2 
  278000    1.2158167   -6.3842446    137.42162  0.041193532  0.043541384            2 
  279000    1.2033046   -6.3235952    138.77875   0.04145124  0.043529362            1 
  280000    1.2150021   -6.3435722    138.94559  0.041352853  0.043516024            3 
  281000     1.191492   -6.4086583    138.78003  0.041156594  0.043501813            4 
  282000    1.2305548   -6.3495031    140.12118  0.041406967  0.043489068            1 
  283000    1.1977262   -6.4198076    139.92266  0.041202197  0.043475494            2 
  284000    1.2226935   -6.3963918      141.148  0.041416666  0.043461446            4 
  285000    1.2150189   -6.3993006    141.53327  0.041383996  0.043447873            2 
  286000    1.2044565   -6.4241537    141.20246  0.041142909  0.043432842            2 
  287000    1.2072395   -6.3626806    141.86416  0.041191685  0.043417238            2 
  288000    1.1983554   -6.3637768    142.43523  0.041213898  0.043399602            2 
  289000    1.2166721   -6.3649699    142.29733  0.041031525  0.043383212            6 
  290000    1.2309255    -6.413377    142.97077  0.041083555  0.043366645            4 
  291000    1.1707146   -6.3886176    144.15013  0.041280105  0.043352223            1 
  292000    1.2106199   -6.4224308    144.67713  0.041289135   0.04333888            2 
  293000     1.224286   -6.3878569    144.79803  0.041182602  0.043324671            2 
  294000     1.195628    -6.409102     145.0199  0.041105414  0.043313535            2 
  295000    1.2007596   -6.4011844    145.31931  0.041050653  0.043301161            2 
  296000    1.2102013   -6.4165337    146.28483  0.041183792   0.04328804            3 
  297000    1.2092649   -6.3970422    146.81696  0.041194433  0.043275415            3 
  298000    1.1998929   -6.3813438    147.31132  0.041194439  0.043263663            1 
  299000    1.1806216   -6.4081986    148.64806  0.041429225  0.043253487            4 
  300000    1.1871276   -6.3895256    149.02808  0.041396689  0.043243407            4 
  301000    1.1917188   -6.3986659    149.81384    0.0414767  0.043234857            5 
  302000    1.1982026    -6.405835    150.30863  0.041475892   0.04322678            4 
  303000    1.1938481    -6.358449    150.98434  0.041524845  0.043221431            1 
  304000    1.2007857   -6.3626914    151.37896  0.041496426  0.043214704            3 
  305000    1.1860102   -6.4205413    152.14364    0.0415693  0.043210281            2 
  306000    1.1834859   -6.3991413    152.58455  0.041553526  0.043206771            1 
  307000    1.2184935   -6.3883449    153.45305  0.041653922  0.043204642            2 
  308000    1.2102192   -6.3889952     153.7927  0.041610579  0.043201604            3 
  309000     1.201602   -6.4131518    154.44318  0.041651343  0.043199196            1 
  310000     1.204621   -6.3806343    154.88175   0.04163488  0.043195448            3 
  311000    1.2071332    -6.366499    155.73354  0.041729243  0.043192014            5 
  312000    1.2005986   -6.4136872    155.63026  0.041567911  0.043187565            2 
  313000     1.195728   -6.4142294    156.22696  0.041593972   0.04318374            4 
  314000    1.1975465   -6.3822414    156.55831  0.041549445  0.043178727            5 
  315000    1.1979608   -6.3974798    157.54736  0.041679195  0.043174235            3 
  316000    1.2177178   -6.3946042    157.83169   0.04162228  0.043172121            2 
  317000    1.2244298   -6.4013438    158.66449  0.041709909  0.043168802            4 
  318000    1.2110057   -6.3773537     158.8132  0.041617716     0.043165            3 
  319000    1.1919769   -6.4359807    158.86356  0.041500408  0.043161058            4 
  320000    1.2042389   -6.4051279    159.94974  0.041653579  0.043155989            2 
  321000    1.2109377   -6.4034257    160.26145  0.041604739  0.043151632            2 
  322000    1.1911966   -6.4056622    160.20108  0.041459906  0.043145231            1 
  323000    1.1919539   -6.3828467    161.80688   0.04174584  0.043141954            3 
  324000    1.2039124   -6.4228498    162.14385  0.041703665  0.043139617            2 
  325000    1.2162513   -6.3785685    163.14494  0.041832036  0.043136096            2 
  326000     1.173157   -6.3945745    163.41302  0.041772245  0.043133362            2 
  327000    1.2229834   -6.4066737    164.14531  0.041831118  0.043132088            2 
  328000    1.1857495    -6.382825     164.1094  0.041694461  0.043130931            3 
  329000    1.2084639   -6.4038671    164.85919  0.041757646  0.043129363            1 
  330000     1.179437    -6.384239    165.82384  0.041874706  0.043126802            2 
  331000    1.2104784   -6.3949037    166.66448  0.041959839  0.043127217            2 
  332000    1.2027233   -6.4009894    167.15183   0.04195578   0.04312836            3 
  333000    1.2052457   -6.3925249    167.74242  0.041977584  0.043130067            2 
  334000    1.1695192   -6.3899702    168.12906  0.041948369   0.04313151            2 
  335000    1.2133645   -6.4149854    168.88598  0.042011438  0.043134316            2 
  336000    1.2168062   -6.3964768    169.84322  0.042123814  0.043137302            2 
  337000    1.2314797   -6.4205924     169.9994  0.042037439  0.043140078            1 
  338000    1.1887593   -6.3973358    171.04345  0.042170475  0.043143123            3 
  339000    1.1993799   -6.3806936    170.94289   0.04202136  0.043146764            2 
  340000    1.1851062   -6.3989385    171.26024  0.041975548   0.04314857            2 
  341000    1.1939772   -6.4131728      170.875  0.041758308   0.04314968            2 
  342000    1.2025066   -6.3951824    172.39613  0.042006854  0.043148991            5 
  343000    1.1895417    -6.400896    172.67428  0.041951963  0.043149153            2 
  344000    1.2053119   -6.3781504    173.20058  0.041957504  0.043148543            4 
  345000    1.2010186   -6.3915805    173.48003  0.041903388  0.043148053            4 
  346000    1.2149528   -6.3854672    174.34391  0.041990345  0.043148511            2 
  347000    1.2000998   -6.4185068    174.81682  0.041982905  0.043148762            2 
  348000    1.2111769   -6.4008632    174.86249  0.041873201  0.043146997            2 
  349000    1.2095553   -6.3922348    175.16494  0.041825439  0.043145583            2 
  350000     1.182241   -6.3781712    174.88587  0.041639494  0.043141344            3 
  351000    1.2121938    -6.399017    175.41471  0.041646418  0.043135207            2 
  352000    1.1697261   -6.4030059    175.39473  0.041523374  0.043128884            2 
  353000    1.2154817   -6.4110426    175.75874  0.041491675  0.043122518            2 
  354000    1.2134146   -6.4123745    176.80461   0.04162067  0.043116379            2 
  355000    1.1929205   -6.3825536    177.00767  0.041551096  0.043109715            4 
  356000    1.2083271   -6.4314053    177.12479  0.041461795  0.043102834            2 
  357000    1.2097415   -6.4225519    177.25837  0.041376836  0.043094163            5 
  358000    1.1924134   -6.3955447    178.72321  0.041602238  0.043085515            2 
  359000    1.2086732   -6.3942411    177.99183   0.04131658  0.043076448            3 
  360000    1.2057351    -6.399753    179.02457  0.041440873  0.043066699            2 
  361000    1.1959713   -6.3957278    179.05406  0.041332884   0.04305652            5 
  362000    1.1953923   -6.4009154    179.75089  0.041379119  0.043045397            2 
  363000    1.1686775   -6.4150078      179.814  0.041279614  0.043034134            3 
  364000    1.1748335   -6.4274031    179.59143  0.041115255  0.043021334            3 
  365000     1.200763   -6.3757676    180.86455  0.041293276  0.043008767            6 
  366000    1.1819984   -6.4144091    180.47836  0.041092523  0.042995518            2 
  367000    1.2153635   -6.3700902      181.564  0.041227066  0.042981988            3 
  368000    1.1964782   -6.4096795    181.83844  0.041177183  0.042968616            2 
  369000    1.1808809   -6.4139022    181.28579  0.040940784  0.042953886            3 
  370000    1.2073111   -6.4093049     181.8652  0.040960631  0.042938326            4 
  371000    1.1755096    -6.387076    182.41144  0.040972921  0.042922849            3 
  372000    1.2053658   -6.4488681    182.64521  0.040915146  0.042906678            3 
  373000    1.1913737   -6.4125271    182.42953  0.040757267  0.042890631            1 
  374000    1.1568671   -6.3904433    183.61606  0.040912669  0.042874584            3 
  375000    1.1964681   -6.4138069    183.83145  0.040851434  0.042856737            4 
  376000    1.1971221   -6.4082135    184.56908  0.040906268  0.042838806            3 
  377000    1.2012646   -6.4316602    184.03459  0.040679618   0.04282078            4 
  378000    1.2169457   -6.4196972    184.88887  0.040760334  0.042803822            1 
  379000    1.2003725   -6.4435555    185.75742   0.04084376  0.042786587            2 
  380000    1.1815903   -6.4345853    185.86205  0.040759221  0.042768828            1 
  381000    1.1761412   -6.4494416    185.39563  0.040550225  0.042750973            2 
  382000      1.20153   -6.4110264    186.78915   0.04074807  0.042732918            2 
  383000    1.1684463   -6.4035097    187.39103  0.040772636  0.042715292            2 
  384000    1.1690969   -6.4153219    188.11951  0.040824546  0.042698671            3 
  385000    1.1944877   -6.4218249    188.30041  0.040757664  0.042681999            2 
  386000    1.2057805   -6.4265424    188.38028  0.040669318  0.042665334            2 
  387000    1.2099253   -6.4251433    189.73043  0.040854959  0.042648557            2 
  388000    1.1642764   -6.4254274    189.54604   0.04071006  0.042632864            4 
  389000    1.1784587   -6.4079413    189.68014  0.040634135  0.042616637            3 
  390000    1.1877188   -6.3943135     190.4231  0.040688696  0.042599819            4 
  391000    1.1854361   -6.4107045    190.38698  0.040576935  0.042582611            5 
  392000    1.1758522   -6.3907404    191.36481  0.040681296  0.042566034            2 
  393000    1.1850186   -6.4064152    191.95909  0.040703794  0.042549585            2 
  394000    1.1712081   -6.3987339    193.06404  0.040834189  0.042532671            6 
  395000    1.2038926   -6.4387819    192.35252    0.0405807  0.042517501            2 
  396000    1.1960023   -6.4105807    193.06468   0.04062809  0.042501288            3 
  397000     1.183774   -6.4258372    192.98889  0.040509841  0.042484817            1 
  398000    1.1828974   -6.4198055     195.2287   0.04087703  0.042469686            3 
  399000    1.2010185   -6.4056258    195.16851  0.040762012  0.042454691            1 
  400000    1.1788603   -6.4559175    195.21706  0.040670221  0.042440117            4 
  401000    1.1780297   -6.4252025    196.20447  0.040773996  0.042425945            3 
  402000    1.1905819   -6.4317236    196.36946   0.04070677  0.042411017            2 
  403000    1.1707781   -6.4190217    196.27053  0.040585305  0.042395147            2 
  404000     1.211243   -6.4000051    196.87918  0.040610393  0.042379096            3 
  405000    1.1692497   -6.3967817     198.1242  0.040766296  0.042364564            7 
  406000    1.1614915   -6.4285019    197.97394  0.040635045  0.042349937            3 
  407000    1.2002887   -6.4513575    198.88467  0.040721677  0.042335811            6 
  408000    1.1874951   -6.4075599    200.27206   0.04090524  0.042322295            3 
  409000     1.165601   -6.3768127     199.6981  0.040688284  0.042308524            5 
  410000    1.1872634   -6.4658419    199.53499  0.040555892   0.04229479            3 
  411000    1.1837582   -6.4247771    201.03717  0.040761795  0.042281806            2 
  412000    1.1778581   -6.4536101    201.93791  0.040845046      0.04227            2 
  413000    1.1706446   -6.4356306    201.69875  0.040697892  0.042258292            2 
  414000    1.1956085   -6.4165159    202.19875  0.040700231  0.042246682            2 
  415000    1.1778545    -6.415804     203.5464  0.040872772  0.042235859            2 
  416000     1.194135   -6.4735836    202.95329  0.040655708  0.042224079            2 
  417000     1.191493   -6.4265621    203.52319    0.0406721  0.042211145            2 
  418000    1.1998525   -6.3997463    203.96562  0.040663002  0.042198639            4 
  419000    1.1774849   -6.4091408    204.18443  0.040609472  0.042185373            2 
  420000    1.1941153   -6.4056163    205.28915  0.040731975   0.04217252            3 
  421000    1.1808629   -6.4178698    204.76592  0.040531654  0.042159834            2 
  422000    1.1722284   -6.3596447    205.81472  0.040642716  0.042146979            3 
  423000    1.1945218   -6.4524577    206.33967  0.040650053  0.042134388            6 
  424000    1.1800133   -6.3962799    206.37327  0.040560785  0.042121684            2 
  425000    1.1752454   -6.3719842    207.18349  0.040624213  0.042108666            3 
  426000    1.1828696   -6.4475887    206.66369  0.040427169  0.042095394            5 
  427000    1.1701681   -6.4102859     208.7971  0.040748848  0.042083522            2 
  428000    1.1341656   -6.4262617    209.36683  0.040764569  0.042072842            1 
  429000    1.1640358   -6.4137314    209.58081  0.040711112  0.042061637            3 
  430000    1.1682064   -6.4277092    209.63828  0.040627574  0.042050453            5 
  431000     1.200313   -6.4313785     209.5479  0.040515836  0.042038889            2 
  432000    1.1789375   -6.4755735    209.50885  0.040414517  0.042026546            2 
  433000     1.160982   -6.4277491     210.1909  0.040452445  0.042013073            4 
  434000    1.1765629    -6.479411     209.4108  0.040209447  0.041998807            3 
  435000    1.1762479   -6.4494147    211.56383   0.04052947  0.041984725            2 
  436000    1.1797669   -6.4511392    211.33833  0.040393412  0.041972004            2 
  437000    1.1796399   -6.4156154    211.59058   0.04034908  0.041958333            2 
  438000    1.1873881   -6.4031842     212.7734  0.040482002   0.04194455            3 
  439000    1.2124341    -6.403893    213.26306  0.040482738  0.041930101            3 
  440000    1.1782933   -6.4237804    212.77498  0.040298291  0.041915778            1 
  441000    1.2070913   -6.4969405    212.59547  0.040172991  0.041901646            2 
  442000    1.2124801   -6.4524916    213.45208  0.040243605  0.041887069            1 
  443000    1.1967256    -6.390381    214.58034     0.040365  0.041872463            1 
  444000    1.1937785   -6.4337811    214.10512  0.040184895  0.041857888            1 
  445000    1.1858223   -6.4739626    214.96491  0.040255602  0.041842605            7 
  446000    1.1630692   -6.4199558    214.80566  0.040135587  0.041827267            4 
  447000    1.1756577   -6.4736713    216.00224  0.040268874  0.041812301            1 
  448000     1.170458   -6.4679563    215.30275  0.040048874  0.041797336            2 
  449000    1.1868163   -6.3988039    217.03733  0.040281613  0.041782162            2 
  450000    1.1694408   -6.4471089    216.95296  0.040176474  0.041766419            1 
  451000    1.1977335    -6.433893    217.03942  0.040103366  0.041750299            3 
  452000     1.186363     -6.46587    217.60204   0.04011837  0.041734475            1 
  453000    1.1985219   -6.4294894    218.52923  0.040200374  0.041719532            5 
  454000    1.1684927   -6.4356842    218.85765  0.040172108  0.041704584            2 
  455000    1.1889667   -6.4616261    218.55926  0.040029168  0.041688388            3 
  456000    1.1829988   -6.4480954    218.50042  0.039930632  0.041671572            4 
  457000    1.2054164   -6.3849214    218.89614  0.039915415  0.041655586            2 
  458000    1.1793573   -6.3916112    220.55982  0.040130971  0.041639052            3 
  459000    1.1804616   -6.4217958    219.89453  0.039922754  0.041622635            2 
  460000     1.159388   -6.4368688    220.35008  0.039918492   0.04160607            2 
  461000    1.1758342   -6.4290633    221.28899  0.040001625  0.041588676            2 
  462000    1.2068499   -6.4071981    221.84651  0.040015604  0.041572022            4 
  463000    1.1839313   -6.4258919    220.87499  0.039754317  0.041555117            3 
  464000    1.1694198    -6.431898    222.60537  0.039979413  0.041538242            2 
  465000    1.1822833   -6.4170254     223.0239  0.039968441  0.041522406            3 
  466000     1.179054   -6.4699319    222.97635  0.039874169   0.04150632            7 
  467000     1.191613   -6.4178881    224.18027  0.040003616  0.041490481            1 
  468000    1.1666436   -6.4219791    223.82793    0.0398554  0.041474677            3 
  469000     1.151008   -6.4409147    224.74467   0.03993331  0.041459403            6 
  470000    1.1689634   -6.4595892     225.3354  0.039953085  0.041444958            3 
  471000    1.1943862   -6.4095998    226.06111  0.039996658  0.041430097            6 
  472000    1.1743361   -6.4532479    226.19975  0.039936397  0.041415501            3 
  473000    1.1637785    -6.478521    226.86219  0.039968673  0.041400436            2 
  474000    1.1482794    -6.476416    227.53774  0.040003119  0.041386276            3 
  475000    1.1642926   -6.4490913    227.13525   0.03984829  0.041373137            6 
  476000    1.1795852   -6.4282345    228.44393  0.039993686  0.041359267            1 
  477000    1.1468442   -6.4363647    228.74358  0.039962191  0.041345475            4 
  478000    1.1817853   -6.4696932    228.94285  0.039913328  0.041331517            2 
  479000    1.1789214   -6.4386796    229.48515  0.039924347  0.041317506            3 
  480000    1.1903781   -6.4386347     229.6764  0.039874375  0.041303229            4 
  481000    1.1757679   -6.4408883    230.70167  0.039969104  0.041288547            3 
  482000    1.1553276   -6.4362079     230.1676  0.039793845  0.041274487            1 
  483000    1.1550105   -6.4376239    231.06578  0.039866422  0.041260556            2 
  484000    1.1904856   -6.4339152    232.37247  0.040009034  0.041246961            1 
  485000    1.1527972   -6.4452842    232.26573  0.039908201  0.041233368            2 
  486000    1.1823003   -6.4144229    232.89938  0.039934736  0.041219911            2 
  487000    1.1516384   -6.4267271    232.98249  0.039866956  0.041206182            2 
  488000    1.1754456   -6.4450809    233.97265  0.039954346  0.041192835            2 
  489000    1.1847369   -6.4661528    233.61517   0.03981172  0.041179016            3 
  490000    1.1624001    -6.449903    234.25959  0.039840067  0.041165654            2 
  491000    1.1734794   -6.4126099     235.0388  0.039891174  0.041152531            2 
  492000    1.1582643   -6.4610494    235.02113  0.039807103  0.041139351            1 
  493000    1.1711548   -6.4420586    236.05265  0.039900718  0.041126226            3 
  494000    1.1849923   -6.4492748    236.29493  0.039860819  0.041113042            3 
  495000    1.1775389   -6.4499396    236.97244   0.03989435  0.041100262            2 
  496000    1.1802966   -6.4541481     236.1128   0.03966949  0.041086714            2 
  497000    1.1659768    -6.431954    237.28191  0.039785699  0.041072723            4 
  498000    1.1743308   -6.4489036    238.72118   0.03994665  0.041059685            1 
  499000    1.1518129    -6.471749    238.22059  0.039782998  0.041046438            2 
  500000      1.15776   -6.4559819    238.92976  0.039821627  0.041033327            2 
  501000    1.1749282   -6.4411439    239.71191   0.03987224  0.041020647            3 
  502000    1.1637749   -6.4756265    239.40389  0.039741681   0.04100692            2 
  503000    1.1850325   -6.4666878    239.85942  0.039738141  0.040993083            5 
  504000     1.147005   -6.4217472    239.97033  0.039677634  0.040978938            2 
  505000     1.167606   -6.4484518    240.31376  0.039655735  0.040966225            2 
  506000    1.1753566   -6.4732066     241.4393  0.039762731  0.040953835            2 
  507000    1.1639534   -6.4847738    242.36309  0.039836142  0.040941612            3 
  508000    1.1622446   -6.4423731    242.05431  0.039707072   0.04092949            2 
  509000    1.1587043   -6.4630973    242.19764  0.039652528  0.040916853            2 
  510000     1.185127   -6.4775348    242.71073  0.039658616  0.040904653            1 
  511000    1.1466498   -6.4347886    244.30288  0.039840652  0.040893359            2 
  512000    1.1496488   -6.4527789    244.63755  0.039817309  0.040882078            1 
  513000    1.1783921   -6.4562639    244.81163  0.039767971  0.040870677            2 
  514000    1.1592717   -6.4569663    245.42441  0.039789949  0.040859189            3 
  515000    1.1872468    -6.460575    246.64923  0.039910878  0.040848088            2 
  516000    1.1506614   -6.4375778    246.14577  0.039752224  0.040836228            5 
  517000    1.1752258   -6.4798322     246.5393  0.039738765  0.040824024            2 
  518000    1.1684774   -6.4841192    247.00762   0.03973739  0.040812465            2 
  519000     1.176611   -6.4412374     248.0518  0.039828484  0.040801346            2 
  520000    1.1757541   -6.4327955    249.74398  0.040023074  0.040790873            1 
  521000    1.1698281   -6.4432314    248.92562  0.039815358  0.040780708            4 
  522000    1.1671933   -6.4268382     248.4797  0.039667896  0.040770466            2 
  523000    1.1571305   -6.4535081    250.06088  0.039843989  0.040760465            5 
  524000    1.1684382   -6.4104852    250.40055   0.03982197  0.040749955            2 
  525000    1.1589863   -6.4893484    249.95067   0.03967471  0.040739255            2 
  526000    1.1613791   -6.4562721    250.88467  0.039747255  0.040728387            4 
  527000    1.1505925   -6.4462255     251.8831  0.039829713  0.040718075            2 
  528000     1.175169   -6.4933284    251.95437  0.039765526  0.040708085            2 
  529000    1.1420023   -6.4256576    253.11855  0.039873748  0.040699125            2 
  530000    1.1621079    -6.476899    253.63563  0.039879815  0.040690151            3 
  531000     1.193317   -6.4569474    253.77967  0.039827318  0.040681366            3 
  532000    1.1570561   -6.4629019     254.6812  0.039893672  0.040672342            2 
  533000    1.1639287   -6.4646422    254.81468  0.039839693  0.040663564            1 
  534000    1.1573658   -6.4358839    256.21407  0.039983469  0.040654866            2 
  535000    1.1792661    -6.476579    254.58547  0.039655057  0.040646211            3 
  536000    1.1689122   -6.4570872    255.75991  0.039763668  0.040637131            2 
  537000    1.1633017   -6.4427124    256.37055  0.039784382  0.040627139            4 
  538000    1.1320677   -6.4393403     257.1177  0.039826161  0.040617548            2 
  539000    1.1606849   -6.4539282     257.5332  0.039816511  0.040608452            8 
  540000    1.1446708   -6.4386429    257.65294  0.039761257  0.040598857            3 
  541000    1.1592843   -6.4811828    256.91235  0.039573682  0.040588669            2 
  542000    1.1808858   -6.4487389    257.74786   0.03962913  0.040578217            2 
  543000    1.1675496   -6.4321247     257.2418  0.039478484  0.040567329            4 
  544000    1.1463375   -6.4462024    258.71474  0.039631546  0.040556452            1 
  545000    1.1717421   -6.4784302    258.49595  0.039525375  0.040545888            4 
  546000    1.1918806   -6.4990619    259.39259  0.039589833  0.040535219            1 
  547000    1.1465465   -6.4851404    258.59575  0.039396062  0.040524293            2 
  548000    1.1621385   -6.4664312    260.67979  0.039641088  0.040513453            3 
  549000    1.1618061    -6.447152    260.72543  0.039575809  0.040502893            1 
  550000    1.1457294   -6.4337152    261.68748  0.039649618  0.040492345            2 
  551000    1.1604381     -6.46206    261.58124  0.039561591   0.04048173            3 
  552000    1.1390341   -6.4565218    262.43676  0.039619077  0.040471385            2 
  553000    1.1341465   -6.4924014    261.87697  0.039463075  0.040460647            2 
  554000    1.1578963   -6.4568773    263.15058   0.03958342  0.040449553            2 
  555000    1.1673447   -6.4917938    262.11668  0.039356859  0.040438342            2 
  556000    1.1864376   -6.4799822     262.2925  0.039312426  0.040426672            4 
  557000    1.1416902   -6.4411395    264.16913  0.039522611  0.040415425            4 
  558000    1.1626657   -6.4928334    263.03086  0.039281789  0.040403929            6 
  559000    1.1526016   -6.4418511    264.12691  0.039374913  0.040392903            5 
  560000    1.1569728   -6.4502562    264.53225  0.039364918  0.040380984            3 
  561000    1.1737672   -6.4770442    265.05129   0.03937185  0.040369324            4 
  562000    1.1821922   -6.4772671    265.36304  0.039348019  0.040357401            2 
  563000    1.1527742   -6.4942655    266.14848  0.039394387  0.040345807            2 
  564000    1.1442438   -6.4655195    266.41117  0.039363352  0.040334547            3 
  565000    1.1712597    -6.486205    266.22452  0.039266154  0.040323274            2 
  566000    1.1726135   -6.4559692    267.44486  0.039376452  0.040311707            4 
  567000     1.150447   -6.4443244    268.82759  0.039510227  0.040300636            2 
  568000    1.1750023   -6.4535649    267.77641  0.039286445  0.040289351            4 
  569000    1.1787945   -6.4673154    268.34538   0.03930073  0.040278671            2 
  570000    1.1271463   -6.4843717    269.66982  0.039425413  0.040268103            1 
  571000    1.1487697   -6.4760733    270.77605  0.039517812  0.040257916            4 
  572000    1.1393405   -6.4964379    270.54396  0.039414912  0.040247993            4 
  573000    1.1572739   -6.5054907    271.26223  0.039450587   0.04023864            1 
  574000    1.1663644   -6.4766703     271.8487  0.039467001  0.040229341            3 
  575000     1.157123   -6.4831797    272.86731  0.039545987   0.04022036            2 
  576000    1.1307411   -6.4961016    272.74643  0.039459843  0.040212006            3 
  577000    1.1617152   -6.4994768    273.38644  0.039483888  0.040202703            1 
  578000    1.1589777   -6.4800525    273.64738  0.039453198  0.040193724            3 
  579000    1.1806678   -6.4739149    274.91272  0.039567174  0.040185103            4 
  580000      1.14558   -6.4999785    273.76325    0.0393338  0.040176454            3 
  581000    1.1574062   -6.4820731    274.75622  0.039408523  0.040167211            3 
  582000    1.1667446   -6.4635139    276.03537  0.039523965  0.040158138            2 
  583000    1.1687598   -6.4686506    275.72449  0.039411734  0.040149624            4 
  584000    1.1581566   -6.5319102    275.51875   0.03931489  0.040140784            2 
  585000     1.141478   -6.4604288     276.7519  0.039423348  0.040131941            3 
  586000    1.1992961   -6.4658521    276.85094  0.039370156  0.040122442            2 
  587000    1.1799313   -6.4500833    276.06966  0.039192172  0.040112549            2 
  588000    1.1829627   -6.4970879    276.63721  0.039205954  0.040102827            3 
  589000    1.1584633   -6.4762536    277.94115  0.039323876  0.040092815           12 
  590000    1.1584774   -6.4719999    277.88412   0.03924917  0.040082574            1 
  591000    1.1536084   -6.4623199    278.59466  0.039282947  0.040072858            4 
  592000    1.1535534   -6.4579185    278.94686  0.039266169  0.040062511            1 
  593000    1.1801256   -6.4704951     278.4578  0.039131225  0.040052248            4 
  594000    1.1650458   -6.4680295    280.09625  0.039295209  0.040042281            3 
  595000    1.1666169   -6.4994239    279.63898  0.039165123  0.040031838            3 
  596000    1.1542341   -6.4732518    280.59467  0.039233036  0.040021224            2 
  597000    1.1561213   -6.5194823    278.95538  0.038938495  0.040010662            3 
  598000    1.1471052   -6.4918509    280.34025  0.039066367  0.039999687            1 
  599000    1.1775841   -6.4684764    281.63383  0.039181111  0.039988174            9 
  600000    1.1456832   -6.5063959    281.81202  0.039140559  0.039977238            3 
  601000    1.1369768    -6.464527    281.96624  0.039096817  0.039966291            2 
  602000    1.1330194   -6.4893411    282.12816  0.039054286   0.03995527            3 
  603000    1.1602474   -6.4752044    282.24922   0.03900625  0.039944638            4 
  604000    1.1472807   -6.4940599    282.77607  0.039014358  0.039933551            2 
  605000    1.1527889   -6.4748158    283.07924  0.038991631  0.039922562            3 
  606000    1.1502861   -6.4820743    283.11558  0.038932286  0.039911753            3 
  607000    1.1571573   -6.4978727    284.12871  0.039007236  0.039901718            4 
  608000    1.1477699   -6.4774025    285.15378  0.039083577  0.039892001            3 
  609000    1.1492306   -6.5004431    285.97506  0.039131782  0.039882517            3 
  610000    1.1409407    -6.507228    286.01501  0.039073089  0.039873538            3 
  611000    1.1509539   -6.5048865    286.73992  0.039108009   0.03986476            3 
  612000     1.157493   -6.4858239     288.6082  0.039298501  0.039856004            4 
  613000     1.146844   -6.4661023    288.21189  0.039180518  0.039847736            2 
  614000    1.1411416   -6.4902165    289.04871  0.039230281  0.039838893            3 
  615000    1.1557289   -6.4868629    288.60571  0.039106465  0.039829868            2 
  616000    1.1777845   -6.5016047    288.31467  0.039003609  0.039820792            2 
  617000    1.1667414   -6.4890407    289.37874  0.039084109  0.039811479            2 
  618000    1.1677848   -6.4988284     289.2285  0.039000607  0.039802241            4 
  619000    1.1772963   -6.5130254    289.88207  0.039025588  0.039792366            2 
  620000    1.1350707   -6.4991858    290.14586  0.038998099  0.039782307            2 
  621000    1.1498905   -6.4911181    290.54556  0.038988937  0.039772767            1 
  622000    1.1465731   -6.4516738    291.52541  0.039057531  0.039762871            2 
  623000    1.1474642   -6.5160888    291.19283  0.038950352  0.039752915            3 
  624000    1.1401015   -6.4863381     291.1733  0.038885323  0.039742339            2 
  625000    1.1634054   -6.4262375    291.47608  0.038863477  0.039730959            5 
  626000    1.1382031   -6.4661636    292.71418  0.038966211  0.039720358            2 
  627000    1.1438901   -6.4954049    292.34881  0.038855504  0.039709681            3 
  628000    1.1430673   -6.5064707    293.43201  0.038937369  0.039699514            3 
  629000    1.1626825   -6.5069741    293.70257  0.038911311  0.039689405            2 
  630000    1.1645033   -6.4771814    294.77085  0.038990854  0.039679691            3 
  631000    1.1332015   -6.5039977    295.10584  0.038973301  0.039669608            4 
  632000    1.1652477   -6.4836705    295.65689  0.038984294   0.03966034            2 
  633000    1.1456032     -6.51293    296.23649  0.038999012   0.03965111            1 
  634000    1.1795115   -6.5274018    296.89071   0.03902349  0.039642216            3 
  635000    1.1340154   -6.5058533    297.44099  0.039034251  0.039633346            2 
  636000    1.1497516   -6.4543394    296.66379  0.038871042  0.039624387            3 
  637000    1.1535298   -6.5238066    298.15329  0.039004879  0.039615517            2 
  638000    1.1523696    -6.493646    298.60137  0.039002269  0.039606409            2 
  639000    1.1705446   -6.4902949    299.01973  0.038995792   0.03959755            2 
  640000    1.1390741   -6.4678015     298.5043  0.038867748  0.039588511            2 
  641000    1.1664354   -6.5252531    297.40419  0.038664091  0.039578968            6 
  642000     1.138541   -6.5079741    299.67662  0.038898834  0.039569411            3 
  643000    1.1562908   -6.4596015    300.15367  0.038900164  0.039560145            4 
  644000    1.1524288   -6.4822213    300.50733  0.038885524   0.03955066            5 
  645000    1.1528552   -6.4611386    301.00057  0.038888962  0.039541203            2 
  646000    1.1358619   -6.5144491    300.93922  0.038820849  0.039531492            3 
  647000    1.1662337   -6.4840664    302.40923  0.038950185  0.039522046            3 
  648000     1.152855   -6.4412556    302.14576  0.038856193  0.039512401            2 
  649000    1.1558503   -6.4938737    302.09984  0.038790426  0.039502578            2 
  650000    1.1533147   -6.5133235    302.42506  0.038772443  0.039492422            2 
  651000    1.1704378   -6.4891502     302.8332  0.038765131  0.039482157            2 
  652000    1.1383818   -6.5105559    302.62635  0.038679238  0.039472411            2 
  653000    1.1346583   -6.5162495    302.65752  0.038623982  0.039462283            1 
  654000    1.1359721    -6.495671    304.59612  0.038811941  0.039452338            2 
  655000    1.1918706   -6.5357183    305.13818  0.038821651  0.039442578            3 
  656000     1.166758   -6.5235453    305.13178  0.038761659  0.039432696            2 
  657000    1.1770995   -6.5293809    305.73324   0.03877895  0.039423316            2 
  658000    1.1655757   -6.5349145    306.62659  0.038833155  0.039414027            1 
  659000     1.151402    -6.542109    306.30861  0.038734017  0.039404281            3 
  660000     1.142476   -6.5310783    307.09591  0.038774736  0.039394812            2 
  661000    1.1582722   -6.4767246    307.68894   0.03879084  0.039385508            3 
  662000    1.1527905   -6.5067047    306.58482  0.038593255  0.039376013            3 
  663000    1.1432273   -6.4726002    307.07528  0.038596691    0.0393662            5 
  664000     1.143059   -6.5377973    308.05506  0.038661528  0.039356857            8 
  665000    1.1543238   -6.5191825    309.42008  0.038774446   0.03934719            1 
  666000    1.1566884   -6.4825294    309.77985  0.038761243  0.039337894            3 
  667000    1.1241956   -6.4851155    309.33287  0.038647285  0.039327918            1 
  668000    1.1528888   -6.5175674    309.33951  0.038590259  0.039317956            2 
  669000    1.1534634   -6.4905669    309.40118  0.038540257  0.039308003            3 
  670000    1.1501011   -6.4998549     310.2936  0.038593731  0.039298224            1 
  671000    1.1415687   -6.4972306    310.86933  0.038607716  0.039288322            2 
  672000     1.165345   -6.5218457    311.02961   0.03857014   0.03927815            3 
  673000    1.1332688   -6.5198957     311.7351  0.038600186  0.039267953            3 
  674000    1.1119446   -6.4866459    311.69741  0.038538255   0.03925842            4 
  675000    1.1077518   -6.4845266    311.50926  0.038457933  0.039248352            3 
  676000     1.110892   -6.5370471    311.96875  0.038457686  0.039237603            2 
  677000     1.128159   -6.5234249    312.67616  0.038487956  0.039226916            4 
  678000    1.1455993   -6.5307876    313.33485  0.038512149  0.039216107            1 
  679000    1.1473293   -6.4993914    314.74221  0.038628155  0.039205576            3 
  680000    1.1406539   -6.4848747    314.65044  0.038560103  0.039195657            2 
  681000    1.1366671   -6.4682551    314.95295  0.038540498  0.039185637            6 
  682000    1.1589472   -6.5002236    314.82398  0.038468228  0.039175466            1 
  683000     1.136748   -6.4850096    314.77085  0.038405424  0.039165153            2 
  684000    1.1354627   -6.5004189    315.91544  0.038488724  0.039154992            3 
  685000    1.1405784   -6.5017359    315.81369  0.038420157  0.039144856            4 
  686000     1.124016   -6.5507529    315.80229  0.038362766  0.039134454            6 
  687000    1.1283214   -6.4905966    316.88791  0.038438611   0.03912457            2 
  688000    1.1694057   -6.4977417    318.12315  0.038532358  0.039114875            2 
  689000    1.1375649   -6.4685109    318.05842  0.038468605   0.03910515            1 
  690000    1.1576255   -6.4701938    319.79372   0.03862243  0.039096028            2 
  691000    1.1327705   -6.4794963    319.40096   0.03851917  0.039087025            1 
  692000    1.1517177    -6.489083    319.37268  0.038460101  0.039077963            2 
  693000    1.1313019   -6.4970698    319.33144  0.038399644   0.03906847            2 
  694000    1.1310029   -6.5221399    319.79861  0.038400409  0.039058992            2 
  695000    1.1448229   -6.5019713    320.42121   0.03841981  0.039049424            3 
  696000    1.1230986   -6.5180644    320.34207  0.038355133  0.039039375            2 
  697000    1.1446253   -6.5161975    320.48331  0.038316991   0.03902959            3 
  698000    1.1305205   -6.4808356    321.11971  0.038338074  0.039019605            5 
  699000    1.1530723   -6.5247061    320.70095  0.038233303  0.039009465            4 
  700000    1.1327992   -6.5540186    319.96909  0.038091559  0.038998765            1 
  701000    1.1506407   -6.4973463    322.05133  0.038284751  0.038987922            2 
  702000    1.1345161   -6.5176442    321.55488  0.038171281  0.038977272            4 
  703000    1.1592794   -6.5448516    322.31225  0.038206763  0.038966654            4 
  704000    1.1651444   -6.5387699    321.85504  0.038098371  0.038955911            2 
  705000    1.1272243   -6.4908158    323.66032  0.038257721  0.038944821            3 
  706000    1.1227894   -6.5363689    322.74092  0.038095009  0.038933825            2 
  707000    1.1208943   -6.5371346    323.93223  0.038181545  0.038923004            1 
  708000    1.1391101   -6.5160968    326.69695  0.038453031  0.038912935            3 
  709000    1.1404366   -6.5230926     325.0482  0.038205007  0.038902816            2 
  710000    1.1114982   -6.4989388    326.47973  0.038319217  0.038892972            3 
  711000    1.1479867   -6.5231922    325.40252  0.038139067  0.038883262            4 
  712000    1.1451104   -6.5426144    326.15016  0.038173006  0.038872967            2 
  713000    1.1459146   -6.5426397    326.32635   0.03814006  0.038862969            5 
  714000    1.1459431   -6.5057152    327.32063  0.038202687   0.03885287            3 
  715000     1.140963   -6.5321314    327.68727   0.03819199  0.038842723            6 
  716000    1.1286107   -6.5136882    327.94174  0.038168266  0.038832306            3 
  717000    1.1329803   -6.5112481    328.72376  0.038205923  0.038822205            4 
  718000    1.1448476     -6.51464    329.28893  0.038218307  0.038811867            3 
  719000    1.1218268   -6.4984819    329.18027  0.038152558  0.038801633            2 
  720000      1.14172   -6.5480163    330.21839  0.038219721  0.038791485            2 
  721000    1.1109079   -6.5008036    329.68565  0.038105137  0.038781338            3 
  722000    1.1487182   -6.5283317    330.24785  0.038117249  0.038771185            2 
  723000    1.1247584   -6.5443817    330.48188  0.038091503  0.038761234            2 
  724000    1.1110488   -6.5017203    332.08658  0.038223593  0.038751398            2 
  725000     1.137674   -6.4819611      332.131  0.038175977  0.038741966            2 
  726000    1.1552456   -6.5243706    333.15234  0.038240626  0.038732693            1 
  727000    1.1288025   -6.4970494    333.42981  0.038219832   0.03872371            1 
  728000     1.152805   -6.5026576    333.48289  0.038173407  0.038714507            2 
  729000    1.1160504    -6.509331    334.57119  0.038245449  0.038705212            3 
  730000    1.1509087   -6.5308672    334.37563  0.038170734  0.038696134            3 
  731000    1.1477763    -6.539727    333.84744  0.038058303  0.038686948            2 
  732000    1.1061894   -6.5207055    334.65976  0.038098789  0.038677541            3 
  733000    1.1284648   -6.5351834    335.10609  0.038097554  0.038668511            1 
  734000    1.1269842    -6.498679    336.12122  0.038160902  0.038659428            4 
  735000    1.1290484   -6.5332926    337.18038  0.038229068  0.038650925            3 
  736000    1.1269941   -6.5465433     335.7593  0.038016225  0.038641717            1 
  737000     1.140606   -6.5115952    337.15892  0.038122899  0.038632378            3 
  738000    1.1761385    -6.522924    337.84543  0.038148761  0.038623359            3 
  739000    1.0943935   -6.5149235    337.98175  0.038112512  0.038614437            3 
  740000    1.1390546   -6.5316042    337.95188  0.038057644  0.038604912            4 
  741000    1.0958638    -6.522639    338.39018  0.038055575  0.038595624            2 
  742000    1.1570247   -6.5424971    338.85143  0.038056091  0.038586077            3 
  743000    1.1300286   -6.5084993    339.65487  0.038094984  0.038577003            2 
  744000    1.1049132   -6.5306259    339.47098  0.038023183  0.038567488            2 
  745000    1.1327334   -6.5184963    340.48265  0.038085307  0.038558455            1 
  746000    1.1327919   -6.5277031    340.83761  0.038073906  0.038549847            3 
  747000    1.1084445   -6.5223247     340.7203  0.038009851  0.038540948            1 
  748000    1.1445213   -6.5335432    340.79692  0.037967572  0.038531901            3 
  749000    1.1434281   -6.5258453    341.37773  0.037981501  0.038523157            2 
  750000    1.1357074   -6.5338146    342.26343   0.03802927   0.03851434            5 
  751000    1.1208559   -6.5249993    342.35776  0.037989099  0.038505367            4 
  752000    1.1329772    -6.518821    343.48427  0.038063416  0.038496538            2 
  753000    1.1183718   -6.5440148    342.14974  0.037865177  0.038487714            4 
  754000      1.14038   -6.5572707    343.13763  0.037924141  0.038478992            2 
  755000    1.1377231   -6.4986052    344.33208  0.038005748  0.038470004            2 
  756000    1.1266181   -6.5186658    344.41908  0.037965066  0.038460928            2 
  757000    1.1270714   -6.5186808    344.80547  0.037957449  0.038451909            5 
  758000    1.0828456   -6.5623584    344.50566  0.037874413  0.038442929            3 
  759000    1.1267389   -6.5122073    346.30297  0.038021845  0.038433854            3 
  760000    1.1408891   -6.5186615    346.47035   0.03799017   0.03842541            3 
  761000    1.1430559   -6.5381003    347.44162  0.038046608  0.038416966            4 
  762000    1.1304436   -6.5230063     347.4558  0.037998228  0.038408469            2 
  763000    1.1385667   -6.5332695     348.1861   0.03802819  0.038400386            2 
  764000    1.1155064    -6.546082    347.35264  0.037887504  0.038391946            5 
  765000    1.1149745   -6.5408715    347.88431  0.037895895   0.03838343            6 
  766000    1.1212079   -6.5466264    348.07243  0.037866887  0.038374542            2 
  767000      1.11756    -6.531804    348.58965  0.037873712  0.038365632            2 
  768000    1.1313332   -6.5717302    348.26765  0.037789458  0.038356484            2 
  769000    1.1377022   -6.5592895    349.79955  0.037906323   0.03834742            2 
  770000    1.1183524   -6.5426567    350.10973  0.037890663  0.038338752            2 
  771000    1.1116448   -6.5147248    350.71386  0.037906816  0.038330251            3 
  772000    1.1278708   -6.5278425    352.11215  0.038008651  0.038321829            2 
  773000    1.1366737   -6.5592749    352.33318   0.03798331  0.038313527            2 
  774000    1.1353179   -6.5601176    352.43385  0.037945074  0.038305352            3 
  775000    1.0897021   -6.5445533     351.8155  0.037829623  0.038296873            1 
  776000    1.1134976   -6.5386111    351.48995  0.037745914  0.038288352            3 
  777000    1.1542283   -6.5292919    352.75899   0.03783344  0.038279661            3 
  778000    1.1188859   -6.5579955    352.59248  0.037766975  0.038270855            2 
  779000     1.135348   -6.5311278     352.7953  0.037740191  0.038262291            3 
  780000    1.1269568   -6.5368697    353.72384  0.037791009  0.038253904            4 
  781000    1.1160362   -6.5705888    354.21163  0.037794668  0.038245412            2 
  782000    1.1269233   -6.5170101    354.83553  0.037812823  0.038236763            1 
  783000    1.1207963   -6.5555487    354.39888  0.037718059  0.038228369            2 
  784000    1.1195494   -6.5218365    355.72548  0.037810957   0.03821973            6 
  785000    1.1348808   -6.5305074    355.91421  0.037782824  0.038211132            2 
  786000    1.1511653   -6.5390993    356.16874  0.037761741  0.038202009            2 
  787000    1.1343209   -6.5334211    355.26221  0.037617769  0.038193118            5 
  788000    1.1029499   -6.5516003    354.99425  0.037541693  0.038183731            3 
  789000    1.1490059   -6.5357685    356.32627  0.037634798  0.038174668            4 
  790000    1.1109599   -6.5259062     357.3564  0.037695823  0.038165746            2 
  791000    1.1240223   -6.5290864     358.4552  0.037763927  0.038156565            4 
  792000    1.1202349   -6.5226371    358.19228  0.037688581  0.038147773            3 
  793000    1.1259878   -6.5334276    357.61265  0.037580144  0.038138935            4 
  794000    1.1329536   -6.5672741    358.36636  0.037611919   0.03813031            3 
  795000     1.131403   -6.5660998    358.95063  0.037625852  0.038121372            2 
  796000    1.1321162   -6.5539457    359.66116  0.037652969   0.03811237            3 
  797000    1.1367635   -6.4858024    361.09235  0.037755369  0.038103922            3 
  798000    1.1631136   -6.5531397    360.13466  0.037608047  0.038095253            1 
  799000    1.1071101   -6.5571904    360.21482  0.037569339  0.038086298            2 
  800000    1.1497613   -6.5553573    359.92409  0.037492093  0.038077091            3 
  801000    1.1167402   -6.5368294    359.81394  0.037433826  0.038068068            2 
  802000    1.0998261   -6.5141626     361.2771  0.037539183  0.038058973            3 
  803000    1.1250575   -6.5344853    360.90804  0.037454134  0.038049367            4 
  804000    1.1016622   -6.5513395    361.16587  0.037434273  0.038039671            4 
  805000    1.1255252   -6.5107753    362.31907   0.03750715  0.038029842            2 
  806000    1.1022528     -6.53459     363.3408  0.037566253  0.038020119            3 
  807000    1.1146169   -6.5424525    361.77884   0.03735841   0.03801061            2 
  808000    1.1404111   -6.5425695    363.92197  0.037533207  0.038001148            2 
  809000    1.1438468   -6.5586906    364.30163   0.03752592   0.03799161            4 
  810000    1.1253451   -6.5696904    364.96052  0.037547379  0.037981956            3 
  811000    1.1207459   -6.5562855    364.52875  0.037456715  0.037972328            2 
  812000    1.1544613   -6.5470056    364.33567   0.03739077  0.037962693            2 
  813000    1.1365747   -6.5285328    364.89546  0.037402158  0.037952959            2 
  814000    1.1385219   -6.5227417    364.31407   0.03729669   0.03794335            2 
  815000     1.143839   -6.5186414    366.74748  0.037499743  0.037933557            5 
  816000    1.1094348   -6.5425255    365.69119  0.037345914   0.03792379            4 
  817000    1.1048005    -6.543563    366.77232  0.037410477  0.037913853            2 
  818000    1.1325354    -6.549202    365.70955  0.037256474  0.037903739            2 
  819000    1.1202631   -6.5679556    365.91154  0.037231536  0.037893461            3 
  820000    1.1172667   -6.5480738    366.12566  0.037207893  0.037882603            9 
  821000    1.1149512   -6.5916421    365.30808  0.037079586  0.037872078            2 
  822000    1.1126783   -6.5543628    366.53141  0.037158496  0.037861624            2 
  823000    1.1352092   -6.5384834    367.32366  0.037193566  0.037851056            3 
  824000    1.1228564   -6.5639889    367.60057  0.037176433  0.037840784            2 
  825000    1.1161987   -6.5639775    368.48037  0.037220239  0.037829951            4 
  826000    1.1080581   -6.5641941     368.6682  0.037194128  0.037819761            7 
  827000    1.1157493   -6.5017929    370.68193  0.037352068  0.037809803            3 
  828000    1.1411448   -6.5245751    370.69934   0.03730871  0.037799687            2 
  829000    1.1038868    -6.545468     369.4083  0.037133927   0.03778986            4 
  830000    1.0961539    -6.557334    370.48377  0.037197165  0.037779797            2 
  831000    1.1274224   -6.5503551    370.52817  0.037156856  0.037769869            3 
  832000    1.1249418   -6.5071775    371.60665  0.037220217  0.037760132            2 
  833000    1.1042843   -6.5480839    371.80963  0.037195841  0.037750544            4 
  834000    1.1253108   -6.5551148    372.90314  0.037260505   0.03774086            2 
  835000    1.1102537   -6.5228684     374.8699  0.037412165  0.037731863            4 
  836000    1.1268893   -6.5434792    375.08085  0.037388442  0.037722952            4 
  837000    1.1108105   -6.5665954    375.83125  0.037418484  0.037714298            2 
  838000    1.1195843   -6.5495015    376.29138  0.037419589  0.037705814            1 
  839000     1.146501   -6.5418498    374.95152  0.037241907  0.037697338            3 
  840000    1.1156369   -6.5317019    377.41327  0.037441792  0.037688955            1 
  841000    1.1069443    -6.553777    376.63647    0.0373203  0.037680517            2 
  842000    1.1146911   -6.5430917    378.09068  0.037419901  0.037672128            3 
  843000    1.1282913   -6.5199939    377.00474  0.037268163  0.037663781            2 
  844000    1.1425668   -6.5810462    375.02719  0.037028751  0.037655114            2 
  845000    1.1531926   -6.5668359    378.01091  0.037279183  0.037646329            2 
  846000    1.1122096   -6.5350449    377.70699  0.037205181  0.037637501            3 
  847000    1.1043643   -6.5332174    378.07022  0.037196992  0.037628844            2 
  848000    1.1237908   -6.5390122    379.09697  0.037254026  0.037620143            3 
  849000    1.0952246   -6.5383079    378.60882  0.037162232   0.03761135            3 
  850000    1.1041256    -6.548436    379.33031  0.037189246  0.037602495            1 
  851000    1.1224629   -6.5822602    379.68114    0.0371799  0.037593876            2 
  852000    1.1381574   -6.5450779    380.31188  0.037197954  0.037585256            6 
  853000    1.1102304   -6.5238699    381.91494  0.037310955  0.037577113            3 
  854000    1.1088836   -6.5762465    380.87111  0.037165408   0.03756876            4 
  855000    1.1225181   -6.5643923    380.94744   0.03712938  0.037560175            2 
  856000    1.1010588    -6.580348     382.1419  0.037202287  0.037551789            2 
  857000    1.0811157   -6.5908546    382.82412  0.037225216  0.037543458            4 
  858000    1.1105831   -6.5607707     383.0312  0.037201943  0.037534927            2 
  859000    1.0945778   -6.5697627    383.25845   0.03718068  0.037526486            4 
  860000    1.1238466   -6.5263935    383.58974  0.037169548  0.037517665            2 
  861000    1.1110791   -6.5695212     384.0359   0.03716956  0.037509119            6 
  862000    1.1188251    -6.560504    384.28671  0.037150687  0.037500399            3 
  863000    1.0896154   -6.5626306    384.20657    0.0370999  0.037491687            3 
  864000    1.1122928   -6.5358605    384.40112  0.037075726  0.037482756            3 
  865000    1.1163506   -6.5677077    383.72214  0.036967451  0.037473679            2 
  866000    1.1088546   -6.5745779    384.28417  0.036978846  0.037464537            5 
  867000    1.0928128   -6.5660102    385.70753  0.037073004  0.037455466            5 
  868000    1.1047259   -6.5843708    385.38539  0.036999366  0.037446641            3 
  869000    1.0973948   -6.5723183     386.3113  0.037045579  0.037437851            2 
  870000    1.1016796   -6.5572041    387.26387   0.03709424  0.037429206            1 
  871000    1.1260811   -6.5437035     386.6465  0.036992585  0.037420555            3 
  872000    1.1165683    -6.560689    388.48458   0.03712582  0.037411871            2 
  873000    1.1058834   -6.5732656    388.34787  0.037070243  0.037403212            3 
  874000    1.1074717   -6.5894787    388.38247  0.037031128  0.037394668            4 
  875000    1.1338148   -6.5627353    388.62247  0.037011664  0.037385776            2 
  876000    1.1352825   -6.5732303    389.73109  0.037074875  0.037377155            2 
  877000    1.1136472   -6.5893294    389.22464  0.036984477  0.037368556            1 
  878000     1.132432   -6.5694196     390.3003  0.037044448  0.037359973            3 
  879000    1.1004509    -6.577249    389.28791  0.036906325  0.037351214            5 
  880000    1.0881174   -6.5641372    390.68075  0.036996283   0.03734241            2 
  881000    1.0945311   -6.5260082    392.31575  0.037108944  0.037333821            2 
  882000     1.104014   -6.5627102    391.71027  0.037009663  0.037325388            5 
  883000    1.1113063   -6.5995867    391.42763  0.036941074  0.037317053            2 
  884000    1.0987886   -6.5695619    391.70153  0.036925106  0.037308624            2 
  885000     1.105159   -6.5831684    391.61966  0.036875674   0.03729984            6 
  886000     1.130347   -6.5607677    393.34238  0.036996085  0.037291069            3 
  887000    1.0908605    -6.569327    393.69401  0.036987412  0.037282465            2 
  888000    1.1219557   -6.5616428    393.26532  0.036905529  0.037273578            3 
  889000    1.0653838   -6.5415625    394.36264  0.036966877  0.037264798            3 
  890000    1.1253455    -6.561164    393.39187  0.036834445  0.037255926            1 
  891000    1.1076461   -6.5527035    393.97424  0.036847572  0.037246809            4 
  892000    1.0958057   -6.5372344    395.42017  0.036941346  0.037237909            2 
  893000    1.1154854   -6.5693926    394.26184  0.036791885  0.037228798            3 
  894000    1.1041686   -6.5620516    394.65038  0.036786948  0.037219744            3 
  895000     1.110531   -6.5435267    395.43101   0.03681853  0.037210452            2 
  896000     1.098756   -6.5801053    395.01623  0.036738861  0.037200917            2 
  897000    1.1085492   -6.5796299    395.39634  0.036733217  0.037191628            2 
  898000    1.0966655   -6.5823844    395.77683  0.036727619  0.037182174            5 
  899000    1.1299633   -6.5612731    396.59008   0.03676215  0.037172802            1 
  900000    1.0943121   -6.5686724    396.12848  0.036678563  0.037163343            3 
  901000    1.1108562   -6.5615759     395.8831  0.036615159   0.03715407            4 
  902000    1.1436405   -6.6004957    397.17223  0.036693665  0.037144399            2 
  903000    1.1097102    -6.563654    398.30736  0.036757785  0.037135133            2 
  904000    1.1019853    -6.560063    398.20751   0.03670792  0.037125923            3 
  905000    1.0916072   -6.5624394    398.27449  0.036673525  0.037116591            3 
  906000    1.1118301   -6.5667103    396.43007  0.036463399  0.037106975            3 
  907000    1.0938408   -6.5667858    398.33505  0.036598223  0.037097126            1 
  908000    1.1060389   -6.5904283    399.70671  0.036683802  0.037087333            5 
  909000    1.1173842   -6.5624819    399.21299  0.036598184  0.037077583            4 
  910000    1.1087004   -6.5932544    398.25146  0.036469913  0.037067668            2 
  911000    1.1062057   -6.5978683    399.46822  0.036541184  0.037057713            3 
  912000    1.1077228   -6.5611578    401.18426  0.036657918   0.03704798            3 
  913000    1.1042694   -6.5796838     401.4291  0.036640115  0.037038631            4 
  914000    1.1192155   -6.5726617    400.98025  0.036559104  0.037029244            5 
  915000    1.1190396   -6.5765765    403.25035  0.036725897  0.037020088            5 
  916000    1.1079351   -6.5845768    402.42717  0.036610914   0.03701085            1 
  917000    1.1240259   -6.5632924    402.74698  0.036600052   0.03700154            5 
  918000    1.0928983   -6.5854885    402.09061    0.0365006     0.036992            3 
  919000    1.1109307   -6.5673871     402.5488   0.03650243  0.036982432            4 
  920000    1.0808563    -6.553046    405.17585  0.036700711  0.036973263            2 
  921000    1.1117531   -6.5977624    403.64012  0.036521908  0.036963943            2 
  922000    1.1307059   -6.6209868    402.56269  0.036384914  0.036954231            3 
  923000     1.119607   -6.5473214    404.76601  0.036544421  0.036944649            1 
  924000     1.103683   -6.5414504    404.60386  0.036490247   0.03693555            3 
  925000    1.0880543   -6.6132738    403.42277  0.036344394  0.036926039            4 
  926000    1.1010832   -6.5656557    406.00474  0.036537504  0.036916652            3 
  927000    1.1085686    -6.567147    406.45906   0.03653893  0.036907502            2 
  928000    1.1025859   -6.5880751    407.03964  0.036551692  0.036898341            1 
  929000    1.0983936   -6.5685478    407.41092  0.036545652  0.036889352            2 
  930000    1.1001263    -6.568863    407.32935  0.036499046  0.036880373            2 
  931000    1.0989701   -6.5890104    407.73388  0.036496051   0.03687128            3 
  932000    1.1125838   -6.5299194    408.95545  0.036566117  0.036862396            2 
  933000    1.1183404   -6.5889699    408.26966  0.036465672  0.036853583            3 
  934000    1.1066802   -6.6161732    408.51186  0.036448239  0.036844526            4 
  935000    1.0981643   -6.5604959    409.55124  0.036501893  0.036835486            2 
  936000    1.1168053   -6.5897099    409.82094  0.036486907  0.036826397            2 
  937000    1.1300591   -6.6243242    409.70374  0.036437544  0.036817313            7 
  938000    1.0903204   -6.5672532     410.3595  0.036456957  0.036808232            3 
  939000    1.1105142     -6.59746    411.56484  0.036525101  0.036799542            2 
  940000    1.1043455   -6.5457233    412.73475   0.03658996  0.036791016            3 
  941000    1.0984844   -6.5655516    410.65585  0.036366972  0.036782246            5 
  942000    1.1103792   -6.6016156    410.99573  0.036358433  0.036773664            4 
  943000    1.0948668   -6.5727284    412.55608  0.036457766  0.036765132            3 
  944000    1.1062198   -6.5922559    412.64217  0.036426745  0.036756709            4 
  945000    1.1235229   -6.5427335    414.79894   0.03657839  0.036748225            2 
  946000    1.1080435   -6.5813182    414.50418  0.036513758  0.036739901            4 
  947000     1.120771   -6.5996425    413.78367  0.036411798  0.036731324            3 
  948000    1.1121951   -6.6053527    414.11951   0.03640291  0.036722879            2 
  949000    1.1123412   -6.6073333    413.94818  0.036349506  0.036714426            3 
  950000    1.1084062   -6.6063663    413.38759   0.03626207   0.03670588            4 
  951000    1.0977647    -6.587639    414.69928  0.036338878  0.036697179            4 
  952000    1.0789679   -6.5957379    415.94337  0.036409608  0.036688565            5 
  953000    1.1164625   -6.6193829    414.39297  0.036235832  0.036679708            2 
  954000    1.1076111   -6.5977905    415.77944  0.036318959  0.036670835            1 
  955000    1.1280839    -6.593469     415.6695  0.036271335  0.036661926            2 
  956000     1.103014   -6.5834431    416.42322  0.036299095   0.03665299            3 
  957000    1.1098031   -6.5933092    417.76367  0.036377889  0.036644263            4 
  958000    1.0902468    -6.582425    417.01759  0.036275017  0.036635489            3 
  959000     1.112621   -6.5853461    417.12708  0.036246705  0.036626667            2 
  960000    1.1267837   -6.6173182     418.3755  0.036317317  0.036618011            2 
  961000    1.0962372   -6.6106424    418.91428  0.036326247  0.036609384            3 
  962000    1.0890003   -6.6001679    420.79747  0.036451618  0.036601002            2 
  963000    1.1150968   -6.6036989    419.37413  0.036290596  0.036592561            2 
  964000    1.1182719   -6.6063202    420.17021  0.036321768  0.036584384            2 
  965000    1.0779393   -6.5853255    420.76261  0.036335286  0.036576204            3 
  966000    1.0960987   -6.6310702    419.94011  0.036226718  0.036567625            2 
  967000    1.1043934   -6.6032332    420.19765  0.036211449  0.036559006            2 
  968000    1.0687989   -6.5758481    420.61138  0.036209657  0.036550355            4 
  969000    1.0835039   -6.5749249    422.14167  0.036303893  0.036541977            7 
  970000    1.0919959   -6.5873023    421.34819  0.036198298  0.036533461            7 
  971000    1.0989069   -6.5590739    421.60431  0.036182999  0.036524949            3 
  972000    1.1268468   -6.5738657    421.61507  0.036146697  0.036516624            4 
  973000    1.0871076   -6.5972165    423.72958  0.036290646  0.036508058            2 
  974000    1.0953833   -6.5825362    423.79462  0.036258951  0.036499385            2 
  975000    1.0943514   -6.5985001    423.57962  0.036203386  0.036490814            3 
  976000    1.1004158   -6.5808499    424.99321  0.036286989  0.036482248            2 
  977000    1.0992399    -6.610971    424.55843  0.036212763  0.036474053            2 
  978000    1.1003544   -6.5798975     423.3155  0.036069828  0.036465326            5 
  979000     1.112773   -6.6145145    422.76767  0.035986352  0.036456636            4 
  980000    1.0915168   -6.5749426     424.3649   0.03608545  0.036447757            2 
  981000    1.1067574    -6.601453    425.69792  0.036161903  0.036438982            3 
  982000    1.0959653   -6.6087752    426.33996  0.036179562  0.036430125            2 
  983000    1.0977383   -6.6755139    425.29074   0.03605381  0.036421288            3 
  984000    1.1008174   -6.5875804    425.27518  0.036015852  0.036412653            5 
  985000    1.0878698   -6.5855765    425.85972  0.036028741  0.036403935            5 
  986000    1.0963964    -6.607685    427.34291  0.036117555  0.036395154            1 
  987000    1.0812687   -6.5830555    426.85706  0.036039941  0.036386519            3 
  988000     1.096808   -6.6070245    425.93464  0.035925661   0.03637774            3 
  989000    1.1058796   -6.6366621    425.91494  0.035887676  0.036368761            5 
  990000    1.0842522   -6.5509553    429.08271  0.036118073  0.036360005            2 
  991000    1.0632009   -6.5662207    428.34388  0.036019499  0.036351445            2 
  992000    1.0962868   -6.5970185    427.81322   0.03593861  0.036342469            2 
  993000    1.1070084   -6.5567841    429.14943  0.036014555  0.036333562            5 
  994000     1.091845   -6.5868764     429.4505  0.036003563  0.036324613            2 
  995000    1.0990424   -6.6081251    429.21117  0.035947334  0.036316005            2 
  996000    1.1210096   -6.5972978    430.19392  0.035993467  0.036307261            2 
  997000    1.1094459   -6.6025262    429.25076  0.035878533  0.036298339            1 
  998000    1.0911899   -6.6077616    429.88307   0.03589538  0.036289256            2 
  999000    1.0854443   -6.5795328    431.88996  0.036026857  0.036280467            5 
 1000000    1.0722928   -6.6095987    430.32735  0.035860613  0.036271515            3 
 1001000    1.0788842   -6.6049503    431.47883  0.035920648  0.036262626            3 
 1002000    1.0670098   -6.6300906      431.856  0.035916167  0.036253742            2 
 1003000    1.0822204   -6.6246104    431.82512  0.035877793  0.036244569            3 
 1004000    1.0961516   -6.6180558    430.99813  0.035773417  0.036235374            5 
 1005000    1.1024175    -6.603264    432.77771  0.035885382  0.036226516            3 
 1006000    1.0954695   -6.6243052    431.57153  0.035749795   0.03621755            3 
 1007000    1.0878097   -6.5518198    434.52616  0.035958802  0.036208683            5 
 1008000    1.1047177   -6.5921456    435.08771  0.035969553  0.036200063            2 
 1009000    1.0858863   -6.5981407    433.84721  0.035831451  0.036191445            2 
 1010000    1.1038088   -6.6234959    434.45002  0.035845711  0.036182755            2 
 1011000    1.0685496     -6.61959    433.51739  0.035733382  0.036173971            7 
 1012000    1.0772802    -6.595258    434.91065  0.035812801   0.03616514            1 
 1013000    1.0859045   -6.6326189    437.15019  0.035961681  0.036156467           10 
 1014000    1.1288336   -6.6058931    437.05183  0.035918132   0.03614769            3 
 1015000    1.0842581   -6.5881645    437.87944  0.035950693  0.036139203            4 
 1016000    1.0910412   -6.5746757    437.33514  0.035870664  0.036130743            2 
 1017000    1.0827039    -6.621021    437.06279  0.035813077  0.036122116            3 
 1018000    1.0860381    -6.614511    438.82579  0.035922216  0.036113352            4 
 1019000    1.0955252   -6.6056995    436.99819  0.035737503  0.036104544            3 
 1020000    1.1206362   -6.5846282     437.8306  0.035770474  0.036095695            2 
 1021000    1.0909697   -6.5987618    438.02787   0.03575154  0.036086797            3 
 1022000    1.0992256    -6.621378    437.80337  0.035698253  0.036078004            4 
 1023000    1.0568035   -6.5891186    439.97678  0.035840402  0.036069212            5 
 1024000    1.0642101    -6.620689     438.9603  0.035722681  0.036060181            2 
 1025000    1.0941005   -6.6045839    439.16131  0.035704172  0.036051121            6 
 1026000    1.0792996   -6.6482792    439.23773  0.035675579  0.036042051            3 
 1027000    1.0794053   -6.6185831    439.85463  0.035690898  0.036032918            5 
 1028000     1.076521   -6.5839355     440.4565  0.035704969  0.036023896            6 
 1029000    1.0948581   -6.6190529    441.08962  0.035721543  0.036014869            3 
 1030000    1.0964516   -6.6070617    440.18751  0.035613877  0.036006011            2 
 1031000    1.0781196    -6.637067    440.67054  0.035618376  0.035997051            5 
 1032000    1.0677251   -6.6136463    441.21369   0.03562772  0.035987943            4 
 1033000    1.1121469   -6.6260644    441.01314  0.035577052  0.035978786            3 
 1034000    1.0690641   -6.6486386    442.15272  0.035634488  0.035969772            2 
 1035000    1.0837283   -6.6066146    442.81958  0.035653751  0.035960953            3 
 1036000    1.0711931   -6.5900095    443.82684  0.035700357  0.035952194            2 
 1037000    1.0970028   -6.6443851    443.79443  0.035663326  0.035943391            1 
 1038000    1.1068835   -6.6339811    443.66829  0.035618842  0.035934442            4 
 1039000    1.1186353   -6.6211233    445.14849   0.03570328  0.035925499            3 
 1040000    1.1107472   -6.6261954    443.11162  0.035505739  0.035916583            3 
 1041000     1.094326   -6.6062183    445.33946  0.035649973  0.035907513            3 
 1042000    1.0710771   -6.6510415    442.90905  0.035421389  0.035898447            3 
 1043000    1.0786373   -6.6066727    444.34641   0.03550227  0.035889504            3 
 1044000    1.0682907   -6.5859862    444.98206  0.035519002  0.035880552            2 
 1045000    1.0793592   -6.6180404    445.08422   0.03549316  0.035871519            4 
 1046000    1.0948488   -6.6165673    445.07425  0.035458433  0.035862509            1 
 1047000    1.0781972   -6.6159666    444.30752   0.03536354  0.035853119            3 
 1048000     1.077637   -6.6178352    445.89245  0.035455825  0.035843823            5 
 1049000    1.0789647   -6.5437784    448.45141  0.035625311  0.035834744            3 
 1050000    1.0651835   -6.6439824    447.16131  0.035488993   0.03582577            3 
 1051000    1.0857614   -6.6022287    448.06283  0.035526707  0.035816757            4 
 1052000    1.0823381   -6.6259637    448.86902  0.035556798  0.035807732            1 
 1053000    1.0936755   -6.6698746     446.5132  0.035336594  0.035798724            6 
 1054000    1.0559369   -6.6419533    448.31363  0.035445417  0.035789692            5 
 1055000    1.0929275   -6.6079896    448.99796  0.035465873  0.035780784            5 
 1056000    1.0794847   -6.6338956    448.73396  0.035411455  0.035771787            2 
 1057000     1.067774   -6.6451857     449.4384  0.035433491  0.035762701            6 
 1058000    1.0814022   -6.6022892    450.48289  0.035482269  0.035754015            2 
 1059000    1.0891364   -6.6476118    449.65315  0.035383471  0.035745128            3 
 1060000    1.0569005   -6.5782563    449.79508  0.035361249  0.035736105            4 
 1061000    1.0716083   -6.6187301    451.60798  0.035470309  0.035727233            2 
 1062000    1.0869797   -6.6148015    451.98736  0.035466679  0.035718313            4 
 1063000    1.0603877   -6.6249435    451.78322  0.035417311  0.035709502            3 
 1064000    1.1031415   -6.6130229    451.77924  0.035383712  0.035700352            2 
 1065000     1.070335   -6.6206943    452.65019  0.035418638  0.035691652            2 
 1066000    1.1059024   -6.6347225    451.01555  0.035257626  0.035682815            2 
 1067000    1.0834219     -6.64333    451.17516  0.035237048  0.035673665            4 
 1068000    1.0958977   -6.6289646    452.43213  0.035302133  0.035664377            8 
 1069000    1.0783262   -6.6137956    452.85469   0.03530205  0.035655072            4 
 1070000    1.0778601   -6.6329669    452.81717  0.035266135  0.035645572            3 
 1071000    1.0602734   -6.6186765     452.3475  0.035196662  0.035636065            3 
 1072000     1.090911   -6.6580472    450.47173  0.035018014  0.035626646            3 
 1073000    1.0694994   -6.6439016    454.32064    0.0352843  0.035617017            1 
 1074000     1.082767   -6.6166438     452.8001  0.035133465  0.035607391            4 
 1075000    1.0504312   -6.5996192    453.73642  0.035173366  0.035597883            4 
 1076000    1.0791117   -6.6359032    455.09848  0.035246165  0.035588218            2 
 1077000    1.1084635   -6.6320816    453.51278  0.035090744  0.035578572            4 
 1078000    1.0962015   -6.6354524    454.04421  0.035099274  0.035569074            3 
 1079000    1.0542079   -6.6064483    455.65632  0.035191251  0.035559538            5 
 1080000    1.0524681   -6.6096222    455.01463  0.035109154  0.035549974            2 
 1081000     1.081491   -6.5971121    455.89014  0.035144167  0.035540623            4 
 1082000    1.0899696   -6.5783295    456.59578  0.035166034  0.035531235            5 
 1083000    1.0839725   -6.5965954    457.24324  0.035183382  0.035521991            6 
 1084000    1.0806048   -6.6599289    456.95516  0.035128779  0.035512587            2 
 1085000    1.0575376   -6.6261286    458.18502  0.035190862  0.035503073            4 
 1086000    1.0612321   -6.6659862    458.08564  0.035150832  0.035493828            3 
 1087000     1.059435   -6.6298777    457.23912  0.035053597  0.035484294            4 
 1088000    1.0645863   -6.6686597    457.06709  0.035008202  0.035474667            6 
 1089000    1.0790106   -6.6227104    458.31436    0.0350715  0.035465294            5 
 1090000    1.0846648   -6.6564607    459.39301   0.03512179  0.035455713            4 
 1091000    1.0615918   -6.6490012    458.33836  0.035009041  0.035446174            3 
 1092000    1.0955582   -6.6233582    459.93154  0.035098561  0.035436774            3 
 1093000    1.0828001   -6.6493325    459.36664  0.035023379  0.035427654            2 
 1094000    1.0709214   -6.6450465    459.14431  0.034974429  0.035418131            2 
 1095000    1.0737473   -6.6570601    458.97462  0.034929575  0.035408709            3 
 1096000    1.0508349   -6.6149914    462.12145  0.035136971  0.035399414            3 
 1097000    1.0807176   -6.6086127    461.09305   0.03502682  0.035390519            2 
 1098000    1.0645296   -6.6265317    462.14001  0.035074378  0.035381532            2 
 1099000    1.0397086   -6.6111207    461.15203  0.034967548  0.035372461            3 
 1100000    1.0833864   -6.6346404    461.12669   0.03493384  0.035363205            5 
 1101000    1.0452759   -6.6226646    462.71945  0.035022665  0.035353877            3 
 1102000    1.0671196   -6.6296207     462.7384  0.034992317  0.035344548            2 
 1103000    1.0730202   -6.6395057    463.71705  0.035034531  0.035335464            4 
 1104000    1.0781532   -6.6522903    463.12152  0.034957844  0.035326421            3 
 1105000    1.0603154    -6.594342    464.11589  0.035001198  0.035317364            3 
 1106000    1.0679227   -6.6201726    463.67074  0.034936011  0.035308253            4 
 1107000    1.0495762   -6.6584275    464.94025  0.035000019  0.035299288            3 
 1108000    1.0484098   -6.6839293    463.16885  0.034835202  0.035290095            8 
 1109000    1.0914947    -6.661995    463.68189  0.034842342  0.035280774            2 
 1110000     1.074303   -6.6351813    464.54216  0.034875538  0.035271782            4 
 1111000    1.0605762   -6.6198275    467.19016  0.035042766  0.035262702            4 
 1112000    1.0705319   -6.6350939     466.7891  0.034981197  0.035253317            2 
 1113000    1.0563097   -6.6415021    465.73388  0.034870761  0.035244093            3 
 1114000     1.087898   -6.6128944    466.95611  0.034930888  0.035234734            3 
 1115000    1.0599492   -6.6393767    467.52447  0.034942038  0.035225597            1 
 1116000    1.0716936   -6.6292417    467.31212  0.034894872  0.035216519            5 
 1117000    1.1155638   -6.7163411    466.30052  0.034788161  0.035207253            4 
 1118000    1.0859302   -6.6814506    467.95727  0.034880536  0.035197877            4 
 1119000    1.0573459   -6.6385018    468.03782  0.034855363  0.035188625            2 
 1120000    1.0511813   -6.6421337    468.17121  0.034834168  0.035179497            2 
 1121000    1.0663893   -6.5778543    469.54058   0.03490489  0.035170439            4 
 1122000    1.0778595   -6.6134663    468.98002  0.034832146  0.035161408            3 
 1123000    1.0895884   -6.6062468    470.24183  0.034894763  0.035152293            2 
 1124000    1.0791835   -6.6391879    469.44794  0.034804859  0.035143149            2 
 1125000    1.0578272   -6.6477004    470.62129  0.034860836  0.035134133            2 
 1126000    1.0506172   -6.5849136    469.68721  0.034760747  0.035124741            2 
 1127000    1.0725751   -6.6250731    468.80227  0.034664468  0.035115463            3 
 1128000    1.0677973   -6.6393202    470.62892  0.034768685  0.035106063            4 
 1129000     1.107649   -6.6538808    470.84047  0.034753504  0.035096674            2 
 1130000    1.0919309   -6.6811897    470.43855  0.034693109  0.035087086            4 
 1131000    1.0652894   -6.6544544    470.47056  0.034664792    0.0350775            4 
 1132000    1.0717741   -6.6217345    471.94756    0.0347429  0.035067877            3 
 1133000    1.0512734   -6.6178635     470.8583   0.03463212  0.035058379            2 
 1134000    1.0790418   -6.6569112    469.03591   0.03446766  0.035048909            4 
 1135000    1.0833852   -6.6662868    472.33469  0.034679493  0.035039415            8 
 1136000    1.0691318   -6.6176601    473.91784  0.034765099  0.035030247            2 
 1137000    1.0731168   -6.6525977    470.89602  0.034513047  0.035020873            4 
 1138000    1.0991021   -6.6138087    474.01293  0.034710965  0.035011613            1 
 1139000    1.0777777   -6.6152422    474.14895  0.034690441  0.035002289            4 
 1140000    1.0730426   -6.6453035    473.91683  0.034643043  0.034992882            2 
 1141000     1.079752   -6.6444498    473.65504  0.034593561  0.034983452            3 
 1142000    1.0591713   -6.6548684     474.6137  0.034633224  0.034974018            3 
 1143000    1.0828858   -6.6273551    474.23046  0.034574982  0.034964551            5 
 1144000    1.0789441   -6.6708715    473.08097  0.034461026  0.034954946            2 
 1145000    1.0573147   -6.6361312    474.34173  0.034522688  0.034945294            3 
 1146000    1.0722192   -6.6595219    475.90382  0.034606153  0.034935797            2 
 1147000    1.0709363    -6.673369    474.86908  0.034500805  0.034926195            5 
 1148000    1.0695646   -6.6637551    473.83095  0.034395394  0.034916626            6 
 1149000    1.0650743    -6.632228    476.13209  0.034532353  0.034907151            2 
 1150000    1.0650967   -6.6578225    476.48463  0.034527872  0.034897719            3 
 1151000    1.0645715   -6.6622937    475.90025  0.034455564  0.034888321            3 
 1152000    1.0504963    -6.627552    478.70392  0.034628466  0.034878911            3 
 1153000    1.0815696     -6.63814    477.80465  0.034533438  0.034869377            3 
 1154000    1.0502541   -6.6542468    477.50493  0.034481869  0.034859841            4 
 1155000    1.0862478   -6.6466185    477.54371  0.034454813  0.034850195            5 
 1156000    1.0592106   -6.6670338    478.23878  0.034475114   0.03484059            6 
 1157000    1.0524574   -6.6427972    478.15365  0.034439185  0.034831362            7 
 1158000    1.0639103   -6.6888835     479.1505  0.034481182  0.034822066            2 
 1159000     1.071171   -6.6415684    478.87375  0.034431532  0.034812677            6 
 1160000    1.0836315   -6.6470839    479.30768  0.034433023  0.034803371            3 
 1161000    1.0651483   -6.6583218    479.75894  0.034435755  0.034793936            1 
 1162000    1.0859081   -6.6737208     478.7955  0.034337027  0.034784351            2 
 1163000    1.0718908   -6.6438699    479.27852  0.034342112   0.03477487            4 
 1164000    1.0777294   -6.6447565    481.48541  0.034470605   0.03476552            2 
 1165000    1.0441388   -6.6526312    481.56205  0.034446498  0.034756115            2 
 1166000    1.0752437    -6.629975    481.54864  0.034415998   0.03474688            4 
 1167000     1.051557   -6.6780013    481.14889  0.034357961  0.034737684            7 
 1168000    1.0508009   -6.6441746    482.29333  0.034410198  0.034728373            3 
 1169000    1.0725193   -6.6435017     483.6524  0.034477645  0.034719327            5 
 1170000    1.0638404   -6.6705131    482.74449  0.034383511  0.034710123            3 
 1171000    1.0435908   -6.6332941    483.49153  0.034407311  0.034700951            2 
 1172000    1.0527376   -6.6738168    481.97898  0.034270405  0.034691691            2 
 1173000    1.0650419   -6.6569642    483.94392  0.034380784  0.034682359            2 
 1174000    1.0570287    -6.643966    485.44848  0.034458296  0.034673087            2 
 1175000    1.0723789   -6.6474002    484.30584  0.034347932  0.034664023            5 
 1176000     1.072407   -6.6781709    486.67311  0.034486474  0.034654769            2 
 1177000     1.077988   -6.6606181    486.07462  0.034414799  0.034645663            5 
 1178000    1.0804592   -6.6745341    486.39363  0.034408152    0.0346366            4 
 1179000    1.0650553   -6.6692307    485.56071  0.034320095   0.03462756            2 
 1180000    1.0802982   -6.6463269    485.40048  0.034279695  0.034618527            4 
 1181000    1.0575331    -6.631057    486.44405  0.034324305  0.034609501            3 
 1182000    1.0505145   -6.6402815    486.62672  0.034308145  0.034600385            6 
 1183000    1.0418714   -6.6700268    487.81764  0.034363034  0.034591313            4 
 1184000    1.0601284   -6.6576627    486.68241  0.034254111  0.034582124            3 
 1185000    1.0582857   -6.6482839    489.20751  0.034402779  0.034572917            1 
 1186000    1.0632892   -6.6267999    488.44743  0.034320365  0.034563894            2 
 1187000     1.096705   -6.6407812    489.14238   0.03434024  0.034555044            4 
 1188000    1.0726193   -6.6546229    489.72238  0.034352019  0.034546279            2 
 1189000    1.0372199   -6.6515024    488.63673  0.034247038    0.0345372            1 
 1190000    1.0713716   -6.6540192    487.97859   0.03417217  0.034528334            6 
 1191000     1.054788   -6.6719653    489.44997   0.03424643  0.034519298            4 
 1192000    1.0713216   -6.6406967    488.12216  0.034124871  0.034510222            2 
 1193000    1.0661996   -6.6549492     490.3766  0.034253744  0.034501333            3 
 1194000    1.0597684   -6.6866651    489.39778   0.03415674  0.034492222            2 
 1195000    1.0570899   -6.6746442    490.34194  0.034193998  0.034483011            4 
 1196000    1.0588097   -6.6493838    490.24776  0.034158846  0.034473935            3 
 1197000    1.0547638    -6.663655    491.13964    0.0341924  0.034465046            2 
 1198000      1.04754   -6.6298902    491.31874  0.034176318   0.03445598            2 
 1199000    1.0692636   -6.6785496    491.21824  0.034140828  0.034447013            2 
 1200000    1.0597733   -6.6234174     494.0847  0.034311437  0.034438209            2 
 1201000    1.0645526   -6.6375075    492.46753  0.034170658  0.034429363            2 
 1202000    1.0621697   -6.6783932    491.53974  0.034077908  0.034420613            2 
 1203000    1.0576293   -6.7005956    492.00956  0.034082125  0.034411722            2 
 1204000    1.0816979   -6.6876897    492.49988  0.034087755  0.034402587            3 
 1205000    1.0509938   -6.6656275    494.45457  0.034194645  0.034393434            3 
 1206000    1.0830082   -6.6580478    492.90547   0.03405925  0.034384441           11 
 1207000    1.0470365   -6.6609694    494.42357  0.034135845  0.034375302            2 
 1208000    1.0820879   -6.6770051    492.35764  0.033965069  0.034366074            5 
 1209000    1.0358136   -6.6467062    494.38697  0.034076852  0.034356916            3 
 1210000    1.0476128   -6.6848591    495.59195  0.034131677  0.034347654            3 
 1211000    1.0485895   -6.6396409    496.62163  0.034174348  0.034338573            4 
 1212000    1.0725524   -6.6922159    495.41642  0.034063285   0.03432941            3 
 1213000    1.0401744   -6.6660045    497.11649  0.034151998  0.034320213            2 
 1214000    1.0147998    -6.657929    495.08385  0.033984339  0.034310969            4 
 1215000    1.0286529   -6.6498849    496.00426  0.034019497   0.03430189            3 
 1216000    1.0620565   -6.6850267    496.86943  0.034050811  0.034292719            3 
 1217000    1.0656509   -6.6652864    496.80003  0.034018079  0.034283504            3 
 1218000    1.0408404   -6.6690545     497.2412  0.034020334  0.034274253            3 
 1219000    1.0773069   -6.6526858    497.02254  0.033977478  0.034265088            2 
 1220000    1.0505449   -6.6538224    496.88649  0.033940334  0.034255839            5 
 1221000    1.0717527    -6.705845    496.40232  0.033879492  0.034246544            4 
 1222000    1.0618154   -6.6845688    497.07347  0.033897536  0.034237268            4 
 1223000    1.0539274   -6.6617871    498.48558  0.033966039  0.034227922            3 
 1224000    1.0537877   -6.6766392    497.02919  0.033839133  0.034218294            2 
 1225000    1.0823093   -6.7092088    496.03187  0.033743665  0.034208473           10 
 1226000    1.0585153    -6.668623    497.59528  0.033822409  0.034198785            4 
 1227000    1.0338871   -6.6727392    497.29386  0.033774373  0.034188953            3 
 1228000    1.0329924   -6.6693291     498.7337  0.033844578  0.034179309            2 
 1229000     1.074283   -6.7092395    498.42858  0.033796351  0.034169562            4 
 1230000    1.0823428   -6.6848231    499.00212  0.033807732  0.034159953            1 
 1231000    1.0582321   -6.6679215    498.97286  0.033778288   0.03415057            3 
 1232000    1.0383121   -6.6923069    500.26788  0.033838466   0.03414128            5 
 1233000    1.0431258   -6.6659851    500.21522  0.033807463   0.03413194            4 
 1234000    1.0461271   -6.6393286    501.32061  0.033854714  0.034122735            3 
 1235000    1.0800012   -6.6828024    500.09818  0.033744817  0.034113565            4 
 1236000    1.0539536   -6.6424003    501.16793  0.033789639  0.034104352            1 
 1237000    1.0535347   -6.6514089    501.19307  0.033764017  0.034095044            3 
 1238000    1.0816985   -6.6736813    502.23566  0.033806924  0.034085705            4 
 1239000    1.0497089   -6.6756525    500.95351  0.033693403  0.034076234            4 
 1240000    1.0643595   -6.6906575    502.54262  0.033773025  0.034066728            2 
 1241000    1.0571128   -6.6923523    501.44307  0.033671976  0.034057216            3 
 1242000    1.0492447   -6.6407748    503.58328  0.033788465  0.034047815            3 
 1243000    1.0783985   -6.6204561    504.90659      0.03385  0.034038732            2 
 1244000    1.0577318   -6.6827638    501.43953  0.033590537  0.034029477            3 
 1245000    1.0384064   -6.6782779    503.23452  0.033683703  0.034020109            3 
 1246000    1.0527807   -6.6997545      504.272  0.033726057  0.034010794            3 
 1247000    1.0645776   -6.6818145    504.98319  0.033746538  0.034001642            3 
 1248000    1.0502581    -6.668761    504.99897  0.033720551  0.033992472            5 
 1249000    1.0545878   -6.7105649      504.996  0.033693355  0.033983274            6 
 1250000    1.0258538   -6.6714766    506.20039  0.033746693  0.033974138            3 
 1251000    1.0507763   -6.7087121    505.10017  0.033646427  0.033964747            3 
 1252000    1.0560352   -6.6582643    507.51625  0.033780368  0.033955399            6 
 1253000    1.0650233   -6.6830395    506.41309   0.03368004   0.03394617            2 
 1254000    1.0593924   -6.6795847    503.71391  0.033473811  0.033937021            3 
 1255000    1.0360743   -6.6931062    506.60038  0.033638803  0.033927414            5 
 1256000    1.0411653   -6.7215725    503.56312  0.033410504  0.033917781            3 
 1257000    1.0423618   -6.6836617    506.64611  0.033588313  0.033908395            6 
 1258000    1.0583122   -6.6942653    507.59454  0.033624439  0.033899153            4 
 1259000    1.0535607   -6.6747757     507.3289   0.03358015  0.033889798            2 
 1260000    1.0525174   -6.6890385    508.57046  0.033635613  0.033880623            3 
 1261000    1.0598123   -6.6853463    508.04102  0.033573951  0.033871299            2 
 1262000    1.0432512   -6.6847906    508.91038  0.033604753  0.033862269            5 
 1263000    1.0498904   -6.7201216    507.98055  0.033516796  0.033853143            3 
 1264000    1.0395704   -6.6803272    510.56466  0.033660645  0.033844185            2 
 1265000     1.047055   -6.7134608    510.01752  0.033597992  0.033835323            3 
 1266000    1.0350209   -6.6946626     509.9073  0.033564198   0.03382648            3 
 1267000     1.073525   -6.6770394    511.84377  0.033665073  0.033817475            6 
 1268000    1.0734164   -6.7065715    510.03762  0.033519823   0.03380866            4 
 1269000    1.0479469    -6.689027    511.71843  0.033603784  0.033799958            4 
 1270000    1.0427091   -6.6584046    510.93161  0.033525696  0.033791225            2 
 1271000    1.0489888   -6.7086838    511.98534  0.033568407   0.03378247            2 
 1272000    1.0536809   -6.6557498    513.35873  0.033631992  0.033773757            3 
 1273000    1.0362668   -6.7082986     512.7868  0.033568133  0.033765109            3 
 1274000     1.044097   -6.7020469    512.30562   0.03351031  0.033756374            3 
 1275000    1.0332591   -6.6416241    514.93328   0.03365577  0.033747797            2 
 1276000    1.0363382   -6.6987356    513.90129  0.033561997  0.033739202            2 
 1277000    1.0108987   -6.7049906    515.11945  0.033615208  0.033730791            4 
 1278000    1.0184833   -6.6982298     513.8194  0.033504134  0.033722391           13 
 1279000    1.0470885   -6.6832168       515.96  0.033617409  0.033713916            2 
 1280000    1.0478996   -6.6971356    515.27106  0.033546293  0.033705693            4 
 1281000    1.0897367   -6.6706309    516.54636  0.033603068  0.033697275            3 
 1282000    1.0361134   -6.7074919    516.39993  0.033567338  0.033688885            3 
 1283000    1.0250016   -6.6851255    518.00555  0.033645463  0.033680475            5 
 1284000    1.0341319   -6.7007283    516.82681  0.033542758  0.033672177            2 
 1285000    1.0334713   -6.7052089    517.04914  0.033531073  0.033663963           11 
 1286000    1.0530746   -6.6966729    518.71315  0.033612827  0.033655749            2 
 1287000    1.0381373   -6.6766294    518.88356  0.033597744   0.03364763            2 
 1288000    1.0606287   -6.6793069    519.76875  0.033628931  0.033639622            4 
 1289000    1.0480738   -6.6844382    519.75651   0.03360205  0.033631671            3 
 1290000    1.0518999   -6.7243396    518.31886   0.03348313  0.033623413            3 
 1291000    1.0523705    -6.698771    519.84797  0.033555898  0.033615141            2 
 1292000     1.057558   -6.7270194    519.47961  0.033506167  0.033606744            3 
 1293000    1.0353195   -6.6638847    519.59981     0.033488  0.033598414            7 
 1294000    1.0414256   -6.6871104      520.026  0.033489567  0.033590109            1 
 1295000    1.0629875   -6.6866505    519.76754  0.033447074  0.033582023            6 
 1296000    1.0192714   -6.6800511    520.94258  0.033496822  0.033573664            5 
 1297000     1.043608   -6.6885303    521.13385  0.033483285  0.033565402            4 
 1298000    1.0062355   -6.7161347    519.92423   0.03337983  0.033556935            4 
 1299000     1.071462   -6.7099508    521.01935  0.033424387  0.033548513            3 
 1300000    1.0495231   -6.6813132    522.00837  0.033462075  0.033540128            2 
 1301000    1.0215095   -6.6503665    522.55526  0.033471385  0.033531919            4 
 1302000    1.0502332   -6.7058854    522.07875  0.033415178  0.033523511            5 
 1303000    1.0290795   -6.6909325    521.41947   0.03334737  0.033515092            7 
 1304000    1.0637536   -6.6756984    522.86081  0.033413907  0.033506756            6 
 1305000    1.0405844   -6.6715886    521.77259  0.033318812  0.033498492            4 
 1306000    1.0446361   -6.7131851    521.69973   0.03328865  0.033489991            2 
 1307000    1.0174652   -6.7041292    523.83226  0.033399149  0.033481785            9 
 1308000    1.0590143   -6.7370778    524.14766  0.033393709  0.033473316            4 
 1309000    1.0367448   -6.6781168    523.55652  0.033330565  0.033464862            6 
 1310000    1.0251085   -6.7015284    526.05818  0.033464261  0.033456661            3 
 1311000    1.0516014   -6.6770016    525.23522  0.033386424  0.033448386            2 
 1312000    1.0406931   -6.7254433    525.69923  0.033390449  0.033440206            2 
 1313000     1.033539   -6.6993393     526.1035  0.033390677  0.033432192            2 
 1314000    1.0322631   -6.6882004     526.1212  0.033366388  0.033424215            6 
 1315000    1.0574955   -6.7054027    527.78805  0.033446644  0.033416207            4 
 1316000    1.0421793   -6.6610531    527.39155  0.033396122  0.033408234            2 
 1317000    1.0614423   -6.6955629    528.09388  0.033415204  0.033400113            6 
 1318000    1.0427796   -6.6832989    527.13011  0.033328914  0.033392068            2 
 1319000    1.0360194   -6.6914556    526.20905  0.033245454  0.033383912            2 
 1320000    1.0566325   -6.6963233    528.51359  0.033365757  0.033375771            3 
 1321000    1.0580163   -6.6878467     529.9558  0.033431479   0.03336771            3 
 1322000    1.0359507   -6.7080023    528.02913  0.033284741  0.033359584            5 
 1323000    1.0605979   -6.7117958    527.55214  0.033229538  0.033351378            3 
 1324000    1.0523975   -6.6976261    528.57082  0.033268556  0.033343191            3 
 1325000    1.0613099   -6.7167017    528.11845  0.033214997  0.033334897            4 
 1326000    1.0151154   -6.6952683    529.83106  0.033297578  0.033326596            3 
 1327000    1.0296165   -6.6544762    529.29241  0.033238659  0.033318348            4 
 1328000    1.0437645   -6.6792469    529.74993   0.03324234  0.033310152            2 
 1329000    1.0330755    -6.725034    529.71461  0.033215112  0.033301905            2 
 1330000    1.0580835   -6.7090712    530.04582  0.033210891  0.033293709            2 
 1331000    1.0204159    -6.689291    530.41879   0.03320929  0.033285491            4 
 1332000    1.0112702   -6.7338192    530.57878  0.033194368  0.033277169            2 
 1333000    1.0321559   -6.6563525    532.27407  0.033275448  0.033268841            7 
 1334000    1.0466898   -6.7110858    533.21821  0.033309483  0.033260574            2 
 1335000    1.0330066   -6.7029453    532.46816  0.033237713  0.033252378            2 
 1336000    1.0643115   -6.7146319    531.27292  0.033138281   0.03324387            3 
 1337000      1.04715   -6.6875518    532.27181  0.033175755  0.033235622            5 
 1338000    1.0325526   -6.6614048    532.73193  0.033179617  0.033227404            2 
 1339000    1.0202691   -6.7080991    532.79756  0.033158922  0.033219138            4 
 1340000    1.0326455   -6.6804288    532.14357  0.033093505  0.033211031            6 
 1341000    1.0298416   -6.7354491    533.30957  0.033141286  0.033202996            4 
 1342000    1.0295615   -6.7399951     533.2485  0.033112798  0.033194804            4 
 1343000     1.026394   -6.6791702    535.25631  0.033212727  0.033186788            4 
 1344000    1.0377548   -6.7064328    533.07273  0.033052625  0.033178621            4 
 1345000    1.0621277   -6.7232322    534.87676  0.033139824  0.033170557            2 
 1346000    1.0279644   -6.7058258    535.06451  0.033126827  0.033162576            3 
 1347000    1.0281493   -6.6951406      535.401  0.033123051  0.033154384            5 
 1348000    1.0042711   -6.7504639    533.75798  0.032996908  0.033146249            3 
 1349000    1.0475254   -6.7090263    534.94164  0.033045567   0.03313803            3 
 1350000    1.0577341   -6.7152175    534.91704   0.03301957  0.033129834            6 
 1351000    1.0368048   -6.7272218    534.59676  0.032975374  0.033121532            3 
 1352000    1.0330795   -6.7277597    537.93413  0.033156689  0.033113177            2 
 1353000    1.0248164   -6.7131676    536.00151  0.033013151  0.033105011            2 
 1354000    1.0291696   -6.7398746    536.60535  0.033025932  0.033096767            3 
 1355000    1.0347916   -6.7327233    537.75838  0.033072471   0.03308849            3 
 1356000    1.0370558   -6.6620416    537.83514  0.033052798   0.03308043            2 
 1357000    1.0383312   -6.7299215    537.68681  0.033019332  0.033072264            4 
 1358000    1.0263798   -6.6936407    538.33548  0.033034823  0.033064241            3 
 1359000    1.0240171   -6.7168517    538.98986  0.033050642  0.033056337            7 
 1360000    1.0328178    -6.728907     538.0987  0.032971734  0.033048455            3 
 1361000    1.0267383   -6.7308565    539.04561  0.033005487  0.033040463            4 
 1362000    1.0275154   -6.7046619    539.93269  0.033035529  0.033032471            2 
 1363000    1.0384981   -6.6756493    541.32095  0.033096169   0.03302456            3 
 1364000    1.0397334   -6.7466063    539.35654  0.032951891  0.033016719            4 
 1365000    1.0505975   -6.7180907    540.51321  0.032998365  0.033008729            4 
 1366000    1.0257661   -6.7217354    541.96341  0.033062677  0.033000752            3 
 1367000    1.0331716   -6.7294104    540.95427  0.032976973  0.032992691            5 
 1368000    1.0368929   -6.7159056    540.60739  0.032931737  0.032984661            2 
 1369000    1.0528829   -6.7146274    541.00068  0.032931622  0.032976581            1 
 1370000    1.0405152   -6.7315253     543.1092  0.033035839  0.032968591            2 
 1371000    1.0214022   -6.7398588    542.39191  0.032968144  0.032960737            3 
 1372000    1.0147819   -6.7183509    542.45701  0.032948069  0.032952507            4 
 1373000    1.0531635   -6.7121532    542.25414  0.032911759  0.032944189            3 
 1374000    1.0512311   -6.7114125    541.51237  0.032842817  0.032935962            3 
 1375000    1.0185914    -6.729361    543.13273  0.032917135  0.032927911            3 
 1376000    1.0139537   -6.7052089    544.12049  0.032953034  0.032919883            5 
 1377000    1.0102015   -6.7500612    543.37663  0.032884086  0.032911793            2 
 1378000    1.0097775     -6.70074    543.24795   0.03285244  0.032903551            2 
 1379000      1.03107   -6.7312721     542.6664  0.032793474  0.032895279            4 
 1380000    1.0304244   -6.7612713    542.94879  0.032786763  0.032887074            2 
 1381000    1.0369811   -6.7418012    541.89639  0.032699517  0.032878716            4 
 1382000    1.0230307   -6.7163656    543.38471    0.0327656  0.032870381            5 
 1383000    1.0172915   -6.7389993    542.42764  0.032684239  0.032862091            7 
 1384000    1.0257098   -6.7204078    545.13491  0.032823634  0.032853803            2 
 1385000    1.0192054   -6.7138421    544.85806  0.032783277  0.032845562            2 
 1386000    1.0271306   -6.6997543    544.99507  0.032767861  0.032837333            6 
 1387000    1.0300427   -6.7507745    545.55046  0.032777605  0.032829181            3 
 1388000    1.0328817   -6.7009426    546.32169  0.032800293  0.032821069            5 
 1389000   0.99240826   -6.6968726     547.4126  0.032842128  0.032813079            9 
 1390000    1.0115097   -6.7579575    545.96679  0.032731822  0.032804856            2 
 1391000    1.0254163   -6.6914191    545.16314  0.032660145  0.032796637            4 
 1392000    1.0250647   -6.7410032    546.60159  0.032722797  0.032788352            3 
 1393000    1.0364725   -6.7432756    546.28317  0.032680257  0.032780048            2 
 1394000    1.0200285   -6.7302661    548.27228  0.032775722  0.032771748            3 
 1395000    1.0187083   -6.7114743    548.39813  0.032759745  0.032763592            3 
 1396000    1.0279788   -6.7328049    547.30179  0.032670833  0.032755263            3 
 1397000    1.0353893   -6.7533286    546.16745  0.032579781  0.032746932            7 
 1398000    1.0207187   -6.7482183    545.71502  0.032529508  0.032738557            4 
 1399000    1.0423286   -6.7187066    548.32936  0.032661982  0.032730293            5 
 1400000    1.0130621   -6.7543425    547.68824   0.03260049   0.03272183            3 
 1401000    1.0371696   -6.7532048     547.8638  0.032587664  0.032713394            4 
 1402000    1.0274089   -6.6906244    551.11891    0.0327579  0.032704893            2 
 1403000    1.0380529   -6.6981088    548.69573  0.032590623  0.032696603            2 
 1404000    1.0188885   -6.7114995    550.16998  0.032654913  0.032688246            2 
 1405000    1.0398479   -6.7279698    548.51983  0.032533798  0.032679716            8 
 1406000    1.0255719   -6.7207332    548.76243  0.032525037  0.032671027            5 
 1407000    1.0338949   -6.6930578    548.90457   0.03251034   0.03266233            3 
 1408000     1.020939   -6.7013188    549.04559  0.032495596    0.0326538            4 
 1409000    1.0268477   -6.7321333    549.93699  0.032525254   0.03264515            3 
 1410000    1.0060042   -6.7271175    549.53878  0.032478651  0.032636529            4 
 1411000    1.0358988   -6.7602897    549.93063  0.032478776   0.03262791            5 
 1412000    1.0405245   -6.7506332    550.25861   0.03247513  0.032619219            6 
 1413000    1.0274987   -6.7235305    549.74434  0.032421817  0.032610578            4 
 1414000    1.0156811   -6.7289362    550.90996  0.032467584  0.032602146            5 
 1415000    1.0414448   -6.7522068    549.71627  0.032374339  0.032593545            4 
 1416000    1.0081444   -6.7436027    549.36763  0.032330957  0.032584945            6 
 1417000    1.0447024   -6.7083698    551.94735  0.032459854  0.032576328            6 
 1418000    1.0361898   -6.7102872    551.03171  0.032383151  0.032567604            3 
 1419000    1.0220382    -6.723141    550.31344  0.032318149  0.032558996            7 
 1420000    1.0537065   -6.7175408    552.51315  0.032424481  0.032550449            5 
 1421000    1.0337186   -6.7077968    553.69444  0.032470938  0.032541749            2 
 1422000    1.0290824   -6.7598891    552.83632  0.032397815   0.03253334            3 
 1423000    1.0298157   -6.7055352    553.71021  0.032426224  0.032524907            2 
 1424000    1.0233973   -6.7229255     554.9987  0.032478856  0.032516435            2 
 1425000    1.0238571   -6.7150633    553.77444   0.03238447  0.032508111            3 
 1426000    1.0111202   -6.7086059    554.59243  0.032409562  0.032499628            2 
 1427000    1.0235167   -6.7159099    553.92608  0.032347937  0.032490968            7 
 1428000    1.0148496   -6.7073669    554.87113  0.032380435  0.032482453            3 
 1429000    1.0273123   -6.6782721     555.1248  0.032372568  0.032473842            6 
 1430000    1.0382095   -6.7203496    555.08822  0.032347798  0.032465293            3 
 1431000    0.9980975    -6.732397    553.79483  0.032249874  0.032456812            6 
 1432000    1.0329206   -6.7384934    555.22308  0.032310468  0.032448243            6 
 1433000    1.0154376   -6.7398518    555.70099  0.032315712  0.032439594            1 
 1434000    1.0332369    -6.722136    555.72301  0.032294457  0.032430909            6 
 1435000    1.0154234   -6.7111649    558.85506  0.032453836  0.032422375            3 
 1436000    1.0093231   -6.7259322    557.03324  0.032325513  0.032413871            2 
 1437000    1.0156743   -6.7357602    556.98984  0.032300501  0.032405306            4 
 1438000    1.0291376   -6.7343042    555.95589  0.032218121  0.032396751            6 
 1439000     1.020811   -6.6970769    556.15096  0.032207028  0.032388162            4 
 1440000    1.0153477   -6.7714134    556.04369  0.032178454  0.032379533            4 
 1441000    1.0092571   -6.7182207    558.44965  0.032295261  0.032370955            2 
 1442000    1.0308147   -6.7353096    557.68825  0.032228863  0.032362464            4 
 1443000    1.0483174    -6.693391    558.94051  0.032278847  0.032353961            4 
 1444000    1.0006127   -6.7663164    556.82092  0.032134171  0.032345504            4 
 1445000    1.0210959   -6.7555362     557.5783  0.032155611  0.032336887            4 
 1446000    1.0164445   -6.7100936    558.95902  0.032212945  0.032328367            3 
 1447000    1.0067288   -6.7257944    558.20388  0.032147194  0.032320038            5 
 1448000    1.0223635   -6.7656365    558.23002  0.032126497  0.032311499            7 
 1449000    1.0206268   -6.7110892    558.59592  0.032125369  0.032302773            5 
 1450000    1.0057968   -6.7855092    559.48381  0.032154242  0.032294013            5 
 1451000    1.0173385   -6.7303842    560.18078   0.03217211  0.032285355            3 
 1452000   0.99528253   -6.7415757    559.54537  0.032113485  0.032276948            3 
 1453000    1.0442861   -6.7533222    559.88649  0.032110948  0.032268465            7 
 1454000    1.0276665   -6.7169757    561.15049  0.032161307  0.032260125            3 
 1455000    1.0228289   -6.7452857    562.52193  0.032217751  0.032251708            3 
 1456000    1.0013554   -6.7480442    561.46066  0.032134882  0.032243343            3 
 1457000    1.0175264   -6.7189255    562.18096  0.032154024   0.03223492            3 
 1458000    1.0191317   -6.7639593    561.82935  0.032111874  0.032226367            2 
 1459000    1.0190721   -6.7655205    561.06486    0.0320462  0.032217797            5 
 1460000    1.0257895   -6.7466345    562.13341   0.03208524  0.032209042            3 
 1461000    1.0247221    -6.731604    561.65527  0.032036007  0.032200257            4 
 1462000    1.0286518   -6.7474056    561.28899  0.031993217  0.032191592            4 
 1463000    1.0218132   -6.7610072    562.32406  0.032030306  0.032182814            2 
 1464000    1.0102684   -6.7633896    563.00695  0.032047299  0.032174127            6 
 1465000    1.0052383   -6.7676138    562.99942  0.032024996  0.032165557            3 
 1466000    1.0226332   -6.7763892    561.51985  0.031919046  0.032156821            5 
 1467000    1.0079502   -6.7471448    564.05913  0.032041532  0.032148033            6 
 1468000    1.0152579   -6.6979073    563.82623  0.032006484   0.03213931            4 
 1469000    1.0228642   -6.7490732    563.12493  0.031944913  0.032130631            3 
 1470000    1.0332882   -6.7380194    565.29941  0.032046452  0.032121942            3 
 1471000     1.013804   -6.7462536    566.07474  0.032068589  0.032113449            6 
 1472000    1.0226512   -6.7330961    564.49216   0.03195721  0.032105031            5 
 1473000    1.0296841   -6.7580962    565.83044  0.032011226  0.032096453            3 
 1474000    1.0161048   -6.7928207    563.27429  0.031844996   0.03208767            2 
 1475000    1.0211819   -6.7737881    565.44203  0.031945877  0.032078986            2 
 1476000    1.0105229   -6.7317153    566.01558  0.031956616  0.032070291            1 
 1477000    1.0219947   -6.7723171    565.30316  0.031894784   0.03206181            2 
 1478000    1.0228217     -6.76023    564.54037  0.031830197  0.032053285            7 
 1479000     1.028198    -6.747045    566.22425  0.031903552   0.03204486            4 
 1480000    1.0336851   -6.7737657    565.71637  0.031853399  0.032036405            2 
 1481000   0.99846008   -6.7337089    567.84451  0.031951638  0.032027893            2 
 1482000    1.0349166   -6.7232376    567.95195   0.03193612  0.032019538            5 
 1483000   0.99770219   -6.7465305    568.64473  0.031953514  0.032011166            2 
 1484000     1.023944   -6.7570862    569.38012  0.031973277  0.032002892            3 
 1485000    1.0050303   -6.7749556    568.17055  0.031883869  0.031994637            2 
 1486000    1.0240549   -6.7847347    570.89209  0.032015034  0.031986336            3 
 1487000    1.0190829   -6.7552475    569.84785  0.031934984  0.031978258            2 
 1488000    1.0319798    -6.769802    568.74941  0.031852005  0.031969916            3 
 1489000    1.0066586   -6.7204814    570.35384  0.031920407  0.031961611            6 
 1490000     1.005535   -6.7550012    570.09343   0.03188442  0.031953282            2 
 1491000    1.0285406   -6.7938049    570.58043  0.031890254  0.031944888            4 
 1492000    1.0143364   -6.7614965    572.11748   0.03195473  0.031936531            6 
 1493000    1.0299494   -6.7184447    571.58267  0.031903475  0.031928244            2 
 1494000    1.0153241   -6.7476322     571.3374   0.03186844   0.03191993            8 
 1495000    1.0046052   -6.7127072    571.45673  0.031853776  0.031911573            2 
 1496000   0.97346519    -6.760725    570.45856  0.031776881  0.031903262            2 
 1497000    1.0047968   -6.7756875    571.07543  0.031789993  0.031894876            7 
 1498000    1.0232229   -6.7489551    571.65144  0.031800814  0.031886481            4 
 1499000    1.0052898   -6.7968553    571.90101  0.031793474  0.031878057            2 
 1500000     1.018447   -6.7326007    572.87898   0.03182661  0.031869762            3 
 1501000    1.0083949   -6.7672077    572.92552   0.03180799  0.031861442            6 
 1502000    1.0182275   -6.7886176    571.56558  0.031711361  0.031852961            8 
 1503000    1.0008403   -6.7842907    572.38323  0.031735597  0.031844519            4 
 1504000    1.0067629   -6.7921782    570.95735  0.031635492  0.031836022            2 
 1505000   0.98827865   -6.7279568    573.03513   0.03172952  0.031827559            3 
 1506000    1.0219727   -6.7914626    573.43841  0.031730766  0.031819141            2 
 1507000     1.015439   -6.7626582    572.80803  0.031674852  0.031810689            4 
 1508000      1.00942   -6.7200812    575.31894  0.031792603  0.031802316            3 
 1509000     1.005563   -6.7501218    574.27768  0.031714031  0.031793871            2 
 1510000    1.0214477   -6.7498693    573.12845  0.031629606  0.031785498            4 
 1511000    1.0074737   -6.7513097    576.61588  0.031801008  0.031777152            3 
 1512000   0.99597428   -6.7601374    575.56591  0.031722107  0.031768795            5 
 1513000   0.98800743    -6.775732    574.82343  0.031660246  0.031760503            2 
 1514000    1.0140782   -6.7769327    573.94838   0.03159117  0.031752012            5 
 1515000    1.0041445   -6.7709063    575.22752  0.031640678  0.031743631            3 
 1516000    1.0185734   -6.7753545    574.97031  0.031605668   0.03173512            3 
 1517000    1.0045615   -6.7542831    576.59544  0.031674107   0.03172669            2 
 1518000    1.0176467   -6.7865602    573.73434  0.031496176  0.031718207            3 
 1519000    1.0364829   -6.7828472     575.8454  0.031591255   0.03170959            1 
 1520000     1.007199   -6.7627171    576.74193  0.031619624   0.03170109            2 
 1521000    1.0164556    -6.764572     577.2709  0.031627816  0.031692648            4 
 1522000    1.0057926   -6.8075336    574.91734  0.031478173  0.031684001            3 
 1523000   0.99491235   -6.7351095    577.23808  0.031584487  0.031675479            1 
 1524000   0.99404494   -6.7428817    577.32103  0.031568298  0.031666864            2 
 1525000    1.0036914   -6.7478871    577.55165    0.0315602  0.031658316            2 
 1526000    1.0025112   -6.7781542    576.33166  0.031472895  0.031649755            4 
 1527000    1.0058577   -6.7673172    577.06389  0.031492245  0.031641127            5 
 1528000   0.98400248   -6.7524344    575.74501  0.031399706  0.031632396            6 
 1529000   0.99471219   -6.7771064    577.46718  0.031473032  0.031623846            3 
 1530000   0.99452542   -6.7513569     577.0892  0.031431874  0.031615183            3 
 1531000    1.0125492    -6.763768    578.48584  0.031487364    0.0316067            3 
 1532000    1.0119411   -6.7869734    576.98058  0.031384931   0.03159817            8 
 1533000    1.0167899   -6.7606374    579.43347  0.031497797  0.031589515            6 
 1534000    1.0253832   -6.7555919    579.51726  0.031481815  0.031581006            4 
 1535000    1.0216849   -6.7434768    579.68825  0.031470589  0.031572529            1 
 1536000    1.0183839   -6.7681532    579.89225  0.031461168  0.031564123            2 
 1537000    1.0117366   -6.7778696    578.77426  0.031380084   0.03155574            3 
 1538000    1.0147802   -6.7443537    579.01879  0.031372929  0.031547345            2 
 1539000   0.99495131   -6.7910719    579.91541  0.031401094   0.03153888            5 
 1540000    1.0046405   -6.7735321    581.79505  0.031482416  0.031530412            3 
 1541000      1.01863    -6.733159    582.02438  0.031474388  0.031522036            3 
 1542000     1.012866   -6.7374659     583.2629  0.031520909  0.031513787            3 
 1543000   0.99929236   -6.7718778    581.68929  0.031415494  0.031505629            2 
 1544000   0.99551877   -6.7750818    582.06653  0.031415508  0.031497376            4 
 1545000    0.9925554   -6.7860276     581.8424  0.031383085   0.03148896            5 
 1546000    1.0052365   -6.7813686    583.92817  0.031475214  0.031480694            2 
 1547000   0.99435125   -6.7727505     583.0209  0.031405996  0.031472295            3 
 1548000    1.0271707   -6.7693957    584.21927  0.031450219  0.031464017            6 
 1549000    1.0224281   -6.7418075    584.32807  0.031435769  0.031455722            2 
 1550000   0.98589703   -6.7766694    583.95402  0.031395377  0.031447436            5 
 1551000     1.001471    -6.760633     584.4675  0.031402724  0.031439133            6 
 1552000    1.0003825   -6.7904297    585.27558  0.031425879  0.031430877            2 
 1553000    1.0035059   -6.7853975     584.3583  0.031356423  0.031422539            6 
 1554000    1.0140651   -6.7786296    585.15921  0.031379194  0.031414289            4 
 1555000    1.0041257   -6.7661982    586.05338  0.031406933  0.031406107            1 
 1556000    1.0105367   -6.7175389    587.72682  0.031476372  0.031398076            2 
 1557000    0.9892308   -6.7746027    587.28123  0.031432307  0.031390067           11 
 1558000   0.98715392   -6.7593025     587.5809  0.031428161  0.031381912            3 
 1559000    1.0004659   -6.7709059    586.95574  0.031374585  0.031373868            2 
 1560000    0.9997805   -6.7409513    586.32368  0.031320709  0.031365811            7 
 1561000    1.0116228   -6.7739097    586.76272  0.031324083   0.03135773            2 
 1562000   0.98600239    -6.793257    585.40157  0.031231411   0.03134962            5 
 1563000   0.99039418   -6.7427004    587.50241  0.031323439  0.031341502            2 
 1564000   0.99377503   -6.7595316    587.02244  0.031277837  0.031333261            8 
 1565000    1.0079512   -6.7756698    588.11631  0.031316097  0.031325075            3 
 1566000   0.99851304   -6.7563732    587.71421  0.031274703  0.031316841            2 
 1567000   0.99927682   -6.7658179    588.07355  0.031273854  0.031308609            3 
 1568000    1.0187017   -6.7897342    587.22585  0.031208857  0.031300266            3 
 1569000    1.0127049   -6.7561423    586.54259  0.031152676  0.031291934            2 
 1570000    1.0005804   -6.7834102    590.46986  0.031341288   0.03128376            2 
 1571000    1.0093762   -6.7782045    589.80039  0.031285826  0.031275562            4 
 1572000   0.97834228   -6.7565006    590.62844   0.03130982   0.03126744            4 
 1573000   0.99799664   -6.7745018    590.31032  0.031273062  0.031259477            2 
 1574000    1.0073107   -6.7702023    590.43193  0.031259632  0.031251499            1 
 1575000    1.0159773   -6.8032233    589.92259  0.031212835  0.031243519            3 
 1576000    1.0035876   -6.7739118     592.2014  0.031313526  0.031235547            5 
 1577000   0.99785805   -6.8207388    591.21385  0.031241484  0.031227511            3 
 1578000    1.0106395   -6.7832928    590.81008  0.031200363  0.031219471            4 
 1579000   0.98844529   -6.7954327    592.67899  0.031279237  0.031211446            3 
 1580000   0.99044313   -6.7566811     590.7837  0.031159478  0.031203497            4 
 1581000    1.0137749   -6.7687141    593.82798  0.031300231  0.031195426            2 
 1582000    1.0089022   -6.8100127    590.92249  0.031127396  0.031187333            4 
 1583000    1.0151432   -6.7781566    592.26195  0.031178245  0.031179228            2 
 1584000   0.98336434    -6.776217    592.09054  0.031149544  0.031171124            4 
 1585000    1.0009447   -6.7672663    593.26289  0.031191529  0.031163014            5 
 1586000   0.99642103   -6.8002271    590.85983  0.031045598  0.031154815            6 
 1587000   0.98545965    -6.760962    592.01512    0.0310867  0.031146445            5 
 1588000    1.0042986   -6.7755438      592.261  0.031080027  0.031138191            2 
 1589000    1.0044268   -6.8350894    592.17188  0.031055794  0.031129821            4 
 1590000   0.98408553   -6.7855357    592.49912  0.031053413  0.031121516            4 
 1591000   0.98992933   -6.7660666    591.88057  0.031001496  0.031113259            5 
 1592000   0.98021384    -6.785842    592.23196  0.031000416  0.031104993            2 
 1593000   0.98441023   -6.8011655    592.31149  0.030985117  0.031096664            4 
 1594000   0.98642174   -6.7894024    591.73123  0.030935342  0.031088399            3 
 1595000   0.99953901   -6.8224734    594.26298  0.031048223      0.03108            3 
 1596000    1.0081493   -6.7621501    594.31702   0.03103159  0.031071772            3 
 1597000   0.96911442    -6.761328    594.39191  0.031016067  0.031063695            4 
 1598000   0.99368758   -6.8024642    593.17494  0.030933194  0.031055428            3 
 1599000    1.0131876   -6.8345108    593.05821  0.030907766  0.031047136            4 
 1600000     1.005043   -6.7616465    595.49416  0.031015321  0.031038764            5 
 1601000   0.99963575    -6.774558     595.4136  0.030991755  0.031030624            4 
 1602000    1.0048156   -6.7517706    597.31958  0.031071555  0.031022513            1 
 1603000   0.99650734   -6.7927166    597.79443  0.031076857  0.031014404            2 
 1604000      0.99905   -6.8018835    597.47831   0.03104106  0.031006249            5 
 1605000   0.97473165   -6.7994981    597.39271  0.031017274  0.030998163            5 
 1606000   0.99029728   -6.8207892    597.15115  0.030985427  0.030990091            3 
 1607000   0.99042405   -6.7770105    596.20926  0.030917303  0.030982037            3 
 1608000   0.99682347   -6.7953535    597.23175  0.030951065  0.030974067            2 
 1609000   0.99434817   -6.7720153    597.96189  0.030969644  0.030966116            5 
 1610000   0.98473071   -6.7789533    599.33076  0.031021261  0.030958289            4 
 1611000    1.0014437   -6.7949802    599.17073  0.030993727   0.03095037            6 
 1612000    1.0052707    -6.785004    598.86967  0.030958937  0.030942375            4 
 1613000   0.98229598   -6.8047299    600.22939  0.031009991  0.030934459            7 
 1614000   0.99022542   -6.7742129    601.14655  0.031038133  0.030926557            3 
 1615000    1.0036526   -6.7990678    599.22017  0.030919513  0.030918591            3 
 1616000    1.0154843   -6.7762475    598.03452  0.030839239  0.030910543            3 
 1617000   0.99596104   -6.7915294    602.23893  0.031036845  0.030902592            3 
 1618000    0.9703934   -6.8267581     600.1393  0.030909523    0.0308946            2 
 1619000   0.99053362   -6.8255956    599.99092  0.030882794  0.030886492            4 
 1620000   0.98592123   -6.8084983    600.46221  0.030887974  0.030878412            7 
 1621000   0.98016444   -6.7878569    602.16635  0.030956526  0.030870496            2 
 1622000   0.98488325   -6.7958733    601.83438  0.030920386  0.030862536            3 
 1623000   0.95965929   -6.7702552    602.14722  0.030917397  0.030854667            5 
 1624000    1.0104377   -6.7959012    602.84121   0.03093397  0.030846707            3 
 1625000   0.98284358    -6.784635     603.5552  0.030951549  0.030838788            3 
 1626000    0.9956512   -6.7955486    603.15602  0.030912055  0.030830884            2 
 1627000   0.99488729    -6.796018    601.18672   0.03079219  0.030822847            1 
 1628000    1.0015624   -6.8039209     603.2358  0.030878163  0.030814818            3 
 1629000   0.97338638   -6.7966394     602.5092  0.030822038  0.030806767            2 
 1630000   0.98427434   -6.7924568    604.57867   0.03090893  0.030798742            3 
 1631000    0.9930961   -6.8228824    603.76854  0.030848587  0.030790664            4 
 1632000   0.98293433   -6.7768543    605.60589  0.030923503  0.030782738            2 
 1633000    1.0046195   -6.8252416    605.16325  0.030881979  0.030774845            8 
 1634000   0.99840093    -6.782225      603.552  0.030780906   0.03076689            3 
 1635000   0.98674273   -6.7761497    605.20432  0.030846296  0.030759028            6 
 1636000   0.98417577   -6.7945894     603.0738  0.030718918  0.030751222            2 
 1637000   0.99080928   -6.7656162    606.42778  0.030870891  0.030743401            2 
 1638000   0.99482728   -6.8163934    604.89374     0.030774  0.030735566            4 
 1639000   0.98934919   -6.8017575    604.56812  0.030738668  0.030727607            4 
 1640000   0.97066482   -6.7976341    604.81099  0.030732266  0.030719648            7 
 1641000   0.97496153    -6.831374    605.64804  0.030756045  0.030711642            2 
 1642000    1.0115673   -6.7754888    606.85279  0.030798457  0.030703636            3 
 1643000   0.99468775   -6.8214696    604.40833  0.030655728  0.030695558            5 
 1644000   0.95993979    -6.812775    606.22952  0.030729396  0.030687597            3 
 1645000    0.9734225   -6.8238858    605.70428  0.030684108  0.030679641            4 
 1646000   0.97518111   -6.8394656    606.38674  0.030700017  0.030671709            7 
 1647000   0.99655643   -6.7973081    607.03532  0.030714194  0.030663808            2 
 1648000   0.96997548   -6.7677424    608.09547  0.030749164  0.030655964            3 
 1649000    1.0187967   -6.7951339    609.04587  0.030778546  0.030648156           11 
 1650000   0.97080901   -6.8162604    609.08242  0.030761738  0.030640329            3 
 1651000   0.97334649   -6.7927782    608.62019  0.030719775  0.030632439            3 
 1652000   0.99702588   -6.7884519     608.1208  0.030675989  0.030624661            7 
 1653000   0.97465761   -6.7906934    608.86093  0.030694743  0.030616834            5 
 1654000   0.96496121   -6.7994268    610.96924  0.030782408  0.030609081            4 
 1655000   0.97459906   -6.8268436     608.0082  0.030614713  0.030601256            3 
 1656000   0.98796093   -6.7988959    608.65061  0.030628553  0.030593454            4 
 1657000   0.94740876   -6.7859551    609.89484  0.030672643  0.030585751            5 
 1658000    1.0010756   -6.8025207    608.76828  0.030597521   0.03057789            3 
 1659000   0.96749497    -6.801403    610.46425  0.030664268    0.0305701            2 
 1660000    1.0056283   -6.7554942    610.20361  0.030632711  0.030562265            5 
 1661000   0.98796853    -6.818449    611.69009  0.030688846  0.030554572            6 
 1662000   0.99698187   -6.8363096    609.66014  0.030568599  0.030546897            2 
 1663000   0.97850633   -6.8252602    610.43764  0.030589178  0.030539081            4 
 1664000    1.0045906   -6.7950249    612.17271  0.030657688  0.030531295            5 
 1665000   0.96986489   -6.8148616      612.577  0.030659509  0.030523495            3 
 1666000   0.98562411    -6.786576    610.81061  0.030552751  0.030515731            3 
 1667000    1.0021151   -6.8226932    611.08457  0.030548119  0.030507925            5 
 1668000   0.99423438   -6.8257672    613.38131   0.03064455  0.030500063            4 
 1669000   0.97842504   -6.8021277    613.39099  0.030626672  0.030492317            5 
 1670000   0.98410788   -6.8191056    610.42422   0.03046029  0.030484445            9 
 1671000   0.99520329   -6.8440047    611.07033  0.030474283  0.030476494            6 
 1672000    0.9908278   -6.8467745    613.11618  0.030558023  0.030468562            3 
 1673000   0.95477958   -6.7934037    614.78457  0.030622861  0.030460781            4 
 1674000   0.98388735   -6.7907472    613.74321  0.030552729  0.030452992            2 
 1675000   0.98066546   -6.8041574    613.34101  0.030514478  0.030445258            8 
 1676000   0.96182937   -6.8238306    611.92189   0.03042571  0.030437378            5 
 1677000   0.99837941   -6.7970792    613.54093  0.030488021  0.030429567            4 
 1678000   0.99624834   -6.7923769    615.08924  0.030546744  0.030421859            3 
 1679000   0.95355113   -6.7962478    614.09111  0.030479011  0.030414201            2 
 1680000   0.97118476   -6.8149372    613.97209  0.030454965  0.030406441            4 
 1681000   0.98514337   -6.8352605    616.23522  0.030549039  0.030398533            2 
 1682000   0.98998877    -6.814909    615.05517  0.030472412  0.030390722            3 
 1683000   0.97863266   -6.8335579    616.41365  0.030521571  0.030382856            2 
 1684000   0.99049493   -6.8057393    615.51833  0.030459142  0.030374981            3 
 1685000   0.98256196    -6.860999    613.38031  0.030335327  0.030367015            7 
 1686000    1.0052688   -6.8505515    617.31596  0.030511861  0.030359033            6 
 1687000    0.9889136    -6.835884    615.17081  0.030387809  0.030351115            4 
 1688000   0.97370253   -6.8019995    616.78193  0.030449345  0.030343356            5 
 1689000   0.98815523   -6.7594243    617.25814  0.030454813  0.030335677            3 
 1690000   0.98900664   -6.8262326      616.224  0.030385799  0.030328019            3 
 1691000   0.96738558   -6.8502867    617.09281  0.030410645  0.030320127            2 
 1692000   0.95906264   -6.8378991    616.28225  0.030352751  0.030312255            2 
 1693000   0.95537581   -6.8143342    614.11961  0.030228372  0.030304314            4 
 1694000   0.97956406   -6.8203308    619.10664  0.030455856  0.030296495            2 
 1695000   0.97240744   -6.8085423    617.15782  0.030342076  0.030288688            3 
 1696000    0.9698918   -6.8282279    618.14105  0.030372497  0.030280919            7 
 1697000   0.95589795   -6.8122335    618.45449  0.030369991  0.030273037            4 
 1698000    0.9735396   -6.8409461    618.05572  0.030332535  0.030265285            2 
 1699000   0.99979817    -6.806453    619.83147  0.030401779  0.030257414            5 
 1700000   0.97599915   -6.8221299    617.72124  0.030280453  0.030249527            3 
 1701000   0.96037162   -6.7699547    620.61395  0.030404367  0.030241713            4 
 1702000   0.97418418   -6.8122886    620.06586  0.030359668  0.030233986            6 
 1703000   0.99509417   -6.8126352    619.55293  0.030316741  0.030226173            4 
 1704000   0.97644992   -6.8166839    620.32227  0.030336574  0.030218428            4 
 1705000   0.95961169    -6.766999    621.61806  0.030382114  0.030210703            2 
 1706000   0.98648555   -6.8041695     621.0519   0.03033665  0.030203073            3 
 1707000   0.98053718   -6.8173056    621.47048  0.030339313  0.030195348            4 
 1708000   0.96160173   -6.8460728    621.41344  0.030318767  0.030187652            3 
 1709000   0.94522041   -6.8008974    621.37451  0.030299128  0.030179916            5 
 1710000   0.99243787   -6.8287431     620.8877  0.030257685  0.030172144            1 
 1711000   0.97559074   -6.8297651    623.65382  0.030374723  0.030164471            2 
 1712000   0.96724028   -6.8267956    621.06154  0.030230799  0.030156851            3 
 1713000    1.0067658   -6.8134748    623.31711   0.03032288  0.030149119            3 
 1714000   0.98788886   -6.8286099    623.11607  0.030295414  0.030141417            6 
 1715000    1.0009099   -6.8228874    623.20336   0.03028199  0.030133756            3 
 1716000   0.97930234   -6.7935011    622.89132   0.03024919  0.030126102            3 
 1717000   0.97095993   -6.8086741    621.53351  0.030165672  0.030118438            3 
 1718000   0.96405903   -6.8104939    623.88958  0.030262397  0.030110748            2 
 1719000   0.98359005   -6.8209674    622.63797  0.030184117  0.030103139            3 
 1720000   0.96075399   -6.8517995    623.58382  0.030212394  0.030095433            7 
 1721000    0.9601397   -6.8564237    622.50612  0.030142655  0.030087711            4 
 1722000   0.98252934   -6.8322387    624.75314  0.030233892  0.030080073            3 
 1723000   0.96561033   -6.8480988    626.20079  0.030286361  0.030072477            4 
 1724000   0.94933467   -6.8381977    624.92641  0.030207193  0.030064868            3 
 1725000   0.96417336   -6.8134708    624.45537  0.030166926  0.030057322            3 
 1726000   0.98268743   -6.8481412    624.32261  0.030143038  0.030049758            2 
 1727000   0.98831597   -6.8516691     623.8023  0.030100478  0.030042044            3 
 1728000   0.98961816   -6.8315347    626.66299  0.030221016  0.030034419            7 
 1729000   0.96348633   -6.8461034    626.24316  0.030183303  0.030026782            4 
 1730000   0.98073175   -6.7873051    627.13907  0.030209011  0.030019209            2 
 1731000   0.98489494    -6.826352     627.3729  0.030202816  0.030011736            6 
 1732000   0.94531746   -6.8165404    627.20359  0.030177232  0.030004204           10 
 1733000   0.96089885   -6.8409337    627.71579  0.030184449  0.029996806            4 
 1734000   0.98399225   -6.8219908    627.15788  0.030140229  0.029989264            2 
 1735000   0.96554344   -6.8096627    626.97904  0.030114267   0.02998165            4 
 1736000    0.9820141   -6.8545636    625.30267  0.030016449   0.02997398            9 
 1737000   0.97159943   -6.8174642    626.95173  0.030078283  0.029966353            2 
 1738000   0.96702544   -6.8511736     626.2654  0.030028069  0.029958669            5 
 1739000     0.980927   -6.8207876    627.68996  0.030079066   0.02995101            4 
 1740000   0.99067745   -6.8353728     628.3634  0.030094033  0.029943408            2 
 1741000   0.95051204    -6.838025    629.18533  0.030116089    0.0299359            3 
 1742000   0.99180158   -6.8365135    629.21206  0.030100079  0.029928333            5 
 1743000   0.97088528   -6.8180315    629.38436  0.030091048  0.029920834            3 
 1744000   0.98221764   -6.7962542    631.98888  0.030198246  0.029913276            2 
 1745000   0.96909156   -6.8394692    630.47829  0.030108801  0.029905748            7 
 1746000    1.0019657   -6.8402073    629.17933  0.030029559  0.029898057            3 
 1747000   0.97481457   -6.8427894    628.55763  0.029982715  0.029890329            4 
 1748000   0.98974791    -6.809297    629.39045  0.030005266  0.029882607            2 
 1749000   0.98239464   -6.8274076    629.28317  0.029982998  0.029874934            5 
 1750000   0.97567602   -6.8119057    629.55672  0.029978891  0.029867222            5 
 1751000   0.97236193   -6.8364662    629.65483   0.02996644  0.029859489            7 
 1752000   0.95426192   -6.8605059    629.80403  0.029956432  0.029851727            4 
 1753000   0.97322215   -6.8375737     630.5419   0.02997442  0.029843878            5 
 1754000   0.97334425   -6.8728143    627.35457  0.029805899  0.029836083            3 
 1755000   0.95602712   -6.8291538    630.44457   0.02993564  0.029828245            3 
 1756000   0.97634182   -6.8803352    627.74781  0.029790614   0.02982034            4 
 1757000   0.97791703   -6.8720438    628.96607  0.029831439  0.029812488            4 
 1758000   0.98518722   -6.8105129     632.7131  0.029992088  0.029804683            2 
 1759000    0.9796114   -6.8481444    630.99233  0.029893516  0.029796954            3 
 1760000   0.95713139   -6.8070001    630.90637  0.029872461  0.029789218            3 
 1761000   0.97675161   -6.8419915    633.39075  0.029973062  0.029781476            7 
 1762000   0.95905028     -6.83188    632.18371  0.029898965  0.029773759            5 
 1763000   0.98655155   -6.8386279    633.40008  0.029939501  0.029766168            5 
 1764000   0.96509851     -6.84313    630.21495  0.029772059  0.029758495            5 
 1765000   0.97248204   -6.8374273    631.96849  0.029837983  0.029750784            5 
 1766000   0.95846942   -6.8320289    633.90384  0.029912412  0.029743172            6 
 1767000   0.97446192   -6.8379941    632.91512  0.029848855  0.029735607            3 
 1768000   0.98764754   -6.8379862    633.64475  0.029866362  0.029728085            2 
 1769000     0.975182   -6.8517094    633.22478  0.029829696  0.029720523            3 
 1770000   0.99105922    -6.862594    632.76332  0.029791117  0.029712769            3 
 1771000    0.9674502   -6.8214818    636.15104  0.029933702  0.029705133            5 
 1772000   0.96990838   -6.8022827    634.30612  0.029830047  0.029697603            4 
 1773000   0.95682953   -6.8404633    634.77963  0.029835478  0.029690036            5 
 1774000   0.98895003   -6.8555757    636.07213  0.029879375  0.029682521           14 
 1775000   0.94448394   -6.8722765    635.01856  0.029813078   0.02967493            6 
 1776000   0.96627238   -6.8393301    635.32422  0.029810634  0.029667329           12 
 1777000   0.97623857   -6.8019741    636.31693  0.029840411  0.029659817            3 
 1778000   0.96424006   -6.8772903    634.86524  0.029755589  0.029652348            2 
 1779000   0.97347112   -6.8401711    636.65721  0.029822804     0.029645            3 
 1780000   0.96556332   -6.8509412    637.47985  0.029844562  0.029637594            3 
 1781000   0.97034109   -6.8457742    639.15542  0.029906205  0.029630293            6 
 1782000   0.97643755   -6.8659315     638.1268   0.02984132  0.029622881            5 
 1783000    0.9653183   -6.8125417    637.54428  0.029797359   0.02961543            8 
 1784000   0.95401167   -6.8462694    638.67886  0.029833654  0.029608061            8 
 1785000    0.9735364   -6.8554189    636.62586  0.029721095  0.029600607            4 
 1786000   0.96871298   -6.8720202    638.33032  0.029783983  0.029593113            2 
 1787000    0.9713309   -6.8379372    638.26163  0.029764112  0.029585638            4 
 1788000   0.96778374   -6.8452917     638.3388  0.029751062  0.029578229            3 
 1789000   0.96307498   -6.8482495    637.86084  0.029712169  0.029570807            3 
 1790000   0.96059311   -6.8514456    639.50756  0.029772233  0.029563381            2 
 1791000   0.95664876   -6.8129328    640.52181  0.029802802  0.029555961            7 
 1792000   0.97457807   -6.8458969    638.63112  0.029698248  0.029548546            5 
 1793000   0.94168499    -6.879667    638.83267  0.029691052   0.02954103            3 
 1794000   0.95122289   -6.8403726    639.74566  0.029716911  0.029533616            5 
 1795000   0.95844675   -6.8266152    640.21191  0.029722001  0.029526264            5 
 1796000   0.97087108   -6.8569014     640.3046  0.029709753  0.029518856            3 
 1797000    0.9257149   -6.8309029    642.32202  0.029786775  0.029511464            3 
 1798000   0.96217544   -6.8676305    641.36934  0.029726054  0.029504098            3 
 1799000   0.94945598   -6.8577945    640.55095  0.029671621  0.029496695            7 
 1800000    0.9885462   -6.8327554     642.1836  0.029730722  0.029489416            4 
 1801000   0.95008532    -6.826402    641.45951   0.02968071   0.02948216            5 
 1802000   0.95936188   -6.8745558    641.43346  0.029663035  0.029474822            4 
 1803000   0.96020174   -6.8415283    641.22832  0.029637101  0.029467508            3 
 1804000   0.97337692   -6.8305624    641.16944  0.029617953  0.029460132            6 
 1805000   0.97155865   -6.8608033    643.09964  0.029690658  0.029452807            5 
 1806000    0.9824734   -6.8208384    643.61766   0.02969812  0.029445567            6 
 1807000   0.97713526   -6.8720206    641.11472  0.029566257  0.029438303            4 
 1808000   0.95105507   -6.8729658    644.95107  0.029726727  0.029431038            4 
 1809000   0.97601516   -6.8798596    643.21109  0.029630141  0.029423755            3 
 1810000   0.97356607   -6.8811095    644.95384  0.029694007  0.029416496            8 
 1811000   0.94764086   -6.8701032    642.82023  0.029579433  0.029409242            2 
 1812000   0.96393888   -6.8173048    644.89345  0.029658455  0.029401988            2 
 1813000    0.9519603   -6.8538394    644.56054  0.029626794  0.029394782           12 
 1814000   0.95932824   -6.8365698    643.91176  0.029580658  0.029387442            3 
 1815000   0.94977547    -6.873577    644.76856  0.029603699  0.029380198            3 
 1816000   0.94086639   -6.8534944     644.7879  0.029588285  0.029372918            3 
 1817000   0.97408393   -6.8564397    645.26378  0.029593826  0.029365727            3 
 1818000   0.97320689   -6.8834672    647.76599  0.029692244  0.029358615            3 
 1819000   0.97133505   -6.8602155    647.46709  0.029662227   0.02935155            2 
 1820000   0.97466464   -6.8931544    647.12594  0.029630308  0.029344494            6 
 1821000   0.96792794   -6.8402081    648.62598  0.029682683  0.029337446            2 
 1822000   0.95028009    -6.857992    648.44336  0.029658039  0.029330248            4 
 1823000   0.93999163    -6.874092    645.88897  0.029525003  0.029322997            3 
 1824000    0.9909893   -6.8855332    648.03475  0.029606851   0.02931581            5 
 1825000   0.95893964   -6.8592359    646.89534    0.0295386  0.029308695            3 
 1826000    0.9716424   -6.8724106    648.03772  0.029574558  0.029301563            3 
 1827000   0.96647388   -6.8944278    647.56092  0.029536623  0.029294418            5 
 1828000   0.96158322   -6.8654177    648.86752  0.029580029  0.029287182            9 
 1829000   0.96164314   -6.8490388    650.24148  0.029626457  0.029280124            2 
 1830000    0.9554793   -6.8583853    649.09826  0.029558209  0.029273179            4 
 1831000   0.94036135   -6.8844852    648.95506  0.029535548  0.029266102            4 
 1832000   0.95078894   -6.8748798    649.27293  0.029533885  0.029259013            5 
 1833000    0.9611857   -6.8679454    649.98245  0.029550029  0.029251907            7 
 1834000   0.95593441   -6.8858966    649.42425  0.029508554   0.02924476            3 
 1835000   0.96857178   -6.8460383    649.06462  0.029476141  0.029237593            5 
 1836000   0.97201565   -6.8808923     649.0474  0.029459305   0.02923031            3 
 1837000   0.96002778   -6.8903185    648.73609  0.029429146  0.029222993            5 
 1838000   0.96840842    -6.862866    649.40874  0.029443632   0.02921571            8 
 1839000   0.95087559   -6.8613416    649.89356   0.02944959  0.029208502            3 
 1840000    0.9690839   -6.8752054    650.19296  0.029447145  0.029201221            2 
 1841000   0.95823132   -6.8838949    650.73659  0.029455757  0.029194012            3 
 1842000   0.96429218    -6.886867    650.04495  0.029408476  0.029186746            5 
 1843000   0.95465937    -6.881971    651.91085  0.029476888  0.029179598            5 
 1844000   0.96878789   -6.8589207    649.59389  0.029356195  0.029172349            5 
 1845000    0.9382985   -6.8764019    650.26764  0.029370716  0.029165169            3 
 1846000   0.96671513   -6.8952093    651.44418  0.029407917  0.029157905            4 
 1847000   0.94695118   -6.9034405    649.38726  0.029299191  0.029150525            3 
 1848000   0.96813685   -6.9156672    650.61664  0.029338773  0.029143258            5 
 1849000   0.94413577   -6.8363067    651.73976  0.029373524  0.029136052            3 
 1850000    0.9450745   -6.8529579     650.8537  0.029317734  0.029128806            3 
 1851000   0.96162959   -6.8596643    653.53008  0.029422388   0.02912162            2 
 1852000   0.95339221   -6.8520113    653.60585   0.02940991  0.029114418            4 
 1853000   0.96348064   -6.9186452      652.374   0.02933864  0.029107256            4 
 1854000   0.94551291    -6.850256    652.64921  0.029335186  0.029100045            3 
 1855000   0.96627798    -6.841666    652.26971  0.029302323  0.029092784            8 
 1856000   0.97668744   -6.8713371    653.06168  0.029322094  0.029085472            6 
 1857000   0.96665913   -6.8558167    651.92925  0.029255486  0.029078234            4 
 1858000   0.95183066    -6.863901    653.67954  0.029318243  0.029070909            3 
 1859000   0.95515342   -6.8755296    650.94868  0.029180055  0.029063667            3 
 1860000   0.94875122   -6.8903241    652.08832  0.029215426   0.02905629            5 
 1861000   0.96713998   -6.8472138       652.03  0.029197116  0.029048911            3 
 1862000   0.94775311   -6.8568496     655.1469  0.029320932  0.029041417            4 
 1863000     0.964602      -6.8486    653.14148  0.029215489  0.029034001            5 
 1864000   0.94321511   -6.8734911    653.82828   0.02923052  0.029026716            6 
 1865000     0.957652   -6.8830897    652.38657  0.029150428  0.029019272            7 
 1866000   0.95053987    -6.868613    654.45367   0.02922712  0.029011795            2 
 1867000   0.95761825   -6.9111448    654.24421  0.029202116  0.029004334            7 
 1868000   0.93627009   -6.8648076    653.84819  0.029168817   0.02899683            4 
 1869000   0.94791689   -6.8372554    655.90196  0.029244782  0.028989345            4 
 1870000   0.95888189    -6.853771    654.62354  0.029172172  0.028982041            3 
 1871000   0.97827323   -6.9047687    654.13799  0.029134954  0.028974657            2 
 1872000   0.95648203   -6.8547005    656.52197  0.029225515  0.028967339            5 
 1873000   0.95527027   -6.8538386    656.61527  0.029214063  0.028960059            9 
 1874000   0.96165363   -6.8275875    657.24748  0.029226587  0.028952828            3 
 1875000   0.95156407     -6.87619    656.92583  0.029196704  0.028945583            5 
 1876000   0.94380596   -6.8718902    656.50702  0.029162536  0.028938321            3 
 1877000   0.94111903   -6.8682233    656.02319  0.029125519  0.028930999            4 
 1878000   0.95018227   -6.8884424    656.97075  0.029152057  0.028923708            5 
 1879000    0.9445732   -6.8742514    654.96966  0.029047794  0.028916415            2 
 1880000   0.96370371   -6.8910573    655.15733  0.029040662  0.028908986            3 
 1881000   0.96374852   -6.8780348    657.25903  0.029118334  0.028901585            3 
 1882000   0.96131519   -6.9232054    656.31996   0.02906128  0.028894051            7 
 1883000   0.95820791   -6.8729037      657.204  0.029084971  0.028886614            5 
 1884000   0.94633893   -6.8986125    656.54541  0.029040402  0.028879192            5 
 1885000   0.94530182   -6.8844761    657.10059   0.02904954  0.028871745            7 
 1886000   0.94074195   -6.8715695    658.75977  0.029107448  0.028864241            7 
 1887000   0.95424636   -6.8809739     656.2419   0.02898083  0.028856731            2 
 1888000   0.95663195    -6.873677    658.32188  0.029057286  0.028849244            2 
 1889000   0.96878097   -6.8521004    658.74227   0.02906045  0.028841877            7 
 1890000   0.97107408   -6.9035711    657.78435  0.029002837  0.028834463            6 
 1891000   0.93101579   -6.8741136    659.90649  0.029081019  0.028827145            6 
 1892000   0.95317845   -6.8739994    659.45284  0.029045668  0.028819718            9 
 1893000   0.93599812    -6.879144    658.33401  0.028981071  0.028812357            5 
 1894000   0.94196194   -6.8664012    659.97067   0.02903778  0.028804957            2 
 1895000   0.95051036   -6.8914084    658.43731  0.028955027  0.028797532            2 
 1896000   0.93927295   -6.9015484    659.25612  0.028975744  0.028790099            4 
 1897000   0.96701859     -6.88542     658.3539  0.028920836   0.02878256            6 
 1898000   0.96124636   -6.8634992    660.20729  0.028986973  0.028775078            2 
 1899000   0.94504231   -6.8598825    659.50596  0.028940932  0.028767644            4 
 1900000   0.97092651   -6.8665458    658.94202  0.028900966  0.028760146            5 
 1901000   0.93931983   -6.8941072    659.88015  0.028926887  0.028752635            5 
 1902000   0.94204149   -6.8949238    659.65657  0.028901883  0.028745137            5 
 1903000   0.92361117   -6.8854476    659.70593  0.028888857  0.028737579            3 
 1904000   0.94482559   -6.8825635    658.31071  0.028812619  0.028729953            3 
 1905000   0.95422955   -6.8712342    660.59057  0.028897225  0.028722401            3 
 1906000   0.93371147   -6.8858713    659.46645  0.028832916  0.028714843            8 
 1907000   0.96838997    -6.883434    661.43975  0.028904027  0.028707373            6 
 1908000   0.94952627   -6.8928568    659.59944  0.028808501  0.028699858            4 
 1909000   0.94680318   -6.8811543    661.85172  0.028891729  0.028692302            3 
 1910000   0.96221381   -6.8775088     661.8083  0.028874708  0.028684854            6 
 1911000   0.95595389   -6.8946962    661.94773  0.028865678  0.028677448            5 
 1912000   0.95518026   -6.8748908    662.13848  0.028858895  0.028669958            9 
 1913000   0.94532154   -6.8814989    660.99187  0.028793861  0.028662507            5 
 1914000    0.9601453   -6.8778693    661.19904  0.028787837  0.028654979            5 
 1915000   0.94863507   -6.8963492    662.67137  0.028836874  0.028647539            4 
 1916000   0.94368263   -6.8698912    663.54912      0.02886  0.028640039            4 
 1917000   0.93042589    -6.875898    663.94418  0.028862119  0.028632625            2 
 1918000    0.9228773   -6.8770514     662.5881  0.028788152   0.02862529            4 
 1919000    0.9489792   -6.8948149    662.96142  0.028789362  0.028617919            5 
 1920000   0.96153191     -6.85731    665.83979  0.028899296   0.02861064            5 
 1921000   0.95182186   -6.9243153    662.35675  0.028733158  0.028603362            4 
 1922000   0.96092824   -6.8810263    667.08132  0.028923054  0.028596103            2 
 1923000   0.93169885   -6.8789214    662.96012  0.028729421  0.028588775            4 
 1924000   0.95704425   -6.9382402    663.53919   0.02873957  0.028581456            4 
 1925000   0.93058934   -6.8952617    665.31459  0.028801497  0.028574124            3 
 1926000   0.93681947   -6.8828059    665.62412  0.028799936  0.028566854            5 
 1927000    0.9411611   -6.9043553    666.09563  0.028805381  0.028559596            4 
 1928000   0.94481496    -6.869809    666.82597  0.028822008  0.028552374            5 
 1929000   0.96816264   -6.9116802    665.74849  0.028760519  0.028545169            4 
 1930000   0.93693529   -6.8514179    669.74777  0.028918297  0.028538002            2 
 1931000   0.93952998   -6.9133549     665.5622  0.028722691  0.028530958            2 
 1932000   0.95490703   -6.8795024    668.38508  0.028829584  0.028523818            3 
 1933000   0.98537772   -6.8762596    668.29161   0.02881064  0.028516801            3 
 1934000   0.94851002   -6.8947026     669.0653   0.02882908  0.028509738            5 
 1935000   0.94536664   -6.8936234     667.7868  0.028759121  0.028502552            3 
 1936000   0.95759149   -6.8974582    669.24356  0.028806972  0.028495446            1 
 1937000   0.92150785   -6.8989855    669.00888  0.028782003  0.028488221            2 
 1938000   0.93813174   -6.8752213    667.11081  0.028685535  0.028481001            2 
 1939000   0.93354278   -6.9217761    668.26636  0.028720404   0.02847376            7 
 1940000   0.94722114   -6.8949373    668.58338  0.028719217  0.028466573            4 
 1941000   0.94460089   -6.9156438    669.54277  0.028745611  0.028459541            5 
 1942000   0.93321307    -6.909231    668.90127  0.028703281  0.028452386            3 
 1943000   0.93413111   -6.9171216    667.85422  0.028643602  0.028445173            8 
 1944000   0.95746256    -6.880178    670.10627  0.028725406  0.028437919            5 
 1945000   0.92369138   -6.8854421    668.13342  0.028626111  0.028430713            4 
 1946000   0.96575766   -6.9090988    670.32877  0.028705412  0.028423542            5 
 1947000   0.94193041   -6.8860014    671.60281  0.028745198  0.028416368            9 
 1948000   0.93088568   -6.9059026     669.7929  0.028653016  0.028409198            2 
 1949000   0.91868075   -6.8711449    670.48218  0.028667786  0.028402115            2 
 1950000   0.93167739   -6.9112811    668.16522  0.028554069  0.028395004            3 
 1951000   0.93732708   -6.8993809    670.76855   0.02865063  0.028387874            6 
 1952000   0.91720103   -6.8901771    670.07387  0.028606296  0.028380752            7 
 1953000   0.93671448   -6.8795293    672.16337  0.028680806  0.028373652            6 
 1954000   0.93715078   -6.9044993    672.72117  0.028689917  0.028366586            3 
 1955000   0.96045999    -6.922302    671.85892  0.028638488  0.028359509            6 
 1956000   0.91832886   -6.8882716     672.3428  0.028644462  0.028352472            4 
 1957000   0.95282052   -6.9246443    671.67393  0.028601343  0.028345411            2 
 1958000   0.93985014   -6.8827725    674.92303  0.028725018  0.028338432            5 
 1959000   0.92450419   -6.9066095    673.71024  0.028658765  0.028331486            3 
 1960000   0.95363192   -6.8925713     674.6948  0.028686003  0.028324522            4 
 1961000   0.95233201   -6.8907564     672.2066  0.028565638  0.028317511            5 
 1962000   0.93833797   -6.8887878    672.91227  0.028581051    0.0283105            2 
 1963000   0.94684712   -6.8902175    675.70931  0.028685231  0.028303617            5 
 1964000   0.93537696   -6.9125146    672.47177  0.028533256  0.028296763            3 
 1965000   0.93285518   -6.8695735    676.64734  0.028695816  0.028289959            3 
 1966000   0.95420335   -6.9030219    674.81925  0.028603732   0.02828317            2 
 1967000   0.92428186   -6.9196073    676.10704  0.028643749  0.028276324            9 
 1968000   0.94331352   -6.9066601    675.98784  0.028624146   0.02826946            4 
 1969000   0.94418233   -6.9199181    676.37918  0.028626172  0.028262518            5 
 1970000   0.94772778   -6.8818448     676.4718  0.028615558  0.028255631            3 
 1971000   0.93482965   -6.8879832    675.04421  0.028540682  0.028248794            6 
 1972000    0.9738937   -6.8805183    677.07212  0.028611905  0.028241955            3 
 1973000   0.93962875   -6.9112438    676.31786  0.028565546  0.028235069            4 
 1974000   0.93630363   -6.8858959    677.80096  0.028613685  0.028228142            4 
 1975000   0.91418008   -6.9292783    676.88906   0.02856072  0.028221278            4 
 1976000   0.94585085   -6.8974048     678.3216   0.02860668  0.028214415            3 
 1977000   0.93356461   -6.9197262    678.86586  0.028615152  0.028207635            4 
 1978000   0.95035079   -6.9149988    676.87876  0.028516968  0.028200857            4 
 1979000   0.92708667    -6.918611    676.82328  0.028500222  0.028194054            2 
 1980000   0.94876973   -6.9220587    679.05202   0.02857963  0.028187278            3 
 1981000   0.93131657   -6.9097061    679.28433  0.028574976  0.028180534            3 
 1982000   0.94795006   -6.8958605    677.80768  0.028498473  0.028173841            3 
 1983000   0.93386279   -6.9028666    678.42694  0.028510125  0.028167065            3 
 1984000   0.95751066   -6.8982185    679.97016  0.028560575  0.028160291            7 
 1985000   0.92225812    -6.938738    679.19757  0.028513752  0.028153559            3 
 1986000   0.96274346   -6.9147465    679.83158  0.028525998   0.02814683            4 
 1987000   0.94186558   -6.8943756      678.849  0.028470433  0.028140106            3 
 1988000   0.92294924   -6.9285911    681.00775  0.028546602  0.028133392            3 
 1989000   0.94326306    -6.912119    681.80369  0.028565598  0.028126708            4 
 1990000   0.91923874   -6.9382663    681.55104  0.028540663  0.028120063            8 
 1991000   0.93007729   -6.8971147    681.43626  0.028521524  0.028113389            6 
 1992000   0.94155348   -6.9055538    682.91885  0.028569229  0.028106703            4 
 1993000   0.94194788   -6.9297096    682.43596  0.028534703  0.028100064            2 
 1994000   0.92573528   -6.9281267    684.31305   0.02859884  0.028093496            4 
 1995000   0.94636733    -6.896095    682.90685  0.028525766  0.028086945            5 
 1996000   0.93017665   -6.9006644    685.02958  0.028600099  0.028080399            7 
 1997000   0.92293995   -6.8771813    684.75664  0.028574388  0.028073894            4 
 1998000    0.9365155   -6.9233325    683.22698  0.028496287  0.028067307            2 
 1999000   0.91318082   -6.9141492    682.15072  0.028437165  0.028060712            3 
 2000000   0.92255538   -6.9163212    684.10988  0.028504578  0.028054016            7 
 2001000    0.9311275   -6.9237021    682.84119  0.028437497  0.028047387            2 
 2002000      0.92766   -6.9130995    684.14751  0.028477669  0.028040755            9 
 2003000   0.93020029   -6.9328267    682.68753   0.02840271  0.028034078            3 
 2004000   0.92024334    -6.913672    682.99198  0.028401197  0.028027372            5 
 2005000   0.91980665   -6.9069435    684.32406  0.028442397  0.028020578            4 
 2006000   0.93541917   -6.9300897    683.71661  0.028402983   0.02801381            2 
 2007000   0.94138048     -6.93425    682.70475  0.028346817  0.028007122            4 
 2008000   0.94089422   -6.9233506    686.66803  0.028497179  0.028000432            4 
 2009000   0.92544384    -6.929484    684.59823  0.028397139  0.027993718            4 
 2010000   0.93406095   -6.9229554    685.24497  0.028409825  0.027986977            5 
 2011000   0.93592204    -6.914881    684.82538   0.02837831  0.027980284            4 
 2012000   0.93434309   -6.9045969     685.1034  0.028375721  0.027973596            4 
 2013000   0.92989269   -6.9397151    683.69319  0.028303245  0.027966866            4 
 2014000   0.92341157   -6.8969286    683.77496  0.028292575  0.027960144            4 
 2015000   0.95774514   -6.8929059    686.04641  0.028372474  0.027953378            5 
 2016000    0.9370008   -6.9340213    686.30735  0.028369186  0.027946619            3 
 2017000   0.92911652   -6.9135669    685.75006  0.028332097  0.027939924            6 
 2018000   0.91268693   -6.9255572    685.78904  0.028319666  0.027933219            3 
 2019000   0.92971107   -6.9465704    685.16087  0.028279712  0.027926448            6 
 2020000   0.90897544   -6.8794228    688.13133  0.028388256  0.027919733            5 
 2021000   0.91533155   -6.9112936     686.8393  0.028320934   0.02791305            7 
 2022000   0.89817291   -6.9212856    686.70847  0.028301536  0.027906404            2 
 2023000   0.91298797   -6.9052272    687.62341  0.028325235  0.027899836            6 
 2024000   0.90655911    -6.914179    689.52739  0.028389632  0.027893254            4 
 2025000   0.94670127   -6.9122424    689.52432  0.028375486  0.027886689            4 
 2026000   0.93115975   -6.9505438    687.45448  0.028276344  0.027880133            4 
 2027000   0.93602535   -6.9056367    689.06855  0.028328752  0.027873553            7 
 2028000   0.92746546   -6.9224191    688.44288  0.028289073   0.02786698            2 
 2029000   0.90986272    -6.904693    688.99474  0.028297796  0.027860377            2 
 2030000   0.93592144   -6.9389097    687.14982  0.028208121  0.027853802            7 
 2031000    0.9082736   -6.9201202     689.8088  0.028303332  0.027847085            2 
 2032000   0.91641795   -6.9369316    686.41743  0.028150321  0.027840281            3 
 2033000   0.93320195   -6.9334414    688.22144  0.028210421  0.027833604            3 
 2034000   0.92331024   -6.9345248    688.19231  0.028195359  0.027826933            4 
 2035000   0.91891274   -6.9418605    689.37051  0.028229751  0.027820253            7 
 2036000   0.91728732   -6.9298001    688.98979  0.028200302  0.027813617            2 
 2037000   0.92381703   -6.9227687    689.26157  0.028197577  0.027806889            7 
 2038000   0.92163088    -6.907064    689.61631  0.028198246  0.027800225            2 
 2039000   0.92384236    -6.936064    690.35429  0.028214578  0.027793607            5 
 2040000   0.93208015   -6.9249458    690.76798  0.028217646  0.027787011            6 
 2041000   0.93797287   -6.9403091    691.64811  0.028239756   0.02778044            4 
 2042000    0.9372063   -6.9382669    691.48637  0.028219326  0.027773849            1 
 2043000   0.91910251   -6.8943281     689.0694  0.028106926  0.027767291            5 
 2044000   0.91574633   -6.9177342    690.82153  0.028164609  0.027760647            5 
 2045000   0.92852051   -6.9440972    689.48278  0.028096283  0.027753947            5 
 2046000   0.93519088   -6.9268199    691.33097  0.028157827  0.027747257            3 
 2047000   0.92772389   -6.9234661    689.74113  0.028079349  0.027740486            4 
 2048000   0.92356114   -6.9083584    691.99948  0.028157531  0.027733714            5 
 2049000   0.91489102   -6.9340713     691.1282  0.028108354  0.027727027            7 
 2050000   0.92785963   -6.9149796     691.7837  0.028121289  0.027720335            7 
 2051000   0.90941757   -6.9433909    690.95616  0.028073954  0.027713636            6 
 2052000   0.92959683   -6.9397392     691.3132  0.028074773  0.027706852            4 
 2053000   0.93295105   -6.9297447    692.59156  0.028112987  0.027700107            5 
 2054000     0.933388   -6.9691634    690.54741  0.028016367  0.027693279            4 
 2055000   0.93634229   -6.9269932      692.844  0.028095864  0.027686554            8 
 2056000   0.93842033    -6.935142     692.1436   0.02805381   0.02767985            6 
 2057000   0.90956764   -6.9484667    690.00578  0.027953564  0.027673047            7 
 2058000   0.90935324   -6.9172133     691.7402  0.028010212  0.027666218            5 
 2059000   0.93222022   -6.9191177    693.11662  0.028052316  0.027659421            4 
 2060000   0.92912726   -6.9083344    694.26569  0.028085182  0.027652539            5 
 2061000   0.91812995   -6.9482652    693.32153  0.028033379  0.027645734            8 
 2062000   0.91835775    -6.925887    691.82808  0.027959428  0.027638817            5 
 2063000   0.94332047    -6.946052    692.09704  0.027956739  0.027631955            3 
 2064000   0.90911861   -6.9199843    692.17219  0.027946229  0.027625113            3 
 2065000   0.91677866   -6.9474258    691.59814   0.02790953    0.0276182            3 
 2066000    0.9319861   -6.9836962    692.51592   0.02793304  0.027611301            3 
 2067000   0.91442905   -6.9494355    693.67795  0.027966374  0.027604425            6 
 2068000   0.90980262   -6.9425799    693.17919  0.027932753  0.027597601            8 
 2069000   0.93669634   -6.9197503    693.55579   0.02793442   0.02759072            7 
 2070000   0.93193971   -6.9425423    694.31988  0.027951686   0.02758384            4 
 2071000   0.92616547    -6.946123    693.25945  0.027895519  0.027577015            7 
 2072000   0.92335567   -6.9522847    693.89365  0.027907563  0.027570178            4 
 2073000   0.91652842     -6.97435    694.41832  0.027915192  0.027563374            3 
 2074000   0.91493585   -6.9507256    694.59765  0.027908938  0.027556567            4 
 2075000   0.91992293   -6.9122971    695.13127  0.027916918  0.027549816            3 
 2076000   0.91054436   -6.9269869    696.93532  0.027975888  0.027542998            3 
 2077000   0.92448041   -6.9264882    695.48539  0.027904244  0.027536186            7 
 2078000   0.93214459   -6.9511375    695.37065  0.027886215  0.027529435            3 
 2079000   0.92604343   -6.9418279    696.76182  0.027928564  0.027522681            4 
 2080000   0.92004849   -6.9487714    695.82451  0.027877585  0.027515959            6 
 2081000   0.92581956   -6.9459216    695.48357  0.027850535  0.027509248            2 
 2082000   0.92721045   -6.9595889     696.3417  0.027871506  0.027502516            4 
 2083000   0.90443027   -6.9450549    695.52302  0.027825373  0.027495737            2 
 2084000   0.90526201   -6.9066417    698.24912   0.02792103  0.027488991            3 
 2085000   0.94503194   -6.9524278    696.60204  0.027841808  0.027482201            3 
 2086000   0.93543635   -6.9456899     697.5298  0.027865524  0.027475485            7 
 2087000   0.91331628   -6.9542559    696.92739  0.027828118  0.027468712            6 
 2088000   0.91936606   -6.9591506    697.79786  0.027849532  0.027461936            3 
 2089000   0.92376657   -6.9355309    697.56039  0.027826727   0.02745521            6 
 2090000   0.93750346    -6.940712    698.35883  0.027845248  0.027448434            6 
 2091000   0.93588018   -6.9143923    698.35225  0.027831669  0.027441628            4 
 2092000   0.91742289   -6.9494749    696.99483  0.027764294   0.02743483            4 
 2093000   0.91767229   -6.9450292     697.4357  0.027768582  0.027427993            9 
 2094000   0.91620427    -6.941076    698.26997  0.027788521  0.027421116            5 
 2095000   0.93783794   -6.9533288     697.0614  0.027727184    0.0274143            6 
 2096000    0.9097195    -6.970247    698.15883  0.027757587   0.02740748            4 
 2097000   0.89843851   -6.9670062    697.54902  0.027720117  0.027400676           14 
 2098000   0.91119997   -6.9618132    700.48123  0.027823373  0.027393862            7 
 2099000   0.92363469    -6.928905    698.52471   0.02773244  0.027387075            3 
 2100000    0.9245565   -6.9371542    698.63011  0.027723417  0.027380379            3 
 2101000   0.91969723    -6.978635       700.18  0.027771696  0.027373651            4 
 2102000   0.90648373   -6.9528406     700.3034  0.027763376  0.027366942            9 
 2103000   0.90933477    -6.957873    698.54332   0.02768043  0.027360257            6 
 2104000   0.89541441   -6.9906645    699.18689  0.027692763   0.02735357            5 
 2105000   0.90908162   -6.9220024    699.07215  0.027675065  0.027346871            4 
 2106000   0.90329698   -6.9661129    699.18205  0.027666273  0.027340129            6 
 2107000   0.91371271     -6.92179    700.90572  0.027721315  0.027333419            6 
 2108000   0.90878392   -6.9692612    701.03162  0.027713141  0.027326741            7 
 2109000   0.91300555   -6.9828712    699.58705  0.027642921  0.027320047           11 
 2110000   0.92265211   -6.9507144     701.1013  0.027689625   0.02731337            3 
 2111000   0.91758922   -6.9499861    701.85079  0.027706095  0.027306669            4 
 2112000    0.9071319   -6.9420086    704.02788  0.027778878  0.027300035            3 
 2113000   0.92960645   -6.9821006    700.14536  0.027612611   0.02729337            5 
 2114000   0.91684906   -6.9561178    700.72783   0.02762251  0.027286618            3 
 2115000   0.90802798   -6.9281972    700.68342    0.0276077  0.027279853            5 
 2116000   0.90412968   -6.9534212    702.12168  0.027651295  0.027273125            4 
 2117000   0.91658102   -6.9332469    701.48277  0.027613083  0.027266363            4 
 2118000    0.9152193   -6.9686912    702.46541  0.027638708  0.027259647            3 
 2119000   0.91516966   -6.9497542     702.8627  0.027641289  0.027252858            5 
 2120000   0.91344133   -6.9593298    703.24267  0.027643187  0.027246122            5 
 2121000   0.90772592   -6.9733663    700.81903   0.02753493  0.027239362            6 
 2122000   0.90138523   -6.9622192    702.38887  0.027583603  0.027232588            3 
 2123000   0.91174028   -6.9575861    704.24905  0.027643627  0.027225799            6 
 2124000   0.91372518   -6.9714216    704.11946  0.027625528  0.027219023            5 
 2125000   0.91125216   -6.9472231    703.52256   0.02758912  0.027212231            8 
 2126000   0.91196148   -6.9821795    701.61019  0.027501184  0.027205397            8 
 2127000   0.91056582    -6.975228    701.13947  0.027469811  0.027198566            5 
 2128000   0.91361999   -6.9893594    702.31488  0.027502932   0.02719172            3 
 2129000   0.91032953   -6.9646157    703.53362  0.027537718  0.027184865            3 
 2130000   0.91035461   -6.9534166    701.48192  0.027444519  0.027178045           10 
 2131000   0.90109613    -6.974539    703.63661  0.027515901  0.027171244           10 
 2132000    0.9055104    -6.995283    702.65982  0.027464815  0.027164442            4 
 2133000   0.91617677   -6.9747389    703.90995  0.027500779  0.027157564            5 
 2134000   0.90946842   -6.9843334    702.95423  0.027450571  0.027150741            8 
 2135000    0.9088564   -6.9562028    703.36954  0.027453924   0.02714394            7 
 2136000    0.9076637   -6.9844521     703.5754  0.027449103  0.027137099            6 
 2137000    0.9070038   -6.9494712    704.79747  0.027483913  0.027130219            4 
 2138000   0.92782487   -6.9957395    704.25499  0.027449914  0.027123453            4 
 2139000   0.89868464   -6.9453165    706.11815  0.027509668  0.027116631            2 
 2140000   0.90614039   -6.9583896    703.17411   0.02738217  0.027109835            4 
 2141000   0.90114866   -6.9790075    704.64284  0.027426547  0.027102979            6 
 2142000   0.90564407   -6.9481335      705.436    0.0274446  0.027096161            2 
 2143000   0.88199544   -6.9699457    706.57735  0.027476176  0.027089392            4 
 2144000   0.91424102   -6.9751907    705.70559  0.027429477  0.027082598            4 
 2145000   0.90786031   -6.9558974    706.11223  0.027432487  0.027075773            3 
 2146000    0.9020487   -6.9543087    706.68927  0.027442112  0.027068902            3 
 2147000   0.91385745   -6.9657549    704.29443  0.027336377  0.027062033            4 
 2148000    0.9097548   -6.9274211    707.26814  0.027439018  0.027055252            3 
 2149000   0.91952772   -6.9716747    706.99779  0.027415767  0.027048439            7 
 2150000    0.9031975   -6.9727783    705.77015  0.027355432  0.027041644            5 
 2151000   0.89079865   -6.9793642    707.54006  0.027411284  0.027034805            4 
 2152000   0.91570249   -6.9788919    706.27774  0.027349665  0.027027972            3 
 2153000   0.90395343   -6.9734597    706.14468  0.027331811  0.027021108            4 
 2154000   0.90763465   -6.9840934    705.75628  0.027304096  0.027014144            6 
 2155000   0.89724367    -6.984776    706.30472  0.027312634  0.027007222            4 
 2156000   0.92498423   -6.9822105    704.46258  0.027228764  0.027000329            4 
 2157000   0.90934153   -6.9845976    708.69255  0.027379561  0.026993453            6 
 2158000   0.88086609    -6.968665    706.90715  0.027297928  0.026986551            3 
 2159000   0.89621847   -6.9874537    707.13575  0.027294108  0.026979631            3 
 2160000   0.91864091   -6.9753775    706.38291  0.027252427  0.026972601            6 
 2161000   0.92018022   -6.9768176    705.17444  0.027193215  0.026965642            5 
 2162000    0.9358524   -6.9930352    707.02551  0.027251986  0.026958712            3 
 2163000   0.90380804   -6.9726961    706.40066  0.027215313  0.026951793            3 
 2164000   0.89744607   -6.9555975     707.4951  0.027244882  0.026944905            6 
 2165000   0.91407062   -6.9788244    705.35919  0.027150084  0.026937977            5 
 2166000   0.91701449   -6.9337204    708.02518  0.027240119  0.026931018            3 
 2167000   0.90538251   -6.9777261    707.69227  0.027214747  0.026924064            4 
 2168000   0.90736304   -6.9829481     707.9995  0.027214003  0.026917128           13 
 2169000   0.92514807   -6.9308208    709.63843  0.027264424  0.026910268            4 
 2170000   0.90032993    -6.979551     709.5111   0.02724697  0.026903407            7 
 2171000   0.90728018   -7.0046745    708.16964  0.027182928  0.026896523            7 
 2172000   0.89075814   -6.9940314    708.77456  0.027193622  0.026889565            5 
 2173000   0.89328235   -6.9614885    707.80987  0.027144112  0.026882623            4 
 2174000   0.90400201   -6.9697416     709.0655  0.027179757  0.026875689            4 
 2175000   0.89902646   -7.0018189     707.3987  0.027103399   0.02686872            5 
 2176000   0.91636489   -6.9730728    709.66706  0.027177813  0.026861764            4 
 2177000   0.90795722   -6.9660671    709.22507   0.02714841  0.026854771            9 
 2178000   0.89713461   -6.9698988    709.66278  0.027152693  0.026847769            8 
 2179000   0.88606974   -6.9971847    708.84816  0.027109077  0.026840776            5 
 2180000   0.89446918   -6.9760219    708.55113  0.027085288  0.026833785           10 
 2181000   0.90961371   -6.9886265    709.22422  0.027098587  0.026826753            4 
 2182000   0.91854357    -6.982431    710.83125  0.027147542  0.026819709            9 
 2183000    0.8783401   -6.9675478    709.77817  0.027094907  0.026812724            4 
 2184000   0.89346569   -6.9645514    710.98763  0.027128649  0.026805703            5 
 2185000    0.9049771   -6.9577176    707.58426  0.026986432  0.026798625            5 
 2186000   0.90454034   -6.9526844    710.62492  0.027090001  0.026791537            4 
 2187000   0.89651886   -6.9636255    710.01261  0.027054283  0.026784471            4 
 2188000    0.9257704   -6.9701385    708.72466  0.026992865  0.026777386            4 
 2189000   0.90101122   -7.0059471    706.34402  0.026889905  0.026770257            6 
 2190000   0.89572029   -7.0229762    708.84113  0.026972646  0.026763229            4 
 2191000    0.8813314   -6.9720767    710.60771  0.027027526  0.026756152            4 
 2192000   0.90055156   -7.0148472    708.97231  0.026953023  0.026749035           13 
 2193000   0.90193829   -6.9776964    711.39202   0.02703268  0.026741925            7 
 2194000   0.91387458    -7.005019    710.86018  0.027000159  0.026734815            5 
 2195000   0.91335594   -6.9903537    709.26424  0.026927268   0.02672776            6 
 2196000   0.91602525   -6.9665058    711.08331  0.026984036  0.026720736            4 
 2197000   0.89763575   -6.9659392    712.84568  0.027038601  0.026713698            9 
 2198000   0.87246514   -6.9703467    711.69068   0.02698251  0.026706677            5 
 2199000   0.91126143   -6.9985732    711.19642  0.026951509  0.026699655            9 
 2200000   0.89069469   -6.9401142     709.6427  0.026880405   0.02669257            6 
 2201000   0.90663609   -6.9857949    711.40172  0.026934792  0.026685592            5 
 2202000   0.88997505   -6.9898168    710.19423  0.026876863  0.026678542            4 
 2203000   0.89707967   -7.0033729    711.05252   0.02689713  0.026671572            4 
 2204000   0.87883522   -6.9915064    711.59752  0.026905532  0.026664557            4 
 2205000   0.87934456    -6.988662    711.37714  0.026885001   0.02665754            6 
 2206000   0.89417852   -6.9869861    711.89781  0.026892483  0.026650602            5 
 2207000    0.8959907   -6.9737912     712.4762  0.026902137  0.026643593            6 
 2208000   0.87869253   -6.9942393    712.73145  0.026899587  0.026636555            5 
 2209000   0.90074492   -6.9880509     712.5405  0.026880206   0.02662951            7 
 2210000   0.90340453   -6.9743892    713.55251  0.026906203  0.026622546            3 
 2211000   0.89277511   -6.9582167    713.50205  0.026892132  0.026615576            6 
 2212000   0.88298968    -6.966568    713.78753   0.02689073  0.026608647            4 
 2213000   0.89592393   -6.9785579    713.34314  0.026861845  0.026601718            2 
 2214000   0.91472635   -6.9954744     714.0355  0.026875772   0.02659479            6 
 2215000   0.89455048   -6.9854621    713.47302  0.026842476  0.026587821            7 
 2216000   0.90864028   -7.0191643    713.27727  0.026823002  0.026580795            4 
 2217000    0.9006646   -6.9964728    713.98366  0.026837455  0.026573809            9 
 2218000    0.8999518   -7.0259591    713.91906  0.026822928  0.026566808            4 
 2219000   0.89006545   -6.9969317    715.05091  0.026853347  0.026559846            3 
 2220000   0.90635586   -6.9856606    713.87562  0.026797133  0.026552914            4 
 2221000   0.91072986   -6.9967981     713.3689  0.026766055   0.02654591            8 
 2222000   0.90162564   -6.9989697    715.58547  0.026837139   0.02653893            3 
 2223000   0.89099689   -6.9940905    715.45959  0.026820348  0.026531949            6 
 2224000    0.9090437   -7.0193488    714.62012  0.026776833  0.026524963            6 
 2225000   0.89666362   -7.0421744    714.29343  0.026752563  0.026517987            3 
 2226000   0.89687093    -6.993449    715.88704  0.026800204  0.026511037            5 
 2227000   0.90057974   -6.9971427     715.5675  0.026776212  0.026504099            6 
 2228000   0.89292451   -7.0172388    716.68709   0.02680607  0.026497232            4 
 2229000   0.89665235   -6.9866904    719.10053  0.026884273  0.026490374            6 
 2230000   0.88235223    -6.999564    717.09217  0.026797166  0.026483511            6 
 2231000   0.89249409    -6.971088    718.15673  0.026824919  0.026476694           12 
 2232000   0.88609997   -6.9639794    717.50252  0.026788475  0.026469879           13 
 2233000   0.88458079   -7.0007439    718.53071  0.026814849  0.026463036            2 
 2234000   0.88155203   -6.9981648    716.02249  0.026709284  0.026456186            4 
 2235000   0.89951828   -7.0152735    715.72235  0.026686143  0.026449323           13 
 2236000   0.88551345   -6.9785319    719.28235  0.026806885   0.02644241            3 
 2237000   0.89790028   -7.0078599     717.9717  0.026746077  0.026435558            4 
 2238000   0.88900081   -6.9906767    718.80118  0.026765013  0.026428745            8 
 2239000   0.89976062   -7.0007091    717.04077  0.026687538  0.026421883            8 
 2240000   0.88007305   -7.0013779    717.24918  0.026683377  0.026414968            7 
 2241000   0.89966658   -7.0119287    718.12055  0.026703873  0.026408112           12 
 2242000   0.88091968   -7.0275441    718.99869  0.026724602  0.026401282            7 
 2243000   0.87209119   -6.9895434    718.26829  0.026685551  0.026394426            3 
 2244000   0.89997633   -7.0097897    720.38476  0.026752256  0.026387512            6 
 2245000    0.8792027   -6.9657587    720.06607   0.02672851  0.026380599            5 
 2246000   0.88424901   -7.0223869    717.57346  0.026624126  0.026373714            8 
 2247000   0.89173385   -6.9832245    720.23427  0.026710958  0.026366777            5 
 2248000   0.89639641   -7.0200202    718.16932  0.026622528  0.026359911            9 
 2249000   0.90145333   -6.9905476    721.08693  0.026718798  0.026353032            5 
 2250000   0.88803599    -7.024768    719.91913  0.026663671  0.026346104            5 
 2251000   0.88816422   -7.0256205    720.78743  0.026683971  0.026339172            3 
 2252000   0.88010535       -7.015    719.55435  0.026626493  0.026332242            4 
 2253000   0.89513151    -6.996591    719.31163  0.026605697  0.026325343            5 
 2254000    0.8727074   -6.9815171    720.37806  0.026633321  0.026318437            7 
 2255000   0.89132019   -7.0148037    720.04701  0.026609276   0.02631148            4 
 2256000   0.88442115   -6.9979688    720.53529  0.026615518  0.026304613            4 
 2257000   0.90176759   -7.0091799    721.90268  0.026654212  0.026297731            4 
 2258000   0.86470023   -7.0143031    717.32809  0.026473579  0.026290798            3 
 2259000   0.91270097   -6.9781986    723.14079  0.026676287  0.026283921            3 
 2260000   0.86821569   -7.0003225    718.55604  0.026495429   0.02627704            3 
 2261000   0.87806993    -7.024344    721.50494  0.026592398  0.026270101            2 
 2262000   0.89515999   -6.9993462    720.63365  0.026548543  0.026263115            5 
 2263000   0.88598621   -6.9991079    720.85271  0.026544878  0.026256154            4 
 2264000   0.89307408   -7.0058299    720.28134  0.026512122  0.026249249            7 
 2265000   0.88239997    -6.988122    721.54637   0.02654696  0.026242372            3 
 2266000   0.90981283   -6.9895324    720.73629  0.026505453  0.026235522            5 
 2267000   0.88500805   -7.0352315    720.29607  0.026477579  0.026228674            7 
 2268000   0.90658057   -7.0427887     721.6082  0.026514117   0.02622179           11 
 2269000   0.89500067   -7.0245212    722.22868   0.02652522    0.0262149            4 
 2270000   0.89814303   -7.0027938    723.98553   0.02657803  0.026208012            2 
 2271000   0.88244416   -6.9963481    722.77112  0.026521764   0.02620117           10 
 2272000   0.89062389   -7.0249279    724.00485  0.026555342   0.02619435            3 
 2273000   0.88041649   -6.9870092    723.01966   0.02650754  0.026187503            3 
 2274000   0.90035812   -7.0072431    725.66775  0.026592925  0.026180646            7 
 2275000   0.88203871   -7.0125806    723.19577  0.026490688  0.026173832           19 
 2276000   0.86701929   -7.0008548    724.29537  0.026519309  0.026167027            5 
 2277000   0.90788885   -6.9702218    723.72555  0.026486808  0.026160246            2 
 2278000   0.88590342   -6.9927904    721.20246  0.026382882  0.026153405            4 
 2279000    0.8958078   -6.9916598    723.76562  0.026465029  0.026146571            4 
 2280000   0.89884774   -6.9902182    726.33325  0.026547268  0.026139855            4 
 2281000   0.85961888   -6.9776512    725.37883  0.026500761  0.026133066            3 
 2282000   0.88706971   -6.9673226    722.94233  0.026400173  0.026126284            5 
 2283000    0.8944433   -7.0260048    725.43474  0.026479586  0.026119544            2 
 2284000    0.8973317   -7.0179209     725.1842  0.026458851  0.026112765            5 
 2285000   0.89862521   -7.0090796    721.54344  0.026314494  0.026105931            3 
 2286000   0.87354939   -7.0499373    724.79737  0.026421601  0.026099094            8 
 2287000   0.88158616   -7.0173529    725.92509   0.02645114   0.02609226            9 
 2288000   0.90184399   -6.9937828    724.65951  0.026393484  0.026085407            4 
 2289000   0.88958024   -7.0347824    724.05341  0.026359888  0.026078552            6 
 2290000   0.88017161   -6.9840926    724.26111  0.026355936  0.026071639            5 
 2291000   0.89225226    -7.006315    726.07177  0.026410293  0.026064823            5 
 2292000   0.90009831   -7.0448584    724.71643  0.026349492  0.026057987            4 
 2293000   0.88908531   -7.0186177    726.35946  0.026397713  0.026051125            5 
 2294000     0.880047   -7.0334156    725.27229  0.026346712  0.026044278            5 
 2295000   0.88002873   -7.0134405    725.16457  0.026331321  0.026037434            7 
 2296000   0.88431109   -7.0266087    725.29034  0.026324417  0.026030587            6 
 2297000   0.88990093    -7.037671      725.831  0.026332571  0.026023685            7 
 2298000   0.90162523   -7.0237826    726.16441  0.026333203  0.026016768            4 
 2299000     0.878913   -7.0279928    728.09924  0.026391882  0.026009954            3 
 2300000   0.88868155   -7.0450154    726.64489  0.026327713  0.026003132            6 
 2301000   0.90256515    -7.006468     727.4766  0.026346393   0.02599631            2 
 2302000   0.87326835   -7.0269226    727.99101   0.02635357  0.025989513            4 
 2303000   0.89548995   -7.0242454     725.2229  0.026241964  0.025982668            3 
 2304000   0.88175518   -7.0070061    727.99847  0.026330963  0.025975848            2 
 2305000   0.88363867   -7.0102402    729.29666  0.026366474  0.025969043            4 
 2306000    0.8880498   -6.9786854    728.66096  0.026332067  0.025962259            6 
 2307000   0.86863955   -7.0074688    726.54686  0.026244288   0.02595549            3 
 2308000   0.88968455   -7.0247805    725.94784  0.026211288   0.02594869            3 
 2309000   0.87822122   -7.0447663    727.07928  0.026240771  0.025941856            5 
 2310000   0.86844349   -7.0157437     729.2542  0.026307872  0.025935058            5 
 2311000    0.8791917   -7.0463756    728.52699  0.026270265  0.025928213            6 
 2312000   0.88265738   -7.0314795    728.86184  0.026270972  0.025921422            5 
 2313000   0.89575152   -7.0168121    729.37065  0.026277945  0.025914652            6 
 2314000   0.87066438   -7.0267541    730.29867   0.02630001  0.025907924            7 
 2315000   0.86413613   -7.0090527    729.28925  0.026252313  0.025901197            5 
 2316000    0.8818101   -7.0010966    730.09278   0.02626989  0.025894472            5 
 2317000   0.88060803   -7.0053931    730.90938  0.026287922  0.025887803            2 
 2318000   0.89135605    -7.054343     729.7322  0.026234261  0.025881095            3 
 2319000   0.88911373   -7.0002648       730.18   0.02623904  0.025874344            4 
 2320000   0.87803444    -7.041226    728.32959  0.026161264  0.025867526            7 
 2321000   0.88270683   -7.0521058    727.13268  0.026107019  0.025860705            6 
 2322000   0.88885537   -6.9970614    730.69151  0.026223497  0.025853925            6 
 2323000   0.86701406   -7.0096658    730.50896  0.026205659  0.025847183            3 
 2324000   0.87063958    -7.079384    730.87854  0.026207636  0.025840427            4 
 2325000   0.89206174   -7.0398282    731.06456  0.026203031  0.025833688            6 
 2326000   0.85860366   -7.0012543    732.58568  0.026246263  0.025826968            9 
 2327000   0.90515193   -7.0434341    730.18173  0.026148895  0.025820232            4 
 2328000   0.86955882    -7.036588    731.03201  0.026168099  0.025813492            5 
 2329000   0.88777804   -7.0473375    730.64753  0.026143106  0.025806766            5 
 2330000    0.8860017    -7.014592    732.16815  0.026186271  0.025800099            8 
 2331000   0.87661231   -7.0287528    732.69283  0.026193795  0.025793485            3 
 2332000   0.89713281   -6.9996941    734.16158  0.026235048   0.02578686            6 
 2333000    0.8795541     -7.04635    733.60934  0.026204077  0.025780194            5 
 2334000   0.86834882   -7.0234771    733.37709  0.026184557  0.025773517            4 
 2335000   0.87567957   -7.0462896    731.14501  0.026093684  0.025766877            7 
 2336000   0.87690221   -7.0234686     732.6333  0.026135606  0.025760223            5 
 2337000   0.87709084   -7.0431028    731.60792  0.026087859  0.025753475            8 
 2338000   0.88232008   -7.0276969    732.45714   0.02610697  0.025746765           11 
 2339000   0.87275267   -7.0302107    732.32264  0.026091016  0.025740097            3 
 2340000   0.88496063    -7.041258    734.14598    0.0261448  0.025733352            4 
 2341000   0.87279176   -7.0312614    732.20324  0.026064475  0.025726637            6 
 2342000   0.87979682   -7.0515039    732.27287  0.026055824    0.0257199            4 
 2343000   0.86599752   -7.0224561    732.25519  0.026044074  0.025713237            6 
 2344000   0.87705324   -7.0082028    733.16609  0.026065347  0.025706523            7 
 2345000   0.88405531   -7.0503794    732.84589  0.026042853   0.02569983            4 
 2346000   0.87781548   -7.0018435    735.57318  0.026128629  0.025693179            3 
 2347000   0.87589595   -7.0281404     735.3204  0.026108521  0.025686556            5 
 2348000   0.86339797   -7.0239261    735.64209  0.026108819  0.025679971            7 
 2349000   0.87195603   -7.0100524    735.04243  0.026076431  0.025673326            5 
 2350000   0.85765208   -7.0200886    735.65599  0.026087092  0.025666704            6 
 2351000    0.8559815   -7.0428947    735.76707  0.026079933  0.025660049            3 
 2352000   0.86389524   -7.0424579    734.47992   0.02602324  0.025653421           10 
 2353000   0.86205681   -7.0445776    733.48066  0.025976791  0.025646737            8 
 2354000   0.86852471   -7.0643993     733.8684  0.025979482  0.025640076           17 
 2355000   0.85974996   -7.0627686    735.01035  0.026008859   0.02563342            6 
 2356000   0.87826931   -7.0560655    735.59889  0.026018636  0.025626733            2 
 2357000   0.85774934   -7.0425128    735.39503   0.02600039  0.025620112            3 
 2358000     0.869621   -7.0443755    736.62547  0.026032848  0.025613457            4 
 2359000   0.86650184   -6.9886358    735.27378  0.025974063  0.025606873            3 
 2360000   0.86442024   -7.0233197     736.3775   0.02600203  0.025600285            7 
 2361000   0.87705255   -7.0164489    735.44532  0.025958115   0.02559366            6 
 2362000   0.88692414   -7.0597838    735.65289  0.025954449  0.025586958            6 
 2363000   0.89124239   -7.0239788    735.06682  0.025922797  0.025580246            6 
 2364000   0.86754239   -7.0290636    738.67775   0.02603912  0.025573604            4 
 2365000   0.87932817   -7.0228624    737.33623   0.02598084  0.025566968            6 
 2366000   0.86516723   -7.0284899    737.05451  0.025959936  0.025560369            5 
 2367000   0.86709139   -7.0632035    736.37521  0.025925053  0.025553782            5 
 2368000   0.87418653   -7.0265909    738.19317  0.025978082  0.025547154           11 
 2369000   0.87545803   -7.0180517    740.00497  0.026030849  0.025540511            7 
 2370000   0.87332481   -7.0459254    738.13059  0.025953959  0.025533949            5 
 2371000   0.87203266   -7.0043631    740.14812  0.026013922  0.025527386            4 
 2372000   0.85987561   -7.0440458    739.18461  0.025969105  0.025520743            3 
 2373000   0.87314347   -7.0506373    736.00847  0.025846624  0.025514117            9 
 2374000   0.88107223   -7.0248071    738.65073  0.025928487  0.025507463            8 
 2375000   0.86692545    -7.030818    737.09401  0.025862948  0.025500833            7 
 2376000   0.86138573   -7.0672078    736.68804  0.025837824  0.025494198            4 
 2377000   0.87396897   -7.0316059    739.18835  0.025914611  0.025487579            3 
 2378000   0.88065894   -7.0562276    738.58132   0.02588244  0.025481028            5 
 2379000   0.85729326   -7.0474189    740.29977  0.025931756  0.025474394            3 
 2380000    0.8535214   -7.0370483    738.55214  0.025859669  0.025467832            3 
 2381000   0.83893775   -7.0288047    739.79832  0.025892423  0.025461281            4 
 2382000   0.89313338   -7.0002427    739.75207  0.025879935  0.025454722            5 
 2383000   0.85697064   -7.0530281    741.72798  0.025938173  0.025448155            8 
 2384000   0.87909252   -7.0332769    739.44804  0.025847597  0.025441541            4 
 2385000   0.89775157   -7.0427489    738.82122  0.025814857  0.025434939            4 
 2386000   0.89052936   -7.0336763    740.07131  0.025847699  0.025428309            9 
 2387000   0.86101758   -7.0691716    739.95454  0.025832793  0.025421755           11 
 2388000   0.85504064   -7.0478392    740.42427  0.025838368  0.025415149            9 
 2389000   0.85911702   -7.0680567    739.67398  0.025801381  0.025408558            3 
 2390000    0.8577909   -7.0586227    742.22744  0.025879618  0.025401968            6 
 2391000   0.87877372   -7.0443275    740.13976  0.025796032  0.025395378            6 
 2392000   0.88111128   -7.0637298    740.92262  0.025812522  0.025388805            4 
 2393000   0.87692609    -7.036246    741.71159   0.02582921  0.025382232            4 
 2394000   0.86380097   -7.0386403    741.31823  0.025804728  0.025375665            4 
 2395000   0.85130595   -7.0398274    741.49896  0.025800242  0.025369122            3 
 2396000   0.85820485   -7.0184023    741.13635  0.025776863   0.02536254            5 
 2397000   0.87278827   -7.0609441    741.08665  0.025764381  0.025355899           10 
 2398000   0.87492157   -7.0338397    741.36313  0.025763245  0.025349292            4 
 2399000   0.86804826   -7.0483034    739.30861  0.025681138  0.025342755            5 
 2400000   0.88296851   -7.0599008    741.66591  0.025752288  0.025336123            4 
 2401000    0.8557731   -7.0643588    739.34801  0.025661114  0.025329499            6 
 2402000     0.857034   -7.0547317    742.16409   0.02574813  0.025322888            3 
 2403000   0.85897174   -7.0608946    741.41649  0.025711489  0.025316286            4 
 2404000   0.87888224   -7.0850617    741.46191  0.025702368  0.025309615            5 
 2405000   0.88060031   -7.0489771    739.99421  0.025640825  0.025302959            7 
 2406000   0.85662509   -7.0619819    741.10452  0.025668624  0.025296261            4 
 2407000   0.85937915     -7.05708     740.4285  0.025634555  0.025289593           10 
 2408000   0.86898879   -7.0312119    741.42626  0.025658439   0.02528294            6 
 2409000   0.88901424   -7.0567406    741.14681  0.025638121   0.02527629            6 
 2410000   0.87417829   -7.0659884    741.88039  0.025652849  0.025269648            4 
 2411000   0.83853243   -7.0482199    742.73227  0.025671653  0.025262994            5 
 2412000   0.86692589    -7.029059    743.38923  0.025683708  0.025256369            7 
 2413000   0.85899674   -7.0763293    741.65377  0.025613129  0.025249735            5 
 2414000   0.86261174   -7.0524704    742.24721  0.025623005  0.025243094            5 
 2415000   0.87558383   -7.0468933     743.1361  0.025643068  0.025236489            2 
 2416000   0.85839274   -7.0599539    743.92179  0.025659554  0.025229884            5 
 2417000   0.85365019   -7.0599913    741.44285  0.025563469  0.025223225           10 
 2418000   0.86004619   -7.0640722    742.15853  0.025577562   0.02521657           10 
 2419000   0.85531283   -7.0586881    741.90899  0.025558391  0.025209907            6 
 2420000   0.87443492   -7.0480234    742.56926  0.025570567  0.025203279            8 
 2421000   0.87199184   -7.0551677    743.77178  0.025601397  0.025196654            5 
 2422000   0.87113411    -7.069213    741.98044  0.025529192  0.025189992            4 
 2423000   0.87739638   -7.0756885    741.62519  0.025506438  0.025183351            3 
 2424000    0.8667766   -7.0580878    744.01679  0.025578135  0.025176667            5 
 2425000   0.85800571   -7.0941783    740.43853  0.025444623  0.025169973            4 
 2426000   0.85873484   -7.0745864    743.59574  0.025542585  0.025163292            4 
 2427000   0.87389242   -7.0756209    743.85679  0.025541024  0.025156639            9 
 2428000   0.85245301   -7.0591599    743.08294  0.025503945  0.025150055            3 
 2429000    0.8454211     -7.06745    742.79671  0.025483625  0.025143405            5 
 2430000   0.87119848   -7.0829241    744.15144  0.025519597   0.02513677            3 
 2431000   0.83870515   -7.0495246     744.1137  0.025507805  0.025130187            4 
 2432000   0.85769036    -7.059268    745.02459  0.025528529  0.025123584            8 
 2433000   0.85379918   -7.0928502     742.4052  0.025428319  0.025116968            6 
 2434000   0.87244416   -7.0607809    746.21434  0.025548286  0.025110308            9 
 2435000   0.84558231   -7.0700514    742.56996  0.025413072  0.025103699            4 
 2436000   0.85273705   -7.0682872    745.49144  0.025502581  0.025097063            3 
 2437000   0.87293173   -7.0478723     744.9991   0.02547528  0.025090447            9 
 2438000   0.84877313   -7.0664909    744.80846  0.025458315  0.025083853            7 
 2439000   0.85456239   -7.0886125    745.75031  0.025480057  0.025077221            3 
 2440000   0.87359524   -7.0890018    745.84461  0.025472835  0.025070596            4 
 2441000    0.8667514    -7.102523    745.38701  0.025446777   0.02506394           11 
 2442000   0.87709478    -7.066594    744.32697  0.025400183  0.025057318            6 
 2443000   0.85320569   -7.0639821    748.49704  0.025532032  0.025050744            8 
 2444000   0.87131975   -7.0547699    747.52115   0.02548831  0.025044227            4 
 2445000   0.85939942   -7.0733246    747.01262  0.025460553  0.025037672            5 
 2446000   0.85885336   -7.0628061    746.10997  0.025419391  0.025031114            5 
 2447000   0.85626266   -7.0977047    748.13923   0.02547811   0.02502461            5 
 2448000   0.85577645   -7.0957354    748.48263  0.025479393  0.025018091            5 
 2449000   0.86556006   -7.0566049    749.95772  0.025519182  0.025011635            6 
 2450000   0.86829209   -7.0538447    749.03826  0.025477492  0.025005177            4 
 2451000   0.86165495   -7.0630261    748.45572  0.025447291  0.024998765            6 
 2452000    0.8483054   -7.0522839    749.27675  0.025464816   0.02499237           14 
 2453000   0.86338824    -7.056499    750.35384  0.025491026  0.024985941            3 
 2454000   0.84634337   -7.0517786    750.23581   0.02547663  0.024979542            4 
 2455000    0.8538365    -7.042715    750.60222   0.02547869  0.024973112           12 
 2456000   0.84671618   -7.0725972    749.31418  0.025424613  0.024966655            5 
 2457000   0.86253865   -7.0385821    749.87816  0.025433393  0.024960197            2 
 2458000   0.87502756   -7.0809927    749.06504  0.025395479  0.024953731            4 
 2459000    0.8587678   -7.0610346    749.19814  0.025389662  0.024947284            7 
 2460000    0.8688292   -7.0789543    749.57425  0.025392082   0.02494087            4 
 2461000   0.84860363    -7.041974    751.01684  0.025430612  0.024934433            4 
 2462000   0.88493086   -7.0623098    750.91839  0.025416951  0.024928009            7 
 2463000   0.85750449   -7.0578481    750.18455  0.025381802  0.024921597            5 
 2464000   0.86493662   -7.0715451    751.42273  0.025413377  0.024915178            3 
 2465000   0.87235119   -7.0454999     750.0952  0.025358188  0.024908749            3 
 2466000   0.86122353   -7.0668766    749.22821  0.025318607  0.024902343            4 
 2467000   0.85853625    -7.074033    748.79587   0.02529374  0.024895826            4 
 2468000   0.87239669   -7.0747144    750.25685  0.025332822  0.024889336            4 
 2469000   0.83411318   -7.1022353    750.41112  0.025327768  0.024882838            4 
 2470000   0.85185377     -7.07063    751.03553  0.025338581  0.024876391            6 
 2471000   0.86345385   -7.0640686    751.93647   0.02535871   0.02486999            7 
 2472000   0.86117938   -7.0666891     750.8704  0.025312514  0.024863598            5 
 2473000   0.85444334   -7.0383482    751.21229  0.025313799  0.024857225            4 
 2474000   0.86035023   -7.0613665    753.35787  0.025375838  0.024850829           13 
 2475000   0.85820493   -7.0776539    751.58259  0.025305811  0.024844492           10 
 2476000   0.84528615   -7.0752038    751.25971  0.025284724  0.024838122            3 
 2477000   0.85216499   -7.0817159    753.59398  0.025353047  0.024831726            4 
 2478000    0.8589541   -7.0290898    751.80192   0.02528255  0.024825331            3 
 2479000   0.82874827   -7.0734897    750.76412  0.025237465  0.024818893            8 
 2480000   0.84877206   -7.0903918    752.56633  0.025287847  0.024812507            7 
 2481000   0.85396198   -7.0561515    751.35587  0.025236997  0.024806093            4 
 2482000   0.84624922   -7.1084861    752.07981  0.025251135  0.024799679            3 
 2483000   0.85436232   -7.0938035    752.44029  0.025253064  0.024793214            8 
 2484000   0.86636949   -7.0681044    753.35021  0.025273424  0.024786721            4 
 2485000    0.8655859   -7.0786012    752.71316   0.02524189  0.024780324            3 
 2486000    0.8411475   -7.0658645    754.23214  0.025282654  0.024773904            5 
 2487000   0.83776902   -7.1123188    752.71368  0.025221608  0.024767494           15 
 2488000   0.85293558   -7.0537234     752.2035  0.025194383  0.024761075            4 
 2489000   0.85577903   -7.0873167     752.9373  0.025208829   0.02475465            7 
 2490000   0.86761637   -7.0793181    752.26164  0.025176092  0.024748214            6 
 2491000    0.8534068   -7.0877914    754.73612  0.025248766  0.024741814            3 
 2492000   0.86234747   -7.0387335    754.57811   0.02523335  0.024735443            4 
 2493000   0.85793018   -7.0734464    754.56357  0.025222743  0.024729051            5 
 2494000   0.85348087   -7.0581813    754.46656  0.025209388  0.024722682           12 
 2495000   0.86136966   -7.0458721    755.56249  0.025235888  0.024716261            7 
 2496000    0.8486221    -7.096339    753.84948  0.025168586  0.024709884            4 
 2497000   0.86027608     -7.09521    753.44379  0.025144967  0.024703479            3 
 2498000   0.86063939   -7.0681205     755.3255  0.025197675  0.024697109            4 
 2499000   0.83839025    -7.091324    754.74692  0.025168298  0.024690716           13 
 2500000   0.84715383    -7.109712    752.80786  0.025093595  0.024684283            7 
 2501000   0.83438088   -7.0901826     752.6915  0.025079685  0.024677762           11 
 2502000   0.86848182    -7.057039     753.7437  0.025104706  0.024671327            6 
 2503000   0.85775233   -7.0698314    752.43259  0.025051025  0.024664907            3 
 2504000   0.84950836   -7.0961587     755.0195  0.025127113  0.024658534            8 
 2505000   0.85092078   -7.0675161    754.38211  0.025095879  0.024652121            7 
 2506000   0.85637355   -7.0948147    753.94395  0.025071294  0.024645651            4 
 2507000   0.85477086    -7.105522    754.54969  0.025081428  0.024639128            4 
 2508000   0.84080528   -7.0772892    752.93733  0.025017854  0.024632606            5 
 2509000   0.87287458   -7.1133981    753.07029  0.025012299  0.024626068            4 
 2510000   0.85240967   -7.1259236    752.08701  0.024969688  0.024619477            7 
 2511000   0.85317846   -7.0763653    753.89451   0.02501973  0.024612904            9 
 2512000   0.84273233   -7.1186002    755.97404  0.025078757  0.024606335            3 
 2513000   0.85836239   -7.0892217    752.81081  0.024963881  0.024599737            5 
 2514000   0.84672199   -7.0642175    755.46658  0.025041984  0.024593198            7 
 2515000   0.84348739   -7.0797448    751.86325  0.024912632  0.024586605            4 
 2516000    0.8645815   -7.0902526    754.89939  0.025003292  0.024580002            7 
 2517000   0.83571545   -7.0982748    752.56419  0.024916044  0.024573454            4 
 2518000   0.84602769   -7.1019653    754.50207  0.024970283   0.02456686            5 
 2519000    0.8536304   -7.1003326    753.71324  0.024934274  0.024560272            4 
 2520000   0.84965201   -7.0817601     753.5399  0.024918648  0.024553676            5 
 2521000   0.85116623   -7.1041942    755.24877  0.024965251  0.024547123            4 
 2522000   0.84409569   -7.0849699    755.26615  0.024955926   0.02454055            5 
 2523000   0.85024091   -7.0744405    755.06564  0.024939412  0.024533988            3 
 2524000   0.84447624   -7.0748197    755.26787  0.024936208  0.024527482            6 
 2525000   0.85304243   -7.1097997    755.06198  0.024919537  0.024520925            5 
 2526000   0.85497548   -7.1000502    755.10986  0.024911252  0.024514366            6 
 2527000   0.85195993   -7.0966589    757.04448  0.024965192  0.024507843            6 
 2528000   0.83271231   -7.0685917    755.82842   0.02491523  0.024501277           13 
 2529000   0.84846601   -7.0918989    755.37043  0.024890287  0.024494672            6 
 2530000    0.8646023   -7.0772859    756.33501   0.02491222  0.024488131           13 
 2531000   0.83916829   -7.0947796    756.40683  0.024904742   0.02448162           10 
 2532000   0.85527675   -7.1001454    757.87578  0.024943252  0.024475148            7 
 2533000   0.83140201   -7.1064517     755.1775  0.024844634  0.024468651            6 
 2534000   0.84807079    -7.074469     755.8199  0.024855956  0.024462141           22 
 2535000    0.8466843   -7.1465298    757.19627  0.024891396  0.024455645            4 
 2536000   0.84545118   -7.0801589    758.64843  0.024929299  0.024449141            5 
 2537000   0.85720531     -7.08158    758.15552  0.024903282   0.02444264            3 
 2538000    0.8681038   -7.0974737    755.70264  0.024812931  0.024436108            6 
 2539000   0.85022879   -7.0954529    756.54051  0.024830659  0.024429564           10 
 2540000   0.85140144   -7.0885567    757.15947   0.02484119  0.024423097           13 
 2541000   0.87844144   -7.0946766    757.69358   0.02484893  0.024416661            8 
 2542000   0.83815749   -7.0951064    757.07591  0.024818906  0.024410214            5 
 2543000   0.84236045   -7.0896612    760.80156  0.024931235  0.024403771            5 
 2544000   0.83272036   -7.0949127    758.47002  0.024845061  0.024397291            5 
 2545000   0.82476095   -7.0940791    760.23362  0.024893046  0.024390838            8 
 2546000   0.83441607   -7.1051147    756.85481  0.024772676  0.024384367            7 
 2547000   0.85279961   -7.0864994    758.65768  0.024821937  0.024377919            6 
 2548000   0.84991812   -7.0937016    757.96886  0.024789667   0.02437138            5 
 2549000   0.85192405   -7.0920119    758.21801  0.024788087  0.024364886            3 
 2550000   0.81505187   -7.0885788    759.48947  0.024819917  0.024358453            5 
 2551000   0.86335773   -7.0939486    759.93293  0.024824674  0.024352057            4 
 2552000   0.85815058   -7.0946685    759.49776  0.024800737  0.024345661            5 
 2553000   0.85252518   -7.1028052    758.52491  0.024759267  0.024339258            4 
 2554000   0.82640312   -7.1381837    758.08478  0.024735212  0.024332793            8 
 2555000   0.85762135   -7.0659333    760.01767  0.024788574  0.024326349           10 
 2556000   0.84422778   -7.1285286    757.48059  0.024696159  0.024319918            3 
 2557000   0.84671096   -7.1053274    760.97292  0.024800317  0.024313505            2 
 2558000   0.85469355   -7.0942591    760.63858   0.02477973  0.024307151            7 
 2559000   0.84423742   -7.0869872    760.40324  0.024762382  0.024300771            3 
 2560000   0.83638161   -7.0694486    760.97428  0.024771298  0.024294385            7 
 2561000   0.87474074   -7.1056151    761.20919   0.02476927  0.024288008            5 
 2562000   0.83675652   -7.1055338    759.58283  0.024706701  0.024281597            5 
 2563000   0.83130422    -7.120443    760.14197  0.024715242  0.024275156            9 
 2564000   0.83450083   -7.1059605    760.17224  0.024706586  0.024268738            5 
 2565000    0.8352623   -7.1061892    758.38565   0.02463891   0.02426226           12 
 2566000   0.84676612   -7.0882248    759.96766  0.024680685  0.024255762            5 
 2567000   0.84833501   -7.1208621    759.15927  0.024644828  0.024249258            5 
 2568000   0.85120639   -7.1008092    760.08815  0.024665373  0.024242735            3 
 2569000   0.83948876   -7.1343777    759.94067  0.024650988  0.024236246            7 
 2570000   0.82618933   -7.1153946    761.61806  0.024695787  0.024229786            5 
 2571000   0.84782718   -7.1046272    760.73383  0.024657521  0.024223308            7 
 2572000   0.86313951   -7.0890668    761.08973  0.024659465  0.024216823            4 
 2573000   0.83772416    -7.072843    759.70453  0.024605018  0.024210362            8 
 2574000   0.83082016   -7.1141153    759.40521  0.024585768  0.024203782            5 
 2575000   0.85189305   -7.1318606    759.62929  0.024583472  0.024197255            4 
 2576000   0.83313968   -7.1549071    759.31294  0.024563695  0.024190741           10 
 2577000   0.81991529    -7.072332    760.12416  0.024580396  0.024184246            5 
 2578000   0.83478618   -7.1356936    762.45297   0.02464614  0.024177783            7 
 2579000   0.84309442    -7.121763    758.39417  0.024505434  0.024171335           10 
 2580000   0.84270208   -7.0833126    763.37204   0.02465672    0.0241649            4 
 2581000   0.85399016   -7.1163647    763.10712  0.024638613  0.024158505            5 
 2582000   0.82982499   -7.0863559     763.2551  0.024633846   0.02415206            4 
 2583000   0.84473119   -7.0772967    763.47151  0.024631291  0.024145721            3 
 2584000   0.82995328   -7.1135253    762.59847  0.024593604  0.024139325            5 
 2585000   0.84781784   -7.0738636     762.7973    0.0245905  0.024132931            4 
 2586000   0.83447971   -7.0903455    761.58632  0.024541967  0.024126538            5 
 2587000   0.85482339     -7.11388    761.27053  0.024522308  0.024120055            3 
 2588000   0.81109982   -7.1152407    763.92066  0.024598166   0.02411359            4 
 2589000   0.82671208   -7.1378671     763.3814  0.024571308  0.024107166            5 
 2590000   0.83436443    -7.145971     762.1231  0.024521335  0.024100693            6 
 2591000   0.82271603   -7.0836322    763.38253  0.024552378  0.024094243            4 
 2592000   0.83545402   -7.1165286    761.45091  0.024480803  0.024087829            5 
 2593000   0.84315248   -7.1076736    761.34344  0.024467908  0.024081376            9 
 2594000   0.82334491   -7.0976027    762.75399   0.02450379  0.024074887            4 
 2595000   0.82743257   -7.1129984     762.6818   0.02449203  0.024068432            3 
 2596000   0.85462669   -7.1225184     762.7562  0.024484983  0.024062022            7 
 2597000   0.84691134   -7.0951205    764.31023  0.024525421  0.024055577            7 
 2598000   0.84732669   -7.0881773    763.84245  0.024500977  0.024049174            3 
 2599000   0.83548671   -7.0806923    765.02011   0.02452931  0.024042743            3 
 2600000   0.82704373   -7.1454699    762.08883  0.024425924  0.024036247           11 
 2601000   0.82500927   -7.1132495    761.46349  0.024396498  0.024029743           21 
 2602000   0.84612533   -7.0909309    762.74799   0.02442826  0.024023259            9 
 2603000   0.84766434   -7.1091878    762.65865  0.024416015   0.02401678            5 
 2604000   0.83519679   -7.1106396    763.89042  0.024446058   0.02401031            3 
 2605000   0.84001432   -7.1139084     765.2627  0.024480572  0.024003914            4 
 2606000    0.8356026   -7.1189536     764.9607  0.024461521  0.023997505            3 
 2607000   0.81573613   -7.1484416    763.91393  0.024418678  0.023991065            6 
 2608000   0.86647489   -7.1212591    764.72532  0.024435242  0.023984603           11 
 2609000    0.8208115   -7.1119843    765.95705  0.024465218   0.02397818            7 
 2610000   0.81936558   -7.1381245    764.89452  0.024421919  0.023971744           12 
 2611000   0.82523685   -7.1129393    766.98925  0.024479422  0.023965377            5 
 2612000    0.8428091   -7.1095458    764.29047  0.024383948  0.023958947            9 
 2613000   0.83986601   -7.1274447    765.87218   0.02442506  0.023952463            6 
 2614000    0.8193791   -7.1376305    764.85827  0.024383393  0.023946071            8 
 2615000    0.8144963   -7.1354837    764.75792  0.024370871  0.023939635            3 
 2616000   0.84176345   -7.1266328    764.97855  0.024368583  0.023933214           14 
 2617000   0.83345707   -7.1140864    764.55816  0.024345884  0.023926783           20 
 2618000   0.83978473   -7.1209658    763.71079  0.024309613  0.023920362           10 
 2619000   0.81575299   -7.1252958     764.7388  0.024333041  0.023913941            7 
 2620000   0.84172553   -7.1061091    764.15552  0.024305201  0.023907507            5 
 2621000   0.84298151   -7.1525954    764.35881  0.024302391  0.023901069            9 
 2622000   0.84293702   -7.1400815    764.96266  0.024312314  0.023894598            9 
 2623000   0.85422871   -7.1222075    764.01661  0.024272989  0.023888119           17 
 2624000   0.82121431    -7.136418    765.93853  0.024324775  0.023881675            6 
 2625000   0.84154883   -7.1289019    764.55356  0.024271542  0.023875242            5 
 2626000   0.83047542   -7.1281126    767.50277  0.024355889  0.023868813            5 
 2627000   0.84132477   -7.1351285    765.29355  0.024276537  0.023862358            5 
 2628000   0.82633883    -7.156947    765.79086  0.024283069  0.023855891           13 
 2629000   0.83039783   -7.1245326    765.24576  0.024256554   0.02384943            6 
 2630000   0.84504459   -7.1493108     767.2672  0.024311381  0.023843015            9 
 2631000   0.82696846   -7.1240464    765.74646  0.024253974  0.023836619            5 
 2632000   0.83583991   -7.1263083    767.59383   0.02430325  0.023830243           11 
 2633000   0.83647342   -7.1385029    765.93404  0.024241487  0.023823849            8 
 2634000   0.84234518   -7.1767355    767.70566  0.024288334  0.023817459            8 
 2635000   0.83353001   -7.1388892    765.52241   0.02421007  0.023811072            3 
 2636000   0.84135802   -7.1258023    768.11214  0.024282756  0.023804672            5 
 2637000    0.8421547   -7.1331075    767.57515  0.024256578  0.023798303            4 
 2638000   0.83999576   -7.1521111     765.8105  0.024191638  0.023791889            9 
 2639000   0.84647493   -7.1497212    768.36479   0.02426313  0.023785455            7 
 2640000   0.82442472   -7.0985748    768.70872  0.024264795  0.023779055            5 
 2641000   0.83843712   -7.1153045    768.59468  0.024252009  0.023772675            5 
 2642000   0.84539822   -7.1352888    767.52093  0.024208962  0.023766276            7 
 2643000   0.81459187   -7.1243055    765.59638  0.024139121  0.023759841            6 
 2644000   0.84143928   -7.1467378    767.07034  0.024176448  0.023753378            4 
 2645000   0.82589086   -7.1407542    765.76571  0.024126204  0.023746918            7 
 2646000   0.83114925   -7.1176077    766.65434  0.024145073  0.023740518            9 
 2647000   0.80969313   -7.1348307    769.01667  0.024210322  0.023734134            6 
 2648000   0.83434415   -7.1346971    768.36414  0.024180644  0.023727714            7 
 2649000   0.84727576   -7.1415255    769.85545   0.02421843  0.023721293            5 
 2650000   0.84751083   -7.1332992    765.86846  0.024083914  0.023714891            7 
 2651000   0.84053279    -7.117362    768.92007  0.024170755  0.023708518            4 
 2652000   0.81291757   -7.1431118    769.60656  0.024183213   0.02370215            7 
 2653000   0.83055852   -7.1292643    769.13745  0.024159362  0.023695758           28 
 2654000    0.8231229   -7.1442813    768.05898  0.024116396  0.023689344            7 
 2655000   0.83466889   -7.1547001     769.1779  0.024142433   0.02368293            5 
 2656000   0.83424031   -7.1104189    770.18355  0.024164895   0.02367655            3 
 2657000    0.8286472   -7.1179456    769.72476  0.024141411  0.023670224            6 
 2658000   0.82362703   -7.1485811    768.92287  0.024107188  0.023663888            5 
 2659000   0.83254332   -7.1278755    769.82965  0.024126541  0.023657565           11 
 2660000   0.81654496   -7.1509703    769.49828  0.024107089  0.023651163            9 
 2661000   0.84121823   -7.1304594    771.55744  0.024162515  0.023644795           10 
 2662000   0.84928221   -7.1342697    770.02315  0.024105408  0.023638469            7 
 2663000   0.83693094   -7.1113153    770.26784  0.024104013  0.023632166            3 
 2664000   0.81886934   -7.1466494    769.95639  0.024085222  0.023625827            4 
 2665000   0.82646305   -7.1327614    770.13403  0.024081739  0.023619478            3 
 2666000   0.81597271   -7.1101467    771.63637  0.024119667  0.023613147            5 
 2667000     0.812405   -7.1497019    770.44667  0.024073449  0.023606808            5 
 2668000   0.82726349    -7.140778    770.69511  0.024072186  0.023600462            4 
 2669000   0.81173096   -7.1467113    771.61767  0.024091972  0.023594145            5 
 2670000   0.84303644   -7.1416925    771.38792  0.024075778  0.023587786            8 
 2671000   0.82514007   -7.1663023    769.00633   0.02399246  0.023581394            6 
 2672000   0.84242924   -7.1413855    769.70015  0.024005119  0.023574975            8 
 2673000   0.82307394   -7.1724756    768.64219  0.023963156  0.023568552            5 
 2674000   0.82367664   -7.1438207    769.56833  0.023983057  0.023562102           12 
 2675000   0.82267816   -7.1744488    767.83689  0.023920152  0.023555677           11 
 2676000   0.82783136   -7.1546463    770.42335  0.023991759   0.02354927            4 
 2677000   0.81405363   -7.1598983    770.68335   0.02399089  0.023542875            6 
 2678000   0.83013848   -7.1102292    772.87837  0.024050236  0.023536484            6 
 2679000   0.82334552   -7.1561475    770.29057  0.023960762  0.023530105            7 
 2680000   0.84457374   -7.1461127    770.01328  0.023943199  0.023523733            8 
 2681000   0.81791448   -7.1185427    772.57793  0.024013985   0.02351737            4 
 2682000   0.82190772   -7.1484134    770.57639  0.023942841  0.023510974            7 
 2683000   0.81743103   -7.1201857    772.14425  0.023982614  0.023504593            4 
 2684000   0.80866053   -7.1504685    770.53194  0.023923619  0.023498194            5 
 2685000    0.8386784   -7.1382001    772.44651  0.023974131   0.02349178            6 
 2686000   0.81680231   -7.1475189    773.10623  0.023985674  0.023485442            6 
 2687000   0.81151063   -7.1490221    771.32878  0.023921622  0.023479044           10 
 2688000   0.82642212   -7.1454378    771.26736  0.023910819  0.023472628           10 
 2689000    0.8134287   -7.1505586     770.7338  0.023885391  0.023466245            5 
 2690000   0.81133497   -7.1264584    771.77644  0.023908812  0.023459816           10 
 2691000   0.81409479   -7.1283155    770.98117    0.0238753  0.023453408           10 
 2692000   0.82519217   -7.1357009    772.49335  0.023913241  0.023447042            6 
 2693000   0.82278144   -7.1353091    771.58318  0.023876197  0.023440625            4 
 2694000   0.81339623   -7.1702356    769.75261  0.023810709  0.023434217            5 
 2695000   0.81598248   -7.1231623    774.12505  0.023937077  0.023427848            5 
 2696000   0.79626899   -7.1205802    773.53382  0.023909923  0.023421519            7 
 2697000   0.81626808   -7.1244405    773.41207  0.023897296  0.023415207            6 
 2698000   0.83044023   -7.1684932    772.54917  0.023861786  0.023408868            8 
 2699000   0.82940647   -7.1359094    772.40286  0.023848427  0.023402512            5 
 2700000   0.81657508    -7.148064    772.97671  0.023857306  0.023396151            5 
 2701000   0.80743969   -7.1534677    773.04896  0.023850702  0.023389781            7 
 2702000   0.82288804   -7.1523913    772.52164  0.023825612  0.023383389            5 
 2703000   0.81435364   -7.1297593    775.18956  0.023899049  0.023377021            4 
 2704000   0.81200781   -7.1389123     772.3996  0.023804228  0.023370627            5 
 2705000   0.80599628   -7.1568336    773.33287   0.02382418  0.023364242            9 
 2706000   0.82636778   -7.1356918    772.28475  0.023783098  0.023357846           13 
 2707000   0.81441256   -7.1810618     771.5127  0.023750545  0.023351417            9 
 2708000   0.81790674   -7.1480808    772.94583  0.023785876  0.023345027            4 
 2709000   0.83951867    -7.147694    771.87814  0.023744252  0.023338625            3 
 2710000   0.82012967   -7.1126103    773.16994  0.023775213  0.023332218            5 
 2711000   0.80553086     -7.14608    773.43527  0.023774599  0.023325855            7 
 2712000   0.82399454   -7.1622884    772.63572  0.023741265  0.023319411            8 
 2713000   0.80540605   -7.1780748    772.67122  0.023733604  0.023312954            9 
 2714000    0.8048959   -7.1627337    773.09306  0.023737812  0.023306532           11 
 2715000   0.81083093   -7.1595059    774.42024  0.023769805  0.023300117            9 
 2716000   0.81275281   -7.1685857    773.64576   0.02373729  0.023293726           15 
 2717000   0.83314986   -7.1708869    774.07727  0.023741788  0.023287303           11 
 2718000   0.82877539   -7.1354905     774.1806  0.023736222  0.023280897            5 
 2719000   0.82089711   -7.1672102    774.06847  0.023724055  0.023274506            8 
 2720000   0.80896253   -7.1496673     772.7815  0.023675904  0.023268122            6 
 2721000   0.81732663   -7.1456066    773.61622  0.023692767  0.023261752            7 
 2722000   0.81068028   -7.1547657    772.84676  0.023660506  0.023255362            5 
 2723000    0.8165811   -7.1704842    773.65225  0.023676467  0.023248943            6 
 2724000   0.83878967   -7.1466791    773.88853  0.023675004  0.023242517            7 
 2725000   0.81822084   -7.1828532    771.67269  0.023598553  0.023236102            6 
 2726000   0.83108511    -7.148697    773.77278  0.023654096  0.023229683            4 
 2727000   0.82505396    -7.170859    773.57152  0.023639271  0.023223296            6 
 2728000   0.82400964   -7.1798739    773.96637  0.023642668  0.023216862            3 
 2729000   0.82511358   -7.1694318    774.07258  0.023637248  0.023210424            7 
 2730000    0.8138032   -7.1601285    775.50548  0.023672328  0.023203962            8 
 2731000   0.80287023   -7.1432344    774.19718  0.023623739  0.023197498            7 
 2732000   0.82719296   -7.1416599    774.51283   0.02362472  0.023191041           10 
 2733000   0.80290421   -7.1766419    771.76617  0.023532326  0.023184583            7 
 2734000   0.82051399   -7.1389097    773.91027  0.023589072  0.023178154            4 
 2735000   0.83386166   -7.1713822    772.26157  0.023530212   0.02317171            5 
 2736000   0.79587989    -7.125152    775.26746  0.023613166  0.023165283            7 
 2737000   0.82427822   -7.1829737    774.04726  0.023567387  0.023158839            7 
 2738000   0.81036364   -7.1619415    774.24143  0.023564689  0.023152375            5 
 2739000   0.80682659   -7.1440577    772.70669  0.023509392  0.023145991            4 
 2740000   0.80204023   -7.1414875      774.869  0.023566576   0.02313959            2 
 2741000    0.8104827   -7.1692006    774.74306  0.023554149  0.023133194            6 
 2742000   0.80945008   -7.1501975    775.03026  0.023554287  0.023126759            7 
 2743000   0.81497627   -7.1656788    775.00637  0.023544974  0.023120327            3 
 2744000   0.81547234    -7.171841    775.71829  0.023558014  0.023113888            6 
 2745000   0.83486717   -7.1399797    776.38833  0.023569773  0.023107475            5 
 2746000   0.82065652   -7.1514699    773.98345  0.023488209  0.023101089            2 
 2747000    0.8265479   -7.1717432    774.50641  0.023495523  0.023094643            4 
 2748000   0.80321613   -7.1717736    774.33943  0.023481909  0.023088206            8 
 2749000   0.80981515   -7.1787933    776.23535   0.02353084  0.023081734            5 
 2750000   0.81999661   -7.1524516    774.43632  0.023467767  0.023075291            5 
 2751000   0.81172397   -7.1799197    776.65331  0.023526394  0.023068825            3 
 2752000   0.81049466   -7.1853846    774.75075  0.023460233  0.023062371            4 
 2753000   0.82254601   -7.1711863    773.85915  0.023424723  0.023055918            7 
 2754000   0.81089924    -7.146454    776.64126  0.023500401  0.023049449            6 
 2755000   0.79634798   -7.1739531    776.62524  0.023491387  0.023042997            5 
 2756000   0.81296553   -7.1849853     777.5403  0.023510532   0.02303657            7 
 2757000   0.81111345   -7.1731972    776.05984  0.023457256  0.023030139            4 
 2758000   0.80047976   -7.1599836    776.61704  0.023465586  0.023023747            5 
 2759000   0.80820024    -7.142659    777.99194  0.023498609  0.023017322            4 
 2760000   0.80906854   -7.1270352    776.21318  0.023436388  0.023010936            7 
 2761000   0.81067869   -7.1662358    777.14257  0.023455951  0.023004563            7 
 2762000   0.78853198   -7.1927634    775.81488    0.0234074  0.022998144            6 
 2763000   0.80502362   -7.1841528     776.9381  0.023432806  0.022991734            4 
 2764000   0.80789085   -7.1664761    777.09803   0.02342915  0.022985346            9 
 2765000   0.83012483   -7.1557165     777.8332  0.023442833  0.022978961           10 
 2766000   0.81516148   -7.1627169     777.5376  0.023425452  0.022972558            5 
 2767000   0.81287792   -7.1478426    777.08419  0.023403331  0.022966179            5 
 2768000   0.80327433   -7.1735726    777.07764  0.023394678  0.022959844            6 
 2769000   0.81795487   -7.1863722    777.24608  0.023391299  0.022953475            6 
 2770000   0.82919162   -7.1861488      777.004  0.023375572  0.022947091            6 
 2771000   0.82118269   -7.1433213    777.39454  0.023378881  0.022940743           30 
 2772000   0.80573652   -7.1557668    778.31443  0.023398101  0.022934413           12 
 2773000   0.84423192   -7.1915596    776.12118  0.023323752  0.022928056            7 
 2774000   0.81760085   -7.2092655    778.30429  0.023380927  0.022921696            7 
 2775000   0.82392632     -7.17952    778.16011  0.023368171  0.022915302            6 
 2776000   0.80539509    -7.199493    780.00627  0.023415174  0.022908919            3 
 2777000   0.79914693   -7.1836999    777.70517   0.02333769  0.022902537            9 
 2778000   0.79525531   -7.1928475    777.61206  0.023326496  0.022896162            5 
 2779000   0.79923319   -7.1653265     777.5493   0.02331622  0.022889811            5 
 2780000   0.82008747   -7.1608805    779.37927  0.023362688  0.022883504            4 
 2781000   0.79838254   -7.1790786    776.65815  0.023272748  0.022877192            5 
 2782000    0.8021181   -7.1800452    777.81285  0.023298971  0.022870809            6 
 2783000   0.81543347   -7.1557787    780.62865  0.023374915  0.022864465            3 
 2784000   0.82694892    -7.173531    779.07432  0.023319993  0.022858125            9 
 2785000   0.82640331   -7.1706075    777.62571  0.023268274  0.022851718            3 
 2786000   0.80534717   -7.2077004    778.29971  0.023280082  0.022845331            5 
 2787000   0.81064708   -7.1865705    777.66505  0.023252752  0.022838905           13 
 2788000   0.81872913   -7.1648473    779.61903  0.023302817    0.0228325            6 
 2789000   0.80158161   -7.1750209    778.95915  0.023274745  0.022826107           15 
 2790000   0.79393187   -7.2032834    779.22674  0.023274395  0.022819699            8 
 2791000   0.80544215   -7.2016562    779.95085  0.023287676  0.022813294            5 
 2792000   0.80935685   -7.1835126    777.33577  0.023201283  0.022806873            7 
 2793000   0.80582256   -7.1915779    778.54418   0.02322903  0.022800473            5 
 2794000   0.79588345   -7.1893081    777.67799  0.023194881  0.022794069            5 
 2795000   0.78442089   -7.1632861    780.53507  0.023271767   0.02278768            5 
 2796000   0.80746928   -7.1661267      778.977  0.023217006  0.022781274            8 
 2797000   0.80886179   -7.2433305    777.68683  0.023170267  0.022774825           10 
 2798000   0.81313632   -7.1799571    779.07111  0.023203214  0.022768414            5 
 2799000   0.80975854    -7.188699    780.67168  0.023242577  0.022762001            6 
 2800000   0.79834672   -7.2187915    776.72057  0.023116684  0.022755589            6 
 2801000     0.818572   -7.1943864     777.9332  0.023144508   0.02274912            5 
 2802000   0.79128654   -7.1766087     778.1854  0.023143749  0.022742704            5 
 2803000   0.80878734   -7.1929324    777.77766   0.02312337  0.022736294           14 
 2804000   0.80921278   -7.1892884    779.56814  0.023168335  0.022729865            5 
 2805000    0.8072752   -7.1880634    779.13576   0.02314723  0.022723443            9 
 2806000   0.79486454   -7.1998335    779.31838  0.023144404  0.022716983            6 
 2807000   0.80482315   -7.1612176    779.30681  0.023135815  0.022710535            9 
 2808000   0.81203802    -7.167734    778.88104  0.023114941  0.022704092            6 
 2809000   0.80133805   -7.1839595     778.5192  0.023095977  0.022697658            7 
 2810000    0.8030302   -7.1790252    779.86583  0.023127694  0.022691257            3 
 2811000   0.80010045   -7.1707798    781.08496  0.023155608  0.022684849            3 
 2812000    0.8090988   -7.1964275    779.33615  0.023095547  0.022678433            3 
 2813000   0.79805672   -7.2178559    778.63738  0.023066637  0.022671999            4 
 2814000   0.80500849   -7.2020445    778.32307  0.023049131  0.022665537            5 
 2815000   0.80185125   -7.2009293    778.47294   0.02304538  0.022659083           10 
 2816000   0.80742084   -7.1623271     779.5946  0.023070389  0.022652645            8 
 2817000   0.79743798   -7.1751611     779.0632   0.02304648  0.022646243           10 
 2818000   0.78952398   -7.2067585    777.82896  0.023001803  0.022639802            8 
 2819000   0.81433413    -7.186388    779.94803  0.023056286  0.022633345            7 
 2820000   0.80506232   -7.1834294    779.87265  0.023045882  0.022626915            5 
 2821000   0.79395476   -7.2074317    779.77671  0.023034879  0.022620485            8 
 2822000   0.82832701   -7.2096709    779.73781  0.023025567  0.022614032            7 
 2823000   0.77320677   -7.1859597    779.04222  0.022996878  0.022607581           14 
 2824000   0.81010429   -7.1769185    778.70637  0.022978823  0.022601117            9 
 2825000   0.79812267   -7.1667562    779.38357  0.022990666  0.022594667            4 
 2826000   0.81394885   -7.1977718    778.92444  0.022968991  0.022588238            8 
 2827000   0.80819234   -7.2153782     780.5808  0.023009692  0.022581792            8 
 2828000   0.80354313   -7.2148347    781.14474  0.023018174  0.022575357            9 
 2829000   0.78977013   -7.1827067    779.70976  0.022967767  0.022568917           11 
 2830000   0.79766295   -7.2319647    780.21904  0.022974648  0.022562469            7 
 2831000   0.79138463   -7.2146049    779.33577  0.022940532  0.022556007            5 
 2832000   0.81468099    -7.198146    779.28787  0.022931022  0.022549571            7 
 2833000    0.8013669   -7.2060857    781.13684  0.022977316  0.022543157            8 
 2834000   0.80348848   -7.1846418    780.76751  0.022958348  0.022536762            6 
 2835000   0.77959349   -7.2005736    779.60479  0.022916073  0.022530384            6 
 2836000   0.80268543   -7.1877388     780.3183  0.022928958  0.022523965            5 
 2837000   0.79955758   -7.1949632     781.3922  0.022952421  0.022517524           16 
 2838000   0.79918295   -7.1735037    782.39211  0.022973693  0.022511123           10 
 2839000    0.7818626   -7.1945331    781.01644  0.022925221  0.022504737            2 
 2840000   0.79168371   -7.1889944    780.69378  0.022907681  0.022498342            6 
 2841000   0.77504495   -7.1736892    781.21171   0.02291481  0.022491947            5 
 2842000   0.80297048   -7.2052069    781.67255   0.02292026  0.022485536            4 
 2843000   0.78543195   -7.2097628    781.53036   0.02290803  0.022479177           11 
 2844000   0.77809053   -7.1758305    781.57524   0.02290129  0.022472814           11 
 2845000   0.80027299   -7.2019044    781.29702  0.022885091  0.022466426            5 
 2846000   0.80568577   -7.2230427    782.92492  0.022924717  0.022460041           12 
 2847000   0.79153355   -7.1769394    781.86537  0.022885651  0.022453647            6 
 2848000   0.80494016   -7.1998981    780.73055   0.02284441  0.022447281            6 
 2849000   0.80232076   -7.1953688    781.92861  0.022871435  0.022440902            7 
 2850000   0.80354269   -7.2153992    781.71138  0.022857058  0.022434515            7 
 2851000   0.78621449   -7.2228678    781.21186   0.02283444  0.022428116           23 
 2852000   0.81529833   -7.2241206    781.76179  0.022842502  0.022421685            3 
 2853000   0.78899306   -7.2123632    782.35409  0.022851796  0.022415264            5 
 2854000   0.80053015   -7.2348211    781.83557  0.022828649   0.02240883           13 
 2855000   0.78467661   -7.1960596    780.08323  0.022769505  0.022402435           21 
 2856000   0.79713863   -7.1978852    782.54856  0.022833466  0.022396042            4 
 2857000   0.78977526   -7.2084667    782.36315  0.022820066  0.022389657            8 
 2858000   0.78993444   -7.2047721    780.83647  0.022767567  0.022383274            8 
 2859000   0.81331052   -7.2249256      781.819  0.022788242  0.022376898            5 
 2860000   0.78752978   -7.1763635    785.34905  0.022883131   0.02237057            5 
 2861000   0.78986832   -7.1985495     782.5608  0.022793918  0.022364249            6 
 2862000   0.80036753   -7.1989132     782.5322  0.022785121  0.022357908            9 
 2863000   0.77414814   -7.1771627     784.1824  0.022825195  0.022351588            5 
 2864000   0.79714084    -7.189774    783.99419  0.022811749  0.022345292           11 
 2865000   0.79591352   -7.1958439    784.52656  0.022819272  0.022338993            6 
 2866000    0.7957139   -7.2203241    784.14062  0.022800088  0.022332653            7 
 2867000   0.79126104   -7.1771014    784.02555   0.02278879  0.022326363            6 
 2868000   0.80581357   -7.1975129     783.5572  0.022767236  0.022320085            7 
 2869000   0.78136463   -7.2182375    785.46067  0.022814589  0.022313757            8 
 2870000   0.79337841   -7.2184784    783.78356  0.022757943  0.022307404           13 
 2871000   0.77816049   -7.2130464     784.1265  0.022759971  0.022301047           14 
 2872000   0.79753364   -7.2246835    784.16927  0.022753287  0.022294728            6 
 2873000   0.78394961   -7.1908428    784.74168   0.02276197  0.022288455            9 
 2874000   0.79773789   -7.2149677    785.32269  0.022770897  0.022282179            4 
 2875000    0.7793402   -7.1915531    785.52091  0.022768722  0.022275872            6 
 2876000   0.79520332   -7.2442388    784.21926  0.022723089  0.022269566            7 
 2877000   0.78780535   -7.2405034    785.30549  0.022746654  0.022263233           14 
 2878000   0.79016462   -7.2182589    785.36545  0.022740487  0.022256938           17 
 2879000   0.78664319   -7.2102518    784.99719  0.022721929  0.022250641            9 
 2880000   0.77853762   -7.2070149    784.54615  0.022700988  0.022244346            7 
 2881000   0.79208211   -7.2002311     785.5212  0.022721312  0.022238033            5 
 2882000   0.79921755   -7.2142629    785.37274  0.022709136  0.022231718            6 
 2883000   0.78524832   -7.2139737    784.34496   0.02267155  0.022225399            8 
 2884000   0.79925988   -7.2210052    784.41408  0.022665687  0.022219074            8 
 2885000   0.79244902   -7.1974783    785.63739  0.022693166  0.022212754            6 
 2886000   0.79300551   -7.1791834    785.69524  0.022686973  0.022206456           10 
 2887000   0.79297918   -7.2302975    785.58443  0.022675916  0.022200183           10 
 2888000   0.79486451   -7.2197785    783.59517  0.022610664  0.022193888           13 
 2889000   0.79928542   -7.2060345    785.68962  0.022663252  0.022187578           10 
 2890000   0.78428487    -7.222454    784.54409  0.022622379  0.022181288            9 
 2891000   0.77804338   -7.2416281    784.38332  0.022609919  0.022174969            8 
 2892000   0.78910565   -7.2270423    782.71612  0.022554061  0.022168649            7 
 2893000   0.78233464   -7.2210354    783.87805  0.022579734  0.022162354            7 
 2894000   0.79487876   -7.2379146    784.73979  0.022596746  0.022156051            7 
 2895000   0.79073804   -7.2112207    786.53305   0.02264056  0.022149748            4 
 2896000    0.7880682   -7.2328469    786.93556  0.022644324  0.022143476            5 
 2897000   0.79168119   -7.1948529    786.33188  0.022619143  0.022137215            3 
 2898000   0.79385286   -7.2292878    786.99851  0.022630507  0.022130948            6 
 2899000   0.77241316   -7.2151793    786.33134  0.022603522  0.022124646            3 
 2900000   0.79334154   -7.2031339    786.86265  0.022610996  0.022118325            4 
 2901000   0.79196206   -7.2359293    783.60604  0.022509653  0.022112031            6 
 2902000   0.78045893   -7.1974461    785.99816  0.022570588  0.022105718            8 
 2903000   0.77892274   -7.2454981    785.60427  0.022551506  0.022099395           10 
 2904000   0.78427118   -7.2113656    784.98224  0.022525891  0.022093033           11 
 2905000   0.78400805   -7.2563301    785.86558  0.022543476  0.022086699           14 
 2906000    0.7772511    -7.240944    784.54055  0.022497722  0.022080364           11 
 2907000   0.79008513   -7.2367009    783.98776  0.022474136  0.022074034            9 
 2908000   0.78596264   -7.2014516    786.66278  0.022543065  0.022067689           11 
 2909000    0.7975622    -7.241378    785.68693   0.02250736  0.022061353            9 
 2910000   0.78583635   -7.2217154    784.89656  0.022476992  0.022055017            9 
 2911000   0.78552999   -7.1954978    786.72485  0.022521609  0.022048699            6 
 2912000   0.79228067   -7.2275956    786.30937  0.022501985  0.022042356            5 
 2913000   0.78854544    -7.250442    784.50061  0.022442517   0.02203601            5 
 2914000   0.77540528   -7.2438787    785.17576  0.022454123  0.022029667            5 
 2915000   0.78001589   -7.2205567    785.64373  0.022459798  0.022023299            7 
 2916000   0.78271458   -7.2142492    786.75807  0.022483941   0.02201697            4 
 2917000   0.77275551   -7.2209096    786.29379   0.02246297   0.02201062            7 
 2918000   0.79778528   -7.2318909    786.02028  0.022447461  0.022004265            8 
 2919000   0.79493111   -7.2352055     784.8802  0.022407223  0.021997866            6 
 2920000    0.7777309   -7.2349322    786.26202  0.022438984  0.021991462            7 
 2921000   0.79649634   -7.2331064    785.24396  0.022402258  0.021985051            9 
 2922000   0.79621382   -7.2102238    784.77821  0.022381309  0.021978648            4 
 2923000   0.78719337   -7.2771985    783.66222  0.022341835  0.021972266           10 
 2924000   0.78389421   -7.2333348    785.58898  0.022389107  0.021965858            5 
 2925000   0.77637441    -7.221252    785.85087  0.022388914  0.021959483           13 
 2926000   0.78379849   -7.1919428    785.59453  0.022373961  0.021953106           11 
 2927000    0.7771984   -7.2259203    786.30146  0.022386444  0.021946742            3 
 2928000   0.79179349   -7.2562436    785.74735  0.022363028  0.021940368            9 
 2929000   0.77938715   -7.2039825     788.3823   0.02243036  0.021934004           11 
 2930000   0.77273465   -7.2135472    786.34591  0.022364787  0.021927669            8 
 2931000   0.78388707   -7.2371261    784.65842  0.022309178  0.021921354           11 
 2932000   0.77337289    -7.252395    786.01253  0.022340056  0.021914983            4 
 2933000   0.79124862   -7.2249675    784.59517  0.022292169  0.021908618            9 
 2934000   0.79266573   -7.2119245    787.53268  0.022368004  0.021902251            6 
 2935000   0.77600243   -7.2415329     787.3197  0.022354336  0.021895922            4 
 2936000   0.77354992   -7.2307369    787.59673  0.022354585  0.021889609            7 
 2937000   0.79064799   -7.2094778      787.374  0.022340654  0.021883269            6 
 2938000   0.76262177   -7.2165685    787.60694  0.022339657   0.02187696            5 
 2939000   0.77941791   -7.2479971    785.87534  0.022282957  0.021870639            6 
 2940000   0.78287952   -7.2412775    786.42013   0.02229082  0.021864281            8 
 2941000   0.77424347   -7.2380508    786.33821   0.02228092   0.02185795            6 
 2942000   0.78733584   -7.2394052    787.22138  0.022298362  0.021851612           11 
 2943000   0.76832524   -7.2472409    785.92648  0.022254119  0.021845256            7 
 2944000   0.78249366   -7.2647193     786.2713  0.022256321  0.021838914           10 
 2945000   0.77370014   -7.2591723    787.35201  0.022279344  0.021832564            8 
 2946000   0.77983929   -7.2514288    788.58401  0.022306631   0.02182621            3 
 2947000   0.77545976   -7.2120903     786.6683   0.02224489  0.021819904            9 
 2948000   0.76714234   -7.2314628    787.60419    0.0222638  0.021813584           11 
 2949000   0.77614707   -7.2403092    786.52973  0.022225888  0.021807265            6 
 2950000   0.76119504    -7.230212    789.20774  0.022294004  0.021800969            5 
 2951000   0.79002457   -7.2143928    788.13899  0.022256269  0.021794689           10 
 2952000   0.78091032   -7.2416035      787.681    0.0222358  0.021788428            5 
 2953000   0.78718356   -7.2350454     788.9885  0.022265168  0.021782141            5 
 2954000   0.76939254   -7.2631435    787.47623  0.022214969  0.021775846            6 
 2955000   0.79133096   -7.2166069    789.99315  0.022278431  0.021769569            8 
 2956000   0.77577973   -7.2360286     789.8969  0.022268181  0.021763321            7 
 2957000   0.77229308   -7.2657491    788.24285  0.022214036  0.021757047            6 
 2958000   0.76911061   -7.2205018    789.57134  0.022243952  0.021750785            7 
 2959000   0.77844889   -7.2253651    789.44353  0.022232836  0.021744507            6 
 2960000   0.77879151   -7.2383906    790.17844  0.022246015  0.021738251           15 
 2961000   0.77430664   -7.2334423    789.31546  0.022214214   0.02173199            9 
 2962000   0.75877483   -7.2208367    788.46791  0.022182869  0.021725735            4 
 2963000   0.75525514   -7.2367523    789.66588  0.022209075  0.021719473            8 
 2964000   0.77840868   -7.2630582    788.92913  0.022180869  0.021713218            7 
 2965000   0.79286042   -7.2200492    787.36981  0.022129562  0.021706969            7 
 2966000   0.76785641   -7.2208434    790.78048  0.022217928  0.021700727            6 
 2967000   0.78301007   -7.2621098    790.17709  0.022193492  0.021694553           12 
 2968000   0.79634878   -7.2517962    791.47771  0.022222532  0.021688361            9 
 2969000   0.78284987   -7.2010486    789.20145  0.022151158  0.021682176            5 
 2970000   0.77678521   -7.2253396    791.58374  0.022210543   0.02167601            8 
 2971000   0.78195086   -7.2282288    792.28167  0.022222643  0.021669882           11 
 2972000   0.76602659   -7.2403478    791.73679  0.022199887  0.021663723            9 
 2973000   0.78234088   -7.2352999    790.11882  0.022147069  0.021657539            4 
 2974000   0.76430029   -7.2432788    791.70055  0.022183943  0.021651343            4 
 2975000     0.777887   -7.2373801    790.10105  0.022131682  0.021645165           12 
 2976000   0.77213464   -7.2321178    791.28293   0.02215734  0.021638974            6 
 2977000   0.76806316   -7.2345963    791.17322  0.022146826  0.021632784            5 
 2978000   0.77732563   -7.2619037    790.12558  0.022110073  0.021626564            5 
 2979000   0.77161032   -7.2167314     790.5455  0.022114398  0.021620358            9 
 2980000   0.76666159   -7.2648662    790.63749  0.022109549  0.021614151            6 
 2981000   0.74745418   -7.2432455    790.35455  0.022094223   0.02160796           11 
 2982000   0.76468904   -7.2510892    791.48517   0.02211841  0.021601769            6 
 2983000   0.77007423   -7.2736783    789.55048  0.022056947  0.021595517            5 
 2984000   0.79415668   -7.2410318    789.14257  0.022038164  0.021589283           10 
 2985000   0.77736378   -7.2543391    789.83413  0.022050087  0.021583076            6 
 2986000   0.76696071   -7.2268835    790.22402  0.022053584  0.021576876            5 
 2987000   0.76254716   -7.2069073    792.49556  0.022109574  0.021570725            5 
 2988000   0.76114903   -7.2532875    791.71747  0.022080474  0.021564587            4 
 2989000   0.77286891   -7.2383009    791.82027  0.022075953  0.021558408           14 
 2990000    0.7806273   -7.2498298    793.09379  0.022104063  0.021552249            8 
 2991000   0.75927246   -7.2448285    793.77657  0.022115696  0.021546098            8 
 2992000   0.76639843   -7.2534623    793.19413  0.022092083  0.021539966            9 
 2993000   0.77981226   -7.2703755    791.62159  0.022040918  0.021533812           17 
 2994000   0.76453914   -7.2694584    793.30243  0.022080339  0.021527643            8 
 2995000   0.77207285   -7.2570606    793.24201  0.022071286  0.021521521            6 
 2996000   0.77178205   -7.2886157    792.25757  0.022036537   0.02151541            8 
 2997000   0.76263424   -7.2594612    792.85756  0.022045867  0.021509274            5 
 2998000   0.78619673   -7.2544011    793.46509  0.022055401  0.021503141            8 
 2999000   0.78288729   -7.2435917    793.54329  0.022050219  0.021497041            5 
 3000000   0.77160697   -7.2563506    794.08018  0.022057783  0.021490959            6 
 3001000   0.76331644   -7.2542717    793.60256   0.02203717  0.021484833           13 
 3002000    0.7740087    -7.267625    794.05169  0.022042297  0.021478715            4 
 3003000   0.77944478   -7.2438058    792.86167  0.022001933  0.021472582            7 
 3004000   0.78094695   -7.2475451    794.43142  0.022038155  0.021466468            7 
 3005000   0.76978805   -7.2631699    793.03671  0.021992144  0.021460354            4 
 3006000   0.77162669   -7.2357084    794.67529  0.022030253  0.021454266           12 
 3007000   0.77642551   -7.2814063    794.09721  0.022006907  0.021448173            7 
 3008000   0.74769738   -7.2423878    794.20375  0.022002542  0.021442065           10 
 3009000   0.77465475   -7.2499087    793.93695  0.021987841  0.021435972            6 
 3010000   0.77066753   -7.2421428    794.08694  0.021984688  0.021429868            5 
 3011000    0.7756072   -7.2423967     794.4511  0.021987465  0.021423798            7 
 3012000   0.78490809   -7.2437316    792.76948   0.02193364  0.021417709           13 
 3013000   0.76288943   -7.2513667     792.4031  0.021916227   0.02141161           13 
 3014000   0.77748637   -7.2470037     795.4477  0.021993135   0.02140555            4 
 3015000   0.77831145   -7.2793774     793.6494  0.021936136  0.021399463           14 
 3016000    0.7672971   -7.2502121    794.08538  0.021940909  0.021393324            5 
 3017000   0.77018102   -7.2626702    795.52341  0.021973357  0.021387261            9 
 3018000   0.76952161   -7.2467677    794.75453  0.021944846  0.021381161            3 
 3019000   0.75844983   -7.2686447    793.97822  0.021916148  0.021375077            8 
 3020000    0.7886166   -7.2433123     793.1573  0.021886239  0.021368973            4 
 3021000   0.75714825   -7.2719444    793.08171  0.021876909  0.021362836            7 
 3022000   0.77419713   -7.2755715    792.59632  0.021856285  0.021356712            7 
 3023000   0.77557492   -7.2512928    794.03775   0.02188879  0.021350586           10 
 3024000   0.77179911   -7.2475744    793.69814  0.021872193  0.021344441            9 
 3025000   0.77319897   -7.2811733    792.33424   0.02182739    0.0213383           10 
 3026000   0.77199874   -7.2882469    792.67908  0.021829673  0.021332128           11 
 3027000   0.76474334   -7.2659682    792.12346  0.021807165  0.021325981            8 
 3028000   0.76246522   -7.2556164    793.56196  0.021839552  0.021319859            6 
 3029000   0.76131043   -7.2248498    794.66857  0.021862787  0.021313746            8 
 3030000   0.77292823   -7.2612675    795.08907  0.021867136  0.021307635            3 
 3031000   0.76567991   -7.2887231    794.37187  0.021840203  0.021301507            8 
 3032000   0.75684794    -7.272525    795.07166  0.021852233  0.021295377           10 
 3033000   0.76982231   -7.2588844    794.68008   0.02183427   0.02128926           17 
 3034000   0.77317057   -7.2489199    794.77333  0.021829635  0.021283144            5 
 3035000   0.77760746   -7.2732303    794.71035  0.021820713  0.021277021           13 
 3036000   0.77633961   -7.2818865    793.85701  0.021790102  0.021270908           10 
 3037000   0.77105915   -7.2702578    792.86406  0.021755682  0.021264773            9 
 3038000   0.76337744   -7.2681609    793.05401  0.021753731   0.02125862            8 
 3039000   0.77597848   -7.2957402    793.58649  0.021761174  0.021252456            6 
 3040000   0.76746852   -7.2724827    795.14139  0.021796639  0.021246309            6 
 3041000   0.78094406   -7.2707668    791.86948   0.02169981  0.021240165            5 
 3042000   0.77210919   -7.2738489    794.18196  0.021756026  0.021234069            6 
 3043000   0.77171544   -7.2598389    794.79403  0.021765638  0.021227954           12 
 3044000   0.75114399   -7.2613318    796.18097  0.021796457  0.021221841           13 
 3045000   0.74974905   -7.2636716    795.14829  0.021761037  0.021215746            7 
 3046000   0.77702857   -7.2550493    792.83246  0.021690536  0.021209647            8 
 3047000   0.75804004   -7.2951492    794.07148  0.021717303  0.021203552            8 
 3048000   0.75509573   -7.2859632    796.72355  0.021782687  0.021197466            9 
 3049000    0.7480744    -7.268992    795.72017  0.021748119  0.021191349            8 
 3050000   0.76011083   -7.2495593    794.75537  0.021714628  0.021185254            5 
 3051000   0.77110739   -7.2587936    794.14742  0.021690905  0.021179137           11 
 3052000   0.75403018   -7.2889804    795.08612  0.021709429  0.021173014            7 
 3053000   0.76534366   -7.2711534    795.22285   0.02170605  0.021166898            8 
 3054000    0.7652275   -7.2834991    794.57645  0.021681305  0.021160779            8 
 3055000   0.78510622   -7.2586247    796.10107  0.021715796  0.021154657            5 
 3056000   0.76486849   -7.2936352    796.53876  0.021720625  0.021148546           11 
 3057000   0.76281178   -7.2598625    795.19611  0.021676919  0.021142416            8 
 3058000    0.7638386   -7.2631082    796.85947  0.021715159  0.021136307            8 
 3059000   0.74309015   -7.2792579    795.28956  0.021665293  0.021130185            9 
 3060000   0.77103479   -7.2729924    794.02151  0.021623679  0.021124047            6 
 3061000    0.7737779   -7.2675552    794.83536  0.021638772  0.021117945            5 
 3062000   0.76749549   -7.2920414    794.64476  0.021626517  0.021111823            5 
 3063000   0.76425179   -7.2958881    796.05439  0.021657808  0.021105713            9 
 3064000   0.75138046    -7.273701    795.14738  0.021626071  0.021099623            5 
 3065000   0.76933876   -7.2913505    794.28617    0.0215956  0.021093551            4 
 3066000   0.77657281   -7.2793751    796.31598  0.021643726  0.021087466            8 
 3067000   0.76646688   -7.2843061    795.07185  0.021602865  0.021081377            5 
 3068000   0.76205387   -7.2700353    796.48519  0.021634213   0.02107528            9 
 3069000   0.77805992   -7.3059617    793.74149  0.021552663  0.021069148           10 
 3070000   0.75361139   -7.2738367    795.92067  0.021604796  0.021063015            6 
 3071000    0.7544206   -7.2849442    794.75566  0.021566147  0.021056903           12 
 3072000   0.74645928   -7.3114142    795.38573  0.021576219  0.021050786            7 
 3073000   0.76335091   -7.2906769    795.69743   0.02157765  0.021044681           15 
 3074000   0.76603553    -7.270683    795.77588  0.021572757  0.021038577           12 
 3075000   0.77709559   -7.2772169    797.30618  0.021607213  0.021032483            6 
 3076000   0.77131633    -7.276207     795.5428  0.021552417  0.021026413            5 
 3077000   0.75943498   -7.3040263    797.15131  0.021588975   0.02102033            7 
 3078000   0.75759746   -7.2459288    796.53724  0.021565336  0.021014248           15 
 3079000   0.75654626   -7.2707772     794.1914  0.021494841  0.021008162            6 
 3080000   0.75648199   -7.2653917    795.59313  0.021525788  0.021002087            5 
 3081000   0.76635619   -7.2879679    795.82059  0.021524954  0.020996013            6 
 3082000   0.75224289   -7.3022837    795.82544  0.021518101  0.020989925            8 
 3083000   0.75633982   -7.2746677    795.89094  0.021512892  0.020983817           11 
 3084000   0.75435988   -7.2973276    796.70558  0.021527928  0.020977703            4 
 3085000   0.75680578   -7.2609958    794.07992  0.021450025  0.020971584            5 
 3086000   0.74421592   -7.2868107     795.4469  0.021479988  0.020965466            8 
 3087000   0.74553385   -7.2956188    796.92896  0.021513037  0.020959347            5 
 3088000     0.758055   -7.2659349    796.70919   0.02150014  0.020953246            8 
 3089000   0.74008925   -7.2840574    795.11489   0.02145017  0.020947109            5 
 3090000   0.75525833   -7.2530975    796.19541  0.021472368  0.020941022            5 
 3091000   0.75179385   -7.2672497    798.10886  0.021517008  0.020934966            4 
 3092000   0.76166289   -7.2662025     796.6762  0.021471437  0.020928885            3 
 3093000   0.75583323   -7.2742421    796.04733  0.021447552  0.020922791            7 
 3094000   0.76309262   -7.2911806    794.62812  0.021402395  0.020916686            8 
 3095000   0.76697868   -7.2826055     796.6142  0.021448955  0.020910599            6 
 3096000   0.73850573   -7.2652812    798.58443  0.021495059  0.020904527            8 
 3097000   0.76143733   -7.2711389    797.55007  0.021460286   0.02089846            9 
 3098000   0.77410986   -7.3055217    795.89207   0.02140876  0.020892414            9 
 3099000   0.74457002   -7.3232087    796.56362   0.02141991  0.020886324           17 
 3100000   0.73938735   -7.2887284    795.99935  0.021397832  0.020880201            5 
 3101000    0.7548537   -7.2728351    796.76018  0.021411378  0.020874092           12 
 3102000    0.7495804   -7.3152032    795.82256  0.021379287  0.020867976            6 
 3103000     0.763768   -7.2811382    794.69539  0.021342126  0.020861861           12 
 3104000   0.77064561   -7.2901752    795.10263  0.021346183  0.020855728           10 
 3105000   0.75070896    -7.274178    796.09882  0.021366045  0.020849568            4 
 3106000   0.74394892   -7.2753069    796.80201  0.021378032   0.02084345           10 
 3107000    0.7396236   -7.2690884    796.43787  0.021361385  0.020837353            7 
 3108000   0.75556036   -7.2917161    797.86029  0.021392651  0.020831244           15 
 3109000   0.74055917   -7.3184724    797.09553  0.021365271  0.020825122            8 
 3110000    0.7512584   -7.2887424    798.12423  0.021385965  0.020819033            9 
 3111000   0.75102928   -7.2959108    795.56135   0.02131044  0.020812941           10 
 3112000   0.76042523   -7.2844378    797.05859  0.021343685  0.020806818           11 
 3113000   0.76767921   -7.2862606    793.66889  0.021246089  0.020800687           12 
 3114000   0.73684818   -7.2859894    796.32354  0.021310307  0.020794544            7 
 3115000   0.74853663   -7.2765085    796.98369  0.021321126  0.020788417           10 
 3116000   0.75726384   -7.2992348    797.26286   0.02132175  0.020782292            8 
 3117000   0.74544802   -7.3064077    796.19106  0.021286254  0.020776147           16 
 3118000   0.75557412   -7.2827948    795.87409  0.021270956  0.020770017            9 
 3119000   0.73587442   -7.2576212    797.56918  0.021309426   0.02076387            6 
 3120000   0.75111541    -7.267508    797.23881  0.021293772  0.020757754            5 
 3121000    0.7369265   -7.2909719    795.87993  0.021250666  0.020751651            5 
 3122000   0.73411266   -7.3117339    796.01091  0.021247355  0.020745509            7 
 3123000    0.7475567   -7.3028214    797.72527  0.021286297  0.020739363            9 
 3124000   0.74534094   -7.2696597    796.46077  0.021245753  0.020733219            7 
 3125000   0.74634448   -7.2765636    797.22252  0.021259267  0.020727094            6 
 3126000   0.75985692   -7.3099801    797.55431  0.021261311  0.020720962           13 
 3127000   0.75930563   -7.3006265     796.8066  0.021234586  0.020714824            7 
 3128000   0.74803397   -7.2923266    796.89154   0.02123006  0.020708704            4 
 3129000   0.75280972   -7.2920863    797.12922  0.021229605  0.020702592            3 
 3130000   0.75898451   -7.3058169    796.32668  0.021201456  0.020696476            5 
 3131000   0.74166112   -7.2909163    795.95846  0.021184884  0.020690363            9 
 3132000   0.74725318   -7.2823874    797.89724  0.021229705  0.020684248            8 
 3133000   0.75406722   -7.3058328    796.61968  0.021188948  0.020678136           12 
 3134000   0.75341397   -7.2896912    797.43077  0.021203754  0.020672023           14 
 3135000   0.77688231   -7.2744659    795.40268   0.02114308  0.020665902            6 
 3136000   0.75397532   -7.2799895    796.56294   0.02116717  0.020659803            8 
 3137000   0.75147934   -7.2662062    798.87741  0.021221906  0.020653717            5 
 3138000   0.74092356   -7.2979731    798.27586  0.021199168  0.020647611            4 
 3139000   0.76444494   -7.3034242    796.05812  0.021133538  0.020641508            6 
 3140000   0.75244808    -7.285432    796.65719  0.021142707    0.0206354            3 
 3141000   0.75156679   -7.3016396    796.14091  0.021122278   0.02062929            5 
 3142000   0.72966898   -7.2719529    798.44448  0.021176652  0.020623172           14 
 3143000   0.73853057   -7.3086507    796.44166  0.021116811  0.020617052           17 
 3144000   0.75122541   -7.3013336     797.4333  0.021136379   0.02061093           12 
 3145000   0.74328825   -7.3236284    795.63569  0.021082027  0.020604817           11 
 3146000   0.73864457   -7.3184818    796.92597  0.021109503  0.020598657            4 
 3147000   0.75377126   -7.3359178    795.03184  0.021052638  0.020592479           12 
 3148000   0.73448337   -7.3358272    796.62242  0.021088057  0.020586297            6 
 3149000   0.76705575   -7.3020723    796.10369  0.021067632  0.020580139            5 
 3150000    0.7317281   -7.3008683    797.06421  0.021086355  0.020573994            4 
 3151000   0.75304175   -7.3035396    797.02375  0.021078593  0.020567872            8 
 3152000   0.72610264   -7.2991182    797.76488    0.0210915  0.020561765            3 
 3153000   0.72970523   -7.3153186    796.10745  0.021041005  0.020555667            4 
 3154000   0.75400727   -7.2741213    794.68991   0.02099688   0.02054956            5 
 3155000   0.74303387   -7.2858565    798.13631  0.021081255  0.020543463            9 
 3156000   0.74606105   -7.3151117    797.45645  0.021056623  0.020537368            4 
 3157000   0.74527097   -7.3166284    797.39273  0.021048272  0.020531269            7 
 3158000   0.75147563   -7.2652114    797.20713  0.021036709  0.020525209            6 
 3159000   0.75574285   -7.2980787    797.92938  0.021049102  0.020519153            4 
 3160000   0.74297395   -7.3138295     798.6884  0.021062458  0.020513091            9 
 3161000   0.75542346   -7.2935724     798.2991  0.021045532  0.020507065            5 
 3162000    0.7581351   -7.2778812    798.86698  0.021053842   0.02050102            3 
 3163000   0.74507659   -7.3191081    798.97207  0.021049954  0.020494971            8 
 3164000   0.76118732   -7.3043091     799.1466  0.021047898  0.020488897            9 
 3165000   0.75960839   -7.3082687    797.88426  0.021008011  0.020482814            8 
 3166000   0.73942416   -7.2991012    798.99972  0.021030736  0.020476747            8 
 3167000   0.76128058   -7.3271719    796.91712  0.020969296  0.020470664           12 
 3168000   0.72905187   -7.3106664    798.83994  0.021013256  0.020464569           11 
 3169000   0.74198142   -7.2905356    799.32705  0.021019434  0.020458492            4 
 3170000   0.74067153   -7.2889703    798.43751  0.020989419  0.020452448           12 
 3171000   0.73443509   -7.2619971    798.10655  0.020974103    0.0204464           11 
 3172000   0.73658586   -7.2925757    799.50817  0.021004313  0.020440345            6 
 3173000   0.74302513   -7.3231277    799.47198  0.020996743  0.020434298            4 
 3174000   0.75844519   -7.2816624    800.67806  0.021021793  0.020428279            6 
 3175000   0.73568599   -7.3129844    798.37194  0.020954644  0.020422254           14 
 3176000   0.73941908   -7.2885807    798.85898  0.020960825  0.020416207           24 
 3177000   0.73001813   -7.3387961    797.00742  0.020905661  0.020410131            7 
 3178000   0.74570119   -7.3173049    798.89817  0.020948662  0.020404041            8 
 3179000   0.74536813   -7.3426638    797.13167  0.020895766  0.020397974           12 
 3180000   0.74832654    -7.321502    798.88343    0.0209351  0.020391893            9 
 3181000   0.74349648   -7.3269251     799.0674  0.020933338  0.020385844            5 
 3182000   0.74570311   -7.2969988    799.34104  0.020933926  0.020379823            4 
 3183000   0.75352766    -7.310058    800.51618  0.020958116  0.020373807           11 
 3184000   0.75083026   -7.2887467    800.80106  0.020958989  0.020367811            6 
 3185000   0.74323862   -7.3187292    801.19958  0.020962836  0.020361825            5 
 3186000   0.73475302   -7.3357369    801.09815  0.020953603  0.020355832            8 
 3187000   0.72865962   -7.2987448    801.29713  0.020952231  0.020349846            3 
 3188000   0.74837368   -7.3241396    800.12692   0.02091507  0.020343858            6 
 3189000   0.73096967   -7.3059332    800.48082  0.020917759  0.020337863            8 
 3190000    0.7479464   -7.3092446    799.91275  0.020896362  0.020331878            4 
 3191000   0.74809353   -7.3106303    800.78725  0.020912652  0.020325884            5 
 3192000   0.74266256   -7.3108905    801.49135  0.020924482  0.020319901            9 
 3193000   0.72093328   -7.2798057    801.56971  0.020919974  0.020313916            7 
 3194000   0.73732748   -7.3103731    802.51561  0.020938103  0.020307937           12 
 3195000   0.74177346   -7.3106538    799.13212    0.0208433  0.020301929           13 
 3196000   0.72671764   -7.3299871    800.76043  0.020879235  0.020295924            7 
 3197000   0.73100192    -7.288949    801.94123  0.020903483  0.020289938            6 
 3198000   0.74734928     -7.30242    801.37592  0.020882216  0.020283941           17 
 3199000   0.74221776   -7.3136863    802.15318  0.020895936  0.020277955           17 
 3200000   0.74528273     -7.31425     801.2343  0.020865476  0.020271982           12 
 3201000   0.74039323   -7.3384613    798.60335  0.020790465  0.020266013            8 
 3202000   0.74077313   -7.3186551    800.23647  0.020826475  0.020260052            8 
 3203000   0.73565618   -7.2908063    802.99594  0.020891767  0.020254131            7 
 3204000    0.7450984   -7.3194032    800.29609  0.020815025  0.020248205           19 
 3205000   0.72813303   -7.3140786    802.79592  0.020873529  0.020242269            8 
 3206000   0.74480399   -7.3138501    802.39207  0.020856521  0.020236337           10 
 3207000   0.74740752   -7.3255603    800.52042  0.020801383  0.020230413           10 
 3208000   0.73043591   -7.3124926    802.43631  0.020844667  0.020224482            8 
 3209000   0.73268554   -7.3334361     802.1136  0.020829791  0.020218543            5 
 3210000   0.73596126   -7.3112087    801.73749  0.020813538  0.020212599           10 
 3211000   0.73230411   -7.3422251    802.03565  0.020814794  0.020206682            7 
 3212000   0.72822716   -7.3295823    801.58925  0.020796732  0.020200714           18 
 3213000   0.73576647   -7.3213314    802.33997   0.02080973  0.020194767           10 
 3214000   0.73780437     -7.34765    802.04952  0.020795725  0.020188854           12 
 3215000   0.74588787    -7.321632    802.66339  0.020805168  0.020182935            7 
 3216000   0.74290164   -7.3273689    801.76182  0.020775337  0.020176994            8 
 3217000   0.72707512   -7.3333619    801.94992  0.020773752  0.020171053            4 
 3218000   0.72020358   -7.3171138    802.03343  0.020769459  0.020165097           14 
 3219000   0.74782262   -7.3569657    800.10517  0.020713088  0.020159143           19 
 3220000   0.73413605   -7.3081718    800.85072   0.02072595  0.020153207           13 
 3221000   0.73445462   -7.3281872    802.89071  0.020772294   0.02014728            9 
 3222000   0.73160514   -7.3287826    802.53105  0.020756545  0.020141353           11 
 3223000   0.72900152   -7.3402865    802.41094  0.020746999  0.020135433            9 
 3224000    0.7147618   -7.3451505    803.50937  0.020768956   0.02012951           14 
 3225000   0.72022995   -7.3272741    803.15838  0.020753447  0.020123598           10 
 3226000   0.74328951    -7.291398    803.58418  0.020758012  0.020117709            7 
 3227000   0.72217798    -7.317161    801.51022  0.020698022  0.020111805            9 
 3228000   0.74127516   -7.3034973    801.89484   0.02070154  0.020105897            7 
 3229000   0.73013995   -7.3179762    802.49892  0.020710719  0.020099982           17 
 3230000   0.72862097   -7.3370169    801.60418  0.020681222  0.020094048           13 
 3231000   0.72122585   -7.3132491    802.55089  0.020699239    0.0200881           10 
 3232000   0.74816996    -7.352119    801.25489  0.020659419  0.020082171           11 
 3233000   0.72501467   -7.3365903    802.13718   0.02067577  0.020076234            7 
 3234000   0.72741509   -7.3337141    802.59826  0.020681258  0.020070312            8 
 3235000   0.73241346   -7.3376083    801.38878  0.020643709  0.020064374            7 
 3236000   0.73038652   -7.3364703    802.59075  0.020668283   0.02005845            9 
 3237000   0.75159861   -7.3256019    803.07039  0.020674245  0.020052516            8 
 3238000   0.72441277   -7.3382216    802.61242  0.020656074  0.020046601            6 
 3239000   0.72538254   -7.3321358    800.66226  0.020599523  0.020040659            4 
 3240000   0.73457828   -7.3168046    802.28132  0.020634808  0.020034737            6 
 3241000    0.7318166   -7.3134478    802.15655  0.020625233  0.020028814            9 
 3242000   0.73369113   -7.3130615    801.75109  0.020608449    0.0200229            4 
 3243000   0.72726553    -7.339624    802.36023  0.020617747   0.02001699            8 
 3244000   0.72262872   -7.3254897    804.45593  0.020665226  0.020011077            5 
 3245000   0.75064629   -7.3487951    801.31651  0.020578236  0.020005168           10 
 3246000   0.73716895   -7.3422818    803.27706  0.020622229  0.019999259           10 
 3247000   0.73148474   -7.3132886    803.74773  0.020627957  0.019993352            8 
 3248000   0.74936393   -7.3441597    803.11858  0.020605464  0.019987431            4 
 3249000   0.72890818   -7.3700807    801.00143   0.02054482  0.019981502           10 
 3250000   0.72843688    -7.332526    801.58697  0.020553512  0.019975561            6 
 3251000   0.73526336   -7.3329112    803.01554  0.020583809  0.019969618            3 
 3252000   0.72527904   -7.3370005    802.03964  0.020552471  0.019963692            5 
 3253000   0.73136287   -7.3606763     802.6932  0.020562896  0.019957771            8 
 3254000   0.73125575   -7.3737298    801.52145  0.020526569  0.019951862            4 
 3255000   0.73246722   -7.3580668    802.47978  0.020544797  0.019945952            5 
 3256000   0.74000745   -7.3500693    804.49346  0.020590025  0.019940049            7 
 3257000   0.72587914   -7.3559273    804.13272  0.020574473  0.019934149           12 
 3258000   0.71649439   -7.3650094    803.02293  0.020539772  0.019928233            9 
 3259000   0.73051614   -7.3633007    799.63023  0.020446718  0.019922324           17 
 3260000   0.73530654   -7.3494513    801.95592  0.020499896  0.019916413           21 
 3261000   0.73906856   -7.3364003    802.38602    0.0205046  0.019910517           24 
 3262000   0.72467768   -7.3280341    801.79331  0.020483173  0.019904623           11 
 3263000   0.72227773   -7.3512113    802.57519  0.020496863   0.01989873           17 
 3264000   0.73857698   -7.3184221    803.34129  0.020510143  0.019892845           15 
 3265000   0.73628483   -7.3449358    802.56688  0.020484096  0.019886957            6 
 3266000   0.72092059   -7.3337814    804.64892  0.020530948  0.019881068           12 
 3267000   0.72596864   -7.3428194     803.3694  0.020492026  0.019875169            9 
 3268000   0.71648313   -7.3585419    802.54306  0.020464684  0.019869279           12 
 3269000   0.73497972   -7.3503324    803.23049  0.020475948  0.019863376            8 
 3270000   0.71581088   -7.3505965    803.49376  0.020476395  0.019857489            7 
 3271000   0.72685034   -7.3572579    803.40365   0.02046784  0.019851621           12 
 3272000   0.73827804   -7.3379311    801.76742  0.020419912  0.019845761           11 
 3273000   0.72778712   -7.3446267     804.2284  0.020476332   0.01983989            8 
 3274000   0.73619893   -7.3727185    803.84328  0.020460275  0.019834016           10 
 3275000   0.72675374   -7.3381027    805.57497  0.020498091  0.019828155            5 
 3276000   0.73936501    -7.359661    803.71468  0.020444513   0.01982232            8 
 3277000   0.73569618    -7.358218    804.17367  0.020449946  0.019816457           10 
 3278000   0.73093297   -7.3767563     802.8534  0.020410143  0.019810596            6 
 3279000   0.73096534   -7.3666317    803.36568  0.020416938  0.019804717           11 
 3280000   0.73520261   -7.3594006    803.43765  0.020412542   0.01979886           10 
 3281000   0.72392342   -7.3604199    802.87638  0.020392065  0.019792972           11 
 3282000    0.7224935   -7.3225022    805.42183  0.020450483  0.019787128            9 
 3283000   0.73421419   -7.3678836    804.72305  0.020426517  0.019781287            8 
 3284000   0.73526948   -7.3474747    803.45227   0.02038805  0.019775438           17 
 3285000   0.74179352   -7.3555736    805.24413  0.020427299  0.019769598           16 
 3286000   0.72801649   -7.3377602    805.85253  0.020436512  0.019763747            6 
 3287000    0.7134629   -7.3538877    804.86967  0.020405377  0.019757905            8 
 3288000    0.6980249   -7.3428445    806.19535  0.020432769  0.019752053           10 
 3289000   0.71930079   -7.3688673    804.53314  0.020384441  0.019746199           11 
 3290000   0.71966407   -7.3518181    805.49306   0.02040256  0.019740346           10 
 3291000   0.72550949   -7.3767998    803.09246  0.020335573  0.019734504           10 
 3292000   0.73848001   -7.3425406    805.42331  0.020388399  0.019728682            8 
 3293000   0.72242854    -7.331418    803.53101  0.020334321  0.019722855            9 
 3294000   0.73378602   -7.3698493    804.50437  0.020352772  0.019717028            6 
 3295000   0.73529177   -7.3663542    803.65465  0.020325105  0.019711207           16 
 3296000   0.72477235   -7.3630615     804.4199  0.020338286  0.019705388           14 
 3297000   0.71430262   -7.3481948    805.09286  0.020349127  0.019699571           18 
 3298000   0.71676285   -7.3426466    805.28545  0.020347823  0.019693746           13 
 3299000   0.74582023   -7.3527109    803.52718  0.020297241  0.019687917           18 
 3300000   0.72788756   -7.3903247    805.90266  0.020351077  0.019682104           12 
 3301000   0.74712796   -7.3361472    808.92946  0.020421323  0.019676312            7 
 3302000   0.73768692   -7.3464918    807.09188  0.020368763  0.019670538            8 
 3303000   0.73270545   -7.3411439    803.80777   0.02027974  0.019664765            4 
 3304000   0.71731846   -7.3738715    805.24018   0.02030973  0.019658971            8 
 3305000   0.72961688   -7.3236726    805.57123  0.020311932  0.019653168            7 
 3306000    0.7267535   -7.3426523    806.00572   0.02031674  0.019647365            6 
 3307000   0.71320085   -7.3554081    805.51475  0.020298225  0.019641551           11 
 3308000   0.70824967   -7.3571191    805.73382  0.020297607  0.019635739            7 
 3309000   0.71348895    -7.366191    804.93588  0.020271378  0.019629924            5 
 3310000   0.72014508   -7.3710819    803.78299  0.020236228  0.019624099            8 
 3311000   0.71474587   -7.3694657     803.7735  0.020229878  0.019618248            7 
 3312000   0.72215476   -7.3786779    804.77027  0.020248849  0.019612415            8 
 3313000   0.71434927   -7.3632451    805.58445  0.020263217  0.019606574           12 
 3314000   0.73471004   -7.3774749     805.6941   0.02025986   0.01960076            6 
 3315000   0.72944052   -7.3717828    804.84501  0.020232404   0.01959496            6 
 3316000   0.72958203   -7.3553537    805.36758  0.020239435  0.019589164           10 
 3317000   0.71908656   -7.3608666    805.97128    0.0202485  0.019583339            7 
 3318000   0.72814847    -7.361667    804.62857  0.020208674  0.019577537            4 
 3319000   0.71767543   -7.3575712    805.55868  0.020225939   0.01957174            8 
 3320000   0.72118547   -7.3578662    804.61089  0.020196056   0.01956594            5 
 3321000   0.71874363   -7.3573781    806.54443  0.020238493  0.019560153            8 
 3322000   0.71780217   -7.3540311     807.7892  0.020263626  0.019554372            6 
 3323000   0.71859544   -7.3728654     805.5384  0.020201083  0.019548593           11 
 3324000   0.71663928   -7.3390387    806.40172   0.02021665  0.019542802           15 
 3325000   0.73580756   -7.3549035    804.65567  0.020166809  0.019537019            8 
 3326000    0.7115098   -7.3657452    807.01713  0.020219912  0.019531225            6 
 3327000   0.73638782   -7.3635214    804.62466  0.020153909  0.019525441            6 
 3328000   0.72952523    -7.340745    806.90628  0.020204985   0.01951966           13 
 3329000   0.72897557   -7.3386653    806.55244  0.020190058  0.019513882            8 
 3330000   0.73411977   -7.3759324    805.14071  0.020148666  0.019508091            8 
 3331000   0.71865899   -7.3461096    806.21449  0.020169481  0.019502304            8 
 3332000   0.70950466   -7.3906784    805.73362  0.020151401  0.019496496            7 
 3333000   0.72079765   -7.3608503    806.33804  0.020160467  0.019490694            6 
 3334000   0.72499068   -7.3954233    805.48654  0.020133137  0.019484889            4 
 3335000   0.71747492   -7.3900571    804.87419  0.020111799   0.01947908            8 
 3336000   0.73193418   -7.3663234    804.33191  0.020092224   0.01947326           13 
 3337000   0.72164624   -7.3659302    806.17089  0.020132127   0.01946745            7 
 3338000   0.71926658   -7.3713581    805.33009  0.020105105   0.01946164           13 
 3339000   0.71533981   -7.3750003    807.81484  0.020161097  0.019455837            5 
 3340000   0.71465916   -7.3915843    806.32063   0.02011778  0.019450039            9 
 3341000   0.73464174   -7.3794392    807.16752  0.020132882  0.019444244           17 
 3342000   0.72109507   -7.3588017     806.0664  0.020099401  0.019438447            7 
 3343000   0.71343569   -7.3641157    806.54709  0.020105372  0.019432651           10 
 3344000   0.72397724   -7.4101422    803.82283   0.02003147  0.019426837           13 
 3345000   0.72603649   -7.3904005    805.89469  0.020077097  0.019421016            9 
 3346000   0.71547223   -7.3963046    805.25489  0.020055163  0.019415208           13 
 3347000   0.70059416   -7.3889341    805.08754  0.020045004  0.019409411           12 
 3348000   0.71092773   -7.3751014    804.32117  0.020019941  0.019403608            8 
 3349000   0.71248325    -7.377807     805.4923  0.020043105  0.019397799           15 
 3350000   0.72510689    -7.369425    804.87436   0.02002175  0.019392018           10 
 3351000   0.73220963   -7.3807134    806.05657  0.020045175  0.019386251            9 
 3352000   0.72900689    -7.369896    805.17796  0.020017352  0.019380493           13 
 3353000   0.71892903   -7.3604809    807.20626  0.020061792  0.019374726            7 
 3354000   0.70801033   -7.3661321     806.1065  0.020028486  0.019368962            6 
 3355000   0.70955291   -7.3768725    808.09569  0.020071925   0.01936319            8 
 3356000   0.70856647   -7.3759436    806.98647  0.020038401  0.019357435           16 
 3357000   0.69579036   -7.3535107    807.29791  0.020040163  0.019351664            9 
 3358000   0.71120257   -7.3413606    805.72343  0.019995122   0.01934592            7 
 3359000   0.72162622   -7.3378314    806.80675  0.020016045  0.019340158            6 
 3360000   0.73508288   -7.3819213    806.02651  0.019990737  0.019334418            7 
 3361000   0.71961114   -7.3738445    805.59718  0.019974144  0.019328622            9 
 3362000   0.70759719   -7.3509816    804.45782  0.019939962  0.019322846           20 
 3363000    0.7087198    -7.380153    807.49391  0.020009265  0.019317079           14 
 3364000   0.71438064   -7.3536218    807.40746  0.020001176  0.019311317           34 
 3365000   0.72443805   -7.3879576     806.0767  0.019962276  0.019305547            6 
 3366000   0.71145679   -7.3774688    806.63478  0.019970162  0.019299781           10 
 3367000    0.7063262   -7.3576804    807.25329  0.019979539  0.019294027            7 
 3368000    0.7213606   -7.3602757    807.27421  0.019974124  0.019288295           11 
 3369000   0.72423096   -7.3555409     807.4954  0.019973667  0.019282576            9 
 3370000   0.71998595   -7.3558462    806.61318  0.019945924  0.019276859            9 
 3371000   0.69936384   -7.3861873    806.05633  0.019926242  0.019271111            7 
 3372000   0.71980192   -7.3764984    807.23169   0.01994938  0.019265349            7 
 3373000   0.71567536   -7.3888721    806.95671  0.019936671  0.019259578            8 
 3374000    0.7301303    -7.405985    806.94427  0.019930455  0.019253829            8 
 3375000   0.71395841    -7.376045     808.0972  0.019953017   0.01924808            7 
 3376000   0.70714646   -7.3822333    806.74894  0.019913827  0.019242323            8 
 3377000   0.72011809   -7.3651618    808.41541  0.019949053  0.019236575            4 
 3378000    0.7124193   -7.3943505    807.36826  0.019917315  0.019230827            7 
 3379000    0.7052522   -7.3915152    809.02241  0.019952215  0.019225093            7 
 3380000   0.70283121   -7.3908084    805.95726  0.019870741  0.019219329            8 
 3381000   0.71222581   -7.3959109    808.30165  0.019922647  0.019213578            3 
 3382000   0.71096967   -7.4050752    806.72096  0.019877808  0.019207832            9 
 3383000   0.70827969   -7.3763779    808.22432  0.019908964  0.019202094            7 
 3384000   0.71414659   -7.3759431    808.47241   0.01990919  0.019196363            9 
 3385000   0.70230357   -7.3460452    809.33135  0.019924455  0.019190649           11 
 3386000   0.70510944   -7.3863693    806.91264  0.019859043  0.019184935            9 
 3387000   0.70160004   -7.3802536     808.7726  0.019898942  0.019179213           17 
 3388000   0.71542314   -7.4001614    807.77547  0.019868543  0.019173496           16 
 3389000   0.70121609   -7.3856328    806.14949  0.019822698  0.019167771           17 
 3390000   0.71176582   -7.3928239     806.6586  0.019829366  0.019162041           18 
 3391000   0.71316578   -7.3874763    807.07861   0.01983384  0.019156318            9 
 3392000   0.70783446   -7.3982578    806.01164   0.01980178  0.019150623           11 
 3393000   0.71020798   -7.4047213    806.99436   0.01982008   0.01914492           12 
 3394000   0.71982533   -7.3975371    807.33697  0.019822652  0.019139226           11 
 3395000   0.71041545   -7.3726856    807.79063  0.019827949  0.019133549           13 
 3396000    0.7169809   -7.3947186    808.42793  0.019837749  0.019127873            5 
 3397000   0.71023665   -7.3838295    806.53709  0.019785524  0.019122178           14 
 3398000    0.7019467   -7.4120977    806.93148  0.019789373  0.019116479            8 
 3399000   0.71161106   -7.3931218    808.42966  0.019820282  0.019110775            6 
 3400000   0.71826939    -7.408152    808.33707  0.019812183   0.01910508           14 
 3401000   0.71015188   -7.4176928       807.64  0.019789278  0.019099381           15 
 3402000   0.71057719   -7.4066218      808.147   0.01979588  0.019093667            5 
 3403000   0.69334839   -7.3671309    808.63405   0.01980199  0.019087977            5 
 3404000   0.71894681   -7.3903096    807.66847  0.019772534  0.019082307            8 
 3405000   0.70255294   -7.3953084    808.04329    0.0197759  0.019076654            5 
 3406000   0.70374438   -7.3766665    808.81007  0.019788855  0.019070999           12 
 3407000   0.70524083   -7.3925232    808.43251  0.019773812  0.019065324            5 
 3408000   0.70751265   -7.3918863    808.66847  0.019773779  0.019059624           10 
 3409000   0.70483237   -7.3928996    809.16236  0.019780052  0.019053937           10 
 3410000   0.70494927   -7.4174943    808.60267  0.019760573  0.019048254            9 
 3411000   0.70825537   -7.4034711    810.48629  0.019800799  0.019042595            9 
 3412000    0.6954199   -7.3671178    809.64299  0.019774399  0.019036958            7 
 3413000    0.7245685     -7.40475    810.10792  0.019779957  0.019031326            8 
 3414000   0.70437336    -7.402847    809.59565  0.019761659  0.019025685            7 
 3415000    0.7096591   -7.4038466    809.80623  0.019761011  0.019020052            8 
 3416000   0.70369086   -7.3898051    807.87172  0.019708034  0.019014412            7 
 3417000   0.70247928   -7.3910116    808.68625  0.019722131  0.019008763            8 
 3418000   0.70301046   -7.4015904    809.28751   0.01973102  0.019003124            9 
 3419000   0.69527564   -7.3829006    809.58516  0.019732504  0.018997482            4 
 3420000   0.70115815   -7.4041444    808.88865  0.019709763   0.01899185            7 
 3421000   0.72004936   -7.4123878    808.11502  0.019685156  0.018986224            7 
 3422000   0.70846268   -7.4197582    810.07659  0.019727172  0.018980591            7 
 3423000   0.70815445   -7.4022503    808.81662  0.019690735  0.018974967            5 
 3424000   0.71243617   -7.4061937    810.36804  0.019722742  0.018969344            7 
 3425000   0.70416048   -7.4028463    809.80158  0.019703201  0.018963739           10 
 3426000   0.70562649   -7.3900721    809.58388  0.019692155  0.018958129           23 
 3427000   0.70332613   -7.4101201    810.30951  0.019704054  0.018952507            9 
 3428000   0.70923636   -7.4070071    811.19996  0.019719952  0.018946907           11 
 3429000   0.70338175   -7.3784995    810.74496  0.019703144  0.018941339           10 
 3430000    0.7089732   -7.3663682    809.64051  0.019670566  0.018935763           11 
 3431000   0.69881156   -7.3908504    812.15733  0.019725962  0.018930184            6 
 3432000   0.70807185   -7.4081766    809.89716  0.019665335  0.018924595           10 
 3433000   0.71340314   -7.4164985    810.70547  0.019679228  0.018919012           27 
 3434000   0.69374232    -7.397092    810.34569  0.019664766  0.018913412            4 
 3435000   0.69396275   -7.3938349    810.44306  0.019661404  0.018907829            5 
 3436000   0.70183899   -7.4169665    809.62717  0.019635894  0.018902231            8 
 3437000   0.70940276   -7.3991393     811.3034  0.019670822  0.018896638           15 
 3438000   0.69251073   -7.3824223    809.87909  0.019630577  0.018891041            9 
 3439000   0.70065439   -7.3845544     811.3198   0.01965978  0.018885464           12 
 3440000   0.70198895     -7.39682    810.54892   0.01963539  0.018879898           12 
 3441000   0.70062966   -7.3886699    810.09327  0.019618649  0.018874318           19 
 3442000   0.70483791   -7.4170347    811.91009  0.019656936  0.018868751            8 
 3443000   0.70835321   -7.3721926    809.64933  0.019596508  0.018863177           17 
 3444000   0.70653595   -7.3776603    810.82222  0.019619198  0.018857606           17 
 3445000   0.71087716   -7.4086979     809.5073  0.019581696  0.018852034           10 
 3446000   0.70516238   -7.4107542    812.29079  0.019643325   0.01884647            7 
 3447000   0.69340306   -7.4065755    808.99993  0.019558068  0.018840885           13 
 3448000   0.69079237   -7.4246945    809.66937  0.019568575  0.018835296           12 
 3449000   0.69787622   -7.4029915    809.52793  0.019559484  0.018829718           14 
 3450000   0.69975277    -7.402358    810.62164  0.019580233  0.018824142            7 
 3451000   0.70210566    -7.433157    809.98884  0.019559278  0.018818567           10 
 3452000   0.70163566   -7.4413415    808.07463  0.019507402  0.018812971           12 
 3453000   0.70125589   -7.3810339    808.82862  0.019519949  0.018807382           16 
 3454000   0.70095066   -7.4096356    810.24784  0.019548539  0.018801785            9 
 3455000   0.70064593   -7.4141588    810.00551  0.019537036  0.018796204            9 
 3456000   0.70281602   -7.4369319    809.71409  0.019524356  0.018790619           11 
 3457000   0.68175113   -7.3974735    811.33556  0.019557795  0.018785041           16 
 3458000   0.69404136    -7.432213    810.20001  0.019524774  0.018779455           16 
 3459000   0.70474014   -7.4299046    810.73418  0.019531998  0.018773888            7 
 3460000   0.71607757   -7.4331952    810.40947  0.019518532  0.018768333           11 
 3461000   0.70391275   -7.4141627    810.94369  0.019525756  0.018762763           15 
 3462000   0.69642262   -7.4119589    810.05902  0.019498821  0.018757188            6 
 3463000   0.69678094   -7.4325929    811.03407  0.019516654  0.018751619            6 
 3464000   0.69131712   -7.3988133    809.67395  0.019478299  0.018746037           11 
 3465000   0.67945402   -7.4209337    809.55497  0.019469817  0.018740452           10 
 3466000   0.70079225   -7.4095068    810.75809  0.019493126   0.01873488            7 
 3467000   0.70268305   -7.4436179    809.21479  0.019450408  0.018729291            4 
 3468000   0.68828817   -7.4164476    810.79191  0.019482697   0.01872371            8 
 3469000   0.68731409   -7.4204081    810.65715  0.019473843  0.018718148            9 
 3470000   0.69791196   -7.4356739    811.09113  0.019478653  0.018712589           10 
 3471000    0.6788327   -7.4390449    810.41808  0.019456883  0.018707024            8 
 3472000    0.7075116   -7.4185448    811.41824  0.019475284  0.018701457            6 
 3473000   0.69277549   -7.4142673    811.48631   0.01947131  0.018695923            8 
 3474000   0.68346655   -7.4407311    811.92286  0.019476177  0.018690381           11 
 3475000   0.69450528   -7.4191299    812.47488   0.01948381  0.018684835           19 
 3476000   0.69033199   -7.4053808    813.27703  0.019497436  0.018679294           10 
 3477000   0.69999501   -7.4304967     812.7059   0.01947814  0.018673749           10 
 3478000   0.69150732   -7.4554724    810.36042  0.019416341  0.018668187           18 
 3479000   0.69895404   -7.4282786     810.5746  0.019415891  0.018662615           14 
 3480000   0.68716887   -7.4161951     810.7879  0.019415419   0.01865707           10 
 3481000    0.7163611   -7.4307354      812.121  0.019441755  0.018651522            7 
 3482000   0.69207281   -7.4203694    812.99457  0.019457079  0.018645984           10 
 3483000   0.68345898   -7.4471648      810.851  0.019400206  0.018640444           14 
 3484000   0.70591235   -7.4302904    811.22215  0.019403515   0.01863489            5 
 3485000    0.6969806   -7.4384789    812.46322  0.019427624  0.018629352            9 
 3486000   0.68308796   -7.4289652    809.75749   0.01935737  0.018623799           17 
 3487000   0.68704495   -7.4271588    811.58822   0.01939557  0.018618257           16 
 3488000   0.69377078   -7.4291219    811.61789  0.019390718  0.018612728           25 
 3489000   0.69017396   -7.4110505    813.22024  0.019423432  0.018607196           11 
 3490000   0.69753708   -7.4292353    812.76582  0.019407016  0.018601682           15 
 3491000   0.68417907   -7.4380597    813.75403  0.019425046   0.01859617            7 
 3492000   0.69162925   -7.4178928    813.90665  0.019423126   0.01859064           14 
 3493000   0.70341059   -7.4239068    813.10926  0.019398541   0.01858511            8 
 3494000    0.6813947    -7.477713    809.44357  0.019305561  0.018579575            9 
 3495000   0.69303084   -7.4382655     810.3406  0.019321426  0.018574012           15 
 3496000   0.70479354   -7.4463854    811.47947  0.019343046  0.018568469           21 
 3497000   0.68189219   -7.4230143    810.37082  0.019311096  0.018562925           15 
 3498000   0.68996153   -7.4294985    810.58254  0.019310619  0.018557383            7 
 3499000   0.69571391   -7.4321544    810.60113  0.019305543  0.018551829            8 
 3500000   0.69534023   -7.4286856      810.771  0.019304071  0.018546276            7 
 3501000   0.68730377   -7.4532317    809.47473  0.019267703  0.018540718            9 
 3502000   0.70038608   -7.4065703    810.69265  0.019291182  0.018535174            4 
 3503000   0.68576239   -7.4095449      813.174  0.019344705   0.01852965            7 
 3504000   0.68803108   -7.4234965    812.69611  0.019327818  0.018524136           15 
 3505000   0.70220853   -7.4087556    812.10083  0.019308151  0.018518622           10 
 3506000   0.68667372    -7.414067    812.09935  0.019302609  0.018513119           16 
 3507000   0.68448231   -7.4307065    812.33828  0.019302782  0.018507585           16 
 3508000   0.69668641   -7.4296634    811.82232  0.019285023  0.018502061           11 
 3509000   0.68895053   -7.4191042    810.50467  0.019248235  0.018496531           16 
 3510000   0.70929224   -7.4370891    810.11039   0.01923339  0.018491011           20 
 3511000   0.68449548   -7.4362946    811.46593  0.019260086  0.018485478           14 
 3512000   0.69247479   -7.4336227    812.89532  0.019288518   0.01847995           16 
 3513000   0.70511749   -7.4453121    811.14595   0.01924153  0.018474415            8 
 3514000   0.68050162   -7.4309296    811.39829  0.019242039  0.018468884            9 
 3515000   0.68415218   -7.4376781    811.51986  0.019239447  0.018463343            9 
 3516000   0.69079919   -7.4436428    810.63756  0.019213063  0.018457815           12 
 3517000   0.69579189   -7.4281463    811.84446  0.019236197  0.018452294            9 
 3518000   0.68587932    -7.434082    811.44052  0.019221161  0.018446791           11 
 3519000   0.69152557   -7.4464275    812.77078    0.0192472  0.018441272            8 
 3520000   0.68846464   -7.4319273    812.23888   0.01922914  0.018435741            9 
 3521000   0.67501577   -7.4237163    810.67815   0.01918674  0.018430226           20 
 3522000   0.68668682   -7.4298335    810.50401  0.019177172  0.018424714           12 
 3523000   0.68163611   -7.4083261    811.44339  0.019193949  0.018419193           18 
 3524000   0.68284198   -7.4342769    810.08927  0.019156481  0.018413689           11 
 3525000    0.6943053   -7.4392848      812.787  0.019214823  0.018408192           11 
 3526000   0.68567111   -7.4216722    811.42876  0.019177273  0.018402681           27 
 3527000   0.69753012   -7.4524835    812.71922  0.019202325  0.018397177           12 
 3528000   0.67597284   -7.4210621    811.79087  0.019174954  0.018391677            5 
 3529000   0.68649561   -7.4659424    812.17106  0.019178499  0.018386181           15 
 3530000   0.69738779   -7.4277174    812.26142  0.019175199  0.018380701            4 
 3531000   0.69214214    -7.434634    811.41257  0.019149735  0.018375216            5 
 3532000   0.69859596   -7.4071768    811.48081  0.019145923   0.01836974           18 
 3533000   0.68838903   -7.4497696    812.17927  0.019156979  0.018364252            6 
 3534000   0.70226559   -7.4302069    813.31554  0.019178352  0.018358774           17 
 3535000   0.68979509   -7.4312046    813.60261  0.019179694   0.01835331           10 
 3536000   0.68371865   -7.4355619    813.35231  0.019168371  0.018347842            8 
 3537000   0.67879026   -7.4083206    814.61309  0.019192656  0.018342402            7 
 3538000   0.70162734    -7.434171    813.84449  0.019169128  0.018336954            7 
 3539000   0.67908474   -7.4728971    813.29331  0.019150733  0.018331504           16 
 3540000   0.68115125   -7.4302804    810.53626   0.01908042   0.01832604           14 
 3541000   0.68527339   -7.4394841    811.21638  0.019091038  0.018320575            4 
 3542000   0.67761825    -7.442898    812.26128  0.019110231  0.018315122            4 
 3543000   0.68143827   -7.4119562    813.37368  0.019131002  0.018309663            6 
 3544000   0.68567585   -7.4321525    813.65187  0.019132145  0.018304195            7 
 3545000   0.67260918   -7.4387038    813.28837  0.019118203  0.018298746           13 
 3546000   0.70077529   -7.4594749    813.66983  0.019121776   0.01829329            6 
 3547000   0.68177436   -7.4330039      813.582  0.019114322  0.018287839            9 
 3548000   0.68321516   -7.4274759    812.62334  0.019086418   0.01828241            8 
 3549000   0.67853883   -7.4336537    811.86099   0.01906314   0.01827695            7 
 3550000   0.67317276   -7.4439226    811.71173  0.019054266  0.018271489            6 
 3551000   0.67680444   -7.4160806    813.83851   0.01909881  0.018266032            9 
 3552000   0.67840537   -7.4623687    813.30519  0.019080921  0.018260586           10 
 3553000   0.67490251   -7.4607085    813.56186  0.019081571  0.018255142            6 
 3554000   0.66817188   -7.4405424    813.61191  0.019077375  0.018249705            5 
 3555000   0.69543796   -7.4411872    812.48796  0.019045662  0.018244251            7 
 3556000   0.68368676   -7.4244386     812.8235   0.01904817  0.018238796           10 
 3557000   0.68378504   -7.4322688    812.93845  0.019045508  0.018233344            8 
 3558000   0.67480828    -7.415692    812.59164  0.019032032   0.01822791            9 
 3559000   0.68244065   -7.4344899    813.15479   0.01903987  0.018222485           11 
 3560000    0.6753812   -7.4293454    813.97241  0.019053661  0.018217064            9 
 3561000   0.69327458   -7.4205996    814.70395   0.01906543  0.018211634            8 
 3562000   0.68786041   -7.4343066    812.84651  0.019016623  0.018206219            5 
 3563000   0.66961684   -7.4481015    813.34708  0.019022993  0.018200783           13 
 3564000   0.68395393   -7.4434163    813.12698  0.019012509   0.01819535           10 
 3565000   0.69524388   -7.4566285     814.4217   0.01903744  0.018189903           14 
 3566000   0.68439462   -7.4671174    812.30147  0.018982554  0.018184464           10 
 3567000    0.6720351   -7.4536093    814.09268   0.01901908  0.018179028            6 
 3568000   0.67412526   -7.4540905    811.88576  0.018962205  0.018173579            8 
 3569000    0.6804074   -7.4465986    812.48674  0.018970924  0.018168143           12 
 3570000   0.69188595   -7.4627831    814.38727  0.019009974  0.018162714           17 
 3571000   0.68295777   -7.4667691    812.84624  0.018968688  0.018157287           11 
 3572000   0.67918063     -7.47348    812.92805  0.018965287  0.018151858           11 
 3573000   0.66817654   -7.4519784    813.10927  0.018964205  0.018146422            9 
 3574000   0.67400253    -7.466106    813.02976  0.018957045  0.018140977            6 
 3575000   0.66198497   -7.4537868    814.86936  0.018994624  0.018135555            9 
 3576000   0.68764027   -7.4595385    813.64335  0.018960742  0.018130122           17 
 3577000   0.69172663   -7.4663839    813.49842  0.018952065  0.018124699           14 
 3578000   0.68095453   -7.4613444     811.9409  0.018910492  0.018119269            7 
 3579000   0.67460611   -7.4530455    814.83636  0.018972626  0.018113852            9 
 3580000   0.66646708   -7.4339097    814.29307   0.01895468  0.018108433            7 
 3581000   0.69043905   -7.4643911     813.5004  0.018930941  0.018103028           11 
 3582000    0.6731658   -7.4410004    813.61482  0.018928318  0.018097607           16 
 3583000    0.6744563   -7.4535192    813.44072  0.018918986  0.018092196            5 
 3584000   0.66030362   -7.4758003    812.82779  0.018899456  0.018086784           14 
 3585000   0.67205764   -7.4399201    814.79149   0.01893983  0.018081366           10 
 3586000   0.67143109   -7.4738237    813.20818  0.018897755  0.018075948           10 
 3587000   0.66982145   -7.4760026    813.89112  0.018908352  0.018070545           17 
 3588000   0.68431889    -7.449123    813.73783  0.018899522   0.01806513           14 
 3589000   0.66003114    -7.459446    813.82916  0.018896377   0.01805971            9 
 3590000   0.69759475   -7.4355894    812.14548  0.018852031  0.018054286           15 
 3591000   0.68213546   -7.4695129    811.92503  0.018841665   0.01804885            9 
 3592000   0.68231288   -7.4753547    812.42903  0.018848112  0.018043406           21 
 3593000   0.66357384   -7.4681705    812.15323   0.01883647  0.018037965            8 
 3594000    0.6775039   -7.4499629    812.24687    0.0188334   0.01803255           10 
 3595000   0.67181663   -7.5015841    812.04916  0.018823578  0.018027121           13 
 3596000   0.68034243   -7.4755262    812.07721  0.018818994  0.018021683           18 
 3597000   0.69681889   -7.4867654    811.37758  0.018797553  0.018016235           12 
 3598000   0.68056045   -7.4668585    812.47399  0.018817723  0.018010794           11 
 3599000   0.68726896   -7.5005761     813.8509  0.018844376  0.018005361           11 
 3600000   0.68184472   -7.4491166     812.6863  0.018812183  0.017999922           26 
 3601000   0.67309076   -7.4673895    811.95796  0.018790104  0.017994484           18 
 3602000   0.67190609   -7.5055493    811.70736  0.018779089  0.017989038            9 
 3603000   0.67474003   -7.4842602    814.07475  0.018828632  0.017983611           22 
 3604000   0.66920424    -7.465904    813.48312  0.018809728   0.01797818           19 
 3605000   0.67474724   -7.4779074    811.46495  0.018757858  0.017972751           19 
 3606000   0.67816031   -7.5005644    812.01037  0.018765261  0.017967338           17 
 3607000   0.67559287   -7.5005095    813.92615  0.018804319  0.017961917           18 
 3608000   0.67300614   -7.4779267    812.95836  0.018776754  0.017956509           20 
 3609000   0.67523119    -7.466117     813.4347  0.018782551  0.017951104           15 
 3610000   0.67765647   -7.4575448    813.04505  0.018768353  0.017945704           11 
 3611000   0.68143705   -7.5033471    812.47712  0.018750049   0.01794029           32 
 3612000   0.67572771   -7.4558113    812.57342   0.01874708  0.017934875           13 
 3613000   0.67210119   -7.4573855     814.0162  0.018775168  0.017929479           30 
 3614000   0.67536906   -7.4582621     814.4395  0.018779734  0.017924073           32 
 3615000   0.66783514   -7.4877351    811.23635    0.0187007  0.017918661           15 
 3616000   0.66989223   -7.4969698    812.29748  0.018719983  0.017913243           32 
 3617000   0.68484133   -7.4757527    813.39032  0.018739985  0.017907827           18 
 3618000      0.67077   -7.4798076    815.03043  0.018772582  0.017902423           39 
 3619000   0.69497229   -7.4695251    814.06832  0.018745241  0.017897023           17 
 3620000   0.67949658   -7.4673209    811.68078  0.018685101  0.017891612           15 
 3621000   0.66366036   -7.4397161    813.41517  0.018719856  0.017886217            9 
 3622000    0.6714337   -7.4675662    811.79569  0.018677427  0.017880823           13 
 3623000   0.66035593   -7.4856646    814.16393  0.018726744  0.017875442            8 
 3624000   0.64355113   -7.4668663    814.02023  0.018718272  0.017870061           12 
 3625000   0.66372082   -7.4785449     813.3145  0.018696885  0.017864678           12 
 3626000   0.65895021   -7.4721422    812.58592  0.018674984   0.01785929           10 
 3627000   0.66661841   -7.4577573    813.08702  0.018681349  0.017853886            8 
 3628000   0.68394211   -7.4704747    813.72378  0.018690825  0.017848489            9 
 3629000    0.6632679   -7.4608264    813.54028  0.018681461  0.017843106           20 
 3630000   0.66641911   -7.4729209    813.74975  0.018681124  0.017837718           21 
 3631000    0.6613385   -7.4900623    813.70645  0.018674985  0.017832329           10 
 3632000   0.65842897   -7.4759568     812.6977  0.018646698  0.017826941           20 
 3633000   0.65794362   -7.4808212    812.09674  0.018627781  0.017821564           15 
 3634000   0.66768797   -7.4714671    813.72116  0.018659906  0.017816178           20 
 3635000   0.68935879   -7.4644326    812.76522  0.018632857  0.017810808           12 
 3636000   0.67141697   -7.4660152    814.48818  0.018667221  0.017805451           16 
 3637000   0.67560725   -7.4673055    815.00572  0.018673947  0.017800096            7 
 3638000   0.67807658   -7.4822669    813.86966   0.01864279  0.017794751            8 
 3639000   0.67016737   -7.4507717    814.07454  0.018642359    0.0177894           13 
 3640000   0.66680122   -7.4802391    813.92916  0.018633909  0.017784051            8 
 3641000   0.67175709   -7.4535797    815.30729  0.018660334  0.017778706           13 
 3642000    0.6695623   -7.4900315    814.96287  0.018647329  0.017773362           13 
 3643000   0.66048435   -7.4565819    813.70079   0.01861334   0.01776802            8 
 3644000   0.65867451   -7.4824332    813.40991  0.018601581  0.017762661            9 
 3645000   0.65657565   -7.4823716    814.89817  0.018630502  0.017757307           11 
 3646000   0.67771477   -7.4882175    814.78048  0.018622703  0.017751967           10 
 3647000    0.6671735   -7.4803368    813.72708  0.018593526  0.017746623           14 
 3648000   0.67598671   -7.4823339    812.41433  0.018558441  0.017741267           15 
 3649000   0.69283352   -7.4695814    814.40215  0.018598752  0.017735922           17 
 3650000   0.66412354   -7.4952464    812.84303   0.01855806  0.017730568           21 
 3651000   0.67456458   -7.4634108    813.86276  0.018576252  0.017725218           15 
 3652000   0.67267206   -7.4852706    814.37995  0.018582967  0.017719867            8 
 3653000   0.66021484   -7.4880644    813.09979  0.018548677  0.017714505            5 
 3654000   0.66245326   -7.4967341    812.33115  0.018526071  0.017709143            9 
 3655000    0.6646314   -7.4587438    814.70263  0.018575071  0.017703796           14 
 3656000   0.66499849   -7.4893078    815.08461  0.018578697  0.017698455           21 
 3657000   0.69199462   -7.4967854    812.70559  0.018519405  0.017693131           11 
 3658000   0.65674875   -7.5090107    813.23146  0.018526323    0.0176878           29 
 3659000   0.65942697   -7.5014565    814.71433  0.018555032  0.017682465           10 
 3660000   0.65840311   -7.5188524    814.90669  0.018554342  0.017677131            7 
 3661000   0.66574537   -7.4720051    813.91698  0.018526745  0.017671804           16 
 3662000   0.66677279   -7.4973863    813.65462  0.018515716  0.017666491           13 
 3663000   0.65881672   -7.4971104    812.96109  0.018494883  0.017661167           14 
 3664000    0.6688807   -7.4925854    813.24412  0.018496273  0.017655827            9 
 3665000   0.65941403   -7.4727239    814.69257   0.01852416  0.017650505            9 
 3666000   0.66303539    -7.477498    815.03196  0.018526822  0.017645185           19 
 3667000   0.66290171   -7.4936963    815.16786  0.018524858  0.017639866           13 
 3668000   0.65458024   -7.4828712    813.89696  0.018490934  0.017634541           27 
 3669000    0.6605227   -7.5071712    813.88222   0.01848556  0.017629225           15 
 3670000   0.66364772   -7.4955829    815.63493  0.018520321   0.01762391           35 
 3671000   0.66523146   -7.5201964    814.35409    0.0184862  0.017618601           43 
 3672000   0.66734648   -7.4750962     813.9545  0.018472097  0.017613296           25 
 3673000   0.65585577   -7.4839484    813.99726  0.018468038  0.017607985           34 
 3674000   0.66843709    -7.504335    813.90953  0.018461022  0.017602685           15 
 3675000   0.65415472   -7.4861221    815.23223  0.018485992  0.017597374           18 
 3676000   0.65215061   -7.4864568    815.63517  0.018490097  0.017592069           10 
 3677000   0.65254127   -7.4906464    816.92113  0.018514213  0.017586771           29 
 3678000   0.66535494    -7.461684    815.47763  0.018476473  0.017581487            6 
 3679000   0.66849665   -7.5074468    814.54339   0.01845029  0.017576227           21 
 3680000   0.67712813   -7.4736915    815.52327  0.018467465  0.017570953            7 
 3681000   0.67195259   -7.4799252    814.31124   0.01843501  0.017565671           11 
 3682000   0.65445958   -7.5068634    814.51066  0.018434516  0.017560388           15 
 3683000   0.66148328   -7.4871965    813.23104  0.018400557  0.017555093           12 
 3684000   0.67476734   -7.4882025    815.14032  0.018438751  0.017549818           11 
 3685000   0.65871247   -7.4774941    815.52058  0.018442347  0.017544556           10 
 3686000   0.66922616   -7.4728793    814.27183  0.018409112  0.017539282           12 
 3687000   0.66706902   -7.4589888    816.75362  0.018460212  0.017534024           12 
 3688000   0.65948557   -7.4688467    815.43686  0.018425453  0.017528752            6 
 3689000   0.65273256   -7.4924028    814.44631  0.018398082  0.017523474            9 
 3690000   0.66487264   -7.4778109    814.77117  0.018400433  0.017518188           13 
 3691000   0.65188375    -7.511751    815.12205   0.01840337  0.017512903            8 
 3692000   0.67583686   -7.4844753    813.60537  0.018364152  0.017507618           13 
 3693000   0.65833408   -7.4609128    814.40637  0.018377254  0.017502335            8 
 3694000   0.65464263   -7.4852767    815.93634  0.018406793  0.017497059            8 
 3695000   0.66555352   -7.4727266     813.6706  0.018350713  0.017491769           15 
 3696000   0.67308458   -7.5056398    815.57426  0.018388669  0.017486483           21 
 3697000   0.66327521   -7.5258706    814.20876  0.018352916  0.017481188           14 
 3698000   0.65330044   -7.4806511    814.67151  0.018358381  0.017475897           12 
 3699000   0.65493508   -7.4765761    815.75409  0.018377807  0.017470609           22 
 3700000   0.66019739   -7.4887199      814.437  0.018343176  0.017465327           18 
 3701000   0.66743426   -7.4902683     814.5669  0.018341144  0.017460045           19 
 3702000   0.65402709   -7.4812813    814.73336  0.018339937  0.017454774           20 
 3703000   0.66302064   -7.5146158     813.6254   0.01831005  0.017449498            7 
 3704000   0.64675297    -7.505041    813.62111  0.018305011  0.017444225           10 
 3705000   0.64704857   -7.4977627    813.66522  0.018301062  0.017438961           17 
 3706000   0.65671958   -7.4726964    816.03195  0.018349342  0.017433707           12 
 3707000   0.64716073    -7.461638    816.63437  0.018357935  0.017428454           30 
 3708000   0.66432798    -7.502248    815.48522  0.018327158  0.017423204           42 
 3709000   0.66267258   -7.4873458    814.10724  0.018291256  0.017417956           29 
 3710000   0.64760096   -7.4841204    815.40682  0.018315517   0.01741271           17 
 3711000    0.6638535    -7.502932    814.05732  0.018280278  0.017407461           16 
 3712000   0.65216268   -7.5067909    814.54289  0.018286254  0.017402186           16 
 3713000   0.65992361   -7.4860859    814.43977  0.018279014  0.017396927           43 
 3714000   0.64978101   -7.5053654    816.06453  0.018310549   0.01739167           34 
 3715000   0.67005716   -7.4982499    814.63342  0.018273518  0.017386416           16 
 3716000   0.65734019   -7.5105066     814.4624  0.018264765  0.017381174           30 
 3717000   0.66931564   -7.5058713    814.39903   0.01825843   0.01737595           36 
 3718000   0.65662013   -7.5084988    817.13115  0.018314756  0.017370716           31 
 3719000   0.66237477   -7.4991783    814.90403  0.018259927   0.01736548           23 
 3720000   0.65819673    -7.484175    815.46056  0.018267486  0.017360246           22 
 3721000   0.66572004   -7.5063667     816.5385  0.018286717  0.017355015           22 
 3722000   0.65679854   -7.5216571    815.54347  0.018259526  0.017349793           19 
 3723000   0.65179762   -7.4879544    814.51053  0.018231501  0.017344558           23 
 3724000     0.663803   -7.5088894    814.94442  0.018236314   0.01733932           16 
 3725000   0.64675228   -7.5034221     813.6463  0.018202378  0.017334087           15 
 3726000   0.64565272     -7.49326    816.55144  0.018262467  0.017328865           30 
 3727000   0.64986795    -7.522889    815.97169  0.018244604  0.017323638           24 
 3728000   0.64918669   -7.5013002    817.23665  0.018267987  0.017318402           23 
 3729000   0.66047768   -7.5202053    815.10995  0.018215562  0.017313176           39 
 3730000   0.65285633   -7.4977905    814.69844  0.018201484  0.017307938           20 
 3731000   0.65805122   -7.5342682    815.06121  0.018204708  0.017302695           32 
 3732000   0.64903053   -7.5361731    814.44892  0.018186158  0.017297455           30 
 3733000   0.66149928   -7.5355376    815.66033   0.01820833  0.017292202           23 
 3734000   0.66679745   -7.5317705    814.37541  0.018174777  0.017286958           17 
 3735000   0.66964891   -7.4956647    816.28284  0.018212468  0.017281741           17 
 3736000   0.64591491    -7.496496    816.77314   0.01821853  0.017276534           27 
 3737000   0.63518975   -7.4884235    816.15944   0.01819997  0.017271333           16 
 3738000    0.6385166    -7.493576    814.60405  0.018160426  0.017266136           38 
 3739000   0.65974276   -7.5053922    815.48885  0.018175289  0.017260935           22 
 3740000   0.65091362   -7.5138374    815.14945  0.018162867   0.01725573           26 
 3741000   0.65577786   -7.5225757    813.82052  0.018128409  0.017250532           36 
 3742000   0.64337223   -7.5088328    814.16818  0.018131306   0.01724533           27 
 3743000   0.66299964   -7.5175389    815.80723  0.018162954  0.017240131           40 
 3744000   0.65323219   -7.5247733    815.72678  0.018156312  0.017234944           26 
 3745000    0.6478164   -7.5056564    816.63736  0.018171726  0.017229756           35 
 3746000   0.64951118   -7.4983004    816.13071  0.018155604   0.01722456           63 
 3747000   0.63858232   -7.5236934    817.10558   0.01817244  0.017219361           46 
 3748000   0.64813757   -7.5070098    815.91318  0.018141079  0.017214153           70 
 3749000   0.65515683   -7.5117024    816.71936   0.01815416  0.017208946           52 
 3750000   0.65986726   -7.5310396    814.73276  0.018105172   0.01720372           43 
 3751000   0.65744162   -7.5435579    814.78863  0.018101587  0.017198491           24 
 3752000    0.6485119    -7.543955    813.34669  0.018064736  0.017193253           77 
 3753000   0.65579118   -7.5276266    815.04896  0.018097721  0.017188022           24 
 3754000   0.65681852   -7.5285613     815.6143   0.01810545  0.017182788           12 
 3755000   0.63794749   -7.5266223    814.62936   0.01807877  0.017177563           36 
 3756000   0.64732009   -7.5369076     814.8485  0.018078818  0.017172335           34 
 3757000   0.65173361   -7.5218192    815.20412  0.018081894  0.017167107           27 
 3758000    0.6397024   -7.5394874    812.52717  0.018017722  0.017161893           30 
 3759000   0.66237829   -7.5346084    816.52509  0.018101558  0.017156672           31 
 3760000   0.63947039   -7.4969217    816.78937  0.018102601  0.017151449           23 
 3761000   0.64078974   -7.5255059    816.06882  0.018081823  0.017146233           21 
 3762000    0.6482146   -7.5264403    815.95123  0.018074411  0.017141026           30 
 3763000   0.65369295   -7.5214391    814.94074   0.01804723  0.017135825           16 
 3764000   0.65448216   -7.5291497     815.2918  0.018050208  0.017130635           30 
 3765000   0.64860404   -7.5213739    814.67282  0.018031714  0.017125427           29 
 3766000    0.6405462   -7.5290613    813.77973  0.018007163  0.017120246           16 
 3767000   0.63659392   -7.5023236    815.57721  0.018042147   0.01711507           11 
 3768000   0.64386923   -7.5183596    814.94436  0.018023363  0.017109887           25 
 3769000    0.6389745   -7.5009678    815.42146  0.018029129    0.0171047           13 
 3770000   0.64787178   -7.5240652    815.53047  0.018026757  0.017099519           13 
 3771000   0.63631791   -7.5223675    816.26399  0.018038186  0.017094335           20 
 3772000   0.66141942   -7.5285976    815.20708  0.018010054  0.017089151           20 
 3773000   0.65350799   -7.5169753    816.36928   0.01803095  0.017083972           28 
 3774000   0.63503366   -7.5593381    814.94898  0.017994811  0.017078783           18 
 3775000   0.64660426   -7.5421617    815.00323  0.017991241  0.017073593           21 
 3776000   0.66025639    -7.514882    816.22465  0.018013432    0.0170684           22 
 3777000    0.6634512   -7.4906014    815.26332  0.017987453  0.017063224           11 
 3778000   0.64486084   -7.5305841    814.87898  0.017974214  0.017058041           23 
 3779000   0.64981386   -7.5517562     816.9847  0.018015893  0.017052859           25 
 3780000   0.63771112    -7.521827     816.1801  0.017993388  0.017047665           35 
 3781000   0.64354578   -7.5178314     815.6475  0.017976891  0.017042481           18 
 3782000   0.62966464   -7.5531157    814.57304  0.017948463  0.017037293           13 
 3783000   0.64621655   -7.5323746    815.45718  0.017963195  0.017032098           13 
 3784000    0.6453325   -7.5414713    814.96333  0.017947572  0.017026906           17 
 3785000    0.6386422   -7.5445766    814.69103  0.017936835   0.01702172           27 
 3786000   0.65839411   -7.5197963    815.53193  0.017950606   0.01701654           15 
 3787000    0.6543644    -7.517673    815.41675  0.017943331  0.017011373           12 
 3788000   0.64014029   -7.5523936     815.4135  0.017938523  0.017006203           18 
 3789000   0.65311901   -7.5095174    817.68151   0.01798367  0.017001044           29 
 3790000   0.64623229   -7.5078866    815.84264  0.017938493  0.016995891           10 
 3791000   0.64010928   -7.5315716    814.96437  0.017914455  0.016990743           11 
 3792000   0.64405157   -7.5406012    816.54236  0.017944408  0.016985594           15 
 3793000   0.63100614   -7.5403663    813.05649  0.017863092  0.016980426            7 
 3794000   0.64815829    -7.529707    814.57557  0.017891749  0.016975269           18 
 3795000   0.64938938   -7.5300089    816.02781  0.017918924  0.016970105           18 
 3796000    0.6391676   -7.5380171    814.83691   0.01788806   0.01696494           11 
 3797000    0.6481781   -7.5389638    816.55086  0.017920965  0.016959783           15 
 3798000    0.6381352   -7.5448403    813.60259  0.017851558   0.01695461           11 
 3799000   0.64028127     -7.53151     815.5061  0.017888613  0.016949452            6 
 3800000   0.64504369   -7.5684292    814.61533  0.017864371  0.016944289           12 
 3801000   0.63783573   -7.5613825    815.44563  0.017877875  0.016939114            8 
 3802000   0.65273503   -7.5418489    814.80324  0.017859093  0.016933932           12 
 3803000   0.65422663   -7.5565299    813.83299  0.017833136  0.016928761           32 
 3804000   0.63882536   -7.5388192    815.65624  0.017868389  0.016923591           10 
 3805000    0.6291216   -7.5263416    815.24979  0.017854792  0.016918412           13 
 3806000    0.6430368   -7.5444408    814.71996    0.0178385  0.016913237            5 
 3807000   0.64410721    -7.544408    813.92293  0.017816367  0.016908072           13 
 3808000   0.64236863   -7.5336357    814.09329  0.017815417  0.016902914           13 
 3809000   0.64371558   -7.5335792    814.80215  0.017826248  0.016897746            9 
 3810000   0.64296719   -7.5375189    815.47395  0.017836263  0.016892575           14 
 3811000   0.63975819   -7.5580941    814.21567  0.017804069   0.01688741           12 
 3812000   0.64798489   -7.5388623    815.05432  0.017817732  0.016882256           10 
 3813000   0.64451148   -7.5397695    815.38827  0.017820357    0.0168771           11 
 3814000   0.65070877   -7.5680655    813.10784  0.017765859  0.016871939           14 
 3815000   0.66431468   -7.5554136    814.27082  0.017786606  0.016866775           28 
 3816000   0.63034887   -7.5574592     814.0521  0.017777168  0.016861615           36 
 3817000   0.63525719   -7.5376153    814.30044  0.017777933  0.016856464           26 
 3818000   0.64510263   -7.5424789    816.38021   0.01781867  0.016851318           42 
 3819000   0.64633537   -7.5513713    814.21254  0.017766705  0.016846173           29 
 3820000    0.6417655    -7.532142    815.84004  0.017797558  0.016841035           27 
 3821000   0.64347077   -7.5575403    815.51947  0.017785908  0.016835898           20 
 3822000   0.63934566   -7.5515163      814.304  0.017754753  0.016830769           22 
 3823000   0.63494292   -7.5631337    816.32918  0.017794254   0.01682564           38 
 3824000   0.63624142   -7.5667146    815.64742  0.017774743  0.016820504           23 
 3825000   0.64974355   -7.5598161    815.62615  0.017769633  0.016815373           17 
 3826000   0.64908831   -7.5516618    816.32436  0.017780196  0.016810241           16 
 3827000   0.64305497   -7.5731525    816.52945  0.017780016  0.016805099           14 
 3828000   0.63889294   -7.5712304    815.79995   0.01775949  0.016799979           11 
 3829000   0.64175391   -7.5648317    817.08857  0.017782897  0.016794868           29 
 3830000   0.63390605   -7.5444119    815.78526  0.017749897  0.016789733           18 
 3831000   0.62357233   -7.5449313     814.4747  0.017716756  0.016784606           14 
 3832000   0.63315155   -7.5474291    815.51833  0.017734828  0.016779478           24 
 3833000    0.6525386   -7.5839781    815.55423  0.017730982  0.016774342           25 
 3834000   0.62237625   -7.5652537    814.21909  0.017697337  0.016769219           33 
 3835000   0.63455798    -7.549123    815.62241  0.017723216  0.016764096           14 
 3836000   0.64133047   -7.5671381    817.04803  0.017749566  0.016758981           30 
 3837000   0.62326497   -7.5485837    814.31876  0.017685665  0.016753862           22 
 3838000   0.61904222   -7.5642162    814.20709  0.017678632  0.016748753           29 
 3839000   0.63242921   -7.5447572    814.85092  0.017688003  0.016743647           18 
 3840000   0.63135923   -7.5379587    816.74718  0.017724548  0.016738535           21 
 3841000   0.62882289   -7.5506652    818.38617  0.017755493  0.016733438           27 
 3842000   0.64087003   -7.5359231    816.54382  0.017710911  0.016728344           17 
 3843000   0.64450854   -7.5389384    816.75878  0.017710963  0.016723255           13 
 3844000   0.64169193   -7.5453569    814.96577  0.017667486  0.016718159           23 
 3845000   0.63508446   -7.5485794     815.7444  0.017679766  0.016713059           35 
 3846000   0.64634253   -7.5637271    814.52212  0.017648685  0.016707959           16 
 3847000    0.6301854   -7.5601805    816.09385  0.017678144  0.016702858           35 
 3848000   0.62515909   -7.5449113    814.97674  0.017649358  0.016697749           14 
 3849000     0.639147   -7.5692074     816.3332  0.017674141  0.016692645           20 
 3850000   0.64980321   -7.5436576    814.68947  0.017633971  0.016687541           26 
 3851000   0.64140385   -7.5556357    816.07546  0.017659384  0.016682436           20 
 3852000   0.64595645   -7.5870591    814.82901  0.017627834  0.016677339            9 
 3853000   0.63865398   -7.5787834    815.58331  0.017639573  0.016672235           23 
 3854000   0.64521763   -7.5611878    814.75107  0.017617001  0.016667139           11 
 3855000   0.64570395   -7.5732328    813.37662   0.01758272  0.016662033           15 
 3856000    0.6407228   -7.5681404    815.02177  0.017613714  0.016656935           12 
 3857000    0.6164585   -7.5625525    814.48123  0.017597468   0.01665183           14 
 3858000   0.61555386   -7.5713832    813.67028  0.017575391  0.016646716           16 
 3859000   0.63492243   -7.5600378    814.64684  0.017591925  0.016641607            9 
 3860000   0.64266684    -7.563511    813.96953  0.017572745  0.016636508           14 
 3861000   0.62796477   -7.5605685    815.08793  0.017592332  0.016631418           18 
 3862000   0.64015311   -7.5567251    815.09514  0.017587932  0.016626329           15 
 3863000   0.61779068    -7.566369    815.71115  0.017596668  0.016621239           16 
 3864000    0.6389666   -7.5726453     814.9218  0.017575091   0.01661615           19 
 3865000   0.64373783   -7.5662804    815.15171    0.0175755  0.016611085           43 
 3866000   0.64091352   -7.5543615    814.38065  0.017554334  0.016605999           11 
 3867000   0.62007128   -7.5643721    815.93729   0.01758334  0.016600921           29 
 3868000   0.63061774   -7.5567118    814.47959  0.017547389  0.016595835           19 
 3869000   0.62526381   -7.5625277    813.71436  0.017526371   0.01659075           27 
 3870000   0.61798111   -7.5485751    816.30319  0.017577588  0.016585671           14 
 3871000   0.63817579   -7.5611005    817.11266  0.017590473  0.016580599           17 
 3872000   0.63973994   -7.5552748    815.04518  0.017541434  0.016575521           10 
 3873000    0.6302537   -7.5687208    814.90203  0.017533825  0.016570447           14 
 3874000   0.63679563   -7.5788135    814.07476  0.017511503  0.016565373           25 
 3875000   0.61753486   -7.5604866    814.66351  0.017519645  0.016560287           14 
 3876000    0.6389054   -7.5624965    815.45758  0.017532198  0.016555212           32 
 3877000   0.63610856   -7.5561034    815.69822  0.017532848  0.016550136           32 
 3878000   0.62456866   -7.5707747    813.52077  0.017481536   0.01654507           42 
 3879000    0.6364283   -7.5598354    815.04699  0.017509818  0.016540007           37 
 3880000    0.6196898   -7.5566044    815.14875   0.01750749  0.016534927           33 
 3881000   0.63137221   -7.5797036    817.07986  0.017544444  0.016529864           48 
 3882000   0.63059592   -7.5723961    814.54831  0.017485581  0.016524811           36 
 3883000   0.62716573   -7.5681865    815.62496  0.017504184  0.016519759           34 
 3884000   0.63984958    -7.573823        815.1  0.017488414  0.016514712           32 
 3885000   0.63062962   -7.5438685    815.67041  0.017496148  0.016509664           46 
 3886000   0.63169849   -7.5499748     815.5668  0.017489424  0.016504613           19 
 3887000   0.63270386   -7.5706224    814.40334  0.017459981  0.016499551           23 
 3888000   0.63983935   -7.5543379    816.18937  0.017493771  0.016494515           20 
 3889000   0.63443783   -7.5591644    815.94218  0.017483976  0.016489466           26 
 3890000    0.6301573   -7.5437896     815.5357  0.017470773  0.016484416           34 
 3891000   0.62057849   -7.5716553    816.18909  0.017480277  0.016479381           11 
 3892000   0.63929669    -7.553572    815.28307  0.017456386  0.016474338           17 
 3893000   0.61695684   -7.5764395    816.51408  0.017478253  0.016469302           40 
 3894000   0.61757383   -7.5403367      816.426   0.01747188  0.016464272           32 
 3895000   0.63787581    -7.580203    816.45054  0.017467919  0.016459231           14 
 3896000   0.63232051   -7.5749774    815.45269  0.017442092  0.016454178           16 
 3897000   0.63238322   -7.5789576    814.95799  0.017427038  0.016449132           40 
 3898000   0.62987772   -7.5532242    814.67797  0.017416581  0.016444095           18 
 3899000   0.61561701   -7.5662154    815.17574  0.017422752  0.016439049           17 
 3900000   0.62618039   -7.5407232    815.64137  0.017428234  0.016434014           14 
 3901000   0.63225413    -7.562863    815.19234  0.017414175  0.016428979           16 
 3902000   0.63425951   -7.5660738    813.96482  0.017383496  0.016423939           33 
 3903000   0.62588097   -7.5594865    814.93309  0.017399716    0.0164189           15 
 3904000   0.61448086   -7.5574282    816.02354  0.017418535  0.016413862           39 
 3905000   0.63110571   -7.5554571    816.53297  0.017424946  0.016408829           16 
 3906000   0.63087491   -7.5559146    815.98276  0.017408746  0.016403792           14 
 3907000   0.63092605   -7.5626719    815.14184  0.017386354  0.016398753           12 
 3908000   0.62409597   -7.5868871    813.94375  0.017356358  0.016393706           22 
 3909000   0.62935023   -7.5609932    814.15895  0.017356505  0.016388668           21 
 3910000    0.6267095   -7.5705413    814.91142  0.017368104  0.016383629           18 
 3911000   0.62291021   -7.5615254    814.49717  0.017354836  0.016378596           18 
 3912000   0.60521761    -7.581073    813.96325  0.017339026  0.016373566           16 
 3913000   0.62194871   -7.5680726    815.19493  0.017360826  0.016368533           20 
 3914000   0.63941354   -7.5529249    815.18589  0.017356198  0.016363511           15 
 3915000   0.62421226   -7.5701276    815.21752  0.017352438  0.016358499            7 
 3916000   0.61988561   -7.5766099    815.21609  0.017347976  0.016353466           17 
 3917000   0.62243492   -7.5709005    815.68832  0.017353594  0.016348448           13 
 3918000   0.63484468   -7.5788065    814.91857  0.017332793  0.016343426           35 
 3919000   0.62725251    -7.576142    813.88363  0.017306363  0.016338402           21 
 3920000    0.6250128    -7.577525    815.91349    0.0173451  0.016333382           21 
 3921000    0.6251577   -7.5716274    814.88735  0.017318867  0.016328364           22 
 3922000   0.63712852   -7.5807411    815.34247  0.017324122   0.01632334           18 
 3923000   0.63867803   -7.5897603    816.31963  0.017340463  0.016318319           31 
 3924000   0.63378296   -7.5757737    814.91185  0.017306147  0.016313307           41 
 3925000    0.6237365   -7.5579986    815.50223  0.017314272  0.016308294           20 
 3926000   0.62953758   -7.5814421    815.64856  0.017312968  0.016303281           23 
 3927000   0.63286804   -7.5835896     815.4693  0.017304756  0.016298265           40 
 3928000   0.61909375   -7.6050209    815.07042  0.017291888  0.016293249           34 
 3929000   0.61407499   -7.5802802      816.673  0.017321477  0.016288234           28 
 3930000   0.61356031    -7.597735    814.53798  0.017271798  0.016283232           30 
 3931000   0.62058283   -7.5794673    814.14039  0.017258975  0.016278224           32 
 3932000   0.62685904   -7.5729216    815.84164  0.017290642  0.016273224           24 
 3933000   0.61745553   -7.6135303    815.32883   0.01727538  0.016268215           36 
 3934000    0.6274532   -7.5620247    815.53255  0.017275304  0.016263216           38 
 3935000   0.63986172   -7.5797015    814.94589   0.01725849  0.016258209           35 
 3936000   0.61152215   -7.5786736    814.96931  0.017254601  0.016253199           48 
 3937000   0.61968867   -7.5997629    815.80798   0.01726797  0.016248199           35 
 3938000   0.61915993   -7.5879114    815.84361  0.017264339  0.016243195           31 
 3939000   0.62991669   -7.6099508    813.76134  0.017215904  0.016238188           32 
 3940000   0.63112394   -7.5775085    813.87633  0.017213966   0.01623319           31 
 3941000   0.63172153   -7.5954508    814.98913  0.017233129   0.01622819           22 
 3942000   0.61479169   -7.5887521    815.27781   0.01723486  0.016223186           23 
 3943000   0.60573061   -7.5859351    817.04329  0.017267801  0.016218191           33 
 3944000    0.6152398   -7.5864271    815.25959  0.017225735    0.0162132           43 
 3945000    0.6232429   -7.6101033    814.81505  0.017211978  0.016208208           32 
 3946000   0.61103123   -7.5951089    811.87868  0.017145605  0.016203209           46 
 3947000   0.62543086   -7.5798599    815.81738  0.017224419  0.016198214           31 
 3948000   0.62106239   -7.5836209    816.92256  0.017243384  0.016193238           18 
 3949000   0.62101022   -7.5992324    816.04881  0.017220579  0.016188253           30 
 3950000   0.62325061   -7.5919743    814.56413  0.017184897  0.016183264           17 
 3951000    0.6359276   -7.5797056    814.21776  0.017173242  0.016178273           28 
 3952000    0.6167402   -7.6084555    813.81755  0.017160458  0.016173277           32 
 3953000   0.62297704   -7.6062588    816.13053  0.017204877  0.016168291           17 
 3954000   0.60790378   -7.5866356    815.09315  0.017178662  0.016163304           34 
 3955000   0.61891702   -7.6080103    815.32869  0.017179281  0.016158325           22 
 3956000    0.6171845   -7.5935274    815.84884  0.017185896  0.016153343           12 
 3957000   0.61577966   -7.5893508    813.27645  0.017127379  0.016148362           20 
 3958000   0.61623924   -7.5813972    814.09003  0.017140181  0.016143386           13 
 3959000   0.61140616   -7.5988559     817.0171  0.017197464  0.016138426           31 
 3960000   0.62823098    -7.599981    813.97736  0.017129153  0.016133457           14 
 3961000   0.63359442   -7.5813841    815.25885  0.017151789  0.016128485           17 
 3962000   0.62281645   -7.5881461    815.49598  0.017152448  0.016123515           23 
 3963000   0.62766357   -7.5927087     815.1077  0.017139955  0.016118547           13 
 3964000   0.62239157   -7.5855357    814.81793  0.017129539  0.016113578           24 
 3965000   0.62298947   -7.5990731    815.40902  0.017137642  0.016108614           13 
 3966000   0.62191205   -7.5925866    814.95631  0.017123809  0.016103653           17 
 3967000   0.61775355   -7.5980749    812.95829  0.017077521  0.016098689           39 
 3968000   0.62882205   -7.6069357    814.81556  0.017112222  0.016093728           16 
 3969000   0.62303688    -7.590331     814.3508  0.017098152  0.016088771           46 
 3970000   0.61939036   -7.6063004    814.80928  0.017103469  0.016083808           45 
 3971000   0.61469065   -7.6029146    814.15341  0.017085399  0.016078839           24 
 3972000   0.61565241   -7.6082135     814.8025  0.017094715  0.016073866           21 
 3973000   0.61840394   -7.5986218    814.59584  0.017086078  0.016068911           18 
 3974000   0.62340466   -7.6073591    816.28476  0.017117194  0.016063962           42 
 3975000    0.6104347   -7.5807112    815.87025  0.017104198  0.016059023           32 
 3976000   0.59974591   -7.6252965    813.98621  0.017060409  0.016054059           24 
 3977000   0.61933007   -7.6204891    815.98243  0.017097947  0.016049104           39 
 3978000   0.61010908   -7.5915064     815.0156  0.017073395  0.016044153           33 
 3979000   0.61088369   -7.5853734    815.92821  0.017088218  0.016039207           31 
 3980000   0.62230749   -7.6009925    813.98813  0.017043303  0.016034261           46 
 3981000   0.61727543    -7.586802    815.17567   0.01706388   0.01602932           14 
 3982000   0.60461845   -7.6007003    814.53416  0.017046169   0.01602438           12 
 3983000   0.61924809   -7.5899059     814.9831  0.017051283  0.016019441           31 
 3984000   0.60407554   -7.6216182    814.50489     0.017037  0.016014496           36 
 3985000   0.60206555   -7.6056771    814.23708  0.017027124  0.016009539           43 
 3986000   0.61105916   -7.6124025    815.28575  0.017044777  0.016004583           17 
 3987000   0.60126442   -7.6039435    815.84497   0.01705219  0.015999641           50 
 3988000   0.60795019   -7.6256428    813.73931  0.017003914   0.01599469           33 
 3989000   0.60824909   -7.5983983    815.61917  0.017038923  0.015989733           26 
 3990000   0.61557033   -7.6238332    815.53275  0.017032848  0.015984787           22 
 3991000   0.61093844   -7.6326941    813.17657  0.016979382  0.015979829           27 
 3992000   0.61413324   -7.6050429    814.20836  0.016996667   0.01597487           26 
 3993000   0.62530882   -7.6053103    813.38885  0.016975308  0.015969913           44 
 3994000   0.61561458   -7.6005689    813.63167  0.016976124  0.015964963           27 
 3995000   0.61511981   -7.6247665    815.05792  0.017001625  0.015960005           42 
 3996000    0.6149828   -7.6294699     813.5932  0.016966825  0.015955042           30 
 3997000   0.60616832   -7.5983764    814.00827  0.016971234  0.015950099           25 
 3998000   0.62065103   -7.6190794    813.79529   0.01696255  0.015945153           27 
 3999000     0.611271   -7.5990321    814.33444  0.016969543  0.015940211           19 
 4000000   0.62340087   -7.6254095    816.30703  0.017006396  0.015935265           25 
 4001000   0.61490474   -7.6155538    813.45767  0.016942799  0.015930318           22 
 4002000   0.60207238   -7.6020444    813.48177  0.016939067  0.015925371           15 
 4003000    0.6208462   -7.6083401    814.91923   0.01696476  0.015920426           23 
 4004000   0.60105206   -7.6005075    815.51358  0.016972893  0.015915491           27 
 4005000   0.62573897   -7.6256288    812.72815  0.016910698  0.015910554           21 
 4006000   0.61562475   -7.6044282    812.89919  0.016910035  0.015905621           52 
 4007000   0.60240852   -7.6203895    813.88756   0.01692637  0.015900688           24 
 4008000   0.60435779   -7.6011798    813.49313  0.016913946   0.01589576           29 
 4009000   0.62912798   -7.6199623    813.83208  0.016916772  0.015890838           18 
 4010000   0.60125796   -7.6324974    815.50667  0.016947354  0.015885914           38 
 4011000   0.61392958   -7.6237933    814.37978  0.016919716   0.01588099           33 
 4012000   0.61464159   -7.5979146    813.76618  0.016902754  0.015876074           31 
 4013000    0.6157225   -7.6022638    814.60664  0.016915995  0.015871157           10 
 4014000   0.61333809   -7.6276625    813.56827  0.016890223  0.015866237           17 
 4015000   0.61363126    -7.627561    813.13658  0.016877056  0.015861308           18 
 4016000   0.59760132   -7.6051047    814.68777  0.016905042  0.015856385           22 
 4017000   0.60097656   -7.5950187    812.96502  0.016865095   0.01585146           31 
 4018000   0.61544325   -7.6288327     814.1392   0.01688525  0.015846536           19 
 4019000   0.60621108   -7.6156887    814.36132  0.016885654  0.015841623           32 
 4020000   0.60198453   -7.6367135    814.60296  0.016886463  0.015836712           36 
 4021000   0.60501437    -7.610956     814.7933  0.016886208  0.015831795           22 
 4022000   0.60491155    -7.636123     813.9811  0.016865181  0.015826882           20 
 4023000   0.60975923   -7.6603284    813.98241  0.016861016  0.015821975           17 
 4024000   0.61886895   -7.6119756    814.24517  0.016862267  0.015817074           19 
 4025000    0.6125676   -7.6182112    815.72906    0.0168888  0.015812175            7 
 4026000   0.61115343   -7.6112764    813.91066  0.016846967  0.015807278           14 
 4027000   0.61946552   -7.6237573    814.45768  0.016854103  0.015802373           16 
 4028000   0.59808828   -7.6186793    813.66715  0.016833564  0.015797476           22 
 4029000    0.6026713   -7.6241612    814.52498  0.016847129  0.015792581           14 
 4030000   0.59990144   -7.6333316    814.00465  0.016832189  0.015787691           23 
 4031000   0.61321768   -7.6350476    813.13651  0.016810066  0.015782791            6 
 4032000   0.60062478   -7.6111875    812.99783  0.016803031  0.015777895           27 
 4033000   0.59747064   -7.6285908    813.60861  0.016811485  0.015772998           13 
 4034000   0.60073993   -7.6313908    814.66429  0.016829125  0.015768097           16 
 4035000    0.6156973   -7.6202496    813.66148  0.016804244    0.0157632           16 
 4036000   0.60359254    -7.617492    815.51413  0.016838333    0.0157583           19 
 4037000   0.60905579    -7.620743     815.1057  0.016825731  0.015753408           21 
 4038000    0.6178143    -7.636722       813.13  0.016780791  0.015748521           15 
 4039000   0.59912334   -7.6343238    813.45806  0.016783405  0.015743632           24 
 4040000   0.58553409   -7.6157654    814.85845  0.016808136  0.015738756           25 
 4041000    0.6142985   -7.6094185    813.99402  0.016786151  0.015733881           27 
 4042000   0.60969378   -7.6304704    814.70276   0.01679661  0.015729011           15 
 4043000   0.60261664   -7.6245662    815.21457  0.016803005  0.015724148           34 
 4044000   0.60345059   -7.6136289    813.87426   0.01677123  0.015719283           11 
 4045000   0.60702303   -7.5942404    813.45412  0.016758428  0.015714418           24 
 4046000   0.60321645   -7.6084997    815.21692  0.016790594   0.01570955           31 
 4047000   0.60196545   -7.6121218    814.79365  0.016777729  0.015704686           21 
 4048000   0.61432545   -7.6259905    814.75601   0.01677281  0.015699811           22 
 4049000   0.61029255   -7.6040517    814.17474  0.016756704  0.015694942            7 
 4050000   0.61142183   -7.6268655    816.04707  0.016791092  0.015690081           12 
 4051000   0.60886682   -7.6342014    813.84512  0.016741651  0.015685219           10 
 4052000   0.60883861   -7.6330414    814.11034  0.016742973  0.015680358           16 
 4053000   0.60879296   -7.6195707    813.82181   0.01673291  0.015675492           13 
 4054000   0.60474318   -7.6279407    813.86929  0.016729758  0.015670631           18 
 4055000    0.5904634   -7.6310393    813.96124  0.016727522  0.015665772           22 
 4056000   0.60431733   -7.6264013     815.5757  0.016756568  0.015660911           31 
 4057000   0.59209598   -7.6215724    814.12929  0.016722728  0.015656055           18 
 4058000    0.6002448   -7.6128729    813.62651  0.016708282    0.0156512           13 
 4059000   0.60277237    -7.613414    813.73948  0.016706485  0.015646335           23 
 4060000   0.59014035   -7.6295238    815.43715  0.016737216  0.015641484           20 
 4061000   0.59679656   -7.6210356    813.80198   0.01669954  0.015636639           38 
 4062000   0.61341953   -7.6428534    814.60784  0.016711961    0.0156318           19 
 4063000   0.60093773   -7.6208253    814.25555  0.016700623  0.015626954           26 
 4064000   0.60693098   -7.6467354    814.39386  0.016699349  0.015622113           18 
 4065000   0.59706714   -7.6361696    814.72258   0.01670198  0.015617271           29 
 4066000   0.61267523   -7.6261371    813.96754  0.016682397  0.015612429           48 
 4067000   0.60873323   -7.6158661    812.89605  0.016656341  0.015607584           38 
 4068000     0.603228   -7.6173713    813.44932   0.01666358  0.015602749           25 
 4069000   0.60287303   -7.6317561    815.39703  0.016699374  0.015597912           27 
 4070000   0.60562245   -7.6294126    814.11769  0.016669076  0.015593067           27 
 4071000   0.60233996   -7.6362227    815.71138  0.016697605  0.015588232           23 
 4072000   0.59236885   -7.6256927    814.91591  0.016677225  0.015583394           32 
 4073000   0.58995248   -7.6338949    814.86692  0.016672128  0.015578553           20 
 4074000   0.59638937   -7.6106958     813.9968  0.016650237  0.015573708           37 
 4075000    0.6138883   -7.6065519    815.71199  0.016681227  0.015568882           34 
 4076000   0.60523287   -7.6089041    815.04828  0.016663565  0.015564054           42 
 4077000   0.60348787   -7.6331778    813.88229  0.016635645  0.015559234           44 
 4078000   0.61735635   -7.6155227    814.77421  0.016649792  0.015554415           82 
 4079000   0.60915156   -7.6209731    813.78037  0.016625406  0.015549599           34 
 4080000   0.60673096   -7.6438078    813.88185  0.016623404  0.015544776           31 
 4081000    0.6004886   -7.6233553    814.44357  0.016630801  0.015539956           13 
 4082000   0.59439155   -7.6248292    813.26003  0.016602565  0.015535143           15 
 4083000   0.59769527   -7.6282518    813.22658  0.016597816   0.01553033           24 
 4084000   0.60459845   -7.6315226    814.34858  0.016616646  0.015525518           18 
 4085000    0.5948346   -7.6311951    814.97491  0.016625355  0.015520703           19 
 4086000   0.59755646   -7.6302867    814.68078  0.016615288  0.015515887           21 
 4087000   0.60563982   -7.6328386    812.96047  0.016576145   0.01551107            9 
 4088000   0.60769873    -7.633666    813.85965   0.01659042  0.015506253           13 
 4089000   0.58575533   -7.6422426    814.87136  0.016606981  0.015501437           27 
 4090000   0.57416347   -7.6387534    814.69143  0.016599255  0.015496621           18 
 4091000   0.59751885   -7.6339648    813.71384  0.016575284  0.015491818           18 
 4092000   0.60542011   -7.6325455    815.67467  0.016611165  0.015487012           15 
 4093000   0.59447143   -7.6234929     814.5005  0.016583201  0.015482202           29 
 4094000   0.59714334   -7.6302492    814.09348  0.016570865  0.015477399           31 
 4095000   0.59440261   -7.6408239     814.0855  0.016566656  0.015472586           22 
 4096000   0.61841064   -7.6497918    814.01491  0.016561176  0.015467777           20 
 4097000   0.59505617   -7.6310185    813.38601  0.016544342  0.015462966           12 
 4098000   0.59985032   -7.6409331    814.28663  0.016558619  0.015458145           19 
 4099000   0.60183608   -7.6397351    813.04956  0.016529429  0.015453326           13 
 4100000   0.60880037   -7.6391087    813.09894  0.016526401  0.015448503           40 
 4101000   0.59212256   -7.6426673    814.25867  0.016545937  0.015443689           20 
 4102000   0.59660187   -7.6381351    814.60206   0.01654888  0.015438881           33 
 4103000   0.60001549   -7.6336355    814.09051  0.016534457  0.015434073           15 
 4104000   0.59571674   -7.6390418    814.04459  0.016529495  0.015429268           19 
 4105000   0.59524192   -7.6683837    812.86283  0.016501478  0.015424467           26 
 4106000   0.60443774   -7.6530022    812.65407  0.016493223  0.015419657           20 
 4107000   0.59060279    -7.646655    812.34856  0.016483008  0.015414849           20 
 4108000   0.58057175   -7.6542079    813.86165   0.01650969  0.015410043           17 
 4109000   0.57919196   -7.6477028    814.36212  0.016515821  0.015405236           16 
 4110000   0.60516859   -7.6570441    812.38485  0.016471712  0.015400425           30 
 4111000   0.58020505   -7.6604886    813.33029   0.01648687  0.015395622           42 
 4112000   0.59270706   -7.6509311    813.65877  0.016489518  0.015390821           33 
 4113000   0.57906463   -7.6541826    814.35398  0.016499594   0.01538602           26 
 4114000   0.59633085   -7.6408774    812.81315  0.016464373   0.01538122           29 
 4115000   0.58439021   -7.6526271    812.82084  0.016460527  0.015376412           26 
 4116000   0.61110394   -7.6593175    815.31442  0.016507014  0.015371618           32 
 4117000   0.59750849   -7.6535512    813.42776  0.016464816  0.015366833           28 
 4118000   0.59485656     -7.64407    813.27472  0.016457721  0.015362047           31 
 4119000   0.59476144   -7.6518823    813.95745  0.016467538  0.015357259           32 
 4120000   0.59982435   -7.6479405    811.75592  0.016419011  0.015352476           32 
 4121000   0.58866005   -7.6450898    811.98244  0.016419608  0.015347695           38 
 4122000   0.59071938   -7.6315783    813.27952  0.016441847  0.015342914           29 
 4123000   0.59615675   -7.6405427    813.84675  0.016449324  0.015338133           26 
 4124000   0.59242633   -7.6541816    812.94685  0.016427151  0.015333344           34 
 4125000   0.58292296   -7.6445688    812.75404  0.016419274   0.01532857           27 
 4126000   0.59022891   -7.6459227    814.97409  0.016460133  0.015323798           37 
 4127000   0.58872761   -7.6427042    813.97914  0.016436054  0.015319032           19 
 4128000   0.58365669   -7.6633256    812.65608  0.016405363  0.015314266           25 
 4129000   0.59197876   -7.6540434    812.69782  0.016402233  0.015309502           18 
 4130000   0.58399735   -7.6554111    813.51207  0.016414691  0.015304732           22 
 4131000   0.59128181   -7.6556226    812.76209  0.016395588  0.015299971           44 
 4132000     0.591327   -7.6566601    813.89531  0.016414475  0.015295212           42 
 4133000     0.586129   -7.6519007    814.69402  0.016426607  0.015290447           48 
 4134000   0.59620897   -7.6691928    814.72217  0.016423201  0.015285684           20 
 4135000   0.58930949    -7.643164    812.57048  0.016375866  0.015280913           36 
 4136000   0.58587398   -7.6390829    813.27906  0.016386183  0.015276141           34 
 4137000    0.5860084   -7.6679255    814.20606  0.016400896  0.015271373           34 
 4138000   0.59057737   -7.6602264    812.69499  0.016366501  0.015266602           13 
 4139000   0.58433309   -7.6679411    813.29992  0.016374727   0.01526184           32 
 4140000   0.59899347   -7.6699142    812.43829  0.016353428  0.015257071           34 
 4141000    0.5894415   -7.6595232    812.74761  0.016355703  0.015252306           18 
 4142000   0.59576166   -7.6632401    813.49725  0.016366837  0.015247537           17 
 4143000   0.59156153   -7.6667341     812.7314  0.016347482  0.015242767           30 
 4144000   0.59920374   -7.6882479    812.50388  0.016338962  0.015238005           34 
 4145000   0.59293497   -7.6725213     811.9793  0.016324473  0.015233239           14 
 4146000   0.59120488   -7.6558992    812.00215  0.016320995  0.015228472           16 
 4147000   0.57858803    -7.671826    813.36744  0.016344495  0.015223716           36 
 4148000   0.57858496    -7.671149    813.31607  0.016339522  0.015218963           11 
 4149000     0.589483   -7.6771667    813.85794  0.016346468   0.01521421           21 
 4150000   0.59428766   -7.6744162    813.37464  0.016332824  0.015209461           23 
 4151000   0.59698732   -7.6740849    812.18415   0.01630499  0.015204712           27 
 4152000   0.58262493   -7.6845202    812.37593  0.016304912  0.015199968           30 
 4153000   0.59027207   -7.6726094    813.01562  0.016313822  0.015195215           30 
 4154000   0.58662702   -7.6870949    812.78566  0.016305281  0.015190466           19 
 4155000   0.57972902   -7.6936045    812.02729  0.016286147  0.015185716           25 
 4156000   0.59111817   -7.6917617    812.19425  0.016285576  0.015180964           13 
 4157000   0.59535837   -7.6694896    812.19684   0.01628171  0.015176212           21 
 4158000   0.58720786   -7.6804024    812.51497  0.016284171  0.015171466           10 
 4159000   0.57773741   -7.6660681    814.00701  0.016310151   0.01516672           14 
 4160000   0.58183769   -7.6854314    814.96058  0.016325332  0.015161977           14 
 4161000   0.57191487   -7.6616097    813.13283  0.016284804  0.015157237           24 
 4162000   0.58908263   -7.6780674    813.46763  0.016287595  0.015152508           23 
 4163000   0.59040408   -7.6437916    813.66594  0.016287652  0.015147775           15 
 4164000    0.5782425   -7.6416924      813.384  0.016278098   0.01514305           21 
 4165000   0.58374211    -7.673328    813.84029  0.016283319  0.015138324           34 
 4166000   0.57760731   -7.6670414    812.17611  0.016246122  0.015133594           23 
 4167000   0.58739381   -7.6515817    813.21533  0.016263006  0.015128865           24 
 4168000   0.58247841   -7.6631003    812.39528  0.016242708  0.015124139           18 
 4169000   0.57794834   -7.6544472     814.1928  0.016274742  0.015119408           27 
 4170000   0.57942893   -7.6436748    812.51666  0.016237343  0.015114683           44 
 4171000   0.58993905   -7.6566073    811.97142  0.016222557  0.015109961           37 
 4172000   0.58007775   -7.6549589    814.64545  0.016272081  0.015105246           22 
 4173000   0.57716022   -7.6664673    812.87993  0.016232925   0.01510053           37 
 4174000   0.59779194   -7.6771314    812.87309  0.016228899   0.01509581           31 
 4175000   0.59133377   -7.6630957    812.59066  0.016219374  0.015091086           27 
 4176000   0.57616419   -7.6956244    811.84883  0.016200687  0.015086363           26 
 4177000   0.58324423    -7.663133    812.84145  0.016216612  0.015081645           46 
 4178000   0.58486418   -7.6756943    813.91616  0.016234166  0.015076925           41 
 4179000   0.57464141   -7.6861901    813.57123  0.016223403   0.01507221           22 
 4180000    0.5741927    -7.677812    813.30191  0.016214153  0.015067496           20 
 4181000    0.5700438   -7.6654521    811.40102  0.016172387  0.015062786           35 
 4182000   0.58355034   -7.6669068    813.69279  0.016214187  0.015058079           35 
 4183000   0.58466387   -7.6641493    813.84303  0.016213305  0.015053375           41 
 4184000   0.57741541   -7.6605953    812.87146  0.016190079  0.015048675           39 
 4185000   0.58813899   -7.6798338    813.35923  0.016195922  0.015043977           36 
 4186000   0.58127085   -7.6486688    814.39465  0.016212666  0.015039273           47 
 4187000   0.57873918   -7.6607062    812.15732  0.016164265  0.015034567           43 
 4188000    0.5975387   -7.6767451      813.438  0.016185888  0.015029865           55 
 4189000   0.58286046   -7.6857129    812.34114  0.016160204  0.015025163           53 
 4190000   0.57817506   -7.6841357    812.59904  0.016161476  0.015020464           30 
 4191000   0.58894621   -7.6948689    813.08647  0.016167312   0.01501577           23 
 4192000   0.57725743   -7.6630979    812.53717  0.016152536  0.015011071           14 
 4193000   0.58190992   -7.6956157    813.16084  0.016161079  0.015006378           16 
 4194000   0.57427588   -7.6646999    813.57343  0.016165423  0.015001688           16 
 4195000   0.58030412   -7.6808726    811.94399  0.016129201  0.014997006           15 
 4196000   0.57259293   -7.6809428    813.78164  0.016161853  0.014992322           17 
 4197000   0.59046644   -7.6869839    811.21648   0.01610707  0.014987632           16 
 4198000   0.59073588   -7.6647579    813.03581  0.016139348  0.014982953           19 
 4199000   0.58483651   -7.6824187    813.02274  0.016135245  0.014978281           16 
 4200000   0.58900842   -7.6575763    813.33899  0.016137678  0.014973605           21 
 4201000   0.57657727   -7.6766993    813.55563  0.016138134  0.014968929           18 
 4202000   0.57081056   -7.6643368     813.5551  0.016134283  0.014964258           19 
 4203000   0.57236459   -7.6798468    814.61237  0.016151407  0.014959586           16 
 4204000   0.58332835   -7.6728034    813.29646  0.016121481  0.014954924           15 
 4205000   0.57364305   -7.6656624    813.88186  0.016129248  0.014950255           16 
 4206000    0.5846934   -7.6940774    813.28921  0.016113671  0.014945592           15 
 4207000   0.58473911   -7.6752117    812.93187  0.016102763   0.01494093           27 
 4208000   0.57799862   -7.6731863    813.98948   0.01611988  0.014936279           20 
 4209000   0.58320879   -7.6679013    812.58501  0.016088244  0.014931619           17 
 4210000   0.57786225   -7.6789488    813.94577  0.016111357  0.014926953           26 
 4211000   0.56260544   -7.6796598     814.0143  0.016108887  0.014922289           19 
 4212000   0.58617487   -7.6716774    813.47252  0.016094344  0.014917635           16 
 4213000   0.57790839   -7.6719588    811.98081  0.016061018  0.014912984           30 
 4214000   0.57138955   -7.6697419     812.3553  0.016064612  0.014908326           21 
 4215000   0.58266022   -7.6688319    812.69619   0.01606754  0.014903669           27 
 4216000   0.57970481    -7.676188    813.39519  0.016077546  0.014899016           18 
 4217000   0.56481822   -7.6631456    812.83303  0.016062624  0.014894359           13 
 4218000   0.57445595   -7.6752059    812.02834  0.016042918  0.014889708           19 
 4219000   0.57699599   -7.6816725    812.93993  0.016057121  0.014885057           16 
 4220000   0.57169934    -7.660074    812.08026   0.01603634  0.014880407           14 
 4221000   0.58103184   -7.6699374    814.30982  0.016076558  0.014875752           18 
 4222000    0.5778715   -7.6776257    813.23949  0.016051624  0.014871105           32 
 4223000   0.59147113   -7.6837132    814.72686  0.016077174  0.014866463           15 
 4224000   0.58255818   -7.6682569    813.76686  0.016054428   0.01486181           14 
 4225000   0.55670832   -7.6698881    812.85213  0.016032586  0.014857169           13 
 4226000   0.57882759   -7.6721327    811.14811  0.015995191  0.014852529           22 
 4227000   0.57144039   -7.6937795    813.02404   0.01602839  0.014847887           16 
 4228000   0.58940302   -7.6949566    810.65984  0.015978001  0.014843254           13 
 4229000   0.57833913   -7.6877761    811.77517    0.0159962  0.014838619           15 
 4230000   0.58257557   -7.6779247    812.17041  0.016000205  0.014833978           13 
 4231000   0.57191587    -7.653165    812.74309  0.016007703   0.01482934           13 
 4232000   0.57436008   -7.6761829    812.36992  0.015996572  0.014824701           13 
 4233000   0.58338282   -7.6890728    813.38075  0.016012693  0.014820064           19 
 4234000   0.57639439   -7.6848182    813.15818   0.01600453   0.01481543           12 
 4235000   0.58599114   -7.6776235    811.33472  0.015964871  0.014810792           20 
 4236000   0.57440686   -7.7050497     812.8291    0.0159905  0.014806156           12 
 4237000   0.56626696   -7.6956385    812.33654  0.015977038   0.01480152           21 
 4238000   0.56703174   -7.6924795    811.85021  0.015963706  0.014796884           21 
 4239000   0.55706226   -7.7064697    812.18409  0.015966503  0.014792244           12 
 4240000   0.57375645   -7.6691293    812.91481  0.015977099  0.014787606           10 
 4241000   0.58000436   -7.6693603    811.97542  0.015954874  0.014782979           13 
 4242000    0.5696834   -7.7046915    812.72457  0.015965829  0.014778346           44 
 4243000   0.56928597   -7.6941012    811.86827  0.015945248  0.014773717           13 
 4244000   0.58053363   -7.6827489    811.84803  0.015941094  0.014769084           22 
 4245000   0.57062007   -7.6993825    811.74393  0.015935295  0.014764447           15 
 4246000    0.5762791   -7.6966505    813.06855  0.015957539  0.014759819           11 
 4247000   0.57468743   -7.6723779    811.10011  0.015915158  0.014755188           16 
 4248000   0.58052795   -7.7012173    812.78541  0.015944472  0.014750557           15 
 4249000   0.57003142   -7.7017146    810.69649  0.015899751  0.014745941           14 
 4250000   0.59107847   -7.6932363      810.332  0.015888863  0.014741311           30 
 4251000   0.57634978   -7.6895897    810.89897   0.01589624  0.014736686           19 
 4252000   0.58724786   -7.6900084    811.95077  0.015913115  0.014732068           15 
 4253000   0.57278421   -7.6989518    811.81701  0.015906752  0.014727453           18 
 4254000   0.58233946   -7.7068545    812.03556  0.015907294  0.014722827           24 
 4255000   0.56138796   -7.6936092    812.56429  0.015913911  0.014718208           15 
 4256000   0.57128736   -7.6937414    811.66976  0.015892657  0.014713592           10 
 4257000   0.56119231   -7.6944552    812.29574  0.015901177  0.014708976           14 
 4258000   0.56180778    -7.700232    812.44754  0.015900414  0.014704364           22 
 4259000   0.58712599   -7.6799107     814.1511  0.015930013  0.014699762           11 
 4260000   0.56734185   -7.6840939     811.8692  0.015881635  0.014695157           15 
 4261000    0.5652859   -7.6859213    811.16999  0.015864234  0.014690557           16 
 4262000   0.57894962   -7.6910055     811.3542  0.015864113  0.014685955           19 
 4263000   0.57907701    -7.720475    812.53376   0.01588345  0.014681353           32 
 4264000   0.56075678   -7.6965192    812.75913  0.015884129  0.014676743           32 
 4265000   0.55775676   -7.6924258    812.43602  0.015874092  0.014672133           20 
 4266000   0.57453412   -7.7083799     812.2137  0.015866028  0.014667524           28 
 4267000   0.56640181   -7.7168933    811.63103   0.01585093  0.014662917           23 
 4268000   0.56685371   -7.6972447    811.89945  0.015852457  0.014658316           23 
 4269000   0.58340905   -7.7046304    810.99635  0.015831115  0.014653711           47 
 4270000   0.57459943   -7.6919159    811.77922  0.015842686  0.014649104           30 
 4271000   0.56265249   -7.6809809    811.08619  0.015825454  0.014644502           23 
 4272000   0.55943001   -7.7112759    812.60532  0.015851384    0.0146399           31 
 4273000   0.57138703   -7.6949898    811.84905  0.015832925  0.014635303           24 
 4274000   0.57039785   -7.6975032     811.2603  0.015817741  0.014630707           23 
 4275000   0.57075459   -7.7225776    812.00764  0.015828609  0.014626116           30 
 4276000   0.58173522   -7.6987463    813.14483   0.01584707  0.014621526           27 
 4277000   0.56619284   -7.6918809    811.68947  0.015815008  0.014616941           31 
 4278000   0.56704738   -7.6886195    812.95466  0.015835956  0.014612363           19 
 4279000   0.55236377    -7.708257    810.59369  0.015786276  0.014607779           25 
 4280000    0.5688311   -7.7210521    813.10367  0.015831458  0.014603195           31 
 4281000   0.57877207   -7.6884902    812.50979  0.015816199  0.014598615           36 
 4282000   0.57766004   -7.7096711    811.91996  0.015801027  0.014594035           39 
 4283000   0.56118089   -7.7056182    810.87233  0.015776954  0.014589446           48 
 4284000   0.55630212   -7.7111386     811.1689   0.01577904  0.014584861           25 
 4285000   0.57616838   -7.7209269     811.7928  0.015787491  0.014580282           25 
 4286000   0.57061878   -7.7129128    811.12629  0.015770849  0.014575701           35 
 4287000   0.55835811   -7.7116844    812.02706   0.01578468  0.014571119           35 
 4288000   0.56385883   -7.7060073     810.9685  0.015760426  0.014566539           56 
 4289000   0.57295075   -7.7253369    811.20448  0.015761337  0.014561967           54 
 4290000   0.56839381   -7.7108522    811.23997  0.015758352  0.014557393           70 
 4291000   0.56271169   -7.7152545    811.94908  0.015768451  0.014552817           45 
 4292000   0.57440085   -7.7053156    811.62775  0.015758538  0.014548246           32 
 4293000   0.56116764   -7.7178172    811.90509  0.015760251  0.014543671           39 
 4294000   0.56019621   -7.7150258    811.43833  0.015747522  0.014539094           41 
 4295000   0.57698425   -7.6936396    811.05173  0.015736355   0.01453452           32 
 4296000    0.5568108   -7.7001333    809.89838  0.015710319  0.014529953           43 
 4297000     0.567854   -7.7248752    812.26519  0.015752564  0.014525386           39 
 4298000   0.58074648    -7.726993    812.37513   0.01575103  0.014520818           34 
 4299000    0.5576049   -7.7078033    811.33741  0.015727251  0.014516252           50 
 4300000   0.56877324   -7.7100836    811.70431  0.015730704  0.014511696           41 
 4301000   0.56891697   -7.7058167     810.8208  0.015709928  0.014507134           33 
 4302000   0.56959185   -7.7000357    811.68368  0.015722991  0.014502573           48 
 4303000    0.5590796   -7.6968941    811.15798  0.015709156  0.014498013           29 
 4304000   0.56872729   -7.7146254    809.91995  0.015681536  0.014493451           36 
 4305000    0.5599966   -7.7237871    809.78751  0.015675329  0.014488894           40 
 4306000   0.55383197   -7.6925828    810.32668  0.015682123  0.014484339           30 
 4307000   0.56182458   -7.6849434    812.64787  0.015723393   0.01447979           67 
 4308000   0.57660643   -7.7074159    812.11632  0.015709461  0.014475241           38 
 4309000   0.55307041   -7.7048028    812.78768  0.015718799  0.014470701           29 
 4310000   0.54440958   -7.6911294    812.63364  0.015712174  0.014466159           30 
 4311000    0.5643114   -7.7360264    811.55719  0.015687721  0.014461611           48 
 4312000    0.5564875   -7.7191836    810.47651  0.015663198  0.014457068           19 
 4313000   0.55756654   -7.7156193    811.06525  0.015670942  0.014452528           27 
 4314000    0.5770466   -7.7199072    811.03552  0.015666735  0.014447986           19 
 4315000   0.56639715   -7.7263289    809.90903  0.015641349  0.014443441           63 
 4316000    0.5514376   -7.7164755    811.06761  0.015660094  0.014438898           16 
 4317000   0.56074461   -7.7102221    810.21787  0.015640064  0.014434368           19 
 4318000   0.55853318   -7.7037682    811.45097   0.01566024  0.014429836           21 
 4319000   0.55946591      -7.7056    810.93785  0.015646713  0.014425306           16 
 4320000   0.57003888   -7.7183537    811.30238  0.015650123  0.014420777           13 
 4321000   0.55737571   -7.7177102    810.42928  0.015629663  0.014416252           25 
 4322000   0.57213813   -7.7138413    810.39942  0.015625471  0.014411727           22 
 4323000   0.56219522   -7.7143309    810.93372  0.015632156  0.014407206           26 
 4324000   0.56396742   -7.7147392      811.232  0.015634289  0.014402678           19 
 4325000   0.55875181   -7.7137711    810.39355  0.015614519  0.014398152           26 
 4326000   0.55267597   -7.7219603    809.76099  0.015598725  0.014393625           22 
 4327000   0.57438747   -7.7243488    811.60873  0.015630705  0.014389101           15 
 4328000   0.55147921    -7.710392    811.18879  0.015619008  0.014384582           36 
 4329000    0.5607649   -7.7140372    811.97002  0.015630439  0.014380062           27 
 4330000   0.56600225   -7.7125108    811.13351   0.01561073  0.014375547           61 
 4331000   0.56731614   -7.7290417    812.08156  0.015625367  0.014371028           30 
 4332000   0.57193992   -7.7189269    811.30765  0.015606872  0.014366515           22 
 4333000   0.55262292   -7.7148645    810.49852  0.015587709  0.014362002           17 
 4334000   0.54924218   -7.7230539     812.1994  0.015616817  0.014357491           20 
 4335000   0.55393514   -7.7244917    810.70956  0.015584574  0.014352983           26 
 4336000   0.55755738   -7.7231147    810.74595   0.01558168  0.014348478           31 
 4337000   0.56073356   -7.7222004    810.05565  0.015564823   0.01434397           23 
 4338000   0.54734889   -7.7225817    810.74702  0.015574516   0.01433946           19 
 4339000   0.56896213   -7.7194588    811.03635  0.015576484  0.014334957           40 
 4340000   0.56238398   -7.7218331    811.66816  0.015585026  0.014330455           19 
 4341000   0.55663176   -7.7304755    811.54131  0.015579001  0.014325955           22 
 4342000   0.55047068   -7.7600919    811.35537  0.015571844   0.01432146           28 
 4343000   0.54949982    -7.727007    812.26036  0.015585624  0.014316962           32 
 4344000   0.56834497    -7.726256    810.62704  0.015550703  0.014312472           46 
 4345000   0.55922157   -7.7029721    809.53509  0.015526181  0.014307983           22 
 4346000    0.5463272   -7.7260884    810.73732  0.015545661  0.014303491           25 
 4347000   0.55836237   -7.7202522    811.64744  0.015559532  0.014299004           20 
 4348000    0.5582043   -7.7222562    810.64922  0.015536822  0.014294517           16 
 4349000   0.55069093   -7.7322242     811.0723  0.015541356  0.014290031           17 
 4350000   0.55283541   -7.7376446    811.05397  0.015537432  0.014285551           11 
 4351000   0.54037952   -7.7227961    812.24355  0.015556645  0.014281078           17 
 4352000   0.54884266   -7.6916639    811.00287  0.015529314  0.014276598           21 
 4353000    0.5576968   -7.7285657    811.54669  0.015536157  0.014272125           13 
 4354000    0.5566422   -7.7222531    811.09172  0.015523881  0.014267653           39 
 4355000   0.56576544   -7.7319649    811.32921   0.01552486  0.014263171           22 
 4356000   0.56215914   -7.7402043    810.67683  0.015508816  0.014258693           52 
 4357000   0.53935582   -7.7221299    812.07256  0.015531952  0.014254217           19 
 4358000   0.55196361   -7.7262974    811.61864  0.015519708  0.014249747           21 
 4359000   0.56075003   -7.7282636     810.4877  0.015494527  0.014245267           33 
 4360000   0.55389794   -7.7408331    810.61744  0.015493453  0.014240791           29 
 4361000   0.55312358   -7.7273362    810.63559  0.015490247  0.014236315           25 
 4362000   0.55984219   -7.7177791    811.03986  0.015494419  0.014231837           19 
 4363000    0.5485242   -7.7310049    811.59628  0.015501495  0.014227364           15 
 4364000    0.5455217   -7.7285167    809.77514  0.015463167   0.01422289           18 
 4365000   0.56012639   -7.7244794    812.44157   0.01551053  0.014218423           27 
 4366000   0.55954324   -7.7059043    812.40702  0.015506318  0.014213961           35 
 4367000   0.56074308   -7.7363732    811.12328   0.01547827  0.014209492           33 
 4368000   0.55443606   -7.7281817    809.64966  0.015446613   0.01420502           25 
 4369000   0.55364428    -7.737139    809.64369  0.015442963  0.014200559           41 
 4370000   0.53804302   -7.7330831    810.01888  0.015446584  0.014196095           40 
 4371000    0.5490734   -7.7342925    810.88285  0.015459522  0.014191636           48 
 4372000   0.55064755   -7.7441393     811.3768  0.015465401  0.014187181           27 
 4373000   0.54581893   -7.7520535    809.84514  0.015432677  0.014182722           22 
 4374000   0.55414964   -7.7351263     811.1615  0.015454228  0.014178262           16 
 4375000    0.5667817   -7.7233582    810.46941  0.015437513   0.01417381           22 
 4376000   0.54909493   -7.7103014    811.27161  0.015449261  0.014169355           51 
 4377000   0.55067269   -7.7262256    811.04314  0.015441382  0.014164902           20 
 4378000   0.55162134   -7.7293165    809.46564  0.015407828  0.014160451           37 
 4379000   0.54240879   -7.7291521    810.04604  0.015415354  0.014155999           18 
 4380000   0.54720597   -7.7310938    811.47871  0.015439093  0.014151555           20 
 4381000   0.55183704   -7.7449265    811.44002  0.015434833   0.01414711           28 
 4382000   0.55864247   -7.7393081    811.58098  0.015433991  0.014142671           48 
 4383000   0.54949505   -7.7313228    810.56058  0.015411069  0.014138233           19 
 4384000   0.54690025   -7.7343851    811.23126  0.015420302  0.014133801           15 
 4385000    0.5500759   -7.7347658    809.55328  0.015384897  0.014129359           33 
 4386000   0.55772278   -7.7244996    810.35207  0.015396566  0.014124918           24 
 4387000   0.55617456   -7.7364493    809.90931  0.015384646   0.01412048           30 
 4388000   0.56045588   -7.7513638    811.68756  0.015414911  0.014116046           37 
 4389000   0.55344795   -7.7426447    810.01452  0.015379633  0.014111617           40 
 4390000   0.55287069   -7.7528605     810.6855  0.015388867  0.014107187           25 
 4391000   0.54428199   -7.7354863    810.04122  0.015373135  0.014102758           39 
 4392000   0.54957111   -7.7549072    810.27208  0.015374015  0.014098325           32 
 4393000   0.54799926   -7.7354702    810.73049  0.015379211  0.014093902           37 
 4394000   0.55484702   -7.7236014    810.79206  0.015376879   0.01408948           30 
 4395000   0.53812893   -7.7433751    810.79445  0.015373425  0.014085057           20 
 4396000   0.54120028   -7.7538312    811.76885  0.015388399  0.014080636           41 
 4397000   0.55167432   -7.7373567    809.68188  0.015345347  0.014076221           23 
 4398000   0.53530755   -7.7391083    810.93997  0.015365696  0.014071799           24 
 4399000   0.54496181   -7.7403278    809.66313  0.015338015  0.014067381           16 
 4400000   0.55183525    -7.729876    809.19655  0.015325692  0.014062965           32 
 4401000   0.55036322   -7.7316073    810.78287  0.015352247  0.014058558           18 
 4402000   0.54869116   -7.7350509    811.26584  0.015357902   0.01405415           21 
 4403000   0.54766251   -7.7499486    810.96996  0.015348814  0.014049737           24 
 4404000   0.55935405   -7.7484119    810.70104  0.015340241  0.014045328           21 
 4405000   0.55946281    -7.747636    810.99206  0.015342264  0.014040929           23 
 4406000   0.54488022    -7.747153    812.11947  0.015360105  0.014036521           35 
 4407000   0.54164492   -7.7369519    811.97566    0.0153539  0.014032124           23 
 4408000   0.54239884   -7.7406621    811.29193  0.015337491  0.014027722           16 
 4409000   0.55055309   -7.7271209    809.98769  0.015309361  0.014023325           13 
 4410000   0.55454319   -7.7365206    810.82629  0.015321736  0.014018925           34 
 4411000   0.54045642    -7.743548    810.51709  0.015312421  0.014014532           23 
 4412000    0.5476221   -7.7447979    811.31663  0.015324052  0.014010136           19 
 4413000   0.56472942   -7.7403995    812.67804  0.015346288  0.014005747           47 
 4414000   0.54404871    -7.734257    810.46931  0.015301112  0.014001357           19 
 4415000    0.5512694   -7.7513865    811.31825   0.01531367  0.013996965           19 
 4416000   0.54720991   -7.7427909    810.89524   0.01530222  0.013992575           25 
 4417000   0.54760572   -7.7535618      810.995  0.015300638  0.013988184           29 
 4418000   0.54658939   -7.7527055    811.31723  0.015303252  0.013983798           30 
 4419000   0.55647628   -7.7616751    810.49999  0.015284378  0.013979406           20 
 4420000   0.54735995   -7.7432481     809.9594  0.015270728   0.01397501           23 
 4421000   0.55063379   -7.7531949    809.91379  0.015266414  0.013970617           22 
 4422000   0.53620729   -7.7427909    810.46947  0.015273433  0.013966229           25 
 4423000   0.53786327   -7.7545352    809.03716  0.015242994  0.013961842           20 
 4424000   0.53445845   -7.7545976    809.71525  0.015252322  0.013957458           29 
 4425000   0.54165968   -7.7291268    810.15509  0.015257158  0.013953075           21 
 4426000   0.55037879   -7.7356886    809.82843   0.01524756  0.013948693           60 
 4427000   0.54970338    -7.742989    809.87528  0.015244998  0.013944315           21 
 4428000    0.5408654   -7.7554074    809.77815  0.015239727  0.013939938           25 
 4429000   0.55940373   -7.7461458    809.33645  0.015227976  0.013935561           25 
 4430000   0.55141617   -7.7530842    810.29608   0.01524259  0.013931196           20 
 4431000   0.54925392   -7.7519155    810.45338  0.015242108  0.013926824           21 
 4432000   0.53131187     -7.74735    810.81192  0.015245411  0.013922454           20 
 4433000   0.54447014   -7.7294225    810.41795  0.015234566  0.013918086           18 
 4434000    0.5452905   -7.7301176     811.2814  0.015247358   0.01391372           21 
 4435000   0.54079989   -7.7477755     810.5199  0.015229611  0.013909361           42 
 4436000   0.53834339   -7.7558816    809.85574  0.015213701  0.013904996           49 
 4437000   0.53692537   -7.7676957    810.26963  0.015218046  0.013900639           29 
 4438000   0.54328396   -7.7497754    811.04866  0.015229245   0.01389628           21 
 4439000   0.53694618   -7.7484673    811.00078  0.015224915  0.013891921           31 
 4440000    0.5395993   -7.7619512    810.70606  0.015215955  0.013887567           39 
 4441000   0.53240935   -7.7359801    810.23525  0.015203694   0.01388321           31 
 4442000   0.55996114   -7.7556015    809.59915  0.015188338  0.013878855           22 
 4443000   0.54610229   -7.7350656    811.15513  0.015214103  0.013874505           31 
 4444000   0.55514276   -7.7598511    810.53786  0.015199105  0.013870147           61 
 4445000   0.54361797   -7.7616337    809.47196  0.015175702  0.013865799           23 
 4446000   0.54867711   -7.7905164    809.43949   0.01517168  0.013861447           48 
 4447000   0.53218416   -7.7709768    810.36368  0.015185587  0.013857098           65 
 4448000   0.52553149   -7.7610406    809.87364  0.015172992  0.013852748           29 
 4449000   0.55788406   -7.7551388    810.45677  0.015180504  0.013848405           23 
 4450000   0.53500514   -7.7678871    808.97784  0.015149398  0.013844057           38 
 4451000   0.52735084   -7.7694646    810.42292  0.015173049  0.013839715           28 
 4452000   0.53100371   -7.7620794    809.12926  0.015145426  0.013835375           33 
 4453000   0.54074663   -7.7535948    811.44224   0.01518531  0.013831039           41 
 4454000   0.54299785    -7.749985    810.40277  0.015162453  0.013826708           37 
 4455000   0.54118229   -7.7572445    810.32139  0.015157527  0.013822377           25 
 4456000   0.52923027   -7.7468292    810.53637  0.015158146  0.013818039           39 
 4457000   0.53362743   -7.7568875    810.89636  0.015161476  0.013813707           32 
 4458000   0.54742135   -7.7737223    809.32641  0.015128728  0.013809381           31 
 4459000   0.54175165   -7.7808009    811.52455  0.015166415   0.01380505           28 
 4460000   0.53530098   -7.7761789    809.16093  0.015118851  0.013800723           22 
 4461000   0.54164819   -7.7543048    809.52534   0.01512227  0.013796394           43 
 4462000   0.53739551    -7.770953    809.78109  0.015123657  0.013792066           75 
 4463000   0.53903827    -7.762681    809.06845  0.015106962  0.013787735           51 
 4464000   0.54789882   -7.7576518    810.67012  0.015133477  0.013783416           45 
 4465000   0.53637668   -7.7648282    810.17931  0.015120928  0.013779089           43 
 4466000   0.54025835   -7.7486435    810.13193  0.015116658  0.013774766           38 
 4467000   0.53410631   -7.7651274    809.76435  0.015106417  0.013770445           65 
 4468000   0.54217803   -7.7516927    809.78378  0.015103398  0.013766126           66 
 4469000   0.53818065   -7.7573141    810.07518  0.015105452   0.01376181           57 
 4470000   0.52757538   -7.7457552    808.71951  0.015076799  0.013757492           81 
 4471000   0.52661289   -7.7601172    810.03778  0.015097998  0.013753178           44 
 4472000   0.54334684    -7.771304     810.0426  0.015094712  0.013748868           47 
 4473000   0.53725975   -7.7828348     808.8665  0.015069426  0.013744555           50 
 4474000   0.53684297   -7.7568209    808.96662  0.015067922   0.01374025           28 
 4475000   0.53886246   -7.7606152    809.48179  0.015074149  0.013735942           24 
 4476000   0.54299037   -7.7527432    810.40199  0.015087913  0.013731636           27 
 4477000   0.54033726   -7.7672526    810.40187  0.015084541   0.01372733           27 
 4478000   0.54199872   -7.7708415    809.54753  0.015065273  0.013723027           29 
 4479000   0.52801368   -7.7646544    810.05127  0.015071282  0.013718725           26 
 4480000   0.53972712   -7.7741204    811.17674  0.015088853  0.013714421           35 
 4481000   0.53218191   -7.7739797    809.60351  0.015056228  0.013710115           31 
 4482000    0.5388873   -7.7773671    810.17402  0.015063477  0.013705812           38 
 4483000   0.53333445   -7.7700954    809.93172  0.015055612   0.01370151           41 
 4484000   0.53717392   -7.7587188    810.00499  0.015053616  0.013697209           38 
 4485000   0.54219957   -7.7593405    809.85839  0.015047536   0.01369291           39 
 4486000   0.53447404   -7.7702285    809.62023  0.015039758  0.013688615           40 
 4487000    0.5320738   -7.7670542    808.85376  0.015022171  0.013684318           37 
 4488000   0.52255084   -7.7413379    809.50113  0.015030844  0.013680024           71 
 4489000   0.53885729   -7.7592449    811.21002  0.015059219  0.013675732           61 
 4490000   0.52498165    -7.750623    808.74813  0.015010173  0.013671446           84 
 4491000   0.53192741   -7.7782909    808.84749  0.015008675  0.013667156           38 
 4492000   0.53821435    -7.768779    810.29312  0.015032152  0.013662866           95 
 4493000   0.53048424   -7.7673915    808.77776    0.0150007  0.013658579           41 
 4494000   0.54906767   -7.7569021    810.07837   0.01502148  0.013654295           46 
 4495000   0.54332199   -7.7693553    809.50917  0.015007586  0.013650009           47 
 4496000   0.53316177   -7.7887286    810.71691  0.015026633   0.01364573           37 
 4497000   0.52397803   -7.7619797    809.88376  0.015007853   0.01364145           33 
 4498000   0.53268429   -7.7758663    810.75119  0.015020587  0.013637168           62 
 4499000   0.53373322   -7.7737496    810.05819  0.015004412  0.013632889           33 
 4500000   0.53976397   -7.7753913    808.27798  0.014968111  0.013628613           42 
 4501000   0.53223497   -7.7510414    809.41296  0.014985799  0.013624338           44 
 4502000    0.5098005   -7.7919763    808.74575   0.01497012  0.013620058           54 
 4503000   0.53620205   -7.7721172    810.27721  0.014995137  0.013615782           64 
 4504000   0.53453385   -7.7611547    811.09833     0.015007  0.013611508           60 
 4505000   0.53094323   -7.7974141    809.07462  0.014966234  0.013607238           76 
 4506000   0.53477889   -7.7686623    809.49796  0.014970742  0.013602964           37 
 4507000   0.52306446   -7.7869349    809.20536   0.01496201  0.013598692           28 
 4508000   0.52343532    -7.766474    810.10646  0.014975349  0.013594421           77 
 4509000   0.54066117   -7.7769334    810.29663  0.014975542  0.013590151           40 
 4510000   0.52315577   -7.7925836    809.34319  0.014954604  0.013585882           50 
 4511000   0.52910567   -7.7924258    809.66803   0.01495729  0.013581619           46 
 4512000   0.50809645   -7.7750059     809.0067  0.014941761  0.013577357           71 
 4513000   0.53114458   -7.7639608    810.11909   0.01495899  0.013573102           83 
 4514000   0.53938269   -7.7718898    808.57254  0.014927126  0.013568848           92 
 4515000   0.52035986   -7.7835702    809.64916  0.014943691  0.013564593           40 
 4516000   0.53401138   -7.7688744    810.30121  0.014952414  0.013560342           63 
 4517000   0.52395881   -7.7785442    809.22014  0.014929159  0.013556093           86 
 4518000   0.52971458   -7.7882212    809.50043  0.014931025  0.013551842           70 
 4519000   0.52433122   -7.7637369    809.35528  0.014925044  0.013547592           98 
 4520000   0.54592738   -7.7785498    809.14714  0.014917904  0.013543343          114 
 4521000   0.52688971   -7.7798952    807.99314  0.014893334  0.013539092           42 
 4522000   0.52395922   -7.7849153    808.71822  0.014903402  0.013534842           51 
 4523000   0.51573533   -7.7942705    810.35748   0.01493031  0.013530597           45 
 4524000   0.52568217   -7.7951537    809.41206  0.014909594   0.01352635           39 
 4525000   0.52560203   -7.7925287     809.1089  0.014900716  0.013522105           51 
 4526000   0.53401766   -7.7684778    808.79145  0.014891579  0.013517866           90 
 4527000   0.52592967   -7.8012563    808.97864  0.014891736  0.013513626           43 
 4528000    0.5039143    -7.789857    809.56611  0.014899258  0.013509383           35 
 4529000   0.52792037   -7.7718688    809.96505  0.014903309  0.013505146           38 
 4530000   0.52699894   -7.7842872     808.5609  0.014874189  0.013500904           67 
 4531000   0.52685092   -7.7810443    810.17672  0.014900624  0.013496671           44 
 4532000   0.52766682   -7.7759269    808.18935  0.014860793  0.013492438           55 
 4533000   0.53434259   -7.8005114    808.78111  0.014868393  0.013488207           49 
 4534000   0.52831709   -7.7894889    808.22197  0.014854837  0.013483976           48 
 4535000   0.54240337   -7.7791862    809.78824  0.014880342   0.01347975           85 
 4536000   0.51989586   -7.7769792     808.4024  0.014851602  0.013475522           49 
 4537000   0.52407462   -7.7800028    809.56419  0.014869668  0.013471298           47 
 4538000   0.52459115   -7.8050843    808.63584  0.014849343  0.013467074           47 
 4539000   0.51986485   -7.7682724     809.4059   0.01486021  0.013462848           44 
 4540000   0.53320828   -7.7894252    809.09691  0.014851265  0.013458628           39 
 4541000    0.5278555   -7.7876851    808.70585  0.014840818  0.013454409           43 
 4542000   0.51349798   -7.7706288    807.33332  0.014812368  0.013450192           42 
 4543000   0.51891555   -7.7710456    808.67925  0.014833796  0.013445973           39 
 4544000   0.52148852   -7.7938128     808.7799  0.014832378  0.013441757           51 
 4545000   0.50950749   -7.7944632    809.33666  0.014839323  0.013437543           46 
 4546000   0.52971723   -7.8010644    809.30866  0.014835545  0.013433323           64 
 4547000   0.52932763   -7.7903918    808.88094  0.014824444  0.013429111           49 
 4548000   0.52022931   -7.7816843    808.71552  0.014818153  0.013424899           94 
 4549000   0.52089536   -7.7860614    808.98825  0.014819892   0.01342069           51 
 4550000   0.52490468   -7.7830893    809.75091  0.014830603   0.01341648           70 
 4551000   0.51952027   -7.7810419    808.87789  0.014811358  0.013412271           44 
 4552000   0.52659219   -7.7786282    809.36861  0.014817088  0.013408067           39 
 4553000   0.52589665   -7.7845821    808.89241  0.014805118  0.013403864           35 
 4554000   0.52715245   -7.8061812    809.58225   0.01481449  0.013399665           47 
 4555000   0.52582064   -7.7838353    807.09133  0.014765666  0.013395461           30 
 4556000   0.52910285   -7.7967338    808.06815  0.014780293  0.013391264           53 
 4557000   0.52325185   -7.7767829    808.76345  0.014789764  0.013387064           34 
 4558000   0.52284376   -7.7749474    810.52549  0.014818734  0.013382868           36 
 4559000   0.51163435   -7.7876646    809.10468  0.014789513   0.01337867           48 
 4560000      0.50953   -7.7914005    808.42351  0.014773821  0.013374475           54 
 4561000   0.51361798   -7.7892903    808.89627   0.01477922  0.013370283           43 
 4562000   0.52192508   -7.7823167    807.26688  0.014746217  0.013366092           33 
 4563000    0.5218517   -7.7966011    810.08654   0.01479448  0.013361898           41 
 4564000   0.53266328   -7.7785039    807.55108  0.014744944  0.013357708           36 
 4565000   0.51242558   -7.7986062    807.92365  0.014748515  0.013353518           34 
 4566000   0.51897765   -7.8076555    807.88864  0.014744646  0.013349328           70 
 4567000   0.53105695   -7.7985483    809.92645  0.014778601  0.013345138           50 
 4568000   0.51403722    -7.790351    808.49147  0.014749188  0.013340945           29 
 4569000   0.52698097   -7.8036375    807.34909  0.014725124  0.013336758           38 
 4570000   0.51444855   -7.7834662    806.99923  0.014715522  0.013332576           49 
 4571000   0.53001646   -7.7870605    808.16967  0.014733641  0.013328391           35 
 4572000    0.5090262   -7.7968469    809.08142  0.014747037  0.013324209           43 
 4573000   0.52191402   -7.8148355    809.17921  0.014745594  0.013320024           44 
 4574000    0.5240605   -7.7969131    807.39533   0.01470987  0.013315845           33 
 4575000   0.52797512    -7.806568    809.00096  0.014735901  0.013311669           35 
 4576000   0.51329408   -7.8000445    806.96981  0.014695691   0.01330749           40 
 4577000    0.5155025   -7.8039229    808.04232  0.014712008  0.013303312           37 
 4578000   0.51500095   -7.8035362    808.51654  0.014717427  0.013299139           57 
 4579000   0.52956499   -7.7951793     808.4722  0.014713405  0.013294971           46 
 4580000   0.51788734   -7.7890927    808.09412  0.014703314  0.013290796           37 
 4581000   0.51857679   -7.7967498    808.66413  0.014710473  0.013286626           34 
 4582000   0.52778722   -7.7935156    808.68737  0.014707685  0.013282456           91 
 4583000   0.52402845   -7.7974828    806.99107  0.014673632  0.013278288           45 
 4584000   0.51476506   -7.7885507    807.41053  0.014678057  0.013274123           35 
 4585000   0.52366006    -7.802378    808.46972  0.014694106   0.01326996           40 
 4586000   0.52625879   -7.7986966    807.30598  0.014669755  0.013265794           52 
 4587000   0.51544069    -7.797919    806.82037  0.014657735  0.013261628           46 
 4588000   0.52178891    -7.816581    806.50721  0.014648852  0.013257466           39 
 4589000   0.52588125    -7.829304    808.39669  0.014679972  0.013253302           57 
 4590000   0.51126435    -7.801132    807.53146  0.014661065   0.01324914           42 
 4591000   0.51557352   -7.7995869     807.4202  0.014655852  0.013244981           41 
 4592000   0.51296264   -7.8112279    809.02248  0.014681738  0.013240823           36 
 4593000   0.52690469   -7.8002418    808.93298  0.014676917  0.013236671           74 
 4594000   0.50864809   -7.8235472    808.11181  0.014658827   0.01323252           74 
 4595000   0.51405678   -7.8123489    808.09549  0.014655341   0.01322837           74 
 4596000   0.51723053    -7.789712    808.12204  0.014652633  0.013224221           39 
 4597000   0.51065145   -7.7937845    807.90529  0.014645517  0.013220073           42 
 4598000   0.50962658   -7.8146093    808.17616  0.014647241  0.013215931           45 
 4599000   0.51399973   -7.8209159    808.69649  0.014653484  0.013211785           39 
 4600000   0.52147278   -7.7978839    808.08027  0.014639135  0.013207639           47 
 4601000   0.51936479   -7.8004248    807.58496  0.014626983  0.013203498           22 
 4602000   0.52783109   -7.8075446    808.72701  0.014644484  0.013199356           39 
 4603000   0.51697504    -7.808275    808.51892  0.014637536  0.013195212           36 
 4604000   0.51451558    -7.822444     808.6399  0.014636546  0.013191074           36 
 4605000   0.50790656    -7.798639    808.19688  0.014625351  0.013186934           37 
 4606000   0.51536381   -7.8106377     807.3957   0.01460768  0.013182795           31 
 4607000    0.5204541   -7.8108926    807.89826    0.0146136  0.013178657           52 
 4608000   0.51312065   -7.7965004    808.84193  0.014627494  0.013174524           71 
 4609000   0.51557793   -7.8233919    808.39293  0.014616202   0.01317039           77 
 4610000   0.51215082   -7.8099841    809.38573  0.014630979  0.013166264           60 
 4611000   0.50278993    -7.806978    807.75702   0.01459837  0.013162141           47 
 4612000   0.51422829   -7.8043691    808.94245  0.014616624  0.013158014          120 
 4613000   0.51413594   -7.8082064    808.12008    0.0145986  0.013153892           80 
 4614000   0.52448515   -7.7968457    808.67737  0.014605501  0.013149772           41 
 4615000   0.51116143   -7.8063834    807.88174  0.014587969  0.013145656           77 
 4616000   0.50744984   -7.8124931    808.91016  0.014603375  0.013141544           82 
 4617000    0.5199474   -7.7976525    809.00511  0.014601926  0.013137432           92 
 4618000    0.5051757   -7.8142167    809.22301  0.014602696  0.013133317           43 
 4619000   0.51079229   -7.8011064    808.47219  0.014585989  0.013129203           91 
 4620000   0.51273014   -7.8321311    808.61658  0.014585436  0.013125088           43 
 4621000   0.52005539   -7.7996906     807.0303  0.014553673  0.013120977           72 
 4622000   0.51066719   -7.8194056    808.09673  0.014569752  0.013116868           39 
 4623000   0.49694053    -7.815549    807.90853  0.014563208  0.013112754           91 
 4624000   0.51308336   -7.8195623    806.95758  0.014542921  0.013108647           37 
 4625000   0.51372781   -7.7945038    807.32226  0.014546347  0.013104539           77 
 4626000   0.50834254   -7.8133735    806.99722  0.014537347  0.013100435           93 
 4627000   0.51557802   -7.8077073    808.90318  0.014568532   0.01309633           79 
 4628000   0.51650603   -7.8272413    807.54545  0.014540937  0.013092232           97 
 4629000   0.51881329   -7.8197999    808.50518  0.014555073  0.013088129           88 
 4630000   0.51956765   -7.8132737    807.01905  0.014525181  0.013084028           51 
 4631000   0.51775132   -7.8342556    807.70015  0.014534301  0.013079934           70 
 4632000   0.50137834   -7.8210433    808.28197   0.01454163  0.013075839          102 
 4633000   0.51851319   -7.8090346    808.32663  0.014539295  0.013071746           79 
 4634000   0.50266694   -7.7973284    807.53891  0.014521992  0.013067653           98 
 4635000   0.49763881   -7.8232366    808.34611  0.014533371  0.013063565           55 
 4636000   0.51121625   -7.8252605    807.96345  0.014523358  0.013059476           87 
 4637000   0.51667703   -7.8236165    807.82785  0.014517789  0.013055389           82 
 4638000   0.51161271   -7.8113848    808.31316  0.014523379  0.013051303          195 
 4639000   0.51826945   -7.8092623     807.8658  0.014512212  0.013047216          111 
 4640000   0.50716606   -7.8168318    808.14938  0.014514177  0.013043127           94 
 4641000   0.50506171   -7.8315571    807.36628  0.014496988  0.013039037           78 
 4642000   0.50965929   -7.8213224    808.17364  0.014508359  0.013034949           89 
 4643000   0.48715424   -7.8252272    807.13298  0.014486556  0.013030863           76 
 4644000   0.51554723   -7.7948259    809.27579  0.014521888  0.013026783           58 
 4645000   0.49992162   -7.8116272    808.07185  0.014497163  0.013022707           56 
 4646000    0.5093747   -7.8044856    807.55732  0.014484813  0.013018631           90 
 4647000   0.49384278   -7.8123566    807.48994  0.014480488  0.013014555          113 
 4648000    0.5078098    -7.838534    807.76108  0.014482234  0.013010476           70 
 4649000    0.5149399    -7.818225    807.94874  0.014482483  0.013006399           85 
 4650000   0.50625313   -7.8147819    807.29434  0.014467641  0.013002328          149 
 4651000   0.51345188   -7.8059752    808.23136  0.014481319   0.01299826           65 
 4652000   0.49702153   -7.8031671    806.65656  0.014449996  0.012994189           60 
 4653000   0.50445607    -7.825918    807.38371  0.014459913  0.012990119           97 
 4654000   0.50997899   -7.8176192    809.24448  0.014490125  0.012986052           61 
 4655000   0.51165579    -7.808815    809.26807  0.014487434  0.012981989           77 
 4656000   0.50357477   -7.8231961    807.82191  0.014458439  0.012977928          105 
 4657000   0.51195819   -7.8144903    807.74051  0.014453878   0.01297387          111 
 4658000   0.50338837   -7.8142151    807.18632   0.01444086   0.01296981          104 
 4659000   0.50005809     -7.81127    808.38758  0.014459247  0.012965749           94 
 4660000   0.50944203   -7.8262786    807.98238  0.014448898  0.012961688          101 
 4661000   0.50833193   -7.8163061    808.13113  0.014448458   0.01295763           89 
 4662000   0.51018587    -7.844733    807.99582   0.01444294  0.012953574          100 
 4663000   0.50123175   -7.8321507    807.33911  0.014428106  0.012949513          145 
 4664000   0.50362909   -7.8242707    807.51598  0.014428173  0.012945458          112 
 4665000   0.50462114   -7.8214833    808.64712  0.014445286  0.012941406          104 
 4666000   0.50055651   -7.8348274    807.15672  0.014415572  0.012937357          118 
 4667000   0.49848951   -7.8192611    808.37766  0.014434284   0.01293331           64 
 4668000    0.5062738   -7.8335149    807.85089  0.014421788  0.012929264           60 
 4669000   0.49586341   -7.8206398    807.01223  0.014403731  0.012925218          100 
 4670000   0.50999467   -7.8134291    807.01034  0.014400613  0.012921172          111 
 4671000   0.49817978    -7.819997    807.30312  0.014402753  0.012917125          111 
 4672000   0.50511454   -7.8181585    807.29773  0.014399574  0.012913083          117 
 4673000   0.50584586   -7.8215019    807.48246  0.014399787  0.012909046           55 
 4674000   0.50301599   -7.8259188    806.73793  0.014383432  0.012905004           49 
 4675000    0.4945715   -7.8136276     806.6764  0.014379258  0.012900968          109 
 4676000    0.5260104   -7.8260511    807.90632  0.014398102  0.012896933           51 
 4677000   0.49841159   -7.8248543    808.12609   0.01439894  0.012892899           52 
 4678000   0.49881398   -7.8226139    808.39584  0.014400667  0.012888861           88 
 4679000   0.51184451   -7.8287704     806.5311  0.014364378  0.012884825           86 
 4680000   0.50311061    -7.820457    806.80311  0.014366152   0.01288079           93 
 4681000   0.50240357   -7.8380986    807.39353  0.014373594  0.012876755           96 
 4682000   0.50105819   -7.8283231    806.41458    0.0143531  0.012872722          100 
 4683000    0.5046378   -7.8130344    807.27221  0.014365297  0.012868692           48 
 4684000   0.50470381   -7.8277187    807.38869  0.014364302  0.012864664           62 
 4685000   0.50128421   -7.8317726    807.97776  0.014371714  0.012860633           55 
 4686000   0.49833259   -7.8404561    807.43708  0.014359032  0.012856608           98 
 4687000   0.49746316   -7.8286649    806.53825  0.014339987  0.012852583           60 
 4688000   0.50256016   -7.8251949    807.74848  0.014358441  0.012848557          121 
 4689000   0.49903007   -7.8112495    806.54964  0.014334073  0.012844537          128 
 4690000   0.49750079   -7.8439009    808.41678  0.014364193  0.012840518          122 
 4691000   0.49611048   -7.8381456    806.65719  0.014329873  0.012836503          109 
 4692000     0.507291   -7.8391014    809.49826  0.014377278  0.012832488           63 
 4693000   0.49217333   -7.8298422    807.33787  0.014335853  0.012828479           49 
 4694000   0.51315404   -7.8175166    807.64173  0.014338193  0.012824469           57 
 4695000   0.50283335   -7.8268527    806.59988  0.014316647  0.012820462           65 
 4696000   0.50558269    -7.835741    807.31447  0.014326279  0.012816456          101 
 4697000   0.49901705   -7.8344206    807.72325  0.014330481  0.012812447           86 
 4698000    0.4916277   -7.8232995    807.04033  0.014315317  0.012808436           59 
 4699000   0.50392685   -7.8444142    807.08712  0.014313101  0.012804427           88 
 4700000   0.50007558   -7.8565875    807.85714  0.014323708  0.012800421           96 
 4701000   0.49518348   -7.8369916    805.72943  0.014282944  0.012796413           92 
 4702000   0.50332816   -7.8459739      807.575  0.014312615   0.01279241           63 
 4703000   0.48566201   -7.8435519    805.26686  0.014268674  0.012788406           48 
 4704000   0.49713402   -7.8338837    807.27606  0.014301234  0.012784406           50 
 4705000   0.50119471   -7.8449347    808.50462  0.014319954  0.012780406           51 
 4706000   0.49199944   -7.8282217    807.55645  0.014300121  0.012776406           92 
 4707000   0.49787701   -7.8421344    805.40853  0.014259056  0.012772409           75 
 4708000   0.49876928   -7.8331597    805.59594  0.014259345  0.012768413           95 
 4709000   0.49683595   -7.8290898    807.64328  0.014292548  0.012764423           72 
 4710000   0.49471866   -7.8355418    806.92667  0.014276834  0.012760431           59 
 4711000   0.49341594    -7.824704    806.80288  0.014271614  0.012756443           83 
 4712000   0.49659296   -7.8471815     807.9968    0.0142897  0.012752454           67 
 4713000   0.48688626    -7.842004    806.64926  0.014262841  0.012748464           89 
 4714000   0.49329371   -7.8319807    806.16995  0.014251343  0.012744477          113 
 4715000   0.50556232   -7.8335582    808.89643  0.014296508  0.012740496           60 
 4716000   0.49342909   -7.8394212    806.44577  0.014250173  0.012736515           48 
 4717000   0.49819001   -7.8344631    806.54433  0.014248893  0.012732538           78 
 4718000    0.4931758   -7.8238036    807.52331  0.014263164  0.012728564          122 
 4719000   0.49588798   -7.8290135    806.46107  0.014241384  0.012724589           68 
 4720000   0.49524164   -7.8173956    806.47737  0.014238654  0.012720616           99 
 4721000   0.48556207   -7.8279907    807.29095  0.014249999  0.012716646           80 
 4722000   0.50035951   -7.8451412    807.00824  0.014241992  0.012712675           53 
 4723000   0.49660282   -7.8248048    806.82562  0.014235755  0.012708703           96 
 4724000   0.49868592   -7.8294964    806.65382   0.01422971  0.012704736          118 
 4725000   0.50318582   -7.8354995    806.54324  0.014224749  0.012700772          103 
 4726000   0.49907789   -7.8425289     808.3631  0.014253828  0.012696808           94 
 4727000   0.49193192   -7.8475313    806.29765    0.0142144  0.012692847           71 
 4728000   0.49883326    -7.839654    806.23413  0.014210274  0.012688884          100 
 4729000   0.49620254    -7.836522     808.1435  0.014240916  0.012684921          101 
 4730000   0.50232425   -7.8312679    805.97587  0.014199716  0.012680961          107 
 4731000    0.5069685    -7.853697    807.16668   0.01421769  0.012676997           95 
 4732000   0.49069106   -7.8322211    807.29636  0.014216969  0.012673042          109 
 4733000   0.48628768   -7.8446595    806.92882  0.014207494  0.012669084           59 
 4734000   0.49852985   -7.8351294    805.79296  0.014184498  0.012665127           99 
 4735000   0.49297099   -7.8359777    807.73426  0.014215668  0.012661172          105 
 4736000   0.49329578    -7.854462    806.60188  0.014192741  0.012657218           50 
 4737000   0.48523157   -7.8292835    806.90706  0.014195114  0.012653267          100 
 4738000   0.48476109   -7.8304677    805.80527  0.014172739  0.012649314           48 
 4739000   0.49468035   -7.8453438    806.87751  0.014188604  0.012645369           54 
 4740000   0.50350867   -7.8456338    807.15957  0.014190569  0.012641422           85 
 4741000   0.49006777   -7.8278658    805.85616  0.014164666  0.012637477           50 
 4742000   0.49723566   -7.8552996    807.15085  0.014184431  0.012633529           56 
 4743000    0.4866626   -7.8345195    805.38444  0.014150405  0.012629583           89 
 4744000   0.49269999   -7.8490506    806.91984  0.014174393   0.01262564          106 
 4745000   0.49780921   -7.8373994    806.63856  0.014166466  0.012621696           98 
 4746000   0.47610064   -7.8465823    806.03413  0.014152868  0.012617756           92 
 4747000   0.48963988    -7.842548    807.26295  0.014171458  0.012613814           54 
 4748000   0.49000081   -7.8336464    808.01494  0.014181672  0.012609876           49 
 4749000   0.49864319   -7.8385682    807.23299  0.014164964  0.012605941           91 
 4750000   0.48810535    -7.854689    807.42784  0.014165401  0.012602008           57 
 4751000   0.48915042   -7.8514464    806.94042   0.01415387  0.012598075           82 
 4752000   0.49426758   -7.8494186      805.712  0.014129349  0.012594142          146 
 4753000   0.49052625   -7.8481424    806.92029  0.014147561  0.012590208           55 
 4754000   0.49263231   -7.8559528    806.41157  0.014135668  0.012586275           75 
 4755000   0.49101634   -7.8593595    807.62089  0.014153889  0.012582347           93 
 4756000   0.48800236   -7.8470511    806.21213  0.014126229  0.012578423           61 
 4757000   0.49226442     -7.84534    805.82222  0.014116429  0.012574495           58 
 4758000   0.49280237   -7.8316398    806.91205   0.01413255  0.012570574           99 
 4759000   0.48582213   -7.8452992    805.56092  0.014105921  0.012566647           55 
 4760000   0.48435148   -7.8421027    806.50214  0.014119435  0.012562723           86 
 4761000   0.48645255   -7.8459656    805.83714   0.01410483  0.012558802          130 
 4762000   0.48875089   -7.8579092     806.8516  0.014119621  0.012554884           51 
 4763000   0.49008299   -7.8519561      806.564  0.014111624  0.012550969           55 
 4764000     0.484285   -7.8490188    805.40284  0.014088351  0.012547056          102 
 4765000   0.50063581   -7.8387306    807.05413  0.014114273  0.012543145           70 
 4766000   0.48866149   -7.8568816    806.58869  0.014103173  0.012539229           55 
 4767000   0.49092354    -7.844828    807.16483  0.014110287  0.012535321           89 
 4768000   0.48387098   -7.8429818    805.87759  0.014084829  0.012531411          102 
 4769000   0.50765025   -7.8519546     805.6633  0.014078131  0.012527503          100 
 4770000   0.49842919   -7.8590748    807.96381  0.014115371  0.012523596          113 
 4771000   0.49799646   -7.8538166    806.95131  0.014094727  0.012519692           56 
 4772000   0.48889055   -7.8557301    806.15043  0.014077788  0.012515788           97 
 4773000   0.48747182   -7.8385305    807.02493  0.014090106  0.012511886           41 
 4774000   0.48235323   -7.8515898    807.30734  0.014092085  0.012507987           53 
 4775000   0.49656527   -7.8294556    806.38526  0.014073041  0.012504088           94 
 4776000   0.48049254   -7.8299288    805.86261  0.014060975  0.012500188           96 
 4777000    0.4769303   -7.8602132    807.64006  0.014089039  0.012496296          105 
 4778000   0.48327309   -7.8555751    806.76906  0.014070899    0.0124924           49 
 4779000   0.48653694   -7.8650256    807.21484  0.014075728  0.012488507           89 
 4780000   0.48388882   -7.8630787     807.4668  0.014077176  0.012484618           86 
 4781000   0.47334311   -7.8466326    806.89779  0.014064313   0.01248073           51 
 4782000     0.495868    -7.835358    805.54806  0.014037851  0.012476843           86 
 4783000   0.48266659   -7.8485216    806.51505  0.014051764  0.012472955           74 
 4784000   0.48122937   -7.8312147    806.08177  0.014041279  0.012469067           73 
 4785000   0.47864802   -7.8469679    806.28123  0.014041819  0.012465185           38 
 4786000   0.48727362   -7.8486921    805.36531  0.014022937  0.012461301           60 
 4787000   0.49527357   -7.8463233    806.74687  0.014044058   0.01245742           59 
 4788000   0.48004112   -7.8655134    806.88373  0.014043507  0.012453538           59 
 4789000   0.49070141   -7.8541818    805.45503  0.014015714   0.01244966           35 
 4790000   0.47814502   -7.8549818    806.59245  0.014032576   0.01244578           58 
 4791000   0.48613276   -7.8601785    807.40855  0.014043842  0.012441903           47 
 4792000   0.49494783   -7.8650014    805.58769  0.014009246  0.012438025           47 
 4793000    0.4852869   -7.8555621    805.66208  0.014007617  0.012434153           63 
 4794000   0.47414912    -7.850647    806.42911  0.014018028  0.012430281           39 
 4795000   0.49124757   -7.8341545    805.99718  0.014007598  0.012426412           39 
 4796000   0.48918993   -7.8595972     807.0364  0.014022734  0.012422547           85 
 4797000   0.48568474   -7.8485958    806.37816  0.014008376  0.012418678           55 
 4798000   0.48798071   -7.8528652    805.17478  0.013984556  0.012414812           52 
 4799000   0.47170786   -7.8485945    806.19366  0.013999334  0.012410948           47 
 4800000   0.48989407   -7.8553064    806.27001  0.013997743  0.012407087           54 
 4801000   0.48500178   -7.8595726    806.96706  0.014006927  0.012403225           55 
 4802000    0.4796947   -7.8339269    806.07683  0.013988561  0.012399366           60 
 4803000    0.4926516   -7.8691949    806.20297  0.013987837  0.012395506           50 
 4804000    0.4933952   -7.8583732    804.62933  0.013957628  0.012391647           60 
 4805000   0.47276504   -7.8546425    805.30889  0.013966509  0.012387789           86 
 4806000   0.50016754   -7.8411751    805.77762   0.01397173  0.012383935           49 
 4807000   0.47915062   -7.8524182    805.64872  0.013966589  0.012380083           72 
 4808000   0.47514348   -7.8484339    807.19699  0.013990519   0.01237623           44 
 4809000   0.47490674   -7.8432281    806.99254  0.013984067  0.012372382           51 
 4810000   0.47959061    -7.856561    805.83162  0.013961047  0.012368533           95 
 4811000   0.48713752   -7.8652781    806.25536  0.013965485  0.012364682           99 
 4812000   0.49141192   -7.8728906    806.10992  0.013960064  0.012360829           47 
 4813000   0.48682943   -7.8433062     805.5875  0.013948118  0.012356984           53 
 4814000   0.49196389   -7.8686647    805.43185  0.013942526  0.012353137           57 
 4815000   0.48613804   -7.8616319    805.81519  0.013946265  0.012349288           62 
 4816000   0.47846372   -7.8529601    805.73502  0.013941982  0.012345449           42 
 4817000   0.49088979   -7.8701605    806.50044  0.013952329  0.012341607           88 
 4818000   0.48344529   -7.8651922    806.91661  0.013956632  0.012337769           93 
 4819000    0.4888701   -7.8615834    806.33501  0.013943678  0.012333926           94 
 4820000   0.47840635   -7.8500814    806.69583  0.013947023  0.012330089           42 
 4821000   0.47410666   -7.8677411    805.64063  0.013925891  0.012326252           57 
 4822000   0.48697887   -7.8621727    805.98332  0.013928925  0.012322416           76 
 4823000   0.48913718    -7.871863    806.18405  0.013929505  0.012318586           52 
 4824000   0.49112965   -7.8507764    805.90218  0.013921749  0.012314756           76 
 4825000   0.48709586   -7.8633737    805.64051  0.013914344  0.012310928          130 
 4826000   0.48217964   -7.8693329    806.09842  0.013919368  0.012307102          100 
 4827000   0.47889415   -7.8600539    806.16273  0.013917594  0.012303277           99 
 4828000   0.48178633   -7.8729042    806.48369  0.013920252  0.012299452           48 
 4829000   0.48690089   -7.8341427    806.41597    0.0139162  0.012295632           46 
 4830000   0.47185552   -7.8555105     805.2379  0.013892993  0.012291815           97 
 4831000   0.48603414   -7.8600239    805.55563  0.013895598  0.012287993           71 
 4832000   0.47113138   -7.8634553    805.61664  0.013893775  0.012284173           51 
 4833000    0.4729583   -7.8776181    805.83809  0.013894718  0.012280353           53 
 4834000   0.47985047   -7.8616239    806.33556   0.01390042  0.012276534           50 
 4835000   0.49310107   -7.8759067     805.0639  0.013875627  0.012272715           92 
 4836000   0.48357416   -7.8482227    804.24629  0.013858669  0.012268897           45 
 4837000   0.48060921   -7.8598105    804.91902  0.013867394  0.012265083           47 
 4838000   0.47470758   -7.8676221    806.52239  0.013892145  0.012261272           56 
 4839000   0.47861605   -7.8724431    807.13537  0.013899831  0.012257465           50 
 4840000   0.47110704   -7.8583475    805.03874   0.01386086  0.012253658           57 
 4841000   0.48144543   -7.8693065    805.11512  0.013859311  0.012249849           53 
 4842000    0.4792369    -7.875143    805.16964  0.013857387  0.012246045          110 
 4843000   0.48128653   -7.8439365    805.28416  0.013856497  0.012242242           61 
 4844000   0.48220795   -7.8727456    805.18311  0.013851898   0.01223844           50 
 4845000   0.48201667   -7.8788538    806.74439  0.013875892  0.012234639           51 
 4846000   0.47607836   -7.8771346    804.32214  0.013831375  0.012230836           46 
 4847000   0.47391145   -7.8790293    806.04497  0.013858142  0.012227036           86 
 4848000   0.47284883   -7.8654011    805.92744  0.013853263  0.012223239           82 
 4849000   0.49063871   -7.8572064     806.4747  0.013859811   0.01221944           60 
 4850000   0.47164582    -7.871929    806.42606  0.013856118  0.012215645           67 
 4851000   0.46704624   -7.8706971    805.57022  0.013838559   0.01221185           75 
 4852000   0.47317118    -7.863228    805.81102  0.013839843  0.012208058           51 
 4853000   0.47394251   -7.8726981    805.05505   0.01382401  0.012204268           33 
 4854000   0.47300798   -7.8886759    804.98087  0.013819889  0.012200475           90 
 4855000   0.47411943   -7.8646967    805.71066  0.013829569  0.012196685           80 
 4856000   0.46524906   -7.8685656    805.49136  0.013822957  0.012192895          139 
 4857000   0.47059143   -7.8539174     804.9908  0.013811523  0.012189108           55 
 4858000    0.4686222   -7.8645978    805.49965  0.013817409  0.012185321           61 
 4859000   0.47619455   -7.8775959    806.27622  0.013827883  0.012181537           47 
 4860000   0.48089681   -7.8665617    805.07909  0.013804511  0.012177754           48 
 4861000   0.46908238   -7.8764489    805.92154  0.013816114  0.012173972           43 
 4862000   0.47227978   -7.8734378    805.71818  0.013809786  0.012170193           92 
 4863000    0.4553962   -7.8563485    805.94671  0.013810863  0.012166415          108 
 4864000    0.4753853   -7.8808994    805.60329   0.01380214  0.012162638           94 
 4865000   0.47016111   -7.8647341    804.87483  0.013786825  0.012158861          130 
 4866000   0.48562572   -7.8796362    805.49476  0.013794608  0.012155087          103 
 4867000   0.47051719   -7.8593071    805.57129  0.013793084  0.012151315          118 
 4868000   0.47483258   -7.8773247    806.34072  0.013803422  0.012147546           77 
 4869000   0.48296752    -7.869833    805.58421   0.01378764  0.012143779           51 
 4870000   0.47655684    -7.862967    805.88229  0.013789909  0.012140011           88 
 4871000   0.47201496   -7.8786896    806.04819  0.013789916  0.012136243           96 
 4872000     0.487559   -7.8790172     804.3092  0.013757341  0.012132478           53 
 4873000   0.47945024   -7.8454556    805.52508  0.013775311  0.012128719           51 
 4874000   0.47495023   -7.8696471    806.23655  0.013784649  0.012124955           46 
 4875000   0.47448206   -7.8866023    805.03387  0.013761263  0.012121194           52 
 4876000   0.47251019   -7.8889697    806.00153  0.013774978  0.012117437          105 
 4877000    0.4799933   -7.8823927    804.83834  0.013752278   0.01211368           51 
 4878000   0.46394001   -7.8596368    805.71338  0.013764408  0.012109922           88 
 4879000   0.47822985   -7.8722241    805.08573  0.013750866  0.012106168           83 
 4880000   0.46495793    -7.874814    805.89605  0.013761886  0.012102416           53 
 4881000   0.47147284   -7.8743394    804.40795   0.01373366  0.012098662           75 
 4882000   0.47009017   -7.8922835    807.21539  0.013778769   0.01209491           77 
 4883000   0.47245112    -7.875286    804.79239  0.013734596  0.012091158           78 
 4884000   0.47546715   -7.8753558    804.69634  0.013730145  0.012087409           54 
 4885000    0.4684112   -7.8730876    805.39973  0.013739334  0.012083662           64 
 4886000   0.47735093   -7.8738211    804.80106  0.013726311  0.012079913           88 
 4887000   0.47156066    -7.885655    805.66839  0.013738292  0.012076167           46 
 4888000   0.48027976   -7.8898754    805.78036   0.01373739  0.012072421           61 
 4889000    0.4621293   -7.8809552    805.62138  0.013731871  0.012068678           37 
 4890000   0.46050753   -7.8855066    805.03748  0.013719112  0.012064935          100 
 4891000   0.46880446   -7.8747043     805.0637  0.013716754  0.012061194          102 
 4892000    0.4785775   -7.8814374    805.92951  0.013728698  0.012057458           87 
 4893000   0.45451975   -7.8933402    806.70508  0.013739101  0.012053722           50 
 4894000   0.47631222   -7.8817465    805.39113  0.013713921  0.012049986           66 
 4895000   0.47262825   -7.8739739    804.81479  0.013701307  0.012046251           62 
 4896000   0.47590589   -7.8752613    805.20079  0.013705079  0.012042519          103 
 4897000   0.46702327   -7.8805385    804.42164  0.013689021  0.012038787           57 
 4898000   0.46394542   -7.8756311    804.94401  0.013695114  0.012035054           81 
 4899000   0.47065413   -7.8754212    805.11587  0.013695242  0.012031326           88 
 4900000   0.46905276   -7.8831785    805.67339  0.013701928  0.012027601           66 
 4901000   0.47160855   -7.8820522    804.08896  0.013672192  0.012023876           57 
 4902000   0.46895913   -7.8646566    806.15582  0.013704539  0.012020151           81 
 4903000   0.47093205   -7.8873609    805.39906  0.013688882  0.012016426           88 
 4904000   0.46279354   -7.8837286    804.67555  0.013673796  0.012012706           58 
 4905000   0.47364073   -7.8568231    806.35968  0.013699621  0.012008984           64 
 4906000   0.46480729   -7.8804292    805.93092  0.013689545  0.012005264           70 
 4907000   0.46473367   -7.8748797    805.30429  0.013676114  0.012001544           63 
 4908000   0.46936072   -7.8825907    806.25962  0.013689548  0.011997829           56 
 4909000   0.46346352   -7.8825145    805.83131  0.013679488  0.011994112           41 
 4910000   0.46740303    -7.879088    804.09298  0.013647199  0.011990398           64 
 4911000   0.46608702    -7.899417    804.30858  0.013648079  0.011986683          129 
 4912000   0.46528246   -7.8654874    805.22316  0.013660816   0.01198297          128 
 4913000   0.46264821   -7.8763749    803.99207  0.013637154  0.011979259           93 
 4914000   0.46613629   -7.8704841    805.54769   0.01366076   0.01197555           87 
 4915000   0.47282091   -7.8919653    804.14338  0.013634171  0.011971843           84 
 4916000   0.46981717   -7.8665402    805.20431  0.013649381   0.01196814          103 
 4917000   0.46429504   -7.8842362    805.12783  0.013645309  0.011964436           57 
 4918000   0.46338011   -7.8772152    805.89976  0.013655615  0.011960734          127 
 4919000   0.46310348   -7.8681128    804.80878  0.013634356   0.01195703           63 
 4920000   0.45700155   -7.8943768    804.66038  0.013629071  0.011953328           63 
 4921000    0.4553229   -7.8855798    804.39341  0.013621781  0.011949629           87 
 4922000   0.47666355   -7.8778118    804.07843  0.013613681  0.011945932          103 
 4923000   0.45847134   -7.8888642    805.57397  0.013636231  0.011942231           67 
 4924000   0.45616175   -7.8682967    804.97454  0.013623317  0.011938534           56 
 4925000   0.45873855   -7.8785516    804.81107  0.013617785  0.011934838           70 
 4926000   0.46796459   -7.8755128       804.65  0.013612295  0.011931147           89 
 4927000   0.45503632   -7.8773958    804.42488  0.013605725  0.011927452           54 
 4928000   0.46704261   -7.9026109    805.99268  0.013629476  0.011923759           66 
 4929000   0.46486662   -7.8801096    805.34089  0.013615691  0.011920066           97 
 4930000   0.46058875   -7.8654953    804.15251  0.013592842  0.011916377           52 
 4931000   0.46186955   -7.8771354    804.34467  0.013593333  0.011912688           63 
 4932000   0.47313696   -7.8961783    804.94107  0.013600653     0.011909           63 
 4933000   0.46274257   -7.8898788    803.91823  0.013580617  0.011905311           58 
 4934000   0.45376749   -7.8824047    804.92093    0.0135948  0.011901622           69 
 4935000   0.45716454    -7.889404    805.36657  0.013599571  0.011897934           82 
 4936000   0.46324787     -7.89836    805.13516  0.013592909  0.011894251          103 
 4937000   0.44779798   -7.8902329    804.73507  0.013583402  0.011890569           38 
 4938000   0.45566694   -7.8844013    804.65359  0.013579276  0.011886889           71 
 4939000   0.46162813   -7.8824668    803.75603  0.013561383  0.011883211           58 
 4940000   0.46120942   -7.9015229    804.89561  0.013577861  0.011879533           55 
 4941000    0.4637758   -7.8970573     804.7697   0.01357299   0.01187586           87 
 4942000   0.45543479   -7.8873875    803.33808  0.013546103  0.011872186           46 
 4943000   0.45689041    -7.887958    803.89553   0.01355276  0.011868513           58 
 4944000   0.46011399   -7.8814102    802.97895   0.01353457  0.011864844           64 
 4945000   0.45149249   -7.8757354    803.44567  0.013539698  0.011861175          102 
 4946000   0.46896796   -7.8959697    804.77164  0.013559301  0.011857505           46 
 4947000   0.46049993   -7.8870523     804.3397  0.013549284   0.01185384          109 
 4948000   0.45777641   -7.8767651    804.46562  0.013548666  0.011850172           67 
 4949000   0.46314131   -7.8904184    806.13139  0.013573978  0.011846509          112 
 4950000    0.4681424   -7.8859273    804.08624  0.013536805  0.011842847           67 
 4951000   0.45565133   -7.8981925      804.497  0.013540985  0.011839186           83 
 4952000   0.45587323   -7.8676654     804.1894  0.013533074  0.011835529           78 
 4953000   0.45673542   -7.8976281    804.15792  0.013529812   0.01183187           95 
 4954000   0.46078867   -7.8913614    804.65929  0.013535515  0.011828212           56 
 4955000    0.4564115   -7.8847594    805.09745  0.013540152  0.011824557           45 
 4956000   0.46553035   -7.8926882    803.90416  0.013517355  0.011820905          135 
 4957000   0.45341618   -7.9063207    803.90088  0.013514573  0.011817252           59 
 4958000   0.46567926   -7.9142123    804.89272  0.013528518  0.011813599           62 
 4959000   0.46663367   -7.9077173    804.32891  0.013516316   0.01180995           70 
 4960000   0.45964047   -7.9002842    804.33384  0.013513673  0.011806304           46 
 4961000   0.46153625   -7.8951695    804.04586  0.013506112   0.01180266          131 
 4962000   0.46764946   -7.8924204    805.11934  0.013521418  0.011799016           59 
 4963000   0.45162269   -7.9048786    805.42185  0.013523773  0.011795371           59 
 4964000   0.44453064   -7.8815252    804.13901  0.013499513  0.011791728          165 
 4965000   0.45151722   -7.8845226     804.1715   0.01349734  0.011788085           75 
 4966000   0.45447583    -7.901622    804.12789   0.01349389  0.011784443           66 
 4967000   0.45560707   -7.8836913     804.8889  0.013503941  0.011780805           62 
 4968000   0.45591623   -7.8830519    803.40682  0.013476362  0.011777167           98 
 4969000   0.45313487   -7.8837315    805.51571  0.013509018   0.01177353          102 
 4970000   0.47284241   -7.8929274    805.02773  0.013498118  0.011769899           63 
 4971000   0.45717095   -7.8797555    804.51219   0.01348676  0.011766266           56 
 4972000   0.46381323   -7.8877842    804.70609  0.013487297  0.011762635           73 
 4973000   0.45716211   -7.9004871    804.97818  0.013489144  0.011759004          118 
 4974000   0.46213671   -7.9048141    803.36524   0.01345941  0.011755375           47 
 4975000   0.46350111     -7.89087    802.94565  0.013449676  0.011751748           46 
 4976000   0.45374149   -7.8908228     804.8505  0.013478874  0.011748122           61 
 4977000   0.45209978   -7.9061091    803.92816  0.013460722  0.011744498           63 
 4978000   0.45475666   -7.8964773    803.49559  0.013450777  0.011740875           55 
 4979000   0.45558156   -7.8897475    804.67557  0.013467824  0.011737251          108 
 4980000    0.4538888   -7.8867005    803.23803  0.013441065  0.011733632           94 
 4981000   0.44582945   -7.8942043    804.13327  0.013453344   0.01173001           86 
 4982000   0.44758509   -7.8915532    804.24026  0.013452433   0.01172639           39 
 4983000   0.45102667   -7.9000755    804.99683  0.013462386  0.011722773           80 
 4984000   0.44904949   -7.8892269      803.873  0.013440894  0.011719156          109 
 4985000   0.45504518   -7.9062598    803.60513   0.01343372  0.011715542          105 
 4986000   0.44890883   -7.9057956     803.9528  0.013436836  0.011711928           91 
 4987000   0.44872154   -7.8972603    803.73167  0.013430447  0.011708314          127 
 4988000   0.44676261    -7.905336    805.60236  0.013459008  0.011704701          112 
 4989000   0.46704722   -7.9069828     803.7932  0.013426091  0.011701091           58 
 4990000   0.45447137   -7.8943021    804.11624  0.013428795  0.011697482          133 
 4991000   0.45462412   -7.9006449    803.74455  0.013419898  0.011693871           54 
 4992000   0.45195364   -7.9019526    803.83486  0.013418718  0.011690264           61 
 4993000    0.4590193    -7.895865    804.22009   0.01342246  0.011686658           44 
 4994000   0.44877479   -7.9021121    804.29909   0.01342109  0.011683054           43 
 4995000   0.44941344   -7.8800889    803.63823  0.013407378  0.011679451           53 
 4996000   0.45899826   -7.9203238    805.08498  0.013428826  0.011675848           42 
 4997000    0.4483649   -7.8970461    804.31559  0.013413308  0.011672247           58 
 4998000   0.44683226   -7.9056552    803.88307  0.013403413   0.01166865           80 
 4999000   0.45304402   -7.9161867    804.45921  0.013410336  0.011665054           46 
 5000000   0.45337151   -7.9201768     804.1835  0.013403058  0.011661456          112 
 5001000   0.45227527    -7.899103    803.84906  0.013394805  0.011657859           58 
 5002000   0.44852521   -7.8873543    803.17978  0.013380977  0.011654268           62 
 5003000   0.45319466   -7.9052911    804.15574  0.013394559  0.011650677           58 
 5004000   0.45675101   -7.9166477    804.51971  0.013397943  0.011647086           90 
 5005000   0.45946571   -7.9002832    804.31353  0.013391834  0.011643497           57 
 5006000   0.44599959    -7.895822    804.15584  0.013386534  0.011639906           60 
 5007000    0.4563097   -7.8887779    803.91805  0.013379902  0.011636321           53 
 5008000   0.44952295   -7.8997171    804.69911  0.013390227  0.011632733           95 
 5009000   0.44766829   -7.8999497    803.15889   0.01336193  0.011629149           65 
 5010000   0.45060694   -7.9026034    804.44407   0.01338064  0.011625566           64 
 5011000    0.4534229   -7.8979725    803.89446   0.01336883  0.011621984           53 
 5012000   0.45390231   -7.8975174    803.95071  0.013367097  0.011618406          105 
Loop time of 11051.2 on 48 procs for 5000000 steps with 4000 atoms

Performance: 78181.489 tau/day, 452.439 timesteps/s
99.4% CPU use with 48 MPI tasks x no OpenMP threads

MPI task timing breakdown:
Section |  min time  |  avg time  |  max time  |%varavg| %total
---------------------------------------------------------------
Pair    | 689.04     | 731.67     | 757.37     |  44.6 |  6.62
Neigh   | 70.398     | 71.482     | 72.299     |   4.5 |  0.65
Comm    | 646.45     | 668.35     | 712.29     |  50.1 |  6.05
Output  | 13.637     | 13.642     | 13.723     |   0.3 |  0.12
Modify  | 9399.8     | 9447.9     | 9477.8     |  20.8 | 85.49
Other   |            | 118.2      |            |       |  1.07

Nlocal:        83.3333 ave          91 max          76 min
Histogram: 3 1 7 5 9 2 11 4 5 1
Nghost:        1852.12 ave        1882 max        1820 min
Histogram: 1 2 5 6 7 11 7 3 5 1
Neighs:        11456.9 ave       12874 max       10214 min
Histogram: 2 6 2 9 7 12 2 3 4 1
FullNghs:      22912.5 ave       25412 max       20290 min
Histogram: 1 2 5 7 7 8 8 5 4 1

Total # of neighbors = 1099802
Ave neighs/atom = 274.95050
Neighbor list builds = 269161
Dangerous builds = 3

#clear
#
#next RN
#
#jump SELF
Total wall time: 3:04:14
