
units lj                  # Use reduced LJ style units
atom_style atomic         # Uncharged point particles
atom_modify map hash      # Needed for indexing of clusters etc
                          # Used to be able to find where atoms are in relation to each other.

lattice fcc 1.0 spacing 1 1 1
Lattice spacing in x,y,z = 1.5874011 1.5874011 1.5874011
region box block 0 10 0 10 0 10 units lattice
create_box 2 box
Created orthogonal box = (0.0000000 0.0000000 0.0000000) to (15.874011 15.874011 15.874011)
  3 by 4 by 4 MPI processor grid
create_atoms 1 box
Created 4000 atoms
  using lattice units in orthogonal box = (0.0000000 0.0000000 0.0000000) to (15.874011 15.874011 15.874011)
  create_atoms CPU = 0.002 seconds
set type 1 type/fraction 2 0.92 78393
Setting atom values ...
  3673 settings made for type/fraction
mass 1 1.0
mass 2 1.0
pair_style lj/cut  3.5
pair_modify tail  yes
pair_coeff 1  1  1.0  1.0   # Intearaction between 1 and 1 set with epsilon = 1 and sigma = 1
pair_coeff 1  2  1.5  0.8
pair_coeff 2  2  0.5  0.88

write_data data.0
System init for write_data ...
Neighbor list info ...
  update every 1 steps, delay 10 steps, check yes
  max neighbors/atom: 2000, page size: 100000
  master list distance cutoff = 3.8
  ghost atom cutoff = 3.8
  binsize = 1.9, bins = 9 9 9
  1 neighbor lists, perpetual/occasional/extra = 1 0 0
  (1) pair lj/cut, perpetual
      attributes: half, newton on
      pair build: half/bin/atomonly/newton
      stencil: half/bin/3d
      bin: standard
WARNING: Not all mixed pair coeffs generated from mixing. Use write_data with 'pair ij' option to store all pair coeffs. (../write_data.cpp:312)


#############################
#   M E L T   S Y S T E M   #
#############################

velocity all create 2.4 6229865 mom yes dist gaussian # Assign velocities
                                                    # Temperature 2.4, random number seed, zero linear momentum
                                                                                # Gaussian distribution

timestep 0.002   # simulation timestep
thermo 1000       # output thermodynamic data every 1000 steps bf 100

# Define a fix  in this case with index 1 applied to all
# particles in the simulation. This fix is for simulations
# in the anisotropic NPT ensemble. Note that we use the MTK
# correction.
fix 1 all npt temp 2.4 2.4 0.1 iso 5.68 5.68 0.5 mtk yes tchain 5 pchain 5 # Use NPT ensemble
                                                                         # Set temperature and pressure and damping
                                                                         # Numbers of thermostats in chain and in barostat
run 10000          # run for 10000 steps
Per MPI rank memory allocation (min/avg/max) = 3.642 | 3.644 | 3.648 Mbytes
Step Temp E_pair E_mol TotEng Press Volume 
       0          2.4   -3.0929104            0   0.50618957   -2.4174795         4000 
    1000    2.4018969   -2.0595514            0    1.5423932    5.5278145    4087.4093 
    2000    2.4635923   -2.0750795            0    1.6193851    5.6917664    4056.8929 
    3000    2.4241332    -2.095126            0    1.5401647    5.9197762    4000.5692 
    4000    2.4351653    -2.096791            0    1.5550438    5.2099225    4113.9818 
    5000    2.4404109   -2.0516952            0    1.6080059    5.9583714    4021.8456 
    6000    2.3645807   -2.0947378            0    1.4512466    5.5642055    4044.8988 
    7000    2.3446476   -2.1202848            0    1.3958073    5.5006695    4038.7263 
    8000     2.414121   -2.0347386            0    1.5855376    5.8274526     4053.156 
    9000    2.4132676   -2.0700374            0     1.548959    5.4445508    4100.2919 
   10000    2.4093575   -2.0608874            0    1.5522453    5.7871433    4057.7415 
Loop time of 2.45652 on 48 procs for 10000 steps with 4000 atoms

Performance: 703433.963 tau/day, 4070.798 timesteps/s
99.6% CPU use with 48 MPI tasks x no OpenMP threads

MPI task timing breakdown:
Section |  min time  |  avg time  |  max time  |%varavg| %total
---------------------------------------------------------------
Pair    | 1.0495     | 1.1355     | 1.2298     |   3.5 | 46.22
Neigh   | 0.20585    | 0.21399    | 0.22099    |   0.8 |  8.71
Comm    | 0.72477    | 0.83303    | 0.92033    |   4.2 | 33.91
Output  | 0.00023894 | 0.0002439  | 0.00031547 |   0.0 |  0.01
Modify  | 0.22849    | 0.25909    | 0.28217    |   2.9 | 10.55
Other   |            | 0.01469    |            |       |  0.60

Nlocal:        83.3333 ave          97 max          75 min
Histogram: 4 6 8 11 3 10 3 2 0 1
Nghost:        1627.52 ave        1662 max        1587 min
Histogram: 1 1 4 5 10 8 6 11 0 2
Neighs:        9401.46 ave       11308 max        8286 min
Histogram: 5 6 10 8 5 6 5 1 1 1

Total # of neighbors = 451270
Ave neighs/atom = 112.81750
Neighbor list builds = 913
Dangerous builds = 271

# Equilibrate just above the melting temperature to avoid step fn in T

fix 1 all npt temp 1.25 1.25 0.1 iso 5.68 5.68 0.5 mtk yes tchain 5 pchain 5
run 2000
Per MPI rank memory allocation (min/avg/max) = 3.643 | 3.645 | 3.649 Mbytes
Step Temp E_pair E_mol TotEng Press Volume 
   10000    2.4093575   -2.0608874            0    1.5522453    5.7871433    4057.7415 
   11000    1.2636746   -3.0887904            0   -1.1937523    5.7119879    3167.0558 
   12000    1.2515542   -3.1593134            0   -1.2824515    5.4601243    3138.7201 
Loop time of 0.592928 on 48 procs for 2000 steps with 4000 atoms

Performance: 582870.427 tau/day, 3373.093 timesteps/s
99.6% CPU use with 48 MPI tasks x no OpenMP threads

MPI task timing breakdown:
Section |  min time  |  avg time  |  max time  |%varavg| %total
---------------------------------------------------------------
Pair    | 0.25755    | 0.28626    | 0.31955    |   2.8 | 48.28
Neigh   | 0.038653   | 0.041442   | 0.044413   |   0.7 |  6.99
Comm    | 0.18362    | 0.21856    | 0.25033    |   3.5 | 36.86
Output  | 5.0688e-05 | 5.2513e-05 | 6.8109e-05 |   0.0 |  0.01
Modify  | 0.039319   | 0.042044   | 0.044584   |   0.6 |  7.09
Other   |            | 0.004575   |            |       |  0.77

Nlocal:        83.3333 ave          92 max          74 min
Histogram: 2 1 6 6 4 13 6 5 1 4
Nghost:        1923.06 ave        1948 max        1898 min
Histogram: 2 2 6 5 6 9 8 4 4 2
Neighs:        12155.0 ave       14143 max       10576 min
Histogram: 3 1 10 9 7 6 8 1 1 2

Total # of neighbors = 583440
Ave neighs/atom = 145.86000
Neighbor list builds = 145
Dangerous builds = 14

#############################
# L I N E A R  Q U E N C H  #
#############################

# Define solid atoms. This closely follows ten Wolde  Ruiz-Montero and Frenkel  Faraday Discuss  1996  104  93-110
# Compute components of the per-atom q6 vector
compute q6 all orientorder/atom degrees 1 6 components 6 nnn NULL cutoff 1.3 # compute the Q6 parameter.
                                                                             # Use all neighbours within 1.3 unit cell.

# get number of connections
compute coord_number all coord/atom orientorder q6 0.5

# An atom is solid if it has 8 or more connections (of a possible 14)
variable is_solid atom c_coord_number>=8
group solid dynamic all var is_solid    # Must be dynamic to update
dynamic group solid defined

# do clustering
compute cluster solid cluster/atom 1.3 # Create a cluster where all atoms within are solid and max 1.3 units from another member

# define chunks one chunk per cluster
compute clus_chunks solid chunk/atom c_cluster nchunk every compress yes  # Says which atoms are in which chunk

# count the size of each chunk
compute size_chunks solid property/chunk clus_chunks count


# Find the maximum entry in the vector of chunk sizes
variable max_n equal max(c_size_chunks)


# Thermo style which includes this variable
# thermo_style custom step temp pe vol v_max_n

thermo ${N}  # Print the thermo information every 100 steps
thermo 1000  

# Reset the npt fix at a lower temperature (below freezing)
fix 1  all npt temp  ${temp} ${temp}  0.1  iso  5.68  5.68  0.5  mtk yes tchain  5  pchain  5
fix 1  all npt temp  0.45 ${temp}  0.1  iso  5.68  5.68  0.5  mtk yes tchain  5  pchain  5
fix 1  all npt temp  0.45 0.45  0.1  iso  5.68  5.68  0.5  mtk yes tchain  5  pchain  5

dump dmp2 all dcd ${N} traj.dcd
dump dmp2 all dcd 1000 traj.dcd


compute msd all msd com yes
variable twopoint equal c_msd[4]/6/(step*dt+1.0e-6)
fix 9 all vector 10 c_msd[4]
variable fit equal slope(f_9)/6/(10*dt)
thermo_style custom step temp pe c_msd[4] v_twopoint v_fit v_max_n

fix 1 all npt temp 1.25 ${temp} 0.1 iso 5.68 5.68 0.5 mtk yes tchain 5 pchain 5
fix 1 all npt temp 1.25 0.45 0.1 iso 5.68 5.68 0.5 mtk yes tchain 5 pchain 5
run 500000 # 5000000  # Run for this many steps
Neighbor list info ...
  update every 1 steps, delay 10 steps, check yes
  max neighbors/atom: 2000, page size: 100000
  master list distance cutoff = 3.8
  ghost atom cutoff = 3.8
  binsize = 1.9, bins = 8 8 8
  4 neighbor lists, perpetual/occasional/extra = 1 3 0
  (1) pair lj/cut, perpetual
      attributes: half, newton on
      pair build: half/bin/atomonly/newton
      stencil: half/bin/3d
      bin: standard
  (2) compute orientorder/atom, occasional
      attributes: full, newton on
      pair build: full/bin/atomonly
      stencil: full/bin/3d
      bin: standard
  (3) compute coord/atom, occasional
      attributes: full, newton on
      pair build: full/bin/atomonly
      stencil: full/bin/3d
      bin: standard
  (4) compute cluster/atom, occasional
      attributes: full, newton on
      pair build: full/bin/atomonly
      stencil: full/bin/3d
      bin: standard
Per MPI rank memory allocation (min/avg/max) = 9.819 | 9.824 | 9.829 Mbytes
Step Temp PotEng c_msd[4] v_twopoint v_fit v_max_n 
   12000    1.2515542   -3.1593134 1.6725823e-30 1.1615155e-32 8.3333333e+20            1 
   13000    1.2739158   -3.0937719    1.0373125 0.0066494386  0.087307342            1 
   14000    1.2614376   -3.0759085    2.2087223  0.013147156  0.093492938            1 
   15000    1.2471067   -3.1104398    3.3831782  0.018795434  0.095891429            2 
   16000    1.2532514   -3.1050062    4.6858796  0.024405622  0.097691961            2 
   17000    1.2395152   -3.1272996    5.8404468   0.02862964  0.099457737            2 
   18000    1.2294713    -3.079798    6.9836564  0.032331742  0.099407522            2 
   19000    1.2235911    -3.096877    8.0694401   0.03539228  0.098546439            2 
   20000    1.2564788   -3.1517366    9.1928714   0.03830363   0.09768181            2 
   21000    1.2479964   -3.1232946    10.335457  0.041013717   0.09711417            2 
   22000    1.2197612   -3.1438543    11.527685  0.043665473  0.096883831            3 
   23000    1.2416996   -3.1354102    12.827553  0.046476641  0.097111277            1 
   24000    1.2154164   -3.1221177    14.079041  0.048885558  0.097489335            3 
   25000    1.2134801   -3.1276495    15.312847  0.051042823  0.097938115            2 
   26000    1.2072223   -3.1571933     16.39321  0.052542337  0.098192517            1 
   27000    1.2211627    -3.139462    17.414627  0.053748846  0.098112992            1 
   28000    1.2314154   -3.1428663    18.637273  0.055468073  0.098062681            2 
   29000    1.2018786   -3.1290663    19.936343  0.057288341  0.097998513            2 
   30000    1.2152522   -3.1373673    20.928534  0.058134816  0.097826176            1 
   31000    1.2281476   -3.1523636    22.089846  0.059381305  0.097574445            2 
   32000    1.2347439   -3.1407593    23.286938  0.060643066  0.097394296            1 
   33000    1.1812742    -3.145982    24.519517   0.06191797  0.097406129            1 
   34000    1.2189933   -3.1584209    25.839414  0.063331897  0.097568326            1 
   35000    1.2189478   -3.1980305    26.859195  0.063950464  0.097663323            1 
   36000    1.2162358   -3.1541553    27.957537   0.06471652  0.097647024            3 
   37000    1.2164765   -3.1674933    29.216451  0.065802816  0.097608857            2 
   38000    1.2003965    -3.177555    30.043406  0.065884661  0.097523772            2 
   39000    1.2061208   -3.1773724    31.389417  0.067071403  0.097421285            3 
   40000    1.1944141   -3.1614774    32.555068  0.067823058  0.097402306            1 
   41000    1.2108899   -3.1604086    33.775522  0.068649435  0.097336641            4 
   42000    1.1887859   -3.1520407    34.647985  0.068746001  0.097279332            1 
   43000     1.209128    -3.189064     35.49932   0.06879713  0.097079515            2 
   44000    1.2116749   -3.1811447    36.640408  0.069394712  0.096765995            1 
   45000    1.1939721   -3.1730532    37.557676  0.069551252  0.096471749            1 
   46000    1.1703519   -3.1987207    38.521853  0.069785964   0.09615002            2 
   47000    1.1968685   -3.1950565    39.191537  0.069488539  0.095766417            2 
   48000    1.1915942   -3.1574119    40.286673  0.069942139  0.095372206            1 
   49000    1.1960448   -3.1630214    41.486734   0.07055567  0.094991987            1 
   50000    1.2080229   -3.1742098    42.568217  0.070947027  0.094657623            1 
   51000    1.1690768    -3.193172    43.532478  0.071131499  0.094333387            3 
   52000    1.1566758   -3.1833713    44.452668  0.071238249  0.094027894            2 
   53000    1.1820293    -3.174233    45.380138  0.071352418  0.093657014            2 
   54000    1.1723801   -3.1527128    46.390533  0.071590327  0.093297677            2 
   55000    1.1691311   -3.1892058    47.299532  0.071665957  0.092951129            2 
   56000    1.1847443   -3.1875974    48.519412  0.072201505  0.092640724            2 
   57000    1.1841684   -3.2100747    49.771949  0.072766006  0.092397543            4 
   58000    1.1742216   -3.2440903    50.569983  0.072658021  0.092121441            2 
   59000    1.1537542   -3.1709514    51.708026  0.073033934  0.091860429            2 
   60000    1.1689822   -3.2006101    52.668445  0.073150618  0.091663081            2 
   61000    1.1823289   -3.2080854    53.575592  0.073190699  0.091460148            2 
   62000    1.1753214   -3.2175488    54.772041  0.073618335  0.091251367            2 
   63000     1.160943   -3.2439926    55.765967  0.073764506  0.091102655            2 
   64000    1.1844957   -3.2037785    57.068778  0.074308304   0.09094403            1 
   65000    1.1620109    -3.246149    57.434649  0.073634165  0.090790551            2 
   66000     1.183121   -3.2215046    58.443109  0.073791804  0.090588092            2 
   67000    1.1489892   -3.2290772    59.503921  0.074009851  0.090384585            1 
   68000    1.1682703    -3.213264    60.390376  0.074007813  0.090187889            1 
   69000    1.1568277    -3.252656    61.466362  0.074234736  0.089960162            2 
   70000     1.183945   -3.2396234     62.45557  0.074351868  0.089749512            1 
   71000    1.1734892   -3.2607814    63.172147  0.074145712  0.089530756            1 
   72000    1.1693908   -3.2346793    64.564228  0.074727115  0.089348011            1 
   73000    1.1529691   -3.2091073    64.917696  0.074106958  0.089152426            2 
   74000    1.1643657   -3.2290094    65.612988    0.0738885  0.088926361            2 
   75000     1.147061   -3.2184878    66.836331   0.07426259  0.088701728            2 
   76000    1.1556055   -3.2315664    67.579665   0.07410051   0.08846318            2 
   77000    1.1838247   -3.2402449    68.102821  0.073704351  0.088213259            2 
   78000    1.1457518   -3.2257829    69.211832  0.073944264  0.087964631            1 
   79000    1.1287298   -3.2412035    69.938255   0.07377453  0.087700345            3 
   80000     1.144869   -3.2550442    70.693054  0.073638597  0.087419059            1 
   81000    1.1440515   -3.2267729    71.296771  0.073350587  0.087136151            3 
   82000    1.1679078   -3.2528111    71.791867  0.072959214   0.08684081            2 
   83000    1.1581717   -3.2440771    72.904443  0.073197231  0.086543795            1 
   84000    1.1628878   -3.2400932    73.822705   0.07323681  0.086257447            2 
   85000    1.1628053   -3.2689853    74.128945  0.072675435  0.085945748            4 
   86000    1.1326592   -3.2561535    75.446674  0.073107242  0.085648224            2 
   87000    1.1483263   -3.3039755    75.688235  0.072498309   0.08535288            1 
   88000    1.1576856   -3.2763722    76.410107  0.072358055  0.085069624            3 
   89000    1.1200214   -3.2420172    77.272932  0.072352932  0.084763214            2 
   90000    1.1240615   -3.2553667    78.092071  0.072307473   0.08445369            3 
   91000    1.1046632   -3.3000072    79.203944  0.072531084  0.084160702            1 
   92000      1.12903   -3.2947029     79.83592  0.072315145   0.08388006            2 
   93000    1.1261794   -3.2884027    80.865907  0.072460489  0.083599228            1 
   94000     1.107887   -3.2706066    81.632279  0.072369041  0.083347704            1 
   95000    1.1301603   -3.2722473    82.444769  0.072319972  0.083080072            2 
   96000    1.0977896   -3.2879786    82.692549  0.071781726  0.082817016            2 
   97000    1.1163061   -3.2468394     83.92391  0.072099578  0.082558491            3 
   98000    1.1127515   -3.2838824    85.352988  0.072579071  0.082324142            1 
   99000    1.1068392   -3.3249762    85.797251  0.072219908  0.082111364            2 
  100000    1.1025348   -3.2577811    87.006343  0.072505286  0.081907818            2 
  101000    1.1049383   -3.2979528    87.871678  0.072501384  0.081716624            2 
  102000    1.1336089   -3.2865152    88.957006  0.072677292  0.081541202            3 
  103000    1.0943798   -3.2946814    90.345217  0.073094836   0.08137104            3 
  104000    1.0948419   -3.2967259    91.115032   0.07300884  0.081211351            2 
  105000    1.1019605    -3.326692    91.978864  0.072999098  0.081068298            3 
  106000    1.1104903   -3.3358505    93.008339  0.073119763  0.080936179            1 
  107000    1.0938877   -3.3128982    93.434885  0.072768601  0.080792893            3 
  108000    1.1252414   -3.3154701    94.122589  0.072625454  0.080639734            2 
  109000    1.0766746   -3.2768418    95.104386  0.072709775  0.080492956            3 
  110000    1.0826295   -3.3200078    95.360575  0.072242859  0.080345976            2 
  111000    1.1148413   -3.2928624    96.242893  0.072254424  0.080186856            2 
  112000    1.1022305   -3.2914169    97.046886  0.072207504  0.080029265            1 
  113000    1.1125953   -3.3301037     98.11121  0.072353399  0.079861092            2 
  114000    1.1084738   -3.3325294    98.312052  0.071865535  0.079687884            1 
  115000    1.0954585   -3.3462465     99.07205   0.07179134  0.079511261            3 
  116000    1.0575936   -3.2879452    100.54249  0.072228802  0.079350427            3 
  117000     1.090138   -3.3538581    100.56779  0.071629482  0.079187261            2 
  118000    1.0728652   -3.3085316    101.90773  0.071968738  0.079019169            2 
  119000    1.0761504   -3.3297339    101.85667  0.071328199  0.078863514            3 
  120000     1.046475   -3.3203884    103.09324  0.071592524  0.078697344            2 
  121000     1.104008   -3.3456473    104.25255   0.07179928  0.078542851            1 
  122000    1.0820969   -3.3612953    105.02323  0.071737177  0.078396214            2 
  123000    1.0806233   -3.3457547    105.32412  0.071357805  0.078241582            2 
  124000    1.0605459   -3.3311204    106.13571  0.071327764  0.078087823            3 
  125000     1.093239   -3.3391156    106.67592   0.07111728  0.077928566            5 
  126000    1.0718332   -3.3379484    108.00542  0.071432154  0.077771324            2 
  127000    1.0523917   -3.3444038    107.91507  0.070810416  0.077613433            2 
  128000    1.0707901   -3.3152122    109.12721  0.071046362  0.077454599            2 
  129000    1.0776834   -3.3691198    109.73927  0.070891003  0.077308565            3 
  130000    1.0490224   -3.3181958    111.20356  0.071284334  0.077170708            2 
  131000    1.0671518   -3.3275879    111.46567  0.070906914  0.077030964            2 
  132000    1.0882169   -3.3535717    112.30777   0.07090137  0.076884653            1 
  133000    1.0648232    -3.371955    112.80405  0.070679228  0.076748108            2 
  134000    1.0512735   -3.3788318    113.94406  0.070860733  0.076613457            1 
  135000    1.0670591   -3.3419311    115.03943  0.071011992  0.076477361            1 
  136000    1.0373598    -3.353859    115.10426  0.070529568  0.076346693            3 
  137000    1.0472771   -3.3847923    115.53468  0.070276569  0.076210768            4 
  138000    1.0315544   -3.3873917    116.61416   0.07041918  0.076069027            1 
  139000    1.0443556   -3.3396611    117.62104   0.07051621  0.075932095            2 
  140000     1.048223   -3.3674831    117.88998   0.07017261  0.075791967            5 
  141000    1.0435561   -3.3745789    118.98166  0.070320129  0.075659942            2 
  142000    1.0306914    -3.409826    119.08274  0.069884236  0.075525706            2 
  143000    1.0313893   -3.4069125     120.2521  0.070076978  0.075381327            6 
  144000    1.0463385   -3.3703079    120.51094  0.069740127   0.07523872            2 
  145000    1.0293275   -3.3782004    121.22421  0.069669084  0.075096039            1 
  146000    1.0573638   -3.3917734    122.39112  0.069857944  0.074955795            2 
  147000     1.051485     -3.37994    123.32464  0.069911927  0.074821481            3 
  148000    1.0347814   -3.3945934     123.7502  0.069679166  0.074681912            2 
  149000    1.0255336   -3.3811979    124.75491  0.069773437  0.074547524            3 
  150000    1.0346524   -3.3985829    125.45483  0.069697125  0.074412155            1 
  151000    1.0282784   -3.3991821    125.92793  0.069496648  0.074280878            1 
  152000    1.0357888   -3.4064441    126.61678  0.069417093  0.074148755            4 
  153000    1.0399047   -3.4131866    127.49562  0.069442061  0.074016573            5 
  154000    1.0675357   -3.3930017    127.73962  0.069123171  0.073885164            2 
  155000    1.0124487   -3.4173529    128.79387  0.069244018   0.07375751            3 
  156000    1.0192091   -3.4349478    129.45029  0.069150796  0.073630996            2 
  157000    1.0232711   -3.4176534    130.39575  0.069212182  0.073511256            3 
  158000    1.0235657   -3.4283798    131.32644  0.069264998  0.073400801            3 
  159000    1.0211378   -3.4165943    132.52964   0.06945998  0.073293602            3 
  160000    1.0424567    -3.435862    132.94473  0.069242048  0.073195243            4 
  161000    1.0217873   -3.4309512    133.59707  0.069149623  0.073090082            3 
  162000    1.0381816   -3.4126524    134.47301  0.069173357  0.072984372            1 
  163000   0.99519981   -3.4184793    135.34231  0.069193412  0.072877613            1 
  164000    1.0290877   -3.4587103    135.99625  0.069103785  0.072771987            4 
  165000    1.0047824   -3.4288089    136.41027  0.068894075  0.072662657            2 
  166000   0.99510377    -3.401947    137.18771   0.06886933  0.072554728            1 
  167000    1.0377489   -3.4119026    137.46078  0.068593204   0.07244691            3 
  168000    1.0016553    -3.457669    138.47925  0.068690104  0.072342702            4 
  169000   0.99458285   -3.4315363    139.22391  0.068650842   0.07223806            2 
  170000    1.0112712   -3.4624119    139.33376  0.068300864  0.072133601            2 
  171000    1.0003251   -3.4179642    140.44979  0.068445318  0.072028478            5 
  172000   0.97481196   -3.4356989    141.18459  0.068403388  0.071921624            3 
  173000     1.012508    -3.476283    140.72871  0.067788396  0.071804793            5 
  174000    1.0044455   -3.4520416    141.76018  0.067892805  0.071690593            3 
  175000   0.98738589   -3.4539445     142.0926  0.067663142   0.07157749            4 
  176000    0.9991869    -3.440562    143.26991  0.067836134  0.071462585            3 
  177000    1.0018237   -3.4483318    143.95157  0.067773808  0.071348518            5 
  178000   0.98471941   -3.4608443    144.48511  0.067642841   0.07123328            2 
  179000    0.9714204   -3.4863443    145.17924  0.067588102  0.071124309            4 
  180000   0.97378279    -3.455781    145.45109  0.067338466  0.071008626            1 
  181000   0.97558619   -3.4749762    146.45072  0.067426667  0.070895487            2 
  182000   0.97278607   -3.4771354    147.20837  0.067403101  0.070786734            5 
  183000   0.97417364   -3.4582768    148.63788  0.067685736  0.070681464            3 
  184000   0.98748207   -3.4588487    148.56448  0.067284637  0.070576412            3 
  185000   0.98530478   -3.4569341    149.17737  0.067197014  0.070471581            2 
  186000    0.9644272   -3.4776463     149.8397  0.067132484  0.070367416            2 
  187000   0.97654333   -3.4910435    149.83748  0.066772496  0.070260377            7 
  188000   0.96270219   -3.4625794    151.28852  0.067060513  0.070154246            2 
  189000   0.97284474    -3.494713    150.87822  0.066524788  0.070042842            3 
  190000   0.95616077   -3.5034266    152.18241   0.06674667  0.069934681            3 
  191000   0.93514509   -3.4604307    153.48282  0.066964581  0.069829822            4 
  192000   0.96432237   -3.4792791    153.74991  0.066731733  0.069724205            3 
  193000   0.96702847   -3.4901951    154.60193  0.066753855  0.069621028            5 
  194000   0.95721708   -3.4953952    155.49046  0.066791434  0.069517554            7 
  195000   0.95950996   -3.5276067    155.66273  0.066522535  0.069412182            3 
  196000   0.93612264   -3.5020409      156.629  0.066593962  0.069308265            4 
  197000   0.94706844    -3.475979     156.3461  0.066136251  0.069203647            3 
  198000   0.93680578    -3.536103    156.71686  0.065958275  0.069096181            5 
  199000   0.95590977   -3.5161235    157.19821  0.065828396  0.068985784            4 
  200000   0.95533308   -3.5088383    157.83648    0.0657652  0.068874155            2 
  201000    0.9395755   -3.5076381    158.71996  0.065804293  0.068762002            5 
  202000   0.94279893   -3.4755752     159.9536   0.06598746  0.068651088            4 
  203000   0.94944057   -3.5206871    159.33577  0.065408772  0.068539602            4 
  204000   0.92791552   -3.5364838    159.74568  0.065255589   0.06842868            3 
  205000    0.9382912   -3.5027109    160.82425  0.065375712  0.068314568            3 
  206000   0.95960334   -3.5587743    160.95557  0.065111478   0.06819884            4 
  207000   0.93810468    -3.530146    161.60795   0.06505956  0.068083947            5 
  208000   0.93360427   -3.5258552    161.56866  0.064731033  0.067969311            3 
  209000    0.9468337   -3.5484422     162.6587  0.064855939   0.06785635            3 
  210000   0.91219403   -3.5212138    163.09319  0.064719521  0.067744738            2 
  211000   0.95651336   -3.5461914    164.67341   0.06503689  0.067633096            6 
  212000   0.93271045   -3.5549174    164.61572  0.064707436   0.06752555            3 
  213000   0.93942831   -3.5611538     164.8393   0.06449112  0.067413248            2 
  214000   0.93885786   -3.5388918    165.79762  0.064562938  0.067300561            4 
  215000   0.91998565   -3.5167434    166.58837  0.064569136  0.067189852            3 
  216000   0.94901169   -3.5512377    166.77344  0.064341605  0.067076101            2 
  217000   0.92691083   -3.5692454    166.55394  0.063960806  0.066960125            6 
  218000   0.90988823   -3.5611702    167.29576  0.063950978  0.066845298            4 
  219000    0.9027638   -3.5712789    167.50643  0.063739129  0.066727314            3 
  220000   0.91207437   -3.5756299    169.23109  0.064102685  0.066610703            5 
  221000   0.89952351   -3.5656808    169.29895  0.063838217  0.066499944            3 
  222000   0.91547887   -3.5464424    170.86015  0.064136691  0.066387829            2 
  223000    0.9033482   -3.5573029    170.16672  0.063589955  0.066278006            4 
  224000   0.94391789   -3.5851197    171.42373   0.06377371  0.066170171            4 
  225000   0.90510324   -3.5625836    171.81222  0.063634154  0.066061521            6 
  226000   0.90809141   -3.5794685    172.47559  0.063597192  0.065949978            8 
  227000   0.89842701   -3.5814802    172.57088  0.063352011  0.065839265            3 
  228000   0.89753819   -3.5764162    172.88234  0.063187991  0.065729108            5 
  229000   0.89239733   -3.5680729    173.49756  0.063135938  0.065619803            6 
  230000   0.91052276   -3.5796089    174.23148  0.063127347  0.065512642            2 
  231000   0.87543796   -3.5705918    176.07087  0.063517631  0.065407643            3 
  232000   0.89538644   -3.5948351    175.29361  0.062964659  0.065302781            3 
  233000   0.89053863    -3.591363    175.57768  0.062796024  0.065195709            4 
  234000   0.88678584   -3.5815679    176.11374  0.062718568  0.065089712            3 
  235000   0.91222326   -3.5829711    177.07123  0.062791217  0.064980758            4 
  236000   0.90116957   -3.6229505    176.94135  0.062479292  0.064870409            4 
  237000    0.8886943   -3.5861319    177.97607  0.062579491  0.064760074            5 
  238000   0.88328263   -3.6081165     177.4752  0.062141177  0.064646376            2 
  239000   0.88428366   -3.6156861     178.6657   0.06229627  0.064532785            3 
  240000   0.88533798    -3.588981    179.46484  0.062314182  0.064423303            1 
  241000    0.8841356   -3.6176764    179.70114  0.062137323   0.06430928            6 
  242000   0.88048283   -3.6487025    179.09802  0.061672872  0.064194732            3 
  243000      0.87197   -3.6359082    179.41616  0.061528175  0.064080437            4 
  244000   0.89262547   -3.6243307    180.85524  0.061767499  0.063967185            7 
  245000   0.86367702   -3.6335279    180.88918  0.061526933  0.063855086            4 
  246000   0.86641024   -3.6297463    181.55599  0.061502707  0.063743538            2 
  247000   0.87990559   -3.6396096     182.4483  0.061554758  0.063632006            3 
  248000   0.87311619   -3.6509002    182.42168  0.061297608   0.06351946           14 
  249000   0.87850866   -3.6481669    183.12379  0.061286407  0.063408282            6 
  250000   0.88424584   -3.6218723    183.41448  0.061138161  0.063297207            4 
  251000   0.85404963   -3.6153431    183.43838  0.060902518  0.063186059            4 
  252000   0.86963249   -3.6391248    184.35007  0.060962324  0.063075583            4 
  253000   0.86789078   -3.6306257    183.77459  0.060531814  0.062965576            3 
  254000   0.86008287   -3.6587247    184.41303  0.060502964  0.062851348            3 
  255000   0.85897324   -3.6512309    184.92516   0.06043306   0.06273525            4 
  256000   0.85922284   -3.6572929    185.15215  0.060270882  0.062617671            3 
  257000   0.85243665   -3.6688845    186.04512  0.060325914  0.062499803            5 
  258000   0.84640465   -3.6555869    185.83642  0.060024684    0.0623806            2 
  259000   0.83063543   -3.6339194    186.42827  0.059983356  0.062261675            3 
  260000   0.85242827   -3.6687772    186.77778  0.059864674  0.062143232            4 
  261000   0.88434085   -3.6673812    186.61204  0.059582387  0.062025749            2 
  262000   0.87869419    -3.632522    187.89763  0.059763878  0.061908759            2 
  263000   0.83010836   -3.6709886    187.47142  0.059401589  0.061791236            3 
  264000   0.85848183   -3.6547401    187.91577  0.059316846  0.061671199            3 
  265000   0.86303178   -3.6816035    188.22218  0.059189364  0.061551881            4 
  266000   0.83485777   -3.6516675    189.10498  0.059243416  0.061431309            3 
  267000   0.82585335   -3.6737344    189.53562  0.059155937  0.061313921            2 
  268000   0.83081047   -3.6718606    189.95894  0.059066833  0.061195903            7 
  269000   0.83631938   -3.6558388    190.63365  0.059056275  0.061077772            4 
  270000   0.84051396   -3.6883457    190.82913   0.05889788  0.060962168            7 
  271000   0.85108533   -3.6979459    191.01361  0.058737273  0.060848016            3 
  272000   0.86263815    -3.675799    192.08938  0.058850914  0.060733448            4 
  273000   0.84066298   -3.6749171    192.01603   0.05861295  0.060620111            5 
  274000   0.83327941   -3.6959776    192.38532   0.05851135  0.060507532            4 
  275000   0.83037066   -3.7048268    193.19835  0.058544955  0.060394326            4 
  276000    0.8281922   -3.6869301    193.94957  0.058559652  0.060281836            3 
  277000   0.82777859    -3.682812    193.99137  0.058360823  0.060168151            4 
  278000   0.83848923   -3.6777195    194.07866  0.058177058  0.060057545            3 
  279000    0.8235709   -3.6976828    194.74243  0.058166794  0.059948441            5 
  280000   0.83029975   -3.7091865    195.49807  0.058183951  0.059839087            5 
  281000     0.802724   -3.6738117     195.8659  0.058085972  0.059730506            4 
  282000   0.82265836   -3.7330299    195.86124  0.057878616   0.05962064            5 
  283000    0.8248168   -3.6886567    196.51565  0.057866799  0.059511028            4 
  284000    0.8270161   -3.7429894    197.63783   0.05799232  0.059402542            4 
  285000    0.8224212   -3.7185029    197.25016  0.057675484    0.0592931            3 
  286000   0.78823959   -3.7035703    197.90551  0.057664775  0.059184923            4 
  287000    0.8225231   -3.7377606    197.55031  0.057360716  0.059077147            5 
  288000   0.81409531   -3.7210404    198.66293  0.057483486  0.058969132            8 
  289000   0.81210963   -3.7418622     198.2742  0.057172492  0.058859694            7 
  290000   0.80541344   -3.7346681    198.75094  0.057112338  0.058750486            4 
  291000   0.79715748     -3.74732    199.01758  0.056992434  0.058639655            6 
  292000   0.78168856   -3.7361145    199.78567  0.057016459  0.058531345            6 
  293000   0.81137752   -3.7550886    199.86546  0.056844555  0.058422422            3 
  294000    0.7951899   -3.7279608    200.42643  0.056810212  0.058312715            4 
  295000   0.81295222   -3.7562505    200.74594  0.056707893  0.058203938            4 
  296000    0.7922786   -3.7210947    202.25496  0.056941148  0.058095951            4 
  297000   0.78914088   -3.7618562     201.8365  0.056632014  0.057986885           11 
  298000   0.78674053   -3.7477746    201.94439  0.056472146  0.057876757            6 
  299000   0.80149326   -3.7712502     201.5601   0.05617617  0.057766275            2 
  300000   0.79917346   -3.7707986    202.17008  0.056158355  0.057657064            2 
  301000   0.78673195   -3.7824573    202.54493  0.056075561  0.057546904            3 
  302000   0.77652442   -3.7680293    202.76242  0.055949895  0.057439039            6 
  303000   0.78341687   -3.7912486    203.12934  0.055866154  0.057329478            3 
  304000   0.79472243   -3.7677355    202.98127  0.055641797  0.057220489            3 
  305000   0.77901955   -3.7677683     203.7354   0.05566541  0.057110178            3 
  306000   0.79691802   -3.7642188     204.1536  0.055597387  0.057002132            6 
  307000   0.78785542   -3.7774465    204.63159  0.055546035  0.056891866            9 
  308000   0.78049436   -3.7600547    204.29153  0.055273683  0.056782574            6 
  309000    0.7746702   -3.8079631    205.02301  0.055292075  0.056672074            7 
  310000   0.79499185    -3.795568    204.67216  0.055019398  0.056561327            6 
  311000   0.78576204   -3.8195166    206.10442  0.055226264   0.05645121            4 
  312000   0.76223197    -3.808831    205.45586   0.05487603   0.05634083            4 
  313000   0.76898326   -3.8207231    205.46918  0.054704255  0.056229194            3 
  314000   0.75157458   -3.8131897    206.57572  0.054823705  0.056118064            4 
  315000     0.756688   -3.7861349    206.43742  0.054613073  0.056006737            4 
  316000   0.76340474   -3.8144537    206.76291  0.054526083  0.055895924            4 
  317000   0.76496519   -3.8195309    206.40696  0.054260506   0.05578527            9 
  318000   0.76562666    -3.825372    206.69096  0.054164297   0.05567441            3 
  319000   0.74318053   -3.8142723    207.30864  0.054155861  0.055563084            7 
  320000   0.74560467   -3.8246776    207.84435  0.054126133  0.055451428            4 
  321000    0.7530649   -3.8418178    207.23837  0.053800199  0.055338948            7 
  322000   0.75139613   -3.8205826    207.50915  0.053703195  0.055225691            5 
  323000   0.76198233   -3.8130152     208.2096  0.053717646   0.05511418            6 
  324000   0.75488022   -3.8210051     207.6878  0.053417644  0.055001668           12 
  325000   0.74903839   -3.8455169    208.57582   0.05348098  0.054889188            9 
  326000   0.74701264   -3.8437225    208.78354  0.053370027  0.054776333            5 
  327000    0.7443176     -3.81826    209.31666  0.053342675  0.054665254            6 
  328000   0.74420929   -3.8359588    209.52874  0.053233927  0.054553945            3 
  329000   0.74190624   -3.8170394    209.65105  0.053103102  0.054441633            4 
  330000   0.73958418   -3.8264884    209.30774   0.05285549  0.054328684            5 
  331000   0.73980363   -3.8614106    209.81561  0.052823668  0.054216174            7 
  332000   0.73996935   -3.8356589    210.00849  0.052712974  0.054103416            5 
  333000   0.73262147   -3.8495888    210.29883  0.052627335  0.053989861            5 
  334000   0.72694193   -3.8506582    211.16026  0.052684696  0.053877107            3 
  335000   0.72872887   -3.8612614    211.54099  0.052622136  0.053765144            7 
  336000   0.74767432    -3.874349    211.77433  0.052523396   0.05365515            3 
  337000   0.72708297   -3.8383042    212.41861  0.052526858  0.053545235            5 
  338000   0.73561401   -3.8909545     211.9197  0.052248446  0.053435068            4 
  339000   0.71750495   -3.8832189    211.78178  0.052060418  0.053324748            9 
  340000   0.73279736   -3.8674749    212.50308  0.052084087  0.053214329            6 
  341000   0.73334902   -3.8622331    212.68853  0.051976669  0.053104599            6 
  342000   0.72733541   -3.8728962    212.52366  0.051784518  0.052994789           12 
  343000   0.74144943   -3.8707367    212.64864  0.051663906   0.05288334            6 
  344000   0.71586113   -3.8882656    212.12506  0.051386886  0.052770979            3 
  345000   0.73185633   -3.8814377    212.16869  0.051248476  0.052657584            5 
  346000   0.71397224   -3.8792126    213.12699  0.051331163  0.052545181            5 
  347000   0.73002881   -3.9037821    213.46133  0.051263528  0.052434633            5 
  348000   0.70268426   -3.8913594    213.50362  0.051126347  0.052323725           15 
  349000   0.72289334   -3.9007058    214.51784  0.051222025   0.05221382            9 
  350000   0.71470898   -3.9136763     214.0915  0.050974166  0.052103532            7 
  351000   0.71455709   -3.9166138    214.76326  0.050988429  0.051993147            4 
  352000   0.70553516   -3.9156403    214.83454   0.05086045  0.051883073            6 
  353000   0.70507238   -3.8938968     215.0559  0.050768625  0.051772438            3 
  354000   0.69631881   -3.9073624    214.62832  0.050524558  0.051662421           13 
  355000   0.69837218   -3.8975192    215.29542  0.050538831  0.051552993            7 
  356000   0.70941169   -3.9202899    215.47345  0.050438542  0.051443676           12 
  357000   0.68606477   -3.9096042    215.85837  0.050387107   0.05133434            7 
  358000    0.6977706   -3.9342595    215.85571  0.050245742  0.051225313            7 
  359000   0.70017194   -3.9303738    216.29773  0.050208388  0.051117917            6 
  360000   0.69777236   -3.9307176    216.44777  0.050103649  0.051010441            4 
  361000    0.6908304   -3.9419997     216.3519  0.049942728  0.050901399            8 
  362000   0.67642966   -3.9482349    215.96829  0.049716456  0.050791784           13 
  363000   0.69911365   -3.9236902    216.53105  0.049708689  0.050681875            3 
  364000   0.67316928   -3.9579266    216.44539  0.049552516   0.05057107            6 
  365000   0.67754103   -3.9406511    216.83986  0.049506816  0.050460658            7 
  366000   0.68556941   -3.9573124    216.13497  0.049211059   0.05034868            3 
  367000   0.67741532   -3.9529731    216.61023  0.049184884  0.050237095           12 
  368000   0.67769441   -3.9391957    216.77303  0.049088095  0.050124886            5 
  369000   0.69273077   -3.9700838    216.78311  0.048957342  0.050011177            4 
  370000   0.67742845   -3.9552322    217.38064  0.048959604  0.049898551            9 
  371000   0.66894549   -3.9468456    217.09524  0.048763531  0.049786662            8 
  372000   0.66471887   -3.9764802    216.92139  0.048593502  0.049674897            8 
  373000   0.67734141   -3.9793152    217.53404  0.048600099  0.049563149            9 
  374000   0.66326083    -3.985894    217.34179  0.048427315  0.049451951           11 
  375000   0.67718413    -3.974988    217.53089  0.048340198  0.049340359            7 
  376000   0.67706624   -3.9624117    217.33061  0.048167245  0.049230041            9 
  377000     0.654957   -3.9868381    217.45437  0.048066838  0.049118214            5 
  378000   0.65085319   -4.0030902    217.60126  0.047972059  0.049006499            9 
  379000   0.66568026   -3.9777986    218.27128  0.047992806  0.048894916           10 
  380000    0.6601144   -3.9976529    217.64628  0.047729447  0.048783632            8 
  381000   0.66250301   -3.9723075    219.02868  0.047906536  0.048673843            9 
  382000   0.66821525   -3.9857418    218.98187  0.047770915  0.048563692           16 
  383000   0.64111109   -4.0053919    218.84989   0.04761747  0.048453551            9 
  384000   0.65988844   -3.9915959    219.62434  0.047661532  0.048343397            7 
  385000   0.64307238    -4.005308    218.72137  0.047342288  0.048233136            8 
  386000   0.64197429     -3.99905    218.92033  0.047262592  0.048123725            7 
  387000   0.64304482   -4.0235473    219.39642  0.047242985  0.048014943            8 
  388000   0.65649395   -4.0009849    219.37009   0.04711557  0.047905109            5 
  389000   0.63952556    -4.028408    219.15438  0.046948239  0.047795742            8 
  390000   0.63629165   -4.0097785    219.68085  0.046940352  0.047686258           10 
  391000   0.64817901   -4.0289196    219.30098  0.046739338  0.047577054            8 
  392000   0.64432648   -3.9997131    220.18704  0.046808469  0.047467969            9 
  393000   0.63730921     -4.00583    219.87705  0.046623632  0.047359168           11 
  394000   0.63686994   -4.0268131    220.35347  0.046606063  0.047250488           14 
  395000   0.63586892   -4.0132572    220.13354  0.046441676  0.047142174            5 
  396000   0.64001563   -4.0145215    220.18669  0.046335584  0.047033394            5 
  397000   0.63192873   -4.0059686    220.63825  0.046313654  0.046924015            4 
  398000   0.62490266   -4.0197063    220.27465  0.046121157  0.046815252           13 
  399000   0.64065021   -4.0272803    219.87145  0.045921356  0.046706522            6 
  400000   0.63195323   -4.0549184    220.31439  0.045898831  0.046597486            7 
  401000   0.63172966   -4.0274042    220.43667  0.045809781  0.046489104            9 
  402000   0.63479305   -4.0507702    220.07589  0.045621038  0.046380667            4 
  403000   0.63698786   -4.0437086    220.77061  0.045651491  0.046271949            8 
  404000   0.61269284   -4.0554424    220.78398  0.045541249   0.04616445            5 
  405000   0.62779774   -4.0462965    220.42715  0.045355381  0.046056917           15 
  406000   0.61590981   -4.0796846    220.73678  0.045307221  0.045949101            4 
  407000   0.60622576   -4.0699571    221.27073  0.045305228  0.045841121            5 
  408000   0.60990087   -4.0711411    221.14702  0.045168918  0.045734486           10 
  409000   0.61943312   -4.0643431    221.35526  0.045100909  0.045626966            5 
  410000   0.61129801   -4.0500117    221.42046  0.045004158  0.045520323            4 
  411000   0.63312736   -4.0807508    221.51335  0.044913493  0.045414083            8 
  412000   0.62318802   -4.0682806    221.82586   0.04486769  0.045308633            7 
  413000   0.60645513   -4.0775378    221.98192   0.04479054  0.045204338           11 
  414000   0.59800375   -4.0709783    221.69469  0.044624536  0.045099625            7 
  415000    0.5937203   -4.0839122    222.09657  0.044597706  0.044995316           14 
  416000   0.61252268   -4.0828607     222.1915  0.044509515  0.044890129            7 
  417000     0.607218   -4.0823892    221.53366  0.044271316  0.044784891           10 
  418000   0.59578313   -4.1044533    221.83355   0.04422519   0.04467855            6 
  419000   0.60691897   -4.1122867    221.19461  0.043992564  0.044572549            8 
  420000   0.58823635   -4.0948736    221.71535   0.04399114  0.044466628           13 
  421000   0.59820306   -4.1026085    221.54546   0.04385302  0.044360607           16 
  422000   0.59444396   -4.1059983    222.55616  0.043948688  0.044255698           12 
  423000   0.59280065   -4.0932452    222.37747  0.043809588  0.044150314            7 
  424000   0.58245879   -4.1205548    221.47987  0.043529848  0.044044619           14 
  425000   0.58666954   -4.1239644    222.30384  0.043588989  0.043939419            7 
  426000   0.58508062   -4.1155203    221.74791  0.043377916  0.043834033           11 
  427000   0.57624431   -4.1142299    221.53225  0.043234241  0.043727852            6 
  428000   0.59357334   -4.1268004    221.79141  0.043183686  0.043622071            5 
  429000   0.58643445   -4.1301408    221.91363  0.043106766  0.043516471            6 
  430000   0.57865642   -4.1408859    222.39609  0.043100018  0.043411033           11 
  431000   0.57903364   -4.1371578    222.40062  0.043000894  0.043305891            7 
  432000   0.56999422   -4.1212934    222.72992  0.042964877  0.043200997           33 
  433000   0.57351096   -4.1291297     222.7999  0.042879118  0.043096705           13 
  434000   0.58297902   -4.1406586    222.34523  0.042693017  0.042992921            7 
  435000   0.57438165   -4.1475028    223.01275   0.04272275  0.042888297           11 
  436000   0.56100779   -4.1351705    222.69601  0.042564222  0.042784366            7 
  437000   0.57507094    -4.138351    221.91761  0.042318385  0.042680157            8 
  438000   0.58713793   -4.1412232    223.40823  0.042505372  0.042576176           10 
  439000   0.56035955   -4.1611123    222.53867  0.042243483  0.042472629           21 
  440000   0.56117515   -4.1510394    223.60274  0.042349004  0.042369273            9 
  441000   0.55565481   -4.1785744    222.92511  0.042124925  0.042266405           11 
  442000   0.56488983   -4.2042148    222.76558  0.041999544  0.042163847           34 
  443000   0.55703283   -4.1722373    223.08156  0.041964175  0.042061105           26 
  444000   0.55579753   -4.1704425    222.97038  0.041848795  0.041958816           14 
  445000   0.56118523    -4.193294    223.27034  0.041810925   0.04185655            9 
  446000    0.5515469   -4.1746105    223.00231  0.041667097  0.041754851           14 
  447000   0.54892121   -4.1972561    223.23311   0.04161691  0.041653614           16 
  448000   0.54882755   -4.1945808    222.98999  0.041478793   0.04155251           24 
  449000    0.5562107   -4.2084719    223.76684  0.041530594  0.041451555            7 
  450000   0.56065553   -4.1981176    223.00404  0.041297045  0.041350591           10 
  451000   0.54302076   -4.1990777    223.70686  0.041335341  0.041249807           10 
  452000   0.54379635   -4.2183222    223.57801  0.041220134  0.041149029            8 
  453000   0.54845773    -4.197727    223.41864  0.041099823  0.041048499           16 
  454000   0.54620821   -4.1994929    223.64675  0.041051165  0.040948065           14 
  455000     0.542277    -4.220614    223.28855  0.040895339  0.040847673            8 
  456000   0.54571853   -4.2043204    223.63996  0.040869876  0.040747487            8 
  457000   0.54271524   -4.2130946    223.41157  0.040738798  0.040647272           24 
  458000     0.535346   -4.2172985     223.1661  0.040605185    0.0405467            7 
  459000   0.52370378   -4.2222683    223.18981  0.040521026  0.040446646            7 
  460000   0.53603343   -4.2484847    223.68277  0.040522241  0.040346713           15 
  461000   0.53231273   -4.2297405    223.37389  0.040378505  0.040246816           25 
  462000   0.53626507   -4.2348929    223.60617  0.040333004  0.040147393           17 
  463000   0.52301188   -4.2262953    223.82509  0.040285294  0.040048355           18 
  464000    0.5317155   -4.2501259    222.68074  0.039992949  0.039948754           15 
  465000   0.52694533   -4.2540831    223.94108   0.04013281  0.039849635            8 
  466000   0.52065305   -4.2554796    222.69017  0.039822992  0.039750477           34 
  467000   0.52959526    -4.253709    223.66182  0.039911103  0.039651221            9 
  468000   0.51905622   -4.2604658    224.22902  0.039926819  0.039553003           12 
  469000   0.52029522   -4.2640645    223.57708   0.03972585  0.039454825           11 
  470000   0.52042681   -4.2618348    223.29319  0.039590991  0.039356835           15 
  471000   0.51396664   -4.2592139    223.58097   0.03955785  0.039258749           18 
  472000   0.51604547   -4.2667766    223.62574  0.039481945  0.039161203           11 
  473000   0.50257642   -4.2584587    223.80023  0.039429216  0.039063461           21 
  474000   0.51276457   -4.2604981    224.00941  0.039382808  0.038966217           15 
  475000   0.51230096   -4.2771716    223.79477  0.039262241  0.038869433           13 
  476000   0.50619783   -4.2727951    223.12046  0.039061705  0.038772726           28 
  477000    0.5099796   -4.2897185    223.33245   0.03901685  0.038675609           31 
  478000   0.51781274   -4.2797242    223.73734  0.039005813  0.038578378           15 
  479000   0.50964517    -4.296453    224.09533  0.038986661  0.038481956           20 
  480000   0.51130996   -4.2870308    223.58247  0.038816402  0.038385489           14 
  481000   0.49931643   -4.2887738    223.41168  0.038706112  0.038289061           13 
  482000   0.49649304   -4.2904737     222.9777  0.038550777  0.038192849           12 
  483000   0.49283395   -4.3060013    223.67533  0.038591327  0.038096887           12 
  484000   0.49072591   -4.3029257    223.74442  0.038523489  0.038001181           40 
  485000   0.48211735   -4.3063204    223.45823  0.038394886  0.037905358            8 
  486000   0.49626943   -4.3011212    223.49263  0.038321781  0.037809732           11 
  487000   0.50257188   -4.3133081    223.48763  0.038242236  0.037714263           25 
  488000   0.48633469   -4.3111028    223.68245  0.038197139  0.037619056           18 
  489000   0.48215475   -4.3188734     223.3392  0.038060531  0.037524046           33 
  490000   0.49320357   -4.3180526    223.46463  0.038004189  0.037429049           12 
  491000   0.47393336   -4.3122042     223.4505  0.037924388  0.037334075           18 
  492000   0.47460985   -4.3335882    223.02747  0.037775656  0.037239193           27 
  493000   0.47791111   -4.3285345    223.17503  0.037723974  0.037144647           29 
  494000   0.48172478   -4.3419509    223.46769  0.037696979  0.037050355           23 
  495000   0.47657157   -4.3406213    223.21829  0.037578837  0.036956308           39 
  496000   0.46629627   -4.3437377    223.54959  0.037558735  0.036862608           20 
  497000   0.48531393   -4.3422148    223.02422  0.037395073  0.036769062           20 
  498000   0.47235505   -4.3320477     222.9361  0.037305237  0.036675745           38 
  499000   0.47299847   -4.3496114    223.18468   0.03727199   0.03658255            8 
  500000   0.46345221   -4.3740895    222.95341  0.037158902  0.036489021           10 
  501000   0.46487568   -4.3531374    222.92402  0.037079844  0.036395696           37 
  502000   0.45260805   -4.3508068    222.93197  0.037007299  0.036302775           26 
  503000   0.46690666   -4.3605849    223.20517  0.036978987  0.036210009           39 
  504000   0.45939749   -4.3578674    222.46091  0.036782558  0.036117377           12 
  505000   0.46187156    -4.379679    222.64764  0.036740534  0.036024559           15 
  506000   0.45825293   -4.3901172    222.53925  0.036650074  0.035932229           18 
  507000   0.44878271   -4.3649244    222.57574  0.036583783  0.035840337           54 
  508000   0.46281956   -4.3671326    222.76034   0.03654205  0.035748478           38 
  509000   0.44744647    -4.372066    222.96433  0.036503655  0.035656596           23 
  510000   0.45277356   -4.3743765    222.85476  0.036414177  0.035564741           37 
  511000    0.4559865   -4.3870163    222.59605  0.036300725  0.035473195           31 
  512000   0.44907872   -4.3989975    222.57627  0.036226607  0.035381505           19 
Loop time of 1231.69 on 48 procs for 500000 steps with 4000 atoms

Performance: 70147.733 tau/day, 405.948 timesteps/s
99.4% CPU use with 48 MPI tasks x no OpenMP threads

MPI task timing breakdown:
Section |  min time  |  avg time  |  max time  |%varavg| %total
---------------------------------------------------------------
Pair    | 80.236     | 86.573     | 92.809     |  28.6 |  7.03
Neigh   | 8.2398     | 8.6289     | 8.9802     |   6.3 |  0.70
Comm    | 77.642     | 83.372     | 90.59      |  31.4 |  6.77
Output  | 0.85146    | 0.85196    | 0.86018    |   0.1 |  0.07
Modify  | 1038.3     | 1041.1     | 1044.3     |   4.7 | 84.53
Other   |            | 11.14      |            |       |  0.90

Nlocal:        83.3333 ave          92 max          77 min
Histogram: 1 4 8 9 10 5 6 3 1 1
Nghost:        2240.92 ave        2264 max        2222 min
Histogram: 3 2 8 4 9 13 4 3 1 1
Neighs:        14987.2 ave       16753 max       13414 min
Histogram: 3 1 7 6 9 8 6 6 1 1
FullNghs:      29976.2 ave       33437 max       27711 min
Histogram: 4 4 8 11 9 3 5 3 0 1

Total # of neighbors = 1438856
Ave neighs/atom = 359.71400
Neighbor list builds = 27076
Dangerous builds = 0

#clear
#
#next RN
#
#jump SELF
Total wall time: 0:20:34
