
units lj                  # Use reduced LJ style units
atom_style atomic         # Uncharged point particles
atom_modify map hash      # Needed for indexing of clusters etc
                          # Used to be able to find where atoms are in relation to each other.

lattice fcc 1.0 spacing 1 1 1
Lattice spacing in x,y,z = 1.5874011 1.5874011 1.5874011
region box block 0 10 0 10 0 10 units lattice
create_box 2 box
Created orthogonal box = (0.0000000 0.0000000 0.0000000) to (15.874011 15.874011 15.874011)
  3 by 4 by 4 MPI processor grid
create_atoms 1 box
Created 4000 atoms
  using lattice units in orthogonal box = (0.0000000 0.0000000 0.0000000) to (15.874011 15.874011 15.874011)
  create_atoms CPU = 0.002 seconds
set type 1 type/fraction 2 0.64 78393
Setting atom values ...
  2566 settings made for type/fraction
mass 1 1.0
mass 2 1.0
pair_style lj/cut  3.5
pair_modify tail  yes
pair_coeff 1  1  1.0  1.0   # Intearaction between 1 and 1 set with epsilon = 1 and sigma = 1
pair_coeff 1  2  1.5  0.8
pair_coeff 2  2  0.5  0.88

write_data data.0
System init for write_data ...
Neighbor list info ...
  update every 1 steps, delay 10 steps, check yes
  max neighbors/atom: 2000, page size: 100000
  master list distance cutoff = 3.8
  ghost atom cutoff = 3.8
  binsize = 1.9, bins = 9 9 9
  1 neighbor lists, perpetual/occasional/extra = 1 0 0
  (1) pair lj/cut, perpetual
      attributes: half, newton on
      pair build: half/bin/atomonly/newton
      stencil: half/bin/3d
      bin: standard
WARNING: Not all mixed pair coeffs generated from mixing. Use write_data with 'pair ij' option to store all pair coeffs. (../write_data.cpp:312)


#############################
#   M E L T   S Y S T E M   #
#############################

velocity all create 2.4 6583654 mom yes dist gaussian # Assign velocities
                                                    # Temperature 2.4, random number seed, zero linear momentum
                                                                                # Gaussian distribution

timestep 0.002   # simulation timestep
thermo 1000       # output thermodynamic data every 1000 steps bf 100

# Define a fix  in this case with index 1 applied to all
# particles in the simulation. This fix is for simulations
# in the anisotropic NPT ensemble. Note that we use the MTK
# correction.
fix 1 all npt temp 2.4 2.4 0.1 iso 5.68 5.68 0.5 mtk yes tchain 5 pchain 5 # Use NPT ensemble
                                                                         # Set temperature and pressure and damping
                                                                         # Numbers of thermostats in chain and in barostat
run 10000          # run for 10000 steps
Per MPI rank memory allocation (min/avg/max) = 3.642 | 3.644 | 3.648 Mbytes
Step Temp E_pair E_mol TotEng Press Volume 
       0          2.4   -4.5154638            0  -0.91636384   -3.9779215         4000 
    1000    2.4114786   -4.2497308            0  -0.63341727    5.5834013    3628.1391 
    2000    2.3753665   -4.2703008            0  -0.70814186    5.7457138    3586.5553 
    3000    2.4455513   -4.2102975            0  -0.54288767    5.7067012    3638.2851 
    4000    2.3666375   -4.2465816            0  -0.69751283    5.5078317     3621.749 
    5000    2.4031185   -4.2734364            0  -0.66965993    5.8664033    3580.6406 
    6000    2.3742149   -4.2727421            0  -0.71231016    5.7661715     3587.393 
    7000    2.4094751   -4.1894275            0  -0.57611846    5.8003326     3636.559 
    8000    2.4323226   -4.2561591            0  -0.60858728    5.5997006    3624.0235 
    9000    2.3927082   -4.2232664            0  -0.63510139    5.8254756     3605.691 
   10000    2.4006222    -4.229199            0  -0.62916587    5.9073472    3599.8511 
Loop time of 2.71057 on 48 procs for 10000 steps with 4000 atoms

Performance: 637504.669 tau/day, 3689.263 timesteps/s
99.6% CPU use with 48 MPI tasks x no OpenMP threads

MPI task timing breakdown:
Section |  min time  |  avg time  |  max time  |%varavg| %total
---------------------------------------------------------------
Pair    | 1.1918     | 1.2781     | 1.4236     |   3.6 | 47.15
Neigh   | 0.2171     | 0.2266     | 0.25053    |   1.1 |  8.36
Comm    | 0.78553    | 0.92178    | 1.0357     |   4.8 | 34.01
Output  | 0.00024983 | 0.00025592 | 0.00032307 |   0.0 |  0.01
Modify  | 0.23455    | 0.26822    | 0.31984    |   4.6 |  9.90
Other   |            | 0.01566    |            |       |  0.58

Nlocal:        83.3333 ave          94 max          75 min
Histogram: 1 5 6 10 9 9 2 3 2 1
Nghost:        1761.73 ave        1788 max        1719 min
Histogram: 1 0 0 5 6 12 6 11 4 3
Neighs:        10600.1 ave       12055 max        9467 min
Histogram: 4 5 3 9 9 7 5 2 1 3

Total # of neighbors = 508804
Ave neighs/atom = 127.20100
Neighbor list builds = 910
Dangerous builds = 235

# Equilibrate just above the melting temperature to avoid step fn in T

fix 1 all npt temp 1.25 1.25 0.1 iso 5.68 5.68 0.5 mtk yes tchain 5 pchain 5
run 2000
Per MPI rank memory allocation (min/avg/max) = 3.644 | 3.646 | 3.649 Mbytes
Step Temp E_pair E_mol TotEng Press Volume 
   10000    2.4006222    -4.229199            0  -0.62916587    5.9073472    3599.8511 
   11000    1.2511943   -6.2367086            0   -4.3603864    5.3662895    2775.6598 
   12000    1.2469116   -6.2882736            0   -4.4183737    5.7382756    2743.7888 
Loop time of 0.66748 on 48 procs for 2000 steps with 4000 atoms

Performance: 517768.457 tau/day, 2996.345 timesteps/s
99.6% CPU use with 48 MPI tasks x no OpenMP threads

MPI task timing breakdown:
Section |  min time  |  avg time  |  max time  |%varavg| %total
---------------------------------------------------------------
Pair    | 0.29227    | 0.32787    | 0.36163    |   2.2 | 49.12
Neigh   | 0.041407   | 0.043976   | 0.048352   |   0.6 |  6.59
Comm    | 0.20574    | 0.24568    | 0.28537    |   2.8 | 36.81
Output  | 5.3819e-05 | 5.5165e-05 | 7.1429e-05 |   0.0 |  0.01
Modify  | 0.041511   | 0.044905   | 0.047895   |   0.8 |  6.73
Other   |            | 0.004994   |            |       |  0.75

Nlocal:        83.3333 ave          89 max          75 min
Histogram: 1 1 8 2 1 12 1 12 4 6
Nghost:        2116.42 ave        2136 max        2096 min
Histogram: 2 1 9 2 7 6 11 4 4 2
Neighs:        13913.4 ave       15295 max       12561 min
Histogram: 3 2 6 5 12 4 6 3 2 5

Total # of neighbors = 667844
Ave neighs/atom = 166.96100
Neighbor list builds = 142
Dangerous builds = 11

#############################
# L I N E A R  Q U E N C H  #
#############################

# Define solid atoms. This closely follows ten Wolde  Ruiz-Montero and Frenkel  Faraday Discuss  1996  104  93-110
# Compute components of the per-atom q6 vector
compute q6 all orientorder/atom degrees 1 6 components 6 nnn NULL cutoff 1.3 # compute the Q6 parameter.
                                                                             # Use all neighbours within 1.3 unit cell.

# get number of connections
compute coord_number all coord/atom orientorder q6 0.5

# An atom is solid if it has 8 or more connections (of a possible 14)
variable is_solid atom c_coord_number>=8
group solid dynamic all var is_solid    # Must be dynamic to update
dynamic group solid defined

# do clustering
compute cluster solid cluster/atom 1.3 # Create a cluster where all atoms within are solid and max 1.3 units from another member

# define chunks one chunk per cluster
compute clus_chunks solid chunk/atom c_cluster nchunk every compress yes  # Says which atoms are in which chunk

# count the size of each chunk
compute size_chunks solid property/chunk clus_chunks count


# Find the maximum entry in the vector of chunk sizes
variable max_n equal max(c_size_chunks)


# Thermo style which includes this variable
# thermo_style custom step temp pe vol v_max_n

thermo ${N}  # Print the thermo information every 100 steps
thermo 1000  

# Reset the npt fix at a lower temperature (below freezing)
fix 1  all npt temp  ${temp} ${temp}  0.1  iso  5.68  5.68  0.5  mtk yes tchain  5  pchain  5
fix 1  all npt temp  0.45 ${temp}  0.1  iso  5.68  5.68  0.5  mtk yes tchain  5  pchain  5
fix 1  all npt temp  0.45 0.45  0.1  iso  5.68  5.68  0.5  mtk yes tchain  5  pchain  5

dump dmp2 all dcd ${N} traj.dcd
dump dmp2 all dcd 1000 traj.dcd


compute msd all msd com yes
variable twopoint equal c_msd[4]/6/(step*dt+1.0e-6)
fix 9 all vector 10 c_msd[4]
variable fit equal slope(f_9)/6/(10*dt)
thermo_style custom step temp pe c_msd[4] v_twopoint v_fit v_max_n

fix 1 all npt temp 1.25 ${temp} 0.1 iso 5.68 5.68 0.5 mtk yes tchain 5 pchain 5
fix 1 all npt temp 1.25 0.45 0.1 iso 5.68 5.68 0.5 mtk yes tchain 5 pchain 5
run 5000000 # 5000000  # Run for this many steps
Neighbor list info ...
  update every 1 steps, delay 10 steps, check yes
  max neighbors/atom: 2000, page size: 100000
  master list distance cutoff = 3.8
  ghost atom cutoff = 3.8
  binsize = 1.9, bins = 8 8 8
  4 neighbor lists, perpetual/occasional/extra = 1 3 0
  (1) pair lj/cut, perpetual
      attributes: half, newton on
      pair build: half/bin/atomonly/newton
      stencil: half/bin/3d
      bin: standard
  (2) compute orientorder/atom, occasional
      attributes: full, newton on
      pair build: full/bin/atomonly
      stencil: full/bin/3d
      bin: standard
  (3) compute coord/atom, occasional
      attributes: full, newton on
      pair build: full/bin/atomonly
      stencil: full/bin/3d
      bin: standard
  (4) compute cluster/atom, occasional
      attributes: full, newton on
      pair build: full/bin/atomonly
      stencil: full/bin/3d
      bin: standard
Per MPI rank memory allocation (min/avg/max) = 9.848 | 9.852 | 9.856 Mbytes
Step Temp PotEng c_msd[4] v_twopoint v_fit v_max_n 
   12000    1.2469116   -6.2882736 1.9551918e-30 1.357772e-32 8.3333333e+20            2 
   13000     1.294358   -6.3045903   0.53351505 0.0034199681  0.043958153            3 
   14000     1.270507   -6.2686112    1.0642579  0.006334868  0.043568135            3 
   15000    1.2545044   -6.2560741    1.5912246 0.0088401366  0.043512275            1 
   16000    1.2299541   -6.3569566    2.0399285  0.010624627  0.042722144            2 
   17000    1.2549401   -6.3225028    2.4440236  0.011980507  0.041241538            2 
   18000    1.2345958   -6.3185315    2.8728271  0.013300125  0.039746542            2 
   19000    1.2579358   -6.3016258    3.3227476  0.014573454  0.038920486            3 
   20000    1.2363179   -6.3226149    3.8080416  0.015866839  0.038462112            4 
   21000    1.2718364   -6.3354377    4.2640696  0.016920911  0.038444616            1 
   22000    1.2487801   -6.3541382    4.7365942  0.017941644   0.03843018            2 
   23000       1.2575   -6.3452092    5.2774621  0.019121239  0.038577092            1 
   24000    1.2494497   -6.2924875     5.761806   0.02000627  0.038816663            2 
   25000    1.2529886   -6.3189135    6.1991197  0.020663732  0.038953497            3 
   26000    1.2392414   -6.3151949    6.6558361  0.021332808  0.038949473            3 
   27000    1.2261291   -6.2639028    7.1642065  0.022111748  0.038981893            3 
   28000    1.2515595    -6.331846    7.6437846  0.022749358  0.039099503            1 
   29000    1.2280833   -6.3455552    8.0905712  0.023248767  0.039149483            6 
   30000     1.249612    -6.267091    8.5826158  0.023840599  0.039177418            3 
   31000     1.210042   -6.3392536    9.0899389  0.024435319    0.0392502            2 
   32000    1.2421287    -6.312292    9.5862873   0.02496429   0.03930553            4 
   33000    1.2317129   -6.3061789     10.10823  0.025525834  0.039406507            3 
   34000    1.2402215   -6.2769107    10.576835  0.025923616    0.0394974            4 
   35000    1.2655372   -6.2781625    11.150289  0.026548307   0.03961058            3 
   36000    1.2404546   -6.3035735    11.754776   0.02721013  0.039788505            2 
   37000    1.2375641   -6.3116164    12.295006  0.027691454  0.040020113            1 
   38000    1.2465077   -6.3027406    12.788822  0.028045662  0.040224212            2 
   39000    1.2560421   -6.3178732    13.341765  0.028508045  0.040444245            1 
   40000    1.2407902   -6.3604687    13.709414  0.028561279  0.040591938            2 
   41000    1.2428446   -6.2954139    14.270369  0.029004815  0.040687963            2 
   42000    1.2463717   -6.3302086    14.752438  0.029270709  0.040793272            4 
   43000    1.2229145   -6.2900689     15.20709  0.029471105  0.040828422            5 
   44000    1.2746825   -6.3452051    15.552842   0.02945614  0.040834512            3 
   45000    1.2571645   -6.3366984    16.079811  0.029777428  0.040835371            4 
   46000    1.2425282   -6.3362022    16.586262  0.030047577  0.040824877            3 
   47000    1.2548144     -6.34769    17.039192  0.030211333  0.040811847            2 
   48000     1.258621   -6.3176637    17.434366  0.030267997  0.040766698            2 
   49000    1.2551406    -6.343701    17.752337   0.03019105  0.040696947            3 
   50000    1.2429344   -6.3409653    18.273595  0.030455992  0.040611074            3 
   51000    1.2504825   -6.2986212    18.669209  0.030505243  0.040532273            2 
   52000    1.2422915   -6.3773291    19.054591  0.030536203  0.040434858            2 
   53000    1.2376484   -6.3319492    19.666472  0.030922125    0.0403573            3 
   54000    1.2146024   -6.3536939    20.293216  0.031316691  0.040338037            2 
   55000    1.2318027    -6.298212    20.875218  0.031629118   0.04034834            4 
   56000    1.2462323   -6.2749685    21.438289  0.031902215  0.040387823            2 
   57000    1.2293455   -6.3320798    21.925794  0.032055254  0.040429346            1 
   58000    1.2427227   -6.3350818    22.461015  0.032271573  0.040462918            2 
   59000    1.2359845   -6.3115007    22.863848   0.03229357  0.040481137            2 
   60000    1.2239562   -6.3720397    23.230845  0.032265063  0.040495156            4 
   61000    1.2103991   -6.3581125     23.79395  0.032505396    0.0404953            3 
   62000    1.2390292   -6.3360745     24.30012  0.032661452  0.040508876            2 
   63000    1.2367695   -6.3065068    24.774343  0.032770295  0.040522087            2 
   64000    1.2433992   -6.3394775    25.130509  0.032722016  0.040514011            2 
   65000    1.2511032   -6.3264468    25.583495  0.032799353  0.040500553            2 
   66000    1.2681407   -6.3421316    26.106765  0.032963087  0.040481887            2 
   67000    1.2409576   -6.3126512    26.620566  0.033110156   0.04047018            3 
   68000      1.23867   -6.3305031    27.250603  0.033395346  0.040470163            3 
   69000    1.2141553   -6.3534136    27.598335  0.033331322  0.040460152            3 
   70000    1.2729099   -6.3443213    28.010841  0.033346239  0.040434563            3 
   71000    1.2677032   -6.3538802    28.387303  0.033318431  0.040415081            2 
   72000    1.2070747    -6.291392    29.002444  0.033567643  0.040388978            2 
   73000    1.2378458   -6.3193724    29.463625  0.033634275  0.040367289            2 
   74000    1.2417632   -6.3382481    29.945287   0.03372217  0.040346924            4 
   75000    1.2206677   -6.2933336    30.602553  0.034002836  0.040335176            4 
   76000    1.2142204   -6.3196193    31.021142   0.03401441   0.04032986            1 
   77000    1.2410738   -6.3276304     31.34536  0.033923549  0.040320847            2 
   78000    1.2621314   -6.3658373     31.69233  0.033859326  0.040305008            3 
   79000    1.2494648   -6.3279397     32.37373  0.034149504   0.04029155            2 
   80000    1.2253302   -6.3514045    32.849894   0.03421864   0.04028327            3 
   81000    1.2484257   -6.3147357    33.302387  0.034261715  0.040275969            2 
   82000    1.2143457    -6.337783    33.584204  0.034130288  0.040264718            2 
   83000    1.2182786    -6.370112     33.94684  0.034083173  0.040237996            1 
   84000    1.2132701   -6.3090781    34.669073  0.034393921  0.040211864            3 
   85000    1.2527666   -6.2702567    34.975998  0.034290194  0.040185588            3 
   86000      1.24107   -6.3295859    35.409997  0.034312012  0.040158919            2 
   87000    1.2713022   -6.3343741    35.809071  0.034299876  0.040133258            2 
   88000    1.2301356   -6.3198198    36.450568  0.034517583  0.040110705            2 
   89000    1.2646566   -6.3474357    36.993143  0.034637774  0.040095768            1 
   90000    1.2265241   -6.3540336     37.44576  0.034671999  0.040087753            2 
   91000    1.2027281    -6.320144    38.056402  0.034850184   0.04007358            2 
   92000    1.2399308    -6.337351    38.326495  0.034716028  0.040060454            4 
   93000    1.2492938   -6.3512898    38.585864  0.034575147  0.040042029            3 
   94000    1.2515925    -6.340189    39.149141  0.034706685  0.040017886            5 
   95000    1.2023271   -6.4065748    39.384602  0.034547897  0.039991291            6 
   96000    1.2269502   -6.3405222    39.784775  0.034535395  0.039954092            2 
   97000    1.2388965   -6.3661516    40.165521  0.034506461  0.039916138            2 
   98000    1.2348285   -6.3268816    40.688334  0.034598923  0.039870621            2 
   99000    1.2216572   -6.3747771    40.946589  0.034466826  0.039824045            2 
  100000    1.2211789   -6.3413946    41.491531  0.034576275   0.03977422            2 
  101000    1.2227056   -6.3434799    41.912368  0.034581162  0.039727075            2 
  102000    1.2239604   -6.3222571    42.476992  0.034703425  0.039680121            2 
  103000     1.226747   -6.2811608    43.097224  0.034868304  0.039641029            4 
  104000    1.2496306   -6.3115493    43.356919  0.034741121   0.03960982            3 
  105000    1.2231063   -6.3482591    43.706943   0.03468805  0.039573388            2 
  106000    1.2279475   -6.3173406    44.355069  0.034870337  0.039536724            2 
  107000     1.224654   -6.3205155    44.631873  0.034760025  0.039503532            3 
  108000    1.2001989   -6.3417995     45.19623  0.034873634  0.039466354            2 
  109000    1.2641109   -6.3260539    45.559584  0.034831486  0.039428159            2 
  110000    1.1981669   -6.3397929    45.634076   0.03457127  0.039389716            4 
  111000    1.2402364    -6.358248    46.233471  0.034709813  0.039347894            2 
  112000    1.2383901   -6.3046221     46.94698  0.034930788  0.039308993            3 
  113000    1.2469536     -6.35026    47.231013   0.03483113  0.039273304            2 
  114000    1.2363059   -6.3322502    47.731292  0.034891295  0.039240148            5 
  115000    1.2538424   -6.3330979     48.08339  0.034843036  0.039204834            2 
  116000    1.2387834   -6.3455804    48.578385  0.034898265  0.039172896            3 
  117000    1.2018738   -6.3262658    49.073812  0.034952857  0.039144522            2 
  118000     1.197485   -6.3569148    49.435399  0.034912005  0.039113966            2 
  119000    1.2080371   -6.3784892    50.061337  0.035056959  0.039083634            4 
  120000    1.2249407   -6.3860825    50.392855  0.034995038  0.039055775            1 
  121000     1.241263   -6.3455703    50.898709  0.035054207  0.039025793            4 
  122000    1.2198717   -6.3619954    51.049095    0.0348696  0.039001842            2 
  123000    1.1946429   -6.3737441    51.655555  0.034996988  0.038970304            1 
  124000    1.2382333   -6.3355075    51.883122  0.034867689  0.038940705            2 
  125000    1.2249593   -6.3478457     52.56688  0.035044587  0.038912765            3 
  126000    1.2514609   -6.3339227    53.109567  0.035125375  0.038887802            2 
  127000    1.2202106   -6.4069053    53.364454  0.035016046  0.038862445            3 
  128000    1.2576065   -6.3734392    53.678607   0.03494701  0.038828953            2 
  129000    1.2210196    -6.400056    54.275807  0.035061891  0.038799204            4 
  130000    1.2319726   -6.3800481    54.663069  0.035040429  0.038772479            2 
  131000    1.2227247   -6.3175078    55.142776  0.035078102  0.038745365            2 
  132000     1.258625   -6.3857729    55.426339  0.034991375  0.038716981            4 
  133000    1.2289515   -6.3504593    55.986839  0.035079473  0.038689616            2 
  134000    1.2245398   -6.4086419    56.268383  0.034992775  0.038665474            4 
  135000    1.2119153   -6.3780193      56.8786  0.035110247   0.03864075            3 
  136000    1.2049624   -6.3827717    57.138775  0.035011504  0.038612152            2 
  137000    1.2318233   -6.3493964    57.710223  0.035103542  0.038585329            2 
  138000     1.233594   -6.3090955    58.621703  0.035399579  0.038562473            2 
  139000    1.2414773   -6.3858734    58.650261  0.035162027  0.038544281            2 
  140000    1.2092245   -6.3893686    59.234431   0.03525859  0.038525751            4 
  141000    1.2074709   -6.3374806    59.965329  0.035440502  0.038508487            4 
  142000    1.2345992   -6.3577017    59.677897   0.03502224  0.038484746            4 
  143000    1.2232633   -6.3496756    60.367656  0.035179287   0.03845747            4 
  144000    1.2307509    -6.357979    60.915101  0.035251795  0.038432721            2 
  145000     1.198264   -6.3931865    61.277771  0.035217109  0.038412654            6 
  146000    1.2358323   -6.3502257    62.251604  0.035531737  0.038399021            4 
  147000    1.2266184   -6.3920546    62.382256  0.035364091  0.038388342            2 
  148000    1.2069532   -6.3585934    63.011201   0.03547928  0.038373954            2 
  149000    1.2292307   -6.3783823    63.691099   0.03562142  0.038365864            2 
  150000    1.2084277   -6.3468958    64.288923  0.035716068  0.038359883            2 
  151000    1.2150633    -6.364356    64.572305   0.03563593   0.03835628            2 
  152000     1.238827    -6.374863    64.917524  0.035590747  0.038344864            2 
  153000    1.2451393   -6.3369854    65.616333  0.035738743   0.03833613            2 
  154000    1.2104725   -6.3729908    66.214512  0.035830363  0.038332702            2 
  155000    1.2271053   -6.3239519    66.523866  0.035765519  0.038331718            2 
  156000    1.2302326   -6.3639059    67.171561  0.035882244  0.038333696            5 
  157000    1.2108682   -6.3391393    67.656755  0.035911229  0.038339473            1 
  158000    1.2064021   -6.4098686     67.92287  0.035824298  0.038339571            6 
  159000    1.2102145     -6.34994     68.77593  0.036046085  0.038343113            2 
  160000     1.237303   -6.3946541    68.776956  0.035821331  0.038348785            4 
  161000    1.2349478   -6.3912165    68.993797  0.035711075  0.038347582            3 
  162000    1.2425699   -6.3386714      69.8566  0.035934465  0.038345944            3 
  163000    1.2430287   -6.4218801    69.622382  0.035594265  0.038338949            4 
  164000    1.2221859   -6.3621344    70.082533  0.035611043  0.038327101            5 
  165000    1.2268358   -6.3323824    70.828152  0.035771794   0.03831586            2 
  166000    1.2111928   -6.3423198    71.015161  0.035650181   0.03830471            6 
  167000    1.2295968   -6.3790499    71.618212  0.035737631  0.038292336            7 
  168000    1.2099752   -6.3800658    71.752503  0.035591519   0.03828148            1 
  169000    1.2287721   -6.3757584    72.469996  0.035734712  0.038267463            2 
  170000    1.2563498   -6.3874053     72.93689  0.035753377  0.038255131            3 
  171000    1.2022272   -6.3596205    73.482021  0.035809952  0.038245303            2 
  172000    1.2448392   -6.3488068    74.055948  0.035879819  0.038237882            4 
  173000    1.2210758   -6.3467874    74.297493  0.035788773  0.038227181            2 
  174000    1.2300567   -6.3806874    74.351738   0.03560907  0.038215405            4 
  175000    1.2331983   -6.4176521    74.858116  0.035646722  0.038203788            3 
  176000    1.2400484   -6.3981618     75.24701  0.035628319  0.038193021            4 
  177000    1.2124363   -6.3403541    75.984054  0.035774036  0.038182164            2 
  178000    1.2300144   -6.3902532     75.99262  0.035577069  0.038169985            1 
  179000    1.2110241   -6.3757321    76.619569   0.03567019  0.038154697            2 
  180000    1.2075183   -6.3882299    76.787417   0.03554973  0.038137556            4 
  181000    1.2347074    -6.382167    77.452497  0.035659529  0.038122048            3 
  182000    1.2162812    -6.410971    77.661113  0.035559118  0.038106664            1 
  183000    1.2301428   -6.3782968    78.097703  0.035563617  0.038089604            4 
  184000    1.2190645   -6.3590832    78.851546  0.035711751   0.03807532            3 
  185000    1.1950428   -6.3855997    79.153521  0.035654739  0.038064962            2 
  186000    1.2463008   -6.4083182    79.661293  0.035690543  0.038055262            3 
  187000     1.229034   -6.3989894    80.098842  0.035694671  0.038043177            3 
  188000    1.1999211     -6.36495    81.073008  0.035936617  0.038034445            2 
  189000    1.2225644   -6.3942192    81.248169  0.035823707   0.03802836            2 
  190000    1.2116969   -6.3252284     82.13375  0.036023574  0.038021694            1 
  191000    1.2255792   -6.3661039    82.015009  0.035783163  0.038015804            3 
  192000    1.2474072   -6.3145599    82.383739  0.035756831  0.038009339            2 
  193000    1.2148524   -6.3731066    82.529124  0.035634337  0.037998596            5 
  194000    1.2629177   -6.3866179    83.298402    0.0357811  0.037986413            1 
  195000    1.2134572   -6.3805357    83.729359  0.035781777  0.037977298            1 
  196000    1.2216338   -6.3971444    84.084169  0.035750072  0.037966312            2 
  197000    1.2408679    -6.396316    84.484512  0.035737949  0.037955437            5 
  198000     1.226065   -6.4078157    84.802411   0.03569125  0.037947164            2 
  199000    1.2059631   -6.3528826    85.685999  0.035881909  0.037938522            1 
  200000    1.2269177   -6.3726722    85.998009  0.035832504  0.037929154            4 
  201000    1.2340786   -6.3827865    86.554521  0.035884959  0.037919123            2 
  202000    1.1990548   -6.3649475    86.666898  0.035753671  0.037906604            4 
  203000    1.2016867   -6.3657783    87.114652  0.035761351  0.037895542            2 
  204000    1.2260642   -6.3738166    87.870241  0.035894706  0.037886484            8 
  205000    1.2479274   -6.3595147    88.308088  0.035897597  0.037879413            3 
  206000    1.2327239   -6.4111713    88.617214  0.035848388   0.03787299            1 
  207000     1.214185   -6.4171187    89.323444  0.035959518  0.037867237            4 
  208000     1.226073   -6.3597947    90.061818  0.036082459  0.037863035            2 
  209000     1.214659   -6.3831858    90.321485  0.036013351   0.03785785            4 
  210000    1.2338268   -6.3915107    90.532065  0.035925422  0.037852547            2 
  211000     1.175431   -6.3969563    90.779682  0.035852955   0.03784549            2 
  212000     1.198447   -6.3971875    90.920449   0.03573917  0.037835686            4 
  213000    1.1893962   -6.3694202    91.499817   0.03579805  0.037822328            2 
  214000    1.1819118   -6.4224209    91.620841  0.035677898    0.0378105            2 
  215000    1.2275306   -6.3698309    92.011061  0.035663202   0.03779766            1 
  216000     1.244985   -6.3990108    92.818008  0.035809416  0.037785412            4 
  217000    1.2145456   -6.3747184    92.717103  0.035605646   0.03777286            4 
  218000    1.2431588   -6.3826162    93.697621  0.035817133    0.0377594            2 
  219000    1.2274178   -6.3895922    93.674399  0.035644748  0.037744627            4 
  220000    1.2055345   -6.3941863    94.478101  0.035787159  0.037731134            3 
  221000    1.2152455   -6.4010869    94.964066  0.035808471  0.037718388            3 
  222000    1.2139807   -6.3858479    94.893707  0.035620761    0.0377085            2 
  223000    1.1896187   -6.3232737    96.034994  0.035887516  0.037697807            4 
  224000     1.249989   -6.3957305    96.618048  0.035944214  0.037689997            3 
  225000    1.2062534   -6.4044199     96.74708  0.035832252  0.037681683            2 
  226000     1.196641   -6.4284343    97.012906   0.03577172   0.03767303            1 
  227000    1.2278444    -6.382887    97.654546  0.035849686  0.037663635            1 
  228000    1.2005301   -6.3914549    98.200458   0.03589198  0.037655995            4 
  229000    1.2200677   -6.4228766    98.604412  0.035882246  0.037649035            4 
  230000    1.2084171   -6.3517953    99.439891  0.036028946  0.037640504            5 
  231000    1.2130223   -6.3825538    99.289162  0.035818601  0.037632741            3 
  232000    1.2290337   -6.4074652    99.615619  0.035781472  0.037626155            2 
  233000    1.2253015   -6.4089842    100.30705  0.035875196  0.037617855            2 
  234000    1.2062461   -6.3897661    100.90372  0.035934372  0.037610878            3 
  235000    1.2276159   -6.4174701    101.19566  0.035884985  0.037602971            2 
  236000    1.1887803   -6.3690838    101.45147  0.035823258  0.037593534            4 
  237000    1.2170123    -6.377073    102.07653  0.035891889  0.037584147            3 
  238000    1.1980947   -6.4189197    102.41124  0.035858278  0.037574544            4 
  239000    1.1988564   -6.3938753    103.05177  0.035931579  0.037564194            6 
  240000    1.2134815   -6.4033842    103.00735  0.035766442  0.037555288            2 
  241000    1.2075845   -6.4098791    103.72593  0.035866506  0.037547173            3 
  242000    1.2455454   -6.4090757    104.15866  0.035867306  0.037539056            2 
  243000    1.2100622   -6.4139192    104.44398  0.035817552  0.037531189            4 
  244000    1.2059781   -6.3680276    104.87779  0.035818918  0.037521574            2 
  245000    1.2348782   -6.3684269    105.19368  0.035780163  0.037511209            4 
  246000    1.2116341   -6.3885327    105.66727  0.035795144  0.037500104            3 
  247000    1.2130298   -6.3955676    105.43489  0.035571826  0.037487051            5 
  248000    1.2093453   -6.4180961    105.53385  0.035461644  0.037471868            2 
  249000    1.2085811   -6.4222699    106.09892  0.035508341  0.037455074            2 
  250000    1.1948036   -6.4337236    105.92521  0.035308403  0.037437176            3 
  251000    1.1901967   -6.4050154    106.48205  0.035352605  0.037419326            3 
  252000    1.1874882   -6.3772196    107.46591  0.035537669  0.037401204            2 
  253000     1.218443    -6.454527    107.53821  0.035421019   0.03738521            6 
  254000    1.2306876   -6.4149068    108.35897  0.035550844  0.037369443            2 
  255000    1.2063624   -6.3815954    108.83744  0.035567791  0.037354261            3 
  256000    1.2096162   -6.3897008     109.0581  0.035500684  0.037339994            3 
  257000    1.2284981   -6.4128826    109.26375  0.035429231  0.037324848            4 
  258000    1.2045415   -6.4230963     109.2074  0.035273709  0.037307347            2 
  259000    1.2360633   -6.4180533    110.33613  0.035500686  0.037290443            6 
  260000    1.2072722   -6.4552674    110.41515  0.035389472  0.037273289            5 
  261000    1.2176889   -6.3875044    110.70914  0.035347746  0.037259444            3 
  262000    1.1996123     -6.38448    111.67402  0.035519726  0.037245213            3 
  263000    1.2211537   -6.3869019    112.24874  0.035566775  0.037231785            4 
  264000    1.1896714   -6.4236912    112.55693  0.035529334  0.037217211            4 
  265000    1.2325124   -6.4076066      113.242   0.03561069  0.037203952            2 
  266000     1.208929   -6.4235494    113.50434  0.035559003  0.037191863            3 
  267000    1.2194154   -6.4070295    113.96117  0.035568406  0.037179408            3 
  268000    1.2110233   -6.3635861    114.17795  0.035503095  0.037167346            5 
  269000    1.2097031   -6.3780222    114.84273  0.035577053  0.037153722            1 
  270000    1.1920413   -6.4014069    114.94006  0.035475329   0.03714111            2 
  271000    1.2185935   -6.3434912    115.69421  0.035576325  0.037128274            7 
  272000    1.2220891   -6.4084703    115.52129  0.035392551  0.037114153            2 
  273000    1.2110057   -6.4050695    116.57073  0.035583251  0.037099269            3 
  274000    1.2290934   -6.3499453    116.73328  0.035502823  0.037086768            1 
  275000    1.1877738   -6.4027544    116.81258  0.035397752  0.037075734            2 
  276000    1.1925881   -6.3929564    117.63615   0.03551816  0.037063295            2 
  277000    1.2130932   -6.3739165    118.53464   0.03566024  0.037053101            4 
  278000    1.2076149   -6.3999388    118.65212  0.035567183  0.037042333            4 
  279000    1.2185023   -6.4403822    119.29318  0.035631176  0.037030617            4 
  280000    1.2043522   -6.4334296    119.45993   0.03555355  0.037019354            4 
  281000    1.2083192   -6.4271793     119.3571  0.035396532  0.037008063            3 
  282000    1.1846432   -6.4244711    120.33784  0.035560828  0.036996991            2 
  283000    1.2100735   -6.4067997    120.38005  0.035447601  0.036986153            3 
  284000    1.2230075   -6.4291237    121.12582  0.035541615  0.036974303            1 
  285000      1.23057   -6.3893032    122.08023  0.035695975  0.036963962            5 
  286000    1.1783905   -6.4787141    121.12979  0.035294228  0.036952725            5 
  287000    1.2179746   -6.4210116    121.78561  0.035361676  0.036941242            2 
  288000    1.1942036   -6.4077259    122.11217  0.035333384  0.036929174            3 
  289000    1.2060009   -6.3913405     123.3025  0.035554354  0.036917655            1 
  290000     1.207546   -6.4201894    123.23101  0.035411209  0.036906417            5 
  291000    1.2230303   -6.4688448    123.06524  0.035242051  0.036894072            2 
  292000    1.1608523    -6.445491    123.96834  0.035379091   0.03688113            4 
  293000     1.168894   -6.3666516    124.75283  0.035481463  0.036869777            6 
  294000    1.1878138   -6.4216262    125.18236  0.035482529  0.036859006            5 
  295000    1.2139488   -6.4322217    125.33423  0.035405148  0.036847383            3 
  296000     1.194658   -6.4067331    125.69811   0.03538798  0.036835072            2 
  297000     1.208158   -6.4491104    125.99389  0.035351822  0.036824765            4 
  298000     1.208069   -6.4034522     126.8134  0.035462361   0.03681256            6 
  299000    1.1729719   -6.3890381    126.97071    0.0353876  0.036801949            5 
  300000    1.1917774   -6.4191506    127.12712  0.035313088  0.036790145            3 
  301000    1.2119734   -6.4233363    127.53866  0.035309706  0.036778872            3 
  302000    1.1928059   -6.4636842    128.12395   0.03535429   0.03676772            4 
  303000    1.1990045   -6.4091002    128.67205  0.035388353  0.036756543            3 
  304000    1.1865858   -6.4054709    128.88646  0.035330717  0.036746269            4 
  305000    1.2302792   -6.4646292    129.30066  0.035328048  0.036735309            4 
  306000    1.2057988   -6.4236429    130.36365  0.035502083  0.036723685            2 
  307000    1.1977502   -6.4724478    129.72923  0.035214231  0.036712316            4 
  308000    1.2080337   -6.4415162    130.38779  0.035278083   0.03670137            5 
  309000    1.1949109   -6.4124329    131.39749  0.035436217  0.036689648            2 
  310000    1.2149925   -6.4485275     131.2279  0.035276317  0.036679294            2 
  311000    1.1983137   -6.4287361    132.08643  0.035392935  0.036669186            2 
  312000    1.1832922   -6.3887009    133.08805  0.035547021  0.036660307            2 
  313000      1.20023    -6.422465    132.42049  0.035255722  0.036650039            3 
  314000    1.2102975   -6.3662664    133.87822  0.035530314  0.036639272            1 
  315000    1.1995354   -6.3904849     133.6929  0.035368491  0.036631141            7 
  316000     1.174965   -6.4474061       134.22   0.03539557  0.036621539            2 
  317000    1.1849768   -6.4502171    134.55312  0.035371483  0.036610821            3 
  318000     1.184879    -6.471309    134.49859  0.035245961  0.036600077            3 
  319000    1.2072025   -6.4278593     135.6431  0.035434457  0.036589974            2 
  320000    1.2005282   -6.4217283      135.402  0.035260937   0.03657944            3 
  321000    1.2067782   -6.4173344    136.39122  0.035407898  0.036568945            3 
  322000    1.2091557   -6.4079164    136.90522  0.035430958   0.03655887            6 
  323000    1.1904504   -6.4093921    137.31569  0.035427165  0.036549755            3 
  324000    1.2060283   -6.4117489    137.78538  0.035438627  0.036541608            3 
  325000    1.2313276   -6.4189821    138.34761  0.035473746  0.036534962            3 
  326000    1.1895124   -6.4396684     138.4661  0.035395219  0.036527497            4 
  327000    1.1968676   -6.4383262    139.62093  0.035581277  0.036519705            1 
  328000    1.1979764   -6.4426417    139.29714  0.035390534  0.036512172            4 
  329000    1.2047171   -6.4386276    139.19453  0.035256974    0.0365048            3 
  330000    1.2180848   -6.4370992    140.17211  0.035396996  0.036495776            2 
  331000    1.2133272   -6.4216583    140.16701  0.035288774  0.036487835            4 
  332000    1.1870781   -6.4206707     140.8065  0.035342996  0.036480262            3 
  333000    1.1852475   -6.4481532    141.11321  0.035313617  0.036471598            5 
  334000    1.2151214   -6.3725875    142.36514  0.035520244  0.036464126            1 
  335000    1.1983693   -6.4217352    142.16311  0.035363957  0.036456677            4 
  336000    1.1908652   -6.4519491     142.4944  0.035340874  0.036449936            3 
  337000    1.1854562   -6.4378212    143.20951  0.035412836  0.036443239            3 
  338000    1.2059458   -6.3818397    144.13705  0.035536749  0.036437804            2 
  339000    1.2037023    -6.487013     144.0096  0.035400589  0.036432303            7 
  340000    1.1753575   -6.4484665    144.90566  0.035516094  0.036425926            5 
  341000    1.2045834   -6.4831437    144.82623   0.03539253  0.036419784            2 
  342000    1.1740827    -6.425317    145.82263  0.035531829  0.036414881            2 
  343000    1.1960871   -6.4098186    146.75873  0.035655667  0.036410649            4 
  344000    1.1843837   -6.4320675    146.80833  0.035564034  0.036408257            3 
  345000    1.1735729   -6.4001646    147.51219  0.035630964  0.036406374            2 
  346000    1.2152527   -6.4641159    147.80709   0.03559901  0.036404374            4 
  347000    1.1929929   -6.4669241    148.61099  0.035689478  0.036402538            4 
  348000    1.1825795   -6.4594871    148.84155  0.035642134  0.036399788            2 
  349000    1.1617501   -6.4470357    148.94246  0.035564103  0.036397133            3 
  350000    1.1900093   -6.4632911    149.32543  0.035553675  0.036394554            3 
  351000    1.2066931   -6.4166337    150.16992  0.035652877  0.036392023            4 
  352000    1.2175353   -6.4361174    150.24335  0.035568974  0.036388379            3 
  353000    1.1866122   -6.4134835    150.62971  0.035559422   0.03638282            2 
  354000    1.2368493   -6.3895738    151.60739  0.035689123  0.036379556            8 
  355000    1.1755886   -6.4203618    151.51917  0.035567879  0.036375236            2 
  356000    1.1857872   -6.4376058    152.31747  0.035654839  0.036371449            3 
  357000    1.1679062   -6.4136201    152.96422  0.035705934  0.036369257            8 
  358000    1.2215828   -6.4203079    153.25806  0.035674596  0.036366158            2 
  359000     1.204796   -6.4145435    153.32814   0.03559149  0.036362498            2 
  360000    1.1666772    -6.443181    153.93329  0.035632705  0.036360085            2 
  361000    1.1698601   -6.4399218    153.86528    0.0355183  0.036358883            4 
  362000    1.2112129   -6.3846227    154.90231  0.035658911  0.036356471            1 
  363000      1.21612    -6.399278    155.45345  0.035687201  0.036354728            3 
  364000    1.1891391   -6.4090568    156.07524  0.035731512  0.036352327            2 
  365000    1.1743405   -6.4868948    155.73762  0.035556534  0.036350112            2 
  366000    1.1891553   -6.4530348    156.67927  0.035673787  0.036347805            2 
  367000    1.1899819   -6.4745987    157.03095  0.035656438  0.036346604            8 
  368000    1.1725393   -6.4013367     158.3767  0.035864289  0.036344608            1 
  369000       1.2136    -6.450393    157.64881  0.035602712  0.036343102            3 
  370000    1.1919152   -6.4505597    158.13287  0.035615511  0.036341367            4 
  371000    1.1865276   -6.4821809    159.01921  0.035718601  0.036339001            1 
  372000    1.1816738   -6.4675297    159.00403  0.035619181  0.036337811            2 
  373000    1.1750706   -6.4373888    159.85761  0.035714391  0.036336689            3 
  374000    1.1946197   -6.4514984    160.58441  0.035780839  0.036336224            2 
  375000    1.1925019   -6.4134679    161.07506  0.035794459  0.036334877            2 
  376000    1.1965204   -6.4557656    160.41391  0.035552729  0.036332156            4 
  377000    1.1890296   -6.4424828    160.74026  0.035530561  0.036328751            2 
  378000    1.2056259   -6.4567486    161.01716  0.035497611  0.036325575            3 
  379000     1.202357   -6.4829946    161.88569  0.035594918  0.036322169            3 
  380000    1.1983781   -6.4877196     162.0548  0.035538334  0.036318547            3 
  381000    1.1906632   -6.4644179    162.36255  0.035512369   0.03631542            3 
  382000    1.2016967   -6.4805442    162.41881  0.035431678   0.03631101            8 
  383000    1.2233297   -6.4841288    163.53054  0.035581058  0.036307605            2 
  384000    1.1830945   -6.4501564    163.92764  0.035574575  0.036304715            2 
  385000     1.189109   -6.4217025    164.23156  0.035547956  0.036301573            5 
  386000    1.2313972   -6.4021669    165.45148  0.035719232  0.036298055            4 
  387000    1.1807437   -6.4389991    165.58113  0.035654851  0.036294825            3 
  388000    1.1990002   -6.5266723    164.90418  0.035417565  0.036291387            4 
  389000    1.1973209   -6.4930745    166.00101  0.035561485  0.036287787            3 
  390000    1.1836114   -6.4689066    167.09528   0.03570412  0.036285556            3 
  391000    1.1781306   -6.4683313    167.43268  0.035684714  0.036284067            7 
  392000    1.1828844   -6.4428215    167.34444  0.035574924  0.036281599            2 
  393000    1.2081693   -6.4723082    167.99672  0.035622713  0.036279484            4 
  394000    1.1869766   -6.4346605    168.21019  0.035577452  0.036276483            2 
  395000    1.1762015   -6.4574167    168.47433  0.035543107  0.036273299            2 
  396000    1.2017167   -6.4199539    169.41086  0.035650433  0.036271235            4 
  397000    1.1901051   -6.4030105    169.24698  0.035526233  0.036267603            2 
  398000    1.1824818   -6.4239761    169.37979  0.035464781  0.036263689            4 
  399000    1.1973349    -6.409303    170.83707  0.035680257  0.036260811            2 
  400000    1.1754316   -6.4870346    170.82027  0.035587557    0.0362586            1 
  401000    1.2005251   -6.4452838    171.84843  0.035712476  0.036257151            4 
  402000    1.1719911    -6.471731    172.63423  0.035786533  0.036256999            2 
  403000    1.2003537   -6.4668955    173.32462  0.035840492  0.036256501            2 
  404000    1.1959545   -6.4956484    172.48979  0.035579576  0.036254775            1 
  405000     1.167479   -6.4650956    173.64968  0.035730387  0.036253974            2 
  406000    1.1723434   -6.4340709    174.50345  0.035817621  0.036253841            3 
  407000    1.1755248   -6.4415957    175.00026  0.035831339  0.036253701            3 
  408000    1.1787341   -6.4566124    175.12877  0.035769765  0.036253222            2 
  409000    1.1625544   -6.4609412    175.59992  0.035778305  0.036253346            3 
  410000    1.1820172   -6.4421511    176.70651  0.035915957  0.036254092            2 
  411000    1.1827057   -6.4672914    177.30767  0.035950461  0.036255577            2 
  412000     1.178592   -6.4248508    177.91109  0.035985252  0.036258032            2 
  413000    1.1792295   -6.4535519    178.15772  0.035947886  0.036261246            2 
  414000    1.1723785   -6.4164946    179.03458  0.036037555  0.036264646            5 
  415000    1.1716256   -6.4351928    179.66637  0.036077585  0.036267228            2 
  416000    1.1893759   -6.4372841    179.61399  0.035980367  0.036270873            4 
  417000    1.1914472   -6.4777281    180.34953  0.036041073  0.036274309            3 
  418000    1.1592043   -6.4310375    181.17423  0.036119265  0.036277692            3 
  419000    1.1924917    -6.466455    180.96158  0.035990767  0.036280783            3 
  420000    1.1862651   -6.4748671     181.5785  0.036027481  0.036283931            3 
  421000    1.1832795   -6.4223258    182.55866  0.036135919    0.0362883            2 
  422000    1.2122059    -6.454539    182.69105  0.036076431   0.03629306            3 
  423000    1.1740174    -6.430031    183.65845  0.036181727  0.036297445            4 
  424000    1.1905706   -6.4778223    183.53232  0.036071603  0.036302179            2 
  425000    1.1949926   -6.4580926    184.81826  0.036238874  0.036307154            4 
  426000    1.1802425   -6.4794566    184.76989  0.036144345  0.036312515            2 
  427000    1.1956539   -6.4736965    184.23884  0.035956058   0.03631651            3 
  428000    1.1808842   -6.4728572    185.19016  0.036057275  0.036320152            1 
  429000    1.2064266   -6.4938708    185.30473  0.035995479  0.036323165            3 
  430000    1.1766626   -6.4672918     186.7239  0.036186802  0.036326586            4 
  431000     1.205657   -6.4599457     186.6228  0.036083295  0.036330856            3 
  432000    1.1832376   -6.4823383    187.53506  0.036175745  0.036334953            2 
  433000    1.2122688   -6.4575851    187.90495  0.036163386  0.036338916            2 
  434000    1.2019235   -6.4360025    187.80269  0.036060424  0.036342498            3 
  435000    1.1786325   -6.4331625    188.70963  0.036151269  0.036346165            2 
  436000    1.2162526   -6.4865377    187.81187  0.035896765  0.036347226            3 
  437000    1.1911557   -6.4450927    189.10845   0.03606187  0.036348055            5 
  438000    1.1916591   -6.5249779    187.87773  0.035745383  0.036348938            4 
  439000    1.1986478   -6.4679162      189.074  0.035891041  0.036348668            3 
  440000      1.17993    -6.487342    189.49967   0.03589009  0.036349683            4 
  441000    1.1853289   -6.4267205     190.2605  0.035952476  0.036349416            2 
  442000    1.1788513   -6.4291137    190.99603   0.03600981   0.03635047            3 
  443000    1.2005525   -6.4710966    190.35998  0.035808876  0.036351525            2 
  444000    1.1716757   -6.4437314    191.62037  0.035964784   0.03635203            2 
  445000    1.1718418   -6.4723291    190.74778  0.035720558  0.036352159            7 
  446000    1.2004398   -6.4032208     192.7777  0.036019749  0.036351968            2 
  447000    1.1865684   -6.4808518    192.48654  0.035884889  0.036351124            6 
  448000    1.1722678   -6.4742254    192.31705   0.03577326  0.036350339            3 
  449000     1.167844   -6.4712627    192.88249  0.035798532  0.036348087            3 
  450000    1.1937063   -6.5036241    192.89583   0.03572145  0.036346262            4 
  451000    1.1816478   -6.4981934    193.24312  0.035706416  0.036344762            4 
  452000    1.1811479    -6.491527    192.95523  0.035574342  0.036342294            2 
  453000    1.1951654    -6.492441     194.0896  0.035704489  0.036339879            5 
  454000    1.2093065   -6.4749909    195.17214  0.035824549  0.036336985            1 
  455000    1.1723575   -6.4966839    194.88205  0.035692683  0.036334757            5 
  456000    1.1828374   -6.4718203    194.69113  0.035579519  0.036331332            3 
  457000     1.201995   -6.5143881    195.45661  0.035641248  0.036328271            4 
  458000    1.2169374   -6.4464461    196.75974  0.035800534  0.036325954            5 
  459000    1.1837359   -6.4996769    196.25341  0.035630612   0.03632266            4 
  460000    1.1929736   -6.5080762    196.49725  0.035597327  0.036319579            2 
  461000    1.1749384   -6.4702464    197.57269  0.035714514  0.036316945            3 
  462000    1.2000538   -6.4637239    198.06244  0.035725549    0.0363142            1 
  463000    1.1623714   -6.4715744    198.66439   0.03575673  0.036311662            2 
  464000    1.1583528   -6.4815717    198.16193  0.035589428  0.036308506            4 
  465000    1.1634599   -6.5034229    198.48231  0.035570307    0.0363054            2 
  466000    1.1976932   -6.4853992    199.06809  0.035598729  0.036301626            3 
  467000    1.1621766   -6.4671529    199.99145  0.035687269  0.036298741            2 
  468000    1.1767654   -6.4618321    200.59507  0.035718496  0.036296385            2 
  469000    1.1668948   -6.5250303    199.66283  0.035476694  0.036292292            4 
  470000     1.173846   -6.4843996    200.86575  0.035614494    0.0362884            3 
  471000    1.1587359   -6.4495562    201.34632  0.035623907  0.036285376            3 
  472000    1.1753074   -6.4973399    202.01348  0.035666221  0.036282056            2 
  473000      1.17393   -6.4800973    202.65757  0.035704293  0.036279654            3 
  474000    1.1634879   -6.5489935    202.22906  0.035553631  0.036277214            4 
  475000    1.1723484   -6.4702928    203.38309  0.035681243  0.036274161            3 
  476000    1.1777463   -6.4749354    203.59792  0.035643894  0.036271509            4 
  477000    1.1625548   -6.5149924    204.27341  0.035687179  0.036269398            3 
  478000    1.1629899   -6.4708424     204.9449  0.035729584  0.036267106            3 
  479000    1.1616806   -6.4778755     204.9643  0.035658369  0.036264027            2 
  480000    1.2036212   -6.4864111    205.63176  0.035699958   0.03626128            3 
  481000    1.1751267   -6.5312999    205.38067  0.035582237  0.036258333            1 
  482000      1.16515   -6.5007444    206.63002  0.035724416  0.036256337            3 
  483000    1.1905815   -6.4965239     206.6424  0.035652588  0.036254156            1 
  484000    1.1577571   -6.5094626    207.46631  0.035720783  0.036252729            7 
  485000    1.1782771   -6.4909117    208.17739  0.035769312  0.036251602            2 
  486000    1.1903841   -6.5511201    207.61026  0.035598467  0.036249512            4 
  487000    1.1894145    -6.537008    207.92425  0.035579099  0.036247502            2 
  488000    1.1638483   -6.4949435    209.18298  0.035721137  0.036245525            3 
  489000    1.1706857   -6.4866659    209.86726    0.0357647  0.036243781            2 
  490000    1.1860578   -6.5292797    209.20561  0.035579185  0.036242017            3 
  491000    1.1630931   -6.4335573    210.60961  0.035745012  0.036239926            4 
  492000    1.1776679   -6.4586778    210.55434  0.035662997  0.036237842            2 
  493000    1.1719006   -6.4871037    210.66142  0.035608759  0.036236169            2 
  494000    1.1890211   -6.4733298     212.2103  0.035797959  0.036235075            2 
  495000    1.1947173   -6.4751297    212.96787  0.035853177   0.03623406            3 
  496000    1.1713355   -6.4634427    213.11799  0.035806113  0.036233291            1 
  497000    1.1837128   -6.5294898    213.37735  0.035777558  0.036232211            2 
  498000    1.1579417     -6.49931    213.65764  0.035752617  0.036231096            3 
  499000    1.1694902   -6.4911228    214.45894  0.035814786  0.036229455            1 
  500000    1.1679789   -6.4960571    214.07675  0.035679458  0.036228408            3 
  501000    1.1524451   -6.5307715    214.49633  0.035678032  0.036226711            3 
  502000    1.1487008   -6.5002666    214.82953  0.035662273  0.036225466            3 
  503000    1.1947297   -6.5008763    216.43516  0.035857382  0.036224566            1 
  504000    1.1628556   -6.4848692    216.45239  0.035789085  0.036223537            5 
  505000    1.1607604   -6.5023698    217.03034  0.035813588  0.036223332            5 
  506000    1.1634184   -6.5222663    217.41091  0.035805486  0.036223037            2 
  507000    1.1638948   -6.5094766    217.53031  0.035754489  0.036221727            4 
  508000    1.1674576   -6.5030715    218.18803     0.035792  0.036221062            2 
  509000    1.1757078   -6.4787433    218.49199  0.035771445  0.036221118            3 
  510000    1.1729363   -6.5120682    219.66833  0.035893518  0.036220844            3 
  511000    1.1626056   -6.5245755    220.69391  0.035990527  0.036220147            3 
  512000    1.1660766   -6.5163496     219.9745  0.035803142  0.036220114            3 
  513000    1.1642762   -6.4760832    220.24728  0.035777662  0.036220032            3 
  514000    1.1942325   -6.4550259    221.77464  0.035955681  0.036220119            1 
  515000    1.1596375   -6.5108944    221.10998  0.035778315  0.036220075            3 
  516000    1.1620177   -6.4703828    222.17029  0.035880215  0.036218956            2 
  517000    1.1887809   -6.5558766    221.58229  0.035716036  0.036218276            2 
  518000    1.1431239    -6.522209    222.62324  0.035814549  0.036217033            4 
  519000    1.1956674   -6.5299018    222.25572  0.035686531  0.036215619            2 
  520000    1.1805724   -6.4895627    223.30937  0.035786758  0.036213688            6 
  521000     1.172429   -6.4564577    223.13085  0.035689516  0.036211346            8 
  522000    1.1753835   -6.5027404    222.41704  0.035507191  0.036208075            4 
  523000    1.1746305   -6.4923577    223.07792  0.035544602   0.03620484            2 
  524000    1.1617716   -6.5358999    223.16811  0.035491112  0.036200899            4 
  525000    1.1547961   -6.5314573    223.84729  0.035531316  0.036196944            2 
  526000    1.1696048   -6.4872497    223.93295  0.035477337  0.036192434            5 
  527000    1.1947514   -6.5266813    224.63552  0.035521114  0.036188685            2 
  528000    1.1740118   -6.4617528    226.09547   0.03568426  0.036186292            2 
  529000    1.1795815   -6.5003809    225.55968  0.035532401   0.03618324            3 
  530000    1.1641421   -6.5008803    227.06264  0.035701673  0.036179598            5 
  531000     1.165782   -6.5093802    226.76642   0.03558795   0.03617664            5 
  532000    1.1566849   -6.5068754    226.62353  0.035498674  0.036173224            3 
  533000     1.181272   -6.4931493    227.78904  0.035614297   0.03616957            2 
  534000    1.1781661   -6.4765805     228.6239  0.035677887  0.036166513            4 
  535000    1.1567069   -6.5243659    228.13375  0.035534853  0.036163812            3 
  536000    1.1507358   -6.5181953    228.09637  0.035462745  0.036160355            3 
  537000    1.1568408   -6.5073699    229.85124  0.035669031  0.036156538            1 
  538000    1.1580764   -6.4665661    230.02052  0.035628953  0.036153097            4 
  539000     1.161982   -6.5080539     229.0861  0.035418383  0.036149846            3 
  540000    1.1436134   -6.5206142    229.08598  0.035352775  0.036145602            2 
  541000    1.1595167   -6.5056633    230.03206  0.035433157  0.036141132            3 
  542000    1.1428091   -6.5150655    230.27051  0.035404445  0.036136048            6 
  543000    1.1599996   -6.5445524     230.5771  0.035386295   0.03613143            2 
  544000    1.1546431   -6.5021103    232.00094   0.03553936  0.036127024            2 
  545000    1.1644254   -6.5639893    230.51115  0.035246353  0.036122459            4 
  546000    1.1507109   -6.4973916    231.64475  0.035354816  0.036117343            1 
  547000    1.1544287    -6.504923    233.20544  0.035527947  0.036112794            2 
  548000    1.1762315   -6.5243751    232.63134  0.035375812  0.036107824            1 
  549000    1.1667165   -6.5230325    233.48592  0.035441093  0.036103124            2 
  550000    1.1801106   -6.4821214    233.80211  0.035424563  0.036098314            2 
  551000    1.1451476   -6.5368587     234.1791  0.035417287  0.036094042            4 
  552000    1.1840885   -6.4924314    234.72576  0.035435653  0.036089022            2 
  553000    1.1874164   -6.4925811    234.28366  0.035304951  0.036084392            3 
  554000     1.174429   -6.5197603    234.34191  0.035249986  0.036078953            5 
  555000    1.1618004   -6.5094818    234.17507  0.035161422   0.03607332            1 
  556000    1.1770224    -6.535289    235.06797   0.03523201  0.036066822            4 
  557000    1.1413255   -6.5460902    235.23701  0.035194046  0.036060443            2 
  558000    1.1345164   -6.5371425    234.83787  0.035071367  0.036053512            2 
  559000    1.1574487   -6.5294954     235.5979  0.035121929  0.036046654            3 
  560000    1.1555624   -6.5105605    236.01968  0.035121976  0.036039137            2 
  561000     1.157505   -6.5239804    236.11064  0.035072882   0.03603173            1 
  562000     1.186722   -6.5284168    235.73391  0.034954613  0.036024376            3 
  563000    1.1794702   -6.5495254    236.43332  0.034996051   0.03601631            5 
  564000    1.1690849   -6.5042272    236.88913  0.035001348   0.03600869            2 
  565000    1.1856651   -6.5314085    237.26249  0.034994467  0.036000878            2 
  566000    1.1548717   -6.4892127    238.13209  0.035060673    0.0359931            1 
  567000    1.1819763   -6.5182124    238.69613  0.035081736  0.035984949            3 
  568000     1.151875   -6.5384472    238.48391  0.034988836  0.035977125            1 
  569000    1.1743708   -6.5112926    238.76101  0.034967928   0.03596934            2 
  570000    1.1536244   -6.4875252    239.49516  0.035013912   0.03596133            4 
  571000    1.1564404   -6.5531745    239.93867  0.035017319  0.035953552            4 
  572000    1.1525313   -6.4917024    240.47616  0.035034406   0.03594521            7 
  573000    1.1523245   -6.5157384    241.07129  0.035059815  0.035937108            2 
  574000    1.1719664   -6.5314916    241.16797  0.035012771  0.035929789            6 
  575000    1.1656111   -6.4756417    241.47813   0.03499683  0.035922762            2 
  576000    1.1550471    -6.516609    241.61566   0.03495597  0.035915256            4 
  577000    1.1448039   -6.5174764    242.41713  0.035011139  0.035908237            3 
  578000    1.1510143   -6.5233302     242.5235  0.034965903  0.035901228            4 
  579000    1.1654106   -6.4953242    242.91125   0.03496132  0.035893787            2 
  580000    1.1354734   -6.5428435    242.81066  0.034886588  0.035886003            3 
  581000    1.1392286   -6.5390795    243.05085  0.034860994  0.035878148            2 
  582000    1.1641073   -6.5324601    244.18799  0.034963916  0.035870513            2 
  583000    1.1515956   -6.5234319    244.89656  0.035005226   0.03586272            2 
  584000    1.1556683   -6.5532279    244.70408   0.03491782  0.035855146            3 
  585000    1.1474434    -6.536575    244.91576  0.034888285   0.03584656            5 
  586000    1.1552989   -6.5481931    245.66919  0.034935891  0.035838544            5 
  587000    1.1674265   -6.5612482    245.67025  0.034876526  0.035830705            3 
  588000    1.1392643   -6.5500218    245.78935  0.034834092  0.035822281            4 
  589000    1.1892215   -6.5467181    246.52086  0.034878447  0.035813904            2 
  590000    1.1795239   -6.6034714    245.92323   0.03473492  0.035804921            8 
  591000    1.1688554   -6.4795816    248.19888  0.034997022  0.035796525            3 
  592000    1.1785209     -6.50396    247.94456  0.034902105  0.035788529            1 
  593000    1.1625191   -6.5233351    248.21361  0.034881058  0.035780038            3 
  594000    1.1817969   -6.5578806    247.90687  0.034779303  0.035771248            1 
  595000    1.1694032   -6.5426571    247.87661  0.034716611  0.035762484            3 
  596000    1.1194648   -6.5122796     248.4348   0.03473641  0.035753827            3 
  597000    1.1634284   -6.5347438    248.60224  0.034701596  0.035744769            4 
  598000    1.1654981   -6.4888283    250.02245  0.034841478  0.035736004            3 
  599000     1.142425   -6.5577154    249.18034  0.034666157   0.03572719            4 
  600000    1.1633394   -6.5367556    249.46107  0.034647371  0.035717511            3 
  601000    1.1781665   -6.5114992    251.07935  0.034814108   0.03570875            4 
  602000    1.1617226   -6.5595683    250.25934  0.034642766  0.035699492            4 
  603000    1.1903231   -6.5077522    251.88537  0.034810029  0.035690273            2 
  604000     1.154225   -6.5479533    251.00126  0.034630416  0.035681299            3 
  605000    1.1511795   -6.5662823     251.7293  0.034673458  0.035672718            3 
  606000    1.1548001   -6.5695106    252.11291  0.034668992  0.035664298            6 
  607000    1.1728929   -6.5815597    251.69178  0.034554061  0.035655531            3 
  608000    1.1484599   -6.5612214    252.43566  0.034599186  0.035647382            4 
  609000    1.1437134   -6.5328934    253.85617   0.03473675  0.035639123            5 
  610000    1.1729209   -6.5698229    253.83125  0.034676401  0.035631413            1 
  611000    1.1525871   -6.5343765    254.87947  0.034762612  0.035623398            3 
  612000    1.1648543    -6.569621    254.33769  0.034632038  0.035615434            4 
  613000    1.1577136    -6.570343    254.99568  0.034664991  0.035607366            1 
  614000    1.1556727   -6.5772927    255.20996  0.034637617  0.035599226            2 
  615000    1.1682243    -6.564571    255.57034  0.034630127  0.035590598            2 
  616000    1.1406441   -6.5406782    255.64586  0.034584126  0.035582122            2 
  617000    1.1529335   -6.5442784    255.48121  0.034505836  0.035573444            2 
  618000    1.1538944   -6.5605506    256.26356  0.034555496  0.035564325            4 
  619000    1.1577611   -6.5447182    257.11378  0.034614133  0.035555278            2 
  620000    1.1302213   -6.5334858    256.87809  0.034526625  0.035546093            2 
  621000     1.144999   -6.5386137    257.54754  0.034560862  0.035536901            5 
  622000    1.1576114   -6.5916038    257.38991  0.034484179  0.035527326            2 
  623000    1.1612745   -6.5237223    257.64984  0.034463595  0.035517484            7 
  624000      1.16584   -6.5666956    258.70334  0.034549057  0.035508018            3 
  625000    1.1600594   -6.5893084    258.12249  0.034416332  0.035498554            4 
  626000    1.1403188   -6.5456736    258.99704  0.034477774  0.035488747            3 
  627000    1.1625187   -6.5404436    259.85128  0.034536321   0.03547988            3 
  628000    1.1490084   -6.5403526    260.25929  0.034535468  0.035470521            1 
  629000     1.173506   -6.5667978     260.3465  0.034492117  0.035460817            3 
  630000    1.1559458   -6.5481507    260.78122   0.03449487  0.035451264            1 
  631000    1.1457366    -6.528573    260.31479  0.034378604  0.035441768            2 
  632000    1.1494246   -6.5285586    261.07195  0.034424045  0.035432696            2 
  633000    1.1596743   -6.5370167    261.76831  0.034461337  0.035423668            2 
  634000    1.1515663   -6.5170028    262.60367  0.034516781  0.035414154            2 
  635000    1.1708351   -6.5380703    262.57438   0.03445858  0.035405283            2 
  636000    1.1075418   -6.5286217    262.64192  0.034413249  0.035396239            2 
  637000    1.1560414    -6.565206    263.05056  0.034412685  0.035387336            3 
  638000    1.1801331   -6.5641831    262.92041  0.034341746  0.035378288            8 
  639000    1.1488784   -6.5201447    263.89519  0.034415126  0.035369046            5 
  640000    1.1716891    -6.598488      263.112  0.034259375   0.03535917            3 
  641000    1.1611755   -6.5223487    264.92201  0.034441239  0.035349619            4 
  642000    1.1629208    -6.583246    263.96378  0.034263212  0.035340253            2 
  643000    1.1450256   -6.5557714     264.3092  0.034254691  0.035330242            5 
  644000    1.1477538   -6.5445857    266.14251   0.03443873  0.035320644            3 
  645000    1.1597864   -6.5289406    266.60821  0.034445505  0.035311713            6 
  646000    1.1533362   -6.5754591    265.56573  0.034257705  0.035301898            3 
  647000    1.1668772   -6.5779654    265.86244  0.034242973  0.035292258            2 
  648000    1.1422527   -6.5092292    266.70905  0.034299004  0.035282708            5 
  649000    1.1250622   -6.5597181    266.83799   0.03426271  0.035272802            3 
  650000    1.1457333    -6.577817     266.8137  0.034206884  0.035263043            7 
  651000     1.162797   -6.5470455    267.40525  0.034230063  0.035253111            2 
  652000    1.1445521   -6.5682156    267.50896  0.034190818  0.035242349            5 
  653000    1.1351955   -6.5507377    267.84372  0.034181179  0.035231802            2 
  654000    1.1462143    -6.584716    267.37956  0.034069771  0.035220966            2 
  655000    1.1332959   -6.6193578    267.45661  0.034027558  0.035210092            1 
  656000    1.1484581   -6.5608611    268.44292  0.034100981  0.035199444            2 
  657000    1.1572224   -6.5468204    268.47616  0.034053292  0.035189054            1 
  658000    1.1360119   -6.5614523    268.33558  0.033983736   0.03517841            2 
  659000    1.1291381   -6.6210972    269.15432  0.034035701  0.035167413            3 
  660000    1.1402469   -6.5598639    269.66214   0.03404825  0.035156858            5 
  661000    1.1385787   -6.5795649    270.31965  0.034079634  0.035146298            1 
  662000    1.1492706   -6.5734938    270.71732  0.034078213  0.035135933            4 
  663000    1.1417516   -6.5727396    271.48754  0.034123622  0.035125636            8 
  664000    1.1568521   -6.5952106    271.16381  0.034031603  0.035115721            3 
  665000    1.1435249   -6.5306486    273.98627  0.034334119  0.035105813            2 
  666000     1.134625   -6.5774501    272.06235  0.034041836  0.035095768            6 
  667000    1.1472392   -6.6074897    271.55785  0.033927767  0.035085861            5 
  668000    1.1636608   -6.5414575    273.61898  0.034134104  0.035075606            3 
  669000    1.1475818   -6.6204636    273.43558  0.034060237  0.035065282            4 
  670000    1.1180189   -6.5702122    273.82752  0.034058149   0.03505518            2 
  671000     1.139686   -6.5498204    274.13593  0.034045694  0.035045048            2 
  672000    1.1653896   -6.5574175    273.59782  0.033928301  0.035034528            2 
  673000     1.142003   -6.5730911    274.73114  0.034018219  0.035024414            3 
  674000     1.154472   -6.5985423    275.37239  0.034047032  0.035013909            3 
  675000    1.1454144   -6.6034361    275.63679  0.034029233  0.035002956            5 
  676000    1.1527355   -6.5765334    274.46771  0.033834777  0.034992169            3 
  677000    1.1557709   -6.5149166    275.62875  0.033927714   0.03498192            2 
  678000    1.1322135   -6.5879135    275.37121  0.033846019  0.034971329            3 
  679000    1.1438749   -6.5737156    276.50951  0.033935874   0.03496041            5 
  680000    1.1582484   -6.5689851    277.49234  0.034006415   0.03494973            4 
  681000    1.1297581   -6.5906586    276.75448  0.033866187  0.034939335            2 
  682000    1.1424048   -6.5913317    277.15492  0.033865459  0.034928324            3 
  683000     1.151848   -6.5556418    278.63102  0.033995976  0.034917545            4 
  684000    1.1418839   -6.5226915    278.83643    0.0339713  0.034907013            4 
  685000    1.1464932   -6.5607501    278.81375  0.033918948  0.034896541            5 
  686000    1.1406548   -6.5692564    277.95096  0.033764694  0.034886074            4 
  687000     1.125286   -6.5615615    279.59513  0.033914984  0.034875443            2 
  688000    1.1487628   -6.5712165    279.66536  0.033874196  0.034864883            3 
  689000    1.1462706   -6.5976524    279.42204  0.033795602  0.034854192            2 
  690000    1.1290642   -6.5703278    280.11709  0.033830567  0.034843697            2 
  691000    1.1459925    -6.587871    280.36787  0.033811851  0.034833969            1 
  692000    1.1219414   -6.5669626      280.613  0.033792509  0.034823712            3 
  693000     1.144678    -6.580052    280.93079  0.033781961  0.034813389            5 
  694000    1.1621616   -6.5400064     282.1685  0.033881904  0.034803109            2 
  695000    1.1364236   -6.5928639    281.33675  0.033733423  0.034793209            2 
  696000    1.1431113   -6.5817611    282.26566  0.033796175  0.034783953            3 
  697000    1.1337704   -6.5391749    283.22738  0.033862671  0.034774077            2 
  698000    1.1268065   -6.5697718    283.44637  0.033840302  0.034763889            2 
  699000    1.1520446   -6.5778048    284.25154  0.033887881  0.034753494            2 
  700000    1.1596389   -6.6179314    283.29257  0.033725306  0.034743332            3 
  701000     1.134084   -6.5580677    283.91458  0.033751139  0.034732919            2 
  702000    1.1429841   -6.5654167     284.6122  0.033785874  0.034723021            3 
  703000    1.1229964   -6.5946011    284.60461  0.033736914  0.034712811            4 
  704000    1.1198169   -6.6357023    284.80242  0.033712407   0.03470259            4 
  705000    1.1433067   -6.5511346    285.99428  0.033805471   0.03469257            5 
  706000    1.1360299   -6.5821225    286.10663  0.033770849  0.034682822            3 
  707000    1.1229605   -6.5335469    287.01109   0.03382969  0.034672739            4 
  708000    1.1655002   -6.5859142    286.49816  0.033721535  0.034662935            5 
  709000    1.1458699   -6.5552425    287.16018  0.033751784  0.034652775            5 
  710000    1.1547368   -6.6076376    286.83604  0.033666202  0.034642378            5 
  711000    1.1389124   -6.5844156    286.43065  0.033571337  0.034631984            4 
  712000    1.1242827   -6.5752334     288.0398  0.033712524  0.034621341            4 
  713000    1.1357423   -6.5172719    289.42373   0.03382699  0.034610801            2 
  714000    1.1309773   -6.6179082    288.07792   0.03362254  0.034600544            3 
  715000    1.1512054   -6.5409783    289.12594  0.033697663  0.034590468            4 
  716000    1.1505212   -6.5774713    288.20249  0.033543121  0.034579784            5 
  717000    1.1346686   -6.6094198    289.09504  0.033600075  0.034568696            6 
  718000    1.1268587   -6.5780213    288.94151  0.033535458  0.034557767            5 
  719000    1.1300631   -6.5658134    289.49821  0.033553339  0.034547106            2 
  720000    1.1486835   -6.5841814     290.3882  0.033609745  0.034536131            2 
  721000    1.1416208   -6.5247707    291.42892  0.033683416  0.034525781            3 
  722000    1.1398866   -6.5386054    291.14327  0.033603794  0.034515232            3 
  723000    1.1324562   -6.5940415     291.7553  0.033627858  0.034505033            7 
  724000    1.1354683   -6.6020719    291.43688   0.03354476  0.034494649            5 
  725000    1.1577018   -6.5865051    291.35259  0.033488803   0.03448453            7 
  726000     1.114137   -6.5868875    292.36462  0.033558841  0.034474238            4 
  727000    1.1382463    -6.563626    292.64187   0.03354446  0.034464558            1 
  728000     1.117545   -6.5966894     293.3858   0.03358354  0.034454847            6 
  729000    1.1457185    -6.562882    294.16496  0.033626539  0.034445254            8 
  730000    1.1253636   -6.5955485    293.70776  0.033528283  0.034435846            2 
  731000    1.1022644   -6.6042255    295.45851  0.033682001  0.034426178            2 
  732000    1.1383308   -6.5597438    295.11203  0.033596543  0.034416617            4 
  733000    1.1264752   -6.6091838    294.32118  0.033460798    0.0344067            3 
  734000    1.1374426    -6.568565    294.71408  0.033459818  0.034396595            4 
  735000     1.108453   -6.6410545    293.98082  0.033331159  0.034386112            7 
  736000    1.1381723   -6.5715999    295.90152  0.033503342  0.034376096            7 
  737000    1.1310875    -6.574659    296.06015  0.033475819   0.03436615            2 
  738000    1.1405897   -6.6302012    296.27089  0.033454255  0.034356279            2 
  739000    1.1276161   -6.5738512    297.51603  0.033549395  0.034346114            2 
  740000    1.1450247   -6.5731408    297.51728  0.033504199  0.034336429            3 
  741000    1.1499894   -6.5844948    298.24111  0.033540386  0.034326493            4 
  742000    1.1330349   -6.5939668    297.44205  0.033405441  0.034316578            5 
  743000    1.1053662   -6.5630527    298.98456  0.033533486  0.034306609            3 
  744000    1.1423696   -6.6205351    298.76843  0.033464206  0.034296412            4 
  745000     1.113107   -6.6205296    298.50621  0.033389957  0.034286008            3 
  746000    1.1379162   -6.5524882    300.14243  0.033527974  0.034276095            2 
  747000    1.1184216   -6.5550259    298.86991  0.033341132  0.034266353            2 
  748000    1.1304502    -6.612148    298.97313  0.033308058  0.034256273            4 
  749000    1.1450837   -6.6230887     299.7154  0.033346172  0.034245508            6 
  750000    1.1290292   -6.6042775    300.29257  0.033365841   0.03423507            5 
  751000    1.1230471   -6.6196064    300.30816  0.033323143  0.034224632            2 
  752000    1.1375312   -6.6039708    300.32805  0.033281034  0.034214239            2 
  753000    1.1271885   -6.6078112       300.71  0.033279106  0.034203833            2 
  754000    1.1361059   -6.6233938    301.54447  0.033327196  0.034193382            2 
  755000    1.1344638   -6.6060524    302.36799  0.033373951  0.034183067            2 
  756000    1.1188567   -6.6140552    301.65401  0.033251104  0.034172839            3 
  757000    1.1182339   -6.6282547    301.70603  0.033212905  0.034162623            2 
  758000    1.1296112   -6.6002046    303.13645  0.033326347  0.034152735            3 
  759000    1.1301191   -6.5847594    303.13995  0.033282823  0.034142825            5 
  760000    1.1336315   -6.5574315    304.79724   0.03342075  0.034133442            3 
  761000      1.10322    -6.604319    304.44824  0.033338616  0.034124016            2 
  762000    1.1215955   -6.5954909    305.20211  0.033377308  0.034114508            3 
  763000    1.1458478   -6.5945607    304.87553  0.033297896  0.034104921            2 
  764000    1.1186777   -6.6084754    304.25796   0.03318695  0.034095187            2 
  765000     1.098349   -6.6686309    304.49974  0.033169907  0.034085234            1 
  766000    1.1479554   -6.6047387    304.46876  0.033123233  0.034074756            3 
  767000    1.1225355   -6.6033221    305.56283  0.033198917  0.034064311            3 
  768000    1.1242302   -6.6188334     306.9833   0.03330982  0.034054436            3 
  769000    1.1467008   -6.6079025    305.74866  0.033132711  0.034044869            4 
  770000    1.1066866   -6.6219448    307.66663  0.033297254   0.03403529            3 
  771000    1.1144566   -6.6054328    307.95547  0.033285287  0.034025928            3 
  772000    1.1298754   -6.5951571    309.35365  0.033393097  0.034016802            4 
  773000    1.0999395   -6.5829214     308.9754   0.03330912  0.034008214            5 
  774000    1.1128214   -6.6124174    309.50199  0.033322781  0.033999368            2 
  775000    1.1334905    -6.619373    309.75474  0.033306961  0.033990518            5 
  776000    1.1272409   -6.5939631    310.38283  0.033331489  0.033981624            2 
  777000    1.1286288   -6.5938936    309.92595  0.033239592  0.033972643            4 
  778000    1.1361178   -6.6025037    310.50456  0.033258843  0.033963843            3 
  779000    1.1178352   -6.5881778    311.81389  0.033356214  0.033955325            8 
  780000    1.1464324   -6.6333155    310.64825  0.033188916   0.03394624            5 
  781000    1.1139203   -6.5836628    311.92256   0.03328239   0.03393757            4 
  782000    1.1458969    -6.577028    312.49785  0.033301135   0.03392926            3 
  783000    1.1437077   -6.6497379    310.90571  0.033089156  0.033920924            5 
  784000    1.1190237   -6.5871118    311.97137  0.033160222  0.033912177            2 
  785000    1.1167941   -6.6257205    313.12932  0.033240905   0.03390355            4 
  786000    1.1373271   -6.6540033    312.12381  0.033092006  0.033894368           10 
  787000    1.1291715   -6.6442832    313.28797  0.033173229   0.03388547            2 
  788000    1.1231535   -6.5942417    313.87123  0.033192812  0.033876763            4 
  789000    1.1126357   -6.6094549    314.67115  0.033235229  0.033868327            7 
  790000    1.1451648     -6.62713    315.04912  0.033233029  0.033859936            3 
  791000    1.1455192   -6.6241081    315.56497  0.033245362  0.033851845            1 
  792000     1.131887   -6.6481367    316.32061  0.033282892  0.033843491            2 
  793000    1.1194899   -6.5733829    317.45397  0.033360022  0.033835609            4 
  794000    1.1069941   -6.6397558    315.81572  0.033146066  0.033827639            2 
  795000    1.1176531   -6.6375256    316.57183   0.03318363    0.0338193            3 
  796000    1.0937435   -6.5849365    318.28786  0.033321593   0.03381137            2 
  797000    1.1205054   -6.6466535    317.22561  0.033168717  0.033803055            3 
  798000    1.1350033   -6.5738034    318.60636  0.033271341  0.033794935            3 
  799000    1.1035029   -6.5922796    318.93012  0.033263467  0.033787074            2 
  800000    1.1633797   -6.6499461    318.07362  0.033132668  0.033778725            4 
  801000    1.1229068   -6.6309948    318.41705  0.033127034  0.033770489            4 
  802000    1.1225071   -6.5917033    319.49191  0.033197413  0.033762168            2 
  803000    1.1532971   -6.6164206    320.26438  0.033236236   0.03375404            4 
  804000    1.1291675   -6.6233829    319.49325  0.033114972  0.033746217            4 
  805000    1.1421984   -6.5890653    321.62932  0.033294961   0.03373849            4 
  806000    1.1271417   -6.6163088    321.63333  0.033254066  0.033730634            4 
  807000    1.1298254   -6.6478633    321.09285  0.033157047  0.033722536            3 
  808000    1.1320097   -6.6352267    321.03871  0.033110428  0.033714339            4 
  809000    1.1351831   -6.5896819    322.10083  0.033178907  0.033706658            3 
  810000    1.1235674   -6.6192699    322.35459  0.033164052  0.033699074            3 
  811000    1.1153272   -6.6388024    322.14652  0.033101779  0.033691094            3 
  812000     1.146339   -6.6643623    322.46854  0.033094062  0.033683071            1 
  813000    1.1257392   -6.5983755    323.66804  0.033176305  0.033675757            3 
  814000     1.105359   -6.5900716    326.16158  0.033390825   0.03366847            3 
  815000    1.1154132   -6.6440443    323.89754  0.033118358  0.033661545            3 
  816000    1.1298408   -6.6239449    324.69894  0.033159614  0.033654207            4 
  817000    1.1493361   -6.6293506    324.36305  0.033084766    0.0336466            2 
  818000     1.129006   -6.5969428    324.90022  0.033099044  0.033639003            2 
  819000     1.084982   -6.6356894     324.8176  0.033050224  0.033631285            4 
  820000    1.1291022   -6.6332962    325.14224   0.03304291  0.033623392            4 
  821000    1.1453873     -6.61289    326.07482  0.033097322  0.033615874            3 
  822000    1.1149859   -6.6109651    327.14241  0.033165289  0.033608726            4 
  823000    1.1299947   -6.6565098    327.35148   0.03314616  0.033601293            5 
  824000    1.1351354   -6.6319365    326.75229  0.033045337  0.033593667            2 
  825000     1.130484   -6.6471072    327.32877  0.033063512  0.033585866            7 
  826000    1.1131481   -6.6207144    328.28912  0.033120371  0.033578716            2 
  827000    1.1385512    -6.620908      328.775  0.033129283  0.033571716            6 
  828000     1.156584    -6.645296    328.02273   0.03301356  0.033564116            1 
  829000    1.0979077   -6.5983182    329.89631  0.033162074  0.033556298            2 
  830000    1.1162556   -6.6308755    329.29964  0.033062213  0.033548699            2 
  831000    1.1176235   -6.6506521     328.7455  0.032966857  0.033541249            2 
  832000    1.1162038   -6.6257502    329.78624  0.033031475  0.033533486            2 
  833000    1.1038105   -6.6387836    330.41514  0.033054736  0.033525865            3 
  834000    1.0958969   -6.6345886     330.5207  0.033025649  0.033518277            6 
  835000    1.1130257   -6.6515633    330.38856   0.03297291  0.033510634            3 
  836000    1.1020808   -6.6610266    331.75484  0.033069661  0.033503034            3 
  837000    1.0959171   -6.6670698    330.75128  0.032930235  0.033495318            5 
  838000    1.1019567   -6.6223863    331.12926  0.032928526  0.033487565            5 
  839000    1.1313764   -6.6401951     332.3511  0.033010638  0.033479909            2 
  840000     1.110975   -6.6754367    332.57946  0.032993994  0.033472171            2 
  841000    1.1376679   -6.6034603    333.72048  0.033067824  0.033464935            4 
  842000    1.0995597   -6.6495855    333.74384  0.033030863  0.033457794            4 
  843000    1.1232889   -6.6396028    333.28066  0.032945893  0.033450487            7 
  844000    1.1117903   -6.6167573    333.28359  0.032907147  0.033443309            4 
  845000    1.1141095   -6.6298483     335.2413  0.033061272  0.033436436            1 
  846000    1.1015563   -6.6188368    334.86523  0.032985149  0.033429571            3 
  847000     1.108899   -6.6303759    333.90706  0.032851935  0.033421888            3 
  848000    1.1114724   -6.6467233    334.89506  0.032910285  0.033414522            3 
  849000    1.1296515   -6.6229014    336.22524  0.033002084  0.033407009            3 
  850000     1.113602   -6.6823691    334.93461  0.032836726  0.033399584            5 
  851000    1.1313466    -6.686921    335.26544  0.032830537  0.033391728            1 
  852000    1.1101127   -6.6163135    337.58549  0.033018925   0.03338437            6 
  853000    1.1201348   -6.6062758    337.98632  0.033019375  0.033377268            3 
  854000    1.1305972   -6.6820377    337.22731  0.032906646  0.033369857            5 
  855000    1.1248986   -6.6533603    337.00807  0.032846791  0.033362351            3 
  856000    1.1016204    -6.641585    337.69606  0.032875395  0.033354703            3 
  857000    1.1153315    -6.634627    337.85081  0.032852082   0.03334707            3 
  858000     1.128833   -6.6415306    339.33925  0.032958358  0.033339789            6 
  859000    1.1194025   -6.6276453    338.52257  0.032840762  0.033332536            2 
  860000    1.1047249   -6.6481686    339.70185  0.032916846  0.033325122            3 
  861000     1.118534   -6.5944179    340.55764  0.032961444   0.03331778            2 
  862000    1.1392425   -6.6173526    341.22988  0.032988194  0.033310835            2 
  863000    1.1302599   -6.6405355     340.7093  0.032899701  0.033303175            1 
  864000    1.1168706    -6.617865    339.82955   0.03277677  0.033295701            2 
  865000    1.1131367   -6.6192724    339.94445  0.032749947  0.033288173            4 
  866000    1.1178493   -6.6207568    341.07504  0.032820924  0.033280909            3 
  867000      1.11227   -6.6471036    341.47647  0.032821652  0.033273763            3 
  868000    1.1146552   -6.6525709    341.58228  0.032793997  0.033266062            3 
  869000    1.1306442   -6.6604127    342.37941  0.032832702  0.033258613            6 
  870000    1.1159522   -6.6397006    342.04337  0.032762775  0.033251047            4 
  871000    1.0962304   -6.6122863    343.33945  0.032849162  0.033243613            3 
  872000    1.1078438   -6.7073906     342.7421  0.032754405  0.033235932            4 
  873000    1.1103786   -6.6224375    344.54841   0.03288931  0.033228246            4 
  874000    1.1122598   -6.6394246    344.36968  0.032834637  0.033221143            3 
  875000    1.1224557   -6.6259526     344.9587  0.032853209    0.0332139            3 
  876000    1.0803632   -6.6771903    345.61139  0.032877796  0.033206819            3 
  877000    1.1156765   -6.6274458    346.01827  0.032878969   0.03319994            5 
  878000    1.1152718   -6.6401171    346.25081  0.032863592  0.033193174            2 
  879000     1.113793   -6.6354411    345.75212  0.032778927  0.033186056            4 
  880000    1.1302621   -6.6257559    347.16843  0.032875799  0.033179159            3 
  881000    1.1272376    -6.671882    347.33331  0.032854078  0.033171924            5 
  882000    1.0793428   -6.6581923    347.65459  0.032847184  0.033165022            4 
  883000    1.1266404   -6.6215999    348.19677  0.032861153  0.033157702            4 
  884000    1.1379855   -6.6830775    346.70055  0.032682933  0.033150692            2 
  885000    1.1054322   -6.6513814    347.15534  0.032688827  0.033143343            3 
  886000    1.1022366   -6.6618611    347.48595  0.032683027  0.033136045            3 
  887000    1.0996143   -6.6501863    348.22028  0.032715171  0.033129012            4 
  888000    1.1254772   -6.6339832    348.16565  0.032673203  0.033121752            5 
  889000    1.1310764   -6.6983147    348.73912  0.032690206  0.033114285            3 
  890000    1.1143047   -6.7073058    348.23341  0.032606125  0.033106545            7 
  891000    1.0821272   -6.6306364    350.63527  0.032794171  0.033098915            2 
  892000      1.08414    -6.627931     350.4468  0.032739798  0.033091764            2 
  893000    1.0793319   -6.6456062    351.02793  0.032757366  0.033084989            3 
  894000    1.1290594   -6.6214466    350.61915   0.03268262  0.033078118            7 
  895000    1.1132724   -6.6481044    351.22074  0.032702117  0.033071071            5 
  896000    1.1416951   -6.7147161    350.48397  0.032597095  0.033063849            5 
  897000    1.1147541   -6.6684607    351.81348   0.03268427  0.033056675            3 
  898000    1.0951198    -6.629256    353.01925  0.032759767  0.033049574            5 
  899000    1.0937936   -6.6486003    351.85887  0.032615764   0.03304231           11 
  900000    1.1135684   -6.6737132    352.91026  0.032676876  0.033034864            3 
  901000    1.0819531   -6.6798734    352.01063  0.032557402  0.033027381            2 
  902000    1.1152492    -6.638155    353.03151  0.032615624  0.033019833            4 
  903000    1.1159277   -6.6800376    352.31751  0.032513613  0.033012324            3 
  904000    1.1138386   -6.6534079    354.19774  0.032650972  0.033005119            4 
  905000    1.0847751   -6.6094964    354.80866  0.032671147  0.032998219            5 
  906000    1.1139038   -6.6513053    354.91471  0.032644841  0.032991138            3 
  907000    1.1116962   -6.6860826    354.20297  0.032543455  0.032983887            4 
  908000    1.1115239   -6.6366149    354.74856  0.032557687  0.032976073            5 
  909000    1.1278871   -6.6723497    355.14687  0.032558386  0.032968638            4 
  910000    1.0934299   -6.7221032    352.96082   0.03232242  0.032961048            3 
  911000    1.1010151   -6.6793854    354.71423  0.032447332  0.032953494            9 
  912000    1.1008745   -6.6441458    356.22901  0.032550166  0.032946109            2 
  913000    1.1069385   -6.6444989    356.52812  0.032541814  0.032938826            3 
  914000    1.1363147   -6.6942367    356.53293  0.032506649  0.032931329            5 
  915000    1.1118531     -6.60862    358.33309  0.032635072  0.032923953            3 
  916000    1.0960384   -6.6734216    356.99363  0.032477586  0.032916571            2 
  917000    1.1208279   -6.6122833    359.10982   0.03263448   0.03290901            6 
  918000    1.0734378   -6.6135908    358.51293  0.032544746  0.032901508            3 
  919000     1.093508   -6.6873399    356.99033  0.032371267  0.032893543            7 
  920000    1.1057118    -6.642215    358.85798  0.032505252  0.032885616            3 
  921000    1.1107224   -6.7153397    358.35505  0.032424452  0.032877728            6 
  922000     1.112215    -6.673985    359.54775  0.032497085  0.032870057            2 
  923000    1.1324057   -6.7051717    359.76136  0.032481163  0.032862505            2 
  924000    1.1155512   -6.6486448     360.2083  0.032486319  0.032854711            1 
  925000    1.1036678   -6.6820593     360.0673  0.032438495  0.032847024            2 
  926000    1.1142077    -6.707335    359.23101  0.032328204  0.032839468            3 
  927000    1.0904507   -6.7129928    358.45622   0.03222368  0.032831324            2 
  928000    1.1008541   -6.6515759    359.29717  0.032264473  0.032823148            3 
  929000    1.1057488   -6.7047851    360.34572    0.0323238  0.032814878            2 
  930000    1.0797213   -6.6576424    361.92365  0.032430434  0.032807084            2 
  931000    1.0908801   -6.6688443    360.65401  0.032281956  0.032799334            3 
  932000    1.0844451   -6.6769327    361.31644  0.032306549  0.032791409            3 
  933000     1.111219   -6.6452105    363.53589  0.032470158  0.032783682            3 
  934000    1.1109444   -6.6691583    362.82475  0.032371944  0.032776254            9 
  935000    1.0827655   -6.6642466    364.05343   0.03244683  0.032768667            2 
  936000    1.1052797   -6.6527118    364.77773   0.03247665   0.03276128            5 
  937000     1.131068   -6.6820941    362.78657  0.032264903  0.032753582            3 
  938000    1.0914614   -6.6784698    364.35557  0.032369897  0.032746509            7 
  939000    1.1025341   -6.6549209    364.48441  0.032346859  0.032739407            3 
  940000     1.099359   -6.6929455    364.14242  0.032282129  0.032731711            3 
  941000    1.1006668   -6.6703061    365.22567  0.032343754  0.032724285            9 
  942000    1.0885111   -6.6883643    365.42181   0.03232677  0.032716721            4 
  943000    1.1194041    -6.722486    365.15444  0.032268862  0.032709289            1 
  944000    1.1104587   -6.6860396    367.02662  0.032399949  0.032701761            2 
  945000    1.0999199   -6.6873288    367.67193  0.032422569  0.032694379            3 
  946000    1.0950159   -6.6462884    366.63175  0.032296666  0.032686692            5 
  947000    1.1011301   -6.6338379    368.23741  0.032403855  0.032679451            2 
  948000    1.0892998   -6.6935372    367.94486  0.032343957  0.032672582            4 
  949000    1.0923861   -6.6436918     368.9641  0.032399376  0.032665522            3 
  950000    1.0764817   -6.6582051    367.73829  0.032257744  0.032658603            4 
  951000    1.0809412   -6.6574102    369.47525   0.03237603  0.032651729            1 
  952000    1.0796557   -6.6113211     370.9063  0.032467288  0.032644819            4 
  953000    1.0816634   -6.6051126    370.66188  0.032411847  0.032638035            3 
  954000     1.093633   -6.7227539    369.90998  0.032312193  0.032631041            2 
  955000    1.1030295   -6.6936361    370.40089  0.032321194  0.032624072            4 
  956000    1.1260942   -6.6567149    370.77279  0.032319804  0.032616887            3 
  957000    1.1083532   -6.7038204    369.22701  0.032151429  0.032609521            3 
  958000    1.0681447   -6.7028612    369.44422  0.032136762  0.032601866            8 
  959000     1.109409   -6.6635566    371.13478  0.032250154  0.032594281            8 
  960000    1.1070325   -6.7234786    370.85916  0.032192635  0.032586803            4 
  961000     1.086822   -6.7411469    370.37156  0.032116854  0.032579203            3 
  962000    1.0928816   -6.6873484    371.78631  0.032206021  0.032571542            2 
  963000    1.0752884   -6.7035933     370.8249  0.032089382  0.032564075            5 
  964000    1.0947088   -6.6863306    372.44725  0.032196339  0.032556452            1 
  965000    1.0976062   -6.6970604    372.48045  0.032165842  0.032549029            3 
  966000    1.0972251    -6.692267    372.75014  0.032155809  0.032541567            4 
  967000    1.0855315   -6.6887957    373.37668  0.032176549  0.032534159            1 
  968000    1.0978754   -6.6978216    373.24193  0.032131709   0.03252673            5 
  969000     1.102554   -6.7268606    372.52799  0.032037151  0.032518967            3 
  970000    1.0968166   -6.7298806    372.71433  0.032020131  0.032511348            5 
  971000     1.098675   -6.7512443    372.71456  0.031987175  0.032503831            3 
  972000     1.065633   -6.6966326    374.77343  0.032130781  0.032496216            4 
  973000    1.0765124   -6.7110522    373.72339  0.032007827  0.032488727            2 
  974000    1.1122971   -6.7058695    374.77823  0.032065215  0.032481041            5 
  975000    1.1112576   -6.6930768     375.8169  0.032121102  0.032473595            4 
  976000    1.0747291   -6.6624369    376.84128  0.032175656   0.03246656            2 
  977000     1.116427   -6.6804376    375.46076  0.032024971  0.032459653            1 
  978000    1.0837278   -6.7214123    376.13138  0.032049368  0.032452437            7 
  979000    1.0945131   -6.7083854    376.64811  0.032060615  0.032445217            4 
  980000    1.1046801   -6.6907352    376.36092   0.03200348    0.0324378            3 
  981000    1.1090233   -6.7440734    378.00776  0.032110751  0.032430157            3 
  982000    1.1139014   -6.7047355    377.75832  0.032056884  0.032422441            4 
  983000     1.122742   -6.7270698     376.8195  0.031944684  0.032415009            5 
  984000    1.1040496   -6.7137618    378.50783  0.032055203  0.032407629            3 
  985000    1.0947827   -6.7132774    377.29777  0.031920285  0.032399926            3 
  986000    1.1046761   -6.6969011     379.1228  0.032042156  0.032392249            2 
  987000    1.0919317   -6.6907349    378.62953  0.031968046  0.032384781            2 
  988000    1.0978955   -6.7034594    379.01617    0.0319683  0.032377138            3 
  989000    1.0883011   -6.6700986    380.90172  0.032094853  0.032369892            3 
  990000    1.1072554     -6.69963    381.12495  0.032081225  0.032362611            6 
  991000    1.1028216   -6.6891544    380.56507  0.032001772  0.032355188            3 
  992000    1.0734875   -6.6927748    379.23743  0.031857983  0.032347566            4 
  993000    1.1054573   -6.7011516    380.66991  0.031946116  0.032339926            2 
  994000    1.0607085   -6.7121747    381.52406  0.031985585  0.032332293            2 
  995000    1.0902166   -6.7203605    379.28143  0.031765614  0.032324131            4 
  996000     1.107376   -6.6762087    382.12775  0.031971867  0.032316132            4 
  997000    1.1103194   -6.7166603    380.66985  0.031817941  0.032308533            7 
  998000    1.0788793   -6.6769178    382.62532  0.031949342  0.032300846            4 
  999000    1.0817229   -6.7406155    381.57243  0.031829532   0.03229293            5 
 1000000    1.0799781   -6.6502684    383.35145  0.031945954  0.032285234            1 
 1001000    1.0948984   -6.6782438    383.12495  0.031895184  0.032277494            3 
 1002000    1.0765548   -6.7088205    383.26282  0.031874819  0.032269871            3 
 1003000    1.0581629   -6.7020026    382.72479  0.031798337  0.032262053            8 
 1004000    1.1210283   -6.6994612    384.57897  0.031920565  0.032254459            4 
 1005000      1.10162   -6.7010364    384.45233  0.031878303  0.032246654            2 
 1006000    1.0646824   -6.7074524    383.95454   0.03180538  0.032238791            3 
 1007000    1.0841003   -6.7032318    383.47925  0.031734463  0.032230988            4 
 1008000    1.0742345   -6.7008425    384.20082  0.031762634   0.03222308            3 
 1009000    1.1059209    -6.712238    384.25164  0.031735352  0.032215251            4 
 1010000    1.0794485   -6.6633432    385.80936  0.031832456  0.032207453            4 
 1011000      1.09488   -6.7548967    385.77617  0.031798234  0.032199599            8 
 1012000    1.0838916   -6.7334204    385.10906  0.031711879  0.032191558            4 
 1013000    1.0832838   -6.7267494    385.33919  0.031699506  0.032183663            2 
 1014000     1.067705   -6.7073376    384.43098  0.031593605  0.032175865            1 
 1015000    1.0838532   -6.6852151    387.39281  0.031805649   0.03216807            5 
 1016000    1.0991746   -6.7240551    385.66694  0.031632787  0.032160524            6 
 1017000    1.1254308   -6.7418705    386.81038  0.031695377   0.03215263            3 
 1018000    1.1099884    -6.681439    388.75037  0.031823049  0.032144655            4 
 1019000    1.0750601   -6.7326796    387.77086  0.031711716  0.032136817            4 
 1020000    1.0986943   -6.7102884    388.36949  0.031729533  0.032129044            3 
 1021000    1.0633467    -6.746367    387.91308  0.031661205  0.032120977            5 
 1022000    1.0906277   -6.7385426    389.03189  0.031721452   0.03211301            6 
 1023000     1.087122    -6.720568    388.97679  0.031685956  0.032105347            4 
 1024000    1.1082112     -6.68561    388.47483  0.031614162   0.03209781            4 
 1025000    1.0792988   -6.7343888    388.84226  0.031613192  0.032090147            2 
 1026000    1.0785138   -6.7280434    389.33682  0.031622549  0.032082501            4 
 1027000    1.0941805   -6.7497095    390.72496  0.031704395  0.032074859            4 
 1028000    1.0960697   -6.6948634    393.78359  0.031921497  0.032067594            3 
 1029000    1.0868479   -6.7192753    390.50117   0.03162465  0.032060234            5 
 1030000    1.0859653   -6.7410009    391.34142  0.031661927  0.032052889            4 
 1031000    1.0872508   -6.6826832    391.94614  0.031680095  0.032045518            2 
 1032000    1.0858494   -6.7242702    391.23452  0.031591934  0.032038144            4 
 1033000    1.0786462   -6.6921412    392.47412  0.031661352  0.032031119            6 
 1034000     1.091011   -6.6912498    394.53682  0.031796971   0.03202401            3 
 1035000    1.0824725    -6.706952    394.96209   0.03180049  0.032016924            1 
 1036000    1.0685897   -6.7262966    393.08675  0.031618947  0.032009714            3 
 1037000    1.0905965   -6.7285514    393.33512  0.031608415  0.032002054            4 
 1038000     1.080485   -6.6800515    395.11542  0.031720891  0.031994706            4 
 1039000     1.087955   -6.7080939    395.09044  0.031688357  0.031987672            7 
 1040000    1.0876363   -6.7759703     394.1313  0.031581034  0.031980448            2 
 1041000    1.1001896   -6.6968994    396.32037  0.031725935  0.031973358            5 
 1042000    1.0621523   -6.7559036    394.95237  0.031586082  0.031966074            3 
 1043000    1.0897465   -6.7276528    395.94988  0.031635497  0.031958766            3 
 1044000    1.0737933   -6.6965089    396.58017  0.031655505  0.031951524            3 
 1045000    1.0735015   -6.7207631    397.33773  0.031685625  0.031944157            2 
 1046000    1.0910736   -6.6960224     397.1166  0.031637715   0.03193711            5 
 1047000    1.0894006   -6.7569766    396.48978  0.031557607  0.031929811            5 
 1048000    1.0994067   -6.7258573    397.53718  0.031610781  0.031922408            4 
 1049000    1.0701537   -6.7546375    397.53194   0.03158023  0.031915184            2 
 1050000    1.1102488   -6.7494164    397.71599  0.031564761  0.031907783            7 
 1051000    1.0872833   -6.7334143    397.69413  0.031532994  0.031900068            4 
 1052000    1.0789438   -6.7266985    399.28757  0.031629244  0.031892644            4 
 1053000    1.0730463   -6.7621198    397.78085  0.031479966   0.03188493            4 
 1054000    1.0763379   -6.7763098    396.30793  0.031333644  0.031877285            3 
 1055000    1.0739383   -6.7020431    399.80027    0.0315798  0.031869746            4 
 1056000    1.0829154   -6.6819315    399.48726  0.031525194  0.031862516            2 
 1057000    1.0961382   -6.7079043    400.30466  0.031559812  0.031855036            3 
 1058000    1.0855138   -6.7214245    398.79992  0.031411462  0.031847526            2 
 1059000    1.0472976   -6.7136351     401.0493  0.031558806  0.031839815            2 
 1060000    1.0891897   -6.7220643    400.26789  0.031467602  0.031831965            5 
 1061000    1.0879715    -6.723441    400.75485   0.03147619   0.03182413            3 
 1062000    1.0651775   -6.7172707    400.18569   0.03140189  0.031816284            3 
 1063000     1.073986   -6.7187977    401.14301  0.031447398  0.031808282            3 
 1064000    1.0766912   -6.7017842    401.56311  0.031450745  0.031800329            7 
 1065000    1.0721104    -6.722934    401.78774   0.03143879  0.031792508            2 
 1066000    1.0995003   -6.7457418    399.85606  0.031258291  0.031784516            3 
 1067000    1.0746478    -6.715834    400.57355  0.031285032  0.031776321            2 
 1068000      1.06525   -6.7216857    402.01754   0.03136841   0.03176826            6 
 1069000    1.0771639   -6.7280442    401.20532   0.03127575  0.031759951            2 
 1070000    1.0813185   -6.7289099    403.39476  0.031417037  0.031751903            5 
 1071000    1.0790933   -6.7324898     401.6616  0.031252848  0.031743661            5 
 1072000    1.0777969   -6.7390341    401.21205  0.031188748  0.031735415            8 
 1073000     1.107149   -6.7201772    403.24478  0.031317551  0.031727342            3 
 1074000    1.0724642   -6.7437289    403.06789  0.031274666  0.031719388            6 
 1075000    1.0601524   -6.7268614    403.54448  0.031282518  0.031711216            4 
 1076000     1.082083   -6.7430172    404.33734   0.03131485   0.03170311            2 
 1077000    1.0796104   -6.7489182    403.93148   0.03125437  0.031695081            4 
 1078000    1.0684387   -6.7167524    403.12759  0.031163234  0.031686795            2 
 1079000    1.0838769   -6.7182634    404.48596  0.031239262  0.031678391            4 
 1080000    1.0797837   -6.7543974    404.45307  0.031207799  0.031670225            4 
 1081000    1.0860166   -6.7606772    403.48607  0.031104384  0.031662211            3 
 1082000    1.0611245   -6.7428415    405.07048  0.031197665  0.031654284            3 
 1083000    1.0696526   -6.7266488    404.48413   0.03112374  0.031646139            3 
 1084000    1.0926137   -6.7307166    405.66971  0.031186171  0.031638026            3 
 1085000    1.0822888     -6.76186    405.64948  0.031155874  0.031630132            3 
 1086000    1.0716821   -6.7050734    408.24841  0.031326612  0.031622239            3 
 1087000    1.0704245   -6.7180143    407.38968  0.031231959  0.031614421            3 
 1088000    1.0750726   -6.6963277     408.5466  0.031291865   0.03160658            6 
 1089000    1.0835546   -6.7021165    408.45815  0.031256363  0.031598788            4 
 1090000    1.1085014   -6.7501167    407.71087  0.031170556  0.031590851            2 
 1091000    1.0759643   -6.7381733     407.8808  0.031154965  0.031582653            3 
 1092000     1.083636   -6.6828181    408.69073  0.031188242  0.031574476            5 
 1093000    1.0706523   -6.7421358    407.25558  0.031050288  0.031566721            2 
 1094000    1.0655732    -6.757594    406.90319  0.030995063  0.031558484            4 
 1095000    1.0798719   -6.7641742    408.37738  0.031078948  0.031550281            2 
 1096000    1.0660407   -6.7754878    408.82111   0.03108433  0.031542173            2 
 1097000    1.0864353   -6.7360777    409.91968  0.031139447  0.031534067            5 
 1098000    1.0592156   -6.7072167    411.03326  0.031195603  0.031526175            3 
 1099000    1.0607407   -6.7470168    410.02301  0.031090614  0.031518193            2 
 1100000    1.0727508   -6.7792176    410.63021  0.031108349  0.031510021            5 
 1101000    1.0734841   -6.7064502    411.31768  0.031132128  0.031502072            6 
 1102000    1.0526855   -6.7045605    411.16691  0.031092477  0.031494312            4 
 1103000    1.0662983   -6.7876263    410.37673  0.031004588  0.031486274            7 
 1104000    1.0986258   -6.7744854    410.84279  0.031011684   0.03147804            3 
 1105000    1.0606866   -6.7194949    411.78228  0.031054471  0.031470038            2 
 1106000    1.0814491   -6.7351696    411.80052  0.031027767  0.031461998            3 
 1107000    1.0656002   -6.7041079    412.77961  0.031073443   0.03145411            3 
 1108000    1.0838233   -6.7613245    411.87589  0.030977428   0.03144624            4 
 1109000    1.0726857   -6.7185212    413.64571  0.031082485  0.031438125            3 
 1110000    1.0763157   -6.7380388     414.4316  0.031113483   0.03143007            4 
 1111000    1.0836092   -6.7444326    413.59515  0.031022739  0.031422156            1 
 1112000    1.0989857   -6.6981849    415.34151  0.031125713  0.031414186            3 
 1113000    1.0861365   -6.7600964    413.78192  0.030980977  0.031406333            2 
 1114000    1.0653363   -6.7340525     414.9294  0.031039003  0.031398164            3 
 1115000    1.0685126   -6.7488664    413.33296  0.030891851  0.031390177            3 
 1116000    1.0718695   -6.7311152    416.34439  0.031089038  0.031382147            3 
 1117000    1.0718854   -6.7523405    414.68552  0.030937446  0.031374091            3 
 1118000    1.0724313   -6.7836201    414.90316  0.030925996  0.031365934            4 
 1119000    1.0774045   -6.7480099    415.33837  0.030930769  0.031357716            3 
 1120000    1.0890393   -6.7503932    417.12106  0.031035793  0.031349657            4 
 1121000    1.0666872   -6.7785488    415.55201  0.030891467  0.031341436            3 
 1122000    1.0559018   -6.7857621    415.26341  0.030842499  0.031333281           15 
 1123000    1.0639118   -6.7385358    417.62549  0.030990315  0.031325194            5 
 1124000    1.0739254   -6.7836587    415.68687  0.030819015  0.031317186            3 
 1125000     1.077214   -6.7559017    416.38169  0.030843088  0.031309157            2 
 1126000    1.0722442   -6.7115361      418.697  0.030987049   0.03130141            2 
 1127000    1.0692288   -6.7127036    419.51831  0.031020283  0.031293662            5 
 1128000    1.0695057   -6.7207736    418.89669  0.030946859    0.0312858            2 
 1129000    1.0561454   -6.7823812    417.73121  0.030833422   0.03127776            2 
 1130000    1.0543978   -6.7444893    419.26193  0.030919022  0.031269652            3 
 1131000    1.0902795   -6.7400542     419.1834  0.030885897  0.031261808            4 
 1132000    1.0719102   -6.7639127    420.05849  0.030923034  0.031254021            5 
 1133000    1.0867062   -6.7333875    420.07166  0.030896709  0.031246278            5 
 1134000    1.0872628   -6.7498501    419.69591  0.030841851  0.031238452            2 
 1135000    1.0590994   -6.7772277    419.91031  0.030830419  0.031230451            4 
 1136000    1.0794372   -6.7860107    419.29415   0.03075808  0.031222498            2 
 1137000    1.0596069   -6.7755201    420.25379  0.030801362  0.031214582            4 
 1138000    1.0659859   -6.7576216    420.79429  0.030813876  0.031206323            4 
 1139000      1.08138     -6.80991    418.54406  0.030622188  0.031198064            4 
 1140000    1.0655818   -6.7675564    420.54617  0.030741679  0.031189752            2 
 1141000    1.0669449   -6.7698052    421.15685  0.030759338  0.031181716            4 
 1142000    1.0641976   -6.7970634    421.20856  0.030736176  0.031173812            1 
 1143000    1.0577849    -6.777037    421.27928  0.030714441  0.031165731            3 
 1144000    1.0723929   -6.7357678    422.68408  0.030789924    0.0311577            4 
 1145000    1.0668474   -6.7317496    422.70623  0.030764645   0.03114969            5 
 1146000    1.0864014   -6.7480067    422.50283   0.03072301  0.031141627            6 
 1147000    1.0660465    -6.748908    424.33922  0.030829644  0.031133419            2 
 1148000    1.0795038   -6.7378438    424.07271  0.030783443  0.031125451            9 
 1149000    1.0533302   -6.7670354    424.18919  0.030765099  0.031117379            6 
 1150000    1.0597802   -6.7844755     423.1876  0.030665768  0.031109363            3 
 1151000    1.0931346   -6.7468233    423.32857  0.030649332  0.031101447            3 
 1152000    1.0903216   -6.7949016    424.15339  0.030682392  0.031093505            3 
 1153000    1.0702094   -6.7507972    425.15943  0.030728493  0.031085653            4 
 1154000    1.0902362   -6.7693481    426.25071  0.030780669  0.031077931            3 
 1155000    1.0805461   -6.7785125     427.2353  0.030825058  0.031070432            4 
 1156000    1.0588083   -6.7898504    424.84913  0.030626379  0.031062657            6 
 1157000    1.0476906   -6.7767276    426.41605  0.030712767  0.031054864            4 
 1158000    1.0555091   -6.7763736    426.72658  0.030708591  0.031047004            7 
 1159000    1.0875626    -6.801541    426.50729  0.030666328  0.031039431            4 
 1160000    1.0434085   -6.7563012    428.18449   0.03076038  0.031031718            2 
 1161000    1.0733062   -6.7400433    427.47388   0.03068288  0.031023979            4 
 1162000    1.0677899   -6.7529236    427.00599   0.03062292  0.031016132            7 
 1163000    1.0364493   -6.7982144    426.30173  0.030546126  0.031008191            5 
 1164000    1.0647712   -6.7729722    427.71779  0.030621262   0.03100017            5 
 1165000      1.07623    -6.738727    428.61433  0.030659108  0.030992332            1 
 1166000    1.0765355   -6.7574992    429.30653  0.030682285  0.030984321            2 
 1167000    1.0651765   -6.7615411    428.47281  0.030596459  0.030976155            3 
 1168000    1.0819304   -6.7385871    428.57677  0.030577681  0.030968056            3 
 1169000    1.0711606   -6.7723483    428.86125  0.030571803  0.030960288            3 
 1170000    1.0576976   -6.7913241     428.8083  0.030541902  0.030952046            2 
 1171000    1.0428711   -6.7993527    428.62601  0.030502847  0.030944042            3 
 1172000    1.0815498   -6.8031066    429.15233  0.030514244   0.03093587            2 
 1173000      1.06749   -6.7590527    429.90144  0.030541449  0.030927703            3 
 1174000    1.0598678    -6.791711    429.24809  0.030469058  0.030919728            3 
 1175000    1.0556915   -6.7433142    430.30712  0.030518235  0.030911613            4 
 1176000    1.0384966    -6.800776    429.07685  0.030405105  0.030903257            3 
 1177000    1.0526819   -6.7744552    429.98318  0.030443442  0.030895091            4 
 1178000    1.0694291   -6.7658442    430.10765  0.030426404  0.030886885            4 
 1179000    1.0684698   -6.7760398    431.31816  0.030486158  0.030878571            4 
 1180000    1.0690604   -6.7250498     431.1648  0.030449491  0.030870417            4 
 1181000    1.0723085    -6.760952     430.7511  0.030394517  0.030862306            5 
 1182000    1.0582115   -6.7445197     431.4547  0.030418408  0.030854082            2 
 1183000    1.0774349    -6.792374    430.62016  0.030333908  0.030845667            2 
 1184000    1.0601192   -6.7669473    432.45716  0.030437581   0.03083727            3 
 1185000     1.074672   -6.7512885    432.57804  0.030420397  0.030828773            5 
 1186000    1.0819799   -6.8125962    431.58524  0.030324989  0.030820324            3 
 1187000    1.0612166   -6.7743556    431.53632  0.030296007  0.030811788            3 
 1188000    1.0552593    -6.766493    433.33428  0.030396625   0.03080348            3 
 1189000    1.0623693   -6.7743289    432.79286  0.030333113  0.030794943            4 
 1190000    1.0579742    -6.787967    432.27169  0.030271127  0.030786486            3 
 1191000    1.0447928   -6.8294488    431.75452  0.030209524  0.030777851            7 
 1192000    1.0765677   -6.7965863    433.14256   0.03028122  0.030769145            3 
 1193000    1.0820571   -6.7690506    433.98021  0.030314348  0.030760505            4 
 1194000     1.055032   -6.7742906    433.58431  0.030261328  0.030752124            3 
 1195000    1.0555945   -6.7833514    433.56062  0.030234353  0.030743634            6 
 1196000    1.0539573   -6.7619282    434.25467  0.030257432     0.030735            3 
 1197000    1.0545145   -6.8116909    433.04607  0.030148014  0.030726383            2 
 1198000     1.065907    -6.785042    436.20537  0.030342611   0.03071788            2 
 1199000    1.0621173    -6.814123    433.98105  0.030162709  0.030709334            2 
 1200000    1.0413637   -6.7594039      435.969  0.030275625  0.030700972            3 
 1201000    1.0723306   -6.7753029    436.24862  0.030269818  0.030692582            2 
 1202000    1.0470987     -6.80565    434.52426  0.030125087  0.030683997            2 
 1203000     1.063498   -6.7642494    436.05015  0.030205746  0.030675375            5 
 1204000    1.0745322   -6.7824423    434.58855  0.030079495  0.030666757            3 
 1205000    1.0661886   -6.7583697      436.563  0.030191078  0.030658135            3 
 1206000    1.0355421      -6.8074    435.26669  0.030076471  0.030649225            5 
 1207000    1.0496152   -6.7442087    434.97338  0.030031302  0.030640272            3 
 1208000    1.0696879   -6.8057345    437.04184  0.030149133  0.030631492            5 
 1209000    1.0832345   -6.8095897    437.21675  0.030136252  0.030622528            1 
 1210000      1.06986   -6.8716142    435.60567  0.030000391  0.030613406            4 
 1211000    1.0713254   -6.8029951    436.08604  0.030008673  0.030604359            2 
 1212000    1.0820499   -6.8074261    437.45316  0.030077913  0.030595347            2 
 1213000    1.0492986   -6.7963733     436.4046   0.02998108  0.030586193            4 
 1214000    1.0317916    -6.801727     436.8715  0.029988434  0.030577181            3 
 1215000     1.040101   -6.8116756    436.83027  0.029960924  0.030568029            6 
 1216000    1.0715971    -6.783686    438.09324  0.030022837  0.030559191            2 
 1217000    1.0938758   -6.7731649     439.5617  0.030098719  0.030550526            7 
 1218000    1.0422413   -6.8057191    439.95517  0.030100928  0.030541663            4 
 1219000    1.0733614   -6.8578047    438.52257    0.0299783  0.030533049            2 
 1220000    1.0623452   -6.7996264    438.98316  0.029985189  0.030524242            3 
 1221000     1.073144   -6.7823821    440.57724  0.030069427  0.030515598            3 
 1222000    1.0581289   -6.7860626    439.82805  0.029993729   0.03050709            6 
 1223000    1.0816743   -6.8300402    440.73829  0.030031227  0.030498538            3 
 1224000    1.0251197   -6.8141557    441.46628  0.030056255  0.030490019            3 
 1225000    1.0561322   -6.7583393    442.20285  0.030081827  0.030481818            2 
 1226000    1.0497304    -6.807608    440.69478  0.029954784  0.030473381            3 
 1227000     1.032871   -6.8396778    440.51828  0.029918384  0.030464834            8 
 1228000    1.0441123     -6.76766    441.92045  0.029989173  0.030456653            3 
 1229000    1.0654743   -6.7772059    442.25773  0.029987641  0.030448227            3 
 1230000    1.0527037   -6.8259137    441.41625   0.02990625  0.030439755            7 
 1231000    1.0422787    -6.786993    442.67371  0.029967081  0.030431054            5 
 1232000    1.0901142   -6.8195273    441.89598   0.02989015  0.030422327            4 
 1233000    1.0426101   -6.7719787    443.17832  0.029952576  0.030413607            1 
 1234000    1.0420864   -6.8211667     443.3327  0.029938729  0.030404756            7 
 1235000    1.0695034    -6.805569    442.85508  0.029882259  0.030395829            9 
 1236000    1.0407509   -6.7854463    442.40545  0.029827768  0.030386964            5 
 1237000     1.068911    -6.791332    443.04538  0.029846765  0.030378037            2 
 1238000    1.0777941   -6.7800338    444.03816  0.029889483   0.03036917            2 
 1239000    1.0372215   -6.8400723    442.89019  0.029788148  0.030360215            4 
 1240000    1.0386204   -6.7947205    443.06564  0.029775917  0.030351233            5 
 1241000    1.0495061   -6.8166076     443.2823  0.029766472  0.030342414            3 
 1242000    1.0535154   -6.7799357    443.54458  0.029760104  0.030333413            5 
 1243000    1.0691542   -6.7993751    443.77206  0.029751412  0.030324508            2 
 1244000    1.0433141    -6.781376    444.25372  0.029759761  0.030315594            4 
 1245000    1.0852534   -6.8219162    443.26352   0.02966958  0.030306787           13 
 1246000    1.0704004   -6.8142806    444.68976  0.029741156  0.030297519            7 
 1247000    1.0761702   -6.8184158     445.4325  0.029766941  0.030288839            5 
 1248000    1.0669739    -6.793246     447.4656  0.029878846  0.030280027            7 
 1249000    1.0519824    -6.801123    446.43015  0.029785839  0.030271212            6 
 1250000    1.0538297   -6.7999174    445.24746  0.029683164  0.030262446            8 
 1251000    1.0546723   -6.7993333    447.42396   0.02980442  0.030253716            2 
 1252000    1.0447496   -6.7610306    447.38404  0.029777958  0.030244949            3 
 1253000    1.0651451   -6.8062175    445.55671  0.029632662  0.030236046            3 
 1254000    1.0461537   -6.8032404    446.79616  0.029691398  0.030226936            4 
 1255000    1.0528424   -6.8639906    446.15717   0.02962531   0.03021781            3 
 1256000    1.0341251   -6.8256435    446.36976  0.029615828  0.030208519            7 
 1257000    1.0346518   -6.8711839    445.67603  0.029546276  0.030199177            5 
 1258000    1.0406144   -6.8427469    446.79143  0.029596677  0.030190192           10 
 1259000    1.0491558   -6.8087217    448.21903  0.029667662  0.030181053            6 
 1260000    1.0667355   -6.8085881    446.85746  0.029554065  0.030171949            4 
 1261000    1.0292653   -6.7805299    448.56812  0.029643677  0.030163121            3 
 1262000    1.0639248   -6.7896012    448.90143  0.029642197  0.030154198            4 
 1263000    1.0236081   -6.7830296     448.2113  0.029573192  0.030145164            3 
 1264000    1.0272086   -6.8310479    447.82953  0.029524626   0.03013619            5 
 1265000    1.0345417   -6.8032339    448.29017  0.029531632  0.030127107            4 
 1266000    1.0373787   -6.7836267    448.24787  0.029505521  0.030118077            3 
 1267000    1.0548652   -6.7904735    450.59489  0.029636602  0.030109284            3 
 1268000    1.0472607   -6.8775212    448.75384  0.029492235  0.030100215            3 
 1269000    1.0451587   -6.8407948    449.09438  0.029491356  0.030091116            2 
 1270000    1.0800964    -6.791791    450.88204  0.029585436  0.030082199            5 
 1271000    1.0331116    -6.841696    449.69331  0.029484219  0.030073181            6 
 1272000    1.0495538   -6.8096741    451.28943  0.029565607  0.030064252            3 
 1273000    1.0377852   -6.8372665    450.74771   0.02950692   0.03005525            7 
 1274000     1.051295    -6.850373    450.83145  0.029489237  0.030046309            4 
 1275000    1.0618319   -6.8264562    451.06297   0.02948124  0.030037275            2 
 1276000    1.0331341   -6.8663024     450.5922  0.029427391  0.030028286            5 
 1277000    1.0579137   -6.8082694    451.73547  0.029478953   0.03001922            3 
 1278000    1.0613368   -6.8560771    451.91391  0.029467522  0.030009986            4 
 1279000    1.0504227   -6.7941507    452.72816  0.029497534  0.030000871            2 
 1280000    1.0337815   -6.8260891    451.81533  0.029415061  0.029991747            5 
 1281000    1.0291615     -6.81062    452.87003   0.02946071  0.029982739            6 
 1282000    1.0439867   -6.7886191    453.62836  0.029487023  0.029973797            3 
 1283000    1.0534522   -6.8161446    452.96661  0.029421058  0.029964615            2 
 1284000    1.0588438   -6.8008524    454.03631   0.02946757  0.029955555            2 
 1285000    1.0444978    -6.820574    452.09637  0.029318831  0.029946569            1 
 1286000    1.0796429   -6.8418395    453.30653  0.029374451  0.029937522            5 
 1287000    1.0436571    -6.793118    455.88002  0.029518261  0.029928551            6 
 1288000    1.0418099   -6.8156236    456.00235  0.029503258   0.02991976            4 
 1289000     1.027178   -6.8781183    452.40079  0.029247529  0.029910989            3 
 1290000    1.0417412   -6.8378153    454.55058  0.029363733  0.029901981            3 
 1291000    1.0489403   -6.8257337    455.51124  0.029402997  0.029893116            4 
 1292000    1.0425661   -6.8088279    456.55584  0.029447616  0.029884167            3 
 1293000    1.0437078   -6.8296763    457.24927  0.029469532  0.029875434            3 
 1294000    1.0406632   -6.8061522    456.75261  0.029414774  0.029866651           11 
 1295000    1.0497327    -6.818992    456.06956  0.029348105  0.029857936            4 
 1296000     1.026667   -6.8481729     454.9943   0.02925632  0.029849166            6 
 1297000    1.0322621   -6.8545996    456.42686  0.029325807  0.029840169            4 
 1298000    1.0424899   -6.8916035    455.87653  0.029267882  0.029831044            5 
 1299000    1.0424903     -6.81554    457.39395  0.029342697  0.029822023            4 
 1300000    1.0532705   -6.8147509    457.43535  0.029322779  0.029812801            4 
 1301000    1.0611636   -6.8471757    457.43312  0.029300097  0.029803667            6 
 1302000    1.0468539   -6.8619148    457.39576  0.029275202  0.029794748            5 
 1303000    1.0595098   -6.8539275    457.31682  0.029247686  0.029785766            4 
 1304000    1.0270534   -6.8334924    458.72546  0.029315277  0.029776872            5 
 1305000    1.0536779   -6.8475195    458.68742  0.029290384  0.029767954            3 
 1306000    1.0389715   -6.8265593    459.51343  0.029320663  0.029759122            4 
 1307000    1.0415594   -6.8511473    459.45241  0.029294339  0.029750389            4 
 1308000    1.0353634   -6.8242002    459.29454  0.029261885    0.0297417            5 
 1309000     1.044747   -6.8126324     459.9773  0.029282996  0.029733001            2 
 1310000    1.0238132   -6.8648354    459.53665  0.029232611  0.029724339            5 
 1311000    1.0416803   -6.8463596    459.44815  0.029204688  0.029715665            3 
 1312000    1.0422637   -6.8337258    460.50151  0.029249334  0.029706956            5 
 1313000    1.0321581   -6.8129504    460.28495  0.029213312   0.02969836            4 
 1314000    1.0577857   -6.8579519    461.04018  0.029238976  0.029689866            7 
 1315000    1.0665085   -6.7898802    463.06467  0.029345036  0.029681237            2 
 1316000    1.0529546   -6.8480916    460.90209  0.029185796  0.029672676            2 
 1317000    1.0338771   -6.8379959    462.22521  0.029247355  0.029663839            4 
 1318000    1.0482891   -6.8079433    463.34019  0.029295662  0.029655124            4 
 1319000    1.0157173    -6.845069    461.89308  0.029182025  0.029646508           10 
 1320000    1.0456314   -6.8320922    461.45128  0.029132025  0.029637982            5 
 1321000    1.0402442   -6.8417778     462.8453  0.029197912  0.029629571            5 
 1322000    1.0396655   -6.8598873    462.01464  0.029123465  0.029620821            6 
 1323000    1.0178136   -6.8448511    462.25528  0.029116609  0.029612287            4 
 1324000    1.0565696   -6.8187499    464.38635  0.029228748  0.029603792            7 
 1325000    1.0177649   -6.8247465    463.93639  0.029178389   0.02959527            9 
 1326000    1.0232358   -6.8539206     463.9573  0.029157699  0.029586667            2 
 1327000    1.0487849   -6.8520399    463.66392  0.029117302  0.029577978            6 
 1328000    1.0232554   -6.8404388    465.10204   0.02918562  0.029569287            6 
 1329000    1.0491663   -6.8265466    464.00913   0.02909513  0.029560759            2 
 1330000    1.0423436   -6.8431298    464.76254   0.02912046  0.029552389            4 
 1331000    1.0456766   -6.8144755    466.25691  0.029192143  0.029544011            3 
 1332000    1.0343291   -6.8989811    465.30901  0.029110924  0.029535586            2 
 1333000    1.0450328   -6.8598796    464.70814  0.029051522  0.029526966            4 
 1334000    1.0303071   -6.8555921    466.32434  0.029130706  0.029518405            4 
 1335000    1.0211078   -6.8562637    466.58094  0.029124903   0.02951006            4 
 1336000    1.0456714   -6.8457768    465.72628  0.029049793  0.029501873            3 
 1337000    1.0368327   -6.8580203    466.88246  0.029100128  0.029493619            6 
 1338000    1.0412995   -6.8482789    467.30217   0.02910452  0.029485313            3 
 1339000    1.0504832   -6.8281665    469.46511  0.029217395  0.029477153            3 
 1340000    1.0194401   -6.8719443    467.28261  0.029059864  0.029468851            3 
 1341000    1.0425314   -6.8514674    467.93399  0.029078672  0.029460659            4 
 1342000    1.0494848   -6.8429116    468.38006  0.029084703  0.029452329            2 
 1343000    1.0357163   -6.8691424    469.03204  0.029103502  0.029444093            4 
 1344000    1.0139893   -6.8113808    469.85912   0.02913313  0.029435841            2 
 1345000     1.047869   -6.8453379    469.77137  0.029106033  0.029427555            3 
 1346000    1.0126533   -6.8208729    470.20811  0.029111448  0.029419212            5 
 1347000    1.0387615   -6.8839166    469.00764  0.029015568  0.029410896           17 
 1348000    1.0548984   -6.8183604    470.49365  0.029085908   0.02940257            5 
 1349000     1.061111    -6.877613    468.77814  0.028958373  0.029394422            4 
 1350000    1.0564184   -6.8356654    470.26132  0.029028476  0.029386025            6 
 1351000    1.0395861   -6.8486434    470.85665  0.029043711  0.029377545            3 
 1352000    1.0218539   -6.8620782    470.99362  0.029030672  0.029369218           12 
 1353000    1.0446219   -6.8636996    468.81091  0.028874779  0.029360846            4 
 1354000    1.0242633   -6.8447391    470.82454  0.028977384  0.029352473            3 
 1355000    1.0360697   -6.7986078    472.66918  0.029069445   0.02934447            4 
 1356000    1.0344763   -6.8169911    471.86287  0.028998456  0.029336391            5 
 1357000    1.0535042    -6.803285    473.68791  0.029089162  0.029328387            4 
 1358000    1.0211776   -6.8663622    471.58702  0.028938821  0.029320182            7 
 1359000    1.0348845    -6.832973    473.50435  0.029035096  0.029312099            7 
 1360000    1.0365989   -6.8717773    472.80175  0.028970695   0.02930382            2 
 1361000     1.038517   -6.8622014    472.68279  0.028942125  0.029295585            6 
 1362000    1.0444574   -6.8556258    475.07536  0.029067264  0.029287464            5 
 1363000    1.0385142   -6.8278244    474.24381  0.028995097  0.029279258            4 
 1364000    1.0379844   -6.8681797     472.6839  0.028878537  0.029271063            5 
 1365000    1.0286563   -6.8571543    474.34284   0.02895866   0.02926279            5 
 1366000    1.0630661   -6.8555041    474.23093  0.028930633  0.029254571            5 
 1367000    1.0314991   -6.8555262    474.85525  0.028947528  0.029246346            3 
 1368000    1.0412658   -6.8217643    474.74925  0.028919911  0.029238097            8 
 1369000    1.0193893    -6.828274    475.33044  0.028934164  0.029229944            5 
 1370000    1.0521105   -6.8570547    474.98844  0.028892241  0.029221807            7 
 1371000    1.0286477   -6.8927842    473.59688  0.028786584  0.029213542            3 
 1372000    1.0418554   -6.8676019    475.51257  0.028881959  0.029205305            3 
 1373000    1.0513583   -6.8586634    474.92088  0.028825011  0.029197118            5 
 1374000    1.0392673   -6.7907161    476.12255  0.028876914   0.02918898            2 
 1375000    1.0527032   -6.8943826    475.05306  0.028791094  0.029180887            7 
 1376000    1.0346759   -6.8945488    475.34506  0.028787855  0.029172494            4 
 1377000     1.024948   -6.9065456    475.04397  0.028748727  0.029163906            3 
 1378000     1.044282   -6.8690696    474.84076  0.028715576  0.029155434            4 
 1379000    1.0386958   -6.8842554    474.89039  0.028697751  0.029146791            2 
 1380000    1.0442773   -6.8812856    477.51398  0.028835385  0.029138186            2 
 1381000    1.0049879   -6.8864793    475.56805  0.028697082  0.029129464            3 
 1382000    1.0542665   -6.8907068     476.4982  0.028732405  0.029120957            3 
 1383000    1.0125416    -6.850264    477.38719  0.028765196   0.02911247            2 
 1384000    1.0343149   -6.8683525    479.11575  0.028848492  0.029104201            3 
 1385000    1.0262982   -6.8648559    476.61385  0.028677127  0.029095781            2 
 1386000    1.0161458   -6.8490594    478.19368  0.028751424  0.029087433            2 
 1387000    1.0509155   -6.8566374    477.79494  0.028706738  0.029079135            6 
 1388000    1.0322815   -6.8554311    479.86885   0.02881057  0.029070914            7 
 1389000    1.0322047   -6.8404706    477.83324  0.028667701    0.0290624            2 
 1390000    1.0434074   -6.8580217    478.85735  0.028708474  0.029053861            4 
 1391000    1.0206502   -6.8665692    477.99824  0.028636367  0.029045358            3 
 1392000    1.0097705   -6.8980303    477.19092  0.028567464  0.029036726            4 
 1393000    1.0147478   -6.8767316     478.6084  0.028631754  0.029027983            2 
 1394000    1.0217611   -6.8826768    478.69159  0.028616188  0.029019447            3 
 1395000    1.0250004    -6.861359    478.89861  0.028608041  0.029010842            4 
 1396000    1.0229064   -6.9082741      478.391  0.028557247    0.0290022            4 
 1397000    1.0393068   -6.9008523     478.9681   0.02857123   0.02899345            4 
 1398000    1.0246638   -6.8563775    479.13766    0.0285609  0.028984912            6 
 1399000    1.0360388   -6.8519082    479.57565  0.028566575  0.028976305            4 
 1400000    1.0121233   -6.8382968    481.07188  0.028635231  0.028967868            3 
 1401000    1.0330871    -6.846113    481.88138  0.028662942  0.028959615            5 
 1402000    1.0240841   -6.8275182    482.13759  0.028657727  0.028951131            4 
 1403000    1.0536645   -6.9008313    479.95416  0.028507612  0.028942601            2 
 1404000    1.0396316   -6.8534213    481.28825  0.028566492  0.028934124            2 
 1405000    1.0293341    -6.879191    481.43926  0.028555116  0.028925907            5 
 1406000    1.0280348   -6.8421885    482.09803  0.028573852  0.028917738            2 
 1407000    1.0237478   -6.8791527    482.27074  0.028563773  0.028909547            3 
 1408000    1.0336802   -6.8638321    481.68717  0.028508947  0.028901263            3 
 1409000   0.99838081   -6.8731941    482.36738  0.028528944  0.028892874            2 
 1410000    1.0218624   -6.8569828    483.61108  0.028582215  0.028884405            3 
 1411000    1.0451314   -6.8886678    483.77154  0.028571435  0.028875918            2 
 1412000     1.036328   -6.8446311    482.65394  0.028485242  0.028867563            9 
 1413000    1.0228486   -6.8748463    482.40611  0.028450466  0.028859032            2 
 1414000      1.03546   -6.8505378    483.58295  0.028499702  0.028850511           11 
 1415000    1.0355505   -6.8619671    483.07376  0.028449574   0.02884198            5 
 1416000    1.0229738   -6.8737345    483.20767  0.028437363  0.028833418            2 
 1417000    1.0183029   -6.8883926     483.0658  0.028408951   0.02882468            7 
 1418000    1.0163075   -6.8689874    482.42541  0.028351282  0.028815813            5 
 1419000     1.013315   -6.9043604    482.12412  0.028313608  0.028807175            5 
 1420000    1.0246577    -6.892925    484.47557  0.028431665  0.028798538            5 
 1421000    1.0184858   -6.9279098    483.47601  0.028353038  0.028789993            2 
 1422000    1.0439328   -6.8651309    484.91032  0.028417154  0.028781431            4 
 1423000    1.0257429   -6.9046738    483.70663  0.028326694  0.028772802            4 
 1424000    1.0001257     -6.90016    483.90466  0.028318391  0.028764116            5 
 1425000    1.0468098   -6.9049797     485.6874  0.028402772  0.028755514            6 
 1426000    1.0258412   -6.8776432    486.22292  0.028414149  0.028747074            6 
 1427000    1.0358826   -6.8695401    487.43916  0.028465263  0.028738629            4 
 1428000    1.0464602   -6.8591827    484.01477  0.028245493  0.028730142            9 
 1429000    1.0156292   -6.8795341    487.60835   0.02843529  0.028721758            4 
 1430000    1.0075077   -6.8567914    487.92626  0.028433931  0.028713382            3 
 1431000    1.0171019   -6.9361178     486.7163    0.0283436  0.028704985            4 
 1432000    1.0203289   -6.8825771    487.13818  0.028348358   0.02869653            4 
 1433000    1.0505755   -6.8802463    487.81322  0.028367831    0.0286881            6 
 1434000    1.0344378   -6.8681475    488.77075  0.028403693  0.028679687            5 
 1435000    1.0300784   -6.8836939    488.12518   0.02834641  0.028671272            2 
 1436000    1.0358811   -6.8936205    487.73622  0.028304098  0.028662893            4 
 1437000    1.0214318   -6.8572655    488.78373  0.028345148  0.028654613            5 
 1438000    1.0213344   -6.8955699    488.36359  0.028301089  0.028646302            4 
 1439000     1.030186    -6.875301    490.47889   0.02840392  0.028638039            3 
 1440000   0.99218074   -6.8612251     488.6904  0.028280695  0.028629658            4 
 1441000    1.0172774   -6.8945768    488.82499  0.028268852  0.028621254            6 
 1442000    1.0209964   -6.8957745    489.61096   0.02829467  0.028612955            3 
 1443000    1.0068127   -6.8907893    489.32755  0.028258694  0.028604773            7 
 1444000    1.0136318   -6.8966053    490.65017  0.028315453  0.028596532            3 
 1445000    1.0093184   -6.8925162     489.4871  0.028228783  0.028588277            5 
 1446000    1.0215683   -6.8882453    489.82864  0.028228944  0.028580179            5 
 1447000    1.0250858   -6.9073386     489.4955   0.02819025  0.028571892            6 
 1448000    1.0148005   -6.8688854    491.50503  0.028286431  0.028563612            8 
 1449000    1.0276972   -6.8780792    491.25752  0.028252676  0.028555323            5 
 1450000    1.0189661   -6.9371913    490.39049  0.028183362  0.028547002            2 
 1451000    0.9964743    -6.900875    491.49395  0.028227311  0.028538571            7 
 1452000    1.0149299   -6.8684154    493.10332  0.028300237  0.028530211            3 
 1453000    1.0251023   -6.9129378    491.02106  0.028161337  0.028521917            4 
 1454000    1.0159552   -6.9025939    492.00691   0.02819847  0.028513578            3 
 1455000    1.0345488   -6.9151448    490.74775  0.028106973  0.028505254            7 
 1456000    1.0269929   -6.9238084    492.15414  0.028168163  0.028496977            6 
 1457000    1.0022653   -6.9161685    493.15237  0.028205924  0.028488707            3 
 1458000    1.0237087   -6.8920381    491.62578  0.028099324  0.028480424            2 
 1459000    1.0382421   -6.8811159    493.23556  0.028172011  0.028472051            5 
 1460000    1.0081274   -6.8959904    492.98029  0.028138145   0.02846386            4 
 1461000    1.0396381   -6.8989908    492.67911  0.028101706  0.028455565            6 
 1462000    1.0165347   -6.8713828    494.42584  0.028182047  0.028447421            6 
 1463000    1.0265818   -6.8779651    494.54192  0.028169396  0.028439343            4 
 1464000    1.0214937   -6.9094891     495.6445  0.028212916  0.028431159            5 
 1465000    1.0110838   -6.8852581    496.19511  0.028224978  0.028423124            5 
 1466000    1.0008423   -6.8781651    495.01546  0.028138668  0.028415115            4 
 1467000    0.9883288   -6.9118922    494.93461  0.028114895   0.02840717            4 
 1468000    1.0073537   -6.9106014    495.17168  0.028109201  0.028398961            2 
 1469000    1.0183773   -6.9197503     495.8096  0.028126254   0.02839084            3 
 1470000    1.0265738   -6.8869924    496.05333  0.028120937  0.028383009            4 
 1471000    1.0081031   -6.9032767    497.08226   0.02816011   0.02837509            5 
 1472000    1.0013462   -6.9070853    497.63954  0.028172528  0.028367266            4 
 1473000    1.0069266   -6.8922536     498.5293   0.02820374  0.028359394            7 
 1474000    1.0177754   -6.8932818    498.49294   0.02818255  0.028351664            7 
 1475000    1.0333733   -6.9068459     498.2538  0.028149932  0.028343779            1 
 1476000    1.0049083   -6.8941101    499.51786  0.028202228  0.028335993            8 
 1477000    1.0023098   -6.8678333    500.36505  0.028230933  0.028328281            6 
 1478000    1.0000857    -6.907822    498.12925  0.028085772  0.028320464            6 
 1479000    1.0335397   -6.9616297    498.34651  0.028079024  0.028312698            2 
 1480000    1.0306177   -6.8981189    499.79719  0.028141734   0.02830469            2 
 1481000    1.0125232   -6.9381808    498.74501  0.028063528  0.028296656            7 
 1482000    1.0057889    -6.936262    500.90008  0.028165771  0.028288681            3 
 1483000   0.99900972   -6.9418321    499.50645  0.028068468   0.02828064            3 
 1484000    1.0299257   -6.9395838    500.35232  0.028097053  0.028272587            6 
 1485000   0.99937439   -6.9228195    499.83009  0.028048827  0.028264632            4 
 1486000    1.0202389   -6.9064632    499.87863  0.028032673  0.028256798            3 
 1487000    1.0259283   -6.8925833    501.52942  0.028106334   0.02824913            5 
 1488000       1.0119   -6.9463291    499.98591  0.028001003  0.028241138            5 
 1489000    1.0325652   -6.9392199    499.88134  0.027976346  0.028233178            3 
 1490000    1.0091739    -6.888898    500.82906  0.028010574  0.028225289            4 
 1491000     1.012413   -6.8779035    501.76391  0.028044037  0.028217423            4 
 1492000    1.0245329   -6.9080569    500.67356  0.027964341  0.028209339            6 
 1493000    1.0171299   -6.9461938     498.6715  0.027833863   0.02820129            4 
 1494000    1.0200579   -6.9072205    500.75856  0.027931647  0.028193138            2 
 1495000    1.0161041   -6.8934684     502.0397  0.027984375  0.028185065            5 
 1496000    1.0340778   -6.9157114    501.28056  0.027923382  0.028177106            7 
 1497000    1.0034384   -6.9117711    501.79929  0.027933605  0.028169173            4 
 1498000    1.0177326   -6.9089703    504.54403  0.028067648  0.028161219            3 
 1499000    1.0147539   -6.9007696    502.69805    0.0279463  0.028153382            6 
 1500000    1.0003924   -6.9162157    503.88175  0.027993431   0.02814559            8 
 1501000     1.006512   -6.9038639    503.54741  0.027956219  0.028137704            6 
 1502000   0.99633648   -6.9369447    502.49346  0.027879131  0.028129647            9 
 1503000   0.98815526   -6.8958479    504.74197   0.02798525  0.028121646            4 
 1504000    1.0118319   -6.9320512    502.78567  0.027858249  0.028113699            3 
 1505000     1.004215   -6.9356154    503.26686  0.027866382  0.028105607            3 
 1506000    1.0473847   -6.9695072    501.53045  0.027751795  0.028097538           10 
 1507000    1.0035027   -6.9141466     504.1528   0.02787839  0.028089553            4 
 1508000     1.034436   -6.9557866    501.70099  0.027724414  0.028081381            5 
 1509000   0.97413722   -6.9157887    503.06951  0.027781617  0.028073167            6 
 1510000    1.0256842   -6.9387691    503.52762    0.0277885   0.02806508            4 
 1511000    1.0166735    -6.961654    502.87684  0.027734218  0.028056882            4 
 1512000    1.0258677   -6.9488296    503.91178  0.027772915  0.028048729            5 
 1513000    0.9984105   -6.9111981    504.71915  0.027799028  0.028040584            2 
 1514000    1.0287839   -6.9171227    505.90999  0.027846213  0.028032548            3 
 1515000    1.0103849   -6.9340786    503.90032  0.027717289   0.02802454            4 
 1516000   0.99364263   -6.9267503    505.78424  0.027802564  0.028016465            4 
 1517000    1.0213405    -6.925767    506.01315  0.027796811  0.028008334            2 
 1518000    1.0049978   -6.9653722    504.14526  0.027675959  0.028000163            5 
 1519000    1.0201776   -6.9341737    505.64654    0.0277401  0.027991936            7 
 1520000    1.0124533   -6.9553682    504.84093  0.027677683  0.027983761            4 
 1521000    1.0095353   -6.9264578    505.60396  0.027701291  0.027975637            4 
 1522000    1.0228997   -6.8980399    504.68681  0.027632874  0.027967528            8 
 1523000    1.0065938   -6.9217101    506.17713  0.027696276  0.027959467            2 
 1524000    1.0159756   -6.9017542    508.35336    0.0277971  0.027951439            5 
 1525000    1.0046209   -6.9278881    505.84206  0.027641643  0.027943289            5 
 1526000    1.0071366   -6.9027087     506.9156  0.027682154  0.027935093            4 
 1527000    1.0086329   -6.9498817    506.37619  0.027634588  0.027926795            5 
 1528000   0.99813167   -6.8934528    507.72742  0.027690195  0.027918633            4 
 1529000    0.9755761   -6.9178682    508.48766   0.02771352  0.027910544            3 
 1530000    1.0140654    -6.946888    507.83183  0.027659686  0.027902343            3 
 1531000    1.0180971   -6.9506194    505.64946  0.027522831  0.027894053            5 
 1532000    1.0005926   -6.9516015    507.40066  0.027600123  0.027885868            5 
 1533000    1.0331303   -6.9241442    509.80105  0.027712603  0.027877766            4 
 1534000     1.031491   -6.8903661    508.33684  0.027614995   0.02786979            3 
 1535000    1.0065112   -6.9333461    508.48207   0.02760489  0.027861833            2 
 1536000   0.98353222   -6.9146202    509.53578  0.027644086   0.02785386            8 
 1537000   0.99693534   -6.9603085    508.37662  0.027563252  0.027845939            9 
 1538000   0.98252236   -6.9180247    511.03143  0.027689176  0.027837849            4 
 1539000    1.0272174   -6.9375646    508.56628  0.027537702  0.027829839            7 
 1540000    0.9869297    -6.917236    510.19541  0.027607977  0.027821766            5 
 1541000    1.0049145   -6.9803546    508.05199  0.027474151  0.027813625            5 
 1542000    1.0150318   -6.9281984     509.0037  0.027507766  0.027805438            5 
 1543000   0.98929612   -6.9204867    509.26961    0.0275043   0.02779728            5 
 1544000   0.98665555   -6.9102459    510.53729  0.027554905  0.027789243            1 
 1545000    0.9906817     -6.92872    510.75069  0.027548581  0.027781111            7 
 1546000    1.0231494   -6.9302222     509.7564  0.027477167  0.027773036            4 
 1547000    1.0018408   -6.9025897    511.63129  0.027560401  0.027764996            4 
 1548000    1.0213913   -6.9702884       510.25  0.027468238   0.02775683            9 
 1549000    1.0191132   -6.9524083    509.30964  0.027399916  0.027748485            5 
 1550000     1.021207   -6.9292902    511.82765  0.027517616  0.027740184           10 
 1551000    1.0006109   -6.9266396    511.28606  0.027470775  0.027731911            9 
 1552000   0.98290499   -6.9751915    509.67589  0.027366618  0.027723519            3 
 1553000    1.0079391   -6.9694053    510.12235  0.027372953   0.02771512            3 
 1554000   0.98652071   -6.9473208    509.96852  0.027347089  0.027706581            6 
 1555000   0.99343736   -6.9797614    510.00063  0.027331224  0.027698131            6 
 1556000   0.99805372   -6.9458147    510.73469  0.027352972  0.027689719            4 
 1557000   0.97938852   -6.9019163    512.99516  0.027456388  0.027681328            3 
 1558000    1.0054051   -6.9654968    511.41914  0.027354468  0.027672961            6 
 1559000    1.0307082   -6.9638842    510.08433  0.027265572  0.027664456            3 
 1560000   0.97276138   -6.9022413    512.01145  0.027351039  0.027655871            3 
 1561000    1.0068278   -6.9386326    512.31974  0.027349976   0.02764762            2 
 1562000    1.0156765   -6.9287821    514.00723  0.027422494  0.027639286            6 
 1563000   0.97205572   -6.9365529    511.82208  0.027288445  0.027630892            3 
 1564000   0.98794263   -6.9680185    511.49467  0.027253552  0.027622264            3 
 1565000    0.9932833   -6.9774096    510.44095  0.027180029  0.027613723            4 
 1566000   0.99697666   -6.9058961    513.68982  0.027335559  0.027605235            2 
 1567000    1.0241001   -6.9555038    512.84943  0.027273422  0.027596756            7 
 1568000    1.0265303   -6.9487609    512.43585  0.027234048   0.02758825            3 
 1569000    1.0225322   -6.9421015     512.7017   0.02723081  0.027579759            4 
 1570000    1.0227499   -6.9478845    512.94935  0.027226611  0.027571231            4 
 1571000    1.0043038   -6.9495577    513.13716  0.027219243  0.027562668            6 
 1572000    1.0193287   -6.9178844    513.48698  0.027220472  0.027554129            7 
 1573000    0.9930914   -6.9326168    513.61505  0.027209952  0.027545568            8 
 1574000   0.97600308   -6.9495205    512.91277  0.027155483  0.027536998            9 
 1575000    1.0065593   -6.9988709     512.4611  0.027114344  0.027528266            5 
 1576000    1.0112362   -6.9607594    513.62197  0.027158522  0.027519563            2 
 1577000    1.0087266   -6.9678899    514.07538   0.02716526  0.027510978            4 
 1578000   0.98871498   -6.9710281    513.89997  0.027138782  0.027502465            4 
 1579000   0.99883803   -6.9333139    514.20566  0.027137728  0.027493814            3 
 1580000    1.0084487   -7.0243909    513.29195   0.02707236  0.027485253            5 
 1581000   0.96640741   -6.9478667    515.57748  0.027175705  0.027476733            4 
 1582000   0.99464179   -6.9388163     515.0078  0.027128519  0.027468367            6 
 1583000    1.0153705   -6.9727728    513.80578  0.027048104  0.027459846            5 
 1584000   0.98968256   -6.9594528    514.05732  0.027044261   0.02745122            4 
 1585000    0.9938291   -6.9581101     516.0475  0.027131835  0.027442716            4 
 1586000   0.99225086   -6.9640786    515.93314  0.027108719  0.027434282            3 
 1587000    1.0057101   -6.9747065    516.65122  0.027129344  0.027425823            5 
 1588000     1.005977   -6.9505047    516.85898  0.027123162  0.027417314            2 
 1589000    1.0293295   -6.9761787    517.25312  0.027126763  0.027408766            6 
 1590000   0.96527923   -6.9411189    517.46629  0.027120874  0.027400425            3 
 1591000   0.99090853   -6.9728265    516.49802  0.027053112  0.027392103            5 
 1592000   0.97552066   -6.9407524    518.27872   0.02712933  0.027383774            4 
 1593000   0.99531284   -6.9119208    520.02214  0.027203502  0.027375446            4 
 1594000    0.9854125   -6.8914616    520.42981  0.027207748  0.027367289           10 
 1595000    1.0020715   -6.9337332     519.1353  0.027123056  0.027359193            6 
 1596000   0.99608703   -6.9243276    520.17786  0.027160498  0.027350952            4 
 1597000    1.0011795   -6.9488196    518.27496  0.027044196  0.027342735            3 
 1598000   0.99305016   -6.9572018    517.97926  0.027011851  0.027334237            5 
 1599000    0.9815194   -6.9312812    518.67027  0.027030971  0.027325649            4 
 1600000    1.0025168   -6.9619874    518.45355  0.027002789  0.027317227            3 
 1601000     1.009402   -6.9626614     518.8036  0.027004143  0.027308772            3 
 1602000   0.99690702   -6.9438905    519.60567  0.027029009  0.027300457            3 
 1603000    1.0114119   -6.9754453     520.2409   0.02704517  0.027292156            5 
 1604000   0.98549553   -6.9598733     518.5294  0.026939391  0.027283783            6 
 1605000    1.0033762   -6.9450239     520.4045  0.027019964  0.027275525            2 
 1606000   0.98165717   -6.9302934    521.41614  0.027055632  0.027267287            5 
 1607000    1.0062663   -6.9412668    522.42857  0.027091297  0.027259084            6 
 1608000   0.99920355   -6.9521724    521.67306  0.027035295  0.027250859            2 
 1609000   0.98310028   -6.9816811    520.35557  0.026950257  0.027242517            9 
 1610000   0.99586964   -6.9538043    519.30126  0.026878947  0.027234133            6 
 1611000    0.9764966   -6.9501025    520.05181  0.026901087  0.027225833            3 
 1612000   0.97593203   -6.9284197    520.93987  0.026930307  0.027217526            4 
 1613000   0.98203166   -6.9674154    521.64087  0.026949828  0.027209163            4 
 1614000   0.99678373    -6.953639    521.37658  0.026919485  0.027200892            4 
 1615000    1.0064369    -6.995802    520.41658  0.026853281  0.027192681            8 
 1616000   0.99104564   -6.9554728    522.56526  0.026947466  0.027184423            4 
 1617000   0.98093023   -6.9804215    520.90011  0.026844986  0.027176135            7 
 1618000   0.99953966   -6.9984757    520.52484  0.026809067  0.027167817            2 
 1619000    0.9980792    -7.010371    519.93913   0.02676236  0.027159403           11 
 1620000    1.0065485    -6.997102    520.25624  0.026762152  0.027150946            5 
 1621000   0.98134011   -7.0024929    521.12834  0.026790476  0.027142539            2 
 1622000   0.99682339   -6.9452411    523.95129  0.026918993  0.027134159           11 
 1623000   0.97921231   -6.9641674    522.30865  0.026818066  0.027125918            2 
 1624000    1.0038619   -6.9750572    523.50512  0.026862947  0.027117605            5 
 1625000   0.99326134   -6.9905866    523.25716  0.026833701   0.02710941            4 
 1626000    1.0048015   -6.9518708    524.23292  0.026867206  0.027101175            3 
 1627000   0.98677062   -6.9157132     524.7094  0.026875097   0.02709319            3 
 1628000   0.99857668   -6.9392014    523.99288  0.026821912  0.027085233            2 
 1629000   0.98145686   -6.9309665    527.29049   0.02697414  0.027077155            5 
 1630000   0.97518584   -6.9433966    525.35304   0.02685854  0.027068892            5 
 1631000    1.0144947   -6.9516734    523.57247  0.026751097  0.027060736            5 
 1632000   0.98993426   -6.9708329    523.51935  0.026731993  0.027052581            4 
 1633000   0.98103146   -6.9594203    525.22061   0.02680244   0.02704452            4 
 1634000   0.98340741   -6.9321239    526.93162  0.026873298  0.027036406            6 
 1635000   0.99796781   -6.9730945    526.16802  0.026817942  0.027028261            5 
 1636000   0.97403417   -6.9994017      526.692   0.02682824  0.027020081            9 
 1637000   0.98964075    -6.962838     526.3199  0.026792909  0.027012035            4 
 1638000   0.99616144   -6.9724568    525.78383  0.026749279  0.027004001            5 
 1639000    1.0071087   -6.9487842    525.94307  0.026741055  0.026995981            2 
 1640000   0.99157053   -6.9771385     526.1792  0.026736748  0.026987778            5 
 1641000   0.99462522   -7.0099519    525.73088  0.026697689  0.026979544            6 
 1642000   0.99050292   -6.9969448     526.2216  0.026706334  0.026971259            3 
 1643000   0.98392434    -6.972396    527.25691   0.02674259  0.026963098            2 
 1644000   0.97976288   -6.9698375    526.88192  0.026707315  0.026955017            3 
 1645000   0.98358809   -6.9314734    530.28257  0.026863352   0.02694705            4 
 1646000     1.000652   -6.9898537    527.94905  0.026728891  0.026939272            2 
 1647000   0.99025215   -7.0091883    525.99155  0.026613618  0.026931175            7 
 1648000   0.99258566   -6.9786385    527.97981  0.026698008  0.026923132            2 
 1649000   0.97553016    -7.010483    528.08189  0.026686977  0.026915135            3 
 1650000    1.0149978   -7.0378728    527.49117  0.026640968  0.026907115            2 
 1651000      1.00914   -6.9934571    529.84726  0.026743754  0.026899186            4 
 1652000   0.99080398   -6.9761743    529.97822  0.026734172  0.026891217            6 
 1653000   0.97931661   -6.9841816    528.71181  0.026654154  0.026883121            5 
 1654000   0.97931747   -6.9896178    528.51169  0.026627957  0.026874966            6 
 1655000    1.0094577   -6.9651768    531.25005  0.026749751  0.026866906           10 
 1656000   0.98104134   -7.0035525    527.46805  0.026543279  0.026858793            8 
 1657000    1.0014309   -6.9646366    529.73364  0.026641201  0.026850634            2 
 1658000   0.98463632   -7.0096419    528.15113  0.026545593  0.026842542            9 
 1659000     0.995575   -6.9402527    530.69989  0.026657619  0.026834367            3 
 1660000   0.98613474   -6.9584757    530.32701  0.026622842   0.02682643           12 
 1661000   0.99168642    -6.982926     531.2275  0.026651992  0.026818356            4 
 1662000   0.96120316   -6.9699714    531.16491  0.026632817  0.026810404            3 
 1663000    1.0010317   -6.9765829    530.25197  0.026571055  0.026802376            3 
 1664000   0.97401506   -6.9850955    531.38288  0.026611723  0.026794267            3 
 1665000   0.99382007    -6.996402    532.69415  0.026661369   0.02678619            5 
 1666000   0.97170534   -7.0234834    531.33223  0.026577242  0.026778061            3 
 1667000   0.99031633   -6.9994554    531.19012  0.026554195  0.026769932            4 
 1668000   0.96835571   -7.0039762     531.3036  0.026543945   0.02676171           10 
 1669000   0.97954829   -6.9891046    530.63199  0.026494507  0.026753608            4 
 1670000   0.99905377   -6.9807817    531.10962  0.026502476  0.026745551            8 
 1671000   0.97808366   -6.9537808     531.4387  0.026503027  0.026737533            6 
 1672000   0.99144214   -7.0085117    530.36802  0.026433813  0.026729448            7 
 1673000   0.98310826   -7.0119157    531.76963  0.026487828  0.026721275            5 
 1674000    0.9865132   -6.9942903    532.42146  0.026504453  0.026713166            7 
 1675000    1.0066248   -7.0280994    531.83438  0.026459422  0.026705045            3 
 1676000   0.99327121   -7.0501744    531.57082   0.02643053  0.026697044            5 
 1677000   0.98479661   -6.9877991    534.08075  0.026539492  0.026688991           10 
 1678000   0.96396031    -6.993228    532.28398  0.026434445  0.026680943            6 
 1679000    1.0106762   -6.9767436    533.20175  0.026464252  0.026672852            5 
 1680000    1.0092833   -6.9641089    534.63652  0.026519669  0.026664952            4 
 1681000    1.0103863    -6.996376    534.04997  0.026474815  0.026656941            4 
 1682000   0.98910263    -6.986802    534.87262  0.026499832  0.026648995            3 
 1683000   0.96475266   -7.0416338    533.71259  0.026426648  0.026640885           10 
 1684000   0.98897773   -6.9830095    534.56724  0.026453248    0.0266328            5 
 1685000   0.98793842   -7.0244323    532.59166  0.026339845  0.026624694            6 
 1686000   0.97039893   -7.0308301    531.44692  0.026267642  0.026616534            4 
 1687000    1.0018211   -6.9702189    535.38292  0.026446499  0.026608527            5 
 1688000    0.9955875   -6.9939637    534.86609  0.026405317  0.026600418            4 
 1689000   0.96254922   -6.9905271    535.25446  0.026408844   0.02659226            2 
 1690000   0.99600755   -6.9914281    535.75269  0.026417786  0.026584106            5 
 1691000    0.9984816   -7.0261875    534.01623  0.026316589  0.026576057            5 
 1692000   0.98650629     -7.02067    534.58784  0.026329188  0.026568007            3 
 1693000   0.99387006   -6.9924492    535.49545  0.026358311  0.026559938            3 
 1694000   0.98468272   -6.9950213    535.90338  0.026362819  0.026551939            7 
 1695000   0.97571502   -6.9785486    537.18513  0.026410282  0.026543851            3 
 1696000   0.97019324   -6.9626891    535.92211  0.026332651  0.026535798            3 
 1697000   0.97546353   -7.0307593    534.86586  0.026265265  0.026527786            3 
 1698000    1.0004905   -7.0023771    536.33582  0.026321939  0.026519771            5 
 1699000   0.97356256   -7.0056581    536.87213  0.026332751  0.026511786            8 
 1700000   0.97334766   -6.9743055    536.85686  0.026316513  0.026503647            5 
 1701000   0.97291423   -7.0179218    537.15589  0.026315691  0.026495615            7 
 1702000   0.99527065   -7.0316193    537.09294  0.026297147  0.026487524            4 
 1703000   0.99022607   -7.0265375    535.79487  0.026218187  0.026479329            5 
 1704000   0.99815317   -6.9776252    539.50235  0.026384113  0.026471322            7 
 1705000    0.9744947   -6.9983017    538.06555  0.026298414   0.02646332           10 
 1706000    0.9742684   -7.0249791    538.27405  0.026293183  0.026455492            5 
 1707000   0.99074071    -7.044994    537.99115   0.02626397   0.02644752            7 
 1708000   0.99583275   -7.0015706    538.08659  0.026253249  0.026439492            6 
 1709000   0.98716015    -7.007844    538.61435  0.026263622  0.026431567            4 
 1710000   0.98078775   -7.0024332    538.78868  0.026256758  0.026423675            9 
 1711000   0.96245597   -7.0654301    537.92131  0.026199168  0.026415678            8 
 1712000   0.96913781   -7.0041619    539.10526  0.026241494  0.026407722            3 
 1713000   0.99489324   -6.9873164    538.96242  0.026219226  0.026399862            4 
 1714000   0.95186431   -6.9523254    539.40095   0.02622525  0.026391976            7 
 1715000    0.9894981   -7.0363894    538.16679   0.02614999  0.026384022           10 
 1716000   0.97336213   -7.0223853    537.77707  0.026115825  0.026376115            5 
 1717000   0.97975095   -7.0001261    539.55808  0.026187055  0.026368154            4 
 1718000   0.98138408   -7.0601307    538.32404  0.026111954  0.026360041            8 
 1719000   0.95926629   -7.0150668    538.23082  0.026092245  0.026351891            3 
 1720000   0.97251584   -7.0317564    538.88625   0.02610883  0.026343786            4 
 1721000   0.97332765   -7.0082086    539.83387  0.026139544  0.026335633            8 
 1722000    0.9879973    -7.011588    541.73103  0.026216175  0.026327561            3 
 1723000   0.98187032   -7.0358934    539.49637  0.026092879  0.026319399            3 
 1724000   0.96859954   -7.0364762    538.80214  0.026044187  0.026311296            2 
 1725000   0.97106478   -7.0361242    540.46196  0.026109273  0.026303183            5 
 1726000   0.97552124   -6.9723948    542.42456  0.026188903  0.026295141            5 
 1727000   0.97304049   -7.0379595    539.79413  0.026046812  0.026287001            4 
 1728000   0.96359999   -7.0206941    540.74329  0.026077512  0.026278781            5 
 1729000   0.95551081   -7.0343549    540.93531  0.026071684  0.026270695            4 
 1730000   0.96874909   -7.0466261    540.57932  0.026039466  0.026262438            3 
 1731000   0.96907578   -7.0686862    540.36553  0.026014131  0.026254093            4 
 1732000   0.98082152   -7.0334117     541.7264  0.026064588  0.026245943           10 
 1733000   0.95974767   -6.9582159     542.4106  0.026082449  0.026237962            6 
 1734000   0.96388106   -7.0561075    539.18546  0.025912412  0.026229794            5 
 1735000   0.97624923   -7.0361406    541.55174   0.02601113  0.026221522            4 
 1736000   0.99638056   -7.0254739     540.7691  0.025958578   0.02621329            6 
 1737000   0.98890216   -6.9991123    541.75806   0.02599108  0.026205058            2 
 1738000   0.98656502   -7.0598859     541.7916  0.025977733  0.026196841            4 
 1739000    0.9710791   -7.0197734    542.00119  0.025972838  0.026188753            3 
 1740000   0.97318556   -7.0152709    542.87924  0.025999964  0.026180641            7 
 1741000   0.96760712   -7.0629062    541.18087  0.025903737  0.026172505            9 
 1742000   0.97682534    -6.966583    543.71303      0.02601  0.026164452            3 
 1743000   0.96435415    -7.038943    542.46908  0.025935603  0.026156463            5 
 1744000   0.96753114   -7.0400718    541.63418  0.025880838  0.026148327            9 
 1745000   0.96764733   -7.0180123    542.94005  0.025928369  0.026140188            5 
 1746000   0.94968888   -7.0445242    542.20217  0.025878302   0.02613208           10 
 1747000   0.98685339   -7.0644868    542.28684  0.025867527  0.026123848            5 
 1748000    0.9918163   -7.0315955    545.59036  0.026010219  0.026115737            4 
 1749000   0.98366445   -6.9917152     545.7527  0.026003083  0.026107815            7 
 1750000   0.96481895   -6.9779972    546.87685  0.026041755  0.026100029            7 
 1751000   0.95978479   -7.0474105    543.14671  0.025849358   0.02609204            4 
 1752000    0.9739472   -7.0349027    543.89165  0.025870036  0.026084029            3 
 1753000    0.9798078   -7.0043989    544.99521   0.02590774  0.026075971            9 
 1754000   0.96802531   -7.0158734    543.98013  0.025844742  0.026067877            4 
 1755000   0.96451553    -7.026266    545.03904  0.025880296  0.026059834           11 
 1756000   0.97016287   -7.0599467    544.79003  0.025853741  0.026051778            4 
 1757000   0.97986557   -7.0765733    542.61211  0.025735729  0.026043664            7 
 1758000   0.96115521   -7.0551693    544.41164  0.025806392  0.026035512            3 
 1759000   0.99298596   -7.0713388    543.84631  0.025764938  0.026027366            8 
 1760000   0.94957919   -7.0560665    544.01401  0.025758239  0.026019171            4 
 1761000   0.98321341   -7.0383438    546.51597  0.025862009  0.026011031            5 
 1762000   0.98390388   -7.0414631    546.57266  0.025850012  0.026002923            2 
 1763000     0.982886   -7.0173673    546.44959  0.025829532  0.025994885            4 
 1764000   0.94977311   -7.0162979     545.7372  0.025781236  0.025986897            3 
 1765000   0.96496256   -7.0279234    546.24703    0.0257907  0.025978829            4 
 1766000   0.99950627   -7.0356586    546.74955  0.025799809  0.025970838            6 
 1767000   0.96041667   -7.0688496    544.81108  0.025693788  0.025962639            3 
 1768000   0.97823037   -7.0498105    545.49905  0.025711682   0.02595448            3 
 1769000   0.96718227   -7.0421032    547.41511  0.025787408   0.02594642            5 
 1770000   0.98000144   -7.0589889    546.12285  0.025711999  0.025938375            6 
 1771000   0.96880698   -7.0540761    546.43577  0.025712205  0.025930292            3 
 1772000   0.96880202   -7.0513432    546.49821  0.025700631  0.025922141            4 
 1773000   0.96552829   -7.0284268    547.74105   0.02574455   0.02591416            4 
 1774000   0.97473031    -7.033793    547.53099  0.025720171  0.025906207           12 
 1775000   0.96278371    -7.035589    547.69744  0.025713495  0.025898061            8 
 1776000   0.94982848    -7.013969    548.59528  0.025741145  0.025890028            6 
 1777000   0.97038927    -7.082554    548.08659  0.025702804  0.025881946            3 
 1778000   0.98272492   -7.0629132     547.3612  0.025654349  0.025873805            2 
 1779000   0.94878878    -7.033906    550.10389  0.025768404  0.025865732            5 
 1780000   0.96303861   -7.0931662    548.27618   0.02566836  0.025857652            3 
 1781000    0.9801621   -7.0272413    548.62513  0.025670275  0.025849493            4 
 1782000   0.96686457   -7.0559378    548.77886  0.025663059  0.025841376            5 
 1783000   0.97613085   -7.0110198    547.62235  0.025594613  0.025833229            2 
 1784000   0.96746938   -7.0505396    546.93488  0.025548154   0.02582504            7 
 1785000   0.97764602   -7.0854011    546.31686  0.025504989  0.025816871            7 
 1786000   0.96780374   -7.0447016    548.75391  0.025604419  0.025808682            4 
 1787000   0.95766775   -7.0625418    550.93876  0.025691977  0.025800564            5 
 1788000   0.97077922   -7.0441537    550.41423  0.025653162  0.025792419            4 
 1789000   0.95486286    -7.047893     549.1776  0.025581218  0.025784348            9 
 1790000   0.97386917   -7.0224554    549.67654  0.025590155  0.025776187            8 
 1791000   0.98739619   -7.0589118    547.72853  0.025485228     0.025768            4 
 1792000   0.96620875   -7.0239586     549.3223  0.025545122  0.025759839            6 
 1793000   0.97100683   -7.0155581    548.93427   0.02551284  0.025751796            6 
 1794000    0.9627412   -7.0657271    547.45884  0.025430083  0.025743546            5 
 1795000   0.96028589   -7.0660298    549.72022  0.025520902  0.025735218            5 
 1796000   0.96642777   -7.0668861      548.773  0.025462741   0.02572698            6 
 1797000   0.96783343   -7.0449266    548.36735   0.02542976  0.025718821            5 
 1798000   0.95645218    -7.072489    549.68378   0.02547663  0.025710601            8 
 1799000   0.96401634   -7.0200356    551.86675  0.025563588  0.025702407            3 
 1800000   0.95986442   -7.0744667    549.18705  0.025425326  0.025694192            6 
 1801000    0.9710474    -7.086159    550.67156  0.025479898  0.025685927            4 
 1802000   0.96522525   -7.0619606    550.34108  0.025450475  0.025677601            7 
 1803000    0.9562461   -7.0535336    550.54537  0.025445802  0.025669306            3 
 1804000   0.94387877   -7.0401757    550.50017  0.025429609  0.025661175            5 
 1805000   0.95899355    -7.071656    549.40861  0.025365125  0.025652897            5 
 1806000   0.96130477   -7.0241124    551.37714  0.025441913  0.025644695            1 
 1807000   0.93406198   -7.0723107    550.78681  0.025400609  0.025636504            5 
 1808000   0.95818789   -7.0560384    550.50614  0.025373624  0.025628353            2 
 1809000   0.96327453   -7.0454444    552.77306  0.025464025  0.025620268            4 
 1810000   0.95842627   -7.0607329    552.81311  0.025451801  0.025612164            4 
 1811000   0.96929468   -7.0807723    552.02148   0.02540132  0.025604098            8 
 1812000   0.96060686   -7.0484352     553.3594  0.025448832  0.025595965            7 
 1813000   0.96233792    -7.102515    551.97101  0.025370979  0.025587786            4 
 1814000   0.97171792   -7.0520957    552.78466  0.025394371  0.025579796            5 
 1815000    0.9555673      -7.0606    552.89443  0.025385419  0.025571707            5 
 1816000   0.95597531   -7.0694378    554.99681  0.025467915  0.025563707            4 
 1817000   0.95772722    -7.056365    553.43412  0.025382229   0.02555585            4 
 1818000   0.96256279   -7.0973035    554.39785  0.025412443  0.025547946           15 
 1819000   0.99230056   -7.0935601    554.57746  0.025406701  0.025540039            5 
 1820000   0.96822523   -7.0846413    554.55632  0.025391773  0.025531966            5 
 1821000   0.96382345   -7.0123166     557.1657   0.02549724  0.025524035            3 
 1822000   0.97040192   -7.0758906    554.83481  0.025376638  0.025516139            3 
 1823000   0.94125478   -7.0650497    556.46057  0.025437034  0.025508195            4 
 1824000   0.95320453   -7.0535877    554.70454  0.025342861  0.025500413            3 
 1825000   0.95506032   -7.0897417    553.92546    0.0252934  0.025492474            3 
 1826000   0.98086942   -7.0748917    556.60843  0.025401991  0.025484511            7 
 1827000   0.94600885   -7.0809403    554.07551  0.025272556  0.025476674            8 
 1828000   0.97158144   -7.0586357    557.28282  0.025404943  0.025468702           11 
 1829000   0.96235321    -7.128073    554.61528  0.025269513    0.0254606            7 
 1830000   0.94867414   -7.0659382    555.40744  0.025291778  0.025452596            4 
 1831000   0.95746796   -7.0345543    556.19422  0.025313773  0.025444632            6 
 1832000    0.9521685   -7.1147067    554.25046  0.025211539  0.025436605            6 
 1833000   0.96799426   -7.0747034    554.53185  0.025210577  0.025428522            5 
 1834000   0.95843198   -7.0961305    553.68225  0.025158226  0.025420436           10 
 1835000   0.95562488   -7.0473368    557.47136  0.025316592  0.025412408            4 
 1836000   0.95943533   -7.0211823    557.56017  0.025306834   0.02540445            4 
 1837000   0.94738946   -7.0274694     557.4714  0.025289031  0.025396429            7 
 1838000   0.96737069   -7.0984913    556.19552  0.025217425  0.025388475            5 
 1839000   0.95120928   -7.0843612     555.1923  0.025158252  0.025380496            3 
 1840000   0.94938991   -7.0761121    556.15552  0.025188203  0.025372441            8 
 1841000   0.95690957   -7.0665725    556.81745  0.025204483  0.025364411            4 
 1842000   0.95045729   -7.0876131    556.40473  0.025172129  0.025356324            9 
 1843000   0.93860152    -7.081505    556.33534  0.025155333  0.025348305           10 
 1844000   0.93381591   -7.0346044    558.38804  0.025234456  0.025340282            9 
 1845000   0.94216706   -7.1101417    556.39868  0.025130925  0.025332164            8 
 1846000   0.96381418   -7.0901838    556.75457  0.025133377  0.025324067            3 
 1847000   0.95519054   -7.0936081    557.73959  0.025164212  0.025316009            8 
 1848000   0.95948941   -7.0376242     559.3101  0.025221415  0.025308074            5 
 1849000   0.96244828   -7.0640371    559.46133   0.02521459  0.025300215            8 
 1850000   0.97323489   -7.0525891    557.76168    0.0251244  0.025292344            4 
 1851000   0.96885755   -7.0681644    558.33565  0.025136667  0.025284504            2 
 1852000    0.9389468   -7.0639688    559.51514  0.025176167  0.025276652            4 
 1853000   0.97246941   -7.0653918    559.23597  0.025150026  0.025268876            8 
 1854000   0.95531087   -7.0342224     561.1819  0.025223926  0.025261168            4 
 1855000   0.97125919   -7.0864609    560.35226  0.025173057  0.025253313            2 
 1856000   0.95824146   -7.0857347    558.19455  0.025062615  0.025245466            5 
 1857000   0.94900292   -7.0704649    558.75167  0.025074119  0.025237591            5 
 1858000   0.95159373   -7.0801557    560.82643  0.025153679  0.025229766           11 
 1859000   0.95608078   -7.0674367    559.46031  0.025078909  0.025221933            4 
 1860000   0.96642149   -7.0843151    560.94819  0.025132087  0.025214194            2 
 1861000   0.97265471   -7.0616227    561.89378  0.025160925  0.025206501            5 
 1862000   0.94911395   -7.1141496    560.02373  0.025063719  0.025198862            5 
 1863000   0.95465527   -7.0597248    560.58798  0.025075505  0.025191092            4 
 1864000   0.95159592   -7.0782888    561.18115  0.025088571  0.025183251            5 
 1865000   0.97388035   -7.0905153    561.67262  0.025097079  0.025175495            7 
 1866000   0.94152998   -7.1132212      560.999  0.025053546  0.025167554            8 
 1867000   0.95475395   -7.0943165    561.98466  0.025084121  0.025159803            3 
 1868000   0.93756765   -7.0801467    562.60326  0.025098289  0.025152139            9 
 1869000   0.95981736    -7.102558    561.70566   0.02504484  0.025144427            7 
 1870000    0.9506074   -7.0855179     563.7782  0.025123806  0.025136697            4 
 1871000   0.96019927   -7.0667409    565.00591  0.025165059  0.025129054            6 
 1872000   0.96115298   -7.1159112    561.72027  0.025005354   0.02512129            5 
 1873000   0.96340949   -7.0706127     562.9489  0.025046667  0.025113545            5 
 1874000   0.95042201   -7.1051866    563.48125  0.025056975  0.025105823            4 
 1875000   0.95980573   -7.0944455    563.85796  0.025060354     0.025098            6 
 1876000   0.96498969   -7.1491587    562.09739  0.024968789   0.02509023            3 
 1877000   0.95697207   -7.1001318     564.4246  0.025058808  0.025082469            2 
 1878000   0.97861583   -7.1162346    562.81898  0.024974218  0.025074605           10 
 1879000   0.94268814   -7.1193778    561.64394  0.024908814  0.025066829            5 
 1880000   0.93336068   -7.0977434    564.15922  0.025007058   0.02505911            4 
 1881000   0.97197058    -7.100275    565.16031  0.025038114  0.025051441            7 
 1882000   0.93580751   -7.0848488    564.97658  0.025016675  0.025043904            5 
 1883000   0.95284611   -7.0857773    564.38477  0.024977198  0.025036392            4 
 1884000   0.91928728   -7.0633546    565.65271  0.025020024   0.02502882            6 
 1885000    0.9214435   -7.0853031    565.87045  0.025016377  0.025021261            6 
 1886000   0.94652882   -7.0926584    565.90372  0.025004583  0.025013594            4 
 1887000    0.9572336   -7.1044862    565.12258  0.024956835  0.025005973           15 
 1888000   0.94685357   -7.1189316    564.94827  0.024935923  0.024998304            4 
 1889000   0.95773464   -7.0987248    565.49162  0.024946692  0.024990617            2 
 1890000   0.93973393   -7.1066566    565.88037  0.024950633  0.024982936            3 
 1891000   0.95205788   -7.0995516    566.51811  0.024965543  0.024975237            3 
 1892000   0.93662489   -7.1171322    567.72542  0.025005524  0.024967623            4 
 1893000   0.96438155   -7.0885949    566.19907  0.024925122  0.024960038            3 
 1894000   0.94551753   -7.0691126    568.07345  0.024994432  0.024952488            5 
 1895000   0.95342334   -7.0799387    566.10637  0.024894739  0.024944979            5 
 1896000   0.92914836   -7.1101571    565.24469  0.024843736  0.024937351            7 
 1897000   0.94677183   -7.0965178     565.6063  0.024846525  0.024929618            4 
 1898000    0.9649839   -7.1009654    567.01672   0.02489536  0.024921949            8 
 1899000   0.96652673   -7.1030572    565.21436  0.024803158  0.024914375            7 
 1900000   0.93504589   -7.0786028    567.24647  0.024879231  0.024906762            3 
 1901000    0.9292963   -7.1275883    567.69245  0.024885694  0.024899176            8 
 1902000   0.95126618   -7.1199311    566.63019  0.024826069  0.024891553            5 
 1903000   0.96480942   -7.0760225    568.95821  0.024914968  0.024883877           10 
 1904000   0.94649837   -7.1080065    567.07546  0.024819479  0.024876233            7 
 1905000   0.92753782   -7.0960698    568.65911  0.024875727  0.024868587           12 
 1906000    0.9551198   -7.1061811    567.57845  0.024815427  0.024860902            5 
 1907000   0.95246614   -7.1127294    567.48871  0.024798493  0.024853202            9 
 1908000   0.96058893   -7.1027059      566.667  0.024749607  0.024845533            5 
 1909000   0.95715232   -7.0626822    568.75129  0.024827627  0.024837884            5 
 1910000   0.94983657   -7.1239751    568.14531   0.02478819  0.024830335            6 
 1911000   0.92346777   -7.1334328    566.91698  0.024721655  0.024822648            3 
 1912000   0.97262048   -7.1361181    567.82751   0.02474841  0.024815006            5 
 1913000     0.947563   -7.0881663    569.30542  0.024799853  0.024807434            2 
 1914000    0.9540677   -7.1158679    568.94201  0.024771073   0.02479986            7 
 1915000   0.93444303   -7.1291836    569.36504  0.024776547  0.024792273            4 
 1916000   0.92912294   -7.0921341    571.17475  0.024842326  0.024784741            2 
 1917000   0.93193613   -7.0948966    570.52783  0.024801245  0.024777221            2 
 1918000   0.95371723   -7.1198187    568.81873  0.024714057  0.024769611            5 
 1919000   0.93222854   -7.1228528    568.87485  0.024703615  0.024761961            6 
 1920000   0.94387479   -7.1051178    570.43972  0.024758668  0.024754454            5 
 1921000   0.95043544    -7.123923    569.56996   0.02470805  0.024746937           16 
 1922000   0.95994425    -7.117389    570.89133  0.024752486  0.024739383            4 
 1923000    0.9485065    -7.116544    571.16585   0.02475151  0.024731843            6 
 1924000   0.94542852   -7.1039117    570.58973  0.024713693  0.024724247            6 
 1925000    0.9618682   -7.1545009     570.1695  0.024682663  0.024716683            5 
 1926000   0.93334519   -7.1206869    569.93616  0.024659751  0.024709124            7 
 1927000     0.968222   -7.1255622    572.19471  0.024744625  0.024701583            5 
 1928000   0.93383892   -7.0768424    571.24419  0.024690707  0.024694093            5 
 1929000    0.9537236   -7.1070641    572.01515  0.024711213  0.024686572            7 
 1930000   0.92740549   -7.0931417    571.93797  0.024695076  0.024679144            4 
 1931000   0.94648973   -7.1348185    570.56052  0.024622843  0.024671562            5 
 1932000   0.93802218   -7.1065881    570.22926   0.02459581  0.024663982            5 
 1933000   0.95256779   -7.1423599    570.57863  0.024598148  0.024656283            6 
 1934000   0.95193702    -7.106502    570.81577  0.024595647   0.02464855            6 
 1935000   0.93759475   -7.1078968    571.26022  0.024602076  0.024640793            5 
 1936000   0.92738115   -7.1260104    572.34294  0.024635974  0.024633112            4 
 1937000   0.92153861   -7.1330988    572.35838  0.024623919  0.024625471            4 
 1938000   0.93440277    -7.133037    571.32072  0.024566595  0.024617861            6 
 1939000   0.93189784   -7.0865134    571.75372  0.024572534   0.02461023            5 
 1940000   0.94692642   -7.1318493    570.13856  0.024490488  0.024602534            3 
 1941000   0.94653765     -7.14218    570.49419  0.024493139  0.024594789            4 
 1942000   0.93435854   -7.0807888    572.49457  0.024566365  0.024587116            4 
 1943000   0.94657346   -7.0951927    572.22448  0.024542138  0.024579562            4 
 1944000   0.94026503   -7.1271685    572.71865  0.024550696  0.024571937            5 
 1945000   0.92084387   -7.1118678    573.16699  0.024557283  0.024564359            6 
 1946000   0.95844798   -7.1199796    571.89437  0.024490167  0.024556692            5 
 1947000   0.95076252   -7.1170697    573.75053  0.024557033  0.024549095            6 
 1948000   0.94187029   -7.1044542    574.88532  0.024592972  0.024541558            4 
 1949000   0.93030113    -7.127143    573.19052   0.02450789  0.024534054            3 
 1950000   0.92242753   -7.1017484    573.83151  0.024522714  0.024526492            4 
 1951000   0.93944363   -7.0898161    573.46525  0.024494501  0.024518909            4 
 1952000   0.96310106   -7.0845755    575.48823  0.024568316  0.024511403            3 
 1953000    0.9495016   -7.0963285    574.66107  0.024520442  0.024503886            4 
 1954000    0.9435689   -7.1048718    573.53188  0.024459735  0.024496298            5 
 1955000   0.95680598   -7.1245536    574.18551  0.024475086  0.024488742            5 
 1956000   0.94803742    -7.133195    573.26573  0.024423387  0.024481173            5 
 1957000   0.93274079   -7.1234176    574.98132   0.02448396  0.024473566            5 
 1958000   0.95550869   -7.1015057    575.22979  0.024482031  0.024465972            3 
 1959000   0.95034355   -7.1161899    572.80331  0.024366314  0.024458345            3 
 1960000   0.93945258   -7.1490194     573.2374  0.024372338  0.024450716            7 
 1961000   0.96272167   -7.1245344    575.05824  0.024437287  0.024443084            3 
 1962000   0.93071111   -7.1572065    573.64258  0.024364704  0.024435426           13 
 1963000   0.93851194   -7.1170707    573.93321   0.02436463   0.02442776           10 
 1964000   0.93929155    -7.152882    573.72254  0.024343285  0.024420072            4 
 1965000   0.93094406   -7.1337305     574.0918  0.024346557  0.024412398            4 
 1966000    0.9412781   -7.1542381    574.92955  0.024369682  0.024404808            8 
 1967000   0.94284825    -7.116208    575.47562  0.024380428  0.024397143            5 
 1968000   0.92756351   -7.1420291    573.12082  0.024268327  0.024389493            5 
 1969000   0.91182478   -7.1494187    575.39101  0.024352083  0.024381789            8 
 1970000   0.91801881   -7.1088968    575.79598  0.024356852  0.024374097            4 
 1971000   0.92117239    -7.105436    575.62066  0.024337082  0.024366429            5 
 1972000   0.94942671    -7.140371    576.21204  0.024349731  0.024358847            5 
 1973000   0.94863999   -7.1591703    576.53157  0.024350886  0.024351224           18 
 1974000   0.92094602   -7.1693796    574.36058  0.024246901   0.02434352            6 
 1975000   0.93566678   -7.1281647    575.48833  0.024282208  0.024335844            3 
 1976000   0.94879697   -7.1957903    575.36304  0.024264635  0.024328136            6 
 1977000    0.9421144   -7.1734572    575.38212  0.024253166  0.024320398           11 
 1978000   0.92871679   -7.1696611    577.12882  0.024314494   0.02431281            3 
 1979000   0.93947386   -7.1199638    575.85498  0.024248568  0.024305204           10 
 1980000   0.93988334   -7.1421722    577.92825  0.024323579  0.024297615            8 
 1981000   0.94335042   -7.1212263    577.60794  0.024297827  0.024290088            5 
 1982000   0.93430264   -7.1163734    579.89487  0.024381722  0.024282621            5 
 1983000   0.91302321   -7.1525433    576.96556  0.024246325  0.024275207           11 
 1984000   0.94804721   -7.1293198    579.71263  0.024349489   0.02426778            6 
 1985000    0.9332001    -7.118221    578.68131  0.024293926    0.0242604            5 
 1986000   0.93810898   -7.1267636    579.11373  0.024299838  0.024252973            7 
 1987000   0.93288013   -7.1135878    578.59815  0.024265985  0.024245424            4 
 1988000   0.96199052    -7.159065    578.23075  0.024238378  0.024237951            6 
 1989000   0.94727762   -7.1304709    579.03016  0.024259685  0.024230362           10 
 1990000   0.94089078   -7.1492898    578.66831  0.024232341  0.024222761            6 
 1991000   0.92682062   -7.1432266    576.11255  0.024113199  0.024215137            4 
 1992000   0.94257021   -7.1382691    578.10155  0.024184302  0.024207469            6 
 1993000   0.93108061   -7.1252614    577.66707     0.024154  0.024199779           10 
 1994000   0.93241091   -7.1811092    576.51544  0.024093758  0.024192127            8 
 1995000   0.94086503   -7.1684783    577.55923  0.024125281  0.024184333            4 
 1996000   0.94430772   -7.1652248    577.28667  0.024101815  0.024176632            4 
 1997000    0.9275594   -7.1911054     576.2351  0.024045865  0.024168809            6 
 1998000   0.90749952   -7.1378499    578.22791  0.024116946  0.024161069           13 
 1999000   0.95034414   -7.1921536    576.94297  0.024051316  0.024153294           10 
 2000000   0.92353801   -7.1583652    578.06697  0.024086124  0.024145549            9 
 2001000   0.90257619   -7.1344544    579.51168  0.024134253   0.02413789           17 
 2002000   0.93286928   -7.0968419    579.96926  0.024141245  0.024130192            6 
 2003000   0.93423172   -7.1608522    577.56872  0.024029319  0.024122551            9 
 2004000   0.95456294   -7.1382675    577.50568  0.024014707  0.024114854            4 
 2005000   0.93152534   -7.1609392    579.59931  0.024089747  0.024107208            5 
 2006000   0.91596416   -7.1723528    579.05153  0.024054982  0.024099527            4 
 2007000   0.92642809   -7.1776954    577.99004  0.023998922  0.024091759            7 
 2008000   0.94252481   -7.1477063    579.03665  0.024030405  0.024084049            5 
 2009000   0.95744891   -7.1455464    579.90444   0.02405444  0.024076411            4 
 2010000   0.93066819   -7.1567126     578.8976   0.02400073  0.024068754            4 
 2011000   0.93057982   -7.1451611    579.30401  0.024005636  0.024061134            8 
 2012000   0.94739621   -7.1741614    578.15915  0.023946287  0.024053519            3 
 2013000   0.90272178   -7.1370741    579.93628   0.02400796  0.024045885            4 
 2014000   0.95007597   -7.1106084    580.88022  0.024035097   0.02403832            3 
 2015000   0.93426421   -7.1584978    578.96385  0.023943915  0.024030775            5 
 2016000   0.92714626   -7.1516287    580.70704  0.024004094  0.024023161           11 
 2017000   0.93357401   -7.1364697     579.1138  0.023926368  0.024015433           12 
 2018000   0.91269382    -7.131774    579.57236  0.023933447  0.024007696            6 
 2019000   0.93929287    -7.140286     580.1481  0.023945357  0.024000035            4 
 2020000   0.94350316   -7.1359694     580.4143  0.023944484  0.023992354            6 
 2021000   0.93705267   -7.1878325     578.8206  0.023866922  0.023984647            9 
 2022000   0.93171149   -7.1968864    579.61153  0.023887716  0.023976886           10 
 2023000   0.93068627   -7.1510803    580.88082  0.023928193  0.023969092            7 
 2024000   0.92172872   -7.1756039    578.94654  0.023836732  0.023961316           12 
 2025000   0.92613944   -7.1547844    579.44982  0.023845672  0.023953611            6 
 2026000   0.92710974   -7.1574038    580.47643  0.023876128  0.023945834           10 
 2027000   0.92558848   -7.1209006    582.12109  0.023931964  0.023938081            8 
 2028000   0.93406064   -7.1852445    579.58708  0.023816037  0.023930296            5 
 2029000   0.91136479   -7.1293707    580.88316  0.023857531  0.023922506            4 
 2030000     0.928739   -7.1346456    581.96888  0.023890348  0.023914807            2 
 2031000   0.91422379   -7.1653948    580.00316  0.023797931   0.02390713            9 
 2032000   0.94412399   -7.1800407    581.30915  0.023839778  0.023899354           14 
 2033000   0.92897782   -7.1704345    581.32009    0.0238285  0.023891621            5 
 2034000   0.92156423   -7.1674438    582.22313  0.023853783  0.023883804            6 
 2035000   0.92590291   -7.1620369    582.00341  0.023833064  0.023876107            9 
 2036000   0.90719211   -7.1835654    579.31331  0.023711252  0.023868379            5 
 2037000   0.90241114   -7.1543119    581.74854  0.023799237  0.023860633            6 
 2038000   0.91182491   -7.1816428    582.11157  0.023802403  0.023852969            5 
 2039000   0.93444449   -7.1503341    582.48112  0.023805833  0.023845298           10 
 2040000   0.91486767   -7.1544675    581.99146  0.023774161  0.023837661           12 
 2041000   0.92683274   -7.1579228     582.8076  0.023795835  0.023830009           15 
 2042000   0.92598415   -7.1659177     583.2845  0.023803644   0.02382232            6 
 2043000    0.9359492   -7.1874437    582.82389  0.023773205  0.023814663            4 
 2044000    0.9210388    -7.169369    584.61865  0.023834746  0.023807038            6 
 2045000   0.93078781   -7.1782455    584.01421   0.02379846   0.02379947            8 
 2046000   0.92224647   -7.1796042    582.82837  0.023738529  0.023791871            3 
 2047000    0.9349772   -7.1326418    585.18947  0.023823053  0.023784223            5 
 2048000   0.92034058   -7.1534395    583.85798  0.023757242  0.023776696            6 
 2049000    0.9237352    -7.163326    584.02365  0.023752385  0.023769123            3 
 2050000   0.95096823   -7.1537475    585.68175  0.023808201  0.023761628            4 
 2051000   0.92952904    -7.190485    584.68861  0.023756241  0.023754046            4 
 2052000    0.9229745   -7.1569968    583.78903  0.023708131  0.023746449            7 
 2053000   0.91643609   -7.1337861    584.92442   0.02374267  0.023738893            8 
 2054000   0.91238717   -7.1809194    583.91155  0.023690018  0.023731328            4 
 2055000   0.92293273   -7.1803831    584.27952  0.023693411   0.02372374           10 
 2056000   0.91089661   -7.1449443    585.63781  0.023736941  0.023716074            7 
 2057000   0.92606605   -7.1805116    584.09649  0.023662959  0.023708491            8 
 2058000   0.92412991    -7.152521    584.63023  0.023673074  0.023700842            7 
 2059000   0.93371132   -7.1726638    583.90443  0.023632201  0.023693223            8 
 2060000   0.92884246   -7.1596241    585.74998  0.023695388  0.023685562            4 
 2061000   0.92913701   -7.1536904    582.59112  0.023556167  0.023677859            8 
 2062000    0.9130978   -7.1871403     583.9402  0.023599264  0.023670107            9 
 2063000   0.90954439   -7.2160602    583.20759  0.023558232  0.023662311            5 
 2064000   0.92223222   -7.1995888     582.6067  0.023522558  0.023654497           10 
 2065000   0.92576445    -7.197076    584.26033  0.023577899  0.023646726           15 
 2066000   0.93107322   -7.2069157    582.69812  0.023503474  0.023638964            6 
 2067000   0.91253736   -7.1955416    584.37852   0.02355985  0.023631233           10 
 2068000    0.9085448   -7.2289063    583.61971   0.02351788  0.023623499            5 
 2069000   0.91293025   -7.2095417    586.59685  0.023626424   0.02361576            7 
 2070000   0.92448721   -7.1443628    585.96306  0.023589495  0.023608089            4 
 2071000   0.92017759   -7.2220533    584.35671  0.023513468  0.023600385            6 
 2072000   0.90969587   -7.1989893    585.86979  0.023562974  0.023592646           11 
 2073000   0.92405239   -7.1681755    586.11777  0.023561576  0.023584954            6 
 2074000   0.92199728   -7.1794061    584.59925  0.023489202  0.023577287            3 
 2075000   0.90271693   -7.1600358    585.57718  0.023517156  0.023569636            7 
 2076000   0.92467045   -7.1857368    584.43952   0.02346016  0.023561898            9 
 2077000   0.92775606   -7.1980742     584.3604  0.023445691  0.023554138            5 
 2078000    0.9106525   -7.2252628    585.77109   0.02349098  0.023546413            3 
 2079000   0.92407642   -7.1620532    587.59011  0.023552594  0.023538705            3 
 2080000    0.9191068   -7.1523428    585.76011  0.023467953  0.023531012            4 
 2081000   0.91987632   -7.1752421    585.91152  0.023462739  0.023523313            4 
 2082000   0.93059282   -7.1949816    585.70114  0.023443049  0.023515657            4 
 2083000   0.90482608   -7.1898588     588.0745  0.023526744  0.023507955            4 
 2084000   0.92367454   -7.1832924     586.5646  0.023455078  0.023500242            4 
 2085000   0.93275462   -7.2182009     587.5635  0.023483753  0.023492607            8 
 2086000   0.93415752   -7.2038357    586.77781  0.023441108  0.023484963            7 
 2087000   0.91516643   -7.2433738    586.59272  0.023422485   0.02347716            4 
 2088000   0.91297292   -7.1893766    586.05812  0.023389931  0.023469501           10 
 2089000   0.93391636   -7.1759095    588.14733  0.023462077  0.023461816            5 
 2090000   0.89704802   -7.1894889    585.37274  0.023340221  0.023454058            5 
 2091000   0.91303379   -7.1780197    587.86512  0.023428388  0.023446358            8 
 2092000    0.9320897    -7.224308    587.29484  0.023394473  0.023438608           12 
 2093000   0.94669937   -7.1731297    586.90758  0.023367876  0.023430856            7 
 2094000   0.92276171   -7.1869737    585.53022  0.023301903  0.023423097            7 
 2095000   0.92442973   -7.1947647     587.3851  0.023364562  0.023415401           10 
 2096000   0.91123173   -7.1923178    587.20958  0.023346437  0.023407755            7 
 2097000   0.89594875     -7.20343    588.65821  0.023392871  0.023399985            7 
 2098000   0.94237703   -7.1723129    587.82591  0.023348662  0.023392254            3 
 2099000   0.93721869   -7.1875315    587.40031  0.023320641  0.023384513           11 
 2100000   0.90635976   -7.1737435    588.14976  0.023339276  0.023376819            9 
 2101000    0.9134354   -7.2134617    588.92257   0.02335882  0.023369086            7 
 2102000   0.92588092   -7.1937651    588.66965  0.023337681  0.023361348            6 
 2103000   0.89957199    -7.207008    588.79931  0.023331721  0.023353608            4 
 2104000   0.91530724   -7.1939051     588.4962  0.023308626  0.023345833            5 
 2105000   0.92583479    -7.191123    588.78484   0.02330898  0.023338021            3 
 2106000   0.91312573   -7.1775913    588.65315  0.023292702  0.023330215            4 
 2107000   0.91061869   -7.1696293    588.53072  0.023276804  0.023322466            6 
 2108000    0.9173026   -7.1837107    586.65021  0.023191422  0.023314726            3 
 2109000   0.90986965   -7.1924433    586.60691  0.023178715  0.023306988            7 
 2110000   0.91835583   -7.1581521    588.82301  0.023255253  0.023299273            5 
 2111000   0.91135389   -7.1941572    589.89406  0.023286517  0.023291539            5 
 2112000   0.91803783   -7.2180838    587.60936  0.023185344  0.023283773            4 
 2113000    0.9169879   -7.1954357    589.92847  0.023265833  0.023275932            5 
 2114000   0.92239396   -7.2104925    588.52491    0.0231995  0.023268124            5 
 2115000   0.90074819   -7.1987499    589.11037  0.023211599  0.023260335            9 
 2116000   0.91803979   -7.1722861    589.41884  0.023212777  0.023252708            5 
 2117000    0.9254046   -7.1915026    587.63439   0.02313157   0.02324501            5 
 2118000   0.90110001   -7.2321928     588.8993  0.023170416   0.02323727            4 
 2119000    0.9054497   -7.1999676    589.46691  0.023181804  0.023229542            7 
 2120000   0.92290426   -7.1959272    589.00304  0.023152635  0.023221773            7 
 2121000   0.93253997    -7.219576    589.98311  0.023180226  0.023214013            4 
 2122000   0.91588349   -7.2047537     590.0821  0.023173189  0.023206273            7 
 2123000   0.92828044   -7.2180362    590.35781  0.023173097  0.023198533            4 
 2124000    0.9009578   -7.2016237    589.10668  0.023113099  0.023190771            6 
 2125000    0.9056315   -7.2078219    589.54257  0.023119316  0.023182977            4 
 2126000   0.90681563   -7.2498491    587.54444  0.023030121  0.023175132            8 
 2127000   0.89639653   -7.2152997    588.45494  0.023054965  0.023167274           10 
 2128000   0.90413815   -7.1929098     590.3665  0.023118989   0.02315949            4 
 2129000   0.90599318   -7.2078554    589.48768  0.023073731  0.023151764            4 
 2130000   0.90492748   -7.1884637    591.35156   0.02313582  0.023144106            6 
 2131000   0.91630052   -7.1827206     591.2217  0.023119885  0.023136475            4 
 2132000    0.9026899   -7.1965553    590.74597  0.023090446  0.023128811            2 
 2133000   0.91581069   -7.2335115    588.73366  0.023001003   0.02312106            8 
 2134000   0.90330794   -7.2224197    589.70799  0.023028272  0.023113309           11 
 2135000   0.92506859   -7.2500299    589.81576  0.023021692  0.023105561            7 
 2136000   0.91891482   -7.2220762    590.85054  0.023051285  0.023097791            7 
 2137000   0.89549464    -7.223699    590.35249  0.023021077  0.023090033            4 
 2138000   0.91310175   -7.2163162    591.35293  0.023049303  0.023082271            4 
 2139000   0.91589199   -7.1975458    590.78636  0.023016455  0.023074495            5 
 2140000   0.89823267   -7.1921516    592.53679  0.023073863  0.023066722           11 
 2141000   0.90655565   -7.2185182    589.96353  0.022962927  0.023058991            8 
 2142000   0.89145177   -7.2002157    590.28364  0.022964661   0.02305132            5 
 2143000    0.8917264   -7.1998694     589.7016  0.022931311  0.023043632            4 
 2144000   0.90530742   -7.2539376    591.14448  0.022976698   0.02303581            8 
 2145000   0.90960797   -7.2202237    592.10038  0.023003123  0.023028016            3 
 2146000   0.92186996   -7.2031758    591.12339  0.022954465  0.023020312            5 
 2147000   0.89468532    -7.181807    589.43938  0.022878411  0.023012558            3 
 2148000   0.90203043    -7.229722    591.41917  0.022944567  0.023004854            3 
 2149000   0.90714613   -7.1699141    592.59042  0.022979309  0.022997189           10 
 2150000   0.89919974   -7.2065086    591.79483  0.022937784  0.022989545            4 
 2151000   0.88067085   -7.2310664    590.71115  0.022885137  0.022981727            6 
 2152000   0.91736294    -7.249026    591.84857  0.022918547  0.022973872            7 
 2153000   0.90638786   -7.2299345    592.55076  0.022935081  0.022966101            8 
 2154000   0.90198929   -7.2230495     590.5919   0.02284865  0.022958405            4 
 2155000   0.90789697   -7.2416501    592.05293  0.022894545  0.022950725           10 
 2156000   0.90844191   -7.2038966    592.27461  0.022892494  0.022943011            8 
 2157000   0.90434009   -7.2110462    592.76618  0.022900872  0.022935286           10 
 2158000   0.89808849   -7.2127915    591.89844  0.022856752  0.022927622            3 
 2159000   0.89403032   -7.2439163     589.4741   0.02275259  0.022919819           10 
 2160000   0.89833744   -7.1868675    592.44518  0.022856681   0.02291204            6 
 2161000   0.92030605   -7.2129396    591.97091  0.022827815  0.022904315            6 
 2162000    0.9058474     -7.23285    593.53812  0.022877664  0.022896576            8 
 2163000   0.91319131   -7.2260701    592.57378  0.022829935  0.022888795            4 
 2164000   0.89448655   -7.2167784    592.46104  0.022815043  0.022880995            7 
 2165000   0.92146818   -7.2001974    591.81332  0.022779573  0.022873179            6 
 2166000   0.90183116   -7.2283446    591.32422  0.022750239  0.022865363            8 
 2167000   0.92023579   -7.2305236    592.15892   0.02277184  0.022857562           16 
 2168000   0.90304529   -7.2485928    593.27416  0.022804204  0.022849739            4 
 2169000   0.89960026   -7.2241764    592.61609  0.022768407  0.022842013            6 
 2170000   0.89861267   -7.2271175    593.83993  0.022804913  0.022834333            4 
 2171000   0.90539964   -7.1980738    593.49206  0.022781056  0.022826703            6 
 2172000   0.88760043   -7.2135903    594.48841  0.022808794  0.022819108            5 
 2173000    0.9082292   -7.2596904    593.96688  0.022778297  0.022811461            3 
 2174000   0.90934743   -7.2248285    594.56611  0.022790789  0.022803802            8 
 2175000   0.92206168   -7.2119852    595.80143  0.022827641  0.022796162            5 
 2176000   0.90687884   -7.2100462    596.10318  0.022828707  0.022788606            3 
 2177000   0.90931988   -7.2825169    592.50909  0.022680642  0.022780977            5 
 2178000   0.92076732   -7.2600605    593.71839  0.022716498  0.022773305           11 
 2179000   0.90539022   -7.2213021    593.94628  0.022714788  0.022765608            4 
 2180000    0.9015613   -7.2660475    593.58713  0.022690639  0.022757902            9 
 2181000    0.9079784   -7.2387123    593.80009  0.022688373  0.022750176            6 
 2182000   0.91016994   -7.2265397    594.07217  0.022688366  0.022742482            5 
 2183000   0.90384948   -7.2302825    596.35482   0.02276511  0.022734835            6 
 2184000   0.91484055   -7.2717228    595.40386  0.022718401  0.022727152            4 
 2185000   0.89234088   -7.2712378    594.11319  0.022658779  0.022719512            4 
 2186000   0.92197234   -7.1998275    597.30949  0.022770261  0.022711922            8 
 2187000   0.91281989    -7.235092    596.32489  0.022722332  0.022704353            6 
 2188000   0.90389568   -7.2127658    596.38168   0.02271411  0.022696715            9 
 2189000   0.89486699   -7.2359493    596.38298  0.022703783  0.022689116            6 
 2190000   0.90108739   -7.2288144    596.99398  0.022716666  0.022681487            4 
 2191000   0.89246297   -7.2105089    595.67879  0.022656275  0.022673931            6 
 2192000   0.90241923   -7.2184077     597.1119  0.022700422  0.022666458            6 
 2193000   0.91079669   -7.2287902    597.91116  0.022720442  0.022658973            6 
 2194000   0.87853888   -7.1938986    598.54976  0.022734342  0.022651538            4 
 2195000    0.8924494   -7.2410802    597.11034  0.022669337  0.022644116            4 
 2196000   0.88630568   -7.2349067    597.74457  0.022683082  0.022636554            5 
 2197000   0.88470473   -7.2703759    595.43974  0.022585334  0.022629013            3 
 2198000   0.89884413   -7.2439101     597.9345  0.022669643   0.02262152            7 
 2199000    0.8740128   -7.2513006    597.60185  0.022646728  0.022614011            8 
 2200000    0.9261402   -7.2729204    597.49597  0.022632423   0.02260647            7 
 2201000   0.89380271   -7.2332533    595.87628  0.022560816  0.022598894            9 
 2202000   0.90129726   -7.2910877    596.68849  0.022581308  0.022591354            5 
 2203000     0.906676   -7.2504569    597.77106  0.022612009  0.022583718            4 
 2204000   0.91424583    -7.224885    596.71615  0.022561863  0.022576136           12 
 2205000   0.90408674   -7.2437459    598.79156  0.022630067  0.022568572            4 
 2206000   0.87241569   -7.2080719     598.5822  0.022611899   0.02256107            5 
 2207000   0.91152565   -7.1985527    598.64064   0.02260386  0.022553612            6 
 2208000   0.89714388   -7.2270084      597.529  0.022551668  0.022546146            4 
 2209000   0.89960616   -7.2170463    598.59292  0.022581595  0.022538688            4 
 2210000   0.89195365   -7.2064232    598.26177   0.02255889   0.02253119            4 
 2211000   0.90214425   -7.2204933    596.67808  0.022488997  0.022523613            5 
 2212000   0.90980218   -7.2490604    598.98762  0.022565839  0.022516005           11 
 2213000   0.90489839   -7.2626913    596.30716  0.022454706  0.022508366            5 
 2214000   0.89488398   -7.2708857    596.35673  0.022446429  0.022500789            9 
 2215000   0.90097742   -7.2270283    596.90975  0.022457101  0.022493184            4 
 2216000   0.93104256   -7.2536849    597.56331  0.022471544   0.02248557            9 
 2217000   0.90854458   -7.2146986    599.73917  0.022543195  0.022477993            9 
 2218000   0.88774285   -7.2387161    599.24545  0.022514482  0.022470389            4 
 2219000   0.90494605   -7.2457743    598.99853  0.022495063  0.022462737            6 
 2220000   0.87628569   -7.2730976     597.7006  0.022436209  0.022455095           11 
 2221000   0.87764317    -7.271125    597.06879  0.022402401  0.022447431            7 
 2222000     0.904543   -7.2784664    597.37592  0.022403837  0.022439702           13 
 2223000   0.90688227   -7.2757142    597.75027  0.022407792  0.022431929            7 
 2224000   0.90885586   -7.2592868    596.56566  0.022353329  0.022424226            4 
 2225000   0.90651629   -7.2878758    596.36214  0.022335661  0.022416527            9 
 2226000    0.8983156   -7.2699908    598.32068  0.022398947  0.022408817            6 
 2227000   0.88036632   -7.2716173    596.50415  0.022320916  0.022401081            7 
 2228000   0.88109405   -7.2635911    598.08834   0.02237015  0.022393464            7 
 2229000   0.90729044    -7.269221    596.96413  0.022318085  0.022385805            5 
 2230000   0.90147173   -7.2697294    597.42575  0.022325327  0.022378185            5 
 2231000   0.88631933   -7.2848207    596.45136  0.022278924  0.022370552            8 
 2232000   0.89343937   -7.2504037    598.77641   0.02235575  0.022362875            6 
 2233000   0.91527856   -7.2983082    598.18873  0.022323807  0.022355165           11 
 2234000   0.89750026   -7.2449277    597.65563  0.022293928  0.022347453           10 
 2235000   0.89110029   -7.2531867    599.53321   0.02235396  0.022339815            6 
 2236000   0.89271212   -7.2478172    599.84035  0.022355409  0.022332157            9 
 2237000   0.88406762   -7.2689479    599.31108    0.0223257  0.022324539           11 
 2238000   0.89338674   -7.2495121    598.61784   0.02228991  0.022316908            3 
 2239000   0.89073916   -7.2274875    600.42648  0.022347271  0.022309274            6 
 2240000   0.90423292    -7.272022    598.31526  0.022258752  0.022301658            3 
 2241000   0.90046864   -7.2696321    599.33297  0.022286664   0.02229405            4 
 2242000   0.88020182   -7.2993563    598.08198  0.022230225  0.022286387            5 
 2243000   0.87896419   -7.2525647    600.60085  0.022313897  0.022278751            9 
 2244000   0.89683068   -7.2683596    599.46721  0.022261854   0.02227116           17 
 2245000   0.89347256   -7.2824669    599.63526  0.022258176  0.022263524            8 
 2246000   0.89761475   -7.2894926     599.2627  0.022234443  0.022255873            9 
 2247000    0.8811907   -7.2553377    600.75802  0.022280004  0.022248269           28 
 2248000   0.91286258   -7.2622458    599.34299  0.022217638  0.022240674            8 
 2249000   0.88610375   -7.2776559    598.33734  0.022170496  0.022233075            4 
 2250000   0.88994863   -7.2785047     599.3559  0.022198367  0.022225438           17 
 2251000   0.89740063    -7.276012     599.3119  0.022186876  0.022217785           10 
 2252000   0.88953938   -7.2932997    599.00494  0.022165665  0.022210114            5 
 2253000   0.89569934   -7.2475891    601.08875  0.022232903    0.0222025            9 
 2254000   0.90716546   -7.2844681    599.97664  0.022181922  0.022194893            7 
 2255000   0.87876094   -7.2541127    599.41104  0.022151184  0.022187301            6 
 2256000   0.87881543    -7.286491    599.94889  0.022161233  0.022179719            7 
 2257000   0.89980472   -7.2637059    600.95792  0.022188669  0.022172126            6 
 2258000   0.87157628   -7.3165092    599.15137   0.02211217  0.022164474            4 
 2259000   0.88463106   -7.2860188    598.59494  0.022081856  0.022156804           15 
 2260000   0.88896666   -7.2878924    599.56077  0.022107698  0.022149208            6 
 2261000    0.8821196   -7.2825332    601.01187  0.022151403  0.022141646            4 
 2262000   0.87129699   -7.2537969     600.4757  0.022121858  0.022134058           12 
 2263000    0.8882792   -7.2705968    601.80979  0.022161209  0.022126487            5 
 2264000   0.88262839   -7.2670822    602.18598  0.022165267  0.022118928            6 
 2265000   0.87847857     -7.27595     600.3647  0.022088473  0.022111396            6 
 2266000   0.87464742   -7.2648711    602.11091  0.022142943  0.022103802           13 
 2267000   0.88138842   -7.3009307    601.45405   0.02210903  0.022096283            4 
 2268000   0.91060718   -7.2472306    602.85458  0.022150741  0.022088823            6 
 2269000    0.9041291    -7.312463    600.81712  0.022066149    0.0220813            6 
 2270000   0.88754967   -7.2857558    600.80278  0.022055903  0.022073744           12 
 2271000   0.88764774   -7.2956148    600.71555  0.022042989  0.022066183           10 
 2272000   0.88658827    -7.281449    602.01282  0.022080869  0.022058561            8 
 2273000   0.91335181   -7.2937083    602.06368  0.022073019  0.022051029            6 
 2274000   0.89204456   -7.2950288    601.27796  0.022034519  0.022043481            5 
 2275000   0.87899632   -7.2410059    604.89234  0.022157228  0.022035966           13 
 2276000   0.89459669   -7.2596603    604.90276  0.022147875  0.022028568            3 
 2277000   0.87412125   -7.2813536     603.1415   0.02207369  0.022021154            4 
 2278000   0.89331773   -7.3090951    602.86256  0.022053796  0.022013723            9 
 2279000   0.90036028    -7.292935    603.86906  0.022080922  0.022006235            5 
 2280000   0.90135053    -7.285751    603.00771  0.022039755  0.021998774            6 
 2281000   0.90715393   -7.2881804     603.2003  0.022037129    0.0219913            5 
 2282000   0.88977064    -7.247899    603.38508   0.02203422  0.021983881            8 
 2283000   0.87567369   -7.2651589    602.98233  0.022009868  0.021976402            6 
 2284000   0.88753345   -7.2680788    602.94066  0.021998711  0.021968997            5 
 2285000   0.89023018   -7.3164291    602.20929   0.02196241   0.02196155            4 
 2286000   0.89301734   -7.2757942    604.22776  0.022026384  0.021954077            5 
 2287000   0.86915784   -7.2818739    603.30766  0.021983226  0.021946588            8 
 2288000   0.87493646   -7.3338007    602.04931  0.021927787  0.021939015            5 
 2289000   0.86795135   -7.3478963    602.01626  0.021917004  0.021931435            6 
 2290000   0.87628154   -7.2951907    602.43549  0.021922689   0.02192377            6 
 2291000   0.88306782   -7.3192855    602.58813  0.021918672  0.021916166           11 
 2292000   0.89031998   -7.2674319    604.42456  0.021975879  0.021908664            8 
 2293000   0.88061469   -7.2546264    604.48266  0.021968406  0.021901263            5 
 2294000   0.87326728   -7.3048465    604.20659  0.021948801  0.021893833            6 
 2295000   0.87885247   -7.2793181    604.28086  0.021941934  0.021886389            7 
 2296000   0.89120672   -7.3032364    604.43697  0.021938043  0.021878978            9 
 2297000   0.87331347   -7.2774763    605.02397  0.021949788  0.021871513            5 
 2298000   0.88304204    -7.288477    605.07409  0.021942054  0.021864068           11 
 2299000   0.88286319   -7.3175683    602.59586   0.02184268  0.021856613           12 
 2300000   0.89638084   -7.2965187     604.9224  0.021917478  0.021849126            9 
 2301000   0.90333997   -7.3021769    602.52259  0.021821041  0.021841655            4 
 2302000   0.89845963   -7.2887361    605.96374  0.021936133  0.021834216            8 
 2303000   0.87672229   -7.3092214    604.51212  0.021874082  0.021826747            8 
 2304000   0.89962003   -7.3163527    603.51075  0.021828369  0.021819222            9 
 2305000   0.87474798   -7.3133162    604.74808  0.021863633  0.021811758           13 
 2306000   0.90203591   -7.2957554    604.53014  0.021846276  0.021804292            3 
 2307000   0.88901641   -7.3209431    604.94635   0.02185184  0.021796767            8 
 2308000   0.88637849   -7.2999499     603.0867  0.021775227  0.021789307            5 
 2309000   0.86506506   -7.3233817    603.42827  0.021778124  0.021781803            7 
 2310000   0.88002141   -7.3056825     604.9555  0.021823792  0.021774303            3 
 2311000   0.89499453   -7.3055476    606.67831  0.021876472  0.021766805            5 
 2312000   0.86931753    -7.296769    604.34819  0.021783023  0.021759368            4 
 2313000   0.87231899   -7.2882927    604.90335  0.021793607  0.021751907            3 
 2314000   0.87169653   -7.2841963    604.42508  0.021766965  0.021744465            6 
 2315000   0.88584382   -7.2909334    605.79762   0.02180697  0.021737037            3 
 2316000   0.87757142   -7.2905525    602.89846  0.021693237  0.021729587            7 
 2317000   0.89602309   -7.3074811    604.49479  0.021741289  0.021722134            6 
 2318000   0.86046821   -7.3012364    606.85643  0.021816812  0.021714691            8 
 2319000   0.89362873   -7.3215028    605.10041  0.021744301  0.021707257            9 
 2320000   0.87641685   -7.3060367    605.83671  0.021761376  0.021699803            8 
 2321000   0.88343075   -7.3047791    604.98473  0.021721411   0.02169235            9 
 2322000   0.87146498   -7.3116245    607.52106  0.021803081  0.021684886            8 
 2323000   0.88040764   -7.2974007    605.34385  0.021715592  0.021677388            9 
 2324000   0.86411993   -7.2997138    606.03645  0.021731083  0.021669872            7 
 2325000   0.87830835   -7.3238274     604.6015  0.021670305  0.021662359            7 
 2326000   0.85933578   -7.3239111    605.73033  0.021701431  0.021654905            8 
 2327000   0.87318311   -7.2737753    605.72383  0.021691872   0.02164752            4 
 2328000   0.86547259   -7.2907676    606.45083  0.021708578  0.021640106           11 
 2329000   0.87843205   -7.3046061    606.69226  0.021707896  0.021632641            6 
 2330000   0.86681503   -7.2517897    606.59678  0.021695164  0.021625178            7 
 2331000   0.87812591   -7.2628547    606.18939  0.021671292   0.02161777            6 
 2332000    0.8856604   -7.3145781    606.02018  0.021655953  0.021610352           12 
 2333000   0.87346795   -7.2758971     607.3548  0.021694342  0.021602897            4 
 2334000   0.86334025   -7.2580818    607.63744  0.021695138  0.021595538            5 
 2335000    0.8552497   -7.3062165    607.06396  0.021665381  0.021588136           10 
 2336000   0.89395737    -7.315065    606.12642   0.02162266   0.02158064            3 
 2337000   0.90839284   -7.3009142    605.53967  0.021592486  0.021573163            9 
 2338000    0.8580519   -7.3056559    606.81043  0.021628544  0.021565731           13 
 2339000   0.88604927   -7.3263931    606.93848  0.021623859  0.021558195           12 
 2340000    0.8824061   -7.2989711     607.1882  0.021623511  0.021550741            4 
 2341000   0.85393765   -7.2909366    606.97616  0.021606726  0.021543312            6 
 2342000   0.87254844   -7.2902061    606.16676    0.0215687  0.021535837            3 
 2343000   0.88675396   -7.3302915     605.9673  0.021552401  0.021528373            5 
 2344000   0.86965649   -7.2974947    607.49489  0.021597515  0.021520877            8 
 2345000   0.86905522   -7.3009407     606.3411  0.021547303  0.021513447            8 
 2346000   0.88329285   -7.2494143    608.32709  0.021608663  0.021506049            4 
 2347000   0.88438526   -7.3338567    605.33288  0.021493143  0.021498563            6 
 2348000   0.89070189   -7.3339705    605.64255   0.02149498  0.021491076            6 
 2349000   0.87635519   -7.3020443    606.59056  0.021519461   0.02148353            9 
 2350000   0.87110367   -7.3012897    607.05907  0.021526917  0.021476065            6 
 2351000   0.87018268   -7.2938754    607.94406   0.02154913  0.021468645            5 
 2352000   0.87272907   -7.2581167       607.17  0.021512542  0.021461251            3 
 2353000   0.87921111   -7.3057937     607.7483  0.021523881  0.021453874            9 
 2354000   0.88932444   -7.2862549    609.83802  0.021588715  0.021446474            6 
 2355000   0.88080433   -7.3165143     608.6367  0.021537038  0.021439057            3 
 2356000   0.87341258    -7.303316    606.86031  0.021465065  0.021431625            8 
 2357000   0.88054293    -7.355528    606.02397  0.021426389   0.02142413            8 
 2358000   0.88562169   -7.3178735    606.44176  0.021432067  0.021416632            7 
 2359000   0.86511382   -7.2629892     609.5774   0.02153375   0.02140918            5 
 2360000   0.85534383   -7.3232687    607.95002  0.021467162  0.021401752            8 
 2361000   0.89282231   -7.3351612    606.42988  0.021404415  0.021394265            9 
 2362000   0.86563469   -7.3399048     607.2611  0.021424679  0.021386824           10 
 2363000   0.87804373   -7.3267181    608.15113     0.021447   0.02137937            9 
 2364000   0.82901759   -7.3676835    607.30699  0.021408171   0.02137187            6 
 2365000   0.84886545   -7.3019105    607.27701  0.021398062  0.021364394            4 
 2366000   0.85910609   -7.3219486    607.77781  0.021406657  0.021356937            3 
 2367000    0.8890883    -7.365109     607.2833  0.021380203  0.021349451           11 
 2368000   0.90172798   -7.3163802    608.10965  0.021400255  0.021341924            9 
 2369000   0.85650905   -7.3267693    605.98888   0.02131662  0.021334493           10 
 2370000   0.87322028   -7.3213555    609.20094  0.021420567  0.021327065           13 
 2371000   0.86012174   -7.3238722    609.37434  0.021417628  0.021319653            7 
 2372000   0.87723571   -7.3158825    609.40429   0.02140965  0.021312221           11 
 2373000   0.88763709   -7.3296541    608.68436  0.021375346  0.021304828            6 
 2374000   0.86310882   -7.3645378    608.64165  0.021364843   0.02129737            7 
 2375000   0.87758306   -7.2991737    610.87228  0.021434115  0.021289988            6 
 2376000   0.86641867   -7.3360022    609.13352  0.021364111  0.021282628            8 
 2377000    0.8900684   -7.3184709    609.07393  0.021353034  0.021275205            5 
 2378000   0.86420783   -7.3360201    608.52209  0.021324716  0.021267815            5 
 2379000   0.85991213   -7.3067941    610.27197  0.021377048   0.02126044            5 
 2380000   0.87734233   -7.3222129    609.87748  0.021354253  0.021253043            4 
 2381000   0.86392559   -7.2759632    611.28478  0.021394539  0.021245666            4 
 2382000   0.85920264    -7.286007     609.7884  0.021333207  0.021238365            8 
 2383000   0.87795967   -7.3264272    610.61002  0.021352987  0.021231006            4 
 2384000   0.83707087    -7.327572    608.80061  0.021280782  0.021223621           12 
 2385000   0.85748111   -7.3627224    606.96223  0.021207625  0.021216198            5 
 2386000   0.86337083   -7.3273867    608.93714  0.021267712  0.021208806           14 
 2387000   0.88856806   -7.3310076    609.62099  0.021282677  0.021201421            8 
 2388000   0.88722221   -7.3258344    609.41599   0.02126661  0.021194016            4 
 2389000   0.88165482   -7.3164799    609.09749  0.021246599  0.021186574            8 
 2390000   0.86546527   -7.2988586    609.34422  0.021246312   0.02117915            9 
 2391000    0.8480575    -7.348733    608.51672  0.021208585  0.021171701            5 
 2392000    0.8779561   -7.3249729    608.47984  0.021198434  0.021164238            7 
 2393000   0.87088306   -7.3390578    608.44429  0.021188337   0.02115677            6 
 2394000   0.87997101   -7.3304643    609.53202   0.02121735  0.021149303           10 
 2395000   0.87660971   -7.3645938    607.92777  0.021152671  0.021141841            6 
 2396000   0.87770167   -7.3260314    610.43656  0.021231099  0.021134396            7 
 2397000   0.84400851   -7.3233573    608.25847  0.021146519  0.021126963            6 
 2398000   0.86790853   -7.3394369    609.06234  0.021165636  0.021119524           10 
 2399000   0.85786864   -7.3506188    610.52054  0.021207466  0.021112075           11 
 2400000   0.86559721   -7.3475978     609.4448  0.021161278  0.021104617            5 
 2401000   0.87752601    -7.325182     610.4331  0.021186766  0.021097163            9 
 2402000   0.86536478   -7.3354654    609.57476  0.021148167  0.021089754           11 
 2403000    0.8634898   -7.3490942    608.55966  0.021104163   0.02108229            9 
 2404000   0.88041672   -7.3166519    610.72684  0.021170509  0.021074823            7 
 2405000   0.85867259   -7.3853894    609.33778  0.021113575  0.021067333            8 
 2406000   0.86757478   -7.3752066    609.23305  0.021101172  0.021059845            8 
 2407000   0.87280679   -7.3264204     610.0239  0.021119786  0.021052425            5 
 2408000   0.85388667   -7.3742825    609.85731   0.02110525  0.021044952            5 
 2409000   0.86231865   -7.3220929    609.75772  0.021093044  0.021037466           11 
 2410000   0.86023302   -7.3528629    609.92295  0.021090005  0.021030039            7 
 2411000   0.87448777   -7.3714986    609.92673  0.021081388  0.021022604           10 
 2412000   0.86503419   -7.3490968     609.5216  0.021058651  0.021015231            8 
 2413000   0.86284613    -7.334486    611.15069  0.021106185  0.021007849            5 
 2414000   0.85848493   -7.3114459    612.02192  0.021127517  0.021000551            4 
 2415000   0.87547354   -7.3429693    611.78426  0.021110568  0.020993236            3 
 2416000   0.84678219   -7.3560949    610.52882  0.021058527  0.020985888           15 
 2417000   0.87619195   -7.3292657    611.63087  0.021087811  0.020978569           38 
 2418000   0.85031917   -7.3652646    611.11999  0.021061483  0.020971201           15 
 2419000    0.8643209   -7.3686352    610.91531  0.021045725  0.020963848           17 
 2420000   0.88657076   -7.3976775    609.12121  0.020975248  0.020956406           26 
 2421000   0.84821151    -7.373441     611.1995  0.021038121  0.020948981            5 
 2422000   0.84765328   -7.3843146    610.25813  0.020997046  0.020941621           15 
 2423000   0.86694856   -7.3627179    610.25779  0.020988368   0.02093426            5 
 2424000    0.8814869   -7.3663852     611.4867  0.021021957  0.020926909           10 
 2425000   0.87400246   -7.3856499     611.4781  0.021012993  0.020919539           13 
 2426000    0.8537412   -7.4184099    608.79121  0.020912037    0.0209121           15 
 2427000   0.86243005   -7.4211435    610.85343  0.020974228  0.020904633           10 
 2428000   0.87764342   -7.3898408    610.14648  0.020941326  0.020897194            9 
 2429000   0.86046004   -7.3763217    612.06582  0.020998553  0.020889808           16 
 2430000   0.86031833   -7.3724161    611.06669  0.020955648  0.020882438           13 
 2431000   0.84407949   -7.3788983    611.66147  0.020967416  0.020875066            6 
 2432000   0.84748468   -7.3827119    612.90256  0.021001321  0.020867763            9 
 2433000   0.87243306   -7.3618941    613.23284  0.021004002  0.020860449            5 
 2434000   0.87651271   -7.3480532    613.09168  0.020990539  0.020853128            7 
 2435000    0.8654722   -7.3732251     610.8495  0.020905185  0.020845808            7 
 2436000   0.83094223   -7.3938053    611.00061  0.020901772  0.020838428            6 
 2437000   0.84370866   -7.3765366     611.7531  0.020918927  0.020831095           12 
 2438000   0.86578146   -7.3355648    614.45354   0.02100265  0.020823756            6 
 2439000   0.83983594   -7.3567326    613.13592   0.02094902   0.02081644           11 
 2440000   0.87870454   -7.3478769    612.01167  0.020902038  0.020809146            6 
 2441000   0.86523348   -7.3766563    610.53322  0.020843002  0.020801819            7 
 2442000    0.8905941   -7.3635501    611.32384  0.020861447  0.020794455            5 
 2443000   0.85380369   -7.3634966    612.17808  0.020882047  0.020787125            4 
 2444000   0.85729491   -7.3706679    611.59708  0.020853692  0.020779793            6 
 2445000   0.86426477    -7.339487    613.46139  0.020908705  0.020772443           10 
 2446000   0.86841755   -7.3659022    612.52304  0.020868187   0.02076514            5 
 2447000   0.86455137   -7.3681064    613.49177   0.02089265  0.020757798           15 
 2448000   0.84532596   -7.3681198    613.79933  0.020894585    0.0207505           17 
 2449000   0.85102297   -7.3580725    613.72675  0.020883583  0.020743176           18 
 2450000   0.85101677   -7.3657845     613.0883  0.020853343  0.020735887           11 
 2451000   0.86391022   -7.3956278    612.38126  0.020820796  0.020728604           15 
 2452000   0.86232498   -7.3704235    614.21433  0.020874603  0.020721315           13 
 2453000   0.85548136   -7.3468849    614.42301  0.020873183  0.020714038           17 
 2454000   0.87003009   -7.3716336     614.1495  0.020855389  0.020706752            9 
 2455000   0.85859712   -7.3652604    612.31097  0.020784486  0.020699395            8 
 2456000   0.84901999   -7.3786136    612.92456  0.020796843  0.020692098            4 
 2457000   0.85496543   -7.4014024    611.24741  0.020731495  0.020684746           28 
 2458000   0.84335485   -7.3617818    613.95992  0.020815023  0.020677447           10 
 2459000   0.84626888   -7.3793019    614.78267  0.020834441   0.02067019            9 
 2460000   0.86105497   -7.3684741    613.40841  0.020779418  0.020662857            8 
 2461000   0.85831936   -7.3691883    612.52743  0.020741143  0.020655566            5 
 2462000   0.85597028   -7.3637114    613.87446  0.020778312  0.020648222            8 
 2463000   0.86830868   -7.3869143    613.73031  0.020764999  0.020640935            5 
 2464000   0.85777458    -7.367268    611.80698  0.020691524  0.020633644           12 
 2465000   0.85189101   -7.3990563     613.4074  0.020737235  0.020626283            5 
 2466000    0.8297964     -7.36131    612.91747  0.020712269  0.020618962           10 
 2467000   0.84055762   -7.3731111    612.70092  0.020696559  0.020611655           12 
 2468000   0.85794035   -7.3542211    614.23699  0.020740039  0.020604392            7 
 2469000   0.83809516   -7.3833827    614.63319  0.020745011  0.020597166            3 
 2470000   0.84955742   -7.3542478    613.86861  0.020710817  0.020589925            4 
 2471000   0.86839549   -7.4042889     613.1423  0.020677941    0.0205827            8 
 2472000   0.87469275   -7.3872435    613.18349  0.020670964  0.020575402           13 
 2473000     0.859856   -7.4048134    613.08886  0.020659417  0.020568101            9 
 2474000   0.85794147   -7.3892431    614.32874   0.02069283  0.020560831            8 
 2475000   0.86810162   -7.3820729    615.07046  0.020709443  0.020553611            5 
 2476000   0.87416755   -7.4079572    614.04105  0.020666433  0.020546399           10 
 2477000   0.85646625   -7.3684369    615.40775  0.020704069  0.020539185            3 
 2478000   0.83184771   -7.4020754    614.94231  0.020680061  0.020531961            7 
 2479000   0.87104769   -7.3593525    614.74481   0.02066508  0.020524681            8 
 2480000   0.85307733   -7.3517358    614.50642  0.020648737  0.020517414            6 
 2481000   0.84238421   -7.3816291    614.00044  0.020623419  0.020510183            5 
 2482000   0.87284118   -7.4068549    614.71559  0.020639121  0.020502914            6 
 2483000   0.85132591   -7.3989421    614.07278  0.020609235  0.020495678            9 
 2484000    0.8497627   -7.3717595    614.06756  0.020600764   0.02048846            5 
 2485000   0.85059327   -7.3973768     615.2431  0.020631895  0.020481228           10 
 2486000   0.86114438   -7.3761053    615.51399  0.020632676  0.020473989            7 
 2487000   0.84284161   -7.4050829    615.15429  0.020612327  0.020466733            8 
 2488000   0.85670502   -7.3934797    615.32716  0.020609832  0.020459465            4 
 2489000   0.85564026   -7.4037424    615.04691  0.020592169  0.020452196            7 
 2490000   0.87587473   -7.3933371    615.10563  0.020585864  0.020444949            9 
 2491000   0.85709231   -7.3680505    615.05496  0.020575905   0.02043768           12 
 2492000    0.8568036   -7.3859893    616.56916  0.020618284  0.020430424            6 
 2493000   0.83607308   -7.4015526     614.9859   0.02055709  0.020423148           10 
 2494000   0.82982047   -7.4085328    614.57165  0.020535006  0.020415852           13 
 2495000    0.8532209   -7.3684585    615.15802   0.02054636  0.020408613           11 
 2496000   0.86048153    -7.338571    617.39112  0.020612684  0.020401422           10 
 2497000   0.85576287    -7.400838    615.41666  0.020538535  0.020394209            6 
 2498000   0.84014977   -7.3484816    616.51118  0.020566826  0.020387021           13 
 2499000    0.8497155    -7.412206    615.94258  0.020539635  0.020379833           15 
 2500000   0.83195463   -7.4138962    614.54763  0.020484921  0.020372615           12 
 2501000   0.84817426   -7.4129484    614.88741  0.020488052  0.020365363            5 
 2502000   0.86259183   -7.3944159    615.99489  0.020516749  0.020358108            6 
 2503000   0.86078445   -7.3817649    616.38141  0.020521421  0.020350897           15 
 2504000   0.86764767   -7.3698122    615.96152  0.020499252  0.020343708           11 
 2505000   0.86057401   -7.3921603    616.40902  0.020505955  0.020336538            7 
 2506000    0.8507093   -7.3785538    615.44322  0.020465657   0.02032931           10 
 2507000   0.86491853   -7.4131733    616.06036  0.020478007  0.020322128           18 
 2508000    0.8469733   -7.4042177    614.73292  0.020425735  0.020314905            6 
 2509000   0.85785515   -7.3932913    617.14011  0.020497546  0.020307744            8 
 2510000   0.83089134   -7.3800377    616.05418  0.020453326  0.020300633            6 
 2511000   0.85170346   -7.3796341    616.13418  0.020447835  0.020293463            8 
 2512000   0.85503844   -7.3672952    617.39354  0.020481474  0.020286257           10 
 2513000   0.84276865   -7.4069314    616.53492  0.020444851  0.020279058            6 
 2514000   0.86681154   -7.3704651     616.3766  0.020431471  0.020271842           10 
 2515000   0.83717664   -7.4187961    615.37408  0.020390129  0.020264679            5 
 2516000   0.83336157    -7.424675    615.89788  0.020399373  0.020257495           16 
 2517000   0.85767102   -7.4153258    615.69978   0.02038471  0.020250313           14 
 2518000    0.8349259   -7.3985281    617.49576  0.020436052   0.02024315            5 
 2519000   0.85976409   -7.4379653    615.52024  0.020362586  0.020235958            6 
 2520000   0.85775168   -7.3918261    617.45354  0.020418437  0.020228801            7 
 2521000    0.8385905   -7.3847211    618.34981  0.020439965  0.020221665           20 
 2522000   0.86080925   -7.3834498    618.88502  0.020449545  0.020214523            7 
 2523000   0.83874726    -7.404706    617.99204  0.020411945   0.02020736            9 
 2524000   0.86063849   -7.4150731    616.85298   0.02036625  0.020200133            5 
 2525000    0.8475331   -7.3924075    617.16153  0.020368367  0.020192955            5 
 2526000   0.85312435   -7.4206734    617.62892  0.020375723   0.02018584            7 
 2527000   0.84769808   -7.3849584    618.23317  0.020387586  0.020178694            5 
 2528000   0.83465385   -7.3768203    617.33879  0.020350039  0.020171557           13 
 2529000   0.84437368   -7.3893999     618.2769  0.020372904  0.020164386           13 
 2530000   0.85533749   -7.3886143      617.388  0.020335573  0.020157204            9 
 2531000   0.83911665   -7.3854684     618.4109  0.020361218  0.020150066            7 
 2532000   0.84556986   -7.4137199    616.69743  0.020296782  0.020142936            8 
 2533000   0.84308496   -7.3937038    618.09474  0.020334739  0.020135786            4 
 2534000   0.85728377   -7.3889811    617.52724  0.020308052  0.020128639           11 
 2535000   0.84009584   -7.4487442    616.72107  0.020273539  0.020121529           11 
 2536000    0.8516186   -7.4236437    618.81317  0.020334292   0.02011436            7 
 2537000   0.84190611   -7.3886053    619.33444  0.020343399  0.020107234            6 
 2538000    0.8289074   -7.4081662    617.75667  0.020283579  0.020100114            7 
 2539000   0.82970367   -7.3916664    618.51351   0.02030043  0.020092966            8 
 2540000   0.83540272   -7.4347892    616.27765  0.020219083  0.020085776            5 
 2541000    0.8463407    -7.445857    617.19492  0.020241208  0.020078604           10 
 2542000   0.84585997   -7.4079949    616.18834  0.020200247   0.02007141           30 
 2543000   0.86152564   -7.4488463    616.94645  0.020217147  0.020064247           10 
 2544000   0.83145446   -7.4352646    616.33951  0.020189318  0.020057055           14 
 2545000   0.83527766     -7.39217    618.18253  0.020241733  0.020049908           20 
 2546000    0.8510045   -7.3998906    618.71587  0.020251239  0.020042773           11 
 2547000   0.84832914   -7.4048729    616.34041  0.020165568  0.020035661           22 
 2548000   0.84669436   -7.4076795    617.78518  0.020204905  0.020028535           11 
 2549000   0.83648068   -7.4347396    617.39429  0.020184199   0.02002141            6 
 2550000   0.84561722   -7.4387973    617.95894  0.020194736  0.020014259            6 
 2551000   0.83523408   -7.4412335    616.23555  0.020130522  0.020007143           13 
 2552000   0.84397537   -7.4393444    618.85716  0.020208241  0.020000052           11 
 2553000   0.83966827    -7.405752    620.03585  0.020238799  0.019992964           11 
 2554000   0.83305143   -7.4179121    618.70785  0.020187544  0.019985873            7 
 2555000   0.85150291   -7.4490563    617.21833  0.020131061  0.019978734           14 
 2556000    0.8625562   -7.4366416    618.77817   0.02017404  0.019971598           13 
 2557000   0.83934778   -7.3937725    620.38141  0.020218401   0.01996447            9 
 2558000    0.8618524   -7.4557213    618.17926  0.020138756  0.019957353            4 
 2559000   0.84244471    -7.400418    619.17478  0.020163305  0.019950318            4 
 2560000   0.83702991   -7.3786665    620.38502  0.020194825  0.019943256           10 
 2561000   0.84485066   -7.4345754     618.3462  0.020120597  0.019936199            9 
 2562000   0.82845343   -7.4490973    618.32589  0.020112083   0.01992907           14 
 2563000   0.85419122   -7.4406767    616.80229  0.020054698  0.019921928            4 
 2564000   0.85142115   -7.4330706    618.20881   0.02009259  0.019914782            8 
 2565000   0.83353472   -7.4441519    618.75317  0.020102442  0.019907661           10 
 2566000   0.83581975    -7.440846    618.81258  0.020096537  0.019900585            8 
 2567000   0.82410149   -7.4191572    618.66397  0.020083884  0.019893502           13 
 2568000   0.84655147   -7.4064833    619.35496  0.020098486   0.01988644           14 
 2569000   0.82818394   -7.4050896    621.11917   0.02014789   0.01987939            5 
 2570000   0.84963915    -7.436359    619.66735  0.020092975  0.019872338            9 
 2571000    0.8407289   -7.4215277    619.31549  0.020073755  0.019865292           12 
 2572000   0.84456961   -7.4367157    619.50027  0.020071937  0.019858244           13 
 2573000   0.82469644   -7.4250337    619.56977  0.020066387  0.019851182            6 
 2574000   0.84536905   -7.4423944    619.88824  0.020068902  0.019844152            7 
 2575000   0.84336943   -7.4363904    618.87532  0.020028327  0.019837074            7 
 2576000   0.86431781   -7.4697004     618.2143  0.019999169   0.01982999           10 
 2577000   0.82241729   -7.4763794    618.04322  0.019985876  0.019822881           13 
 2578000   0.81913894   -7.4674881     619.5444  0.020026649   0.01981579           11 
 2579000   0.84705602   -7.4936069    619.41176  0.020014597  0.019808697            8 
 2580000   0.83967542   -7.4535043    618.40391  0.019974286   0.01980154           27 
 2581000   0.83232987   -7.4233982    619.19225  0.019992001  0.019794433            9 
 2582000   0.84435563    -7.430979    620.96671  0.020041528  0.019787346           21 
 2583000   0.85506248    -7.489264     618.5362  0.019955356  0.019780215           24 
 2584000   0.83800374   -7.4522934     618.9323  0.019960407  0.019773084           13 
 2585000   0.83754186   -7.4304326    619.91003  0.019984205  0.019766055            7 
 2586000   0.85878859   -7.4075277    618.95307  0.019945639  0.019759027           21 
 2587000   0.82811423   -7.4644193     619.8616  0.019967195  0.019752007           11 
 2588000   0.81579158   -7.4271646    621.13866  0.020000601  0.019745013           27 
 2589000   0.83520278   -7.4395099    619.90429  0.019953145  0.019738029            5 
 2590000    0.8158494   -7.4300244    620.79732  0.019974174  0.019731053            9 
 2591000   0.83743481   -7.4665528    621.21878   0.01998002  0.019724075            7 
 2592000   0.83118262   -7.4488816    621.02441  0.019966063  0.019717116           12 
 2593000   0.85691466   -7.4076884    621.04456   0.01995901  0.019710148            8 
 2594000   0.83373417   -7.4056367    621.70193  0.019972434  0.019703176            4 
 2595000   0.83690149   -7.4024837     620.9006  0.019939005  0.019696206            8 
 2596000    0.8455724   -7.4374253    622.63367  0.019986957  0.019689285           13 
 2597000   0.84486919   -7.4204745    622.32016    0.0199692  0.019682351            9 
 2598000   0.83519638   -7.4221058    623.24964  0.019991328  0.019675448           25 
 2599000   0.84141464    -7.432469    623.74833  0.019999626  0.019668548           13 
 2600000   0.83771011   -7.4432536    621.60259   0.01992316   0.01966162           15 
 2601000   0.85195939    -7.461657     621.0905  0.019899093  0.019654697           11 
 2602000   0.82036916    -7.424713    623.41247   0.01996581  0.019647735            9 
 2603000   0.84125669   -7.4412432    621.23318  0.019888372  0.019640809           15 
 2604000   0.85148972   -7.4192362    622.42713  0.019918943  0.019633926            8 
 2605000   0.85037208   -7.4482896    622.30251   0.01990731   0.01962702            9 
 2606000   0.82251152   -7.4454457    622.05387   0.01989172  0.019620075            3 
 2607000   0.83387796   -7.4437897    622.38212  0.019894583  0.019613133           11 
 2608000   0.83899712   -7.4568611    622.04086   0.01987605  0.019606214            9 
 2609000   0.81888599   -7.4375187    622.58378  0.019885773  0.019599299           17 
 2610000   0.83473072    -7.454719    621.48618  0.019843109  0.019592406           14 
 2611000   0.81812791   -7.4555474    622.15935  0.019856994  0.019585489            8 
 2612000   0.81314868   -7.4220289    622.19503  0.019850531  0.019578572            8 
 2613000   0.84282948   -7.4581063    622.41407  0.019849919  0.019571681           11 
 2614000   0.81166828   -7.4435406     622.1041  0.019832444  0.019564777            9 
 2615000   0.83454921   -7.4661152    620.62734  0.019777799  0.019557859            9 
 2616000   0.84219345   -7.4341733    622.39886  0.019826671  0.019550958            7 
 2617000   0.83544776   -7.4679932    624.16366  0.019875292  0.019544056            6 
 2618000   0.82951582   -7.4972272    620.47358  0.019750241  0.019537093           13 
 2619000   0.81062043    -7.440031      623.645  0.019843611  0.019530181            8 
 2620000   0.82548256    -7.429304    624.43923  0.019861299  0.019523282           15 
 2621000    0.8252944   -7.4299518    622.97261  0.019807091  0.019516415           13 
 2622000    0.8355576    -7.428102    622.88324  0.019796696  0.019509552            9 
 2623000   0.82543393   -7.4667915    623.68348  0.019814572  0.019502691           16 
 2624000   0.83098868   -7.4382788    623.86538  0.019812798  0.019495851           10 
 2625000   0.83958859   -7.4620396    624.55858  0.019827256  0.019488968            7 
 2626000   0.83591541   -7.5020595    624.44156  0.019815993  0.019482096           11 
 2627000   0.81892743   -7.4299936    623.46266  0.019777397  0.019475232           16 
 2628000   0.81233681   -7.4549257    623.55713  0.019772867  0.019468362            8 
 2629000   0.84165002   -7.4832947    621.71354  0.019706908  0.019461495            4 
 2630000   0.82240338    -7.470065    621.42618   0.01969031  0.019454574           17 
 2631000   0.81710426   -7.4785956    620.49323  0.019653276  0.019447621           30 
 2632000   0.82628666   -7.4618631    623.68018  0.019746713  0.019440694           17 
 2633000   0.82739329   -7.4522215    623.70725   0.01974007  0.019433811           10 
 2634000   0.82307518   -7.4415132    621.59012  0.019665595  0.019426949           17 
 2635000   0.81811503    -7.461013    623.06574  0.019704799  0.019420034           10 
 2636000   0.82512311   -7.4899866    622.49728  0.019679352  0.019413079           19 
 2637000     0.819391   -7.4800345    623.74982  0.019711472  0.019406165            5 
 2638000   0.81462561   -7.4785955     623.1058  0.019683656  0.019399236            8 
 2639000   0.81913885   -7.4468638    623.10971   0.01967632  0.019392327           14 
 2640000   0.84172777    -7.500881    624.12166   0.01970081  0.019385413            7 
 2641000   0.84007977   -7.4710103    623.76429  0.019682074  0.019378501           15 
 2642000   0.81485198   -7.4653435    621.16486  0.019592634  0.019371568            6 
 2643000   0.83442533   -7.4968231    622.13573  0.019615832  0.019364639            7 
 2644000   0.83561297   -7.4475455    624.72919  0.019690154  0.019357726           18 
 2645000    0.8275698   -7.4766799     623.5669   0.01964609  0.019350835            6 
 2646000   0.82432115   -7.4470979     622.7938  0.019614317  0.019343978           15 
 2647000   0.83706311   -7.4697976    624.25405  0.019652879  0.019337096           11 
 2648000   0.80687771   -7.4548834    624.82507  0.019663427  0.019330219           18 
 2649000   0.81238106   -7.4499385     625.9164  0.019690336  0.019323349            7 
 2650000   0.83227639   -7.4670427    623.82873  0.019617256  0.019316546            3 
 2651000   0.83781749   -7.4289996     623.2001  0.019590095  0.019309697           10 
 2652000   0.83937493   -7.4758457    621.89926  0.019541832  0.019302819            5 
 2653000   0.83407119   -7.4799892    623.16997   0.01957438  0.019295926           14 
 2654000   0.84672884   -7.4780005     623.3674  0.019573204  0.019289023            9 
 2655000   0.83157153   -7.4872676     623.3223  0.019564416  0.019282137           11 
 2656000   0.79457788   -7.4663409    622.98911  0.019546596  0.019275286            9 
 2657000   0.84072765   -7.5005178    620.99835  0.019476802  0.019268394           16 
 2658000   0.82031535   -7.4792402    622.87373  0.019528271  0.019261489           10 
 2659000   0.82268099   -7.4418293    624.74981  0.019579723  0.019254601            6 
 2660000   0.83802224   -7.4692884    623.31775  0.019527499  0.019247705            4 
 2661000   0.83909989   -7.4788847    624.51172  0.019557551  0.019240814           21 
 2662000   0.81217893   -7.4959477    622.46331  0.019486079  0.019233899           10 
 2663000   0.81339249    -7.500599    623.07585   0.01949793  0.019226983            8 
 2664000   0.84071137    -7.491739    623.19079  0.019494206  0.019220095            4 
 2665000   0.82208635    -7.476283    624.07819   0.01951464  0.019213207            4 
 2666000   0.82513594   -7.4556456    624.52783  0.019521375  0.019206326            6 
 2667000   0.81224858   -7.4633921     624.1578  0.019502493  0.019199459            7 
 2668000   0.85227193   -7.4377735    622.54486  0.019444804  0.019192616            4 
 2669000   0.81044323   -7.4893192    621.68558   0.01941069  0.019185718           17 
 2670000   0.82670941   -7.4632023    623.85001  0.019470974  0.019178791           13 
 2671000    0.8149629   -7.4532399    622.43996  0.019419692  0.019171894            7 
 2672000   0.81784634   -7.4279275    624.50505  0.019476829     0.019165           14 
 2673000   0.82578281   -7.4450109    624.88811  0.019481485  0.019158175            6 
 2674000   0.83511397   -7.4853678    623.99676  0.019446421  0.019151318            3 
 2675000   0.80510648   -7.4246065    625.21804  0.019477198  0.019144435            7 
 2676000   0.81689071   -7.4660049     623.7898  0.019425442  0.019137591            7 
 2677000   0.81408637    -7.481079    622.85272  0.019389015  0.019130722           13 
 2678000   0.83444315   -7.4798893    623.51236  0.019402302  0.019123802            9 
 2679000   0.81157548    -7.444873    623.60289  0.019397875  0.019116893           11 
 2680000   0.83635632    -7.454281    624.05369  0.019404655  0.019109988           11 
 2681000   0.81708238   -7.4967532    620.78265  0.019295743   0.01910309           11 
 2682000   0.81920904   -7.4670278    623.21922  0.019364256  0.019096202           10 
 2683000   0.81298908    -7.476831    623.63134  0.019369839  0.019089329            6 
 2684000   0.80543411   -7.4789961    623.90464  0.019371108  0.019082456            9 
 2685000   0.82447692   -7.4960754    623.32518  0.019345909  0.019075558           10 
 2686000   0.81689142   -7.4502546    624.82085  0.019385109  0.019068724           11 
 2687000   0.81538049   -7.4476399    625.12619  0.019387365  0.019061915           18 
 2688000   0.79743942   -7.4546175    624.51792  0.019361295  0.019055053            6 
 2689000   0.83413549    -7.464468    623.13768   0.01931132  0.019048223           10 
 2690000   0.80942722    -7.482313    623.44899  0.019313785  0.019041379            7 
 2691000   0.84880969   -7.4933329    624.68104  0.019344762  0.019034536            7 
 2692000   0.81950648   -7.4503846    624.22092  0.019323332  0.019027696           12 
 2693000   0.79644154   -7.4622432    623.43006  0.019291684  0.019020823           11 
 2694000   0.79828129   -7.5015187    624.00906  0.019302433  0.019013942           12 
 2695000   0.81798497    -7.437174    626.65189  0.019376991  0.019007085            6 
 2696000   0.82615572   -7.4404234     623.5201     0.019273  0.019000244            9 
 2697000   0.83024772   -7.5023648    623.68645  0.019270994  0.018993386            8 
 2698000   0.82328951   -7.4932775    623.77105  0.019266464  0.018986506           11 
 2699000   0.82050938   -7.4464365    624.12094  0.019270129  0.018979626            5 
 2700000   0.80656892   -7.4683202    623.58897  0.019246573  0.018972784           15 
 2701000   0.80879311   -7.4968119    624.23739  0.019259453  0.018965905           24 
 2702000   0.81100326   -7.4521928    624.87936  0.019272124  0.018959049           12 
 2703000   0.83638613   -7.4724398    624.02932  0.019238788  0.018952189           10 
 2704000   0.81811222   -7.4723102    624.63548  0.019250354  0.018945279           10 
 2705000   0.84398383   -7.5123953    623.77158  0.019216623  0.018938378           30 
 2706000   0.82149998   -7.5156311    623.01545  0.019186236  0.018931455           29 
 2707000   0.80116706    -7.494458    623.86963  0.019205444  0.018924581           25 
 2708000   0.80175401   -7.5189535    622.97723   0.01917089  0.018917684            8 
 2709000   0.80210817   -7.4848452    623.92314  0.019192911  0.018910797           11 
 2710000   0.82465665   -7.4488834    623.71232  0.019179345  0.018903917           25 
 2711000   0.82338319   -7.4887864    623.20371  0.019156637  0.018897056           16 
 2712000   0.81924852     -7.49484    623.63223  0.019162741  0.018890179            8 
 2713000   0.83103695   -7.5193432    623.15858  0.019141128  0.018883289            6 
 2714000   0.83268247     -7.45863    623.37676  0.019140775  0.018876393            7 
 2715000   0.80756594   -7.5433843    622.09285  0.019094317  0.018869454            7 
 2716000   0.82491198   -7.5073918    621.39887  0.019065994  0.018862533            6 
 2717000   0.82829673    -7.475317    624.44119  0.019152288  0.018855678            8 
 2718000   0.81249158   -7.4942414    624.62877  0.019150992  0.018848817           13 
 2719000   0.80900066   -7.5079568    624.46978  0.019139076  0.018841953           13 
 2720000   0.81985106   -7.5199648    622.70208  0.019077882   0.01883506           17 
 2721000   0.80894612   -7.5054575    624.40215  0.019122937  0.018828142           19 
 2722000   0.80576488   -7.5461147    622.02055     0.019043  0.018821223            8 
 2723000   0.80185879   -7.5184784    621.91174  0.019032676  0.018814273           18 
 2724000   0.79595284   -7.5115322    622.17108  0.019033623   0.01880731           14 
 2725000   0.81018314    -7.518478    623.83846  0.019077629  0.018800384           13 
 2726000   0.82283241   -7.4927155    622.54566   0.01903111  0.018793451            7 
 2727000   0.81292709   -7.5191011    624.91041  0.019096394  0.018786546           16 
 2728000   0.80546317    -7.538377    622.42011  0.019013322  0.018779639           21 
 2729000   0.80396605   -7.5209156    624.49264  0.019069642  0.018772695           13 
 2730000   0.80960664   -7.5163809    624.64944  0.019067443  0.018765737           20 
 2731000   0.82374693   -7.5318478    622.19949  0.018985704  0.018758785           14 
 2732000   0.79863711   -7.5127458    624.92942  0.019062025  0.018751864           10 
 2733000   0.80279955   -7.5451833    622.89963  0.018993159  0.018744943           24 
 2734000   0.80215753   -7.5275001    623.00755  0.018989501  0.018738001           13 
 2735000   0.82015493   -7.5197321    623.82731  0.019007535  0.018731083            8 
 2736000   0.80839599    -7.525088    623.13834  0.018979603  0.018724173           18 
 2737000    0.8246452   -7.5104395    624.04914    0.0190004  0.018717304           13 
 2738000   0.81672209   -7.5319758    625.41037  0.019034891  0.018710425           17 
 2739000   0.79983264   -7.4910327    623.25413  0.018962338  0.018703539            8 
 2740000    0.8258653   -7.5236771    623.91242  0.018975439  0.018696643           15 
 2741000   0.82227385   -7.5324859    623.44344  0.018954258  0.018689756            8 
 2742000   0.82131594   -7.5277984    623.54777  0.018950516  0.018682863           18 
 2743000   0.80238739   -7.5355853    623.74623  0.018949636  0.018675965           17 
 2744000   0.80999266   -7.5439271    621.91489  0.018887114  0.018669063           23 
 2745000   0.80149387   -7.5469349    623.07282  0.018915386  0.018662135           25 
 2746000   0.83000932   -7.5850022    622.18877  0.018881669  0.018655191           25 
 2747000   0.82738094   -7.5497479    623.33039  0.018909428  0.018648256           13 
 2748000   0.79857567   -7.5651477     622.7471  0.018884859  0.018641329            7 
 2749000   0.82324032   -7.5277674    624.05205  0.018917547  0.018634455           12 
 2750000    0.8126713   -7.5261118    625.72154  0.018961259  0.018627578            8 
 2751000   0.81272769   -7.5652768    623.31932  0.018881598  0.018620716           10 
 2752000   0.82070156    -7.557724    623.53804   0.01888136  0.018613823           16 
 2753000   0.80826316   -7.5313335    623.09371  0.018861052  0.018606929           38 
 2754000   0.79444055   -7.5238851    624.23559  0.018888755  0.018600027            9 
 2755000   0.81278551   -7.5204491    624.26057  0.018882655  0.018593148           52 
 2756000   0.82040945   -7.5482882    624.15026  0.018872468  0.018586255           23 
 2757000   0.78869325   -7.5185683    624.23675  0.018868237  0.018579392           59 
 2758000   0.81297768   -7.4940361    623.54633  0.018840534  0.018572538           37 
 2759000   0.80302638   -7.4979151    624.35435  0.018858111  0.018565663           57 
 2760000   0.79409363   -7.5432453    623.04381  0.018811709  0.018558742           75 
 2761000    0.8039867   -7.5563495    623.19708  0.018809522  0.018551814           69 
 2762000   0.81837628   -7.5406756    624.00978  0.018827232  0.018544903           21 
 2763000   0.81708575   -7.5337564    623.02721  0.018790783  0.018538004           19 
 2764000   0.78305364   -7.5241951    623.73365  0.018805284  0.018531124           24 
 2765000    0.7970843   -7.4924414    626.11529  0.018870262  0.018524264           21 
 2766000   0.80085153   -7.5273455    622.31699  0.018749005  0.018517401           11 
 2767000   0.80938751   -7.5153505    624.52246  0.018808651  0.018510554           22 
 2768000   0.81939382   -7.5250904    623.45357  0.018769676  0.018503692           29 
 2769000   0.78946899   -7.4871857    625.76018  0.018832316  0.018496824            5 
 2770000   0.80222204   -7.5047155    623.47819  0.018756865  0.018489974           12 
 2771000   0.81720437   -7.5501642    624.53567  0.018781898  0.018483109           30 
 2772000   0.79208327   -7.5405584    623.12051  0.018732579  0.018476273           22 
 2773000   0.80996333   -7.5517822     624.0322  0.018753222  0.018469412           17 
 2774000   0.81202948   -7.5533223    624.27596  0.018753784  0.018462548           12 
 2775000   0.78407754   -7.5503252    624.25323  0.018746343  0.018455705            9 
 2776000   0.80433122   -7.5432588    624.53026  0.018747906   0.01844884           20 
 2777000   0.81088244   -7.5473857    624.13774  0.018729376  0.018442006           27 
 2778000   0.81352597   -7.5042645    626.03909   0.01877967  0.018435179            9 
 2779000   0.83089628    -7.517731    624.96262  0.018740633  0.018428397           24 
 2780000   0.81221165   -7.5181976    625.72684    0.0187568  0.018421636           10 
 2781000   0.80870957   -7.5102479    624.31194  0.018707657  0.018414881           10 
 2782000   0.81210273   -7.5226039    626.36404  0.018762402  0.018408118           11 
 2783000   0.81196076   -7.5156095    625.49551  0.018729653  0.018401398           12 
 2784000   0.79141012   -7.5190256    626.58471  0.018755529  0.018394674           10 
 2785000   0.79456695   -7.5032239    625.78489  0.018724862  0.018387945            8 
 2786000   0.80168514   -7.5402583     625.9056  0.018721752  0.018381216           28 
 2787000   0.80180467   -7.5266594     627.6114  0.018766039  0.018374449           16 
 2788000   0.81831834   -7.5082228    625.92318  0.018708847  0.018367704            5 
 2789000   0.79760847   -7.5527635    625.98625  0.018704023  0.018360956           21 
 2790000   0.81020899   -7.5148946    626.48364  0.018712175  0.018354238           14 
 2791000   0.81608339   -7.5124386    625.99029  0.018690741  0.018347546           10 
 2792000   0.81247715   -7.5522222    625.39051  0.018666145  0.018340857           20 
 2793000   0.80617391   -7.5484372    626.67768  0.018697866  0.018334159           24 
 2794000   0.82039396   -7.5251579    626.18359  0.018676437  0.018327467            7 
 2795000   0.79989953   -7.5130058    626.73568  0.018686216  0.018320747           12 
 2796000   0.80449151   -7.5337372    625.53474  0.018643739  0.018314028           28 
 2797000   0.78413379   -7.5418627    626.43898  0.018664014  0.018307317           18 
 2798000   0.81771464   -7.5452134    626.05741  0.018645979  0.018300633           18 
 2799000   0.80700106   -7.5767745    625.31629  0.018617253  0.018293917           29 
 2800000   0.79528389   -7.5411491    626.44496  0.018644195   0.01828721           24 
 2801000   0.79285094   -7.5433776      625.633  0.018613382   0.01828049           19 
 2802000   0.80082334   -7.5609932    628.00776  0.018677366  0.018273762           11 
 2803000   0.78866358    -7.547619    625.38759  0.018592805  0.018267041           17 
 2804000   0.78483923   -7.5598986    626.51762  0.018619758  0.018260318           21 
 2805000   0.80552028    -7.545363    626.78155  0.018620961  0.018253643            8 
 2806000   0.81467951   -7.4994869    627.13362  0.018624781   0.01824697           16 
 2807000    0.8054699    -7.550589    626.84292  0.018609515  0.018240274           16 
 2808000   0.78971953   -7.5433077    625.64701  0.018567397   0.01823358           12 
 2809000    0.8165583   -7.5590231    625.58549  0.018558962  0.018226884           10 
 2810000   0.82102427   -7.5687353     623.9566  0.018504051  0.018220174           12 
 2811000   0.79186682   -7.5290865     627.2708  0.018595719  0.018213473           10 
 2812000   0.80095119   -7.5293684    627.13355  0.018585039  0.018206845            6 
 2813000   0.80045981   -7.5194762    628.38383  0.018615471  0.018200229           17 
 2814000   0.80954731   -7.5536687    626.64057  0.018557231  0.018193569           13 
 2815000    0.8204977   -7.5533981     627.3331   0.01857114  0.018186906           17 
 2816000   0.78802199   -7.5872275    623.79279  0.018459777   0.01818021           12 
 2817000   0.80248387   -7.5544188    627.34829  0.018558404  0.018173546            9 
 2818000   0.80972682   -7.5326411    627.39476  0.018553193  0.018166901           22 
 2819000   0.80734463   -7.5622652    627.90236  0.018561616  0.018160286           11 
 2820000   0.79415519    -7.560147    626.11836  0.018502315  0.018153647           13 
 2821000   0.80040184   -7.5361151    627.15719  0.018526444  0.018147005           16 
 2822000   0.82122328   -7.5514521    627.41642  0.018527534  0.018140368           13 
 2823000   0.80957604   -7.5691621     626.6994  0.018499805  0.018133701           21 
 2824000   0.77808226   -7.5718773    627.65504  0.018521454  0.018127024           15 
 2825000   0.80356638   -7.5869773    627.12328  0.018499212   0.01812034            8 
 2826000   0.80014087    -7.559795    625.43452  0.018442867  0.018113671           13 
 2827000   0.82060756   -7.5690135    624.88056  0.018420014  0.018106997           10 
 2828000    0.7980606   -7.5704145    625.49976  0.018431747  0.018100311           13 
 2829000   0.79129923   -7.5683397    625.67672  0.018430444  0.018093649           18 
 2830000   0.78405954   -7.5872243    626.67381  0.018453292  0.018086966           16 
 2831000   0.79638197   -7.5914699    626.78668  0.018450097  0.018080274           10 
 2832000   0.81441948   -7.5843173     626.3275   0.01843007  0.018073597           14 
 2833000   0.78810397   -7.5691781    627.45981  0.018456872  0.018066922           10 
 2834000    0.8023507   -7.5633885     627.4333  0.018449579  0.018060264            9 
 2835000   0.81822314   -7.5569399    626.30446   0.01840989   0.01805361           23 
 2836000   0.78914986   -7.5733605    627.39957  0.018435577   0.01804697           10 
 2837000   0.80229863   -7.5508211    628.21366  0.018452992  0.018040331           11 
 2838000   0.79107153   -7.5911438    625.50636  0.018366994   0.01803369           18 
 2839000    0.8088171    -7.574514    627.76092  0.018426703  0.018027043           14 
 2840000   0.78486332   -7.5833639    626.14348  0.018372755  0.018020393           14 
 2841000   0.81117722    -7.588593     626.7274  0.018383416  0.018013744            8 
 2842000   0.79231015   -7.5668935    625.75938  0.018348563  0.018007098            9 
 2843000   0.78788041   -7.5772787    627.49627   0.01839302  0.018000422           29 
 2844000   0.80683626   -7.5811726    625.82099  0.018337465  0.017993768            8 
 2845000   0.78801419   -7.5728593    626.08214  0.018338668  0.017987149            9 
 2846000   0.81158765   -7.5773638     627.4041  0.018370933   0.01798051            4 
 2847000   0.77622427   -7.5557315    627.11042  0.018355884  0.017973889           14 
 2848000   0.79178952   -7.5859848    626.80532  0.018340512  0.017967292           18 
 2849000   0.79876595   -7.5736571    628.17357  0.018374095  0.017960674           21 
 2850000   0.81456943   -7.5773695    626.19056  0.018309665  0.017954057           14 
 2851000   0.78901142   -7.6093562    624.86148  0.018264395  0.017947421            7 
 2852000   0.79616043   -7.5760606    627.85404  0.018345431   0.01794081           18 
 2853000   0.80109223   -7.5730359    628.59805  0.018360733   0.01793421           26 
 2854000   0.80277255   -7.5820817    626.86371  0.018303659  0.017927592           21 
 2855000   0.79414787   -7.5867596    626.67284  0.018291676  0.017920996            7 
 2856000   0.80355778   -7.5404437    628.63428  0.018342504  0.017914419           24 
 2857000   0.78483688   -7.5807139    627.71185  0.018309178  0.017907839           12 
 2858000   0.78083413   -7.5597448    629.08837  0.018342908   0.01790123            8 
 2859000   0.80297166   -7.5879067    627.42115  0.018287896  0.017894635           10 
 2860000   0.79578368   -7.6009617    627.18799  0.018274708  0.017888064           14 
 2861000   0.76936442   -7.6500799    625.78888  0.018227568  0.017881416           14 
 2862000   0.77517153   -7.5840585    626.95717  0.018255217   0.01787478           17 
 2863000   0.78796747   -7.5886852    626.63983  0.018239604  0.017868202           11 
 2864000     0.789117   -7.5959099    627.16892   0.01824863   0.01786161           32 
 2865000   0.78508348   -7.5796773    627.78548  0.018260194  0.017855021           10 
 2866000   0.78932556   -7.5712921    627.09435  0.018233727  0.017848434            6 
 2867000   0.78979359   -7.5613879     628.0744  0.018255854  0.017841888            8 
 2868000    0.7727084   -7.5699831    627.39108  0.018229634  0.017835355            6 
 2869000   0.79490873   -7.5725163    629.30682  0.018278925  0.017828786           11 
 2870000   0.79629316   -7.5909425    626.90969  0.018202953  0.017822211           10 
 2871000   0.79688893   -7.6262203    626.23236  0.018176952   0.01781561           11 
 2872000      0.79724   -7.5694515    628.27333  0.018229844     0.017809           12 
 2873000    0.7928152   -7.6066998    627.48814  0.018200723  0.017802403           36 
 2874000   0.78848043   -7.5694192    627.15313  0.018184677  0.017795805            9 
 2875000   0.79791794   -7.5815896     628.6951  0.018223046  0.017789197           10 
 2876000   0.78888944   -7.6053938    626.56263  0.018154921  0.017782556            7 
 2877000   0.79962945   -7.6005281     626.2394  0.018139248  0.017775898           15 
 2878000   0.79573081   -7.5815421    628.57197  0.018200486  0.017769276           11 
 2879000   0.79146545   -7.5753536    626.59739  0.018137009  0.017762656            7 
 2880000   0.77631194   -7.5893361    627.15064   0.01814672  0.017756045            7 
 2881000   0.79855575    -7.630463    627.52468   0.01815124  0.017749422            6 
 2882000   0.78471375   -7.6245095    625.43736  0.018084587  0.017742778           23 
 2883000   0.77188059   -7.5968181    625.25116  0.018072932  0.017736158            7 
 2884000    0.7940021   -7.6096912    627.40056  0.018128773  0.017729551           14 
 2885000   0.78674386   -7.6122294    626.94457  0.018109317  0.017722934           16 
 2886000     0.774792    -7.606556    627.23407  0.018111402  0.017716319           10 
 2887000   0.79607023   -7.6646474    625.11998  0.018044105   0.01770966           14 
 2888000   0.79164934     -7.61458    625.61172  0.018052046  0.017703024           11 
 2889000   0.79009343   -7.5960755    626.90445  0.018083087  0.017696428           11 
 2890000   0.79470812     -7.63623     626.3825  0.018061779  0.017689822            8 
 2891000   0.80525859   -7.6064519    626.86049   0.01806931  0.017683195           10 
 2892000   0.80059729    -7.602126    627.08444  0.018069515  0.017676575            6 
 2893000   0.80258202   -7.6034422    628.82379  0.018113371  0.017669952           17 
 2894000   0.79043591   -7.6079846    626.35453  0.018036009  0.017663326           17 
 2895000   0.77958854   -7.6360973     625.4526  0.018003817  0.017656704           17 
 2896000   0.78494837   -7.6199166    628.24132  0.018077846  0.017650075           16 
 2897000   0.80555067   -7.6216834    626.39293  0.018018436  0.017643442           20 
 2898000   0.76143725   -7.5985594     626.9348  0.018027801  0.017636803            9 
 2899000   0.79034139   -7.6223173    627.64803  0.018042084  0.017630188            8 
 2900000   0.80022757   -7.6491361    625.60079  0.017977034  0.017623575           10 
 2901000   0.81004023   -7.6645598    626.11311  0.017985554  0.017616978           19 
 2902000    0.7785577   -7.6256159    627.18464  0.018010126  0.017610359           33 
 2903000    0.7919704   -7.5967486    627.96954  0.018026454  0.017603766            8 
 2904000    0.7845205   -7.6173517    626.94428  0.017990825  0.017597176           14 
 2905000   0.78575471   -7.6279815    627.00787  0.017986456  0.017590592            8 
 2906000   0.79976927   -7.6187153    628.83985  0.018032801   0.01758403            6 
 2907000   0.78813592   -7.6185265    627.62081  0.017991653  0.017577466            9 
 2908000    0.8175081   -7.6088044    628.32002  0.018005503   0.01757092           24 
 2909000   0.77424775   -7.6232901    627.35489  0.017971665  0.017564332           17 
 2910000   0.76450626   -7.6349592    628.17128  0.017988868  0.017557767           19 
 2911000   0.77164636   -7.6370103    628.18662  0.017983128   0.01755119           24 
 2912000   0.78226302   -7.6144655    628.13462  0.017975464   0.01754463           15 
 2913000   0.79263131    -7.626207    627.82674  0.017960486  0.017538067           15 
 2914000    0.7956161   -7.6380142    626.18737   0.01790744  0.017531526           39 
 2915000   0.78334873   -7.6304858    626.98559  0.017924116  0.017524971           25 
 2916000   0.78380877   -7.6206253    627.27365  0.017926202  0.017518429           16 
 2917000   0.78715981   -7.6006522    627.15728  0.017916732  0.017511877           14 
 2918000   0.79460666   -7.6191797    628.17318  0.017939604  0.017505359           22 
 2919000     0.789472   -7.6401604    626.84289  0.017895481  0.017498829           23 
 2920000   0.78134014   -7.5937717    629.36532  0.017961339   0.01749229           11 
 2921000   0.79108365   -7.6003104    626.72896  0.017879977  0.017485728            8 
 2922000   0.78049097   -7.6177332    626.32925  0.017862459  0.017479161            9 
 2923000   0.80496719   -7.6453726    628.06712  0.017905893  0.017472616           12 
 2924000   0.78735118   -7.6433348    626.97874  0.017868751  0.017466049           12 
 2925000    0.7600641   -7.6399681    627.76555  0.017885058  0.017459462           13 
 2926000   0.78889724   -7.6138364    626.94927  0.017855698  0.017452924           32 
 2927000   0.79702902   -7.6162411    626.55182  0.017838282  0.017446369           16 
 2928000   0.80534652   -7.6402255    626.15247  0.017820824  0.017439777           22 
 2929000   0.78484892   -7.6200436    627.43475  0.017851222  0.017433227           52 
 2930000   0.77405171   -7.6156856    627.50952  0.017847256  0.017426662           23 
 2931000   0.78964625   -7.6080908    628.51406  0.017869728  0.017420126           12 
 2932000   0.77324498   -7.6348374    627.21585  0.017826735  0.017413581           23 
 2933000   0.78427575   -7.6402464    627.56674  0.017830627  0.017407057           25 
 2934000   0.78352449   -7.6329212    628.14245  0.017840901  0.017400522           30 
 2935000   0.76816783   -7.6083604    626.92866  0.017800359  0.017393997           16 
 2936000   0.78991732   -7.6487078    626.56024   0.01778384  0.017387455           22 
 2937000   0.78415376   -7.6683482    625.93892  0.017760155  0.017380892           17 
 2938000   0.78967159    -7.637243    625.90487  0.017753145  0.017374331           31 
 2939000    0.7774987   -7.6692573    626.45937  0.017762827  0.017367782           19 
 2940000   0.78225738   -7.6297092    625.85693  0.017739709  0.017361236           13 
 2941000   0.77232907   -7.6356166    626.81418  0.017760801  0.017354712           20 
 2942000   0.78833555   -7.6465965    627.45102  0.017772803  0.017348193           39 
 2943000   0.77053833   -7.6469316    625.15981  0.017701886  0.017341654           12 
 2944000   0.77218201   -7.6353093    627.80671  0.017770797  0.017335134           26 
 2945000   0.78939367    -7.650135    627.98827    0.0177699  0.017328633           54 
 2946000   0.78938114   -7.6366495    628.56598   0.01778021  0.017322122           44 
 2947000   0.78135518   -7.6417469    627.95071  0.017756778  0.017315627           11 
 2948000   0.76497639    -7.651836    628.14878  0.017756354   0.01730914           49 
 2949000   0.75960199   -7.6294714    628.49727  0.017760181  0.017302666           43 
 2950000   0.78570993   -7.6538133    627.57678  0.017728158  0.017296188           38 
 2951000   0.78155764   -7.6205196      629.136  0.017766181  0.017289719           27 
 2952000   0.78717351   -7.6047677    629.35579  0.017766367  0.017283281           19 
 2953000   0.76768331    -7.605121    627.96695  0.017721158  0.017276811           31 
 2954000   0.76920231   -7.6309967     629.8227   0.01776751  0.017270365           53 
 2955000   0.77350646   -7.6438922    628.06935  0.017712052  0.017263925           41 
 2956000    0.7856544   -7.6528038    627.71746  0.017696139  0.017257484           41 
 2957000     0.767552   -7.6236706    629.14118  0.017730278  0.017251053           60 
 2958000   0.77751303   -7.6464749    628.51449  0.017706629   0.01724462           46 
 2959000   0.77190581   -7.6436623    628.40644  0.017697602  0.017238204           32 
 2960000   0.79932422   -7.6383674    628.62553  0.017697791  0.017231797           48 
 2961000   0.77913565   -7.6635188     628.7632  0.017695688  0.017225386           17 
 2962000   0.78090266   -7.6206533    630.05795  0.017726141  0.017218997           10 
 2963000   0.76174281   -7.6309052    629.71509  0.017710516  0.017212649           16 
 2964000   0.78635204   -7.6158461    630.72887  0.017733043  0.017206282           18 
 2965000   0.79079187   -7.5978845     630.1725  0.017711425  0.017199935           20 
 2966000    0.7643141   -7.5909748    629.75357  0.017693683  0.017193576           15 
 2967000   0.78269514   -7.6297061    629.86725  0.017690912  0.017187207           15 
 2968000   0.78397998     -7.60404    629.66698  0.017679329  0.017180833           28 
 2969000   0.78126542   -7.6470453    628.91491  0.017652265  0.017174485           27 
 2970000   0.77582358   -7.6061745    628.60465  0.017637617  0.017168135           13 
 2971000   0.77697747   -7.6310851    629.37832   0.01765338  0.017161774           12 
 2972000   0.77976288   -7.6086319     629.9254   0.01766278  0.017155387           31 
 2973000   0.76731763   -7.6255782    628.73274  0.017623409  0.017149058           15 
 2974000   0.77127011   -7.6616768    628.04379  0.017598179  0.017142688           13 
 2975000   0.78457278   -7.6348983     629.4649   0.01763207  0.017136303           31 
 2976000   0.77721984   -7.6407452    630.37157  0.017651534  0.017129939           39 
 2977000   0.78380902   -7.6510235    629.48729  0.017620851  0.017123561           19 
 2978000   0.77852671   -7.6381843    629.68176  0.017620376  0.017117199           24 
 2979000   0.77397118   -7.6809276     628.4752  0.017580709  0.017110806           40 
 2980000    0.7792895     -7.65789    627.71178  0.017553462  0.017104411           23 
 2981000   0.78044005   -7.6331014    628.69074   0.01757494  0.017098003           29 
 2982000   0.76840917   -7.6802235    628.94331  0.017576104  0.017091604           32 
 2983000   0.77136844   -7.6694415     628.5949  0.017560479  0.017085212           72 
 2984000   0.75321291   -7.6158548     631.1924  0.017627134  0.017078835           70 
 2985000   0.78708008   -7.6812032    628.67482  0.017550944  0.017072454           17 
 2986000   0.75081253   -7.6535574    628.32707  0.017535361  0.017066059           13 
 2987000   0.75887266   -7.6537048    627.92511  0.017518277  0.017059663           26 
 2988000   0.77004889   -7.6916052    627.48956  0.017500267  0.017053264           27 
 2989000   0.75593565    -7.638512    629.50604  0.017550631  0.017046883            5 
 2990000   0.77948852   -7.6380022    628.62209  0.017520125   0.01704052            9 
 2991000   0.76139736   -7.6134102    629.77539    0.0175464  0.017034188           23 
 2992000   0.79363658   -7.6211806    629.78679  0.017540853  0.017027838            7 
 2993000   0.75099066    -7.637799    630.07785  0.017543096  0.017021505           36 
 2994000   0.78689875   -7.6345012    628.90409  0.017504567  0.017015162           12 
 2995000   0.77071642   -7.6423669    630.53466  0.017544092  0.017008832           12 
 2996000   0.77402014   -7.6425388    629.12171  0.017498935  0.017002498           14 
 2997000   0.75981436   -7.6179173    630.02149  0.017518115  0.016996169           11 
 2998000   0.76728189   -7.6301894    630.81823  0.017534418   0.01698985            8 
 2999000   0.77658053   -7.6260572    629.41899  0.017489691  0.016983542           10 
 3000000   0.76418378   -7.6288824    629.68286  0.017491191   0.01697723            8 
 3001000   0.79055361   -7.6355732    629.22094  0.017472535  0.016970924           11 
 3002000   0.77442452   -7.6717443    629.52548  0.017475169  0.016964569           12 
 3003000   0.76248251   -7.6588419    628.14869  0.017431144  0.016958233            8 
 3004000   0.77737689   -7.6832945    628.18145   0.01742625  0.016951909            9 
 3005000   0.75599577   -7.6309211    630.84805  0.017494399  0.016945601           25 
 3006000   0.78790824   -7.6541909    630.15289  0.017469308  0.016939317           17 
 3007000   0.77390647   -7.6321682    632.09267  0.017517256  0.016933005           15 
 3008000   0.77634918    -7.678541    629.63788  0.017443425    0.0169267           23 
 3009000   0.78906571   -7.6482592    629.10461  0.017422859  0.016920407           22 
 3010000   0.76866962   -7.6384329    629.92415   0.01743976   0.01691412           16 
 3011000   0.74711764   -7.6405711    630.34841   0.01744571  0.016907846           20 
 3012000   0.76561113   -7.6420734    631.01454  0.017458348  0.016901591           17 
 3013000   0.79148174   -7.6407352    629.33959  0.017406228  0.016895306           18 
 3014000    0.7737831   -7.6166087    632.38359  0.017484616  0.016889022           19 
 3015000   0.75990454   -7.6929834    629.55419  0.017400613  0.016882746           16 
 3016000   0.77978176   -7.6362123    631.28708  0.017442724  0.016876468           27 
 3017000   0.75396107   -7.6534924    630.22117  0.017407501  0.016870199           23 
 3018000   0.77688974   -7.6649409    629.95719  0.017394444  0.016863901           22 
 3019000   0.76523035   -7.6652415    630.64442  0.017407652  0.016857597           13 
 3020000   0.77674902     -7.65914    628.60707   0.01734567  0.016851284           23 
 3021000   0.75855261   -7.6655529    630.11439  0.017381507  0.016844989           22 
 3022000   0.78170229   -7.6768053    630.15097  0.017376764  0.016838701           12 
 3023000     0.771038   -7.6447242     629.5489  0.017354419  0.016832411           14 
 3024000   0.77903697     -7.67991    630.70938   0.01738066  0.016826139           17 
 3025000   0.75721465   -7.6591464     630.6425  0.017373072  0.016819892           16 
 3026000   0.76405084    -7.687275    630.32907  0.017358699  0.016813623           20 
 3027000   0.76526505   -7.6554587     631.1482  0.017375515   0.01680737           13 
 3028000    0.7716673   -7.6755106    630.49222  0.017351723  0.016801121           20 
 3029000   0.77005942    -7.673574    630.16998   0.01733713  0.016794882           17 
 3030000   0.77210261   -7.6593058    631.17996  0.017359185  0.016788654           27 
 3031000   0.77590689   -7.6774071    628.82379  0.017288678  0.016782428           40 
 3032000   0.77536876    -7.636627    632.39213   0.01738105  0.016776225           26 
 3033000   0.77714394   -7.6814711    629.54084  0.017296979  0.016770023           37 
 3034000   0.76013174   -7.6743421    630.57995  0.017319819  0.016763791           17 
 3035000   0.76070547   -7.6681945    631.05925  0.017327272  0.016757544           38 
 3036000   0.74602966   -7.6800373    630.31584  0.017301159  0.016751309           20 
 3037000   0.75810211   -7.6651165    629.85251  0.017282749  0.016745054           41 
 3038000   0.77460168   -7.6829568     630.1174  0.017284326  0.016738805           38 
 3039000   0.75925645   -7.6561457    630.26573  0.017282706  0.016732549           27 
 3040000   0.77720667   -7.6649992    631.03264  0.017298044  0.016726331           19 
 3041000   0.75718041   -7.6824507     631.4582  0.017304017  0.016720105           16 
 3042000   0.76994735   -7.6627163    630.28718   0.01726625  0.016713865           44 
 3043000   0.76321359   -7.6981678    629.55056  0.017240403  0.016707639           32 
 3044000   0.77653198   -7.7098198    627.99106  0.017192046  0.016701378           45 
 3045000   0.75674087   -7.6996546    628.01962  0.017187182   0.01669513           36 
 3046000   0.76469297   -7.6866913    629.83016  0.017231073  0.016688872           24 
 3047000   0.75860151   -7.7115418    629.25282  0.017209627  0.016682643           44 
 3048000   0.77574917   -7.7208982    630.24923  0.017231223  0.016676407           39 
 3049000   0.76336877   -7.7168356    629.37732  0.017201741   0.01667017           48 
 3050000   0.76864792   -7.7102635    630.45861  0.017225645  0.016663946           38 
 3051000   0.76563598   -7.6886429    630.38152  0.017217894  0.016657726           31 
 3052000   0.76722364   -7.7116483    629.94615  0.017200365  0.016651516           46 
 3053000   0.75987294   -7.6904377    629.85378  0.017192209  0.016645285           12 
 3054000   0.76300566   -7.6900484      631.389  0.017228471  0.016639068           30 
 3055000   0.76703071   -7.7138676      630.372   0.01719509  0.016632845           22 
 3056000   0.75644054   -7.7201429    629.13828  0.017155821  0.016626598           26 
 3057000   0.75317114   -7.7055107    629.52262  0.017160686  0.016620343           21 
 3058000   0.75964701   -7.7258124    628.86877  0.017137257  0.016614116           25 
 3059000   0.76082687    -7.720505    630.35234   0.01717207  0.016607884           55 
 3060000    0.7561216   -7.7090406    630.59158  0.017172973  0.016601665           19 
 3061000   0.76827972    -7.714091    629.97321  0.017150528  0.016595446           30 
 3062000   0.76184578    -7.720321    629.92229  0.017143542  0.016589235           35 
 3063000   0.76099404   -7.6968408     630.3922  0.017150729  0.016583014           45 
 3064000   0.76187415   -7.6850354    630.77892   0.01715565  0.016576812           50 
 3065000   0.75763725   -7.7245446    629.75047   0.01712209   0.01657061           28 
 3066000   0.76611004   -7.7504523    629.01117  0.017096411  0.016564382           33 
 3067000   0.74584392   -7.7033255    629.93394   0.01711591  0.016558152           74 
 3068000   0.76215602   -7.7296919    630.40113  0.017123021  0.016551911           38 
 3069000   0.77106936   -7.7212672    628.32271  0.017061006  0.016545697           26 
 3070000   0.76918397   -7.7416097    628.79261  0.017068203  0.016539496           12 
 3071000   0.75636254   -7.7199014    628.77062  0.017062049  0.016533289           35 
 3072000   0.75613594   -7.7158267    628.78183  0.017056799  0.016527097           38 
 3073000   0.76210972   -7.6815129    631.69275  0.017130186  0.016520915           43 
 3074000   0.76839157    -7.702709    630.87963  0.017102571  0.016514735           32 
 3075000    0.7650869   -7.7279131    630.19796  0.017078535  0.016508571           29 
 3076000   0.76812357    -7.679783    632.06579  0.017123585  0.016502396           36 
 3077000   0.77965749   -7.7116168    631.09802  0.017091811   0.01649624           21 
 3078000   0.75877409   -7.7052485    631.23636  0.017090003  0.016490079           40 
 3079000   0.75093017   -7.7199983    631.12799   0.01708152  0.016483909           34 
 3080000   0.75479304   -7.6829423    630.30385  0.017053676  0.016477761           70 
 3081000   0.73980466   -7.6892335    630.96656  0.017066065  0.016471602           13 
 3082000   0.76550089   -7.7271847    630.09076  0.017036847  0.016465434           27 
 3083000   0.77387752   -7.7103899    630.27319  0.017036252   0.01645929           33 
 3084000   0.74661091   -7.6937297    630.80457  0.017045087  0.016453157           29 
 3085000   0.76801125    -7.699884    631.73844  0.017064788  0.016447024           37 
 3086000   0.77131784   -7.7008265    630.72706  0.017031947  0.016440884           24 
 3087000   0.75905485   -7.6845752      631.244  0.017040384  0.016434775           35 
 3088000   0.74494666   -7.7104082    632.26919  0.017062532  0.016428652           11 
 3089000    0.7660965   -7.6987944    631.75751  0.017043205  0.016422547           32 
 3090000    0.7511913   -7.7000122    631.77371  0.017038126  0.016416421           12 
 3091000    0.7471792   -7.7038224     630.7358  0.017004632  0.016410303           23 
 3092000   0.76922327   -7.6805831    630.87489  0.017002881  0.016404187           10 
 3093000   0.75077578   -7.7138051    630.94171  0.016999184  0.016398063           11 
 3094000    0.7614674   -7.7081729    629.64873  0.016958865  0.016391954            9 
 3095000   0.75806514   -7.7010766    631.34285     0.016999  0.016385833           13 
 3096000   0.76296763   -7.7224746      630.838   0.01697992  0.016379708           12 
 3097000   0.76620034   -7.7168918    630.37848  0.016962073  0.016373589           17 
 3098000   0.76998396   -7.7029609    631.42291  0.016984692  0.016367472           10 
 3099000   0.74578318   -7.6873669    631.36977  0.016977782  0.016361365           13 
 3100000   0.75515168   -7.7063341    631.66531   0.01698025   0.01635527           30 
 3101000   0.75094265   -7.6979554    630.49166  0.016943235  0.016349187           30 
 3102000   0.75253123   -7.7317405    632.31544  0.016986768  0.016343103           16 
 3103000   0.77069623   -7.6893868    631.95389  0.016971584  0.016337017           13 
 3104000   0.76287907   -7.7049823    631.57065  0.016955827  0.016330929           33 
 3105000   0.74654819   -7.7307424    631.94865  0.016960511  0.016324841           23 
 3106000   0.75647688   -7.6975475    631.54065  0.016944104  0.016318752           22 
 3107000   0.75852283   -7.7044579    630.43904  0.016909104  0.016312678           45 
 3108000   0.76675734   -7.7305475    631.95282  0.016944252  0.016306607           24 
 3109000   0.74803235   -7.7110304    631.72678  0.016932743  0.016300527           57 
 3110000    0.7546938   -7.7160418    631.50988  0.016921487  0.016294446           35 
 3111000   0.75133096   -7.7061706    631.95839  0.016928061  0.016288365           42 
 3112000   0.77044181   -7.7156969    631.59621  0.016912923  0.016282273           35 
 3113000   0.75314052   -7.7088244    631.13994  0.016895276  0.016276196           80 
 3114000   0.75275361   -7.7385427     630.4255  0.016870732  0.016270092           45 
 3115000   0.74689116   -7.7029977    631.00538  0.016880829  0.016264006           55 
 3116000   0.75659302   -7.7236676    631.39283  0.016885773  0.016257903           48 
 3117000   0.75635746   -7.7383807    631.12732  0.016873257  0.016251799           59 
 3118000   0.75497233   -7.7249314    629.49801    0.0168243  0.016245712           49 
 3119000   0.74466303   -7.7021509    631.37089  0.016868945  0.016239644           45 
 3120000   0.73488408   -7.7223311    630.45565  0.016839093  0.016233557           42 
 3121000   0.74688393   -7.7215058    630.62645  0.016838258  0.016227491           30 
 3122000   0.74543379    -7.704587    629.82998  0.016811605  0.016221419           50 
 3123000   0.75569196   -7.7067076    631.37083  0.016847338  0.016215343           38 
 3124000   0.74421322   -7.7077538    630.43614  0.016817012  0.016209289           32 
 3125000   0.75065155   -7.7382266    629.42811   0.01678475  0.016203219           37 
 3126000   0.75095336    -7.736008    630.58328  0.016810175  0.016197137           53 
 3127000   0.75631271   -7.7362012    630.79207  0.016810363  0.016191041           68 
 3128000   0.76076303   -7.7446697    629.07434  0.016759227  0.016184959           43 
 3129000   0.75286148    -7.724494    629.94195  0.016776978  0.016178876           54 
 3130000    0.7538799   -7.7352669    628.78206  0.016740736  0.016172789           33 
 3131000   0.74495981     -7.74671    630.33675  0.016776769  0.016166708           82 
 3132000   0.74405997    -7.708492    630.39596  0.016772988   0.01616062          104 
 3133000   0.72909958   -7.7702732    629.15967   0.01673475  0.016154512          103 
 3134000   0.74030196    -7.751385    629.84381  0.016747602  0.016148393           82 
 3135000   0.72752834    -7.752224    630.18977  0.016751456   0.01614227          105 
 3136000    0.7611001   -7.7421055    630.06588  0.016742822  0.016136167           74 
 3137000   0.74013367   -7.7442934    630.18273  0.016740589  0.016130066           43 
 3138000   0.76776582   -7.7374599    631.47545  0.016769584  0.016123969           70 
 3139000   0.75087839   -7.7370458     629.4881  0.016711482  0.016117874           91 
 3140000   0.74663041   -7.7537938      629.567  0.016708254  0.016111784           95 
 3141000   0.74401829   -7.7457346     629.3479  0.016697121  0.016105693           33 
 3142000   0.76575039   -7.7750475     629.7955  0.016703679  0.016099565           41 
 3143000   0.75081056   -7.7448647    629.77128  0.016697722  0.016093429           60 
 3144000   0.74919521   -7.7783941    629.12341  0.016675239  0.016087316           73 
 3145000   0.74478947   -7.7688136    628.54445  0.016654596  0.016081195           39 
 3146000    0.7509671   -7.7188319    629.62657  0.016677966  0.016075078           63 
 3147000   0.75302781   -7.7678671    628.58511  0.016645088  0.016068961           70 
 3148000   0.74983632   -7.7361646    630.77726  0.016697831   0.01606286           45 
 3149000   0.74279236   -7.7560742    628.86534  0.016641932  0.016056746           98 
 3150000   0.75637414   -7.7460138    628.13187  0.016617245  0.016050634           84 
 3151000   0.75529021   -7.7303674     629.6469  0.016652039  0.016044538          103 
 3152000   0.74008789   -7.7352698    630.48527  0.016668921  0.016038452           64 
 3153000   0.75600288   -7.7478376    629.49787  0.016637538   0.01603235           54 
 3154000   0.74148358   -7.7746231    629.26269  0.016626049  0.016026246           72 
 3155000   0.75148076   -7.7482177    630.44612  0.016652037  0.016020129           41 
 3156000   0.76213248   -7.7787208    629.50982  0.016622038  0.016014031          174 
 3157000   0.74284328   -7.7502899    629.21894  0.016609095  0.016007929           54 
 3158000   0.74105564   -7.7679005    629.27109  0.016605211  0.016001839          111 
 3159000   0.74398762   -7.7743582    627.59434  0.016555723  0.015995743           92 
 3160000   0.74799963   -7.7600154    629.04613  0.016588769   0.01598963          150 
 3161000   0.72418331   -7.7709818    628.25091  0.016562557  0.015983525           93 
 3162000    0.7610288   -7.7716123    629.10901  0.016579934  0.015977409           89 
 3163000   0.74871754   -7.7697925    628.48521  0.016558257  0.015971296          100 
 3164000   0.74472817   -7.7576517    629.50361  0.016579846  0.015965201           95 
 3165000   0.74214849   -7.7771016    628.97506  0.016560691  0.015959099           81 
 3166000   0.74002195   -7.7903662    628.16859  0.016534233  0.015953008           68 
 3167000    0.7208758    -7.819775    627.42975  0.016509571  0.015946882           74 
 3168000   0.74808263   -7.7829542    628.56501  0.016534223  0.015940741           66 
 3169000   0.72989637   -7.7919529    627.29438  0.016495592  0.015934628          129 
 3170000    0.7305059   -7.8040983    627.93519  0.016507234  0.015928515          129 
 3171000   0.74630506   -7.7965308    628.48527  0.016516485  0.015922411           74 
 3172000   0.73600371   -7.7450905     629.4408  0.016536381  0.015916333           60 
 3173000   0.72724886   -7.7740339    629.90187  0.016543279  0.015910255           86 
 3174000   0.75657026   -7.7804721    629.49548  0.016527397  0.015904167          127 
 3175000   0.75803407   -7.8136142    627.88872  0.016480019  0.015898074           67 
 3176000   0.73643625   -7.7792833    630.24634   0.01653669  0.015891984           36 
 3177000   0.75301242   -7.7765672    628.30138  0.016480469    0.0158859           62 
 3178000   0.74295126   -7.7927873    629.04149   0.01649469  0.015879802           90 
 3179000   0.73484111    -7.793979    628.37088  0.016471922  0.015873723           57 
 3180000   0.74336051   -7.7905637    629.67838  0.016501006  0.015867632           49 
 3181000   0.74593447     -7.80805    627.42847  0.016436877  0.015861527           99 
 3182000    0.7333773   -7.8223388    628.96592  0.016471976  0.015855404          121 
 3183000   0.76457985   -7.7831797    627.90401  0.016438999  0.015849296           49 
 3184000    0.7406494   -7.7821875    628.99423   0.01646237  0.015843224           38 
 3185000   0.74959388    -7.760634    629.11106  0.016460258  0.015837147           45 
 3186000   0.76362845   -7.7834435     628.5557  0.016440566  0.015831099           45 
 3187000   0.73044709    -7.777924    629.23767  0.016453239  0.015825045           49 
 3188000   0.74437641   -7.7807167    628.70553  0.016434168  0.015818989           77 
 3189000   0.74018762   -7.7817332    627.93158   0.01640879  0.015812919           81 
 3190000    0.7317924   -7.8209374    627.55329  0.016393764  0.015806856          107 
 3191000   0.74845611   -7.7812765    629.93633   0.01645086  0.015800798          102 
 3192000    0.7336452   -7.7958282    628.45097  0.016406928  0.015794733           49 
 3193000   0.75087372   -7.7854095    628.69356  0.016408121  0.015788674           52 
 3194000   0.73539796   -7.7913967    630.21948  0.016442796  0.015782616           41 
 3195000   0.73666006   -7.7913255    628.47762  0.016392218  0.015776573           73 
 3196000   0.74307554   -7.7884399    629.58382  0.016415932  0.015770524           56 
 3197000   0.73280698   -7.7704816     628.9711  0.016394826  0.015764478           68 
 3198000   0.73999743   -7.7784492    629.80042   0.01641131  0.015758446           78 
 3199000   0.73994674   -7.8084073    628.26095  0.016366077  0.015752416           49 
 3200000   0.72705525   -7.7622646    628.51315   0.01636753  0.015746387           28 
 3201000   0.73583425    -7.753335     629.2283  0.016381035  0.015740372           50 
 3202000   0.72484838   -7.7628632    630.10823  0.016398819  0.015734344           65 
 3203000   0.73396829   -7.7895433    628.80734  0.016359854  0.015728319          118 
 3204000   0.73595596   -7.7865324    628.63832  0.016350352  0.015722294           58 
 3205000   0.73744275   -7.7936019    628.29691  0.016336373   0.01571626           68 
 3206000   0.72983633   -7.8101204    627.03121  0.016298378  0.015710211           71 
 3207000   0.73276626   -7.7921355    627.96622  0.016317592   0.01570417           63 
 3208000   0.72915169   -7.8032134    627.07258  0.016289292  0.015698119           94 
 3209000   0.74393094   -7.7999905    628.95525  0.016333106  0.015692049           54 
 3210000   0.75192058   -7.8161904    626.80792  0.016272272  0.015686003          169 
 3211000   0.73001617   -7.7947553    628.27389   0.01630525  0.015679956          101 
 3212000   0.74903376    -7.804927    627.35626  0.016276366  0.015673919           44 
 3213000   0.72410444   -7.7957737    628.97806  0.016313364  0.015667882          117 
 3214000   0.72792657   -7.8036397    629.66937  0.016326213  0.015661865           40 
 3215000   0.74051246   -7.8019503    628.63579  0.016294344   0.01565585           70 
 3216000    0.7470434   -7.7830778    628.77907   0.01629299  0.015649847          117 
 3217000    0.7463552   -7.8058139    629.39685  0.016303928  0.015643837           68 
 3218000   0.72395012   -7.7951955    629.04169  0.016289665  0.015637837           39 
 3219000   0.74278445   -7.8011141    628.51114  0.016270869  0.015631822          108 
 3220000   0.73383416   -7.7710039    629.50358    0.0162915   0.01562581          116 
 3221000   0.74146689    -7.809315    628.48981  0.016260214  0.015619801           46 
 3222000   0.72785952   -7.7846291    629.28406   0.01627571  0.015613802          136 
 3223000   0.74433202     -7.81745    627.55965  0.016226074  0.015607802          130 
 3224000   0.72198513   -7.7660505    630.23386  0.016290164   0.01560181          128 
 3225000   0.71902399   -7.7901154    628.66338  0.016244532  0.015595818          113 
 3226000   0.74571685   -7.7972949    627.52072  0.016209979  0.015589817           92 
 3227000   0.72124831   -7.7690791    628.06877  0.016219109  0.015583819           73 
 3228000   0.73170054   -7.8249886    628.30215  0.016220109   0.01557784          113 
 3229000   0.73343386   -7.8016129    628.44929  0.016218883  0.015571858          117 
 3230000   0.73138449     -7.80315    628.40454  0.016212707  0.015565862           71 
 3231000    0.7352266   -7.7784539    630.91517  0.016272443  0.015559888           73 
 3232000   0.74517811   -7.8091782    627.13929  0.016170052  0.015553889           74 
 3233000    0.7281061   -7.7804336    629.89589  0.016236104  0.015547901           64 
 3234000   0.74062892   -7.8046764    628.76483  0.016201938   0.01554191           61 
 3235000   0.73593434   -7.8141625    627.88089   0.01617416  0.015535912          204 
 3236000   0.74288626   -7.8401806    627.82964  0.016167842  0.015529917           78 
 3237000   0.73528884    -7.805284    629.15172  0.016196883  0.015523915           76 
 3238000   0.74991484   -7.7850142    629.87698  0.016210546   0.01551792           94 
 3239000   0.72458446   -7.7800633    627.87016   0.01615391  0.015511941          116 
 3240000   0.71613323   -7.7836114    627.65947  0.016143505  0.015505963           64 
 3241000   0.73736616   -7.8196789      628.037  0.016148231  0.015499979           74 
 3242000   0.73348718   -7.7810042    629.04964  0.016169279  0.015494002          129 
 3243000     0.731962   -7.8005031    628.66337  0.016154368  0.015488032          120 
 3244000   0.73634012   -7.8163372    628.13509  0.016135817  0.015482052          122 
 3245000   0.72360485   -7.8177952    628.90197  0.016150539  0.015476065           82 
 3246000   0.73804528   -7.8280745    625.75779  0.016064844  0.015470077          111 
 3247000   0.73990187   -7.7969729    627.56294  0.016106225  0.015464091          160 
 3248000    0.7291965   -7.7997722    628.98903  0.016137855  0.015458127           88 
 3249000    0.7481519   -7.7970796    627.92219  0.016105525  0.015452169          112 
 3250000   0.71825293   -7.8234927    627.06055  0.016078476  0.015446202          143 
 3251000   0.73846396   -7.7945503    628.24226  0.016103821  0.015440238           86 
 3252000   0.73474944   -7.7845324    629.48796   0.01613079  0.015434304          128 
 3253000   0.72921273   -7.8099891    628.50334  0.016100608  0.015428379          117 
 3254000   0.73866457   -7.8054016     629.7256  0.016126962  0.015422451          116 
 3255000   0.72196123   -7.8167962    627.53262  0.016065863  0.015416504          154 
 3256000   0.70725013   -7.8374328     628.2815  0.016080096  0.015410565          143 
 3257000   0.74203669   -7.8265827    628.38582  0.016077828  0.015404608          159 
 3258000   0.72626418   -7.8107655    628.77658  0.016082888   0.01539867          108 
 3259000   0.73328047   -7.8335397    627.50253  0.016045375  0.015392729           97 
 3260000    0.7387773   -7.8389968    628.07478  0.016055081  0.015386781          142 
 3261000   0.73658462   -7.8190604    626.49902   0.01600989  0.015380834          166 
 3262000   0.73214782   -7.8315751    626.56045  0.016006551  0.015374868          179 
 3263000   0.73681351   -7.8335401    629.77485  0.016083738  0.015368921          135 
 3264000   0.72848932    -7.851192    627.35653  0.016017068  0.015362963          188 
 3265000   0.72931126   -7.8121262    628.41832  0.016039263  0.015356995          162 
 3266000   0.73034123   -7.8302582    626.83633  0.015993987  0.015351036          192 
 3267000   0.71378673   -7.8347332    627.21952  0.015998865  0.015345053          211 
 3268000   0.73464589   -7.8283507    626.59827  0.015978128  0.015339102          139 
 3269000   0.73479152   -7.7872459    628.88949  0.016031648  0.015333163          179 
 3270000   0.71406511   -7.8147712    627.52703  0.015992024  0.015327234          202 
 3271000    0.7284624   -7.8516223    628.10775   0.01600193  0.015321296          160 
 3272000   0.72779482    -7.836093    627.94255  0.015992832  0.015315347          173 
 3273000   0.73755997   -7.8112099    627.88551  0.015986493  0.015309404          143 
 3274000   0.71865646    -7.858181    627.79535  0.015979316   0.01530346          165 
 3275000   0.74572879   -7.8467006    626.44793  0.015940151  0.015297513          237 
 3276000   0.72075143   -7.7934314     627.8036   0.01596977   0.01529158          239 
 3277000   0.73979495   -7.8175006    628.21387   0.01597533  0.015285654          207 
 3278000   0.72667347   -7.8570402    626.34698  0.015922996  0.015279717          237 
 3279000   0.72870883   -7.8446826    625.59644  0.015899066  0.015273779          178 
 3280000    0.7295175   -7.8132496       627.77  0.015949441  0.015267841          250 
 3281000   0.73612572    -7.819457    627.27519  0.015932012  0.015261919          176 
 3282000   0.74402351   -7.8301995    627.98461  0.015945171  0.015255997          174 
 3283000   0.74184136   -7.8485861    625.62985  0.015880542  0.015250063          153 
 3284000   0.72572159   -7.8358453    627.43862  0.015921605  0.015244133          260 
 3285000   0.71623682   -7.8458932    626.98466  0.015905243   0.01523819          311 
 3286000   0.72485087   -7.8452169     626.4586  0.015887061  0.015232268          235 
 3287000   0.75007354   -7.8564257    626.63311  0.015886652  0.015226323          175 
 3288000   0.72448064    -7.830715    626.87438  0.015887935  0.015220407          233 
 3289000   0.73829397   -7.8549242    627.32116  0.015894425  0.015214484          228 
 3290000   0.73228462   -7.8547634    625.54485  0.015844601  0.015208545          265 
 3291000   0.72399043   -7.8443532    627.38471  0.015886375  0.015202599          297 
 3292000   0.73711932   -7.8360718    625.87199  0.015843256  0.015196659          274 
 3293000   0.73898585   -7.8789219    625.65445   0.01583294  0.015190714          234 
 3294000   0.73313048   -7.8251138    628.04396  0.015888584  0.015184779          261 
 3295000   0.72812075   -7.8373668    627.04256  0.015858436  0.015178867          350 
 3296000    0.7412635   -7.8153482    627.72481  0.015870874  0.015172977          193 
 3297000   0.73175397   -7.8401767    625.94318  0.015821029  0.015167089          324 
 3298000   0.72023549   -7.8444858    627.66128  0.015859644  0.015161191          278 
 3299000   0.72493662   -7.8142634     627.6422  0.015854355  0.015155308          267 
 3300000   0.72168814   -7.8453606    627.15687  0.015837295   0.01514944          233 
 3301000   0.71782201   -7.8294245     627.6424  0.015844754  0.015143583          306 
 3302000   0.72114379   -7.8276271    628.13729  0.015852445  0.015137705          273 
 3303000    0.7154009   -7.8607768    627.47222  0.015830866  0.015131818          221 
 3304000   0.71703104   -7.8227423    627.27325  0.015821057  0.015125932          316 
 3305000   0.72405351   -7.8539456    626.48994  0.015796519  0.015120042          407 
 3306000   0.71613282   -7.8472351    626.16906  0.015783652   0.01511414          364 
 3307000   0.72146123   -7.8596376    626.79142  0.015794562  0.015108264          271 
 3308000   0.74215611   -7.8351791    628.12697  0.015823432  0.015102382          278 
 3309000   0.70971631   -7.8312194    626.18024  0.015769624  0.015096504          207 
 3310000   0.70685098   -7.8223279    626.55817  0.015774375  0.015090622          284 
 3311000   0.71583848   -7.8655122    625.85744  0.015751974  0.015084732          307 
 3312000   0.71439494   -7.8720067    627.00065  0.015775982  0.015078833          280 
 3313000   0.74042613    -7.840979     626.5687  0.015760356  0.015072947          296 
 3314000   0.70506046   -7.8752683    626.22183  0.015746878  0.015067058          308 
 3315000   0.72081909   -7.8640997    627.82024  0.015782309  0.015061162          274 
 3316000   0.72227794   -7.8693232    626.38034  0.015741364  0.015055272          469 
 3317000   0.73328319   -7.8471421    626.64677  0.015743311  0.015049395          448 
 3318000   0.73383168   -7.8440133    627.65287  0.015763835  0.015043525          220 
 3319000   0.71696634   -7.8439906    626.21125   0.01572289  0.015037658          165 
 3320000   0.71131941   -7.8404777    627.85469  0.015759405  0.015031797          160 
 3321000   0.71261733   -7.8370324    627.10629   0.01573588  0.015025962          196 
 3322000    0.7054762   -7.8362572    627.59278  0.015743347  0.015020132          293 
 3323000   0.71698296    -7.860078    625.86477  0.015695275  0.015014294          264 
 3324000   0.71317575   -7.8606888     627.2594  0.015725516  0.015008439          252 
 3325000   0.72838184   -7.8418302    626.83952  0.015710264  0.015002579          377 
 3326000   0.72309786   -7.8857698    625.00216  0.015659505   0.01499672          513 
 3327000   0.71899257   -7.8423513    626.36774  0.015689003  0.014990857          263 
 3328000    0.7081974   -7.8556851    626.43722  0.015686028  0.014984986          438 
 3329000   0.71673784   -7.8565443    627.39368  0.015705259  0.014979112          161 
 3330000    0.7165952   -7.8675098     626.3812  0.015675205   0.01497326          190 
 3331000   0.72942452   -7.8720619    626.32316  0.015669047  0.014967417          461 
 3332000   0.70131383   -7.8574009    627.24601  0.015687425  0.014961575          477 
 3333000   0.71190647   -7.8842316    627.30828  0.015684275  0.014955737          249 
 3334000   0.72477093   -7.8960864    624.74019  0.015615382  0.014949888          336 
 3335000   0.70766202    -7.896614    624.99654  0.015617105  0.014944021          256 
 3336000   0.73326937   -7.8678426    626.58318  0.015652058  0.014938174          284 
 3337000   0.72980209   -7.8722155    625.80513  0.015627937  0.014932331          238 
 3338000   0.71612991    -7.833263     626.6209  0.015643621  0.014926515          211 
 3339000   0.72106994   -7.8743842    626.90859  0.015646116  0.014920691          301 
 3340000   0.71810507    -7.879692    626.99568  0.015643605  0.014914851          346 
 3341000   0.72835392   -7.8814814    626.46741  0.015625746  0.014909013          306 
 3342000   0.73025653   -7.8830322    625.24378  0.015590559  0.014903184          316 
 3343000   0.70437126   -7.8801221    626.85784   0.01562613  0.014897354          431 
 3344000   0.73060755   -7.8490662    627.64859  0.015641163  0.014891526          298 
 3345000    0.7241328    -7.861679    625.49744  0.015582896   0.01488569          259 
 3346000   0.71667706   -7.8523815    626.80904  0.015610905  0.014879867          309 
 3347000   0.72698814   -7.8838304    625.72957  0.015579364  0.014874036          250 
 3348000    0.7163586   -7.8848987    625.91251  0.015579264  0.014868214          219 
 3349000   0.72622648   -7.8944964     625.1117  0.015554685   0.01486237          268 
 3350000   0.71005405    -7.889138    625.85108  0.015568435  0.014856535          314 
 3351000   0.72104769   -7.8909355    625.60522  0.015557675  0.014850682          306 
 3352000   0.71816619   -7.8792146    626.71642  0.015580659  0.014844855          323 
 3353000   0.71728911   -7.8669155    627.24985   0.01558927  0.014839038          557 
 3354000    0.7046313   -7.8805524    625.82476  0.015549214  0.014833224          553 
 3355000    0.7034645   -7.8893647    624.31816  0.015507157  0.014827403          325 
 3356000   0.71952407   -7.9071541    626.08725  0.015546465  0.014821584          307 
 3357000   0.72659147   -7.8926698    625.83736  0.015535631  0.014815773          629 
 3358000   0.71905473   -7.9065896     625.9963  0.015534949   0.01480996          302 
 3359000   0.71868404   -7.8840735     626.3353  0.015538734  0.014804153          314 
 3360000   0.71017616   -7.8930035    626.54532  0.015539318  0.014798349          318 
 3361000    0.7281711   -7.8948642    625.20713  0.015501516  0.014792544          596 
 3362000   0.71372515   -7.9041739    626.41586  0.015526865  0.014786743          312 
 3363000   0.70335489   -7.9133316    626.13231  0.015515222  0.014780936          324 
 3364000    0.7191165   -7.8777268    626.42366  0.015517827  0.014775146          314 
 3365000   0.71232007   -7.8961744    625.86532  0.015499389  0.014769342          688 
 3366000   0.69607292   -7.8970376    625.34636  0.015481936  0.014763535          367 
 3367000   0.72076998   -7.9063763     624.4836  0.015455985  0.014757718          600 
 3368000   0.73531516   -7.9000563    624.34249  0.015447904  0.014751906          279 
 3369000   0.70397307   -7.9026716    624.61001  0.015449936  0.014746089          343 
 3370000   0.71410437   -7.8961211    625.47873  0.015466833  0.014740282          267 
 3371000   0.71982734   -7.9359163    623.49453  0.015413194  0.014734468          666 
 3372000   0.71921556   -7.8989822    624.88267  0.015442929  0.014728645          382 
 3373000   0.71331492   -7.9226602    624.54911   0.01543011  0.014722834          626 
 3374000   0.71152177   -7.9194312    623.97056  0.015411247  0.014717016          344 
 3375000   0.71637138   -7.9253089    625.16213  0.015436102  0.014711195          651 
 3376000    0.7095965   -7.9174214    625.87785  0.015449197  0.014705399          723 
 3377000   0.71282748   -7.9033502    623.95203  0.015397099  0.014699583          699 
 3378000   0.71076743   -7.9247893    624.09044  0.015395955  0.014693779          740 
 3379000   0.69182578    -7.933084    625.92057  0.015436534  0.014687963          697 
 3380000   0.70161842    -7.932191    624.15052  0.015388326  0.014682159          620 
 3381000   0.72084688    -7.917922    625.39509  0.015414451  0.014676353          876 
 3382000   0.69932205   -7.9121026    624.52521  0.015388459  0.014670546          709 
 3383000   0.71704318   -7.9114083    625.58745  0.015410076  0.014664734          801 
 3384000   0.70316297   -7.9153915    624.16896  0.015370591   0.01465893          754 
 3385000   0.70578812   -7.9349592    623.52916  0.015350299  0.014653118          405 
 3386000   0.71258072   -7.9466691     623.7478  0.015351147  0.014647315          497 
 3387000   0.72332389   -7.9121255    624.80425  0.015372607  0.014641517          778 
 3388000   0.72946158   -7.9165905    626.73278  0.015415505  0.014635738          432 
 3389000   0.70239993   -7.9311141    624.14257  0.015347265   0.01462994          810 
 3390000   0.71100277   -7.9246044    624.42018  0.015349562  0.014624156          765 
 3391000   0.70079331   -7.9349196    625.50644   0.01537173  0.014618358          392 
 3392000   0.71152015   -7.9077785     624.7603  0.015348867  0.014612561          733 
 3393000   0.72872326   -7.9301784    624.86152   0.01534683  0.014606766          677 
 3394000   0.71678536   -7.9023226    624.66482  0.015337478  0.014600973          406 
 3395000   0.71003184   -7.9543769    624.25391  0.015322875  0.014595178          808 
 3396000   0.70159201   -7.9470921    624.40458   0.01532206  0.014589387          748 
 3397000   0.70019548   -7.9502072     623.0269  0.015283753  0.014583601          425 
 3398000   0.72813611   -7.9653557    623.88607  0.015300325  0.014577811          832 
 3399000   0.71105133   -7.9419564    624.26551  0.015305127  0.014572034          719 
 3400000    0.7124592   -7.9341769    624.54527  0.015307482  0.014566254          748 
 3401000   0.70234039   -7.9233032    623.96948  0.015288873   0.01456048          478 
 3402000   0.70460222   -7.9332461     623.8383  0.015281165  0.014554699          807 
 3403000   0.71400315   -7.9580495    623.76413  0.015274859  0.014548924          575 
 3404000   0.70575361   -7.9501876    622.47812  0.015238889  0.014543153          774 
 3405000   0.68946336   -7.9537436    625.25403   0.01530235  0.014537371          787 
 3406000   0.70707838   -7.9488796     623.6537  0.015258703  0.014531588          730 
 3407000   0.71720885   -7.9460895    623.76666  0.015256987  0.014525816          671 
 3408000   0.69653112   -7.9510174    623.63668  0.015249332  0.014520036          874 
 3409000   0.71197117   -7.9418012    623.30184  0.015236674  0.014514275          505 
 3410000   0.71008107   -7.9415018     624.5663  0.015263106  0.014508523          771 
 3411000   0.71120484   -7.9227681    624.00617  0.015244947  0.014502768          811 
 3412000   0.71693276    -7.945108    624.41709  0.015250515  0.014497002          882 
 3413000   0.70375575   -7.9528763    623.96095   0.01523491  0.014491247          834 
 3414000   0.71784295   -7.9251814    624.46924  0.015242854  0.014485485          773 
 3415000   0.70464863    -7.945582    625.32287  0.015259221  0.014479732          562 
 3416000   0.70719698    -7.956457    623.55895  0.015211723  0.014473981          906 
 3417000   0.69635688   -7.9259416    623.75946  0.015212161  0.014468234          586 
 3418000   0.70572756   -7.9553362    623.59819  0.015203779  0.014462493          681 
 3419000   0.71073524   -7.9454583    623.40015  0.015194505  0.014456736          604 
 3420000   0.70392909    -7.945154    623.39512   0.01518994  0.014450987          827 
 3421000   0.70233643   -7.9597052    623.35918  0.015184624  0.014445253          849 
 3422000   0.68425593   -7.9465136    623.22391  0.015176892  0.014439504          827 
 3423000   0.73199701   -7.9484875    623.66658  0.015183236  0.014433765          817 
 3424000   0.70599659   -7.9613295    623.98433  0.015186535  0.014428015          814 
 3425000   0.70236887   -7.9537506     622.9747  0.015157535  0.014422276          828 
 3426000   0.71068564   -7.9617633    622.47494  0.015140955  0.014416534          871 
 3427000   0.71268713   -7.9672103    623.43015  0.015159764  0.014410806          844 
 3428000   0.70170969   -7.9739173    622.88186  0.015142013  0.014405071          866 
 3429000     0.717255   -7.9566984    623.39421  0.015150049  0.014399344          903 
 3430000    0.7044041   -7.9580608    622.88339  0.015133221  0.014393612          822 
 3431000   0.70693443   -7.9668858    622.93018  0.015129947  0.014387875          829 
 3432000   0.70191139   -7.9676252    623.12701  0.015130318  0.014382152          821 
 3433000   0.70179486   -7.9531647    624.45214  0.015158077   0.01437643          898 
 3434000   0.70351098   -7.9632318    623.57015  0.015132259   0.01437071          936 
 3435000   0.70442764   -7.9509024    623.71441  0.015131354  0.014364984          961 
 3436000   0.70525453   -7.9553102    624.89419  0.015155564  0.014359254          529 
 3437000   0.70237764   -7.9681446    622.61268  0.015095837  0.014353533          522 
 3438000   0.68271161   -7.9575993    623.30207  0.015108156  0.014347823          897 
 3439000   0.70350878   -7.9633734     622.9596  0.015095464  0.014342117          924 
 3440000   0.68847319   -7.9836486    622.16939  0.015071933  0.014336409          955 
 3441000   0.69062043   -7.9342684    624.26317  0.015118259  0.014330687          570 
 3442000   0.70294742   -7.9688596    624.41447   0.01511753  0.014324979          815 
 3443000    0.7152828   -7.9568654       624.29  0.015110127  0.014319262          880 
 3444000   0.70040212   -7.9888756    621.74955  0.015044269  0.014313538          908 
 3445000   0.70501159    -8.010951    622.52087   0.01505856  0.014307824          944 
 3446000   0.68094628   -7.9514045    621.91642  0.015039573  0.014302114          590 
 3447000   0.70444853   -7.9779191    622.28156  0.015044037  0.014296404          944 
 3448000   0.71360466   -7.9823807    621.85771   0.01502943  0.014290694          933 
 3449000   0.69046551   -7.9688692    623.59809  0.015067123  0.014284973          896 
 3450000   0.71424952   -7.9737573    622.68686  0.015040745  0.014279259          613 
 3451000   0.70206721   -7.9840588    623.45853  0.015055021  0.014273551          583 
 3452000   0.69170344   -7.9929701    623.06147  0.015041075  0.014267832          957 
 3453000   0.70039792   -7.9871819    622.55981  0.015024612  0.014262116          959 
 3454000   0.70764126   -7.9821072    622.68346  0.015023245  0.014256422          911 
 3455000   0.69516774   -7.9633134    623.13871  0.015029877  0.014250731          852 
 3456000   0.70895943   -7.9680049    623.91069  0.015044143  0.014245046          823 
 3457000   0.69678769   -7.9676829    623.93675  0.015040419   0.01423936          883 
 3458000   0.69738699   -7.9683184    620.72466  0.014958663  0.014233673          967 
 3459000   0.70156106   -7.9858694     623.2718  0.015015703  0.014227977          586 
 3460000   0.70266494   -7.9728392     622.5698  0.014994456  0.014222284          945 
 3461000   0.71118281   -7.9843923     623.2924  0.015007522  0.014216596          907 
 3462000   0.70659726   -8.0018929    622.58268  0.014986104  0.014210919          613 
 3463000   0.70316698   -7.9907135    622.06412  0.014969297  0.014205234          547 
 3464000   0.69026933   -7.9852818    623.24278  0.014993331  0.014199554          949 
 3465000   0.70855282    -7.987862    623.15398  0.014986868  0.014193885          987 
 3466000   0.68817373   -8.0042248    623.11451  0.014981595  0.014188217          970 
 3467000    0.7053082   -7.9913708    622.03859  0.014951413  0.014182556          985 
 3468000   0.68008257   -7.9994352    622.79718   0.01496533  0.014176889          935 
 3469000   0.70066501   -7.9814395    622.10857  0.014944474  0.014171226         1015 
 3470000   0.71044123   -7.9622003    622.46851  0.014948812  0.014165565          964 
 3471000    0.7100566   -7.9807169    623.34362  0.014965515  0.014159913         1125 
 3472000   0.70850371    -8.001695    622.24563  0.014934851  0.014154268          946 
 3473000   0.70287454   -7.9788399    622.52429  0.014937237  0.014148626          650 
 3474000   0.70774557    -7.983074    622.92963   0.01494266   0.01414298          949 
 3475000   0.67905247    -7.986251    622.08016  0.014917989  0.014137323         1026 
 3476000   0.70895437   -7.9945098    622.78755  0.014930657  0.014131661         1088 
 3477000   0.68996204   -7.9826813    621.82748  0.014903352  0.014126003         1065 
 3478000   0.68534191   -8.0057297    622.66704  0.014919184  0.014120344         1081 
 3479000    0.6917911   -7.9971691    621.62483  0.014889931  0.014114699         1107 
 3480000   0.69094776   -7.9793294    622.71626  0.014911788  0.014109054         1166 
 3481000   0.70389856   -7.9832681    622.07406   0.01489213  0.014103411         1074 
 3482000   0.70548629   -7.9869916    621.89613  0.014883595  0.014097773         1053 
 3483000   0.70895604   -7.9965861    622.06037  0.014883251  0.014092137          750 
 3484000   0.70474529     -8.00112    623.28567  0.014908287  0.014086498         1187 
 3485000   0.68826205   -7.9881923    622.30915  0.014880659  0.014080857         1210 
 3486000   0.69143164   -7.9972516    622.43584  0.014879419   0.01407522         1100 
 3487000   0.69071385   -7.9938545    622.04727  0.014865865  0.014069586         1044 
 3488000   0.69554255   -7.9835292    622.29307  0.014867476  0.014063953          724 
 3489000   0.67039482   -7.9921463    622.12928  0.014859303  0.014058321         1172 
 3490000   0.69448276   -7.9950344    621.74867  0.014845957  0.014052692         1180 
 3491000      0.67915   -8.0006777    622.32577   0.01485548  0.014047065         1072 
 3492000   0.69135394   -7.9869023    622.04848  0.014844609  0.014041449         1146 
 3493000   0.69021362   -8.0154654     620.9072  0.014813131  0.014035822         1127 
 3494000   0.68447901   -8.0140908    622.05462  0.014836258  0.014030197         1202 
 3495000   0.68636315   -8.0006386    621.11206  0.014809539  0.014024577         1149 
 3496000   0.70606703    -8.001015    621.45851  0.014813561  0.014018951         1207 
 3497000   0.69143336   -7.9844483    622.35944  0.014830794  0.014013327         1164 
 3498000   0.69326335   -8.0042943     623.0521  0.014843056  0.014007714         1169 
 3499000   0.67994377   -7.9853392    622.49649  0.014825581  0.014002093         1126 
 3500000   0.69025347    -8.026412    621.43875  0.014796161  0.013996482         1216 
 3501000   0.69254466   -8.0080955    623.17292  0.014833212  0.013990862         1187 
 3502000   0.68604072   -8.0151693    621.54408  0.014790217  0.013985244         1219 
 3503000   0.69584486    -8.016159    621.26456  0.014779345  0.013979615         1205 
 3504000   0.68281468   -8.0090852     619.4405  0.014731747  0.013973993         1300 
 3505000   0.70410318   -8.0274473    619.86881  0.014737727  0.013968368         1247 
 3506000   0.68927488   -8.0302944    621.58299  0.014774268  0.013962746         1195 
 3507000   0.70054713   -8.0256314    621.39733  0.014765643  0.013957131         1355 
 3508000   0.68536509   -8.0149645    620.27706  0.014734822  0.013951536         1205 
 3509000   0.68128375   -8.0246058    619.77444  0.014718686  0.013945916         1194 
 3510000   0.67922942    -8.028947    620.84528  0.014739916    0.0139403         1233 
 3511000   0.69511686   -8.0217309    621.48628  0.014750932  0.013934693         1191 
 3512000   0.69465864   -8.0213263    620.99143   0.01473499  0.013929084         1257 
 3513000   0.69008274   -7.9994885    622.25334   0.01476073  0.013923489         1241 
 3514000   0.69587251   -8.0430483    621.08787  0.014728891  0.013917894         1311 
 3515000   0.65529411    -8.040135     620.8191  0.014718329  0.013912298         1302 
 3516000   0.69159894   -8.0318852    622.20402  0.014746967  0.013906689         1225 
 3517000   0.67728306   -8.0244729    622.34413  0.014746094   0.01390109         1292 
 3518000   0.68175674   -8.0363569    619.96159  0.014685465  0.013895495         1334 
 3519000   0.69341871   -8.0411365     621.0328  0.014706659  0.013889897         1273 
 3520000   0.67935849    -8.047904    620.30945  0.014685356  0.013884294         1275 
 3521000   0.68170829   -8.0456538    620.03418  0.014674671  0.013878693         1313 
 3522000   0.69572359   -8.0277427    622.30094  0.014724137  0.013873107         1239 
 3523000   0.70814665   -8.0616674    620.93059  0.014687544  0.013867512         1390 
 3524000   0.68557571   -8.0396959     621.7202  0.014702048  0.013861922         1368 
 3525000   0.69575526   -8.0468829    620.49695  0.014668959  0.013856324         1306 
 3526000   0.69731578   -8.0493885    619.16871  0.014633407   0.01385073         1316 
 3527000   0.68157376   -8.0385073    621.70693  0.014689229  0.013845133         1341 
 3528000   0.68487249   -8.0382078     620.7469  0.014662389  0.013839544         1298 
 3529000   0.68210297   -8.0453363    620.71496   0.01465748  0.013833966         1270 
 3530000   0.68826132   -8.0439454    620.61654  0.014651004  0.013828384         1346 
 3531000   0.68096979   -8.0400893    621.93346  0.014677935  0.013822804         1251 
 3532000    0.6731943   -8.0258495    621.47817  0.014663037  0.013817228         1289 
 3533000   0.69017663   -8.0282172    621.18982  0.014652086  0.013811654         1287 
 3534000   0.69620695    -8.016951     621.1227  0.014646357  0.013806097         1302 
 3535000   0.68186401   -8.0242978    621.23506  0.014644862  0.013800536         1268 
 3536000   0.68871027   -8.0344964    619.80709  0.014607068  0.013794979         1341 
 3537000   0.68713754   -8.0574778    619.12195  0.014586796  0.013789425         1318 
 3538000   0.67500986   -8.0649694     620.2326  0.014608833  0.013783866         1311 
 3539000   0.68983758   -8.0141462    622.34521  0.014654451  0.013778317         1348 
 3540000   0.67099643   -8.0492914    621.04152  0.014619621  0.013772777         1305 
 3541000   0.69091738   -8.0383543    620.68709  0.014607152  0.013767251         1453 
 3542000   0.66592269   -8.0044898    620.87451  0.014607437  0.013761716         1368 
 3543000   0.67493905   -8.0561684    620.32774  0.014590454  0.013756185         1308 
 3544000   0.68274912   -8.0256144    620.43822  0.014588935  0.013750645         1298 
 3545000   0.68642125   -8.0399282     619.5807  0.014564661  0.013745106         1275 
 3546000   0.68276616   -8.0500875    621.02078  0.014594397  0.013739575         1315 
 3547000   0.67984804   -8.0614588    622.16894  0.014617257  0.013734035         1189 
 3548000   0.68067863   -8.0427252    621.20108  0.014590405  0.013728511         1227 
 3549000   0.67393304   -8.0400407     619.7684  0.014552653  0.013722979         1326 
 3550000   0.68509205   -8.0295498    620.95808  0.014576481  0.013717462         1331 
 3551000   0.68704704   -8.0389193    620.65773  0.014565327  0.013711943         1297 
 3552000   0.67860293   -8.0664725    620.37342  0.014554557  0.013706424         1365 
 3553000   0.67344909   -8.0484175    619.80961  0.014537236  0.013700919         1242 
 3554000   0.68398175   -8.0531383    620.26781   0.01454389  0.013695411         1336 
 3555000   0.67964992   -8.0551127    620.43977   0.01454383  0.013689903         1374 
 3556000   0.67868317   -8.0504989    621.71915  0.014569721  0.013684395         1233 
 3557000   0.69319464   -8.0700297    620.63764  0.014540288  0.013678884         1399 
 3558000   0.67312877   -8.0386284    620.29065  0.014528074  0.013673375         1311 
 3559000   0.67199192   -8.0667617    621.21084  0.014545538  0.013667877         1328 
 3560000   0.67167749   -8.0537634    620.15963  0.014516845   0.01366238         1302 
 3561000   0.68605009   -8.0464513    620.36559  0.014517589  0.013656887         1341 
 3562000   0.68277792   -8.0321352    622.03326  0.014552528  0.013651402         1331 
 3563000     0.684141   -8.0612866    618.74015  0.014471423   0.01364591         1324 
 3564000   0.68007805   -8.0268382    620.54669  0.014509603  0.013640423         1318 
 3565000   0.66246342   -8.0438125    619.62143  0.014483904  0.013634938         1379 
 3566000   0.68198707   -8.0393949    619.78063  0.014483563  0.013629457         1399 
 3567000   0.67439425    -8.020165    621.28601  0.014514672  0.013623976         1377 
 3568000   0.67365735   -8.0602909    619.74158  0.014474532  0.013618501         1387 
 3569000   0.67142797   -8.0394842    620.33357  0.014484299   0.01361302         1402 
 3570000   0.69865869   -8.0228878    621.03856  0.014496699  0.013607558         1410 
 3571000   0.67916259   -8.0555368    619.97186  0.014467746  0.013602081         1384 
 3572000   0.67705307   -8.0486682    619.81079  0.014459938  0.013596611         1433 
 3573000   0.68071498   -8.0312828    620.88656  0.014480981  0.013591139         1301 
 3574000   0.67487463   -8.0405327    618.51407  0.014421611  0.013585671         1408 
 3575000   0.68321242   -8.0730744     620.8183  0.014471289  0.013580209         1366 
 3576000   0.67812274     -8.04269    621.44246  0.014481787  0.013574741         1377 
 3577000    0.6784267   -8.0566202    618.92402  0.014419067  0.013569274         1378 
 3578000   0.67174493   -8.0598816    619.76671  0.014434663  0.013563803         1424 
 3579000    0.6749088   -8.0678399    619.82522  0.014431993   0.01355833         1432 
 3580000   0.67978829   -8.0822259    619.93797  0.014430586  0.013552864         1470 
 3581000   0.67156243   -8.0503343    620.60954  0.014442184  0.013547394         1405 
 3582000    0.6662322   -8.0674181    619.41765  0.014410424  0.013541934         1364 
 3583000   0.69313827   -8.0486524    620.77835  0.014438049  0.013536474         1326 
 3584000   0.66057597   -8.0714149    619.60228  0.014406675  0.013531018         1375 
 3585000   0.67349554    -8.059194    619.63372  0.014403387   0.01352556         1402 
 3586000   0.67130662   -8.0771849     620.2949  0.014414736  0.013520103         1329 
 3587000   0.68512605   -8.0741038    618.36272  0.014365828  0.013514651         1361 
 3588000   0.67700088   -8.0425151    619.27748   0.01438307  0.013509194         1444 
 3589000   0.68191232   -8.0553309    620.87313  0.014416112  0.013503759         1392 
 3590000   0.67206807   -8.0355217     618.1378  0.014348603  0.013498331         1448 
 3591000   0.67984772   -8.0811275    619.31652   0.01437196  0.013492899         1469 
 3592000   0.66727484   -8.0769766    618.30334  0.014344454  0.013487461         1471 
 3593000   0.67315282   -8.0569161    619.82616  0.014375781  0.013482019         1401 
 3594000   0.68215569   -8.0603693    619.22599  0.014357865  0.013476582         1465 
 3595000   0.65708621   -8.0671926    619.60154  0.014362576  0.013471138         1360 
 3596000    0.6864566   -8.0760765    618.47133  0.014332391  0.013465689         1406 
 3597000    0.6701486   -8.0706079    618.82107  0.014336509  0.013460264         1479 
 3598000   0.66770907   -8.0615656    620.70272  0.014376105  0.013454835         1504 
 3599000   0.68367565     -8.07045    619.43161  0.014342679  0.013449402         1436 
 3600000   0.67891611   -8.0697411    620.42755  0.014361749  0.013443978         1453 
 3601000   0.67821783    -8.050768    620.39988   0.01435712  0.013438556         1449 
 3602000    0.6635635   -8.0811236    619.10873  0.014323263   0.01343313         1430 
 3603000   0.67628666   -8.0843364    619.73984  0.014333885  0.013427709         1421 
 3604000   0.66564841   -8.0688987    618.86984  0.014309791  0.013422296         1434 
 3605000   0.67486864   -8.0562838    619.98775  0.014331663  0.013416883         1413 
 3606000   0.67648247     -8.04157    619.88237  0.014325253   0.01341148         1382 
 3607000   0.68163901   -8.0456578    619.60667  0.014314912  0.013406076         1411 
 3608000   0.66030158   -8.0519603    620.14024  0.014323269   0.01340068         1505 
 3609000   0.67910703   -8.0700059    619.66903  0.014308419  0.013395275         1467 
 3610000   0.68640265   -8.0465789    619.91187  0.014310062  0.013389878         1455 
 3611000   0.65253507   -8.0645798     618.4634  0.014272671  0.013384478         1522 
 3612000   0.69654313    -8.069448    619.00667  0.014281254  0.013379085         1472 
 3613000   0.67539686   -8.0513146     620.4354  0.014310255  0.013373697         1453 
 3614000   0.66673627   -8.0893718    618.91849  0.014271317  0.013368303         1431 
 3615000    0.6693616    -8.056132    619.56499  0.014282273  0.013362905         1486 
 3616000   0.67097356    -8.071442    619.87252   0.01428541  0.013357517         1495 
 3617000   0.67405873   -8.0666979    619.54363  0.014273883  0.013352127         1503 
 3618000   0.68331651   -8.0575506    619.63968   0.01427215  0.013346741         1531 
 3619000   0.66062634   -8.0656472    619.88621  0.014273883  0.013341354         1480 
 3620000   0.67096569   -8.0613255    619.65203   0.01426455  0.013335978         1431 
 3621000   0.64579845   -8.0358845     619.4717   0.01425646  0.013330614         1537 
 3622000   0.68352526   -8.0838116     619.1716  0.014245619  0.013325242         1604 
 3623000   0.66975243   -8.0721842    619.60983  0.014251767  0.013319869         1635 
 3624000   0.66597479     -8.06839    620.00043  0.014256816  0.013314503         1477 
 3625000   0.67069161   -8.0621245    618.51484  0.014218732  0.013309134         1478 
 3626000    0.6621481   -8.0703358    619.46686   0.01423669   0.01330377         1525 
 3627000   0.66890082   -8.0537298    618.59119  0.014212646   0.01329842         1540 
 3628000   0.66987846   -8.0783838    618.41446  0.014204669  0.013293064         1494 
 3629000   0.66857418   -8.0527538    618.33382  0.014198903  0.013287702         1524 
 3630000   0.67792788   -8.0564143    620.01929  0.014233684  0.013282349         1426 
 3631000   0.67022741    -8.080317    618.42789  0.014193241  0.013276996         1635 
 3632000    0.6770186   -8.0917724    618.54889  0.014192109  0.013271646         1557 
 3633000   0.66857611    -8.076736    619.55522  0.014211286  0.013266305         1681 
 3634000   0.67261271   -8.0619736    618.69613  0.014187675  0.013260961         1559 
 3635000   0.67128564   -8.0785466    619.61851  0.014204918  0.013255627         1606 
 3636000   0.67637894   -8.0859074    619.26621  0.014192937  0.013250278         1557 
 3637000   0.67255691   -8.0737603    618.53203  0.014172212  0.013244934         1530 
 3638000   0.66419763    -8.082029    618.88483  0.014176398    0.0132396         1587 
 3639000    0.6546635   -8.1101565     618.7894  0.014170317  0.013234264         1667 
 3640000   0.66584695   -8.1070648    619.13772  0.014174398  0.013228934         1594 
 3641000   0.67000878   -8.0873291    618.90801  0.014165248  0.013223601         1692 
 3642000   0.66721441   -8.0655479    619.95544  0.014185325  0.013218268         1567 
 3643000   0.65645756    -8.091696    618.20217  0.014141325  0.013212936         1700 
 3644000   0.67492567   -8.0931198    617.70051  0.014125972  0.013207608         1530 
 3645000   0.67127784   -8.0490485    620.29746  0.014181469  0.013202284         1548 
 3646000   0.67201893    -8.085699     618.8404  0.014144277  0.013196969         1633 
 3647000   0.66855363    -8.080452    618.94424  0.014142771  0.013191654         1704 
 3648000   0.66351753   -8.0423668    619.24058  0.014145664  0.013186345         1561 
 3649000   0.66347988   -8.0955833    618.25919  0.014119375  0.013181043         1603 
 3650000   0.67790533   -8.0814454    618.82224  0.014128362  0.013175737         1567 
 3651000   0.67090939   -8.0982817       618.55  0.014118278  0.013170431         1611 
 3652000   0.67910161   -8.0701163    619.35503  0.014132782  0.013165131         1561 
 3653000   0.66067929   -8.0942635    618.45591  0.014108402  0.013159829         1569 
 3654000   0.67180795   -8.0935555    618.71574  0.014110467   0.01315454         1615 
 3655000   0.67223026   -8.1127044    618.69959  0.014106238  0.013149256         1588 
 3656000   0.66218358   -8.1061602    618.69243  0.014102216  0.013143974         1533 
 3657000   0.67311688   -8.0747007    620.38519  0.014136933  0.013138693         1542 
 3658000   0.66216687    -8.084639    618.42827  0.014088488   0.01313341         1531 
 3659000   0.66060747   -8.1070856    619.12099  0.014100414  0.013128126         1586 
 3660000   0.66537538   -8.0905949    618.72241  0.014087487  0.013122836         1599 
 3661000   0.68311639   -8.0991652    617.74404  0.014061369  0.013117554         1586 
 3662000   0.66699893   -8.1031147    618.30268  0.014070241   0.01311227         1592 
 3663000   0.67107735   -8.1013109    618.49242  0.014070717  0.013106983         1592 
 3664000   0.67297227   -8.0842649    618.58789  0.014069048  0.013101706         1662 
 3665000   0.66726479   -8.0886689    618.15334  0.014055328  0.013096426         1662 
 3666000   0.66850467   -8.1003885    619.35521  0.014078815  0.013091155         1747 
 3667000   0.66597001   -8.0894828    618.53065  0.014056237  0.013085878         1762 
 3668000   0.66058053   -8.1272434     617.9836  0.014039976  0.013080613         1740 
 3669000   0.66298504   -8.0881712    619.32066  0.014066518  0.013075346         1681 
 3670000   0.65678312   -8.1045431    618.52377  0.014044591  0.013070084         1651 
 3671000   0.67994225   -8.0972833    618.14028  0.014032059  0.013064827         1662 
 3672000   0.66423464   -8.1111007    618.01569   0.01402541  0.013059563         1637 
 3673000    0.6592031   -8.1163795    617.96585  0.014020461  0.013054303         1703 
 3674000   0.66127448   -8.1060309    620.20497  0.014067433  0.013049053         1670 
 3675000   0.66964962   -8.1031936    618.37991   0.01402222    0.0130438         1717 
 3676000   0.64876715   -8.0957503      619.458  0.014042845  0.013038546         1640 
 3677000   0.65618637   -8.1157382    618.34143  0.014013721  0.013033309         1657 
 3678000   0.65549288   -8.0852522    618.96758  0.014024098  0.013028072         1736 
 3679000   0.67204874   -8.1122295    617.95933  0.013997448  0.013022843         1775 
 3680000   0.64949265   -8.1049157    619.12845  0.014020119   0.01301761         1841 
 3681000   0.66127862   -8.1096097    617.60818  0.013981893   0.01301237         1690 
 3682000   0.65700552   -8.0998202    618.49931  0.013998264  0.013007138         1760 
 3683000   0.66957383   -8.1220917    619.17695  0.014009796  0.013001906         1683 
 3684000   0.66414874   -8.1279912     618.5571  0.013991972  0.012996677         1802 
 3685000   0.66378474   -8.1064135    618.86679  0.013995178  0.012991448         1664 
 3686000   0.67446796   -8.1073235    618.62167   0.01398584  0.012986226         1702 
 3687000   0.66568651   -8.1094827    617.82842  0.013964118  0.012980997         1729 
 3688000   0.67472984   -8.0899744    618.85549  0.013983539  0.012975778         1733 
 3689000   0.65094646   -8.0820836    618.37305   0.01396885  0.012970564         1747 
 3690000   0.66051247   -8.1015544    619.12722  0.013982096  0.012965344         1670 
 3691000   0.66018587   -8.0996129    617.59556  0.013943727  0.012960128         1658 
 3692000   0.66362044   -8.1171159    618.30622  0.013955991  0.012954923         1688 
 3693000   0.66754705   -8.1040283      617.982  0.013944896  0.012949723         1746 
 3694000   0.65953488   -8.1125208    617.94087  0.013940193  0.012944521         1733 
 3695000   0.67026816    -8.112306    619.52395  0.013972123   0.01293933         1739 
 3696000   0.66091499   -8.1105564    619.29208  0.013963115  0.012934131         1712 
 3697000    0.6680847   -8.1172026    618.45307  0.013940426  0.012928946         1844 
 3698000   0.64913595   -8.0931466    618.97989  0.013948528  0.012923754         1727 
 3699000   0.65806682   -8.1008823    618.64125  0.013937128  0.012918564         1797 
 3700000   0.66106956   -8.1345623    617.39823  0.013905366  0.012913373         1815 
 3701000   0.64996732   -8.1240754    619.07481  0.013939359  0.012908187         1736 
 3702000   0.65333386   -8.1107899    618.23318  0.013916648  0.012903004         1761 
 3703000   0.66774789    -8.123861    618.44742  0.013917711  0.012897822         1809 
 3704000   0.65627253   -8.1087613    618.09906  0.013906116  0.012892639         1856 
 3705000   0.65498633   -8.1072205    618.26767  0.013906155  0.012887464         1851 
 3706000   0.66485937   -8.1430712    617.68638  0.013889332  0.012882285         1874 
 3707000   0.65483791   -8.1199778    619.29015  0.013921638  0.012877109         1771 
 3708000   0.65177246    -8.124627     618.0175  0.013889282  0.012871935         1752 
 3709000   0.66367302   -8.1262795    619.17889  0.013911631  0.012866764         1798 
 3710000   0.65359543   -8.1060824    617.66057  0.013873777  0.012861599         1752 
 3711000   0.66289395   -8.1099753    618.02293  0.013878176  0.012856438         1864 
 3712000   0.64932027   -8.1024901    617.77415  0.013868852   0.01285128         1795 
 3713000   0.65550343   -8.1103777    618.58525  0.013883321  0.012846124         1764 
 3714000   0.65817896    -8.123886    618.52684  0.013878272  0.012840965         1851 
 3715000   0.64368946   -8.1254607    618.31088  0.013869692  0.012835793         1849 
 3716000    0.6697626   -8.1296484    618.30938  0.013865926  0.012830637         1796 
 3717000   0.65471801   -8.1244517    618.14754  0.013858567  0.012825487         1856 
 3718000   0.65715637    -8.106941    619.16418  0.013877626  0.012820341         1844 
 3719000    0.6698545   -8.1300746    619.20995   0.01387492  0.012815196         1805 
 3720000   0.66840025   -8.1317992    618.14107  0.013847246  0.012810055         1822 
 3721000   0.66028955   -8.1134749    617.20456  0.013822551  0.012804905         1795 
 3722000   0.65835004   -8.1116113    619.07681  0.013860756   0.01279976         1831 
 3723000   0.66232616   -8.1316421    616.79803  0.013806026  0.012794612         1825 
 3724000   0.67221308   -8.1149525    617.26116  0.013812683  0.012789475         1841 
 3725000   0.65042623   -8.1282676    617.01738  0.013803521  0.012784334         1776 
 3726000    0.6547237   -8.1266202    617.00718  0.013799588  0.012779195         1815 
 3727000   0.66193813   -8.1324955    618.71603  0.013834094  0.012774057         1819 
 3728000   0.66132696   -8.1390686    617.14717  0.013795314  0.012768928         1784 
 3729000   0.65275494   -8.1170662    617.71364  0.013804274  0.012763808         1821 
 3730000   0.65275513   -8.1341309    617.62945  0.013798692  0.012758685         1836 
 3731000   0.65654449   -8.1341743    617.34756  0.013788697  0.012753568         1831 
 3732000   0.64610947   -8.1145953    618.41875  0.013808922  0.012748453         1849 
 3733000   0.64685052   -8.1433659    618.05095  0.013797012  0.012743337         1860 
 3734000   0.64843061   -8.1358427    615.92967  0.013745976  0.012738222         1811 
 3735000   0.65555871   -8.1204294    617.99972  0.013788481  0.012733112         1819 
 3736000   0.64915932   -8.1325009    616.95444  0.013761475  0.012728004         1790 
 3737000   0.65708329   -8.1314274      619.119  0.013806061  0.012722895         1824 
 3738000   0.65409242   -8.1243948    617.93572  0.013775988  0.012717787         1854 
 3739000   0.64340461   -8.1353479    617.80888  0.013769477  0.012712694         1857 
 3740000   0.64672289   -8.1302082     617.0027  0.013747832  0.012707596         1851 
 3741000   0.63911273   -8.1305172     617.2133  0.013748848  0.012702498         1852 
 3742000   0.65357327   -8.1391452    617.56752  0.013753063  0.012697403         1819 
 3743000   0.65136751   -8.1185287    617.42739  0.013746268  0.012692311         1771 
 3744000   0.66890885   -8.1452886    617.35889  0.013741072  0.012687224         1922 
 3745000   0.66343947   -8.1080684    617.06559  0.013730877  0.012682138         1861 
 3746000   0.65270724   -8.1096183    617.79414  0.013743418  0.012677058         1858 
 3747000   0.66182008   -8.1298193    617.81793   0.01374028  0.012671977         1917 
 3748000   0.66574044   -8.1266158    618.54004  0.013752669  0.012666899         1962 
 3749000   0.63669128    -8.158295     616.5762  0.013705348  0.012661817         1925 
 3750000   0.64517313   -8.1226817    617.32149  0.013718255   0.01265674         1902 
 3751000   0.65132868   -8.1122101     618.6166  0.013743371  0.012651668         1905 
 3752000   0.65204201   -8.1458702    616.93289  0.013702312  0.012646597         1903 
 3753000   0.65133926    -8.133144    617.83317  0.013718651  0.012641527         1878 
 3754000   0.64888297   -8.1434062    617.09761  0.013698668  0.012636457         1938 
 3755000   0.65785906   -8.1396848    617.13112  0.013695764  0.012631389         1878 
 3756000   0.66026177   -8.1125046    618.39668  0.013720196  0.012626325         1878 
 3757000   0.66132827   -8.1437409    617.31869  0.013692633  0.012621264         1880 
 3758000   0.63973218   -8.1389115    617.82253  0.013700163  0.012616207         1929 
 3759000    0.6450558   -8.1213935    617.88716  0.013697951  0.012611151         1946 
 3760000   0.65629037   -8.1112198    618.35669  0.013704714  0.012606103         1903 
 3761000   0.65426723   -8.1479891    616.29451  0.013655378  0.012601052         1937 
 3762000   0.64199904   -8.1412178    616.99515  0.013667268     0.012596         1829 
 3763000   0.65540974   -8.1505308    616.98575  0.013663428  0.012590946         1795 
 3764000   0.64521912   -8.1519997    617.40506  0.013669081  0.012585902         1846 
 3765000   0.64086124    -8.137168    618.17847  0.013682569  0.012580865         1832 
 3766000    0.6526855   -8.1683873    616.64262  0.013644951  0.012575834         1924 
 3767000   0.65069038   -8.1399961    617.42621  0.013658663  0.012570795         1974 
 3768000   0.65298233   -8.1512709    615.67391  0.013616284  0.012565759         1887 
 3769000   0.65347105   -8.1584416    617.52074  0.013653505   0.01256072         2009 
 3770000   0.65897664   -8.1573581     618.3471   0.01366815  0.012555685         1893 
 3771000   0.65395057   -8.1354308    618.62725  0.013670716  0.012550655         1930 
 3772000   0.65193297   -8.1567626    617.61394  0.013644705  0.012545622         1921 
 3773000   0.65380702   -8.1332905    616.23663  0.013610668  0.012540594         1885 
 3774000   0.64796446   -8.1254412    617.56217  0.013636331  0.012535578         1903 
 3775000   0.64997531   -8.1428763    616.81418  0.013616207  0.012530564         1937 
 3776000   0.66002034   -8.1309434    618.00095  0.013638792  0.012525547         1959 
 3777000   0.63620902   -8.1499807    617.44386   0.01362289  0.012520538         1919 
 3778000   0.65214971   -8.1421368    617.40678  0.013618466  0.012515525         1881 
 3779000   0.65670185   -8.1438332    617.06055  0.013607227  0.012510512         1905 
 3780000    0.6428627   -8.1644681    616.19211  0.013584482    0.0125055         1895 
 3781000   0.64569279    -8.165796    618.34135  0.013628259  0.012500501         1877 
 3782000   0.64097949   -8.1462711    617.04052  0.013595992  0.012495499         1881 
 3783000   0.64044743   -8.1508481    617.85009  0.013610232  0.012490504         1940 
 3784000   0.63355611   -8.1452486    617.04533  0.013588912  0.012485505         1933 
 3785000   0.65150592   -8.1694528    617.81488  0.013602265  0.012480518         1942 
 3786000   0.65936242   -8.1754952    616.81988  0.013576771  0.012475522         1930 
 3787000   0.64586807    -8.168853    616.65823  0.013569629  0.012470528         1981 
 3788000   0.65476288   -8.1461821    617.66249   0.01358814  0.012465546         1896 
 3789000   0.64786983   -8.1513421    618.26446  0.013597793  0.012460553         1943 
 3790000   0.64808582   -8.1364086    617.15677   0.01356985  0.012455568         1890 
 3791000   0.65006827    -8.153257      617.116  0.013565374  0.012450586         1931 
 3792000   0.65543886   -8.1514964    616.62159  0.013550932  0.012445602         1903 
 3793000   0.65376916   -8.1459049    617.67937  0.013570599  0.012440627         1897 
 3794000    0.6429099   -8.1550538    618.04458  0.013575044  0.012435654         1929 
 3795000   0.64022296   -8.1388284    617.32362  0.013555635  0.012430679         1928 
 3796000   0.64481878   -8.1447472    617.44693  0.013554771  0.012425712         1916 
 3797000   0.63203015   -8.1385447    618.16953   0.01356706  0.012420743         1987 
 3798000   0.64882753   -8.1645145    616.27683   0.01352196  0.012415782         1855 
 3799000   0.64783577   -8.1520855    616.68429  0.013527338   0.01241082         1806 
 3800000   0.63603672   -8.1505331    617.12571  0.013533458  0.012405859         1997 
 3801000   0.63265483   -8.1616249    617.23621  0.013532321  0.012400899         1974 
 3802000   0.63813791   -8.1365059    617.45599  0.013533579  0.012395945         1953 
 3803000    0.6324889   -8.1603024    617.42841  0.013529416  0.012390997         1952 
 3804000   0.64902812   -8.1421798    617.48458   0.01352709  0.012386051         1940 
 3805000   0.63778293   -8.1630676    616.91164  0.013510986  0.012381104         1966 
 3806000    0.6285222   -8.1453602    615.96667  0.013486746  0.012376159         1904 
 3807000   0.62233845   -8.1668039    617.20281  0.013510262  0.012371213         1996 
 3808000   0.64079935   -8.1610416    616.83378  0.013498638   0.01236627         1917 
 3809000   0.64021997   -8.1640879    617.43939  0.013508344  0.012361327         1960 
 3810000   0.63250184   -8.1807932    615.84278  0.013469877  0.012356377         1987 
 3811000   0.63633586   -8.1672956    616.36942  0.013477858  0.012351426         1967 
 3812000   0.66149614   -8.1451291    615.50913  0.013455516  0.012346477         1922 
 3813000   0.62224639   -8.1628756    616.57526  0.013475288   0.01234154         1919 
 3814000   0.63819977   -8.1571891    616.09114  0.013461177  0.012336599         1932 
 3815000   0.63713689   -8.1513888    616.16461  0.013459253  0.012331655         1913 
 3816000    0.6401637   -8.1511249    616.37618  0.013460346  0.012326719         1910 
 3817000    0.6374547   -8.1825051    617.09608  0.013472537  0.012321788         1941 
 3818000   0.64091049   -8.1842334    615.98384  0.013444732  0.012316848         1980 
 3819000   0.63449997   -8.1827601     616.0327  0.013442278  0.012311917         2014 
 3820000   0.63619548   -8.1667678    615.81481  0.013434005   0.01230699         1935 
 3821000   0.64711419   -8.1410312     616.0191  0.013434945  0.012302062         1891 
 3822000   0.62842546   -8.1822777    616.62604  0.013444663  0.012297138         1954 
 3823000   0.65784172   -8.1743139    616.54473  0.013439374  0.012292218         1992 
 3824000   0.65428702    -8.193078    616.86351  0.013442807  0.012287305         2004 
 3825000   0.63255881   -8.1563764    617.09946  0.013444433   0.01228239         2006 
 3826000   0.64446666    -8.180556    616.06536  0.013418395  0.012277483         1968 
 3827000   0.63957744   -8.1642203    616.88606   0.01343276  0.012272575         1870 
 3828000    0.6407221   -8.1697004    616.55373  0.013422016  0.012267674         1998 
 3829000   0.63358398   -8.1550567    616.31681  0.013413354  0.012262778         1946 
 3830000   0.64163154   -8.1723077    617.27524  0.013430706  0.012257878         1992 
 3831000   0.63200713   -8.1675048    617.25214  0.013426698  0.012252983         1978 
 3832000   0.63367622    -8.162844    617.24922   0.01342313  0.012248099         1883 
 3833000   0.64031951    -8.170817    617.11517  0.013416714  0.012243213         1899 
 3834000   0.63268421   -8.1708402     616.6346  0.013402769  0.012238329         1984 
 3835000   0.64024506   -8.1660292    616.21737  0.013390208  0.012233445         1992 
 3836000   0.63529033   -8.1401318     617.2298  0.013408711  0.012228558         1944 
 3837000   0.64238095   -8.1672271    615.45001  0.013366563  0.012223678         2038 
 3838000   0.63525303   -8.1583748     616.9914  0.013396548   0.01221879         2008 
 3839000   0.63227576   -8.1717993     616.9572  0.013392316  0.012213909         2003 
 3840000   0.64156132   -8.1810513    615.93091  0.013366556  0.012209028         2053 
 3841000   0.63858244   -8.1881462    615.73541  0.013358835  0.012204153         2113 
 3842000   0.64315878   -8.1643254    616.95318  0.013381771  0.012199281         1968 
 3843000   0.63690818   -8.1464967    616.66189  0.013371973  0.012194409         2063 
 3844000   0.64288039   -8.1671267    617.16052  0.013379304   0.01218954         2021 
 3845000   0.63983441   -8.1740996    616.19019  0.013354794  0.012184671         2032 
 3846000   0.62696787   -8.1619286     617.8666  0.013387645   0.01217981         1978 
 3847000   0.62692314   -8.1586085    615.86418  0.013340789  0.012174953         1932 
 3848000   0.64094233   -8.1550462    617.09012  0.013363871  0.012170103         1965 
 3849000   0.62623531    -8.184818    616.48841  0.013347372  0.012165249         1986 
 3850000   0.65359307   -8.1680416    616.55594  0.013345367  0.012160399         1945 
 3851000   0.63120089   -8.1554372    616.60226  0.013342904  0.012155549         1968 
 3852000   0.63453749   -8.1689205    616.63661  0.013340183  0.012150699         2082 
 3853000   0.64051897   -8.1669024    616.54737   0.01333479  0.012145851         2014 
 3854000   0.63266368     -8.16828    615.46602  0.013307949  0.012141017         2022 
 3855000   0.61623708     -8.17846    615.79073  0.013311516  0.012136173         1960 
 3856000   0.64921771   -8.1926818    616.43656  0.013322021  0.012131333         1993 
 3857000   0.62779851   -8.1806432    615.98026  0.013308708  0.012126498         1990 
 3858000   0.62414113   -8.1664527    617.25952  0.013332891  0.012121665         2017 
 3859000   0.63050553   -8.1837542    616.56829  0.013314509  0.012116835         1989 
 3860000   0.62772835   -8.1710779    616.79053  0.013315858  0.012112006         2005 
 3861000   0.62739952   -8.1767092    615.70971  0.013289081  0.012107188         2029 
 3862000   0.65150582   -8.1869051    615.83306  0.013288302  0.012102368         2012 
 3863000   0.64158146    -8.151477    616.93309  0.013308592  0.012097559         1957 
 3864000   0.63537522   -8.1856084    614.98584  0.013263152  0.012092742         2008 
 3865000   0.62889566   -8.1806739    616.40431  0.013290304  0.012087926         2007 
 3866000   0.62564795    -8.171678    616.96958  0.013299051  0.012083113         2131 
 3867000   0.63480314   -8.1880856    616.56397  0.013286871  0.012078302         2068 
 3868000   0.61968031   -8.1718847     616.0068  0.013271432  0.012073495         2039 
 3869000   0.63156425   -8.2034176    616.38457  0.013276139  0.012068686         2075 
 3870000   0.63106347   -8.2090571     615.4586  0.013252769   0.01206387         2086 
 3871000    0.6348047   -8.1937634    615.32906  0.013246557  0.012059062         2119 
 3872000   0.63780686   -8.1964814    616.22583  0.013262436  0.012054261         2107 
 3873000   0.62795208   -8.1848142    615.25047  0.013238025  0.012049452         2081 
 3874000   0.64608054   -8.2131217    615.87788  0.013248104  0.012044653         2065 
 3875000   0.63119922   -8.1850949    616.07086  0.013248836  0.012039855         2041 
 3876000    0.6236847   -8.1952393    615.33297  0.013229553  0.012035061         2057 
 3877000   0.63139727   -8.1791433    616.31957  0.013247347  0.012030259         2123 
 3878000   0.62717539   -8.1880185     616.4179  0.013246044   0.01202546         2137 
 3879000   0.63105657   -8.1862418    616.56756  0.013245844   0.01202067         2080 
 3880000   0.63620434   -8.1959769    614.84192  0.013205368  0.012015886         2192 
 3881000    0.6324126   -8.1901379    616.43493  0.013236171  0.012011099         2133 
 3882000   0.63612883   -8.2044181    615.80098  0.013219152  0.012006313         2042 
 3883000    0.6356114   -8.2017247    616.27114  0.013225838  0.012001533         2094 
 3884000   0.62473672   -8.1864624    616.68544  0.013231322  0.011996754         2037 
 3885000   0.64076869   -8.1929823    616.07638  0.013214852  0.011991975         2035 
 3886000   0.63271504   -8.2015744    616.17262  0.013213515  0.011987202         2129 
 3887000   0.62888985   -8.2001551     614.9051  0.013182941   0.01198243         2253 
 3888000   0.63668981   -8.1816946    615.61084  0.013194677  0.011977662         2149 
 3889000   0.61451461    -8.195012    615.42941  0.013187396  0.011972888         2134 
 3890000   0.62909985   -8.1877585    616.02285  0.013196719  0.011968123         2069 
 3891000   0.63612947   -8.1914849    615.61169  0.013184522  0.011963369         2147 
 3892000   0.62327624   -8.1875681    615.60734  0.013181041   0.01195861         2108 
 3893000   0.63072451   -8.2153283    615.81696  0.013182142  0.011953859         2175 
 3894000   0.64123953    -8.164681      617.281  0.013210088  0.011949103         2053 
 3895000   0.61492524     -8.21302    615.98687  0.013179009  0.011944346         2085 
 3896000   0.62073082   -8.1962898    616.63046  0.013189392  0.011939595         2176 
 3897000   0.63787343   -8.1925141    616.55632  0.013184422  0.011934846         2162 
 3898000   0.62169562   -8.2079344    616.00335  0.013169218  0.011930099         2098 
 3899000   0.62592359   -8.1892915     616.0491  0.013166818  0.011925358         2138 
 3900000   0.62939159   -8.2128411    614.94831  0.013139921  0.011920617         2149 
 3901000   0.62034453   -8.1938718    615.44272  0.013147114  0.011915874         2132 
 3902000   0.64132211   -8.1901486    614.97498  0.013133756  0.011911132         2131 
 3903000   0.62192864   -8.2073675    616.28917   0.01315845  0.011906391         2075 
 3904000   0.61354022   -8.2117916    615.63987   0.01314122  0.011901651         2066 
 3905000   0.64648208   -8.1704521    615.53279  0.013135569  0.011896922         2112 
 3906000   0.62129696   -8.2145277    615.58247  0.013133266  0.011892188         2144 
 3907000   0.62864088   -8.2007254    616.28864  0.013144967  0.011887461         2092 
 3908000   0.63502974   -8.1953095    615.98887  0.013135211  0.011882734         2058 
 3909000   0.63056059   -8.1810873    617.07702  0.013155049   0.01187802         2100 
 3910000   0.62116341   -8.2084332    616.07941  0.013130422    0.0118733         2168 
 3911000   0.63425669   -8.2031902    614.73211  0.013098357  0.011868575         2116 
 3912000   0.62109494   -8.2025554    614.32176  0.013086268  0.011863854         2122 
 3913000   0.62062606   -8.1898554    615.56505  0.013109401  0.011859133         2071 
 3914000   0.61466623   -8.2069326    616.56715  0.013127388  0.011854417         2093 
 3915000   0.63270016   -8.2074388    615.71476  0.013105891  0.011849705         2102 
 3916000   0.63724349   -8.1887752     615.1367  0.013090243  0.011844993         2108 
 3917000   0.61247669    -8.193463    613.96206  0.013061911  0.011840284         2210 
 3918000   0.63008052   -8.1973961    616.21469  0.013106489  0.011835577         2088 
 3919000    0.6112788   -8.2177115    616.16405  0.013102068  0.011830872         2112 
 3920000   0.62205856   -8.2077759     615.7578  0.013090089  0.011826169         2207 
 3921000    0.6190607   -8.2017978    614.91025  0.013068738  0.011821465         2157 
 3922000   0.62666409   -8.2197662    614.41159   0.01305481  0.011816765         2098 
 3923000   0.62229854   -8.2204301    614.99381   0.01306385  0.011812065         2128 
 3924000   0.62693194   -8.2095279    615.22076  0.013065341  0.011807369         2128 
 3925000   0.61743779   -8.2177473    614.28151   0.01304207  0.011802671         2307 
 3926000   0.62499383   -8.1962141    616.83179  0.013092881  0.011797978         2154 
 3927000   0.62999489   -8.1999132    615.85214  0.013068758  0.011793287         2205 
 3928000   0.62575889   -8.2196706     614.1386  0.013029077  0.011788594         2164 
 3929000   0.61143804   -8.1994561    615.25553  0.013049451  0.011783903         2192 
 3930000   0.62266014   -8.2195198    615.03766  0.013041511  0.011779223         2114 
 3931000   0.62386498   -8.1975058    615.78337  0.013054002   0.01177453         2169 
 3932000   0.62654397   -8.2272416    615.30897  0.013040628  0.011769846         2164 
 3933000   0.61913478   -8.2169454    616.94588  0.013071995  0.011765167         2173 
 3934000   0.61919502   -8.2083775    615.80571   0.01304452  0.011760487         2134 
 3935000   0.63644677   -8.2205796    615.29208  0.013030328   0.01175581         2176 
 3936000   0.63724218   -8.2110893    614.49455  0.013010132  0.011751139         2227 
 3937000   0.61213014   -8.2070704    615.97062  0.013038071   0.01174647         2265 
 3938000   0.64069646   -8.2088545    616.04538  0.013036342   0.01174181         2097 
 3939000   0.61001353   -8.2135627    615.32949  0.013017887  0.011737149         2239 
 3940000   0.61761831   -8.2270462    614.91065  0.013005724  0.011732487         2181 
 3941000   0.62116315   -8.2117037    614.49448  0.012993624  0.011727827         2214 
 3942000   0.62679655   -8.2101217    615.53494  0.013012323   0.01172317         2193 
 3943000   0.61717534   -8.2051225    617.04563  0.013040951  0.011718519         2202 
 3944000   0.62018401   -8.1995322    616.28397  0.013021551  0.011713868         2262 
 3945000    0.6238669    -8.210117    614.76162  0.012986092  0.011709217         2170 
 3946000   0.63068587    -8.207248    615.53319  0.012999096  0.011704573         2167 
 3947000   0.62102758   -8.2151375    616.77626  0.013022047  0.011699925         2226 
 3948000   0.62391528   -8.2433014    614.85768  0.012978252  0.011695279         2206 
 3949000   0.61464066   -8.1999331    615.22937  0.012982809  0.011690631         2162 
 3950000   0.62406648   -8.2075468    614.87672  0.012972083  0.011685987         2173 
 3951000   0.62275722   -8.2267927    614.64992  0.012964016  0.011681349         2167 
 3952000   0.62172448    -8.202132    614.80446  0.012963994  0.011676711         2282 
 3953000   0.61974073   -8.2268367    614.15058   0.01294693  0.011672076         2256 
 3954000   0.63446507   -8.2150507    614.67402  0.012954688  0.011667443         2221 
 3955000   0.62148033   -8.2282774    613.61479  0.012929094  0.011662816         2316 
 3956000   0.60733691   -8.2054663    616.19455  0.012980168  0.011658192         2225 
 3957000   0.60717337   -8.2181786     614.7873  0.012947252  0.011653568         2257 
 3958000      0.62006   -8.2391711    615.01428   0.01294876  0.011648939         2281 
 3959000   0.61575246   -8.2157585    615.49657  0.012955641  0.011644312         2192 
 3960000   0.60520895    -8.232957    614.43941  0.012930122   0.01163969         2200 
 3961000   0.60958178   -8.2234033    613.98351  0.012917267   0.01163507         2271 
 3962000   0.62221873   -8.2238322    614.40904  0.012922956  0.011630453         2192 
 3963000   0.61898499   -8.2341353    614.90666  0.012930159  0.011625842         2180 
 3964000   0.61083806   -8.2296452    615.35151  0.012936249  0.011621232         2242 
 3965000   0.61008312   -8.2279192    615.56784  0.012937533  0.011616618         2221 
 3966000     0.613383   -8.2194076    614.16079  0.012904706  0.011612014         2181 
 3967000   0.60894359   -8.2161894    614.71831  0.012913165  0.011607415         2256 
 3968000   0.62369913   -8.2261318    613.38404  0.012881889  0.011602821         2220 
 3969000   0.61360368   -8.2199249    615.32211  0.012919336  0.011598225         2214 
 3970000   0.60849048    -8.225886    614.85392  0.012906253  0.011593629         2294 
 3971000   0.62916552   -8.2321038    614.42958  0.012894099  0.011589034         2310 
 3972000   0.61505475   -8.2139344    614.89072  0.012900527  0.011584446         2178 
 3973000   0.62195477   -8.2315177    614.80895  0.012895565  0.011579861         2180 
 3974000   0.61268547   -8.2143468     614.9126  0.012894493  0.011575278         2173 
 3975000   0.62142127   -8.2315777    615.31779  0.012899744  0.011570696         2167 
 3976000   0.59441597   -8.2294266    614.58248  0.012881088  0.011566113         2263 
 3977000   0.62764759    -8.235991     614.7704  0.012881787  0.011561535         2177 
 3978000    0.6303556   -8.2403614    614.87708  0.012880783  0.011556956         2187 
 3979000   0.61285968   -8.2093793    614.62307  0.012872226  0.011552379         2252 
 3980000   0.61396433   -8.2336784     614.2893  0.012862004  0.011547812         2197 
 3981000   0.61647417   -8.2286917    614.52495  0.012863706  0.011543239         2228 
 3982000   0.62147139   -8.2305558    615.49997   0.01288088  0.011538667         2199 
 3983000   0.61070642   -8.2432867    615.71801  0.012882208  0.011534104         2344 
 3984000   0.60566028   -8.2334466    614.20483  0.012847323  0.011529537         2198 
 3985000   0.60818109   -8.2346922    614.50496  0.012850376  0.011524976         2260 
 3986000   0.62279428   -8.2345268    615.54007  0.012868792  0.011520417         2289 
 3987000   0.61583596   -8.2357556    614.69079  0.012847814   0.01151586         2259 
 3988000   0.62023425   -8.2121105    614.27578   0.01283592  0.011511308         2196 
 3989000    0.6211988   -8.2398306    615.00104  0.012847853  0.011506755         2223 
 3990000   0.62276111   -8.2275616    615.00667  0.012844751  0.011502204         2192 
 3991000   0.61075027   -8.2344866    614.36746  0.012828185  0.011497654         2175 
 3992000   0.60028991   -8.2363829    615.00021  0.012838181  0.011493106         2191 
 3993000   0.61015644   -8.2222594    615.10106   0.01283707  0.011488557         2270 
 3994000   0.62046769   -8.2326477    614.32131  0.012817587  0.011484016         2162 
 3995000   0.61584902   -8.2429073    614.63382  0.012820897  0.011479472         2182 
 3996000   0.61384998    -8.232441    613.75086  0.012799276  0.011474931         2192 
 3997000   0.60849376   -8.2525655    614.61719  0.012814135  0.011470389         2197 
 3998000   0.60924594   -8.2242023    613.98848  0.012797826  0.011465849         2213 
 3999000   0.60988397   -8.2218801    613.89874  0.012792755  0.011461315         2154 
 4000000   0.60304149   -8.2190045    614.72222  0.012806713   0.01145678         2233 
 4001000   0.60429206   -8.2236055    614.33794  0.012795508  0.011452244         2204 
 4002000   0.60651902   -8.2514209    614.29287  0.012791372   0.01144771         2230 
 4003000   0.62032204   -8.2500906    614.28509  0.012788015  0.011443191         2189 
 4004000   0.63104531   -8.2344731    614.70565  0.012793574  0.011438671         2211 
 4005000   0.61362911   -8.2320123    615.76774  0.012812479  0.011434152         2120 
 4006000   0.61849207   -8.2217289    615.46175  0.012802915  0.011429646         2183 
 4007000   0.59376916   -8.2330721    614.18889  0.012773249  0.011425134         2152 
 4008000   0.61437764   -8.2524056    615.18071  0.012790684  0.011420619         2239 
 4009000   0.61791192   -8.2443972     614.1792  0.012766675  0.011416107         2127 
 4010000   0.61249055   -8.2317857     614.7264  0.012774863  0.011411599         2231 
 4011000   0.60942402   -8.2429414    614.62658  0.012769604  0.011407092         2196 
 4012000   0.59485249   -8.2365439    615.08972  0.012776041  0.011402587         2237 
 4013000   0.62558502   -8.2498422     614.0786  0.012751861  0.011398082         2240 
 4014000   0.61101602   -8.2590308    614.79247  0.012763504  0.011393583         2241 
 4015000   0.60453606   -8.2500552    613.39111  0.012731239   0.01138908         2205 
 4016000    0.6104841   -8.2712799    613.39128  0.012728073  0.011384582         2239 
 4017000   0.60898588   -8.2449888    614.32198  0.012744212  0.011380082         2213 
 4018000   0.62395054   -8.2317473    614.17664  0.012738026  0.011375588         2124 
 4019000   0.60687874   -8.2564309     613.6086  0.012723078  0.011371093         2105 
 4020000   0.60988416    -8.246881    614.62258  0.012740932    0.0113666         2130 
 4021000   0.61215521   -8.2438153    614.99418  0.012745465  0.011362112         2196 
 4022000   0.59353338   -8.2501047    614.31032  0.012728127  0.011357624         2138 
 4023000   0.60523823   -8.2390912    613.80172  0.012714428  0.011353142         2137 
 4024000   0.61101584   -8.2261383    613.92004  0.012713719  0.011348659         2126 
 4025000   0.61425014   -8.2417896    614.33459  0.012719143  0.011344173         2173 
 4026000   0.60053035   -8.2330637    614.65592  0.012722635  0.011339696         2091 
 4027000   0.62463414    -8.247513    614.59236   0.01271816  0.011335213         2152 
 4028000   0.60794774   -8.2350594    614.87306   0.01272081  0.011330737         2111 
 4029000    0.6045407    -8.255691    614.40714  0.012708016   0.01132627         2121 
 4030000   0.60928626   -8.2432957    613.87226  0.012693802  0.011321798         2212 
 4031000   0.60639388   -8.2460405    614.31011  0.012699705  0.011317325         2140 
 4032000   0.61211557   -8.2732205     612.8766  0.012666927  0.011312856         2219 
 4033000   0.59793188    -8.251549     614.7096  0.012701661  0.011308393         2110 
 4034000   0.61465493   -8.2569817    614.70392  0.012698395  0.011303928         2282 
 4035000   0.62173349   -8.2667875     613.0742   0.01266159  0.011299467         2202 
 4036000   0.62294315   -8.2427529    614.68712  0.012691756  0.011295012         2150 
 4037000    0.6146883   -8.2612935    614.13132  0.012677139  0.011290557         2225 
 4038000   0.60944983   -8.2546214    614.31865  0.012677865  0.011286103         2209 
 4039000   0.61699748   -8.2632078    614.23811  0.012673065  0.011281651         2191 
 4040000   0.60620454   -8.2439591    613.73797  0.012659611  0.011277203         2170 
 4041000   0.62360806   -8.2425591    613.01813  0.012641634  0.011272757         2207 
 4042000   0.61202985   -8.2538141    613.46977  0.012647818   0.01126831         2230 
 4043000   0.60082878   -8.2488959    613.98515  0.012655313  0.011263867         2213 
 4044000   0.60827401   -8.2569732    614.36302   0.01265997  0.011259425         2261 
 4045000   0.60208806   -8.2417883     614.5629  0.012660958  0.011254984         2194 
 4046000   0.59214292   -8.2645966    613.34515  0.012632747   0.01125055         2273 
 4047000   0.60048509   -8.2492496    613.62929  0.012635477  0.011246111         2218 
 4048000    0.6086753   -8.2673639    612.72952  0.012613832  0.011241678         2199 
 4049000   0.60346606   -8.2642433    614.25218  0.012642055   0.01123725         2240 
 4050000   0.60543089   -8.2694624    613.21371  0.012617566  0.011232819         2272 
 4051000   0.60590529   -8.2621862    613.22146  0.012614611  0.011228392         2227 
 4052000   0.58624331   -8.2520348    613.40101   0.01261519  0.011223967         2288 
 4053000   0.59337629   -8.2578319    614.33905  0.012631365  0.011219546         2247 
 4054000   0.61025419   -8.2681868    613.87423  0.012618694  0.011215121         2201 
 4055000   0.60249409   -8.2554307    613.42423  0.012606334  0.011210702         2244 
 4056000   0.59113136    -8.252424    613.80688  0.012611088  0.011206288         2178 
 4057000   0.60857202   -8.2580183    613.48259  0.012601319  0.011201868         2256 
 4058000   0.58259621   -8.2495807    613.32999   0.01259508  0.011197455         2171 
 4059000   0.59455446   -8.2760534    613.55424   0.01259658   0.01119304         2214 
 4060000   0.59915294   -8.2585007    613.44991  0.012591336   0.01118863         2174 
 4061000   0.59527441   -8.2737463    614.77325  0.012615391  0.011184223         2254 
 4062000   0.61539242   -8.2553997    614.68291  0.012610432  0.011179814         2186 
 4063000   0.60291916   -8.2930141    613.89769  0.012591223  0.011175408         2248 
 4064000   0.59833535    -8.247608    613.27807   0.01257542  0.011171008         2246 
 4065000   0.59455426    -8.251212    613.73697  0.012581734  0.011166606         2248 
 4066000   0.59951932   -8.2657625    614.50652  0.012594411  0.011162208         2245 
 4067000   0.59277237   -8.2642419    614.09268  0.012582835  0.011157809         2260 
 4068000   0.60576578   -8.2695623    613.90992  0.012575998  0.011153416         2306 
 4069000   0.60483754   -8.2641664    613.53432  0.012565215  0.011149021         2174 
 4070000   0.60023117    -8.276513    614.07425  0.012573183  0.011144633         2197 
 4071000   0.58859109    -8.271824     614.2139  0.012572953  0.011140247         2210 
 4072000   0.59294515   -8.2456479    613.15223  0.012548138  0.011135864         2226 
 4073000   0.59947049   -8.2606037    613.15521  0.012545118  0.011131482         2243 
 4074000   0.58333588   -8.2637372    614.11329  0.012561637  0.011127103         2262 
 4075000    0.6000077   -8.2935566    612.31177  0.012521713  0.011122724         2230 
 4076000   0.59908381   -8.2560286    614.09513  0.012555102  0.011118344         2208 
 4077000   0.60343963   -8.2657253    613.22234  0.012534182  0.011113973         2302 
 4078000   0.61158372   -8.2634255    613.57742  0.012538365  0.011109601         2213 
 4079000   0.60048654   -8.2680332     612.5935   0.01251519  0.011105235         2240 
 4080000   0.60411736   -8.2587391    613.60033  0.012532686  0.011100868         2293 
 4081000       0.6056   -8.2496046     613.1346  0.012520105  0.011096503         2334 
 4082000   0.59491202   -8.2759161    613.83035  0.012531242  0.011092142         2182 
 4083000   0.59879806   -8.2727559    612.86801  0.012508532  0.011087784         2191 
 4084000   0.59925482    -8.272207    612.27218  0.012493311  0.011083429         2221 
 4085000   0.61015206   -8.2796859    613.95298  0.012524541  0.011079069         2184 
 4086000   0.61142807   -8.2629773    613.68341  0.012515977  0.011074719         2178 
 4087000    0.5898538   -8.2767608    613.67367  0.012512717  0.011070369         2223 
 4088000   0.60617349   -8.2744058    613.91734  0.012514623  0.011066022         2213 
 4089000   0.59407794   -8.2899231    613.03858  0.012493653  0.011061676         2212 
 4090000   0.59137632   -8.2692406    614.11493  0.012512529  0.011057333         2269 
 4091000   0.59216116   -8.2657937     614.1052  0.012509272  0.011052992         2238 
 4092000   0.59234954   -8.2714423    612.53402  0.012474218  0.011048649         2249 
 4093000   0.59244994   -8.2812836    613.64203   0.01249373  0.011044312         2160 
 4094000   0.59893509   -8.2654121    613.37065  0.012485154  0.011039977         2187 
 4095000   0.60056386   -8.2825141    613.73116  0.012489442  0.011035644         2217 
 4096000   0.58864436   -8.2783191    613.46824  0.012481043  0.011031315         2161 
 4097000   0.59656564   -8.2878489    613.60698  0.012480819  0.011026987         2230 
 4098000   0.58883023   -8.2779094    613.15729  0.012468629   0.01102266         2218 
 4099000   0.60630384   -8.2524733    615.49418  0.012513096  0.011018334         2225 
 4100000    0.5987346   -8.2984531    612.59403  0.012451098  0.011014009         2233 
 4101000   0.60357775   -8.2724964    613.67848  0.012470098  0.011009685         2228 
 4102000   0.59457227   -8.2588234    613.07307  0.012454759  0.011005364         2239 
 4103000   0.58483197   -8.2777429    613.56433  0.012461701  0.011001046         2276 
 4104000   0.59667699    -8.263869     613.5591  0.012458559  0.010996735         2352 
 4105000    0.6005817   -8.2670099    613.32613  0.012450794  0.010992425         2342 
 4106000   0.58487579   -8.2820155    613.78284  0.012457031  0.010988112         2212 
 4107000   0.58157429    -8.306865    612.68623  0.012431747    0.0109838         2299 
 4108000    0.5872555   -8.2739141    613.51699  0.012445574  0.010979494         2253 
 4109000   0.58730884   -8.2801169    613.13124  0.012434721   0.01097519         2234 
 4110000   0.60419747   -8.2866929    613.11436  0.012431354   0.01097089         2212 
 4111000    0.5999541   -8.2833756    612.88618  0.012423704  0.010966592         2282 
 4112000   0.58477555    -8.284648    613.77838  0.012438764  0.010962292         2293 
 4113000   0.58915008   -8.2945043    612.64009  0.012412677  0.010957996         2346 
 4114000    0.5786295   -8.2755266    613.37574  0.012424561  0.010953699         2171 
 4115000   0.60108923   -8.2671542    612.74286  0.012408725  0.010949405         2332 
 4116000   0.59282236   -8.2655523    612.13723  0.012393449  0.010945113         2243 
 4117000   0.57724626   -8.2547146    612.95849  0.012407062  0.010940827         2200 
 4118000    0.5894575   -8.2733834    612.67701  0.012398353  0.010936545         2313 
 4119000   0.58686419   -8.2865348    612.71425  0.012396096  0.010932262         2304 
 4120000   0.60178952     -8.27667    613.52803  0.012409548  0.010927979         2250 
 4121000   0.58906642    -8.274403    612.94496  0.012394746  0.010923697         2320 
 4122000   0.59215185   -8.2629197    612.44541  0.012381639  0.010919421         2333 
 4123000   0.60428463   -8.2714178    612.18057  0.012373283  0.010915143         2290 
 4124000   0.58023394   -8.2912347    612.95203  0.012385872  0.010910865         2344 
 4125000   0.59991633    -8.282328    613.37757  0.012391466  0.010906593         2299 
 4126000   0.58021775   -8.2883934    613.81337  0.012397265  0.010902325         2372 
 4127000   0.58767228   -8.2900727    613.33647  0.012384631  0.010898054         2260 
 4128000   0.59426641   -8.2935043    612.75328  0.012369858  0.010893788         2323 
 4129000   0.58421376   -8.2840262    612.32838  0.012358287  0.010889523         2325 
 4130000   0.60876699   -8.2973693    613.04773  0.012369809  0.010885258         2298 
 4131000   0.59757464    -8.299803    613.39029  0.012373725  0.010880999         2352 
 4132000   0.59203957   -8.2593251    613.84735  0.012379948  0.010876744         2298 
 4133000   0.59872866   -8.2686823    612.29331  0.012345619  0.010872492         2288 
 4134000   0.57003358   -8.2659401     613.1438  0.012359777  0.010868244         2319 
 4135000    0.5899039   -8.2903979     611.3219  0.012320071  0.010863994         2271 
 4136000   0.59797777   -8.2928402    613.16774  0.012354282  0.010859746         2317 
 4137000   0.59707053   -8.2842774    613.42901  0.012356559  0.010855499         2295 
 4138000   0.60294854   -8.2755207    612.14195  0.012327653  0.010851251         2335 
 4139000   0.57985641   -8.2934523    612.59931  0.012333883  0.010847005         2321 
 4140000   0.59628935   -8.2979228    612.93791   0.01233772  0.010842766         2440 
 4141000   0.59733527   -8.2804997    614.07037   0.01235753  0.010838527         2376 
 4142000   0.59080127   -8.3048121    612.21705  0.012317259  0.010834285         2370 
 4143000   0.59124891   -8.2840998    612.77276  0.012325464  0.010830045         2351 
 4144000   0.58285887   -8.2762409    612.68399  0.012320705  0.010825809         2343 
 4145000   0.59521811   -8.2787084    612.91611  0.012322399  0.010821574         2249 
 4146000   0.59039959   -8.2998244    612.72912  0.012315668  0.010817342         2352 
 4147000   0.59973529   -8.3019018    611.87501  0.012295535  0.010813109         2279 
 4148000   0.58274434   -8.3134091    611.47482  0.012284531  0.010808878         2258 
 4149000   0.58416987   -8.3054228    612.64152  0.012305004  0.010804646         2311 
 4150000   0.58058602   -8.2877791    612.50407  0.012299279  0.010800428         2385 
 4151000   0.58542443     -8.28643    613.69711  0.012320266  0.010796207         2413 
 4152000   0.58472579   -8.2961509    611.70304  0.012277277  0.010791981         2344 
 4153000   0.59612103   -8.2949953    613.38263  0.012308023   0.01078776         2405 
 4154000   0.58022814   -8.2917028    612.96225  0.012296627  0.010783541         2322 
 4155000    0.5980086   -8.3082811    611.12096  0.012256738  0.010779325         2335 
 4156000   0.58621762   -8.3059509    612.62368   0.01228392  0.010775113         2364 
 4157000   0.58796041   -8.2880738    612.48513  0.012278188  0.010770901         2329 
 4158000    0.5863339   -8.2931302    611.41728  0.012253834  0.010766694         2346 
 4159000   0.57641187   -8.2924024    612.12712   0.01226511   0.01076249         2372 
 4160000   0.58612168   -8.2940521    612.10851  0.012261789  0.010758286         2286 
 4161000   0.58484345   -8.2651655    613.35048  0.012283716  0.010754085         2260 
 4162000   0.57726307   -8.2987527    613.17119  0.012277174  0.010749888         2271 
 4163000   0.58155099    -8.280277    613.13344  0.012273469  0.010745689         2340 
 4164000   0.58899045   -8.3004706    613.03599  0.012268572  0.010741493         2298 
 4165000   0.58057972   -8.3000002    612.23471  0.012249594  0.010737307         2411 
 4166000   0.58334449   -8.2978003    613.22456  0.012266454  0.010733117         2286 
 4167000   0.57637838   -8.2806781    612.53297  0.012249679  0.010728929         2276 
 4168000   0.59393896   -8.2835315    612.93315  0.012254742  0.010724743         2304 
 4169000   0.58417435   -8.3028535    611.88674  0.012230886  0.010720554         2337 
 4170000   0.58789135   -8.3018124    611.37086  0.012217643  0.010716371         2356 
 4171000   0.59544974   -8.3011622    611.60917  0.012219475  0.010712195         2322 
 4172000   0.58125108   -8.2972752    612.84643   0.01224126  0.010708018         2316 
 4173000   0.57293292   -8.3029108    612.48554  0.012231119  0.010703841         2329 
 4174000   0.58856102   -8.2932512    612.03543  0.012219203  0.010699665         2302 
 4175000   0.57841396    -8.308714    612.36986  0.012222951  0.010695493         2407 
 4176000   0.58746014   -8.2824123    611.69285  0.012206514  0.010691323         2363 
 4177000   0.57297802   -8.2831059    612.72081    0.0122241  0.010687156         2308 
 4178000   0.57919765   -8.2989592    611.12885  0.012189422  0.010682988         2379 
 4179000   0.58675357   -8.3117231    612.09055  0.012205682  0.010678822         2317 
 4180000   0.58505248   -8.2846691    612.11202   0.01220319  0.010674656         2377 
 4181000   0.58239743   -8.2956227    612.18751  0.012201776  0.010670496         2356 
 4182000   0.57765748   -8.2929689    613.25942  0.012220218  0.010666337         2241 
 4183000   0.58932278   -8.2900999    613.62238  0.012224527  0.010662181         2331 
 4184000   0.58632372   -8.2957396    611.57312   0.01218079  0.010658026         2336 
 4185000   0.58169906   -8.3080107    612.18258  0.012190015  0.010653875         2396 
 4186000   0.56149072   -8.2953681    612.76662   0.01219873  0.010649724         2372 
 4187000   0.57798242   -8.2976882    612.81118  0.012196704  0.010645578         2302 
 4188000   0.57764255   -8.3025363    610.96215  0.012156999  0.010641432         2369 
 4189000   0.59075378    -8.287176    611.81291  0.012171022  0.010637292         2346 
 4190000   0.58044921   -8.3081335    611.99151  0.012171669  0.010633154         2416 
 4191000   0.57389736   -8.2994742    612.30421  0.012174982  0.010629014         2378 
 4192000   0.57530285   -8.3016315    612.52552  0.012176477  0.010624873         2396 
 4193000   0.58225693   -8.2898421    612.57011   0.01217446  0.010620737         2381 
 4194000   0.57795373    -8.309306    612.29451  0.012166081  0.010616608         2323 
 4195000   0.57907033    -8.308923    611.43114   0.01214603  0.010612476         2306 
 4196000   0.58969132   -8.2919239    613.16037  0.012177478   0.01060835         2390 
 4197000   0.57373997   -8.2928043     613.1304  0.012173982  0.010604233         2347 
 4198000   0.57752213    -8.318863    612.70529  0.012162643  0.010600105         2335 
 4199000   0.57634054   -8.2925576    613.18312  0.012169229  0.010595982         2356 
 4200000   0.58639428   -8.3096553    611.64763  0.012135866  0.010591864         2304 
 4201000    0.5792942   -8.3084926    611.58884  0.012131811  0.010587744         2415 
 4202000   0.59723532    -8.301231    612.79895  0.012152922  0.010583631         2268 
 4203000   0.57000967   -8.2951338     612.4477  0.012143066  0.010579521         2320 
 4204000   0.56051664   -8.3136798    612.93421  0.012149822   0.01057541         2439 
 4205000    0.5674798    -8.309744    612.87082  0.012145676  0.010571297         2271 
 4206000   0.57592365   -8.3040603    612.93702    0.0121441  0.010567189         2360 
 4207000   0.58284007   -8.3168679    611.68072  0.012116328  0.010563079         2374 
 4208000   0.57826062   -8.3068625    612.35312  0.012126765  0.010558973         2294 
 4209000    0.5804143   -8.2912493     612.4275  0.012125356   0.01055487         2302 
 4210000   0.58076397   -8.2957847    611.32809  0.012100714  0.010550768         2264 
 4211000   0.57779827    -8.308854    612.74339  0.012125849   0.01054667         2356 
 4212000   0.58500292   -8.3091393    612.49492  0.012118054  0.010542574         2298 
 4213000   0.57599441   -8.3311412    611.75282  0.012100499  0.010538477         2342 
 4214000   0.57728928    -8.305413    611.81967  0.012098949  0.010534383         2265 
 4215000   0.56343996   -8.3162464     612.5134  0.012109794  0.010530296         2408 
 4216000   0.58196094   -8.2940482    612.23939  0.012101506  0.010526202         2372 
 4217000   0.56840655   -8.3152753    612.04741  0.012094843  0.010522115         2344 
 4218000   0.56467158   -8.2947222    611.89709  0.012089005  0.010518028         2373 
 4219000   0.58495658   -8.3260568    612.66416  0.012101291   0.01051395         2299 
 4220000   0.57009569   -8.3058331    610.95016  0.012064577  0.010509868         2314 
 4221000   0.57223961   -8.3007045    612.79007  0.012098043  0.010505788         2281 
 4222000   0.58679068   -8.3069863    612.47131  0.012088886   0.01050171         2355 
 4223000    0.5770428   -8.2937333    611.63196   0.01206946  0.010497639         2278 
 4224000   0.57714213   -8.3055491     612.7984  0.012089615  0.010493567         2330 
 4225000   0.57749263   -8.2914011    613.87756  0.012108039    0.0104895         2334 
 4226000   0.57589484    -8.304621    611.88676  0.012065916  0.010485434         2331 
 4227000   0.57565329   -8.3098164    610.96144   0.01204482  0.010481374         2362 
 4228000   0.59915605   -8.3163727     613.2923  0.012087912  0.010477313         2350 
 4229000   0.57491789   -8.3205758    612.19349  0.012063401  0.010473255         2358 
 4230000   0.59012489   -8.3005934    611.35004  0.012043933  0.010469191         2302 
 4231000   0.57076052   -8.2985594    612.11515  0.012056156  0.010465133         2416 
 4232000   0.58699633   -8.3142285    611.08136   0.01203295  0.010461081         2347 
 4233000   0.57209156   -8.3060924    611.29199  0.012034254  0.010457027         2261 
 4234000   0.58292211   -8.3115099    611.45635  0.012034647  0.010452974         2311 
 4235000   0.58168475   -8.3036503    611.74271   0.01203744  0.010448925         2386 
 4236000   0.59028463     -8.30486    612.19544  0.012043505  0.010444879         2348 
 4237000   0.58439739   -8.2994944    613.53524  0.012067014  0.010440836         2279 
 4238000   0.57652118   -8.3107977    611.66525  0.012027396  0.010436793         2324 
 4239000    0.5682691   -8.3134768    611.55611  0.012022413  0.010432751         2313 
 4240000   0.57208709   -8.3112321    610.93871  0.012007443  0.010428706         2386 
 4241000   0.56672898   -8.3103321    611.43038  0.012014273  0.010424669         2320 
 4242000   0.57219728   -8.3087677    611.90332  0.012020732  0.010420634         2277 
 4243000   0.56911548   -8.3292482    611.73934  0.012014678  0.010416598         2305 
 4244000   0.55959875    -8.345101    611.06014   0.01199851  0.010412561         2325 
 4245000    0.5817438   -8.3162014    612.29726   0.01201997   0.01040853         2331 
 4246000   0.56881173   -8.3093243    612.23669   0.01201595    0.0104045         2327 
 4247000   0.57081312   -8.3214759    611.06386  0.011990108  0.010400474         2394 
 4248000   0.57491137   -8.3026939     610.6514  0.011979194   0.01039645         2326 
 4249000   0.56791606   -8.3132165    611.83291  0.011999547  0.010392427         2286 
 4250000   0.57093701   -8.3293527    611.21892  0.011984685  0.010388404         2342 
 4251000    0.5668333   -8.3240145    611.51707   0.01198771  0.010384382         2399 
 4252000   0.56311139   -8.3189052    612.24714  0.011999199  0.010380365         2345 
 4253000   0.57294262    -8.330446    612.72291    0.0120057  0.010376348         2355 
 4254000   0.57907504   -8.3083987    611.77018  0.011984214  0.010372335         2304 
 4255000   0.56902037   -8.3312642    611.39446   0.01197404   0.01036832         2370 
 4256000   0.57350004   -8.3133924     612.3843  0.011990607  0.010364315         2412 
 4257000   0.55936645   -8.2923495     612.1302  0.011982816  0.010360306         2397 
 4258000   0.56777506   -8.3091623    610.86363  0.011955214  0.010356299         2428 
 4259000   0.56187236   -8.3076442    611.80543  0.011970835  0.010352294         2397 
 4260000   0.56813588    -8.319509    612.09104  0.011973612  0.010348291         2354 
 4261000   0.56736994   -8.3307174    612.67387    0.0119822  0.010344292         2394 
 4262000   0.57706967   -8.3374686    611.38965  0.011954279  0.010340291         2383 
 4263000   0.56805253   -8.3047999    611.81312  0.011959753  0.010336293         2341 
 4264000   0.57285604   -8.3155454    612.04762  0.011961531  0.010332295         2321 
 4265000   0.57960229    -8.330154    611.15352  0.011941257  0.010328303         2404 
 4266000   0.57746948   -8.3394651    610.66535  0.011928921  0.010324321         2423 
 4267000   0.57509081   -8.3165942    611.49389  0.011942307  0.010320327         2310 
 4268000   0.56977775   -8.3230008     611.2285  0.011934327  0.010316341         2378 
 4269000   0.57002482     -8.31198    610.69352  0.011921088  0.010312355         2373 
 4270000   0.57667775   -8.3290839    611.18605  0.011927909  0.010308374         2248 
 4271000   0.57666808   -8.3184358    612.11762  0.011943292  0.010304389         2331 
 4272000   0.56723339    -8.333486    611.80383  0.011934376  0.010300407         2306 
 4273000   0.57290692   -8.3206082    611.77305  0.011930982  0.010296427         2336 
 4274000   0.56493723   -8.3439153    611.53023  0.011923456   0.01029245         2296 
 4275000   0.56922836   -8.3168421    611.94071  0.011928669  0.010288474         2370 
 4276000   0.56870327   -8.3055977    612.50621    0.0119369    0.0102845         2351 
 4277000   0.56574193    -8.315528    611.16846  0.011908044  0.010280529         2318 
 4278000   0.55328328   -8.3354711    611.79714  0.011917507  0.010276562         2232 
 4279000   0.56563262   -8.3240176    611.22246   0.01190353  0.010272594         2354 
 4280000    0.5695676   -8.3527952    610.93628  0.011895177  0.010268627         2337 
 4281000   0.55822822   -8.3548678    612.06883  0.011914444  0.010264664         2363 
 4282000   0.54886019   -8.3214526    610.95888  0.011890061    0.0102607         2364 
 4283000   0.56710364   -8.3153944    610.92538  0.011886633   0.01025674         2322 
 4284000   0.56153455   -8.3254928    610.91701  0.011883695  0.010252789         2335 
 4285000   0.57293429   -8.3210895    611.84691  0.011899006  0.010248836         2363 
 4286000    0.5641915   -8.3264473    610.35093  0.011867144  0.010244885         2359 
 4287000   0.57299965   -8.3175471    611.43078  0.011885366  0.010240938         2326 
 4288000   0.56149216   -8.3345714    611.73088  0.011888427  0.010236989         2364 
 4289000   0.55982172   -8.3399975    610.87433  0.011869012  0.010233047         2324 
 4290000   0.57015276    -8.334949    611.56962  0.011879752  0.010229099         2357 
 4291000   0.55738825   -8.3448351    612.40882  0.011893281  0.010225158         2331 
 4292000   0.56556722   -8.3275922    611.59005  0.011874613  0.010221216         2350 
 4293000   0.56127785   -8.3039911    612.07307  0.011881223  0.010217278         2338 
 4294000   0.56789392   -8.3248937    610.56715   0.01184923  0.010213347         2266 
 4295000   0.56902202   -8.3125739    612.08079   0.01187584  0.010209417         2279 
 4296000   0.57109999   -8.3170226    611.69193  0.011865532  0.010205492         2297 
 4297000   0.56967301   -8.3208108    611.39807  0.011857072  0.010201563         2385 
 4298000    0.5693419   -8.3495011    611.79924  0.011862092  0.010197638         2398 
 4299000   0.55418266   -8.3274464    611.56329  0.011854759  0.010193715         2416 
 4300000   0.57111764   -8.3465491    610.61894    0.0118337  0.010189792         2382 
 4301000   0.57205233    -8.330666    612.32242  0.011863954  0.010185869         2328 
 4302000   0.56275248   -8.3257188    610.29217  0.011821869  0.010181951         2405 
 4303000   0.55710204   -8.3270961    612.02927  0.011852763  0.010178029         2274 
 4304000   0.55753088    -8.331796    611.76278  0.011844849  0.010174113         2379 
 4305000    0.5633088   -8.3506118    610.67792  0.011821098  0.010170194         2328 
 4306000   0.55765116   -8.3048303    610.62407  0.011817311  0.010166281         2317 
 4307000    0.5549322   -8.3231082    612.08273  0.011842789   0.01016237         2367 
 4308000    0.5654047   -8.3323321    610.05886  0.011800891  0.010158466         2338 
 4309000   0.55938814   -8.3463602    610.11841  0.011799304  0.010154559         2336 
 4310000   0.55569307   -8.3351575    610.45447  0.011803064  0.010150655         2282 
 4311000   0.56460629   -8.3151483    611.33318  0.011817312  0.010146755         2298 
 4312000   0.55056397   -8.3331346    611.43248   0.01181649  0.010142858         2363 
 4313000   0.56748368   -8.3415822    611.57493  0.011816503  0.010138957         2352 
 4314000   0.56030916   -8.3440751    610.23854  0.011787949  0.010135059         2346 
 4315000   0.57029672   -8.3397666    610.08717  0.011782294  0.010131158         2329 
 4316000   0.56961578   -8.3335116    612.34321  0.011823123  0.010127261         2339 
 4317000     0.551232   -8.3349925     611.3805  0.011801801   0.01012337         2331 
 4318000    0.5587266    -8.336775    611.24048  0.011796366  0.010119478         2385 
 4319000   0.56941374   -8.3348816    610.61899  0.011781643  0.010115583         2358 
 4320000   0.55874643   -8.3317646    611.58447   0.01179754  0.010111699         2378 
 4321000   0.54791052   -8.3253284    610.80668  0.011779809  0.010107816         2328 
 4322000   0.55838372   -8.3446341    611.69723  0.011794255  0.010103932         2330 
 4323000   0.57395516   -8.3304524    610.30434  0.011764676   0.01010005         2392 
 4324000   0.57318519   -8.3346987    611.84569  0.011791661  0.010096172         2291 
 4325000   0.55420479   -8.3412198    610.92311  0.011771158  0.010092294         2428 
 4326000   0.55678297   -8.3477934    610.31634  0.011756749  0.010088418         2324 
 4327000   0.56190899   -8.3294069    611.38473  0.011774608  0.010084545         2351 
 4328000   0.54933175   -8.3188279    611.44621  0.011773071  0.010080673         2352 
 4329000   0.54848948   -8.3371464     611.9163    0.0117794  0.010076802         2352 
 4330000   0.56608402   -8.3406238    611.61253  0.011770834  0.010072935         2309 
 4331000   0.55170934   -8.3412444    610.34807  0.011743786   0.01006907         2260 
 4332000   0.56983449   -8.3174573    610.64223  0.011746734  0.010065207         2336 
 4333000   0.55988427   -8.3265054    611.06607  0.011752175  0.010061347         2372 
 4334000   0.55289462   -8.3513995    611.15259  0.011751127  0.010057484         2376 
 4335000   0.56401969   -8.3394837    609.75889  0.011721624  0.010053627         2351 
 4336000     0.565995   -8.3306834    610.40501  0.011731339  0.010049773         2316 
 4337000   0.55888249    -8.349898    610.70574  0.011734412  0.010045917         2260 
 4338000   0.55827878   -8.3412128    611.51822  0.011747315  0.010042067         2279 
 4339000   0.55619374   -8.3360596     612.5597   0.01176461  0.010038214         2362 
 4340000   0.56210947   -8.3402472    610.66764  0.011725569  0.010034363         2271 
 4341000   0.55134971   -8.3508532    611.53976   0.01173961  0.010030513         2346 
 4342000   0.55136129   -8.3414854    611.40416  0.011734304  0.010026671         2298 
 4343000   0.53701651   -8.3613541      611.594  0.011735245  0.010022832         2353 
 4344000   0.56035196   -8.3505483    609.81744  0.011698462  0.010018988         2359 
 4345000   0.55444193   -8.3484021    610.86546   0.01171587   0.01001515         2302 
 4346000   0.55945746   -8.3482383    611.66176  0.011728443  0.010011316         2390 
 4347000   0.56376941   -8.3500983    610.65816  0.011706506   0.01000748         2347 
 4348000   0.55737226   -8.3360344     611.1595  0.011713422  0.010003647         2345 
 4349000    0.5473589   -8.3395588    610.73307  0.011702558 0.0099998147         2361 
 4350000    0.5549638   -8.3526865    610.34645  0.011692461 0.0099959831         2433 
 4351000   0.55150911   -8.3527072    611.05166   0.01170328 0.0099921548         2379 
 4352000   0.56333214   -8.3422904    609.57976  0.011672407 0.0099883313         2325 
 4353000   0.55715588   -8.3365637    611.56849  0.011707797 0.0099845063         2325 
 4354000   0.56111602   -8.3250193    611.04421  0.011695074 0.0099806854         2369 
 4355000    0.5686238   -8.3359243    611.18443  0.011695071 0.0099768634         2392 
 4356000    0.5525338   -8.3371009    611.85254  0.011705168 0.0099730456         2358 
 4357000   0.54900511   -8.3551946    610.25724  0.011671969 0.0099692303         2403 
 4358000   0.54737516   -8.3486283    611.09845  0.011685377 0.0099654166         2414 
 4359000    0.5585282   -8.3583349    609.78891  0.011657661 0.0099616018         2401 
 4360000   0.54293647   -8.3365101    610.70955  0.011672583 0.0099577931         2374 
 4361000   0.56015216   -8.3580158    609.89057  0.011654257 0.0099539839         2326 
 4362000   0.56161626    -8.343709    610.97802   0.01167236 0.0099501722         2376 
 4363000   0.55737718   -8.3508096    610.94238  0.011669004 0.0099463661         2368 
 4364000   0.55615353   -8.3366668    609.23975  0.011633817 0.0099425595         2362 
 4365000   0.55093847   -8.3610394    609.97539  0.011645196 0.0099387541         2339 
 4366000   0.55943097   -8.3490111    610.95572  0.011661241  0.009934956         2376 
 4367000   0.55641247   -8.3373161    611.29434  0.011665032 0.0099311571         2370 
 4368000   0.55295725   -8.3477952    610.22151  0.011641894  0.009927361         2337 
 4369000   0.54594616   -8.3520682    609.89575  0.011633016 0.0099235693         2250 
 4370000   0.54954907   -8.3496107    610.14312  0.011635071 0.0099197761         2385 
 4371000    0.5471061   -8.3637548     610.5645  0.011640443 0.0099159869         2333 
 4372000   0.55789955   -8.3554774    611.08872  0.011647772 0.0099122013         2301 
 4373000   0.55257677   -8.3298354    610.70098   0.01163772 0.0099084191         2374 
 4374000   0.54780503   -8.3458027    611.04546  0.011641622 0.0099046357         2369 
 4375000   0.55372304   -8.3537558    609.95956  0.011618277 0.0099008571         2321 
 4376000   0.55521864   -8.3409766      610.105  0.011618392 0.0098970726         2395 
 4377000   0.54763058   -8.3499476    612.60528   0.01166334 0.0098932941         2335 
 4378000   0.54981989   -8.3341071    610.91986  0.011628595 0.0098895168         2470 
 4379000   0.55389353   -8.3625018    609.85761  0.011605725 0.0098857414         2430 
 4380000   0.54397849   -8.3495323    610.84889  0.011621935 0.0098819676         2334 
 4381000    0.5380982   -8.3518443    611.65461  0.011634608 0.0098781938         2352 
 4382000   0.52897798   -8.3643917    610.55247  0.011610993 0.0098744219         2428 
 4383000   0.54288476   -8.3528613    611.07799  0.011618336 0.0098706525         2419 
 4384000    0.5553185   -8.3735421    609.47126  0.011585144 0.0098668831         2380 
 4385000   0.55269172   -8.3516172    609.55734  0.011584138 0.0098631184         2309 
 4386000   0.54689531   -8.3645613    609.99239  0.011589763  0.009859354         2478 
 4387000   0.55400959   -8.3548552    610.22274  0.011591496 0.0098555916         2326 
 4388000    0.5575958   -8.3456229    610.59906  0.011596002 0.0098518346         2322 
 4389000   0.55329361   -8.3379325    610.44515  0.011590437  0.009848075         2392 
 4390000    0.5511874   -8.3550169    611.30163  0.011604055 0.0098443189         2424 
 4391000   0.54850834   -8.3436321    610.38963  0.011584104 0.0098405619         2326 
 4392000   0.55375395   -8.3416971    609.72258   0.01156881 0.0098368088         2333 
 4393000   0.53530344    -8.353188     610.4173  0.011579355 0.0098330589         2317 
 4394000    0.5557212   -8.3316646    611.64032  0.011599915 0.0098293115         2365 
 4395000   0.55664625   -8.3551034    611.04064  0.011585905 0.0098255707         2337 
 4396000   0.54773428   -8.3571333    611.04206  0.011583297 0.0098218263         2426 
 4397000    0.5483257    -8.360718    610.81968  0.011576448 0.0098180858         2310 
 4398000   0.55400707   -8.3587632    610.12045  0.011560566 0.0098143446         2292 
 4399000   0.54724888   -8.3580279    609.84829  0.011552783 0.0098106069         2416 
 4400000   0.55769548   -8.3675277    609.27184  0.011539239 0.0098068706         2383 
 4401000   0.55056098   -8.3510714    610.60146  0.011561794 0.0098031385         2376 
 4402000   0.54524453   -8.3600428    609.27615  0.011534078 0.0097994083         2376 
 4403000   0.55176975   -8.3608609     609.7114  0.011539696 0.0097956779         2411 
 4404000   0.54165416   -8.3737382    609.35423  0.011530318 0.0097919511         2425 
 4405000   0.54795519   -8.3550199    609.74974  0.011535182  0.009788221         2358 
 4406000    0.5496946   -8.3686818    609.93716  0.011536109    0.0097845         2362 
 4407000   0.54940078   -8.3566449     611.8011  0.011568737 0.0097807781         2338 
 4408000   0.54175275   -8.3664713    610.86754  0.011548464  0.009777057         2407 
 4409000   0.54118239   -8.3522902    610.16157  0.011532501 0.0097733362         2321 
 4410000   0.55617124   -8.3695799    609.78312  0.011522735 0.0097696201         2368 
 4411000   0.55242187   -8.3775227    611.22556  0.011547373 0.0097659003         2387 
 4412000   0.55486396   -8.3663359     609.7779  0.011517413 0.0097621844         2370 
 4413000    0.5446572   -8.3726324    610.66147  0.011531488 0.0097584699         2376 
 4414000   0.54684445   -8.3530509    609.91291  0.011514743   0.00975476         2318 
 4415000     0.535252   -8.3571047    610.41677  0.011521645 0.0097510502         2362 
 4416000   0.55291838   -8.3390357    611.03127  0.011530632 0.0097473444         2280 
 4417000   0.53358608   -8.3566009    611.06078  0.011528579 0.0097436417         2329 
 4418000   0.55308298    -8.358267    609.78234  0.011501855   0.00973994         2331 
 4419000    0.5549217   -8.3555924    609.61282  0.011496055 0.0097362391         2328 
 4420000   0.54390571   -8.3596028    610.21994  0.011504901 0.0097325418         2265 
 4421000    0.5595008   -8.3670562    610.75516  0.011512387 0.0097288451         2312 
 4422000   0.55156449   -8.3657188    610.74333  0.011509561 0.0097251473         2312 
 4423000   0.54522836   -8.3809979    610.64959  0.011505192 0.0097214537         2349 
 4424000   0.54452731   -8.3688362    609.77791  0.011486172 0.0097177662         2399 
 4425000     0.551557   -8.3934571    610.20087  0.011491542 0.0097140739         2314 
 4426000   0.54248444   -8.3579335    610.98689  0.011503745 0.0097103851         2348 
 4427000   0.53739086   -8.3612811    609.92992   0.01148125  0.009706698         2386 
 4428000   0.53729308    -8.356141    609.89642  0.011478027 0.0097030144         2270 
 4429000   0.55094233   -8.3571556    610.58706   0.01148843 0.0096993341         2432 
 4430000    0.5390529   -8.3814893    609.79153  0.011470871 0.0096956522         2346 
 4431000   0.53775247   -8.3709868     611.2554  0.011495814 0.0096919721         2318 
 4432000   0.54341167   -8.3528333    610.42499  0.011477606 0.0096882924         2363 
 4433000   0.54795583   -8.3551565     608.8681   0.01144575  0.009684615         2366 
 4434000   0.53733068   -8.3761568    609.76924  0.011460104 0.0096809418         2321 
 4435000   0.54247897   -8.3464198     611.1982  0.011484371  0.009677271         2372 
 4436000   0.54433774   -8.3549947    609.42349  0.011448443 0.0096736026         2390 
 4437000   0.55162879   -8.3672835     610.7422   0.01147063 0.0096699358         2311 
 4438000   0.54620104    -8.352937    611.12538   0.01147524 0.0096662732         2381 
 4439000   0.54893422   -8.3782989    610.92303  0.011468856  0.009662608         2417 
 4440000    0.5460043   -8.3541694    610.30975  0.011454763 0.0096589434         2391 
 4441000   0.54666135   -8.3729204    610.23185  0.011450721 0.0096552796         2380 
 4442000   0.54066047   -8.3374433    610.47811  0.011452764 0.0096516243         2342 
 4443000   0.54599374    -8.376466    610.47011  0.011450036 0.0096479705         2385 
 4444000   0.52736835   -8.3655073    609.97672  0.011438207  0.009644315         2367 
 4445000   0.53550772   -8.3782135    609.92361  0.011434638 0.0096406624         2324 
 4446000   0.52926583   -8.3709799    610.38022  0.011440625 0.0096370124         2348 
 4447000   0.53724098   -8.3713361    609.76622  0.011426546 0.0096333619         2326 
 4448000   0.53822527   -8.3640976    609.89787  0.011426444  0.009629717         2387 
 4449000   0.54675398   -8.3593592    610.73091  0.011439479 0.0096260694         2388 
 4450000   0.55256464   -8.3607551    609.78641  0.011419221 0.0096224236         2384 
 4451000   0.53501586    -8.377955    610.37573  0.011427689 0.0096187837         2328 
 4452000   0.53961699   -8.3764204    610.82406  0.011433514 0.0096151391         2344 
 4453000   0.54450358   -8.3540023    610.52826  0.011425411 0.0096114996         2351 
 4454000   0.54038004   -8.3696758    609.31342  0.011400116 0.0096078598         2343 
 4455000    0.5458596   -8.3654895    609.01288  0.011391936 0.0096042259         2345 
 4456000   0.53553995   -8.3890577      609.572  0.011399835 0.0096005934         2363 
 4457000    0.5345247   -8.3613128    609.12003  0.011388827 0.0095969621         2414 
 4458000   0.53723857   -8.3577382    609.75245  0.011398094 0.0095933315         2330 
 4459000   0.53381053   -8.3690238    610.37615  0.011407194 0.0095897005         2332 
 4460000    0.5505873   -8.3738641    609.16469  0.011382001 0.0095860712         2358 
 4461000   0.54555262   -8.3506828    610.16052  0.011398052 0.0095824454         2349 
 4462000   0.53529738   -8.3693098    610.71057   0.01140577 0.0095788221         2413 
 4463000    0.5416712   -8.3600113    610.35313  0.011396541 0.0095752006         2318 
 4464000   0.52937165   -8.3744749    609.67679  0.011381362 0.0095715802         2386 
 4465000   0.53931727    -8.362671    610.49182  0.011394024  0.009567964         2367 
 4466000   0.53027465   -8.3649052    610.71363  0.011395612 0.0095643502         2393 
 4467000   0.52641154   -8.3655977    610.12706  0.011382118 0.0095607339         2411 
 4468000    0.5383357   -8.3814745    610.04565  0.011378052 0.0095571205         2332 
 4469000   0.54362194   -8.3522871    610.14416  0.011377343 0.0095535083         2409 
 4470000   0.53335491   -8.3664816    609.27361  0.011358568  0.009549899         2374 
 4471000   0.54304987   -8.3784319    610.59299  0.011380619 0.0095462911         2347 
 4472000    0.5244272   -8.4001655    610.26855  0.011372029 0.0095426811         2382 
 4473000   0.53392212   -8.3632626      611.055  0.011384138 0.0095390742         2411 
 4474000   0.54497751   -8.3973077    609.53045  0.011353197 0.0095354701         2379 
 4475000   0.53460661   -8.3662489    610.31777  0.011365322 0.0095318656         2333 
 4476000   0.53777612   -8.3884332    610.58959  0.011367843 0.0095282631         2400 
 4477000   0.53501094   -8.3871724    609.27223  0.011340783 0.0095246671         2393 
 4478000   0.53956803   -8.3795975    610.39591  0.011359162 0.0095210717         2379 
 4479000   0.52727411   -8.3840018     610.1056  0.011351224 0.0095174787         2380 
 4480000   0.53629413   -8.3873381    609.56779  0.011338687 0.0095138864         2459 
 4481000   0.53374525   -8.3581037    610.87205  0.011360412 0.0095103017         2312 
 4482000   0.53426541   -8.3813082    609.15383   0.01132593 0.0095067136         2390 
 4483000   0.53710263   -8.3692972    608.63543  0.011313767 0.0095031285         2478 
 4484000   0.54078432   -8.3733371    610.15057  0.011339402 0.0094995427         2393 
 4485000   0.52864769   -8.3703411    610.16429  0.011337129 0.0094959591         2386 
 4486000     0.523925   -8.3564826    611.42406  0.011358004  0.009492379         2353 
 4487000   0.53384655   -8.3704793    610.36954  0.011335888 0.0094888038         2312 
 4488000   0.54404184   -8.3854706    610.07344  0.011327864 0.0094852291         2339 
 4489000   0.52834437   -8.3760992    609.40631  0.011312956 0.0094816546         2386 
 4490000   0.53836228    -8.366102    610.78524  0.011336029 0.0094780822         2400 
 4491000   0.52434674   -8.3720782    609.85321   0.01131621 0.0094745142         2404 
 4492000   0.53058405   -8.3962813    610.00872  0.011316576 0.0094709447         2421 
 4493000   0.53451119   -8.3646522    610.47917  0.011322783 0.0094673797         2321 
 4494000   0.52212909    -8.375866    609.59249  0.011303822 0.0094638152         2353 
 4495000   0.53355943    -8.350246    610.31243  0.011314654 0.0094602543         2360 
 4496000   0.53811718   -8.3558403    609.86684  0.011303878  0.009456693         2340 
 4497000   0.54077643   -8.3966683    610.67122   0.01131627 0.0094531353         2412 
 4498000   0.52972115   -8.3850148    608.90563  0.011281044 0.0094495743         2359 
 4499000   0.53925385   -8.3740675    610.45769  0.011307285 0.0094460177         2378 
 4500000   0.52987608    -8.383238    609.32747  0.011283842 0.0094424625         2368 
 4501000   0.54226704   -8.3568389    609.70559  0.011288336 0.0094389091         2351 
 4502000   0.52809924   -8.3714619    610.79525  0.011305998 0.0094353591         2384 
 4503000   0.53428686   -8.3815583    609.93434  0.011287555 0.0094318103         2371 
 4504000   0.52585804   -8.3818247    609.24959   0.01127238 0.0094282642         2441 
 4505000   0.53830854   -8.3793686    609.89367  0.011281792  0.009424717         2331 
 4506000   0.53740761    -8.379501    610.42156  0.011289051 0.0094211729         2347 
 4507000   0.53715441    -8.368276    609.24628  0.011264815   0.00941763         2326 
 4508000   0.53872927   -8.3770872    608.41531  0.011246956 0.0094140939         2367 
 4509000   0.53320176   -8.3768124    609.72914  0.011268743 0.0094105522         2425 
 4510000   0.52072139   -8.3748079    609.66603  0.011265078 0.0094070145         2342 
 4511000   0.52838333    -8.392901     608.9933  0.011250153 0.0094034762         2388 
 4512000     0.528097   -8.3726391    610.68895  0.011278977 0.0093999436         2362 
 4513000    0.5232019   -8.3899173    609.25066   0.01124992 0.0093964111         2338 
 4514000   0.53654706   -8.3848196    609.09432  0.011244541 0.0093928798         2337 
 4515000    0.5224273   -8.3929661    610.11684  0.011260924 0.0093893538         2387 
 4516000    0.5354514   -8.3939762    610.32935  0.011262351 0.0093858273         2349 
 4517000   0.53104832   -8.4030671    610.32774  0.011259828 0.0093823034         2340 
 4518000   0.52619515   -8.4034236    609.83998   0.01124834 0.0093787775         2359 
 4519000   0.53060843   -8.3723705    610.36167  0.011255471 0.0093752547         2354 
 4520000   0.53594346   -8.3881012    609.57207  0.011238423 0.0093717314         2372 
 4521000   0.53656118   -8.4037196    609.36234  0.011232071 0.0093682127         2395 
 4522000   0.52505263   -8.3918565    609.75456  0.011236816  0.009364692         2349 
 4523000   0.51821447   -8.3832634    610.40917  0.011246392 0.0093611766         2254 
 4524000   0.53022731   -8.3948359    608.96961  0.011217389 0.0093576613         2331 
 4525000   0.52486247      -8.4071    609.34829  0.011221884 0.0093541468         2338 
 4526000   0.52810804   -8.3959534    609.63698   0.01122472 0.0093506337         2359 
 4527000   0.52182019   -8.3629857    610.60409  0.011240043 0.0093471254         2275 
 4528000   0.52108692   -8.3937427    609.03149  0.011208618 0.0093436184         2364 
 4529000   0.52136751   -8.4119522    609.06276  0.011206719 0.0093401092         2359 
 4530000   0.52147552   -8.3779569    609.95787  0.011220711 0.0093366056         2397 
 4531000   0.52405115   -8.3856915    608.86146   0.01119807 0.0093331013         2293 
 4532000   0.53251099   -8.3621322    610.16437  0.011219557 0.0093296033         2359 
 4533000   0.53912743   -8.3978869    608.72885  0.011190691 0.0093261021         2381 
 4534000   0.52087639   -8.3947421    609.69162  0.011205919 0.0093226019         2347 
 4535000   0.53012754   -8.3895152    608.86214  0.011188205 0.0093191061         2362 
 4536000   0.51944164   -8.3946677    610.76159  0.011220635 0.0093156109         2368 
 4537000   0.53039652   -8.3977708    608.97969  0.011185433  0.009312114         2397 
 4538000   0.53337794   -8.3651427    609.53849  0.011193229 0.0093086222         2346 
 4539000   0.52231954   -8.3862766    608.84425  0.011178017 0.0093051311         2397 
 4540000   0.53712543   -8.3757404    609.89639  0.011194868 0.0093016424         2356 
 4541000   0.52643133   -8.3851548    609.01938  0.011176308 0.0092981567         2380 
 4542000    0.5215114   -8.3806056    609.25693  0.011178206 0.0092946711         2436 
 4543000   0.51510286   -8.4040691    609.59251  0.011181901 0.0092911882         2342 
 4544000   0.52473569   -8.4189117      608.799  0.011164888 0.0092877065         2345 
 4545000   0.52971385   -8.3879782    610.28497  0.011189677 0.0092842286         2415 
 4546000    0.5291224   -8.4043127    609.16739  0.011166729 0.0092807462         2396 
 4547000   0.52907769   -8.3980973    608.50543  0.011152141 0.0092772688         2350 
 4548000   0.51836279   -8.4071978     609.7205  0.011171953 0.0092737955         2406 
 4549000   0.51266016   -8.3908789    609.45202  0.011164579 0.0092703236         2353 
 4550000   0.52380221   -8.3870134    609.69927  0.011166653 0.0092668537         2458 
 4551000   0.52485741   -8.3919478    608.88592  0.011149306 0.0092633858         2399 
 4552000   0.51906238   -8.4058808    609.72875  0.011162287  0.009259917         2431 
 4553000   0.52908128    -8.382588    608.79115  0.011142674 0.0092564532         2326 
 4554000   0.52285373   -8.4023565    609.35268  0.011150503 0.0092529889         2410 
 4555000   0.51921994   -8.3840213    608.97199   0.01114109 0.0092495262         2330 
 4556000   0.51334782   -8.3929489    609.95053  0.011156543 0.0092460672         2410 
 4557000   0.51869177   -8.3738209    609.32365  0.011142631  0.009242612         2385 
 4558000   0.52246107   -8.3959917    609.54124  0.011144165 0.0092391579         2377 
 4559000   0.52471228   -8.3931475    609.60847  0.011142949 0.0092357046         2334 
 4560000   0.51646532   -8.3870323    609.53362  0.011139138 0.0092322509         2356 
 4561000     0.521755   -8.4110702      609.166  0.011129979 0.0092287987         2399 
 4562000   0.52378427   -8.4027255    610.19224  0.011146285 0.0092253466         2386 
 4563000   0.51182655   -8.4030805    610.00092  0.011140348 0.0092218974         2388 
 4564000   0.51564463   -8.3982096    609.48983  0.011128576 0.0092184506         2349 
 4565000   0.51097124   -8.3926698    609.37647  0.011124068 0.0092150047         2301 
 4566000   0.51704767   -8.3903043    608.98132   0.01111442 0.0092115597         2371 
 4567000   0.50880416   -8.4045753    609.32704  0.011118295 0.0092081169         2371 
 4568000   0.52695408   -8.3761659    609.37421  0.011116722 0.0092046749         2387 
 4569000   0.52460672   -8.3983552    608.41721  0.011096834 0.0092012351         2359 
 4570000   0.52049522   -8.3936374    609.10574  0.011106961 0.0091977957         2363 
 4571000   0.52841385    -8.397946    608.71368  0.011097384 0.0091943561         2384 
 4572000   0.51901223   -8.3961721    609.43989  0.011108193 0.0091909201         2364 
 4573000   0.51833942   -8.4057577    609.64387  0.011109481 0.0091874825         2393 
 4574000   0.52108486   -8.4045323    608.33898  0.011083278 0.0091840481         2404 
 4575000   0.52824417   -8.3774366     609.8925  0.011109153 0.0091806156         2324 
 4576000   0.51331731   -8.3962434    609.08753  0.011092066 0.0091771895         2441 
 4577000   0.51499987   -8.4076158     609.4267  0.011095818 0.0091737635         2352 
 4578000   0.51484743   -8.4107971    609.14781  0.011088317 0.0091703384         2346 
 4579000   0.51715479   -8.3980892    609.25104  0.011087775 0.0091669161         2382 
 4580000   0.51579524   -8.3966684    608.92184  0.011079364 0.0091634957         2385 
 4581000   0.51296611   -8.4060096    610.02442  0.011097003 0.0091600778         2361 
 4582000   0.52399586   -8.4024349    609.19073  0.011079418 0.0091566612         2400 
 4583000   0.52513111   -8.4066488    608.06521  0.011056535 0.0091532447         2348 
 4584000   0.51675774   -8.4092749    608.65607  0.011064865 0.0091498305         2405 
 4585000   0.52337144   -8.4049233    608.09953  0.011052336 0.0091464155         2390 
 4586000   0.50709233   -8.4168119     608.3486  0.011054452  0.009143001         2384 
 4587000   0.51827516   -8.4356201     608.3824  0.011052656 0.0091395882         2419 
 4588000   0.52082268   -8.3850739    608.79977  0.011057828 0.0091361806         2384 
 4589000   0.50866943   -8.3836546    608.12023  0.011043078 0.0091327757         2444 
 4590000   0.52191011   -8.4031254    608.76199  0.011052324 0.0091293668         2380 
 4591000   0.52244972   -8.4149771    608.01941  0.011036437 0.0091259624         2355 
 4592000   0.51179824   -8.4100584    608.94392  0.011050812 0.0091225601         2422 
 4593000   0.51536714   -8.4020821    609.09139  0.011051081 0.0091191584         2374 
 4594000    0.5295722   -8.3993014    608.05618  0.011029897 0.0091157603         2360 
 4595000   0.50748007   -8.4173199    609.44517  0.011052687 0.0091123666         2350 
 4596000   0.51614796   -8.4042225    607.47329  0.011014529 0.0091089711         2428 
 4597000   0.51367903   -8.4122784    607.93342  0.011020474 0.0091055766         2440 
 4598000   0.51630728   -8.4066031    608.72425   0.01103241 0.0091021856         2449 
 4599000   0.51751464   -8.4145767    608.98665  0.011034766 0.0090987946         2384 
 4600000   0.51993222   -8.4101923    608.87523  0.011030348 0.0090954051         2447 
 4601000   0.52520166   -8.3964192    609.49252  0.011039131  0.009092016         2357 
 4602000   0.52167012   -8.4008805    608.67956  0.011022011  0.009088631         2404 
 4603000   0.52241833   -8.4109754    608.97823  0.011025024 0.0090852489         2391 
 4604000   0.51440243   -8.4189062    609.39251  0.011030128 0.0090818627         2401 
 4605000   0.51368059   -8.3966091    608.74158  0.011015953 0.0090784826         2355 
 4606000   0.52203798   -8.4175534    609.02897  0.011018761 0.0090751024         2363 
 4607000   0.51622506   -8.3914108    608.12541  0.011000025 0.0090717254         2442 
 4608000   0.52194089   -8.3979967    608.70028  0.011008035 0.0090683484         2403 
 4609000    0.5086777   -8.4253708    608.91121   0.01100946 0.0090649745         2426 
 4610000    0.5245464   -8.4167746    607.97588  0.010990164    0.0090616         2350 
 4611000   0.51340962   -8.4175048    608.49789  0.010997215 0.0090582286         2392 
 4612000   0.51161389    -8.409359    609.01205  0.011004121 0.0090548566         2441 
 4613000   0.50760665   -8.3971788    608.34598  0.010989703 0.0090514888         2294 
 4614000   0.50649617   -8.4218794    608.03867   0.01098177 0.0090481201         2414 
 4615000   0.52221311   -8.3922686    609.46605  0.011005165 0.0090447542         2351 
 4616000   0.51320245   -8.4136972     608.4193  0.010983884 0.0090413923         2418 
 4617000   0.51726641   -8.4145982    608.66943   0.01098602 0.0090380302         2432 
 4618000   0.50405728   -8.4092449    607.93385  0.010970367 0.0090346693         2420 
 4619000   0.52005706   -8.4113473    607.47675  0.010959745 0.0090313112         2388 
 4620000   0.51228043   -8.3950188     608.2556  0.010971421 0.0090279514         2371 
 4621000    0.5160061   -8.4021367    608.67083  0.010976535 0.0090245978         2419 
 4622000   0.50852877   -8.4324961     608.1979  0.010965634 0.0090212408         2417 
 4623000   0.51491117    -8.431965    609.12866  0.010980039  0.009017888         2383 
 4624000   0.50709399   -8.4204111     608.9289  0.010974065  0.009014538         2451 
 4625000    0.5170559   -8.4013762    609.15191   0.01097571 0.0090111891         2360 
 4626000    0.5082241   -8.3941353    607.80957  0.010949156 0.0090078425         2334 
 4627000   0.51313042   -8.4101152    609.17322   0.01097135 0.0090044942         2440 
 4628000   0.51244329   -8.4031027    608.32605  0.010953725 0.0090011501         2442 
 4629000   0.50164029   -8.4148309    608.80823  0.010960039 0.0089978075         2420 
 4630000   0.49717437   -8.4164914    607.72079  0.010938099 0.0089944648         2356 
 4631000   0.51930629   -8.4060118    609.10929  0.010960723 0.0089911264         2391 
 4632000   0.51916075   -8.4314975    608.63025  0.010949738 0.0089877891         2402 
 4633000   0.51071336   -8.4281069     608.8333  0.010951027 0.0089844541         2433 
 4634000    0.5064665    -8.419619    608.35694  0.010940098  0.008981123         2463 
 4635000   0.50294126   -8.4188054    607.86949  0.010928973 0.0089777889         2434 
 4636000    0.5030958   -8.4045257    609.46003  0.010955206 0.0089744596         2331 
 4637000   0.51158838    -8.420304    608.92864  0.010943294 0.0089711304         2398 
 4638000   0.50470101    -8.411945    608.90815  0.010940566 0.0089678011         2401 
 4639000   0.50556013    -8.416395    609.13783  0.010942334 0.0089644767         2437 
 4640000   0.52206595   -8.4128341    608.56856  0.010929752 0.0089611508         2454 
 4641000   0.51452712   -8.4222545    608.15845  0.010920033 0.0089578281         2349 
 4642000   0.50611941   -8.4142585    608.44146  0.010922761 0.0089545078         2367 
 4643000   0.50671337   -8.4190311    609.04235  0.010931193 0.0089511922         2390 
 4644000   0.50528081   -8.4170929    608.26961  0.010914973 0.0089478727         2427 
 4645000    0.5077756   -8.4233004    608.15343  0.010910539 0.0089445562         2415 
 4646000   0.49980038   -8.4026667    608.10375  0.010907299 0.0089412426         2389 
 4647000   0.50031261   -8.4068267    607.79111  0.010899346 0.0089379316         2435 
 4648000    0.5216992   -8.4100225    608.19782  0.010904293   0.00893462         2390 
 4649000   0.50974459   -8.4223537    608.29258  0.010903646 0.0089313119         2405 
 4650000   0.50439838    -8.415573    608.98809  0.010913765 0.0089280002         2475 
 4651000   0.49152802   -8.4079115    609.13323  0.010914019 0.0089246941         2366 
 4652000   0.50847751   -8.4258852    607.85854  0.010888839 0.0089213888         2457 
 4653000   0.49951493   -8.3981692    608.22655   0.01089309 0.0089180871         2406 
 4654000   0.51520595   -8.4105015    609.83541  0.010919557 0.0089147885         2373 
 4655000   0.48764776   -8.4172826      608.079  0.010885768 0.0089114862         2405 
 4656000    0.4991414   -8.4347255    607.35808  0.010870527 0.0089081865         2435 
 4657000   0.50551602   -8.4277603    608.32761  0.010885542 0.0089048881         2339 
 4658000   0.52135065   -8.4233059    608.83219  0.010892232 0.0089015946         2495 
 4659000   0.51188089   -8.4236399    608.20491  0.010878674 0.0088983013         2475 
 4660000   0.50374118   -8.4195285    608.45595  0.010880829 0.0088950087         2393 
 4661000   0.49563138   -8.4144354    608.66821  0.010882289 0.0088917217         2420 
 4662000   0.50352706   -8.4266852    608.18096  0.010871245 0.0088884334         2436 
 4663000   0.50528704   -8.4205495    608.58478  0.010876131 0.0088851453         2432 
 4664000   0.50121409   -8.4145673    608.31671  0.010869009 0.0088818597         2403 
 4665000   0.50352686   -8.4152451    608.53294  0.010870542 0.0088785748         2433 
 4666000   0.50508055   -8.4159431    607.57442  0.010851093 0.0088752922         2390 
 4667000    0.5054928   -8.4218654    608.24085  0.010860668  0.008872011         2436 
 4668000   0.49898535   -8.4178987    608.57045  0.010864225 0.0088687309         2388 
 4669000   0.50583539   -8.4233247    607.03965  0.010834576 0.0088654533         2473 
 4670000   0.51407004   -8.4166696    608.27248  0.010854255 0.0088621787         2451 
 4671000   0.50693194   -8.4149171    607.72678  0.010842196  0.008858906         2462 
 4672000   0.50782129   -8.4256353    608.03162  0.010845313  0.008855633         2454 
 4673000   0.49048956   -8.4212028    608.78544  0.010856435 0.0088523615         2419 
 4674000   0.50287483   -8.4117308    609.26571  0.010862675 0.0088490949         2383 
 4675000    0.5007529   -8.4195001    608.60792  0.010848626  0.008845825         2480 
 4676000   0.49704274   -8.4227588    608.65976   0.01084723 0.0088425563         2466 
 4677000    0.4995956   -8.4280408    607.50905  0.010824408 0.0088392923         2427 
 4678000   0.49793825   -8.4192684    607.94689  0.010829893 0.0088360256         2398 
 4679000    0.5047906   -8.4211455    607.78037  0.010824613 0.0088327657         2424 
 4680000   0.50621807    -8.427231    607.53744  0.010817974 0.0088295058         2396 
 4681000   0.50777858   -8.4210964    608.05927  0.010824953 0.0088262476         2469 
 4682000   0.48957293   -8.4329479    607.84626   0.01081885 0.0088229909         2420 
 4683000   0.50213862    -8.434543    607.84661  0.010816546 0.0088197362         2396 
 4684000   0.49610749   -8.4181769     609.2535  0.010839267 0.0088164824         2380 
 4685000   0.51050099   -8.4249797    607.13838  0.010799331 0.0088132293         2368 
 4686000   0.51486617    -8.425333    607.69777  0.010806974 0.0088099786         2436 
 4687000   0.49005813   -8.4312885    608.92459  0.010826481  0.008806729         2480 
 4688000   0.50595122   -8.4259243    607.79954  0.010804173 0.0088034796         2461 
 4689000   0.49946264   -8.4304142    608.05094  0.010806336 0.0088002322         2448 
 4690000   0.50461891   -8.4284383    608.40538   0.01081033 0.0087969873         2380 
 4691000   0.50168561   -8.4359677    607.57246  0.010793229 0.0087937448         2382 
 4692000   0.49499277   -8.4226836    608.67519  0.010810514 0.0087905029         2411 
 4693000     0.506236    -8.422673    608.53723  0.010805761 0.0087872619         2421 
 4694000   0.50454966    -8.416732    608.13721  0.010796357 0.0087840245         2462 
 4695000   0.50155844   -8.4294487    608.49294  0.010800372 0.0087807858         2388 
 4696000   0.50694934   -8.4289007    607.89044   0.01078738 0.0087775482         2377 
 4697000   0.50490474   -8.4191959    607.33341  0.010775201 0.0087743151         2441 
 4698000   0.49872578      -8.4434    607.75064  0.010780308 0.0087710832         2482 
 4699000   0.49949121   -8.4236314    608.20553  0.010786081 0.0087678538         2466 
 4700000   0.50583959   -8.4292779    607.74185  0.010775565 0.0087646259         2445 
 4701000   0.50005592   -8.4282261    607.71068   0.01077272 0.0087614021         2438 
 4702000   0.50122692   -8.4363527    608.06724  0.010776748 0.0087581765         2413 
 4703000    0.4905099   -8.4349227    608.01818  0.010773587 0.0087549528         2389 
 4704000   0.50203595   -8.4270661    607.87548  0.010768769 0.0087517301         2483 
 4705000   0.50685265   -8.4330592     608.2571  0.010773239 0.0087485079         2327 
 4706000   0.49333545   -8.4285383    606.44034  0.010738779 0.0087452866         2422 
 4707000   0.50675984   -8.4360871     607.8919  0.010762196  0.008742068         2435 
 4708000   0.49771955   -8.4459785    609.54941  0.010789249 0.0087388491         2464 
 4709000   0.49976989   -8.4435898    607.50676   0.01075081 0.0087356343         2476 
 4710000   0.49937445   -8.4480364     608.1801  0.010760441 0.0087324174         2385 
 4711000   0.48897235    -8.433996    607.91102  0.010753397 0.0087292074         2409 
 4712000   0.50005352   -8.4245139      608.411  0.010759957 0.0087259956         2434 
 4713000   0.49783462   -8.4194296    608.16783  0.010753374 0.0087227889         2420 
 4714000   0.50183049   -8.4326822    608.10078  0.010749908 0.0087195831         2424 
 4715000   0.49328596    -8.424256    608.20232  0.010749422 0.0087163788         2468 
 4716000   0.50432822   -8.4380421    608.00852  0.010743719 0.0087131733         2413 
 4717000   0.50282153   -8.4334393    607.94315  0.010740286 0.0087099724         2482 
 4718000   0.48183097   -8.4320814    607.80232  0.010735522 0.0087067698         2471 
 4719000   0.48865917   -8.4330755    607.12514  0.010721289 0.0087035711         2479 
 4720000   0.49688305   -8.4252448    607.94099  0.010733421 0.0087003763         2395 
 4721000   0.49321318   -8.4180497    607.70556  0.010726992 0.0086971809         2409 
 4722000   0.49963364   -8.4513503    607.48945  0.010720907 0.0086939868         2352 
 4723000   0.49363044   -8.4465886    607.74099  0.010723075 0.0086907941         2386 
 4724000   0.49980941   -8.4357836    608.93554  0.010741877 0.0086876052         2391 
 4725000   0.48814106   -8.4175841    608.86801  0.010738413 0.0086844158         2307 
 4726000   0.49580814   -8.4355926    607.34214  0.010709235 0.0086812318         2404 
 4727000   0.50090892   -8.4305388     607.5401  0.010710459 0.0086780478         2445 
 4728000   0.50027996   -8.4181868    607.23854  0.010702879 0.0086748659         2386 
 4729000   0.48918978   -8.4303917     607.5853  0.010706726 0.0086716839         2399 
 4730000   0.49921178   -8.4330605    607.97211  0.010711277 0.0086685036         2437 
 4731000   0.49591541   -8.4394917    608.23396  0.010713626  0.008665322         2448 
 4732000   0.50030293   -8.4339938    608.09115  0.010708847 0.0086621434         2444 
 4733000   0.50480101     -8.44468    606.88995  0.010685435 0.0086589652         2456 
 4734000   0.48728665    -8.454408    607.73979  0.010698137  0.008655789         2304 
 4735000   0.50161431   -8.4423905    607.90833  0.010698844 0.0086526125         2379 
 4736000    0.4956348   -8.4502332    608.13137   0.01070051 0.0086494389         2422 
 4737000   0.49574507   -8.4389792    607.64411  0.010689679 0.0086462673         2441 
 4738000   0.50194177   -8.4232268    606.69285  0.010670692 0.0086430951         2382 
 4739000   0.49200251   -8.4496331    606.91876  0.010672413 0.0086399241         2401 
 4740000   0.49375108   -8.4453095    607.59963  0.010682131 0.0086367567         2417 
 4741000   0.50279049   -8.4265248    608.44626   0.01069476 0.0086335898         2395 
 4742000   0.49812483   -8.4477828    607.51749  0.010676183 0.0086304261         2424 
 4743000   0.49995706   -8.4322874    607.75172  0.010678047 0.0086272615         2401 
 4744000   0.48717958   -8.4419524    607.21109  0.010666299 0.0086241018         2427 
 4745000   0.49410976   -8.4452032    607.40995  0.010667544 0.0086209415         2461 
 4746000   0.50281689   -8.4511234    606.77273  0.010654108 0.0086177833         2402 
 4747000   0.49237298   -8.4557113    607.05987  0.010656904 0.0086146247         2400 
 4748000   0.49712738   -8.4284098    607.03044  0.010654143 0.0086114695         2370 
 4749000   0.48602755   -8.4285536    607.28208  0.010656315  0.008608316         2396 
 4750000   0.48947192   -8.4351726    608.37479  0.010673242 0.0086051657         2390 
 4751000   0.48150664   -8.4452809    608.74565    0.0106775 0.0086020166         2353 
 4752000   0.48333056   -8.4503322    607.27367   0.01064944 0.0085988685         2337 
 4753000   0.48598701   -8.4304316    607.55364  0.010652108 0.0085957207         2430 
 4754000   0.48433533   -8.4469963    607.03233  0.010640729 0.0085925762         2368 
 4755000   0.50191742   -8.4477124    607.96338  0.010654809 0.0085894308         2417 
 4756000   0.49768823   -8.4315169     607.9506  0.010652344 0.0085862885         2420 
 4757000   0.49216706   -8.4474002    607.28708  0.010638482   0.00858315         2434 
 4758000   0.48753227   -8.4495949    608.16579  0.010651636 0.0085800121         2415 
 4759000   0.50179837   -8.4409335    607.56904  0.010638948 0.0085768748         2416 
 4760000   0.48922503   -8.4475072    607.28475  0.010631736 0.0085737405         2465 
 4761000   0.48636535   -8.4445903     608.3855   0.01064877  0.008570605         2451 
 4762000   0.48550717   -8.4287456    607.79908  0.010636271 0.0085674714         2437 
 4763000   0.48292762   -8.4449932    607.51987  0.010629153 0.0085643409         2426 
 4764000   0.49530578   -8.4430799    606.30139  0.010605608 0.0085612113         2397 
 4765000   0.48545535   -8.4493702    607.44905  0.010623453 0.0085580827         2457 
 4766000   0.47992209   -8.4481047    608.43499  0.010638463  0.008554955         2480 
 4767000     0.495108   -8.4517383    607.22756  0.010615124 0.0085518303         2493 
 4768000   0.47981205   -8.4337086    607.35728  0.010615165 0.0085487081         2383 
 4769000   0.47812834   -8.4568351    606.69807   0.01060142 0.0085455833         2420 
 4770000   0.48960206   -8.4417465    607.11755  0.010606526 0.0085424589         2457 
 4771000   0.48202744   -8.4434037    606.28984  0.010589846 0.0085393399         2425 
 4772000   0.49457474   -8.4647225    607.21526  0.010603787 0.0085362203         2442 
 4773000   0.49372231    -8.436202    607.92877  0.010614023 0.0085331044         2415 
 4774000   0.48307733   -8.4409495    606.58367   0.01058832 0.0085299896         2389 
 4775000   0.48479143   -8.4492823    607.63691  0.010604484 0.0085268747         2456 
 4776000   0.48977964   -8.4637667    607.23054  0.010595173 0.0085237623         2466 
 4777000   0.48622697   -8.4460802    608.27363  0.010611151 0.0085206517         2427 
 4778000   0.49281429   -8.4451183    607.91485  0.010602673 0.0085175439         2369 
 4779000   0.48959654   -8.4331165    607.74024  0.010597409  0.008514437         2429 
 4780000   0.48998122   -8.4560019    607.07554  0.010583604 0.0085113323         2362 
 4781000   0.49578877   -8.4542707    607.95012  0.010596635 0.0085082273         2377 
 4782000   0.49072697   -8.4488116    607.55053  0.010587455 0.0085051226         2442 
 4783000   0.48719755   -8.4377721    607.94261  0.010592073 0.0085020202         2473 
 4784000   0.48417035   -8.4570068     607.7835  0.010587087 0.0084989196         2406 
 4785000    0.4900832   -8.4429306    607.13768  0.010573627 0.0084958218         2415 
 4786000   0.49303606   -8.4428725    606.82661  0.010566002 0.0084927228         2439 
 4787000    0.4924167   -8.4344491    608.27465  0.010589002 0.0084896284         2422 
 4788000   0.49177479   -8.4573444    607.07203   0.01056586 0.0084865345         2442 
 4789000   0.48337556   -8.4578649    606.94438  0.010561432  0.008483445         2460 
 4790000    0.4880079    -8.442719    606.96364  0.010559562 0.0084803557         2406 
 4791000   0.49126351   -8.4520402    606.82023  0.010554864 0.0084772665         2417 
 4792000   0.47654221   -8.4537159    607.11504  0.010557788 0.0084741783         2366 
 4793000   0.48875277   -8.4608225    607.91946  0.010569571 0.0084710891         2432 
 4794000   0.48190918   -8.4626536    607.49486  0.010559986 0.0084680025         2451 
 4795000   0.47711502   -8.4365549    607.94963  0.010565687 0.0084649182         2389 
 4796000   0.48581136   -8.4451806    607.48341  0.010555383 0.0084618358         2443 
 4797000   0.47895707   -8.4533277    606.10618  0.010529257 0.0084587568         2397 
 4798000   0.48048542   -8.4541165    607.30368  0.010547862 0.0084556767         2339 
 4799000   0.48050794    -8.454365     607.4865  0.010548838    0.0084526         2386 
 4800000   0.47815352    -8.434966    607.76022  0.010551393 0.0084495251         2405 
 4801000    0.4853196   -8.4589822    607.70289    0.0105482 0.0084464483         2420 
 4802000   0.48445776   -8.4474368    606.58315  0.010526571 0.0084433757         2455 
 4803000   0.47054411   -8.4381141    606.95911  0.010530903 0.0084403034         2402 
 4804000    0.4804346   -8.4569272    607.76739  0.010542732 0.0084372338         2492 
 4805000   0.47475638   -8.4631274    606.96312  0.010526589 0.0084341642         2393 
 4806000   0.48570211   -8.4530589    607.09875   0.01052675 0.0084310974         2424 
 4807000   0.48756372   -8.4501263    606.83474  0.010519984  0.008428031         2376 
 4808000   0.47365989   -8.4450667    607.27373  0.010525404 0.0084249658         2465 
 4809000   0.48538235   -8.4638774    607.21519  0.010522201 0.0084219037         2395 
 4810000   0.47313316   -8.4446251    607.40358  0.010523278 0.0084188419         2469 
 4811000   0.48809317   -8.4570454    608.20787  0.010535022 0.0084157811         2389 
 4812000   0.47602763   -8.4565497    607.06608  0.010513059 0.0084127231         2366 
 4813000   0.48826066   -8.4437372     607.1039  0.010511529 0.0084096653         2443 
 4814000   0.47597154   -8.4563409    606.90949  0.010505981 0.0084066112         2433 
 4815000   0.47529001   -8.4535844    606.91905  0.010503964 0.0084035567         2423 
 4816000   0.48338723   -8.4733447    607.40747  0.010510234 0.0084005032         2401 
 4817000   0.48462148   -8.4734116     607.0571  0.010501991 0.0083974521         2431 
 4818000   0.48416438   -8.4516046    607.19395  0.010502178 0.0083943981         2459 
 4819000   0.46962385   -8.4610739    606.71172   0.01049166 0.0083913487         2415 
 4820000   0.47952461   -8.4543049    606.83385  0.010491595 0.0083883002         2456 
 4821000   0.48057667   -8.4505182    607.18452   0.01049548 0.0083852531         2440 
 4822000   0.48820541   -8.4458728    606.91867  0.010488709 0.0083822096         2342 
 4823000   0.48163114   -8.4800564    606.61869  0.010481351 0.0083791636         2389 
 4824000   0.48645194   -8.4579316    607.14149   0.01048821 0.0083761211         2390 
 4825000   0.47793478    -8.456135     607.3223  0.010489159   0.00837308         2419 
 4826000   0.48214342   -8.4528138    606.79299  0.010477846  0.008370039         2395 
 4827000   0.47886261   -8.4617376    607.17264  0.010482229 0.0083670013         2440 
 4828000   0.47525228   -8.4591436    607.10891  0.010478958 0.0083639666         2441 
 4829000   0.48078911   -8.4515896    606.95334  0.010474103 0.0083609335         2416 
 4830000   0.47568922   -8.4528055     608.5511  0.010499501  0.008357901         2416 
 4831000   0.48437361    -8.460549    606.86447  0.010468234 0.0083548671         2366 
 4832000   0.48281652   -8.4502952    607.16495   0.01047125   0.00835184         2372 
 4833000   0.47254154   -8.4641926    607.01794  0.010466548 0.0083488137         2448 
 4834000   0.47483893   -8.4430231    606.85016  0.010461491 0.0083457862         2398 
 4835000   0.48026197   -8.4632613    605.71524  0.010439766 0.0083427597         2387 
 4836000   0.46880004   -8.4509481    606.20979   0.01044613 0.0083397335         2429 
 4837000   0.47045124   -8.4698369    607.53256  0.010466759 0.0083367123         2417 
 4838000   0.47707218   -8.4548876    607.23695  0.010459504 0.0083336892         2373 
 4839000   0.47573982   -8.4656928    607.08188  0.010454672 0.0083306702         2405 
 4840000   0.47316918   -8.4799072    606.28545  0.010438799 0.0083276513         2460 
 4841000   0.48411091   -8.4633065    606.59896  0.010442039 0.0083246348         2409 
 4842000   0.47633933   -8.4586624    606.35028  0.010435603 0.0083216201         2442 
 4843000   0.48198999   -8.4657181    607.46047  0.010452551 0.0083186044         2468 
 4844000   0.48574506   -8.4593322    607.32007  0.010447978 0.0083155923         2439 
 4845000   0.47608628   -8.4674827    607.78376  0.010453797 0.0083125816         2450 
 4846000   0.46763979   -8.4714322    607.22472  0.010442026   0.00830957         2386 
 4847000   0.47824633   -8.4778614    606.32927  0.010424477 0.0083065597         2396 
 4848000   0.47550087   -8.4647956    607.27147  0.010438522  0.008303552         2400 
 4849000   0.47889624   -8.4661414    605.80141  0.010411105 0.0083005436         2438 
 4850000   0.47973613    -8.474139    606.41635  0.010419525  0.008297539         2428 
 4851000   0.47813837    -8.471254    606.27243  0.010414905 0.0082945375         2389 
 4852000   0.48346084   -8.4687867    606.81299  0.010422042 0.0082915359         2426 
 4853000   0.47714418   -8.4653214    606.45593  0.010413763 0.0082885349         2463 
 4854000   0.47426802   -8.4751102    606.56711  0.010413527  0.008285537         2446 
 4855000    0.4724291   -8.4713296    608.15044  0.010438559 0.0082825394         2389 
 4856000   0.47023342    -8.445184    607.24094  0.010420801  0.008279545         2425 
 4857000   0.47950555   -8.4745731    606.49217  0.010405809 0.0082765508         2426 
 4858000   0.47307164   -8.4620579    605.87312  0.010393048 0.0082735559         2434 
 4859000   0.47400858   -8.4703801    606.11708  0.010395093 0.0082705652         2422 
 4860000   0.47689071   -8.4626216    606.95787  0.010407371 0.0082675748         2409 
 4861000   0.48018222   -8.4750137    606.45262  0.010396568 0.0082645851         2398 
 4862000   0.47846139   -8.4741364     606.2804  0.010391478  0.008261596         2397 
 4863000   0.47411804   -8.4704159     606.7693  0.010397719 0.0082586108         2385 
 4864000   0.47667805   -8.4603638     606.3622  0.010388607 0.0082556256         2441 
 4865000   0.46943177    -8.470329     606.6491  0.010391386 0.0082526398         2448 
 4866000   0.48440119   -8.4850112    607.25052   0.01039955 0.0082496573         2487 
 4867000   0.47522525    -8.463956    607.30252  0.010398304 0.0082466773         2417 
 4868000   0.47845774   -8.4551519    606.37938  0.010380365 0.0082436976         2432 
 4869000   0.47156598   -8.4735791    606.38997  0.010378414 0.0082407191         2460 
 4870000   0.46992592   -8.4729548    606.70479   0.01038167 0.0082377421         2485 
 4871000   0.48092006   -8.4702493    606.69625  0.010379392 0.0082347657         2426 
 4872000   0.47426815   -8.4670071    606.23362  0.010369349 0.0082317925         2420 
 4873000   0.47341009   -8.4722008     605.6016  0.010356413 0.0082288215         2435 
 4874000   0.46888714   -8.4749587    606.14189  0.010363526 0.0082258493         2394 
 4875000   0.47009456   -8.4726963    606.58303  0.010368941 0.0082228791         2409 
 4876000   0.47853117   -8.4742529     606.6182  0.010367415 0.0082199111         2425 
 4877000   0.47317829   -8.4679697    605.76343  0.010350684 0.0082169442         2429 
 4878000   0.47063374   -8.4811819    606.56473  0.010362251 0.0082139802         2428 
 4879000   0.46738473   -8.4710905    606.76128  0.010363484 0.0082110146         2473 
 4880000     0.476008   -8.4736898     606.8557  0.010362973 0.0082080554         2381 
 4881000   0.48492855   -8.4567749     605.9342  0.010345117  0.008205095         2431 
 4882000   0.47559125   -8.4756998    605.75051  0.010339863 0.0082021356         2409 
 4883000   0.45928795   -8.4797343    606.59776  0.010352204 0.0081991757         2470 
 4884000   0.47605745   -8.4746132    606.51897   0.01034874 0.0081962177         2473 
 4885000     0.464185   -8.4748463    607.00103  0.010354845 0.0081932615         2425 
 4886000   0.47402934   -8.4682434     607.2736  0.010357375 0.0081903104         2399 
 4887000   0.46264007   -8.4767187    606.01452  0.010333786 0.0081873595         2400 
 4888000   0.47444379   -8.4792585    606.21321  0.010335059 0.0081844069         2474 
 4889000   0.47657747    -8.467674    606.16734  0.010332163 0.0081814594         2503 
 4890000   0.46202642   -8.4905521    606.19396  0.010330504 0.0081785111         2481 
 4891000   0.47023516     -8.48015     606.3589  0.010331202 0.0081755635         2414 
 4892000   0.47138321   -8.4812458    606.31762  0.010328387 0.0081726161         2458 
 4893000   0.45587383   -8.4801432    605.38542  0.010310399 0.0081696702         2465 
 4894000   0.46642548   -8.4784913    605.33378  0.010307414 0.0081667262         2501 
 4895000   0.46500463   -8.4668947     605.0792  0.010300974 0.0081637839         2477 
 4896000   0.46944649   -8.4788687    605.60802  0.010307871 0.0081608449         2420 
 4897000   0.48216594   -8.4827578    606.14953  0.010314981 0.0081579056         2422 
 4898000   0.47475122   -8.4837185    606.43565  0.010317743  0.008154968         2409 
 4899000   0.46441346   -8.4761749    606.59365  0.010318324 0.0081520299         2481 
 4900000   0.46853704   -8.4672729     606.5798  0.010315983 0.0081490958         2432 
 4901000   0.47353654    -8.478273    606.20512  0.010307507 0.0081461641         2405 
 4902000   0.45892492   -8.4770943    606.10535  0.010303708 0.0081432338         2403 
 4903000   0.46919982   -8.4742577    606.76155   0.01031276 0.0081403043         2373 
 4904000   0.46353562   -8.4749959    607.00656  0.010314821 0.0081373775         2437 
 4905000   0.46923563   -8.4726674    606.57834  0.010305442 0.0081344507         2489 
 4906000   0.47140817   -8.4630804    606.20288  0.010296964 0.0081315251         2379 
 4907000   0.46392605   -8.4727898    607.04479  0.010309164 0.0081286023         2462 
 4908000   0.47156558    -8.480538    606.68725  0.010300992 0.0081256794         2420 
 4909000   0.46896124   -8.4815039    607.49955  0.010312683   0.00812276         2441 
 4910000   0.46301098   -8.4884316    607.39048  0.010308732 0.0081198396         2409 
 4911000   0.47014447   -8.4709919    606.80376  0.010296677 0.0081169195         2421 
 4912000   0.46960115   -8.4850914    605.78744  0.010277338 0.0081140006         2456 
 4913000   0.46371534   -8.4716166    606.53595  0.010287943 0.0081110823         2467 
 4914000   0.47101477    -8.480478    606.03174  0.010277299 0.0081081689         2424 
 4915000   0.47632718   -8.5030293    605.70362  0.010269644 0.0081052541         2453 
 4916000   0.46642568   -8.4814407    605.49672  0.010264048 0.0081023433         2533 
 4917000   0.47166619   -8.4900746    606.12569   0.01027262  0.008099432         2436 
 4918000   0.45742013    -8.474617    605.51872  0.010260247 0.0080965203         2460 
 4919000   0.47241106   -8.4905891    605.80084   0.01026294  0.008093612         2421 
 4920000   0.46689131   -8.4972107    604.67923  0.010241857 0.0080907058         2487 
 4921000   0.46143473   -8.4776325    604.73559   0.01024073    0.0080878         2520 
 4922000   0.47016105   -8.4818901      606.226  0.010263883  0.008084895         2482 
 4923000   0.46211335   -8.4881081    606.29161  0.010262909 0.0080819929         2411 
 4924000   0.46096833    -8.494568    606.10618  0.010257687 0.0080790904         2460 
 4925000    0.4638825   -8.4808483    606.98703  0.010270508 0.0080761903         2436 
 4926000   0.46219228   -8.4765417    605.94106  0.010250728 0.0080732915         2409 
 4927000   0.45959699   -8.4939477    605.00034  0.010232737 0.0080703955         2486 
 4928000   0.46227829   -8.4833312    607.24523  0.010268622 0.0080674989         2413 
 4929000   0.45895811   -8.4869908    607.41781  0.010269456 0.0080646053         2420 
 4930000   0.46246696   -8.4865721    606.27862  0.010248117 0.0080617114         2456 
 4931000   0.46463075   -8.4902862    605.27873  0.010229141 0.0080588209         2525 
 4932000   0.47431087   -8.4884953    606.29486  0.010244236 0.0080559322         2416 
 4933000     0.458478   -8.4983618    605.88434  0.010235224 0.0080530437         2462 
 4934000   0.46537415   -8.4913114    606.26822  0.010239634 0.0080501577         2502 
 4935000   0.46584021   -8.4699985    606.41467  0.010240032 0.0080472742         2435 
 4936000   0.46221281    -8.483153    606.16523  0.010233746 0.0080443919         2377 
 4937000   0.47089679   -8.4923593     606.0613  0.010229919 0.0080415101         2504 
 4938000   0.47095906   -8.4941088    606.69994  0.010238625 0.0080386273         2451 
 4939000   0.45508445   -8.4810881    606.77745  0.010237859 0.0080357478         2448 
 4940000   0.45754156   -8.4919752    606.11141  0.010224551 0.0080328697         2478 
 4941000   0.45965195   -8.4807246    606.04555  0.010221371 0.0080299934         2418 
 4942000   0.46636842   -8.4878952    606.11256  0.010220433 0.0080271163         2443 
 4943000   0.46014915   -8.4902062    605.57254  0.010209261 0.0080242397         2420 
 4944000   0.45155168   -8.4713405    606.09868  0.010216065 0.0080213645         2482 
 4945000   0.45930866   -8.4824305    605.64679  0.010206383 0.0080184938         2382 
 4946000   0.45630829   -8.4886193    604.95851  0.010192723 0.0080156241         2504 
 4947000   0.46218624    -8.486322    606.20865  0.010211722 0.0080127551         2462 
 4948000   0.45638199   -8.4778133    606.29189   0.01021106  0.008009885         2451 
 4949000   0.46705642   -8.4934537    606.10018  0.010205768 0.0080070167         2387 
 4950000   0.46450929   -8.4952696    606.04506  0.010202779 0.0080041495         2427 
 4951000   0.45844707   -8.4784017    605.78441  0.010196331 0.0080012864         2433 
 4952000   0.45731757   -8.4903127    605.29194  0.010185984 0.0079984238         2473 
 4953000   0.46027773   -8.4800675    605.39844   0.01018572 0.0079955616         2411 
 4954000     0.453567    -8.493543    606.31921  0.010199152 0.0079927026         2457 
 4955000   0.45537457    -8.494624    606.70658  0.010203609 0.0079898432         2416 
 4956000   0.46136749   -8.5037573    605.75082  0.010185479 0.0079869835         2412 
 4957000   0.45803555   -8.4937675    606.09007  0.010189128 0.0079841276         2498 
 4958000   0.46614187   -8.5036759    605.95794  0.010184852 0.0079812743         2504 
 4959000   0.46402093   -8.4787183    604.89566  0.010164947 0.0079784197         2480 
 4960000    0.4633338   -8.4967782    605.09492  0.010166245 0.0079755668         2436 
 4961000   0.46282699   -8.4955459    606.30258  0.010184482 0.0079727155         2456 
 4962000    0.4527991   -8.5090664    605.72292  0.010172695 0.0079698642         2467 
 4963000   0.44834978   -8.4820385    605.72247  0.010170637 0.0079670144         2493 
 4964000   0.46430313   -8.4811824    605.95397  0.010172475 0.0079641677         2458 
 4965000   0.45949865   -8.5003246    606.19585  0.010174485 0.0079613215         2524 
 4966000    0.4590228   -8.4960964    605.75255  0.010164998 0.0079584777         2428 
 4967000   0.45266747   -8.4963997    605.73353  0.010162632 0.0079556362         2433 
 4968000   0.45234251   -8.4830786    605.42686  0.010155443 0.0079527969         2415 
 4969000   0.46753603   -8.4845329    606.20373  0.010166427  0.007949957         2433 
 4970000   0.46359682   -8.4863491    605.59173   0.01015412  0.007947118         2477 
 4971000   0.45604127   -8.4834403    606.42219  0.010165999 0.0079442798         2427 
 4972000   0.45519716   -8.4983171    605.88634  0.010154973  0.007941444         2377 
 4973000   0.45718816   -8.5084489    605.73944   0.01015047 0.0079386094         2456 
 4974000   0.45161078   -8.5026222    605.93809  0.010151757 0.0079357739         2477 
 4975000   0.46449082   -8.4963304     605.1338  0.010136245 0.0079329434         2464 
 4976000   0.45117388   -8.5053549    606.87179  0.010163314 0.0079301131         2455 
 4977000   0.46473229   -8.4842175    606.55244  0.010155925 0.0079272843         2478 
 4978000   0.46667519   -8.4855435    606.31072  0.010149838 0.0079244571         2468 
 4979000    0.4470963   -8.4909194    605.89136  0.010140781 0.0079216313         2429 
 4980000    0.4589653   -8.4871596    605.73122  0.010136065 0.0079188061         2480 
 4981000   0.45506254   -8.4850724     605.6105   0.01013201 0.0079159813         2404 
 4982000   0.45996398   -8.4846422    606.62704   0.01014698 0.0079131588         2521 
 4983000   0.46012178   -8.5038537    605.52275  0.010126476 0.0079103377         2417 
 4984000   0.44676311    -8.495086     606.1424  0.010134805 0.0079075183         2443 
 4985000   0.45219362   -8.4996487    605.50727  0.010122154  0.007904698         2422 
 4986000   0.44848691    -8.504198     605.1534   0.01011421 0.0079018811         2434 
 4987000   0.45479582   -8.4948489    605.01295  0.010109835 0.0078990649         2465 
 4988000   0.45641129   -8.5117323    606.02373  0.010124695 0.0078962504         2433 
 4989000   0.44877059   -8.4871716     606.2701  0.010126781 0.0078934395         2547 
 4990000   0.44876038   -8.4989098    606.15306  0.010122797 0.0078906291         2496 
 4991000   0.45227924   -8.4944961    605.40528  0.010108283 0.0078878187         2485 
 4992000   0.45768845   -8.4951786    604.55364  0.010092041 0.0078850109         2518 
 4993000   0.45055008    -8.486211    605.43252  0.010104689 0.0078822039         2436 
 4994000   0.45998442   -8.4904304    604.84588  0.010092876 0.0078793969         2479 
 4995000   0.45410715   -8.4978823    606.12529    0.0101122  0.007876591         2453 
 4996000   0.45562938   -8.5090225    606.70383  0.010119826 0.0078737877         2433 
 4997000   0.45228772   -8.4960814    605.90543  0.010104487 0.0078709838         2520 
 4998000   0.45366776   -8.5030764     604.9368  0.010086315 0.0078681818         2438 
 4999000   0.44266622   -8.5164718    606.15783  0.010104651 0.0078653818         2435 
 5000000   0.44185125   -8.4957084    605.28487  0.010088081 0.0078625831         2402 
 5001000    0.4546712   -8.5093762    605.98398  0.010097713 0.0078597868         2467 
 5002000   0.45923136    -8.497895    604.67667  0.010073915 0.0078569896         2416 
 5003000   0.44853275   -8.4996044    605.32939  0.010082774 0.0078541941         2480 
 5004000   0.45354571   -8.5103389      605.729  0.010087413 0.0078514009         2455 
 5005000    0.4526678    -8.494812    605.36858  0.010079397 0.0078486071         2438 
 5006000   0.44416065   -8.4986908    604.89783  0.010069547 0.0078458143         2467 
 5007000   0.44368168   -8.4978784    605.08226  0.010070605 0.0078430232         2414 
 5008000   0.45540858   -8.5061605    604.50642  0.010059012 0.0078402371         2421 
 5009000   0.45624337   -8.4918368      605.858   0.01007949 0.0078374496         2450 
 5010000   0.45856415   -8.5063034    605.24813  0.010067334  0.007834666         2455 
 5011000   0.45522351   -8.4978902    605.68895  0.010072656 0.0078318812         2431 
 5012000    0.4494137   -8.5083229    605.02255  0.010059566 0.0078290983         2471 
Loop time of 13356.8 on 48 procs for 5000000 steps with 4000 atoms

Performance: 64686.097 tau/day, 374.341 timesteps/s
99.4% CPU use with 48 MPI tasks x no OpenMP threads

MPI task timing breakdown:
Section |  min time  |  avg time  |  max time  |%varavg| %total
---------------------------------------------------------------
Pair    | 965.69     | 1095.7     | 1206.9     | 153.0 |  8.20
Neigh   | 92.363     | 96.321     | 101.13     |  17.8 |  0.72
Comm    | 806.27     | 944.65     | 1099       | 187.3 |  7.07
Output  | 17.604     | 17.609     | 17.716     |   0.4 |  0.13
Modify  | 11002      | 11067      | 11120      |  29.8 | 82.85
Other   |            | 136        |            |       |  1.02

Nlocal:        83.3333 ave          90 max          78 min
Histogram: 8 5 2 6 3 9 6 5 2 2
Nghost:        2435.67 ave        2451 max        2420 min
Histogram: 4 3 5 4 7 6 7 7 1 4
Neighs:        17002.7 ave       19744 max       14758 min
Histogram: 4 9 6 4 5 3 5 5 3 4
FullNghs:      34004.9 ave       36920 max       31524 min
Histogram: 4 7 4 6 3 5 9 7 2 1

Total # of neighbors = 1632236
Ave neighs/atom = 408.05900
Neighbor list builds = 266398
Dangerous builds = 0

#clear
#
#next RN
#
#jump SELF
Total wall time: 3:42:40
