
units lj                  # Use reduced LJ style units
atom_style atomic         # Uncharged point particles
atom_modify map hash      # Needed for indexing of clusters etc
                          # Used to be able to find where atoms are in relation to each other.

lattice fcc 1.0 spacing 1 1 1
Lattice spacing in x,y,z = 1.5874011 1.5874011 1.5874011
region box block 0 10 0 10 0 10 units lattice
create_box 2 box
Created orthogonal box = (0.0000000 0.0000000 0.0000000) to (15.874011 15.874011 15.874011)
  3 by 4 by 4 MPI processor grid
create_atoms 1 box
Created 4000 atoms
  using lattice units in orthogonal box = (0.0000000 0.0000000 0.0000000) to (15.874011 15.874011 15.874011)
  create_atoms CPU = 0.002 seconds
set type 1 type/fraction 2 0.27 78393
Setting atom values ...
  1113 settings made for type/fraction
mass 1 1.0
mass 2 1.0
pair_style lj/cut  3.5
pair_modify tail  yes
pair_coeff 1  1  1.0  1.0   # Intearaction between 1 and 1 set with epsilon = 1 and sigma = 1
pair_coeff 1  2  1.5  0.8
pair_coeff 2  2  0.5  0.88

write_data data.0
System init for write_data ...
Neighbor list info ...
  update every 1 steps, delay 10 steps, check yes
  max neighbors/atom: 2000, page size: 100000
  master list distance cutoff = 3.8
  ghost atom cutoff = 3.8
  binsize = 1.9, bins = 9 9 9
  1 neighbor lists, perpetual/occasional/extra = 1 0 0
  (1) pair lj/cut, perpetual
      attributes: half, newton on
      pair build: half/bin/atomonly/newton
      stencil: half/bin/3d
      bin: standard
WARNING: Not all mixed pair coeffs generated from mixing. Use write_data with 'pair ij' option to store all pair coeffs. (../write_data.cpp:312)


#############################
#   M E L T   S Y S T E M   #
#############################

velocity all create 2.4 5833274 mom yes dist gaussian # Assign velocities
                                                    # Temperature 2.4, random number seed, zero linear momentum
                                                                                # Gaussian distribution

timestep 0.002   # simulation timestep
thermo 1000       # output thermodynamic data every 1000 steps bf 100

# Define a fix  in this case with index 1 applied to all
# particles in the simulation. This fix is for simulations
# in the anisotropic NPT ensemble. Note that we use the MTK
# correction.
fix 1 all npt temp 2.4 2.4 0.1 iso 5.68 5.68 0.5 mtk yes tchain 5 pchain 5 # Use NPT ensemble
                                                                         # Set temperature and pressure and damping
                                                                         # Numbers of thermostats in chain and in barostat
run 10000          # run for 10000 steps
Per MPI rank memory allocation (min/avg/max) = 3.642 | 3.644 | 3.648 Mbytes
Step Temp E_pair E_mol TotEng Press Volume 
       0          2.4   -6.6079615            0   -3.0088615   -3.8965289         4000 
    1000    2.4032385   -4.8791348            0   -1.2751783     5.864575    4260.7715 
    2000    2.4288719   -4.9431264            0   -1.3007295    5.9212363    4227.4329 
    3000    2.4039651   -4.9749218            0   -1.3698756     5.385471    4251.7303 
    4000    2.4250231   -4.8809622            0   -1.2443369    5.7044909    4279.2336 
    5000    2.3486287    -4.885789            0   -1.3637268    5.7684799    4262.9522 
    6000    2.4372207   -4.8824331            0    -1.227516     5.931869    4248.1211 
    7000    2.3887876   -4.9137521            0   -1.3314664    5.8472861     4246.163 
    8000    2.3924791    -4.996669            0   -1.4088476    5.6584389    4211.9766 
    9000    2.4156137   -4.8728357            0   -1.2503211    5.5035471    4303.2185 
   10000    2.3711953   -4.9556415            0   -1.3997377    5.8703212    4219.3403 
Loop time of 2.38298 on 48 procs for 10000 steps with 4000 atoms

Performance: 725142.096 tau/day, 4196.424 timesteps/s
99.4% CPU use with 48 MPI tasks x no OpenMP threads

MPI task timing breakdown:
Section |  min time  |  avg time  |  max time  |%varavg| %total
---------------------------------------------------------------
Pair    | 1.0153     | 1.0933     | 1.1467     |   2.9 | 45.88
Neigh   | 0.19693    | 0.20803    | 0.22319    |   1.0 |  8.73
Comm    | 0.73633    | 0.80625    | 0.89011    |   3.9 | 33.83
Output  | 0.00023923 | 0.00024424 | 0.00031123 |   0.0 |  0.01
Modify  | 0.22659    | 0.25996    | 0.28164    |   3.0 | 10.91
Other   |            | 0.01522    |            |       |  0.64

Nlocal:        83.3333 ave          93 max          74 min
Histogram: 3 3 3 5 9 10 7 4 3 1
Nghost:        1584.12 ave        1615 max        1555 min
Histogram: 2 1 6 8 7 9 8 3 3 1
Neighs:        9039.17 ave       10290 max        7648 min
Histogram: 3 3 3 3 8 8 6 8 4 2

Total # of neighbors = 433880
Ave neighs/atom = 108.47000
Neighbor list builds = 898
Dangerous builds = 147

# Equilibrate just above the melting temperature to avoid step fn in T

fix 1 all npt temp 1.25 1.25 0.1 iso 5.68 5.68 0.5 mtk yes tchain 5 pchain 5
run 2000
Per MPI rank memory allocation (min/avg/max) = 3.643 | 3.645 | 3.649 Mbytes
Step Temp E_pair E_mol TotEng Press Volume 
   10000    2.3711953   -4.9556415            0   -1.3997377    5.8703212    4219.3403 
   11000    1.2403713   -6.7558854            0   -4.8957937      5.75717    3430.6198 
   12000    1.2336567   -6.8257172            0   -4.9756948    5.6057418    3414.3502 
Loop time of 0.566883 on 48 procs for 2000 steps with 4000 atoms

Performance: 609649.912 tau/day, 3528.067 timesteps/s
99.6% CPU use with 48 MPI tasks x no OpenMP threads

MPI task timing breakdown:
Section |  min time  |  avg time  |  max time  |%varavg| %total
---------------------------------------------------------------
Pair    | 0.23222    | 0.26835    | 0.30706    |   2.9 | 47.34
Neigh   | 0.034916   | 0.038448   | 0.043496   |   0.9 |  6.78
Comm    | 0.16587    | 0.20979    | 0.24925    |   3.7 | 37.01
Output  | 5.2526e-05 | 5.3827e-05 | 6.6462e-05 |   0.0 |  0.01
Modify  | 0.042694   | 0.04543    | 0.04845    |   0.7 |  8.01
Other   |            | 0.004811   |            |       |  0.85

Nlocal:        83.3333 ave          96 max          75 min
Histogram: 3 9 2 10 9 8 4 1 1 1
Nghost:        1826.10 ave        1864 max        1792 min
Histogram: 2 1 7 7 10 9 7 1 3 1
Neighs:        11186.1 ave       13428 max        9594 min
Histogram: 2 5 6 7 15 6 5 1 0 1

Total # of neighbors = 536932
Ave neighs/atom = 134.23300
Neighbor list builds = 140
Dangerous builds = 7

#############################
# L I N E A R  Q U E N C H  #
#############################

# Define solid atoms. This closely follows ten Wolde  Ruiz-Montero and Frenkel  Faraday Discuss  1996  104  93-110
# Compute components of the per-atom q6 vector
compute q6 all orientorder/atom degrees 1 6 components 6 nnn NULL cutoff 1.3 # compute the Q6 parameter.
                                                                             # Use all neighbours within 1.3 unit cell.

# get number of connections
compute coord_number all coord/atom orientorder q6 0.5

# An atom is solid if it has 8 or more connections (of a possible 14)
variable is_solid atom c_coord_number>=8
group solid dynamic all var is_solid    # Must be dynamic to update
dynamic group solid defined

# do clustering
compute cluster solid cluster/atom 1.3 # Create a cluster where all atoms within are solid and max 1.3 units from another member

# define chunks one chunk per cluster
compute clus_chunks solid chunk/atom c_cluster nchunk every compress yes  # Says which atoms are in which chunk

# count the size of each chunk
compute size_chunks solid property/chunk clus_chunks count


# Find the maximum entry in the vector of chunk sizes
variable max_n equal max(c_size_chunks)


# Thermo style which includes this variable
# thermo_style custom step temp pe vol v_max_n

thermo ${N}  # Print the thermo information every 100 steps
thermo 1000  

# Reset the npt fix at a lower temperature (below freezing)
fix 1  all npt temp  ${temp} ${temp}  0.1  iso  5.68  5.68  0.5  mtk yes tchain  5  pchain  5
fix 1  all npt temp  0.45 ${temp}  0.1  iso  5.68  5.68  0.5  mtk yes tchain  5  pchain  5
fix 1  all npt temp  0.45 0.45  0.1  iso  5.68  5.68  0.5  mtk yes tchain  5  pchain  5

dump dmp2 all dcd ${N} traj.dcd
dump dmp2 all dcd 1000 traj.dcd


compute msd all msd com yes
variable twopoint equal c_msd[4]/6/(step*dt+1.0e-6)
fix 9 all vector 10 c_msd[4]
variable fit equal slope(f_9)/6/(10*dt)
thermo_style custom step temp pe c_msd[4] v_twopoint v_fit v_max_n

fix 1 all npt temp 1.25 ${temp} 0.1 iso 5.68 5.68 0.5 mtk yes tchain 5 pchain 5
fix 1 all npt temp 1.25 0.45 0.1 iso 5.68 5.68 0.5 mtk yes tchain 5 pchain 5
run 2000000 # 5000000  # Run for this many steps
Neighbor list info ...
  update every 1 steps, delay 10 steps, check yes
  max neighbors/atom: 2000, page size: 100000
  master list distance cutoff = 3.8
  ghost atom cutoff = 3.8
  binsize = 1.9, bins = 8 8 8
  4 neighbor lists, perpetual/occasional/extra = 1 3 0
  (1) pair lj/cut, perpetual
      attributes: half, newton on
      pair build: half/bin/atomonly/newton
      stencil: half/bin/3d
      bin: standard
  (2) compute orientorder/atom, occasional
      attributes: full, newton on
      pair build: full/bin/atomonly
      stencil: full/bin/3d
      bin: standard
  (3) compute coord/atom, occasional
      attributes: full, newton on
      pair build: full/bin/atomonly
      stencil: full/bin/3d
      bin: standard
  (4) compute cluster/atom, occasional
      attributes: full, newton on
      pair build: full/bin/atomonly
      stencil: full/bin/3d
      bin: standard
Per MPI rank memory allocation (min/avg/max) = 9.804 | 9.811 | 9.819 Mbytes
Step Temp PotEng c_msd[4] v_twopoint v_fit v_max_n 
   12000    1.2336567   -6.8257172 9.9179537e-31 6.8874676e-33 8.3333333e+20            2 
   13000    1.2798443   -6.7683533    0.5343062 0.0034250396  0.043944018            1 
   14000    1.2568908   -6.8044345    1.0376691 0.0061766016   0.04295297            2 
   15000    1.2243366   -6.8105076    1.5270608 0.0084836711  0.041711679            1 
   16000    1.2406537   -6.7906678    1.9495245  0.010153773   0.04062501            1 
   17000    1.2523925   -6.7875581    2.4475263  0.011997678  0.039633255            1 
   18000      1.25726   -6.7864244     2.950245  0.013658541  0.039825108            2 
   19000    1.2329049   -6.7766472    3.4843203  0.015282106  0.040288891            1 
   20000    1.2221228   -6.7941556    4.0005361    0.0166689  0.040749079            2 
   21000    1.2583037   -6.8008751    4.5114746  0.017902677  0.041120354            2 
   22000    1.2204465   -6.7702453     4.917488  0.018626848   0.04113268            1 
   23000    1.2424949   -6.7790894    5.4214865  0.019643067  0.040983168            1 
   24000     1.225884    -6.730945    5.9236865  0.020568356  0.040921174            3 
   25000    1.2530446   -6.7994717    6.3708054  0.021236018  0.040845698            2 
   26000    1.2605065   -6.7984796    6.8223561  0.021866525  0.040686779            4 
   27000    1.2398364   -6.7753198    7.2686333  0.022434053  0.040518418            4 
   28000     1.269404   -6.7840817    7.6872412  0.022878694  0.040348417            1 
   29000    1.2460322    -6.737144    8.1039588  0.023287237  0.040083616            1 
   30000    1.2401143   -6.7932741    8.6815479   0.02411541  0.039912091            4 
   31000    1.2634762   -6.8130094    9.2001156  0.024731493  0.039904328            1 
   32000    1.2681235   -6.8017074    9.5869565  0.024966032  0.039838329            1 
   33000    1.2536521   -6.8224771    10.011673  0.025282002  0.039708279            2 
   34000    1.2642486   -6.7830319    10.499763  0.025734713  0.039618818            1 
   35000    1.2555255   -6.8464093    10.925326   0.02601268  0.039531744            1 
   36000    1.2467086   -6.8146262    11.461671  0.026531646  0.039476625            4 
   37000    1.2159299   -6.8319514    11.907439  0.026818555  0.039449067            2 
   38000    1.2457503    -6.829635     12.42271  0.027242785  0.039427267            4 
   39000    1.2158037    -6.846533    12.889771  0.027542244  0.039425357            1 
   40000    1.2417969   -6.8294857    13.384718  0.027884828  0.039444614            2 
   41000    1.2220944   -6.7980846    13.899055  0.028250111  0.039435966            3 
   42000    1.2445725    -6.849402    14.261791  0.028297205  0.039444122            2 
   43000     1.210978   -6.8183589    14.804129  0.028690173  0.039446965            3 
   44000    1.2523935   -6.7933402    15.193347  0.028775278  0.039416455            1 
   45000    1.2365704   -6.8104187     15.69363  0.029062278   0.03938429            2 
   46000    1.2421659   -6.7636073    16.318361  0.029562249  0.039369709            1 
   47000    1.2431495   -6.8476544    16.729146  0.029661607  0.039407603            1 
   48000    1.2384639   -6.8303242     17.33258  0.030091285  0.039441709            1 
   49000    1.2330607   -6.8362054     17.80024  0.030272517  0.039476468            1 
   50000    1.2177424   -6.7665411    18.191942  0.030319903  0.039511888            1 
   51000    1.2426515   -6.8413651    18.646256  0.030467738  0.039519365            3 
   52000    1.2562396   -6.7899782    19.208277  0.030782496  0.039535274            1 
   53000     1.220041   -6.8316916    19.515845  0.030685291  0.039538182            2 
   54000    1.2082828   -6.8471163    19.846793  0.030627767  0.039514776            3 
   55000    1.2355309   -6.8563398    20.271013  0.030713655  0.039466656            1 
   56000    1.2581576   -6.8196285    20.821901  0.030984971  0.039422574            1 
   57000    1.2113309   -6.8320956    21.360131  0.031228262  0.039392827            2 
   58000    1.2100422    -6.834969    21.774686  0.031285468  0.039374085            2 
   59000    1.2434216   -6.8518145    22.252335  0.031429851    0.0393584            3 
   60000    1.2582731   -6.8522794    22.809389  0.031679706   0.03935112            2 
   61000     1.218042   -6.8109338    23.222028  0.031724082  0.039339484            1 
   62000    1.2524824   -6.8049705    23.793259  0.031980186  0.039326688            1 
   63000    1.2309057   -6.8198183    24.156938  0.031953622  0.039323063            2 
   64000    1.2149279    -6.793934    24.814218   0.03231018  0.039337749            9 
   65000    1.2425986    -6.846338    25.131204  0.032219492  0.039341771            2 
   66000    1.2428849   -6.8564285    25.494622  0.032190179   0.03932088            1 
   67000    1.2136581    -6.854674    25.907871   0.03222372  0.039281578            2 
   68000    1.2276042   -6.8282206    26.327216  0.032263745  0.039257785            1 
   69000     1.220772   -6.8784782    26.675877  0.032217242  0.039218775            1 
   70000    1.2223322   -6.8662756    27.194659  0.032374593  0.039177818            1 
   71000    1.2195186   -6.8244824    27.753812  0.032574897  0.039149003            1 
   72000    1.1988677   -6.8041446    28.272543   0.03272285  0.039129543            1 
   73000    1.2201309   -6.8480612    28.619248  0.032670375    0.0391089            1 
   74000    1.2253835   -6.7941012    29.094583   0.03276417  0.039090256            1 
   75000    1.2290884   -6.9074549    29.381788   0.03264643  0.039071325            1 
   76000    1.2047017   -6.8089945    29.920163  0.032807196  0.039043523            3 
   77000     1.251067   -6.8321803    30.546345  0.033058815  0.039024604            2 
   78000     1.217182   -6.8689503    30.976395  0.033094439  0.039013143            2 
   79000    1.2146464   -6.8512236     31.58379  0.033316234  0.039001956            3 
   80000    1.2213817   -6.8752657    32.068276  0.033404454  0.039006623            1 
   81000    1.2463273   -6.8605993    32.640868   0.03358114  0.039014247            1 
   82000    1.1795802   -6.8725484    33.058779   0.03359632  0.039024766            2 
   83000    1.2121744    -6.837782    33.783804  0.033919481  0.039038857            1 
   84000    1.2236235   -6.8232018    34.167579  0.033896407   0.03905576            2 
   85000    1.2384725   -6.8325188    34.530682  0.033853609  0.039064746            1 
   86000    1.2133454   -6.8615531    34.844861    0.0337644  0.039073901            2 
   87000    1.2007683   -6.8156066    35.593197  0.034093101  0.039083798            1 
   88000    1.2261824   -6.8623009    36.121892  0.034206337  0.039101067            3 
   89000    1.2364359   -6.8655541     36.36326  0.034047996  0.039109548            2 
   90000     1.215028   -6.8534294    36.795634  0.034070031  0.039113787            1 
   91000     1.231519   -6.8505758    37.322195  0.034177834  0.039120067            2 
   92000    1.2079857   -6.8559667    37.806733  0.034245229    0.0391251            1 
   93000     1.245239   -6.8939501     38.19503  0.034224937  0.039122874            1 
   94000    1.2574619   -6.8637209    38.642662  0.034257679  0.039115242            1 
   95000    1.2417132   -6.8765485     39.03446  0.034240755   0.03911161            1 
   96000     1.211547   -6.8830329    39.659336  0.034426507  0.039107057            3 
   97000    1.2129308   -6.8114573    40.165985   0.03450686  0.039106536            1 
   98000    1.2347451   -6.8776181    40.432597   0.03438146  0.039105367            1 
   99000    1.2099487   -6.8780546    40.949906  0.034469617  0.039097144            2 
  100000    1.2105115   -6.8762539     41.17534  0.034312783   0.03908246            1 
  101000    1.1971716   -6.8654563    41.815949  0.034501608  0.039072071            2 
  102000     1.226931   -6.8668139    42.298952  0.034557967    0.0390567            3 
  103000    1.2409881    -6.863661    42.564104  0.034436977  0.039040029            1 
  104000    1.2203074   -6.9171609    43.202415   0.03461732  0.039025981            2 
  105000    1.2042944    -6.843237    43.609872   0.03461101  0.039016846            1 
  106000    1.2135713   -6.8392388    43.828846   0.03445664  0.039003926            1 
  107000    1.2105881   -6.8713919    44.592202  0.034729129    0.0389858            1 
  108000    1.1977664   -6.9124174     44.95132   0.03468466   0.03897188            1 
  109000    1.2013759    -6.923709    45.428372  0.034731171  0.038965834            1 
  110000    1.1835646   -6.8397025    45.786774   0.03468695  0.038952328            2 
  111000    1.2096569   -6.8347171    46.269359  0.034736756  0.038935884            1 
  112000     1.193559   -6.8686637    46.515215  0.034609535  0.038920929            1 
  113000    1.2027655   -6.8437386    47.205584  0.034812378  0.038908033            3 
  114000    1.1897809   -6.8924298    47.587807  0.034786409  0.038899089            3 
  115000    1.2010003   -6.8554475    48.052436  0.034820605  0.038886543            3 
  116000    1.2137422   -6.8800123    48.678045   0.03496986  0.038878612            1 
  117000    1.1862284   -6.8985937    49.009275  0.034906891  0.038870881            1 
  118000     1.189222   -6.8721544    49.631782  0.035050693  0.038861697            2 
  119000     1.236702   -6.9064432    50.017623  0.035026347  0.038854513            1 
  120000    1.2073742   -6.8477737    50.614714  0.035149107  0.038849158            2 
  121000    1.1915869   -6.8797716    50.884932  0.035044719  0.038839828            2 
  122000    1.2260153   -6.8656113    51.096167  0.034901753  0.038821658            2 
  123000    1.2179953   -6.8811128    51.607996  0.034964767   0.03880324            1 
  124000    1.2071783   -6.8918299    52.066134  0.034990682  0.038786144            1 
  125000    1.2171277   -6.9019044    52.468291   0.03497886  0.038768728            1 
  126000    1.1998221   -6.8847478    53.028452  0.035071727  0.038754448            1 
  127000    1.2174735   -6.8734584    53.486863  0.035096366  0.038743788            1 
  128000    1.1760674   -6.8624431    54.003609  0.035158599  0.038734668            1 
  129000    1.1888341   -6.9172047    54.370277  0.035122918  0.038722241            1 
  130000     1.203491   -6.8306259    54.628082  0.035018001   0.03870509            1 
  131000    1.1783142    -6.895463    55.072554  0.035033431  0.038683594            1 
  132000    1.2071227   -6.8755832    55.399514  0.034974441  0.038660863            1 
  133000    1.2026219   -6.9240998    55.841619  0.034988483  0.038639456            3 
  134000    1.1810369   -6.8818598    56.358949  0.035049097  0.038619405            1 
  135000    1.1903273   -6.8833856    56.730038  0.035018542  0.038600993            2 
  136000    1.2158592   -6.8918602    57.258438  0.035084827  0.038583411            1 
  137000    1.1969398   -6.9328946     57.61553  0.035045943  0.038563801            2 
  138000    1.1849665   -6.8605473    58.090898  0.035079044  0.038547798            3 
  139000    1.1872529   -6.8833338    58.730745  0.035210279   0.03852745            5 
  140000    1.2028382   -6.9354555    58.876546  0.035045563  0.038506015            1 
  141000    1.2014479   -6.9339483    59.237901   0.03501058   0.03848432            3 
  142000    1.1792935   -6.8960265    59.449053  0.034887942  0.038459594            3 
  143000    1.2256757    -6.879979    60.111324  0.035029909  0.038433189            2 
  144000    1.1818523   -6.9302315     60.35759  0.034929161  0.038406268            2 
  145000    1.1910093   -6.9072549    61.069164   0.03509722  0.038381521            3 
  146000    1.1756155   -6.8661876    61.544226  0.035127983  0.038360276            4 
  147000    1.1908823   -6.9098682    62.016574  0.035156788   0.03834008            1 
  148000    1.1912225   -6.8609684    62.684449  0.035295298  0.038319997            2 
  149000    1.1753089   -6.9119568    62.746741  0.035093256  0.038303151            2 
  150000    1.1806698   -6.9133114    63.076438  0.035042466  0.038280608            3 
  151000     1.195537   -6.8957856    63.712817  0.035161598  0.038257897            2 
  152000    1.1872174   -6.8879453    63.977394  0.035075326  0.038234344            2 
  153000      1.20504   -6.9271088    64.204523  0.034969784  0.038206718            2 
  154000    1.1642348   -6.9019246    64.598045  0.034955652  0.038182082            1 
  155000    1.1832169   -6.9112577    65.154996  0.035029568  0.038158395            1 
  156000    1.2007752   -6.9639182    65.150043  0.034802373  0.038131601            1 
  157000      1.18682   -6.9002349    66.161021  0.035117315  0.038107034            1 
  158000    1.1874282   -6.9249361    66.827994  0.035246832  0.038088806            1 
  159000    1.2050047   -6.9306239    67.055015  0.035144138  0.038070789            2 
  160000    1.1881071   -6.9055126    67.385704  0.035096721  0.038050028            1 
  161000    1.2106058   -6.9305121    67.987013  0.035189965  0.038027805            2 
  162000    1.1771985   -6.9315975    68.355722  0.035162408  0.038009071            1 
  163000    1.2003207    -6.918405    68.926293  0.035238391  0.037991466            1 
  164000    1.1907452   -6.9240084    69.312256  0.035219642  0.037973769            1 
  165000    1.1858477   -6.9221741    69.685904  0.035194901   0.03795794            1 
  166000    1.2013155   -6.8622129    69.861803  0.035071186  0.037936618            2 
  167000    1.1668169   -6.8902773    70.370876  0.035115207  0.037914184            2 
  168000    1.1769114   -6.9598884     70.73511   0.03508686  0.037892582            1 
  169000    1.1875235   -6.9008732    71.387839  0.035201104  0.037872268            2 
  170000    1.1745261   -6.9270308    71.611813   0.03510383  0.037851535            1 
  171000    1.2236603    -6.896494    71.867124  0.035022965  0.037831992            4 
  172000     1.190143   -6.9169153    72.884013  0.035312022    0.0378151            1 
  173000    1.2188326   -6.8947474    73.328072  0.035321807  0.037800226            1 
  174000    1.1981412   -6.9379461    73.707906  0.035300721  0.037787975            2 
  175000    1.1686295   -6.8856738    73.993846  0.035235165  0.037775961            1 
  176000     1.198952   -6.9227091    74.334341  0.035196184  0.037761503            2 
  177000     1.180237   -6.9069838    74.804578  0.035218728  0.037744428            2 
  178000    1.1795794   -6.8948264     74.98769  0.035106597  0.037727946            1 
  179000    1.1807416   -6.9391794    75.878146  0.035325021   0.03770985            2 
  180000    1.1640148   -6.9424923    75.924926  0.035150429  0.037689715            2 
  181000    1.2140347   -6.9327217    76.093496  0.035033838  0.037670606            1 
  182000    1.1826791   -6.9619597    76.363828  0.034965123  0.037649968            2 
  183000    1.1939506   -6.9084165    76.874576  0.035006638  0.037627832            2 
  184000    1.1867736   -6.9731776    77.548319  0.035121521   0.03760851            1 
  185000    1.1796449    -6.916244    77.685073  0.034993276  0.037586807            2 
  186000    1.1677855   -6.9409948    78.351954  0.035103922  0.037569064            1 
  187000    1.1529132   -6.9192977    79.055613  0.035229774  0.037553646            1 
  188000     1.177652   -6.9385394    79.307857  0.035154192  0.037539384            2 
  189000    1.1762501   -6.9498587    79.782886  0.035177639  0.037522362            3 
  190000     1.169334    -6.958227    80.082084  0.035123721   0.03750385            1 
  191000    1.1435456   -6.9228698    80.346621  0.035055245  0.037485869            2 
  192000    1.1786364   -6.9263789    81.055894   0.03518051  0.037466701            1 
  193000    1.1626266   -6.9228764    81.228789  0.035072879  0.037448089            1 
  194000    1.1902098    -6.956068    81.419257  0.034973908  0.037427086            1 
  195000    1.1892227   -6.9985468    81.462219  0.034812914  0.037405295            2 
  196000    1.2010043   -6.9184686    82.574336  0.035108136  0.037383728            2 
  197000    1.1971689    -6.955087    82.624139   0.03495099  0.037362405            1 
  198000     1.175311   -6.9474459    82.950299  0.034911742   0.03733925            2 
  199000     1.165243   -6.9670372    83.170074  0.034828339  0.037316787            2 
  200000     1.175325   -6.9579554    83.681479  0.034867283  0.037291408            2 
  201000    1.1797584   -6.9498648    83.869909  0.034771936  0.037265288            2 
  202000    1.1829332   -6.9589279    84.367515  0.034805081  0.037240789            1 
  203000    1.1947758   -6.9602331    84.657014  0.034752469  0.037216851            3 
  204000    1.1843051   -6.9420869    85.354377  0.034866984   0.03719528            1 
  205000    1.1750505   -6.9341143    85.999694  0.034959225   0.03717331            2 
  206000    1.1987638   -6.9270324    85.953612  0.034770879  0.037150635            1 
  207000    1.1848475    -6.938389    86.786089  0.034938039  0.037126807            1 
  208000    1.1848819   -6.9175225    86.886395  0.034810254  0.037104391            2 
  209000    1.1650912   -6.9391977    87.475864  0.034878734  0.037082175            2 
  210000    1.1446204    -6.943046    87.680408  0.034793812  0.037060601            1 
  211000    1.2003982    -6.909913    88.469351  0.034940502  0.037040367            3 
  212000    1.1688708   -7.0117677    88.466921  0.034774733  0.037021186            1 
  213000    1.1718859   -6.9657481    89.029463  0.034831558  0.037002205            2 
  214000    1.2113489   -6.9441558    89.331463  0.034786395  0.036981815            3 
  215000    1.1537794   -6.9475194    89.903135  0.034846176  0.036962173            3 
  216000    1.1915225   -6.9763097    90.258814  0.034822073  0.036942413            1 
  217000    1.1804944   -6.9849738    90.348401  0.034696007  0.036920037            2 
  218000    1.1753518   -6.9278995    91.172477  0.034851864  0.036899295            1 
  219000    1.1447935   -6.9424353     91.10516  0.034667108  0.036876114            1 
  220000    1.1492602   -6.9903639    91.406149  0.034623541  0.036852618            1 
  221000    1.1648526   -6.9550951    92.031039  0.034702503   0.03682969            1 
  222000    1.1550031    -6.982336    92.090364  0.034568455  0.036805902            2 
  223000    1.1393105   -6.9812246    92.171151  0.034443629   0.03677981            3 
  224000    1.1667545   -7.0040135    93.206639  0.034675089  0.036756359            1 
  225000    1.1694593   -6.9736365    93.684078  0.034697806  0.036734615            1 
  226000    1.1574085   -6.9803528    94.258445  0.034756064  0.036716043            2 
  227000    1.1673095   -6.9771287    94.571419  0.034717848  0.036697154            3 
  228000    1.1680488   -6.9750536    94.975914  0.034713419   0.03667825            1 
  229000    1.1702424   -6.9819684    95.118627  0.034613765  0.036658953            1 
  230000    1.1762547   -6.9610769    95.825906  0.034719531   0.03663883            1 
  231000    1.1681113   -6.9333377    95.969833  0.034621152  0.036618402            3 
  232000    1.1587571   -6.9872339    96.153035  0.034537728  0.036597538            2 
  233000    1.1641082    -6.981686    96.576464  0.034540938  0.036576379            5 
  234000    1.2001344    -6.990319     96.83364  0.034484915   0.03655376            5 
  235000    1.1677767   -6.9775262     97.32551  0.034512592  0.036529524            1 
  236000    1.1491917   -6.9457865    97.882552  0.034563048  0.036506451            1 
  237000    1.1618164   -6.9632807    98.030595  0.034469267  0.036483177            2 
  238000    1.1652323   -6.9569994    99.078178  0.034691239  0.036462185            3 
  239000    1.1437004   -6.9685292     99.00631  0.034521029   0.03644325            2 
  240000    1.1710531   -6.9776346    99.557314  0.034568512  0.036423983            1 
  241000    1.1340442   -6.9792612    99.881441  0.034537151  0.036403905            2 
  242000    1.1596387   -6.9840845    100.43949  0.034586602  0.036383491            1 
  243000    1.1557383   -6.9804673    100.52225  0.034472652  0.036363551            1 
  244000    1.1666175   -7.0003571    101.38377  0.034625604  0.036345015            2 
  245000    1.1722836   -6.9466958    101.83805  0.034638794  0.036326981            1 
  246000    1.1551407    -7.004094    102.02568  0.034561545  0.036310253            3 
  247000    1.1683452   -6.9791441    102.29693  0.034513134  0.036291569            2 
  248000    1.1539265    -6.981493    102.87512  0.034568252  0.036273032            1 
  249000    1.1511814   -6.9923056    102.95763  0.034457038  0.036254328            1 
  250000    1.1668095   -6.9708041    103.67986  0.034559953  0.036235036            1 
  251000     1.138922   -6.9651814    104.30556      0.03463  0.036218333            3 
  252000     1.176138   -7.0018416    104.47008  0.034546985  0.036202513            1 
  253000    1.1492817   -7.0045944    105.34586    0.0346989  0.036186683            1 
  254000    1.1802683   -6.9461431    105.63592  0.034657454  0.036172232            1 
  255000     1.155759   -7.0129637    105.51623  0.034482429  0.036157622            1 
  256000    1.1514293   -7.0168916    105.93261  0.034483271  0.036140987            1 
  257000     1.146637   -6.9733546    106.20202  0.034436452  0.036123576            1 
  258000    1.1464671   -6.9801729    106.76387  0.034484455  0.036105094            1 
  259000    1.1615386   -6.9822733    107.11415  0.034464013  0.036086673            2 
  260000    1.1435231   -7.0214591    107.46944  0.034445334  0.036068814            1 
  261000    1.1339774   -7.0045568     108.0243  0.034490517  0.036051276            1 
  262000    1.1749996   -6.9934587    108.32485  0.034454468  0.036033591            1 
  263000    1.1671479   -7.0478943    108.49767  0.034378224   0.03601783            4 
  264000    1.1328757   -7.0070549     108.9178   0.03438062  0.036000577            2 
  265000    1.1696844   -7.0331507    109.20301  0.034340568  0.035983806            1 
  266000    1.1369857   -6.9962871    109.90332  0.034430864  0.035965785            1 
  267000    1.1511285   -7.0152128    109.68288  0.034233109  0.035948491            3 
  268000    1.1422871   -7.0542305    110.14273  0.034248363  0.035931459            1 
  269000    1.1494768   -7.0017382    110.75404  0.034310423  0.035913387            1 
  270000    1.1427344   -6.9587888    110.90382  0.034229575  0.035894642            1 
  271000    1.1631906   -7.0119176    110.99039  0.034129887  0.035876163            1 
  272000    1.1515325   -6.9989714     111.6174  0.034196506  0.035856847            3 
  273000     1.159012   -6.9900404    111.95958  0.034175695  0.035836317            5 
  274000    1.1366317   -6.9994796    112.44009  0.034197109   0.03581491            2 
  275000    1.1526968   -7.0258274    112.59823  0.034120675  0.035794406            1 
  276000    1.1544262   -6.9873848    113.12397  0.034155788  0.035773276            1 
  277000    1.1263029   -6.9708038    113.51982  0.034151572  0.035753305            1 
  278000    1.1584338   -6.9764593    113.86228   0.03413138  0.035731499            1 
  279000    1.1541299   -7.0233743    113.61666  0.033935681  0.035709109            2 
  280000     1.159574   -7.0108391    114.06156  0.033946892  0.035686186            1 
  281000    1.1480968   -6.9729617    114.46284  0.033945088  0.035663106            1 
  282000    1.1490559   -6.9969324    114.75441  0.033910876  0.035640182            1 
  283000    1.1459293   -7.0433413      115.243  0.033934922  0.035617962            2 
  284000    1.1296331   -7.0232233    115.82138  0.033985148  0.035595535            2 
  285000    1.1420786   -6.9559579     115.9946  0.033916549   0.03557347            2 
  286000    1.1265104   -6.9821374    116.68863  0.034000184   0.03555223            3 
  287000    1.1578676   -7.0053787    116.90652  0.033944983  0.035532358            2 
  288000    1.1172661   -7.0320513     117.0918   0.03388073  0.035511218            2 
  289000    1.1162197   -7.0332819    117.26987  0.033814841  0.035489605            3 
  290000    1.1384786   -7.0098905    117.83904  0.033861793  0.035467759            1 
  291000    1.1472073   -7.0399776    117.93731   0.03377357  0.035444596            1 
  292000    1.1285632   -6.9839594    118.32283   0.03376793  0.035419868            3 
  293000    1.1414682    -7.038194    118.64523  0.033744377  0.035396952            2 
  294000    1.1418465   -7.0599325    118.39774   0.03355945  0.035373657            5 
  295000    1.1586329   -6.9920545    119.28423  0.033696111  0.035348283            1 
  296000    1.1311369    -7.044134    118.57556  0.033382759  0.035322957            2 
  297000    1.1460899   -7.0625694    119.27196  0.033465758  0.035296258            2 
  298000    1.1549087   -7.0097762     119.4635  0.033407019  0.035269635            3 
  299000    1.1263726   -7.0286387    120.11135   0.03347585  0.035242916            1 
  300000    1.1208935   -6.9998472    120.51663   0.03347684  0.035214867            2 
  301000    1.1333109   -7.0190501    120.87563  0.033465015  0.035186638            2 
  302000    1.1431757    -7.013676    120.89987   0.03336089   0.03515796            2 
  303000    1.1119035   -7.0362725    121.08582  0.033301932  0.035129223            1 
  304000    1.1342676   -7.0262761    121.08848  0.033193113  0.035100161            3 
  305000     1.136083   -6.9940632    121.73625   0.03326127  0.035071479            2 
  306000    1.1412345   -7.0273667    122.05882   0.03324042  0.035042402            2 
  307000    1.1596853   -7.0789411    122.12487  0.033150074  0.035012182            1 
  308000    1.1472261   -7.0015372    122.55992  0.033160152  0.034981996            1 
  309000    1.1121292   -7.0413761    122.56195  0.033053385   0.03495142            1 
  310000    1.1552609    -7.017085    123.27661  0.033138873  0.034921302            5 
  311000    1.1255165   -7.0217669    123.68403  0.033141488  0.034891891            4 
  312000    1.1444823   -7.0112459    123.92702  0.033100165  0.034861802            4 
  313000    1.1473718   -7.0168553    123.90526   0.03298862  0.034831176            2 
  314000    1.1220926   -6.9852326    124.50504  0.033042738  0.034800308            1 
  315000    1.1119811   -7.0116283    124.62647  0.032969965  0.034769405            3 
  316000    1.1118221   -7.0674066    124.79681  0.032910551  0.034739435            1 
  317000    1.1233725   -7.0634949    125.48993  0.032988941   0.03471054            1 
  318000    1.1176029   -7.0831366    125.43381  0.032870495  0.034681501            4 
  319000    1.1034474   -7.0670881    125.68784  0.032833815  0.034651461            2 
  320000    1.1252505   -7.0560708    126.38384  0.032912459   0.03462327            2 
  321000    1.1532548   -7.0360648    127.12943  0.033003487  0.034595121            2 
  322000    1.1490915   -7.0396074    127.32349  0.032951214  0.034566888            3 
  323000    1.1411229   -7.0416326    127.37572  0.032862672  0.034538913            1 
  324000     1.136772   -7.0182738    127.96293  0.032912277  0.034510948            5 
  325000     1.122124   -7.0712658    128.20113  0.032872083  0.034483169            1 
  326000    1.1336146   -7.0860499    128.26035  0.032786387  0.034455057            1 
  327000    1.1342655   -7.0357804    128.93616   0.03285835  0.034426097            2 
  328000     1.096572   -7.0387131    129.47907  0.032896104  0.034397847            2 
  329000    1.1234208   -6.9859175    129.62851   0.03283397  0.034370278            3 
  330000    1.1323151   -7.0529528    129.76323  0.032768492  0.034341247            1 
  331000    1.1201606   -7.0870257    129.61891  0.032633159  0.034311723            3 
  332000    1.1211589   -7.0376528    130.13762  0.032665066  0.034283747            2 
  333000    1.1239987   -7.0376179    130.79493  0.032731465  0.034255667            1 
  334000    1.1360711    -7.050369    130.76311  0.032625527  0.034228047            1 
  335000    1.1153495   -7.0475287    131.72817  0.032768202  0.034200543            1 
  336000    1.1526708   -7.0510882    132.13411  0.032771356  0.034174736            2 
  337000    1.1312665   -7.1060058     132.2188  0.032695055  0.034148269            1 
  338000    1.1157624   -7.0620417    132.86719  0.032758182  0.034122862            1 
  339000    1.1170873   -7.0285306    132.78908  0.032642349  0.034097832            2 
  340000    1.1350736   -7.0732316    133.42718  0.032702741  0.034072468            1 
  341000    1.1248584   -7.0436759    133.69418  0.032672087  0.034047925            1 
  342000    1.1164576   -7.0914381    134.01553  0.032654857  0.034022283            1 
  343000    1.1214814   -7.0450381    133.66755  0.032475109  0.033994837            1 
  344000    1.1028349   -7.0998435    134.57989  0.032601718  0.033968448            2 
  345000     1.102346   -7.0868825     134.6364   0.03252087  0.033942854            3 
  346000    1.1055703   -7.0678195    135.21747  0.032566828  0.033917805            2 
  347000     1.135262   -7.0783179    135.31544  0.032496503  0.033893036            1 
  348000    1.1006743   -7.0574226     136.2724   0.03263228  0.033868529            2 
  349000    1.0886941   -7.0459164    136.43989   0.03257877  0.033844178            2 
  350000    1.1110526   -7.1004585    135.85509   0.03234645  0.033819484            2 
  351000    1.1194302   -7.0782781    136.71559  0.032458593  0.033795284            3 
  352000    1.1248597   -7.0809005     137.1115  0.032460109  0.033771621            2 
  353000    1.1263919   -7.0538144    138.04001  0.032587348  0.033747725            1 
  354000    1.1321263   -7.0439469     138.0232  0.032491336  0.033725152            3 
  355000    1.1326672   -7.0639023    138.43604  0.032496722  0.033701878            1 
  356000    1.1253199   -7.0667193    139.20009  0.032584291   0.03367881            1 
  357000    1.0982592   -7.0954705    138.49107  0.032327515  0.033655798            5 
  358000    1.1017324   -7.0785031    139.43796  0.032457625  0.033632317            3 
  359000    1.1476275    -7.087992    139.59109  0.032402759  0.033608961            1 
  360000    1.0900298   -7.0780066     140.0693  0.032423448  0.033585845            1 
  361000    1.1300405   -7.1062037    139.72657  0.032254516  0.033562378            1 
  362000    1.0982535   -7.0884808    140.68005   0.03238491  0.033539826            1 
  363000    1.1039596   -7.1094015    140.93045   0.03235318  0.033517082            1 
  364000    1.1068881   -7.1068528    141.12614  0.032309097  0.033493833            3 
  365000    1.1304064   -7.0657684    141.44007  0.032292254  0.033471248            3 
  366000    1.0910785   -7.0633192    141.73669   0.03227156  0.033448718            5 
  367000    1.0888983     -7.11656    141.91462  0.032224029  0.033425794            2 
  368000    1.1135344    -7.052927    142.36275  0.032237941  0.033403031            2 
  369000    1.1130738   -7.1002468    142.52794  0.032187882  0.033379992            1 
  370000    1.0954196   -7.0585297    143.27855  0.032269943  0.033357829            1 
  371000    1.1011981   -7.0714981     143.3337   0.03219535  0.033334988            3 
  372000    1.1062404   -7.0931536    143.45402  0.032135758   0.03331215            1 
  373000    1.1177777   -7.1000841    143.55266  0.032071639  0.033287623            2 
  374000    1.1154547   -7.0619604    144.11641  0.032111499  0.033263677            2 
  375000    1.1240578   -7.1064914    144.12331  0.032027402  0.033239073            2 
  376000    1.1079564   -7.1118196    144.79634  0.032091387  0.033215009            1 
  377000    1.0850446   -7.0990079    145.03158  0.032058262  0.033191191            2 
  378000    1.1195586   -7.0628736    145.69802  0.032120375  0.033167631            1 
  379000    1.1005987   -7.1209875    145.42661  0.031975947  0.033144236            2 
  380000    1.0848946   -7.0551043    145.73223  0.031958822  0.033120763            1 
  381000    1.1174987   -7.1013869    145.83612  0.031897665  0.033096862            2 
  382000    1.0809705   -7.0830443    145.83311  0.031813505  0.033072276            1 
  383000    1.0954954   -7.1097819     146.2822  0.031828155   0.03304729            2 
  384000    1.1059914   -7.0714885    146.78379  0.031854122  0.033022255            3 
  385000    1.1050095    -7.079433    146.91179   0.03179909  0.032997155            5 
  386000    1.1195437    -7.100948    147.07982  0.031752983  0.032971941            3 
  387000    1.0854629    -7.111291    147.33415    0.0317257  0.032946743            2 
  388000    1.0962954    -7.115961    147.79668  0.031743273   0.03292203            3 
  389000     1.111324   -7.0961023    148.39298  0.031789414  0.032897122            2 
  390000    1.1087338   -7.1127272    148.65749  0.031764421  0.032873155            1 
  391000    1.1004393   -7.1211911    148.95235  0.031746026  0.032848163            2 
  392000    1.0873208    -7.116869    148.99623  0.031674369  0.032824029            1 
  393000    1.0969192   -7.0909227    149.56772  0.031714953  0.032800315            4 
  394000    1.1035927   -7.1462368    149.65104  0.031652082  0.032777088            2 
  395000    1.0967396   -7.1115427    150.11302  0.031669414   0.03275395            3 
  396000     1.109828   -7.1499536    150.43841  0.031657915  0.032730511            1 
  397000    1.1114757   -7.1159537    150.79203  0.031652398  0.032708408            1 
  398000    1.0950193   -7.1163832    151.51037  0.031723277  0.032686906            3 
  399000    1.1259532   -7.1304158    151.78279  0.031700667  0.032665643            3 
  400000    1.1100053   -7.0742366     152.6913  0.031810687  0.032644998            3 
  401000    1.0878706   -7.0863211    152.77241  0.031748215  0.032623837            1 
  402000    1.0879078   -7.1394333    152.45875  0.031604219  0.032602622            4 
  403000    1.1112147   -7.0889892    153.70198  0.031782874  0.032581314            1 
  404000    1.0916337   -7.1138069    153.95228  0.031755834  0.032560709            1 
  405000    1.1062933   -7.1477039    153.77928  0.031641827  0.032540239            2 
  406000    1.1138045    -7.125673    154.11856  0.031633531  0.032520054            1 
  407000     1.064001   -7.1375543    154.12242  0.031556597  0.032499899            1 
  408000    1.0917853   -7.1252473    155.34731  0.031729435  0.032479394            2 
  409000    1.0714676   -7.0998796    154.80864  0.031542103  0.032458512            1 
  410000    1.0772721   -7.1206622    155.10451  0.031525307  0.032436905            2 
  411000    1.1127405    -7.110191    154.96273  0.031419855  0.032414488            3 
  412000    1.0829471   -7.1441623    155.39369  0.031430762  0.032392589            8 
  413000    1.0924028   -7.1435548    155.86569  0.031449898  0.032370522            1 
  414000    1.0736888   -7.1413783    155.97941  0.031396822  0.032349192            1 
  415000    1.0930919   -7.1434715    156.58935  0.031443645  0.032327731            2 
  416000    1.0730699   -7.1492724      156.496  0.031349359  0.032306479            1 
  417000    1.0737027   -7.1113654    157.17107  0.031409087   0.03228524            1 
  418000    1.0704205   -7.1173695    157.58096  0.031415663  0.032264415            2 
  419000     1.084027   -7.1517573    157.92372  0.031408855  0.032243422            1 
  420000    1.0776585   -7.1069861    158.45378  0.031439242  0.032222088            2 
  421000    1.0718707   -7.1465139    158.15051  0.031304535  0.032200551            3 
  422000     1.106805   -7.1049579    158.50153   0.03129967  0.032179443            3 
  423000    1.1209555   -7.1551748    158.29247  0.031184489   0.03215752            1 
  424000    1.0950884   -7.0842997    158.81742  0.031214116  0.032136431            1 
  425000    1.0829823   -7.0950478    159.43778  0.031262309  0.032114829            1 
  426000    1.1100887   -7.1547505    159.18546  0.031139566  0.032092963            1 
  427000    1.0728692   -7.1077897    160.20879  0.031266352  0.032071592            2 
  428000    1.0929019   -7.1733591    160.05619  0.031163589   0.03205026            1 
  429000    1.0806314   -7.1687084    160.20923  0.031120674  0.032028884            2 
  430000    1.0668785    -7.138328    160.95633  0.031193088  0.032007512            1 
  431000    1.0816074     -7.13339    161.21864   0.03117143  0.031986298            2 
  432000    1.0784062   -7.1008663    161.06918  0.031070444  0.031964872            3 
  433000    1.0981453   -7.1620625    160.99891  0.030985163  0.031943278            1 
  434000     1.070717   -7.1780163    161.45738  0.031001801     0.031921            2 
  435000    1.0900151   -7.1316952    162.14367  0.031062007  0.031898923            2 
  436000    1.0682148   -7.1516291    161.93991  0.030951818  0.031876925            1 
  437000    1.0907013   -7.1511938    162.61185  0.031009124  0.031854444            2 
  438000    1.0801714     -7.10432    162.32707  0.030884146  0.031831612            3 
  439000    1.0974488   -7.1223188    163.23479  0.030986102  0.031810204            2 
  440000     1.082094   -7.1839126    163.50139  0.030966172  0.031788894            3 
  441000    1.0783772   -7.1639021    163.84623  0.030961117  0.031767672            2 
  442000    1.0899145    -7.165961    163.38726  0.030804536  0.031746876            3 
  443000    1.0721628   -7.1403818    164.76447  0.030994068  0.031725879            2 
  444000    1.0792745   -7.1521801    164.94816  0.030958739  0.031704992            2 
  445000    1.0810062   -7.1352384    165.69953  0.031029874  0.031684165            1 
  446000    1.0311529   -7.1467198    165.06903  0.030842494  0.031662995            1 
  447000    1.0845358   -7.1604274    165.82026  0.030913546  0.031641892            1 
  448000    1.0801319   -7.1642413    165.50043   0.03078505  0.031620607            3 
  449000     1.104449   -7.1032725    166.63565  0.030927181  0.031598753            3 
  450000    1.0653452   -7.1648288    165.83103  0.030709449  0.031577154            1 
  451000    1.1009783   -7.1550024     165.3062  0.030544384  0.031553971            2 
  452000    1.0904192    -7.158256    166.07538  0.030618618  0.031530828            1 
  453000    1.0493201   -7.1658532    166.43379  0.030616959  0.031507312            1 
  454000    1.0681529   -7.1406226    166.84476  0.030624956  0.031484134            2 
  455000    1.0768382    -7.134334    166.96685  0.030580009  0.031461333            1 
  456000    1.0477742   -7.1658947    167.66829  0.030641135   0.03143941            2 
  457000    1.0667811   -7.1920566    168.00554  0.030635584  0.031417943            2 
  458000    1.0503048   -7.1643201    168.11595  0.030588783  0.031396577            2 
  459000    1.0836053   -7.1414925    168.67684  0.030623972  0.031374698            3 
  460000    1.0733257   -7.1622758    169.00435   0.03061673  0.031352993            1 
  461000    1.0776693   -7.1681304    168.80479  0.030514242  0.031331207            3 
  462000    1.0621908   -7.1612134    169.29415  0.030536463  0.031309572            3 
  463000    1.0942943   -7.1875201    169.46398  0.030501076  0.031288169            2 
  464000    1.0632564   -7.1457059     170.1917  0.030566038   0.03126644            2 
  465000    1.0667572   -7.1936548    170.22196  0.030505727  0.031245343            1 
  466000    1.0552933   -7.1788994    170.45137   0.03048129  0.031223992            1 
  467000    1.0711458   -7.1848029    169.82482  0.030304215  0.031202186            3 
  468000     1.074512   -7.1760844     170.6974  0.030394836   0.03118043            2 
  469000    1.0743402   -7.1948377    170.92525  0.030370513  0.031158546            2 
  470000     1.062399   -7.1390795    171.30749  0.030373669  0.031136458            2 
  471000    1.0503919   -7.1576078    171.54982  0.030352056  0.031114335            2 
  472000    1.0894486   -7.1842146     171.7704  0.030326695  0.031092236            3 
  473000    1.0334661   -7.1568227    172.22521  0.030342708  0.031070006            1 
  474000    1.0524035   -7.2074045    171.85906  0.030214321  0.031048207            2 
  475000    1.0690915   -7.1941588     172.6642  0.030291964  0.031026946            1 
  476000     1.069509   -7.2053337    173.02718  0.030291873  0.031006075            1 
  477000    1.1013936   -7.2241286    173.17209  0.030253684  0.030984766            2 
  478000    1.0547124   -7.1691136    173.59374  0.030263901  0.030963065            1 
  479000    1.0791456   -7.1430352     174.3712  0.030335977  0.030942351            3 
  480000    1.0631814   -7.1970844    173.81536  0.030176278  0.030921215            1 
  481000    1.0919689   -7.2109576     174.0057  0.030146518  0.030900334            1 
  482000    1.0482229   -7.1698033    174.90324  0.030239149   0.03087932            2 
  483000    1.0646445   -7.1858571    174.55881  0.030117116  0.030858613            2 
  484000    1.0711554   -7.1885467    175.02699  0.030135502  0.030837383            3 
  485000    1.0612189   -7.1844591     175.4719  0.030149811  0.030816845            4 
  486000    1.0825532   -7.1757007    175.74234  0.030134145  0.030796211            1 
  487000    1.0664263   -7.2192447    175.96838  0.030110947  0.030775358            3 
  488000    1.0706661   -7.1752203    176.58261  0.030154133  0.030755121            3 
  489000    1.0429284   -7.1768261     176.5685  0.030090065  0.030735329            1 
  490000     1.043185   -7.1893045     177.4501  0.030178588  0.030715849            2 
  491000    1.0649754   -7.1956327    177.64221  0.030149731  0.030697068            2 
  492000    1.0645968   -7.1735506    177.89633  0.030131493  0.030678193            1 
  493000    1.0567425   -7.1875524    178.68456  0.030203611  0.030659257            2 
  494000    1.0469229   -7.2136252    178.67291  0.030140504  0.030640597            2 
  495000    1.0589249   -7.2069646    178.83233  0.030106453  0.030622413            2 
  496000    1.0375368   -7.1900923    178.99204  0.030072588  0.030604077            1 
  497000    1.0669952   -7.2112904    179.70313  0.030131309  0.030584898            2 
  498000    1.0332182   -7.2051891    179.38839  0.030018138  0.030566094            2 
  499000    1.0654378   -7.2090228    179.31876  0.029946353  0.030547106            2 
  500000    1.0489155   -7.1938878    180.02666  0.030004444  0.030528168            2 
  501000    1.0583144   -7.1848603    180.32887  0.029994822  0.030509574            2 
  502000    1.0514111    -7.203122    180.32752  0.029934847  0.030490825            2 
  503000    1.0643578    -7.229644    181.05247  0.029995439  0.030471806            2 
  504000    1.0503191   -7.1530842     182.1169  0.030111921  0.030453668            2 
  505000    1.0512262   -7.2261897    181.57756  0.029963294  0.030435796            2 
  506000    1.0544888   -7.2081902    182.05526   0.02998275  0.030417467            2 
  507000    1.0668851   -7.1937657    182.17591  0.029943444  0.030398363            2 
  508000    1.0564477   -7.2031138    181.99838  0.029855377  0.030379562            3 
  509000    1.0754245   -7.2006818    182.40064   0.02986258  0.030360533            1 
  510000    1.0733055   -7.2041344    183.01162   0.02990386  0.030342398            2 
  511000    1.0433769   -7.2391055    183.47003  0.029920097  0.030324306            1 
  512000    1.0476404   -7.2190349    183.60097  0.029882971  0.030305998            3 
  513000    1.0380171   -7.1775655    183.77597  0.029853146  0.030287844            1 
  514000     1.048137   -7.2082455    183.85742  0.029808271  0.030270098            2 
  515000    1.0365443   -7.2221049    184.29002  0.029820391  0.030252477            2 
  516000     1.064397   -7.1954546    183.84098   0.02969008  0.030234264            1 
  517000    1.0236039    -7.230337    184.30224  0.029707001  0.030216104            3 
  518000    1.0615174   -7.2251043     184.9353  0.029751496  0.030197579            3 
  519000    1.0797394   -7.2224246     184.8897  0.029686849  0.030179154            3 
  520000    1.0629046   -7.2055272    185.49532  0.029726814  0.030161319            2 
  521000    1.0415339   -7.2166611    185.40495  0.029655302  0.030143015            2 
  522000    1.0497326   -7.2337908    185.55535  0.029622502  0.030124856            2 
  523000     1.050504   -7.2267629    186.15086  0.029660749  0.030106396            2 
  524000    1.0469733   -7.2096907    185.91308   0.02956633  0.030087975            1 
  525000    1.0307888   -7.2135698    186.46444  0.029597531  0.030068886            2 
  526000    1.0507016   -7.2311391    187.14261  0.029648702  0.030050187            1 
  527000    1.0644608   -7.2313002    186.72236   0.02952599  0.030031101            1 
  528000    1.0555849   -7.2175068    187.53651  0.029598565  0.030012223            2 
  529000    1.0420794   -7.1857411    187.59312  0.029551531  0.029993534            5 
  530000    1.0356807   -7.2146854    187.78403  0.029525791  0.029974981            5 
  531000    1.0579611   -7.2593432    187.85463  0.029481266  0.029956157            1 
  532000    1.0474665   -7.2454809     187.8252   0.02942124  0.029937032            1 
  533000    1.0162346   -7.2058285     188.1974  0.029424234  0.029917589            1 
  534000    1.0341687   -7.2410166     188.7377  0.029453449  0.029898781            1 
  535000    1.0414401   -7.2067866    188.97691  0.029435656  0.029879764            2 
  536000    1.0506507   -7.1893192    189.06313  0.029394143  0.029860742            3 
  537000    1.0243389   -7.2314842    189.48562  0.029404969  0.029841726            3 
  538000    1.0342412   -7.2377067    189.82747  0.029403263  0.029822341            1 
  539000    1.0356418   -7.2252467    189.67086  0.029324499  0.029803453            1 
  540000    1.0568753   -7.2466791    189.43605  0.029233958   0.02978458            1 
  541000    1.0544213    -7.259621    190.35179  0.029320978  0.029765421            3 
  542000    1.0392411   -7.2295429    190.65773   0.02931392  0.029746724            5 
  543000    1.0224698   -7.2200646    191.06153  0.029321905  0.029727845            2 
  544000    1.0188756   -7.2563394    190.85668  0.029236624  0.029709167            1 
  545000    1.0499629   -7.2700862    191.54743  0.029288598  0.029690607            2 
  546000    1.0511933   -7.2130067    191.52396  0.029231374  0.029671899            4 
  547000    1.0485613   -7.2384351    192.09105  0.029264329  0.029653321            4 
  548000    1.0342863    -7.263754    192.26805  0.029237843  0.029635113            1 
  549000    1.0252175   -7.2596555     192.7759  0.029261673  0.029617128            2 
  550000    1.0268523   -7.2293247    192.85541  0.029220516  0.029598996            2 
  551000    1.0212626   -7.2187119    193.27808  0.029231409  0.029580828            1 
  552000    1.0354857   -7.2629621    192.56145  0.029070268  0.029562012            2 
  553000    1.0772379   -7.3132267    192.76777   0.02904879  0.029542936            2 
  554000    1.0457578   -7.2917028    192.87618  0.029012662  0.029523843            5 
  555000    1.0377162   -7.2822676    193.46138  0.029048255   0.02950526            1 
  556000    1.0546338   -7.2724821    193.32635  0.028975771  0.029486293            2 
  557000    1.0325303   -7.2942253    193.59735  0.028964295  0.029467197            3 
  558000    1.0234095   -7.2582443    194.43958  0.029038169  0.029447959            3 
  559000    1.0419034   -7.2592278    194.67106  0.029020731  0.029429338            2 
  560000    1.0325925     -7.24623    194.96037   0.02901196  0.029410622            1 
  561000    1.0555649   -7.2516944    194.33727  0.028867687  0.029391623            2 
  562000     1.026159    -7.246745    194.51972  0.028843374  0.029372624            2 
  563000    1.0309507   -7.2506083    194.98568  0.028861113  0.029353699            3 
  564000    1.0254009   -7.2611225    196.09466  0.028973797   0.02933513            1 
  565000    1.0496556   -7.2751789    195.39697  0.028819612  0.029316379            1 
  566000    1.0345484   -7.2643161    195.76398   0.02882273  0.029297014            2 
  567000    1.0254106   -7.2421609    196.52431  0.028883644  0.029278035            2 
  568000    1.0218418   -7.2495906    196.23174  0.028789867  0.029258777            2 
  569000    1.0358647   -7.2483963     196.1003  0.028720021  0.029239448            3 
  570000     1.016094   -7.2669566    196.79565  0.028771294  0.029219731            1 
  571000    1.0332043   -7.2728529    196.61784  0.028694957   0.02919931            1 
  572000    1.0254384   -7.2743939    196.81098  0.028672928  0.029179557            3 
  573000    1.0159597   -7.2804315    197.33882  0.028699653  0.029159857            1 
  574000    1.0309019   -7.2722175    197.77158  0.028712482  0.029140284            1 
  575000    1.0391671   -7.2558428    197.59549  0.028637027  0.029121044            4 
  576000    1.0123042   -7.2420527    198.22548  0.028678455  0.029102103            1 
  577000    1.0341519   -7.2906612    197.32721  0.028499019  0.029082709            1 
  578000    1.0452074   -7.2917754    198.54461  0.028625232  0.029063486            2 
  579000    1.0139473   -7.2615748    198.67177  0.028594095  0.029044048            2 
  580000    1.0254942   -7.2838246    199.11273  0.028608151  0.029024351            5 
  581000    1.0076981   -7.2667056    199.45114  0.028607449  0.029005048            3 
  582000    1.0154834   -7.2806209    199.45214  0.028558439  0.028985798            1 
  583000    1.0335446   -7.2804814    200.15793  0.028610339  0.028966937            3 
  584000    1.0131186   -7.2757967    199.92146  0.028527605  0.028948285            2 
  585000     1.034519   -7.3011629    199.55031   0.02842597  0.028929259            1 
  586000    1.0279102     -7.27717    200.61066  0.028528251  0.028910054            2 
  587000    1.0295076   -7.2809665    200.42548  0.028453361  0.028890586            1 
  588000    1.0212288   -7.2414646    200.71815  0.028446449  0.028871299            3 
  589000    1.0365362   -7.3009183    200.52247  0.028370468  0.028852061            2 
  590000    1.0251536   -7.3008028    201.10687  0.028404926  0.028832583            1 
  591000    1.0177245   -7.2891818      201.182  0.028367456  0.028813208            1 
  592000    1.0274936   -7.2763857    200.75104  0.028258874  0.028793495            1 
  593000    1.0381109   -7.2863271    200.51469  0.028178006  0.028773915            2 
  594000    1.0375418   -7.2596068    201.52736  0.028272637  0.028754113            1 
  595000    1.0201251   -7.2672935    201.88732  0.028275535  0.028734314            4 
  596000    1.0311179   -7.2972445    201.46926  0.028169639  0.028714587            3 
  597000    0.9971922   -7.2808843    201.56066  0.028135212  0.028694477            1 
  598000    1.0380895   -7.3209675     202.2164  0.028179543  0.028674395            2 
  599000    1.0198416   -7.2975868    202.51104  0.028173489  0.028654358            2 
  600000    1.0250892    -7.270969    202.99132  0.028193239  0.028634457            5 
  601000    1.0210689   -7.3259689    203.44848  0.028209717  0.028614698            3 
  602000    1.0253661   -7.2931456    202.93734  0.028092102  0.028595013            1 
  603000    1.0106332   -7.2630643    204.00002  0.028192374  0.028575367            1 
  604000    1.0289815   -7.2972677    203.70613   0.02810515  0.028556034            3 
  605000    1.0030373   -7.2805431    204.54845  0.028174718  0.028536317            1 
  606000    1.0142179   -7.2905483    204.24668  0.028086728  0.028516785            2 
  607000    1.0011351   -7.2900731    204.48443  0.028073096  0.028497358            2 
  608000      1.02176   -7.2682778    204.51942  0.028031718   0.02847808            3 
  609000    1.0063571   -7.3151758    204.90945   0.02803906  0.028458672            1 
  610000   0.99840946   -7.3198148    204.68016  0.027961771  0.028439216            2 
  611000    1.0132472   -7.3198406    204.92435  0.027949311  0.028420121            4 
  612000    1.0093651   -7.3215706    205.48529  0.027980023  0.028400904            2 
  613000   0.98715758   -7.3154579    205.45236  0.027929902  0.028381857            1 
  614000   0.99404996   -7.2757912    206.14749  0.027978758  0.028362891            2 
  615000    1.0241873   -7.3100845    206.41383  0.027969354  0.028344198            1 
  616000   0.99701604   -7.3578629    206.44149  0.027927691  0.028324978            2 
  617000    1.0231705    -7.302018    206.93432   0.02794899  0.028305853            2 
  618000    1.0114891   -7.2970355    206.84859  0.027892205  0.028286903            3 
  619000    1.0343845   -7.3010951    207.22004  0.027897151  0.028268299            1 
  620000    1.0160225   -7.2709136    208.36212  0.028005662  0.028249977            2 
  621000   0.98787496   -7.3445061      208.203  0.027939211  0.028231423            2 
  622000    1.0218631   -7.2958539    207.86873  0.027849508  0.028212791            2 
  623000    1.0106311   -7.3254834     207.8658  0.027804413  0.028193591            2 
  624000    1.0048426   -7.3358326    208.05476  0.027785091  0.028174732            2 
  625000    1.0209608   -7.3579384    208.22656  0.027763541  0.028155442            2 
  626000     1.003852   -7.2912399    209.06085  0.027830252   0.02813635            2 
  627000   0.98050374   -7.2895684    208.82399  0.027754385  0.028117494            2 
  628000    1.0017426   -7.2789884    209.45672  0.027794151  0.028098394            2 
  629000    1.0184705   -7.2742987    209.55924  0.027763546  0.028079615            1 
  630000    1.0123627    -7.294895    209.10395  0.027659253   0.02806045            1 
  631000     1.015279   -7.3158222    208.98047  0.027599111  0.028040817            2 
  632000    0.9957117   -7.3540163     209.0167  0.027560219    0.0280212            2 
  633000   0.99415522   -7.3213778    209.57344  0.027589974  0.028001598            2 
  634000   0.98899055   -7.3739923    209.49834  0.027536585  0.027982017            2 
  635000    1.0221704   -7.3330863    209.94804  0.027552236  0.027962351            5 
  636000    1.0152312    -7.304948    210.33965  0.027560227  0.027943075            3 
  637000    1.0243515   -7.3459902    210.22813  0.027502371  0.027923697            2 
  638000   0.98470034   -7.3269454    211.14767  0.027579371  0.027904446            3 
  639000    1.0050993   -7.3168192    210.63246  0.027469021  0.027885105            2 
  640000    1.0130969   -7.3399978    211.23554  0.027504628  0.027865667            1 
  641000    1.0138269   -7.3304015    211.03486  0.027435629   0.02784632            5 
  642000    1.0392678   -7.3152506     211.4647  0.027448689  0.027827016            5 
  643000   0.98990405   -7.3025385    212.05377  0.027482345   0.02780805            2 
  644000   0.99516721   -7.3444494    211.80356  0.027407293  0.027789106            4 
  645000    1.0010383   -7.3398012    212.35309    0.0274358  0.027770191            2 
  646000    1.0018651   -7.3023701    212.95999  0.027471619  0.027751728            2 
  647000   0.97399737    -7.301407    213.03175  0.027438402  0.027733126            2 
  648000   0.98818067   -7.3035635    213.32249  0.027433448  0.027714476            2 
  649000    0.9835327   -7.3224755    213.38665  0.027399416  0.027696077            3 
  650000   0.98770576   -7.3479589    213.23456  0.027337764  0.027677201            2 
  651000    1.0002295   -7.3236718    213.82337  0.027371143  0.027658899            1 
  652000   0.98255697   -7.3715436    213.49076  0.027286652  0.027640154            2 
  653000   0.98413944   -7.3383288    213.38901  0.027231879  0.027621333            2 
  654000   0.97109548   -7.3190279    214.58698  0.027342887  0.027602618            2 
  655000    1.0382962   -7.3426934    213.88332  0.027211618  0.027583722            4 
  656000    1.0118464   -7.3432881    214.53068  0.027252373  0.027564685            2 
  657000    0.9986393   -7.3710374    214.29751  0.027181318  0.027545777            3 
  658000   0.97890823   -7.2959955    215.80487   0.02733091  0.027527212            2 
  659000   0.97563112   -7.3311932    214.57847  0.027134354  0.027508635            3 
  660000   0.97792249   -7.3354818    215.13437  0.027163431  0.027489969            1 
  661000    1.0041578   -7.3327414    215.71896  0.027196037  0.027471182            3 
  662000   0.98700616   -7.3451445    216.04957  0.027196572  0.027452315            2 
  663000   0.98861611   -7.3599144    215.49811  0.027086238  0.027433342            2 
  664000    1.0071663   -7.3659082    216.17487   0.02713038  0.027414483            2 
  665000   0.98269624   -7.3399647    216.38604  0.027116045  0.027395446            1 
  666000   0.99853487    -7.357757    216.13105  0.027043424  0.027376733            3 
  667000    0.9880261   -7.3396155    216.92515  0.027102093   0.02735807            1 
  668000   0.97460469   -7.3189971    216.75978  0.027040891   0.02733931            1 
  669000   0.97565893    -7.324086    216.32076  0.026945785  0.027320187            2 
  670000   0.97629293   -7.3931964     216.2597  0.026897972  0.027300758            2 
  671000   0.98059912    -7.362452    216.75734   0.02691969   0.02728151            2 
  672000   0.99046235   -7.3235998    216.88036  0.026894886  0.027262621            2 
  673000    1.0021566   -7.3701259    217.14358  0.026887516  0.027243477            2 
  674000   0.97096254    -7.351202    216.91487  0.026819346  0.027224242            2 
  675000   0.96726915   -7.3733191    217.43325  0.026843611  0.027205109            4 
  676000    1.0057656   -7.3655059    217.50317  0.026812521  0.027185782            2 
  677000   0.96607953    -7.327614     218.1608  0.026853865  0.027166565            2 
  678000   0.98299604   -7.3406999    217.78026  0.026767485  0.027147366            2 
  679000     0.991875   -7.3597091    217.81965  0.026732898  0.027128238            1 
  680000   0.97566758    -7.358399    218.38402  0.026762747  0.027109013            2 
  681000   0.97590328   -7.3758529    218.84814  0.026780242  0.027089648            3 
  682000   0.98805955   -7.3662666    218.18589  0.026660056  0.027070315            2 
  683000   0.98172243    -7.385874    218.55835  0.026666466  0.027050956            3 
  684000   0.97004574   -7.3486004    219.02796  0.026684693  0.027031419            2 
  685000   0.97235085   -7.3610799    219.78436  0.026737756  0.027012142            3 
  686000    1.0042134   -7.3422981    219.54323  0.026669489  0.026992965            1 
  687000   0.97980708   -7.3460308    219.45208  0.026619612  0.026974211            1 
  688000   0.98716448   -7.3640876    219.92677  0.026638417  0.026955229            1 
  689000   0.96896433   -7.3828135    219.81034  0.026585673  0.026936521            3 
  690000   0.98215599   -7.3317719    221.18117  0.026712701  0.026917832            2 
  691000   0.97951125   -7.4124812    220.13494   0.02654787  0.026899166            3 
  692000   0.97824937   -7.3884249    221.28437  0.026647925  0.026880306            2 
  693000   0.96265172   -7.3565377    221.44609  0.026628919  0.026861802            3 
  694000   0.97707658   -7.3724198    220.41953  0.026467282   0.02684319            4 
  695000   0.99977881   -7.3680466    220.78765  0.026473339  0.026824286            6 
  696000   0.97205609   -7.3552555    222.46374  0.026635984  0.026805588            1 
  697000   0.99801747   -7.3860735    222.18805  0.026564807  0.026786883            2 
  698000   0.98742577   -7.3904443     222.0606  0.026511533  0.026768066            3 
  699000   0.99128411   -7.3533817    221.70198  0.026430851  0.026749252            2 
  700000   0.97869076    -7.410062    221.75335  0.026399208  0.026730267            3 
  701000   0.98760123   -7.4080733     222.1381  0.026407287  0.026711277            2 
  702000   0.96188175   -7.3829469    222.63247  0.026428356  0.026692571            2 
  703000   0.97872282   -7.3957538    222.73505  0.026402922  0.026673983            1 
  704000   0.98572936   -7.3620984    223.49925  0.026455877  0.026655378            2 
  705000    0.9712184    -7.358067    222.78339  0.026333734  0.026636549            2 
  706000    0.9720736   -7.4046546    223.30349  0.026357824  0.026617732            2 
  707000   0.94980709   -7.3750816    223.22695  0.026311522  0.026599247            1 
  708000   0.97270818   -7.3400613    224.17765  0.026386258  0.026580596            2 
  709000   0.96299754   -7.3559905    223.54069  0.026274176  0.026561881            2 
  710000   0.97463391   -7.3430591    224.55155  0.026355816  0.026543342            2 
  711000   0.96662822   -7.3796746    224.41368  0.026302588  0.026524877            3 
  712000   0.98561155   -7.3804322    224.79708   0.02631052  0.026506594            2 
  713000   0.97456592   -7.3773326    225.02189  0.026299894  0.026488515            1 
  714000   0.96644096   -7.4058357    225.13117  0.026275813  0.026470335            1 
  715000    0.9757481   -7.4016513    225.50186  0.026282268  0.026451978            2 
  716000    0.9707191   -7.4020634    225.34218  0.026226976  0.026433715            2 
  717000   0.97244609   -7.3827635    225.52663  0.026211836  0.026415676            2 
  718000   0.97330421   -7.3930149    225.23439   0.02614141  0.026397432            2 
  719000   0.95029014   -7.4017601    226.05202  0.026199817  0.026379003            6 
  720000   0.95926897   -7.3994708    226.03994   0.02616203  0.026360834            4 
  721000   0.95934438   -7.3858398    226.62839  0.026193757  0.026342536            2 
  722000    0.9645731   -7.3975122    226.95521  0.026195199  0.026324641            1 
  723000   0.96929348   -7.3631492    227.11038  0.026176853  0.026306888            2 
  724000   0.95041747   -7.3677824    227.41805  0.026176111  0.026289155            2 
  725000   0.97210874   -7.3991686    227.01333  0.026093487  0.026271536            2 
  726000   0.96091211   -7.3872869    227.98034  0.026168542  0.026254157            2 
  727000   0.96088812   -7.4350446    227.99318  0.026134019  0.026236424            6 
  728000   0.97456288   -7.4077832    227.97142   0.02609563  0.026218893            2 
  729000   0.97185248   -7.4672801    227.59148  0.026016402  0.026201079            2 
  730000   0.98244008   -7.4092562    227.68565  0.025991512  0.026183034            3 
  731000   0.95948116   -7.4025098    228.69629  0.026071168  0.026165256            4 
  732000   0.96564039   -7.4250148    228.44242   0.02600665  0.026147415            3 
  733000   0.95693146   -7.4246136    228.89151  0.026022227  0.026129442            2 
  734000   0.97045771   -7.3807616    228.97386  0.025996124  0.026111873            3 
  735000   0.97669581   -7.3738985    229.70356  0.026043487  0.026094433            3 
  736000   0.96480766   -7.4154082    229.44949  0.025979335  0.026076799            5 
  737000   0.95407099   -7.4187348    229.92697  0.025998075  0.026059391            2 
  738000   0.97253108   -7.4351054    230.06383  0.025978301  0.026042118            3 
  739000   0.96357162   -7.4020703    230.48835  0.025991018  0.026024913            3 
  740000   0.95924557   -7.4450491     229.9518  0.025895473  0.026007635            2 
  741000   0.96482802   -7.4044804    230.98824  0.025977085   0.02599036            4 
  742000   0.96720946   -7.4111149    230.46205   0.02588298  0.025973185            2 
  743000   0.94143564   -7.4283832    231.14323  0.025924544  0.025956012            8 
  744000   0.97124736   -7.4700531    230.45917  0.025813079  0.025938708            1 
  745000   0.95957661    -7.444231    231.31579   0.02587425   0.02592124            2 
  746000   0.95014352   -7.4301088    231.61726  0.025873242  0.025904082            2 
  747000   0.97006185   -7.4061078    231.73663  0.025851922  0.025887011            2 
  748000   0.96589532   -7.4393573    232.28759  0.025878742  0.025870185            2 
  749000   0.95085479   -7.3999712    232.31651  0.025847408  0.025853502            2 
  750000   0.94920148   -7.4339753    232.00516  0.025778351   0.02583669            2 
  751000   0.96303792   -7.4232861     232.5395  0.025803317  0.025819907            2 
  752000   0.97082573   -7.3995143    232.98064   0.02581789  0.025803514            2 
  753000   0.92730852   -7.4443556    232.84574  0.025768674  0.025786756            3 
  754000   0.94528041   -7.4254395    232.63356  0.025711048  0.025769978            1 
  755000   0.95476529   -7.4817198    232.85845  0.025701815  0.025753028            1 
  756000   0.93516553   -7.4142334    233.68467  0.025758892  0.025736196            2 
  757000   0.96205864   -7.4410562    232.84463   0.02563239  0.025719442            2 
  758000   0.97559394   -7.4580896    233.21695  0.025639507  0.025702622            4 
  759000   0.95231387    -7.459265    233.85895  0.025676214  0.025685928            1 
  760000   0.93127643   -7.4356143    234.16551  0.025676043  0.025669117            2 
  761000   0.94243827   -7.4711776    234.20127  0.025646218  0.025652591            1 
  762000   0.93806433   -7.4307978    234.48383  0.025643463  0.025635898            1 
  763000   0.93739043    -7.432145    234.08731  0.025566547   0.02561932            5 
  764000   0.92782349   -7.4248835    234.99748   0.02563236  0.025602735            2 
  765000   0.95212322   -7.4406398     234.8348  0.025581133  0.025586088            1 
  766000   0.93841194   -7.4251842     234.9979  0.025565481  0.025569334            2 
  767000   0.97220103   -7.4432426    234.62932  0.025492103  0.025552486            9 
  768000   0.94869747   -7.4295006    235.27307  0.025528762  0.025535553            2 
  769000   0.95816727   -7.4451833    235.21346  0.025489105  0.025518611            3 
  770000    0.9360395   -7.4443749    235.06816  0.025440277  0.025501675            3 
  771000   0.94862819   -7.4523654    235.23664  0.025425491  0.025484672            3 
  772000   0.90725488   -7.4369525    236.07088  0.025482608  0.025467739            4 
  773000   0.93459912    -7.458128    235.74726  0.025414754  0.025450945            2 
  774000   0.96245096   -7.4504713    236.38012  0.025450056  0.025434168            3 
  775000   0.93182482   -7.4286986    236.41614   0.02542109  0.025417319            1 
  776000   0.93093852   -7.4740886    236.25824  0.025371375  0.025400361            3 
  777000   0.93771198   -7.4626548    236.52796   0.02536765  0.025383584            3 
  778000     0.936148   -7.4887598    235.95334  0.025273494  0.025366724            5 
  779000   0.94417525   -7.4105359    237.13483   0.02536744  0.025349931            5 
  780000   0.94642873   -7.4840679    236.83378  0.025302754  0.025333172            4 
  781000   0.96380424   -7.4661867    236.76169  0.025262664   0.02531608            1 
  782000   0.94059478   -7.4519896    237.35898  0.025294009  0.025299177            1 
  783000   0.93942833   -7.4877236     237.0614  0.025230034   0.02528217            5 
  784000   0.94461911   -7.4739249    236.50412  0.025138618  0.025265045            3 
  785000    0.9541451   -7.4292552    237.37477   0.02519902     0.025248            2 
  786000   0.92868804   -7.4592617    237.52536  0.025182926  0.025231038            7 
  787000   0.94398994   -7.4378791    238.07214  0.025208825    0.0252138            4 
  788000    0.9390307   -7.4621721    237.42183  0.025108061  0.025196326            2 
  789000    0.9362014   -7.4772432    237.27603   0.02506084  0.025178911            3 
  790000   0.92415029   -7.4300472     238.6026   0.02516905  0.025161716            2 
  791000   0.92465902   -7.4347208    238.44654   0.02512079  0.025144807            4 
  792000   0.93281219    -7.433307    238.20233  0.025063376  0.025127949            2 
  793000   0.93522226   -7.4655072    239.44178  0.025162019  0.025111025            4 
  794000   0.94884366     -7.47336    239.48697  0.025135073  0.025094061            4 
  795000   0.92481738   -7.4412723    238.83552   0.02503517  0.025077167            1 
  796000   0.94030181   -7.4378749    239.35998  0.025058625  0.025060321            3 
  797000   0.92441983   -7.4765345     238.6916  0.024957298  0.025043214            1 
  798000    0.9549907   -7.4642265    238.91223  0.024949063  0.025025966            1 
  799000    0.9318532   -7.4784431    238.98204  0.024925119  0.025008866            1 
  800000   0.94065919   -7.4607349    239.57625  0.024955859  0.024991883            1 
  801000   0.93102053   -7.4615902    240.10044  0.024979238  0.024975019            2 
  802000   0.93084622   -7.5271237    239.65954   0.02490228  0.024958143            2 
  803000   0.94530441   -7.4921128    240.27965  0.024935622   0.02494149            2 
  804000   0.92691965   -7.4243241     240.3805   0.02491506  0.024924745            2 
  805000   0.92824126   -7.4568253    240.96677  0.024944801  0.024907999            2 
  806000   0.91578973   -7.4825959    241.08764  0.024926349  0.024891222            2 
  807000   0.93208211   -7.4679036     240.9238  0.024878542  0.024874333            1 
  808000    0.9529279   -7.4676579     241.5333  0.024910613  0.024857693            2 
  809000   0.92078119   -7.4620575    241.79027   0.02490629  0.024841253            3 
  810000   0.93027102   -7.4723897    241.50523  0.024846217  0.024824767            2 
  811000   0.91509371   -7.4284715    241.67818  0.024833352  0.024808037            5 
  812000   0.93923782   -7.5065064    241.52257  0.024786799  0.024791362            1 
  813000   0.90980091   -7.4860352    241.82446  0.024787255  0.024774663            2 
  814000   0.93317054   -7.4494853    242.28195  0.024803639  0.024758164            4 
  815000   0.94955693    -7.470783      242.276  0.024772598  0.024741627            3 
  816000    0.9306089   -7.4984583     241.6576  0.024679085  0.024724888            3 
  817000   0.93978732   -7.4739969    242.86483  0.024772014  0.024708128            1 
  818000   0.90642914   -7.5003376    243.06064  0.024761679  0.024691637            1 
  819000   0.92831302   -7.5212715    242.53949  0.024678418  0.024674976            4 
  820000   0.91334257   -7.4636246    242.35894  0.024629973  0.024658396            4 
  821000   0.92193183   -7.4972484    242.85147  0.024649966  0.024641748            3 
  822000   0.92167866   -7.4864266    243.38843  0.024674416  0.024625073            1 
  823000   0.93939413   -7.5260047    243.23148  0.024628542  0.024608612            1 
  824000   0.93183803   -7.4825085    243.92492  0.024668783  0.024592057            3 
  825000   0.95825394   -7.5090632    243.40759  0.024586625  0.024575489            2 
  826000   0.90805468   -7.5240339    243.33835  0.024549874   0.02455882            3 
  827000   0.93155065   -7.5249971     242.6052  0.024446312  0.024542046            6 
  828000   0.92266582   -7.4922159    244.00652  0.024557822  0.024525138            1 
  829000   0.93059785   -7.4533109    244.18035  0.024545672  0.024508488            2 
  830000   0.91516439   -7.4969998    244.02663  0.024500665  0.024491738            2 
  831000   0.90791069   -7.4834174    244.91808  0.024560577   0.02447501            3 
  832000   0.92045548   -7.4806188    244.75634  0.024514857  0.024458453            2 
  833000   0.93028418   -7.4939235    244.16994  0.024426765  0.024441697            2 
  834000   0.91411232    -7.496737    245.11468  0.024491874  0.024425035            2 
  835000   0.92999364    -7.499001    244.05246  0.024356533  0.024408254            3 
  836000   0.93011345   -7.5232144    244.72973  0.024394909  0.024391376            2 
  837000   0.91372658   -7.5407032    245.16824  0.024409422  0.024374705            4 
  838000   0.92323509   -7.4887021    245.71782  0.024434946  0.024358131            1 
  839000   0.90965296   -7.4992632    245.44363  0.024378588   0.02434181            3 
  840000   0.91949222   -7.4734109    246.03443  0.024408178  0.024325454            1 
  841000   0.90073013   -7.4861043    246.10518  0.024386165  0.024309049            3 
  842000   0.93475088   -7.4596391    245.93812  0.024340669  0.024292636            1 
  843000   0.91868679   -7.5240581    245.68483  0.024286756  0.024276202            2 
  844000   0.90914227   -7.4978304    245.57309  0.024246948   0.02425953            2 
  845000   0.94304185   -7.4965407    245.61269  0.024222159  0.024242895            3 
  846000     0.920751   -7.4651849    246.76272  0.024306809  0.024226255            3 
  847000   0.91847408   -7.4961323    246.36757  0.024239234  0.024209844            2 
  848000   0.93157249   -7.5023087    246.55922  0.024229483   0.02419325            3 
  849000    0.9340658   -7.5053822    246.45797  0.024191006  0.024176593            1 
  850000   0.91069864   -7.5154262    247.09714   0.02422521  0.024160022            3 
  851000   0.92062657   -7.5146448    247.12909  0.024199872  0.024143349            2 
  852000    0.9157455   -7.5172229    247.79508  0.024236608  0.024126727            2 
  853000   0.89805524   -7.5241067    247.04299   0.02413472  0.024110094            8 
  854000   0.91705979   -7.5545217    246.35795  0.024039613  0.024093312            1 
  855000   0.89367124   -7.5045092    247.74714  0.024146895  0.024076599            3 
  856000   0.90797665   -7.5380714     247.1105  0.024056707  0.024059915            2 
  857000    0.9098605   -7.5269606     247.4657  0.024063176  0.024043041            1 
  858000   0.91760441   -7.5200412    247.44323  0.024032948  0.024026124            4 
  859000   0.91822739   -7.5080984    247.57798  0.024018043  0.024009339            2 
  860000   0.90417609   -7.4744825    247.90368  0.024021675  0.023992621            2 
  861000    0.9064144   -7.5376982    247.87443  0.023990944  0.023975921            3 
  862000   0.87462791   -7.5070843    248.11874  0.023986731  0.023959148            2 
  863000   0.92094875   -7.5381994    248.23013  0.023969692  0.023942517            4 
  864000   0.92798098   -7.5133736    247.72002  0.023892749  0.023925941            2 
  865000   0.89131475   -7.5705204    247.89008  0.023881511  0.023909506            2 
  866000   0.88682145    -7.564882    248.37948  0.023901028  0.023892912            1 
  867000   0.89341526    -7.555632     248.9954  0.023932661  0.023876361            2 
  868000   0.90446821   -7.5275537    248.91576  0.023897442  0.023859955            4 
  869000   0.89454916   -7.5430229    249.54795  0.023930567  0.023843656            3 
  870000    0.9038679   -7.5558522    249.02447  0.023852919   0.02382728            2 
  871000   0.90844925   -7.5509416    249.39284  0.023860777   0.02381075            1 
  872000   0.92804152   -7.5240193    249.80066  0.023872387  0.023794224            2 
  873000   0.90620185   -7.5635383    249.54524   0.02382066  0.023777749            2 
  874000   0.92005714   -7.5330105    248.79482  0.023721855  0.023761288            2 
  875000   0.91660522   -7.5506955    249.77912  0.023788487   0.02374494            1 
  876000   0.89025413   -7.5360785     250.5853  0.023838023  0.023728425            2 
  877000   0.89498351   -7.5822512     250.1626  0.023770677  0.023712156            2 
  878000   0.88866018   -7.5442742    251.24362  0.023846206  0.023696116            3 
  879000   0.88964162   -7.5378454    251.33384  0.023827629  0.023680093            6 
  880000   0.89471707   -7.5151512    250.42848  0.023714818  0.023663971            2 
  881000   0.89863189    -7.564904    250.69758  0.023713354  0.023647891            2 
  882000   0.89660869    -7.516175    251.47971  0.023760366  0.023631941            3 
  883000   0.91013134   -7.5435437    251.65944  0.023750419  0.023615925            3 
  884000   0.90927747   -7.5824581     251.4413  0.023702988  0.023599795            1 
  885000   0.90679724   -7.5959527    251.75455  0.023705702   0.02358368            2 
  886000   0.90175287   -7.5680427    251.94723  0.023697068  0.023567768            2 
  887000   0.91935656   -7.5568002    252.37426  0.023710472  0.023551838            4 
  888000   0.88504529   -7.5544401    252.85637  0.023729013  0.023536197            1 
  889000   0.91067979   -7.5287241    253.06443  0.023721825   0.02352057            3 
  890000   0.90027918   -7.5543871    254.06381  0.023788746  0.023505076            1 
  891000   0.90920618   -7.5390238    253.30127  0.023690729  0.023489584            3 
  892000    0.8730864    -7.577164    253.51419  0.023684061   0.02347422            3 
  893000   0.91260382   -7.5886248    253.16605  0.023625051  0.023458677            1 
  894000   0.89689224   -7.5928639    252.94437  0.023577962  0.023443122            2 
  895000   0.88821947   -7.5386121    254.18632  0.023667255  0.023427665            3 
  896000   0.89074316   -7.5740949    253.88387  0.023612711  0.023412212            3 
  897000   0.89793411   -7.5640163    253.95254  0.023592766  0.023396747            2 
  898000   0.90408497   -7.5866827    253.85971  0.023557879  0.023381221            3 
  899000   0.89453013   -7.5414363    254.34553  0.023576709  0.023365877            1 
  900000   0.88920168   -7.5736577    255.11606  0.023621858  0.023350553            1 
  901000   0.89267942   -7.5327791    254.90537  0.023576154  0.023335165            1 
  902000   0.88866755   -7.5358778    255.19143  0.023576444  0.023319854            2 
  903000   0.89722863   -7.5711995    254.58742  0.023494594  0.023304583            4 
  904000    0.8852605   -7.5763966    254.90721  0.023498084  0.023289095            4 
  905000   0.91307804    -7.535553     256.0252  0.023575065   0.02327374            3 
  906000   0.89055491   -7.5808548     255.3851  0.023490168  0.023258385            5 
  907000   0.89638947   -7.6009634    255.04115  0.023432667  0.023242935            2 
  908000    0.8920731   -7.5952705    254.35223  0.023343633  0.023227366            2 
  909000   0.89154431   -7.5891221    255.49519  0.023422735  0.023212073            2 
  910000   0.88044611   -7.5298727    256.18094  0.023459793  0.023196756            1 
  911000   0.87352352   -7.5572219    255.69056  0.023389184  0.023181499            3 
  912000   0.88373674   -7.5600761    255.28134  0.023326146   0.02316624            1 
  913000   0.89382841   -7.5653943    256.84272   0.02344311  0.023150886            2 
  914000   0.88408915   -7.5798998    256.56426  0.023392073  0.023135809            2 
  915000   0.88359299    -7.598105    256.16918  0.023330527  0.023120704            3 
  916000   0.89730472   -7.5894649    257.05344  0.023385502  0.023105372            3 
  917000   0.87915509   -7.5629629    256.96717   0.02335216  0.023090186            3 
  918000   0.89164593   -7.5648925     256.4176  0.023276833  0.023074885            1 
  919000   0.88567934   -7.5629713    257.22892  0.023325075  0.023059732            1 
  920000   0.88197314   -7.5685091    257.07092  0.023285409  0.023044577            3 
  921000   0.86241382   -7.5473732    256.87456   0.02324236  0.023029372            2 
  922000   0.89857613    -7.563662    256.90215  0.023219645  0.023014302            1 
  923000   0.88129098   -7.6077387    256.81885  0.023186968  0.022999089            4 
  924000   0.87405989    -7.589827    256.81708  0.023161714   0.02298368            4 
  925000   0.87252195   -7.5830924     257.6222  0.023209207  0.022968246            3 
  926000   0.87408576    -7.570263    257.57418  0.023179822  0.022953202            2 
  927000   0.87971609   -7.5821562    258.20433  0.023211464  0.022938195            4 
  928000   0.87703659   -7.5767967    257.67385  0.023138816  0.022922918            1 
  929000   0.86183306   -7.5976199    257.39902  0.023089255  0.022907859            2 
  930000   0.87511706   -7.5828111    258.23263  0.023139124  0.022892756            2 
  931000   0.88308554   -7.5924208    258.52216  0.023140186  0.022877518            3 
  932000   0.87046465   -7.5803497     258.7318  0.023134102  0.022862414            3 
  933000   0.88594056   -7.5431177    258.76961  0.023112684  0.022847356            2 
  934000   0.87270975   -7.5981597    259.34041  0.023138866  0.022832382            1 
  935000    0.8953629   -7.5899498    259.16181  0.023098201  0.022817421            2 
  936000   0.88436409   -7.6179475    258.80314   0.02304159  0.022802468            2 
  937000   0.88051853   -7.6102453    259.13162  0.023046213   0.02278743            4 
  938000   0.86909956   -7.6063801    258.92472  0.023003262  0.022772242            5 
  939000   0.88722201   -7.5939011    258.98901   0.02298447  0.022757039            2 
  940000   0.87938733    -7.588424     259.0791  0.022968005  0.022741759            5 
  941000   0.85306112   -7.6337757    258.40657  0.022884039  0.022726381            1 
  942000   0.89868263   -7.6248722    258.57978  0.022875069   0.02271083            2 
  943000   0.87831071   -7.6003487    259.56951  0.022938274  0.022695364            2 
  944000    0.8864021   -7.6217823    259.44773  0.022903225  0.022680131            4 
  945000     0.871568    -7.599819     259.7701  0.022907416  0.022664794            2 
  946000    0.8690158    -7.612324    259.69084  0.022876219   0.02264953            1 
  947000   0.87525283   -7.6284622    259.12352   0.02280214  0.022634187            2 
  948000   0.87230648   -7.6056951    259.85277  0.022842191   0.02261883            2 
  949000   0.86612925   -7.5691135    260.26433  0.022854261  0.022603703            1 
  950000   0.88754284   -7.5913135    259.75755   0.02278575   0.02258857            2 
  951000   0.88471345   -7.6166979    260.50671  0.022827437  0.022573423            2 
  952000   0.89048418   -7.5982312    259.78543  0.022740322  0.022558225            1 
  953000   0.86543968   -7.6081039    260.85928   0.02281036  0.022543067            3 
  954000   0.87803145   -7.6220185    260.53596  0.022758207  0.022527844            2 
  955000   0.86607448   -7.5928021    260.32203   0.02271571  0.022512667            2 
  956000   0.85622711   -7.6259859    261.53247  0.022797461  0.022497516            2 
  957000   0.86839806   -7.6145398    261.07518   0.02273382  0.022482368            2 
  958000   0.84836706   -7.6231299    260.81147  0.022687149  0.022467234            2 
  959000   0.87318439   -7.6055835    261.14405  0.022692392  0.022452008            3 
  960000   0.86429352   -7.6221535    260.98069  0.022654574  0.022436803            3 
  961000   0.84776771   -7.6395964    261.10015  0.022641359  0.022421737            2 
  962000   0.87435897   -7.6003995    262.28956  0.022720856  0.022406619            1 
  963000    0.8742962   -7.6275362    261.23221  0.022605764  0.022391316            1 
  964000   0.87710811   -7.5979941    260.70511  0.022536749  0.022375873            4 
  965000   0.85792023   -7.6349855    261.48492  0.022580735  0.022360435            3 
  966000   0.86302333   -7.6202579    261.13189  0.022526906  0.022345161            3 
  967000   0.88019453   -7.6245157    262.14211  0.022590668  0.022329904            2 
  968000   0.86376541   -7.6278754    261.73181  0.022532008  0.022314622            2 
  969000   0.87345067   -7.6378949    261.45184  0.022484679  0.022299238            1 
  970000   0.85456426   -7.6251735    262.34301  0.022538059  0.022283919            1 
  971000   0.85710853   -7.6066452    261.78741  0.022467165  0.022268684            2 
  972000   0.87563979   -7.6489734    261.89566  0.022453332  0.022253347            2 
  973000   0.85958357   -7.6292017    262.31044  0.022465779  0.022238026            3 
  974000   0.88535628   -7.6638142    261.81688  0.022400486  0.022222733            2 
  975000   0.85350453   -7.6007502    263.30021  0.022504292  0.022207604            2 
  976000   0.86480102   -7.6717658    263.00906  0.022456375  0.022192653            3 
  977000   0.88039545   -7.6469417    263.28451  0.022456884  0.022177764            5 
  978000   0.86735903   -7.6431476    263.15422  0.022422821  0.022162823            2 
  979000   0.86280349   -7.6186189    263.57476  0.022435713  0.022147921            4 
  980000   0.88671817   -7.6678339    263.62676  0.022417241   0.02213297            6 
  981000     0.865914   -7.6443319     263.4286  0.022377557   0.02211805            1 
  982000   0.86324821   -7.6475519     263.7068  0.022378377  0.022103188            2 
  983000   0.87485343   -7.6244849    263.94165  0.022375521  0.022088372            2 
  984000   0.84234716   -7.6545882    264.04871  0.022361848  0.022073434            1 
  985000   0.86948235   -7.6840606    263.83627  0.022321174  0.022058568            2 
  986000    0.8646622   -7.6242881    264.23171  0.022331957   0.02204381            1 
  987000   0.87761655   -7.6095824    264.66432  0.022345856  0.022029174            2 
  988000   0.85724219   -7.6420079    264.56286  0.022314681  0.022014521            3 
  989000   0.85541064   -7.6571067    265.15782  0.022342249  0.021999951            4 
  990000   0.84698368   -7.6544243     265.4488  0.022344175  0.021985382            2 
  991000   0.84511698   -7.6552353    265.12408  0.022294322  0.021970691            4 
  992000   0.86766921   -7.6320942    265.81663  0.022330026  0.021956135            5 
  993000   0.84382481   -7.6536245    265.11527   0.02224868  0.021941549            5 
  994000   0.87170251    -7.649542    266.02135  0.022302259  0.021926898            2 
  995000   0.86653956   -7.6444958    265.11035  0.022203547  0.021912312            2 
  996000   0.84965296   -7.6663212    265.23427  0.022191622  0.021897492            3 
  997000   0.84539803   -7.6642893    264.72292  0.022126623  0.021882553            2 
  998000   0.85291973   -7.6624733    264.51531  0.022087116  0.021867597            3 
  999000   0.87132532   -7.6683172     265.1864  0.022120987  0.021852604            1 
 1000000   0.86127413   -7.6430063    264.90758  0.022075632  0.021837756            3 
 1001000   0.86195712   -7.6383792     265.4556  0.022099201  0.021822891            1 
 1002000   0.85927462   -7.6187051    265.51374  0.022081981  0.021808019            2 
 1003000   0.84077772   -7.6454718    264.84322  0.022004255   0.02179303            2 
 1004000   0.84923926    -7.635979    265.10422  0.022004002  0.021777986            3 
 1005000   0.84266428   -7.6487554    265.78256  0.022038355  0.021763009            9 
 1006000   0.86140369   -7.6621676    265.19367  0.021967667  0.021748062            4 
 1007000   0.87141875   -7.6812269    265.47884   0.02196945  0.021732987            4 
 1008000   0.87570134   -7.6782665    265.63639   0.02196068  0.021717845            5 
 1009000   0.83372502   -7.6668729    265.95002  0.021964819  0.021702795            2 
 1010000   0.84676518   -7.6769154    265.74964  0.021926538  0.021687632            4 
 1011000   0.85646576    -7.681256    265.78512  0.021907774  0.021672546            2 
 1012000   0.83141039   -7.6397474     266.4065  0.021937294  0.021657621            2 
 1013000   0.84538211   -7.6837973    266.09421  0.021889948  0.021642828            4 
 1014000   0.81527283   -7.6979365    266.69471  0.021917711  0.021627961            3 
 1015000   0.84196272   -7.6694488    267.25139  0.021941822  0.021613185            1 
 1016000   0.84395497   -7.6517685    266.97283  0.021897378  0.021598456            2 
 1017000   0.85926489   -7.6971156    266.64688  0.021849138  0.021583692            2 
 1018000   0.84230334   -7.7191031    266.87564  0.021846401  0.021568901            1 
 1019000   0.85089667   -7.7095358    266.80955  0.021819557   0.02155398            2 
 1020000   0.85408768   -7.6814094     266.8647  0.021802671  0.021539039            2 
 1021000    0.8436051   -7.6754421    266.88298  0.021782809  0.021524212            2 
 1022000   0.84767576   -7.6608623    267.58227  0.021818515   0.02150938            2 
 1023000   0.84406277   -7.6797418     267.1737  0.021763905  0.021494607            3 
 1024000    0.8470151   -7.7056461    267.84455  0.021797246  0.021479869            3 
 1025000   0.83775924   -7.6978342    268.39614  0.021820824  0.021465142            4 
 1026000   0.84967662   -7.6974135    267.32102  0.021712234  0.021450426            3 
 1027000   0.84096894    -7.685683    268.38857  0.021777716  0.021435715            3 
 1028000   0.82644693   -7.7008605    268.26927   0.02174686  0.021421044            2 
 1029000   0.84983387   -7.6718324    268.66795  0.021758013  0.021406325            2 
 1030000   0.84852756   -7.6872823    267.98783  0.021681863  0.021391704            4 
 1031000   0.84044389   -7.6559438    268.03591   0.02166472   0.02137705            2 
 1032000   0.83500883   -7.6902061    268.07521    0.0216469  0.021362382            2 
 1033000   0.85894564   -7.6939674    269.25209  0.021720885  0.021347756            2 
 1034000   0.85683799   -7.7053047    268.37032  0.021628814    0.0213331            1 
 1035000   0.83768704   -7.6912625    268.62918  0.021628758  0.021318346            2 
 1036000   0.84825365   -7.7280817    268.77929  0.021619956  0.021303569            3 
 1037000   0.84433739    -7.720462    268.22682  0.021554711   0.02128895            2 
 1038000   0.85428603   -7.7301379    268.95152  0.021592126  0.021274279            3 
 1039000   0.83651282   -7.7232704    268.69421  0.021550707  0.021259502            1 
 1040000    0.8531089   -7.7063534    268.48695  0.021513378   0.02124461            3 
 1041000   0.83464901   -7.6866961    269.28067  0.021556249  0.021229908            3 
 1042000    0.8180702   -7.7128578    269.01522  0.021514333  0.021215236            3 
 1043000   0.83832283   -7.6969868    270.53757  0.021615338  0.021200489            2 
 1044000   0.83638999   -7.7066104    268.81914  0.021457467  0.021185721            1 
 1045000   0.83430015    -7.688318    268.64385  0.021422954  0.021170917            3 
 1046000   0.82323585   -7.7007796    269.54149  0.021473988  0.021156113            1 
 1047000   0.84250895   -7.6967868    268.63131  0.021381034  0.021141243            2 
 1048000   0.83506351   -7.7382103     268.9468  0.021385719   0.02112639            4 
 1049000   0.84268872   -7.6839302    269.65202  0.021421355  0.021111534            2 
 1050000   0.86187898   -7.7122763    268.95059  0.021345285  0.021096678            2 
 1051000   0.83640259    -7.721974    269.10316  0.021337073  0.021081668            3 
 1052000   0.82914979   -7.7141463    269.01834  0.021310071  0.021066709            5 
 1053000   0.84435424   -7.7339969    269.25646  0.021308679  0.021051784            3 
 1054000   0.84010201   -7.7355405    269.65936  0.021320316   0.02103694            3 
 1055000   0.83438943   -7.7193669    269.53389  0.021290196  0.021022183            2 
 1056000    0.8274071   -7.7287423    270.11265  0.021315708  0.021007439            3 
 1057000   0.82940332   -7.7184094    270.43533  0.021320981  0.020992639            2 
 1058000   0.84981954    -7.704027    270.30596   0.02129064  0.020977809            4 
 1059000   0.83620855   -7.7179442    270.02478  0.021248409  0.020963079            1 
 1060000   0.82442582   -7.6767344    270.50346  0.021265995  0.020948351            2 
 1061000   0.82194242   -7.7185533    269.73263  0.021185409  0.020933538            2 
 1062000   0.82253832     -7.69276    270.26454  0.021207199   0.02091879            1 
 1063000   0.82813131   -7.7091075    270.78168  0.021227789  0.020904084            5 
 1064000   0.83642031   -7.7051825    270.18701  0.021161263  0.020889379            2 
 1065000   0.82321955   -7.7174711    270.36886  0.021155623  0.020874519            2 
 1066000   0.82292864   -7.7111839    270.43098  0.021140634  0.020859697            3 
 1067000   0.82121113    -7.752405    269.81346  0.021072592  0.020844742            2 
 1068000   0.83598065   -7.7219279     270.1469  0.021078878  0.020829827            2 
 1069000   0.81632143   -7.7249032     271.7421  0.021183513  0.020814969            5 
 1070000   0.83766009   -7.7459326    270.52908  0.021069243  0.020800112            3 
 1071000   0.83080875   -7.7295891    270.66788   0.02106037  0.020785248            2 
 1072000   0.82837567   -7.7112937    271.53096  0.021107817  0.020770433            2 
 1073000   0.81969684   -7.7422436    270.25871  0.020989338  0.020755648            2 
 1074000   0.80931029    -7.758076    270.68168  0.021002613  0.020740682            4 
 1075000   0.83343813   -7.7335993    270.52914  0.020971251  0.020725866            5 
 1076000   0.83428667   -7.7538332    271.35723  0.021015895  0.020710995            3 
 1077000   0.82909439    -7.728892    271.23161  0.020986661  0.020696128            1 
 1078000   0.82769541    -7.734995    270.78124  0.020932378  0.020681218            2 
 1079000   0.81552382   -7.7397876     271.4745   0.02096652   0.02066645            2 
 1080000   0.82662222   -7.7662914    270.47781  0.020870202  0.020651694            1 
 1081000   0.82169498   -7.7431842    271.78408  0.020951594  0.020636885            4 
 1082000    0.8100498   -7.7496398    272.06244  0.020953669  0.020622137            1 
 1083000   0.79483752   -7.7624071    271.39827  0.020883216  0.020607368            5 
 1084000    0.8234706   -7.7606911    271.90317  0.020902766  0.020592562            4 
 1085000   0.82120729   -7.7447886    271.91131  0.020884125  0.020577788            1 
 1086000   0.79971358   -7.7569182    271.56511  0.020838329  0.020562933            2 
 1087000   0.82595897   -7.7564875    272.29616  0.020875204  0.020548051            2 
 1088000   0.82745552   -7.7505824    272.23199  0.020851102  0.020533272            3 
 1089000   0.81496503   -7.7453802    271.89536  0.020806195   0.02051849            3 
 1090000   0.81947227   -7.7634233    272.45697  0.020830044  0.020503794            5 
 1091000   0.80857727   -7.7409997    271.78317  0.020759484   0.02048908            4 
 1092000   0.82865719   -7.7361374    271.82006  0.020743289  0.020474291            2 
 1093000   0.81937221   -7.7324413    272.40302  0.020768757  0.020459545            4 
 1094000   0.83352637   -7.7241838    272.22381  0.020736122  0.020444787            3 
 1095000   0.79820971   -7.7346963    272.32773  0.020725093   0.02042991            3 
 1096000   0.83574378   -7.7432885    272.28152   0.02070267  0.020415117            3 
 1097000   0.82268374   -7.7228459    272.76894  0.020720825  0.020400295            1 
 1098000   0.82044426   -7.7703634    272.44406  0.020677296  0.020385524            2 
 1099000   0.79247958   -7.7596014    273.25587  0.020720038  0.020370713            3 
 1100000   0.82963007   -7.7423034    272.12776  0.020615739  0.020355854            4 
 1101000   0.82158994   -7.7493689    272.51927  0.020626648  0.020341086            4 
 1102000   0.82067554    -7.762404    272.23761  0.020586631  0.020326293            3 
 1103000   0.81062261   -7.7685569    272.61816  0.020596718  0.020311523            1 
 1104000   0.80746842   -7.7734689    272.57604  0.020574882   0.02029664            1 
 1105000   0.79832539   -7.7670995    272.71506  0.020566747  0.020281804            1 
 1106000   0.80547674   -7.7675477    272.58853  0.020538617  0.020266988            2 
 1107000   0.82766513   -7.7721255    272.39561  0.020505542  0.020252186            4 
 1108000   0.78898904   -7.7851129    272.85717  0.020521748  0.020237325            1 
 1109000   0.82625402   -7.7512864    273.61568  0.020560241  0.020222545            2 
 1110000   0.81555642    -7.749966    273.59499  0.020540164  0.020207786            4 
 1111000   0.82566826   -7.7571781    272.97413  0.020475107  0.020192969            2 
 1112000   0.80646239   -7.7845062    272.45844  0.020418049  0.020178169            3 
 1113000   0.81811492   -7.7581796     273.7973  0.020499948  0.020163463            2 
 1114000   0.82454733   -7.7661159    273.57263  0.020464739  0.020148842            2 
 1115000   0.80843609   -7.7768668    273.09541  0.020410718  0.020134164            5 
 1116000   0.80983065   -7.7723354    273.56669   0.02042762  0.020119566            4 
 1117000   0.81769764   -7.8020599    273.83817  0.020429586  0.020104797            1 
 1118000   0.79516973   -7.8157498    272.89375  0.020340917  0.020089953            3 
 1119000   0.79885648   -7.7870687    273.88148  0.020396298  0.020075322            2 
 1120000   0.81160902   -7.7733422    274.20023  0.020401803  0.020060767            2 
 1121000   0.81336393   -7.7621708     274.0976  0.020375974  0.020046213            3 
 1122000   0.81618779   -7.7831615    273.96029  0.020347615  0.020031651            3 
 1123000   0.81089003   -7.7919287    273.37261  0.020285887  0.020017082            4 
 1124000   0.79916584   -7.7840979    274.45154   0.02034783  0.020002547            2 
 1125000   0.80822855   -7.7738794    274.05379  0.020300281  0.019988043            2 
 1126000   0.80849665   -7.7868971    274.80566  0.020337897  0.019973566            2 
 1127000   0.81403372    -7.783783    274.44899  0.020293477  0.019959052            2 
 1128000   0.81536791   -7.7925026    274.08239  0.020248403  0.019944521            5 
 1129000   0.82044737   -7.7359649    275.16646  0.020310486  0.019930053            3 
 1130000   0.79721843   -7.7814261    274.64788  0.020254268  0.019915615            5 
 1131000   0.80766247   -7.7741388    274.34427   0.02021399  0.019901057            3 
 1132000   0.80496377   -7.8315759    273.86735  0.020161024  0.019886441            2 
 1133000   0.79951446   -7.7658286    274.62257  0.020198777  0.019871871            2 
 1134000   0.79235945   -7.7728715    274.91449  0.020202417  0.019857318            1 
 1135000   0.78881109   -7.8037301    274.88501  0.020182453  0.019842732            1 
 1136000   0.80739173   -7.8172615    274.87318  0.020163819  0.019828117            2 
 1137000   0.82183773   -7.8166711    274.69349  0.020132915  0.019813555            2 
 1138000    0.7908557   -7.7740313    274.72694  0.020117673  0.019798988            2 
 1139000   0.79332315   -7.7937801    274.64513  0.020094025  0.019784435            4 
 1140000   0.79983567   -7.7410258    275.63497  0.020148755  0.019769914            4 
 1141000    0.8072552   -7.7958765    274.51233  0.020049104  0.019755445            5 
 1142000    0.7972797   -7.8131797    274.74826  0.020048764  0.019740885            5 
 1143000   0.80368836   -7.8343941    274.68878  0.020026887  0.019726301            2 
 1144000    0.8031637   -7.7784081    275.39159  0.020060576  0.019711797            2 
 1145000   0.80823063   -7.8084614    275.27216  0.020034364   0.01969741            3 
 1146000    0.7946134   -7.8060019    275.36048  0.020023304   0.01968298            3 
 1147000   0.81747245   -7.8124938    275.35523  0.020005466  0.019668677            1 
 1148000   0.78749028   -7.7814103    275.57764  0.020004184  0.019654308            2 
 1149000   0.79663818   -7.7568202    277.12481  0.020098985  0.019640034            3 
 1150000   0.78552171   -7.7881514    276.61615  0.020044648  0.019625881            1 
 1151000    0.7794689   -7.8309617    276.18284  0.019995862   0.01961169            2 
 1152000    0.7947378   -7.7972161    276.10539  0.019972902  0.019597372            3 
 1153000   0.79534295   -7.7905526    276.27619  0.019967924     0.019583            3 
 1154000   0.79358033   -7.8042328    276.38934  0.019958791  0.019568605            2 
 1155000   0.79921875   -7.7927164    276.07134  0.019918567  0.019554269            3 
 1156000   0.79987743   -7.8222144    276.25719  0.019914734  0.019539958            2 
 1157000   0.79675859   -7.8071202    276.31621  0.019901773  0.019525612            3 
 1158000   0.79874827   -7.7994686    275.96077  0.019859007  0.019511374            2 
 1159000   0.79602552   -7.8037822    277.13628  0.019926393  0.019497138            3 
 1160000   0.79841956   -7.7948977      276.144  0.019837931  0.019482902            4 
 1161000   0.78924605   -7.7948353    276.45536  0.019843193  0.019468583            3 
 1162000   0.77833355   -7.8008874    276.60249  0.019836667  0.019454287            4 
 1163000   0.77528794   -7.8261767    275.74759  0.019758354  0.019440097            2 
 1164000   0.79063265   -7.8121354    276.44904  0.019791598  0.019425825            5 
 1165000   0.79777437   -7.8338433    276.27377  0.019762072  0.019411578            2 
 1166000   0.76557406   -7.8177375    277.74558  0.019850313  0.019397426            2 
 1167000   0.79083416   -7.8174229    277.24829  0.019797792  0.019383347            2 
 1168000   0.78816136   -7.8011944     277.4407   0.01979457  0.019369316            7 
 1169000   0.79543261   -7.8448508    276.99518  0.019745878  0.019355351            3 
 1170000   0.78538555   -7.8034937    277.33847  0.019753452  0.019341305            7 
 1171000   0.79395468   -7.8209873    277.81864  0.019770755  0.019327357            3 
 1172000   0.77743431   -7.8209487     277.7881  0.019751713  0.019313409            2 
 1173000    0.7869012   -7.8322154    277.80967  0.019736407  0.019299445            2 
 1174000   0.77300317   -7.8165019     278.4911  0.019767966  0.019285436            1 
 1175000   0.78402574   -7.8137452    277.02245  0.019646982  0.019271506            6 
 1176000   0.77643464   -7.8252209    278.09972  0.019706613  0.019257447            3 
 1177000   0.76996526   -7.8516093    277.07925  0.019617619  0.019243374            3 
 1178000   0.76677275   -7.8463906    277.51313  0.019631659  0.019229275            2 
 1179000   0.78601655   -7.8569919    277.41823    0.0196083  0.019215159            3 
 1180000   0.76337991    -7.829669    277.72117  0.019613077  0.019201041            1 
 1181000   0.78193828   -7.8096076     278.1848  0.019629184  0.019186977            2 
 1182000   0.79910407   -7.8376284    277.66418  0.019575873  0.019172974            4 
 1183000   0.78348641   -7.8158849     278.0422  0.019585954  0.019158952            1 
 1184000   0.78625981   -7.8411214    277.47521  0.019529505  0.019144935            4 
 1185000   0.75948504   -7.8418837    277.93134  0.019545101  0.019130863            2 
 1186000   0.77862472   -7.8214809    278.19356  0.019547046   0.01911676            2 
 1187000   0.78842293   -7.8315877    277.76494  0.019500488  0.019102628            1 
 1188000   0.78731356   -7.8285682    277.81913  0.019487874  0.019088621            3 
 1189000   0.78772837   -7.8400234    277.89258  0.019476632  0.019074491            3 
 1190000   0.75642062   -7.8300665    277.60588  0.019440188  0.019060369            4 
 1191000    0.7777777   -7.8550514     278.5179  0.019487678  0.019046239            2 
 1192000   0.77906497    -7.849136    278.06193  0.019439452  0.019032204            3 
 1193000   0.76321035   -7.8370547    278.43463  0.019449192  0.019018205            2 
 1194000   0.77152098   -7.8479199    277.50807  0.019368235  0.019004248            2 
 1195000   0.78378993   -7.8392691    277.81832  0.019373663  0.018990197            1 
 1196000   0.78369353   -7.8443603    278.06566  0.019374698  0.018976155            2 
 1197000   0.76034499   -7.8687358    277.89836  0.019346864  0.018962096            2 
 1198000   0.76539081   -7.8515111    277.77539  0.019322161  0.018947976            2 
 1199000   0.76953417   -7.8683657    277.70578  0.019301208  0.018933858            4 
 1200000   0.77756618   -7.8838803    277.55973  0.019274982  0.018919759            6 
 1201000   0.76273987   -7.8347216    278.64589  0.019334297  0.018905692            2 
 1202000   0.76843884   -7.8962934    278.06213   0.01927774  0.018891602            5 
 1203000   0.77091474   -7.8580778    277.99676  0.019257188  0.018877547            3 
 1204000   0.76508261      -7.8328    278.73383  0.019292209  0.018863532            1 
 1205000   0.76585285   -7.8657767    278.34865  0.019249561  0.018849552            4 
 1206000   0.76639437   -7.8651613    278.83884  0.019267471  0.018835514            7 
 1207000   0.75999441   -7.8643811     278.8178  0.019250055  0.018821423            1 
 1208000   0.76321886   -7.8240286    278.48924  0.019211454  0.018807392            4 
 1209000   0.76359794   -7.8608372    278.05796  0.019165837  0.018793342            3 
 1210000   0.75837264   -7.8567066    278.45697  0.019177477  0.018779347            4 
 1211000   0.76662655   -7.8520284    279.05916   0.01920308  0.018765349            2 
 1212000   0.75472013   -7.8492263    278.73883  0.019165211   0.01875137            1 
 1213000   0.75101562   -7.8469784    278.99021  0.019166681  0.018737314            1 
 1214000   0.77220544   -7.8670162    278.80955  0.019138492  0.018723305            2 
 1215000   0.77013669   -7.8747642    278.78197  0.019120848  0.018709278            2 
 1216000    0.7754326   -7.8945832    279.01075  0.019120802  0.018695254            5 
 1217000   0.77560525    -7.862785    279.28631   0.01912396  0.018681233            3 
 1218000   0.75267742   -7.8698858    278.39484  0.019047266  0.018667241            3 
 1219000   0.77575797   -7.8518917     278.5774  0.019044121  0.018653104            5 
 1220000   0.77454735   -7.8849807    279.20796  0.019071582  0.018639017            2 
 1221000   0.76233918   -7.8928996    278.68314  0.019020143   0.01862493            4 
 1222000   0.76345605   -7.8738456    278.34634  0.018981611   0.01861084            2 
 1223000   0.74615114    -7.878577    278.19665  0.018955891  0.018596666            3 
 1224000   0.74196493   -7.8693257      278.775   0.01897978   0.01858251            2 
 1225000   0.77093982   -7.8567995    279.59496  0.019020065   0.01856844            2 
 1226000   0.76086294   -7.8786506    278.97382  0.018962331  0.018554421            2 
 1227000   0.77946294   -7.8570033    279.24702  0.018965432  0.018540466            7 
 1228000   0.77268857    -7.848479    279.82385  0.018989132  0.018526504            2 
 1229000   0.73924445   -7.8715481    279.43671  0.018947431  0.018512586            3 
 1230000   0.75757259   -7.8706709    279.49223  0.018935788  0.018498634            2 
 1231000   0.78483671   -7.8683914    279.13538  0.018896248  0.018484612            4 
 1232000   0.76454618   -7.8666282    279.05953   0.01887578  0.018470627            2 
 1233000   0.75631237   -7.8933693    279.85219  0.018914044  0.018456632            2 
 1234000   0.75297312   -7.8750945     279.4244  0.018869827  0.018442677            5 
 1235000   0.74782292   -7.8758018    279.66639  0.018870876  0.018428692            3 
 1236000   0.76227256   -7.8832546    279.54166  0.018847199  0.018414836            2 
 1237000   0.76443617   -7.8704893    280.32565  0.018884778  0.018401054            2 
 1238000   0.74852047   -7.8997672    279.96783  0.018845438  0.018387229            1 
 1239000   0.76112699   -7.9100795    279.75147  0.018815676  0.018373345            2 
 1240000   0.76719076   -7.8999731    280.14457   0.01882692  0.018359467            3 
 1241000   0.75256468   -7.8946073    279.90332  0.018795549  0.018345577            4 
 1242000   0.75966069   -7.8808718    280.23457  0.018802642  0.018331685            2 
 1243000   0.76920725    -7.891268    279.34869  0.018728124  0.018317751            2 
 1244000   0.75100268   -7.9058576    279.57779  0.018728416  0.018303883            2 
 1245000   0.74913532   -7.8982759    279.93385  0.018737206  0.018290001            2 
 1246000   0.74552586   -7.9394139    280.13988  0.018735947  0.018276157            3 
 1247000   0.74652212   -7.8797899    279.86436   0.01870251  0.018262296            8 
 1248000   0.74347762   -7.9356666    279.58853  0.018669106  0.018248391            2 
 1249000   0.75148248   -7.8990732    280.13153  0.018690387  0.018234588            2 
 1250000   0.74407942   -7.9117674     279.5969  0.018639793  0.018220743            2 
 1251000   0.76641963   -7.9128939    279.76499  0.018636091  0.018206946            2 
 1252000   0.74917543   -7.8751129    280.41814  0.018664679  0.018193199            3 
 1253000   0.75856545   -7.8947803      280.413  0.018649441  0.018179438            2 
 1254000   0.74608517   -7.9221132    280.05466  0.018610756  0.018165667            4 
 1255000    0.7522047   -7.9225087    280.47973  0.018624152  0.018151836            3 
 1256000   0.76597757    -7.908796    280.89884  0.018637131  0.018138033            2 
 1257000    0.7508488    -7.904136     280.3439  0.018585515  0.018124223            1 
 1258000   0.76832783   -7.9188685    280.17908  0.018559822  0.018110468            2 
 1259000   0.76652914   -7.9100749     280.0585  0.018537099  0.018096694            2 
 1260000   0.73734452   -7.8881646      280.407  0.018545437  0.018082877            5 
 1261000   0.74440211   -7.9248045    279.98954  0.018503142  0.018069064            2 
 1262000   0.76323468   -7.8882343     281.0054   0.01855556  0.018055324            4 
 1263000   0.75406646   -7.9176048    280.36846  0.018498843   0.01804159            4 
 1264000   0.74059081   -7.8931507     279.8014  0.018446822  0.018027811            3 
 1265000   0.75005053   -7.9113229    279.82785  0.018433982  0.018014023            2 
 1266000   0.75364783   -7.9193423    280.23691  0.018446348  0.018000228            3 
 1267000   0.74732673   -7.9375041    279.78382  0.018401987  0.017986386            1 
 1268000   0.74996271   -7.9063747    280.11864  0.018409479  0.017972572            2 
 1269000   0.74832554   -7.9165959    280.30577  0.018407261  0.017958735            3 
 1270000   0.74209638   -7.9294686    280.40162  0.018399056  0.017944948            2 
 1271000   0.74070949   -7.9137623    280.15377   0.01836833  0.017931167            4 
 1272000   0.74127423   -7.9358724    280.50441  0.018376861  0.017917386            2 
 1273000   0.74797799   -7.9125846    280.68672   0.01837436  0.017903633            2 
 1274000   0.73073995   -7.9028112    281.01233  0.018381236  0.017889947            2 
 1275000   0.73679202   -7.9242021    280.27755  0.018318794  0.017876182            3 
 1276000   0.75285303   -7.9137292    280.50654  0.018319392  0.017862432            3 
 1277000   0.74050292   -7.9221607    280.27818  0.018290145  0.017848696            1 
 1278000   0.74492487   -7.9238853     280.5981  0.018296694  0.017835011            3 
 1279000   0.72681321   -7.9244887    280.90966  0.018302688   0.01782133            5 
 1280000   0.74180632   -7.9412298    280.90245   0.01828792  0.017807662            2 
 1281000   0.74014803   -7.9235357    280.76539  0.018264728  0.017794043            2 
 1282000   0.74339904   -7.9346699    281.24544  0.018281685  0.017780403            2 
 1283000   0.74466461   -7.9493488    280.85914  0.018242344  0.017766755            3 
 1284000   0.73840543   -7.9394751    280.42384  0.018199886  0.017753063            4 
 1285000   0.74212375   -7.9317638    280.89939  0.018216562  0.017739365            2 
 1286000   0.74490214   -7.9380989    280.19187  0.018156549  0.017725627            2 
 1287000   0.75622593   -7.9641792    280.49205  0.018161879  0.017711914            2 
 1288000   0.74148674   -7.9316267    280.77363  0.018165995   0.01769821            1 
 1289000   0.74651893   -7.9706431    281.20977  0.018180099  0.017684527            2 
 1290000   0.76200779   -7.9623688    280.47568  0.018118584  0.017670814            3 
 1291000   0.75379197   -7.9828048    279.73768  0.018056912  0.017657075            3 
 1292000   0.74284578   -7.9568156    280.52147   0.01809349  0.017643337            2 
 1293000   0.72778965   -7.9292627    281.12246   0.01811823  0.017629658            4 
 1294000   0.72752171   -7.9555889    281.01091  0.018097045  0.017616028            5 
 1295000   0.73638768   -7.9936186    280.15225  0.018027816  0.017602376            3 
 1296000   0.74209367   -7.9479601    281.19024  0.018080648  0.017588743            2 
 1297000   0.73316613   -7.9974427    281.13608  0.018063228  0.017575074            2 
 1298000   0.72724654   -7.9625903    280.75914  0.018025112  0.017561447            3 
 1299000   0.71740224   -7.9718678    281.34669  0.018048928  0.017547788            3 
 1300000   0.72854069   -7.9693639    280.57483  0.017985566  0.017534161            2 
 1301000   0.73045105   -7.9692734    280.91092  0.017993269  0.017520564            1 
 1302000   0.72936641   -7.9536353    281.20811  0.017998471  0.017506936            2 
 1303000   0.76196179   -7.9718986    280.82937  0.017960435  0.017493317            3 
 1304000   0.72826981   -7.9749802    281.02885   0.01795941  0.017479772            2 
 1305000   0.72740755   -7.9289485    280.90714  0.017937876  0.017466264            2 
 1306000   0.73975374   -7.9788673     281.3264  0.017950893   0.01745269            4 
 1307000    0.7286827   -7.9439363    281.06533  0.017920513  0.017439131            3 
 1308000    0.7313741   -7.9587375    281.19287  0.017914938  0.017425602            2 
 1309000   0.74678327   -7.9519084    281.19639  0.017901477  0.017412082            2 
 1310000   0.74566885   -7.9773961    281.10113  0.017881751  0.017398591            7 
 1311000    0.7354123   -7.9785309    281.62807  0.017901606  0.017385175            7 
 1312000   0.73563134   -7.9755107    282.15432  0.017921387  0.017371699            7 
 1313000   0.74841246   -7.9585138    281.83427  0.017887425  0.017358282            2 
 1314000   0.74280326   -7.9844713    281.61013  0.017859597  0.017344872            2 
 1315000   0.71914031   -7.9521112    282.15203  0.017880357   0.01733144            2 
 1316000   0.74296998   -7.9592125    282.12348  0.017864962  0.017318029            2 
 1317000   0.74718095   -7.9481645    281.44177  0.017808262  0.017304669            6 
 1318000   0.73852054   -7.9490465    281.52713  0.017800147   0.01729131            2 
 1319000   0.73317056   -7.9518736    281.61984  0.017792509  0.017277956            3 
 1320000   0.72309473   -7.9467405     281.8891  0.017796029  0.017264589            2 
 1321000   0.72020717   -7.9645473    281.88855  0.017782523  0.017251191            2 
 1322000     0.732094    -7.979434    282.01343  0.017776943  0.017237818            3 
 1323000   0.73513116   -7.9462882    281.70908  0.017744336  0.017224484            3 
 1324000   0.72886656   -7.9834006    282.06714  0.017753471  0.017211193            2 
 1325000   0.71509973   -7.9713771    282.59934  0.017773544  0.017197837            3 
 1326000   0.72684873   -7.9668855     282.2067  0.017735464  0.017184511            1 
 1327000    0.7086492   -7.9513061    282.01662  0.017710162   0.01717118            3 
 1328000   0.72026856   -7.9737691    281.45885  0.017661825  0.017157868            2 
 1329000   0.72765613   -7.9441279     282.0957  0.017688468   0.01714454            5 
 1330000   0.73541318   -7.9722594    281.94866  0.017665956  0.017131259            1 
 1331000   0.72993108   -7.9665977    281.89494   0.01764932  0.017117942            3 
 1332000   0.73014184   -7.9774201    282.08463  0.017647937  0.017104639            3 
 1333000   0.70366881   -7.9809349    281.85343  0.017620244  0.017091342            2 
 1334000   0.71663063   -7.9851344    282.07118  0.017620639  0.017077952            2 
 1335000   0.73882227   -7.9918194    281.55283  0.017575083  0.017064591            2 
 1336000   0.72662928   -8.0270283    281.13088  0.017535609  0.017051244            2 
 1337000   0.72318355   -7.9737979     282.0378   0.01757902  0.017037846            4 
 1338000   0.71552273   -7.9996292     281.6753  0.017543305   0.01702451            3 
 1339000   0.72840577   -7.9682021    281.98264   0.01754933  0.017011171            4 
 1340000     0.727992   -8.0123358    281.99965  0.017537292   0.01699787            2 
 1341000   0.73067928   -7.9853543    282.70219  0.017567871  0.016984614            2 
 1342000   0.70328178   -8.0065003    281.80631   0.01749915   0.01697137            3 
 1343000   0.70007658   -7.9514789    282.27293  0.017515074  0.016958173            2 
 1344000   0.71718072   -7.9963766    282.25542  0.017500956  0.016944958            3 
 1345000   0.73627943   -7.9737131    282.54949  0.017506164  0.016931698            2 
 1346000   0.70880598   -7.9719127    282.96924  0.017519146  0.016918497            3 
 1347000   0.70936721   -7.9809986    282.51219  0.017477864  0.016905296            3 
 1348000   0.69809712   -7.9704564    282.53418  0.017466257  0.016892163            3 
 1349000   0.72827601   -7.9792523    282.92997  0.017477759  0.016879028            3 
 1350000   0.72683315   -7.9888312    282.64899  0.017447469   0.01686586            7 
 1351000    0.7281695    -8.004349    282.45042  0.017422306  0.016852742            2 
 1352000   0.72231613   -7.9804625     281.4855  0.017349944  0.016839634            1 
 1353000   0.70694433   -7.9955513    282.07571  0.017373473  0.016826519            2 
 1354000   0.70267835   -7.9718354    282.31634  0.017375452    0.0168134            2 
 1355000   0.71744617   -7.9931916    282.92553  0.017400094  0.016800332            4 
 1356000   0.71850558   -8.0097922    282.56728  0.017365246  0.016787207            1 
 1357000    0.7238821   -7.9935826    281.86976  0.017309614  0.016774062            2 
 1358000    0.7119145   -8.0052568    282.41538   0.01733035  0.016760969            3 
 1359000   0.71345264   -7.9809909    282.82724  0.017342853  0.016747888            2 
 1360000   0.70886628   -8.0209053    282.32565  0.017299366  0.016734872            2 
 1361000   0.71497641   -8.0166487    282.07488  0.017271301    0.0167218            3 
 1362000   0.72195771   -8.0067457     283.2963  0.017333352  0.016708767            2 
 1363000    0.7170974   -8.0205553    282.63958  0.017280483  0.016695734            2 
 1364000     0.718019   -8.0247014    282.68722  0.017270725  0.016682654            5 
 1365000   0.70935272   -8.0225864     282.3065  0.017234829  0.016669548            4 
 1366000   0.70579205   -8.0011364    282.34624  0.017224637  0.016656461            1 
 1367000   0.71392893    -7.989253    282.29923   0.01720917  0.016643432            5 
 1368000   0.70346576   -8.0002051    282.71574  0.017221963  0.016630445            5 
 1369000   0.71767263   -8.0031557    282.46304  0.017194001  0.016617397            2 
 1370000   0.73743899   -8.0276614    282.86143  0.017205683  0.016604355            4 
 1371000   0.71194452   -7.9977644    283.25306  0.017216938  0.016591335            2 
 1372000   0.69885835   -8.0301309    282.34064   0.01714897  0.016578315            3 
 1373000   0.69784304   -8.0222928    281.62285  0.017092914  0.016565265            2 
 1374000   0.70569872    -7.993491    282.57317  0.017138111  0.016552212            1 
 1375000   0.71139928   -8.0019425    282.91159  0.017146157  0.016539194            3 
 1376000   0.70101989   -7.9972744    283.00349  0.017139262  0.016526252            5 
 1377000   0.70406507   -8.0185477    282.93914  0.017122921  0.016513304            3 
 1378000   0.70728272   -8.0149511    282.44555  0.017080645  0.016500338            3 
 1379000   0.69911636   -8.0582077    282.43928   0.01706788   0.01648735            2 
 1380000   0.70521965   -8.0315061    282.88544  0.017082454  0.016474326            2 
 1381000   0.70260828   -8.0345101     282.2869  0.017033967  0.016461366            4 
 1382000   0.70589283    -8.021404     282.8544  0.017055861  0.016448401            3 
 1383000   0.70010235   -8.0446908    282.67634  0.017032799  0.016435454            4 
 1384000   0.69778236   -8.0124835    282.85186  0.017031061   0.01642248            2 
 1385000   0.70999311   -8.0404357    282.39452  0.016991247  0.016409509            4 
 1386000   0.69531995   -8.0463555    282.33975  0.016975694  0.016396518            3 
 1387000   0.69503765   -8.0563051    282.14746  0.016951902  0.016383526            3 
 1388000   0.70888309   -8.0632278    283.00438  0.016991137   0.01637056            2 
 1389000   0.69966739   -8.0557573    282.65353  0.016957855  0.016357551            3 
 1390000   0.70066522   -8.0584745    282.33065  0.016926298  0.016344591            3 
 1391000    0.6895759   -8.0359257    281.93281  0.016890295  0.016331568            3 
 1392000   0.69093922   -8.0714617    282.36765  0.016904194  0.016318547            5 
 1393000   0.70407352   -8.0436777    282.61813  0.016907043  0.016305562            1 
 1394000   0.69304936   -8.0613557    281.94051  0.016854406  0.016292577            2 
 1395000   0.71849877   -8.0625367    282.50424     0.016876  0.016279562            5 
 1396000   0.69441257   -8.0769105     281.9055   0.01682817  0.016266542            4 
 1397000   0.68558997   -8.0594695    282.64926   0.01686049  0.016253542            7 
 1398000   0.69600116    -8.056062    283.03851  0.016871632  0.016240589            6 
 1399000   0.69733128   -8.0702188    281.97729   0.01679636  0.016227669            4 
 1400000   0.70134281   -8.0613346    282.72398  0.016828808  0.016214736            3 
 1401000   0.70157932   -8.0431416    282.06411  0.016777546   0.01620187            8 
 1402000   0.69591742   -8.0682386    282.77277  0.016807701  0.016189031            2 
 1403000    0.7212356   -8.0694107    283.50085  0.016838967  0.016176231            4 
 1404000   0.69319697   -8.0504103    282.71712  0.016780456  0.016163425            3 
 1405000   0.70038204   -8.0543263     282.8051  0.016773731  0.016150639            2 
 1406000   0.71263399   -8.0764982    282.95786  0.016770855  0.016137878            2 
 1407000   0.69508176   -8.0576256    283.41394  0.016785948  0.016125139            3 
 1408000   0.68478507   -8.0314481    283.54587  0.016781834  0.016112424            2 
 1409000   0.70110123   -8.0370727    283.50627  0.016767582   0.01609971            2 
 1410000    0.6896102   -8.0368309    283.07968  0.016730478  0.016087053            2 
 1411000   0.70495288   -8.0677321    282.98638   0.01671311  0.016074393            3 
 1412000   0.69608526   -8.0648521    283.30426  0.016720034  0.016061722            2 
 1413000    0.6722765   -8.0703653       283.36  0.016711489  0.016048991            3 
 1414000   0.68774084   -8.0726565    283.22568  0.016691754  0.016036266            2 
 1415000   0.69390736   -8.0735387    283.01809  0.016667732  0.016023506            4 
 1416000    0.6668975   -8.0832777    283.00249  0.016655043  0.016010783            2 
 1417000   0.67861858   -8.0635999    282.58124  0.016618515  0.015998056            2 
 1418000   0.69015644   -8.0912479    283.10434  0.016637538  0.015985376            2 
 1419000   0.69234517   -8.0849316    283.64208  0.016657393  0.015972702            2 
 1420000   0.69291118   -8.0704072    283.19227  0.016619265  0.015960062            2 
 1421000   0.69732271   -8.0863893    283.37016  0.016618002  0.015947421            3 
 1422000   0.68503141   -8.0740175    282.93717   0.01658094  0.015934798            3 
 1423000   0.69049577    -8.074578    283.05144   0.01657598  0.015922136            2 
 1424000   0.69437938   -8.0807728      282.877  0.016554132  0.015909501            6 
 1425000   0.69120975   -8.0841148    283.51842  0.016580025  0.015896884            5 
 1426000   0.67593027   -8.0709322     283.5092  0.016567859  0.015884282            3 
 1427000   0.67243673   -8.0897787    283.24074  0.016540571  0.015871694            2 
 1428000   0.67916774   -8.0726746    284.23671   0.01658711  0.015859101            3 
 1429000   0.68030208   -8.0727879    282.57963  0.016478868   0.01584653            2 
 1430000    0.6888896   -8.0526005    284.11817  0.016557003  0.015833943            6 
 1431000    0.6771982   -8.0794926    283.68547  0.016520235  0.015821382            2 
 1432000   0.68123499   -8.0795313    283.35904  0.016489702  0.015808838            1 
 1433000    0.6701659   -8.0679974    283.46862  0.016484567  0.015796324            4 
 1434000   0.68324048   -8.0706187    283.02755   0.01644744  0.015783779            3 
 1435000   0.66577519   -8.0905036    282.92302  0.016429908  0.015771236            4 
 1436000   0.68023648   -8.0648161    283.42511  0.016447604   0.01575869            4 
 1437000    0.6684975   -8.0898958    283.33947  0.016431192  0.015746133            4 
 1438000   0.68468608   -8.0894574    282.95669  0.016397583  0.015733591            6 
 1439000   0.67060708   -8.0923673    283.39386  0.016411504  0.015721043            3 
 1440000   0.67785184   -8.0989605    282.56198  0.016351966  0.015708505            3 
 1441000   0.68528795   -8.0991835    283.08548  0.016370893  0.015695974            3 
 1442000   0.66542102   -8.0834893    283.61181  0.016389957  0.015683473            5 
 1443000   0.70086134    -8.078043    283.66783  0.016381834  0.015670978            4 
 1444000   0.68039292   -8.1183928    283.35995  0.016352721  0.015658515            4 
 1445000   0.66841305   -8.1115382    283.90428  0.016372796  0.015646013            7 
 1446000   0.67486683   -8.1154602    283.81225  0.016356169  0.015633569            4 
 1447000   0.68365072     -8.09613    282.72129  0.016282037   0.01562112            3 
 1448000   0.68438329   -8.1172556    283.07334  0.016291053  0.015608712            2 
 1449000   0.67883087   -8.0737082     283.1917  0.016286617  0.015596324            3 
 1450000   0.66643817   -8.0707054    283.46722   0.01629122  0.015583935            2 
 1451000   0.66865255   -8.0950863    284.00087   0.01631064  0.015571558            3 
 1452000   0.66851831   -8.1078617    283.42661  0.016266449  0.015559192            7 
 1453000   0.65989921   -8.0936924    283.67634  0.016269577  0.015546781            2 
 1454000   0.67681779    -8.094691    283.42252   0.01624384  0.015534436            5 
 1455000   0.65612985   -8.1125063    283.11972  0.016215334  0.015522057            1 
 1456000   0.66851032    -8.113642    283.53441  0.016227931  0.015509652            4 
 1457000   0.67671845    -8.087423    283.01679  0.016187188  0.015497248            1 
 1458000   0.67301175   -8.1054566    282.67653  0.016156637  0.015484891            5 
 1459000   0.66362323   -8.1165823    282.92226  0.016159599  0.015472531            3 
 1460000   0.68590263   -8.1061075    283.70278  0.016193081  0.015460215            5 
 1461000   0.67755106   -8.1002962    283.73038  0.016183572   0.01544789            2 
 1462000   0.67230016   -8.1366359    283.29993  0.016147967  0.015435532            3 
 1463000   0.67051376   -8.1219578    283.17175  0.016129628  0.015423174            2 
 1464000   0.67406681   -8.1173815    283.32459  0.016127311  0.015410841            4 
 1465000   0.66778408   -8.0942896    283.19406  0.016108877   0.01539851            4 
 1466000   0.66372957   -8.1065425    283.07241  0.016090974  0.015386191            4 
 1467000   0.66551778   -8.1168092    283.18651  0.016086487  0.015373889            3 
 1468000    0.6535723   -8.1234181    282.86836  0.016057468  0.015361557            2 
 1469000   0.67077449   -8.1053276    282.50144  0.016025723  0.015349217            3 
 1470000    0.6660235   -8.1139631     282.9213  0.016038622  0.015336865            3 
 1471000   0.65762393   -8.1071944    283.11524  0.016038706  0.015324561            1 
 1472000   0.66503189   -8.1124064    283.20575  0.016032934  0.015312284            1 
 1473000   0.67676139   -8.1125731     282.5342  0.015984058  0.015300029            2 
 1474000   0.66394662   -8.0971681     283.4425  0.016024564  0.015287756            3 
 1475000   0.66340125   -8.1180153    282.70587  0.015972083  0.015275501            3 
 1476000   0.65606388   -8.1269466    283.43833  0.016002616  0.015263223            3 
 1477000   0.67368763   -8.1236433    283.75285  0.016009527  0.015250939            3 
 1478000   0.66572664   -8.1222217    283.16413  0.015965501  0.015238659            3 
 1479000   0.66722005    -8.120948     283.3868  0.015967252  0.015226402            2 
 1480000   0.65630983   -8.1118266    283.59816  0.015968365  0.015214153            2 
 1481000    0.6719858   -8.1428443     282.5681  0.015899623  0.015201865            3 
 1482000   0.66837461   -8.1348872    282.93475  0.015909511  0.015189605            5 
 1483000   0.66316556   -8.1102153    283.18336  0.015912753  0.015177332            3 
 1484000   0.66152087   -8.1445499    282.42413  0.015859396  0.015165055            2 
 1485000   0.65915415   -8.1442978    283.08634  0.015885878  0.015152757            2 
 1486000   0.66943658    -8.142799    282.91379  0.015865511  0.015140441            2 
 1487000    0.6649811   -8.1304039    282.74848  0.015845577  0.015128169            2 
 1488000   0.65555634   -8.1217426    283.04522  0.015851547   0.01511588            3 
 1489000   0.64890233   -8.1182548    282.84556  0.015829727    0.0151036            3 
 1490000   0.66913424    -8.136477    282.62157  0.015806576  0.015091341            1 
 1491000   0.64951853   -8.1656309    283.02562  0.015818557    0.0150791            3 
 1492000   0.66469816   -8.1573347     283.1614  0.015815538  0.015066885            3 
 1493000   0.66411949   -8.1161941    283.26827  0.015810911  0.015054696            1 
 1494000   0.63685863   -8.1168257    282.95389  0.015782792  0.015042522            3 
 1495000   0.65215231   -8.1321892    282.88924  0.015768631  0.015030362            2 
 1496000   0.64004353       -8.132    282.93909  0.015760867  0.015018174            2 
 1497000   0.66327986   -8.1418063    283.19893  0.015764803   0.01500601            2 
 1498000   0.65757332   -8.1553435    282.60578  0.015721283  0.014993874            2 
 1499000   0.65546853    -8.149186    283.23201  0.015745609  0.014981729            5 
 1500000   0.66267245   -8.1550392    282.14829  0.015674905  0.014969562            3 
 1501000   0.65706593   -8.1702708      282.545  0.015686487  0.014957383            3 
 1502000    0.6529582   -8.1758465    282.66822   0.01568288  0.014945222            4 
 1503000   0.65066466   -8.1547123    282.14101  0.015643214  0.014933075            2 
 1504000   0.64548907   -8.1505154    282.74313  0.015666175  0.014920918            2 
 1505000   0.67185101   -8.1611674    282.55882   0.01564556  0.014908783            4 
 1506000   0.64206387   -8.1604316    282.67163  0.015641414  0.014896641            2 
 1507000   0.65742668   -8.1422701    282.99021  0.015648652  0.014884526            1 
 1508000   0.64316529   -8.1712101    283.12838   0.01564591  0.014872442            3 
 1509000   0.64837469   -8.1727955      282.502   0.01560095  0.014860337            1 
 1510000   0.65219193   -8.1836054    282.77334  0.015605593  0.014848237            5 
 1511000   0.64723911    -8.189473    283.25855  0.015622025  0.014836152            5 
 1512000   0.65145677    -8.187992     283.0126  0.015598137  0.014824094            2 
 1513000   0.64471676    -8.168983    282.51762  0.015560565  0.014812021            6 
 1514000   0.64861528   -8.1477994    282.53466  0.015551225   0.01479995            4 
 1515000   0.65800345   -8.1792762    282.56577  0.015542672   0.01478787            3 
 1516000   0.63967798   -8.1556635    282.76704  0.015543483  0.014775816            2 
 1517000   0.64151568   -8.1440662    282.80598  0.015535376  0.014763763            3 
 1518000   0.63777617   -8.1666481    282.51144  0.015508972   0.01475174            4 
 1519000   0.64829795   -8.1866653    282.90085  0.015520126  0.014739703            3 
 1520000   0.64676361   -8.1858819     282.2267  0.015472955  0.014727674            3 
 1521000    0.6423811   -8.1942579    282.17171  0.015459769  0.014715632            3 
 1522000   0.64358206   -8.1869473    282.82088  0.015485155  0.014703575            3 
 1523000   0.64660922   -8.1717562    282.21797  0.015441999  0.014691537            3 
 1524000   0.64706638   -8.1549627    282.37608  0.015440512  0.014679508            4 
 1525000   0.64937893    -8.200281    282.46842  0.015435433  0.014667525            2 
 1526000   0.63773178   -8.1773036    282.31977    0.0154172  0.014655532            2 
 1527000   0.64581422   -8.1844425    282.36198  0.015409407  0.014643548            3 
 1528000   0.64473436   -8.1992085    283.09724  0.015439422   0.01463157            2 
 1529000   0.65054989   -8.1974209    283.00242  0.015424156  0.014619631            2 
 1530000   0.63976301   -8.1747639    282.74424  0.015400013  0.014607688            2 
 1531000   0.64357236   -8.1702084    282.84578  0.015395481  0.014595742            2 
 1532000   0.64411123   -8.2144575     282.9109  0.015388974  0.014583829            2 
 1533000   0.62781181   -8.1866546    282.56469  0.015360116  0.014571929            2 
 1534000   0.62919642   -8.2065363    283.58129  0.015405329  0.014559985            3 
 1535000   0.63724798   -8.1884305    282.56843  0.015340305  0.014548092            6 
 1536000   0.63947779   -8.2042777    282.31666  0.015316659  0.014536171            3 
 1537000   0.64537996   -8.1916091    282.42973  0.015312824  0.014524257            3 
 1538000   0.64264287    -8.221512    282.40976  0.015301786  0.014512357            3 
 1539000   0.63057409   -8.1858116     282.5869  0.015301435  0.014500469            2 
 1540000   0.62927737   -8.1833807    282.55171  0.015289595  0.014488583            1 
 1541000   0.62853099   -8.1806765    282.26734  0.015264295  0.014476717            1 
 1542000   0.63384519   -8.1930481    282.30046  0.015256186  0.014464863            1 
 1543000    0.6539653   -8.1843122    282.69824  0.015267781  0.014453042            2 
 1544000    0.6451757   -8.1928831    282.75777  0.015261106  0.014441227            2 
 1545000   0.64470126   -8.1870014    282.88689  0.015258192  0.014429416            3 
 1546000   0.63642448   -8.1969531    282.65258  0.015235693  0.014417614            2 
 1547000   0.64167488   -8.1948889    282.63411   0.01522485   0.01440585            2 
 1548000   0.62304638    -8.210583    282.34413  0.015199404  0.014394062            4 
 1549000   0.62930625   -8.2100831    282.57982  0.015202272  0.014382324            2 
 1550000   0.64052282   -8.1964314    282.47988   0.01518709  0.014370557            2 
 1551000   0.63139702   -8.1918141    282.60232  0.015183877   0.01435883            3 
 1552000   0.63973061    -8.209524    282.05901  0.015144921  0.014347082            2 
 1553000   0.63804933   -8.2079516    282.36858   0.01515178  0.014335344            2 
 1554000   0.62810797   -8.2123512    282.05284  0.015125099  0.014323578            3 
 1555000   0.62932191   -8.2051277    282.46265  0.015137334  0.014311843            3 
 1556000   0.62129557   -8.2139024      282.321  0.015120019  0.014300093            6 
 1557000   0.62201214   -8.2210607    282.27856  0.015108037  0.014288346            1 
 1558000   0.63854711   -8.2132389    282.84674   0.01512873  0.014276619           10 
 1559000   0.64929716   -8.2274436    282.53433  0.015102327  0.014264905            4 
 1560000   0.63199805   -8.2265228    282.04092  0.015066289  0.014253207            5 
 1561000   0.62041087   -8.2471315    282.73811  0.015093856  0.014241485            3 
 1562000   0.63389424   -8.2283001    282.30538  0.015061107  0.014229797            2 
 1563000   0.63295521   -8.2136555    282.28797  0.015050542  0.014218119            5 
 1564000   0.63447313   -8.2170395    281.89261  0.015019853  0.014206465            3 
 1565000   0.63694367   -8.2277951    282.48052  0.015041561  0.014194802            5 
 1566000   0.63638352   -8.2242545    282.70309    0.0150438  0.014183156            4 
 1567000   0.62450824   -8.2415028    282.67342  0.015032622  0.014171487           12 
 1568000   0.63208717   -8.2409547     282.6469  0.015021625   0.01415981            5 
 1569000   0.63211943   -8.2442514    281.81999  0.014968132  0.014148156            2 
 1570000   0.62977086    -8.240468    282.47236  0.014993225  0.014136536            2 
 1571000   0.62411409   -8.2543508    282.12997  0.014965519  0.014124917            6 
 1572000    0.6412341   -8.2109873    282.37157  0.014968807  0.014113318            3 
 1573000   0.63425112    -8.249076    282.46716  0.014964355   0.01410173            1 
 1574000   0.62662138   -8.2360026    282.62718  0.014963319  0.014090136            2 
 1575000   0.62492542   -8.2146919     282.4739  0.014945709  0.014078586            1 
 1576000     0.616334   -8.2414058    283.17679  0.014973392  0.014067027            2 
 1577000   0.63387517   -8.2219141    282.26862  0.014915907  0.014055457            3 
 1578000   0.64188634   -8.2499983    282.14271  0.014899805  0.014043906            4 
 1579000   0.61985188   -8.2393837    282.23047  0.014895001  0.014032352            5 
 1580000    0.6287688    -8.230574    282.06876  0.014877044  0.014020813            6 
 1581000   0.62753814   -8.2564497     282.4592  0.014888214  0.014009318            4 
 1582000   0.62180927   -8.2561284    282.35134  0.014873122  0.013997809            3 
 1583000   0.64334362   -8.2334075    282.01934  0.014846249  0.013986294            4 
 1584000   0.62436573   -8.2534181    282.00265  0.014835998  0.013974769            4 
 1585000   0.61551391   -8.2430048    281.82327  0.014817207  0.013963268            2 
 1586000   0.61594461   -8.2611014      281.544   0.01479319  0.013951774            3 
 1587000   0.61379408   -8.2673596    281.92796  0.014804031  0.013940278            3 
 1588000   0.61929135   -8.2368328    281.88164  0.014792278  0.013928787            6 
 1589000   0.62313491   -8.2383019    281.97775  0.014788009  0.013917308            4 
 1590000   0.64268164   -8.2384112    282.06998  0.014783542  0.013905835            5 
 1591000   0.61137673   -8.2403479    282.03748  0.014772548  0.013894378            4 
 1592000   0.61968063   -8.2479291    282.30638  0.014777344  0.013882925            5 
 1593000   0.60956911    -8.262744    282.07527  0.014755978  0.013871504            4 
 1594000   0.63009756    -8.252752    282.07956  0.014746945  0.013860073            3 
 1595000   0.61450178   -8.2625464    282.20442  0.014744222  0.013848634            3 
 1596000   0.62826337   -8.2562293     281.9623  0.014722342  0.013837197            4 
 1597000   0.61590804   -8.2642187    282.39957  0.014735941  0.013825779            4 
 1598000   0.60965756   -8.2710726    281.73178  0.014691895  0.013814366            3 
 1599000   0.62076065   -8.2813423    281.83184  0.014687921  0.013802979            4 
 1600000    0.6210153   -8.2339417    282.45202  0.014711043  0.013791619            7 
 1601000    0.6117781   -8.2434134    281.73315  0.014664436  0.013780237            6 
 1602000   0.59920927   -8.2642189    281.47108   0.01464165  0.013768858            1 
 1603000   0.61876734   -8.2540977    281.85084  0.014652258  0.013757511            4 
 1604000   0.60342966   -8.2654221    282.30266  0.014666597  0.013746155            3 
 1605000   0.62386774   -8.2678594    281.63334  0.014622707    0.0137348            6 
 1606000   0.62256166   -8.2510407    282.31171  0.014648802  0.013723459            4 
 1607000    0.6129703   -8.2650569    282.04141   0.01462567   0.01371215            5 
 1608000    0.6167121   -8.2482926     281.9576  0.014612231  0.013700832            5 
 1609000   0.61064367    -8.259738    282.00653  0.014605683  0.013689536            2 
 1610000   0.60781502   -8.2651386    282.04455  0.014598579  0.013678242            3 
 1611000   0.62212436   -8.2833561    282.35081  0.014605359  0.013666944            2 
 1612000   0.60140458   -8.2630453    282.29448  0.014593387  0.013655671            2 
 1613000   0.60992962   -8.2694037    281.56706  0.014546759  0.013644392            3 
 1614000   0.61897527   -8.2810352     280.9912  0.014508013  0.013633113            5 
 1615000   0.59838035   -8.2797455    281.44093  0.014522236  0.013621825            3 
 1616000   0.60724437   -8.2749936    280.92827  0.014486813  0.013610548            4 
 1617000     0.611033   -8.2719695    281.82111  0.014523867  0.013599278            4 
 1618000     0.611068   -8.2716976    281.81117  0.014514379  0.013588007            1 
 1619000   0.60621702   -8.2860939    281.56399  0.014492691  0.013576772            5 
 1620000   0.61309946     -8.27374    282.37459  0.014525442  0.013565546            4 
 1621000    0.6043584   -8.2972486    281.60687  0.014477014  0.013554324            4 
 1622000   0.62119897   -8.2888206    281.54868  0.014465099  0.013543112            3 
 1623000    0.6019152   -8.2935638    281.84307  0.014471301  0.013531906            3 
 1624000   0.59011498   -8.2954335    281.08353  0.014423416  0.013520697            3 
 1625000     0.601438   -8.2968606    281.56432  0.014439196  0.013509509            4 
 1626000   0.60667986   -8.2791373    281.46839  0.014425399   0.01349832            3 
 1627000   0.60658279    -8.285653    281.60267  0.014423411  0.013487154            5 
 1628000   0.59049076   -8.2960135    281.66409  0.014417695  0.013475977            3 
 1629000   0.60410959   -8.2908441    281.76215  0.014413861  0.013464807            3 
 1630000   0.61561941   -8.2944551    281.62536  0.014398025  0.013453649            4 
 1631000   0.61026451   -8.3048203    281.39609  0.014377483  0.013442498            4 
 1632000   0.59865872   -8.2910533    281.63655  0.014380951  0.013431375            4 
 1633000    0.5949232   -8.2875196    281.35001  0.014357523  0.013420228            3 
 1634000   0.60639083   -8.2838126     281.6392  0.014363484  0.013409094            3 
 1635000   0.59580697   -8.2897216     281.9073  0.014368364  0.013397989            4 
 1636000   0.60453628   -8.2955192    281.22234  0.014324691  0.013386874            3 
 1637000   0.59778083   -8.2673249    281.72615  0.014341588   0.01337577            3 
 1638000   0.59428511   -8.2931636    281.76084  0.014334597  0.013364676            6 
 1639000   0.59700039   -8.3096186    281.63133  0.014319266  0.013353584            3 
 1640000   0.61311373    -8.312383    282.14061  0.014336413   0.01334251            3 
 1641000   0.58088796   -8.2842971    281.25221  0.014282562   0.01333143            3 
 1642000   0.60409864   -8.2964924    281.74283  0.014298763  0.013320369            3 
 1643000   0.58227361   -8.2939009    281.19885  0.014262469  0.013309284            7 
 1644000   0.59611807   -8.2642366    281.25492  0.014256636  0.013298234            5 
 1645000   0.60759918   -8.3049603    280.78318  0.014224072  0.013287191            2 
 1646000   0.59857103   -8.2902981    281.70902  0.014262304   0.01327616            2 
 1647000    0.6044943   -8.3052255    281.63438  0.014249867  0.013265126            2 
 1648000   0.58458868   -8.3043455    281.11721  0.014215069  0.013254118            3 
 1649000   0.59341655   -8.3107662    281.52352  0.014226982  0.013243101            3 
 1650000    0.5985962   -8.3026841    281.57716  0.014221069  0.013232104            2 
 1651000   0.58061326   -8.3097669    281.69731   0.01421852  0.013221127            5 
 1652000    0.5907625   -8.3107274    281.97318  0.014223829  0.013210136            3 
 1653000   0.59834258   -8.3357043    281.34865  0.014183739  0.013199138            5 
 1654000   0.59316432   -8.3038352    281.13243   0.01416427  0.013188157            4 
 1655000    0.6058549   -8.3129253    281.21348  0.014159792  0.013177185            3 
 1656000   0.59541098   -8.3245088     281.3778  0.014159511   0.01316623            3 
 1657000   0.59475327   -8.3281003    281.27647   0.01414587  0.013155262            4 
 1658000    0.6057357   -8.3218169    280.37765  0.014092162  0.013144295            2 
 1659000   0.59144263   -8.3257957    280.82574  0.014106176  0.013133343            3 
 1660000   0.59048558   -8.3248838     280.9793  0.014105386  0.013122412            4 
 1661000   0.58790442   -8.3144974    280.72106  0.014083938  0.013111481            5 
 1662000   0.56614856    -8.331384    280.52794  0.014065781  0.013100567            4 
 1663000   0.60074856   -8.3255758    280.59522  0.014060695  0.013089674            2 
 1664000   0.59648936   -8.3214745    280.95407  0.014070216  0.013078787            4 
 1665000   0.58696623   -8.3152713     281.1395  0.014071046  0.013067903            4 
 1666000   0.59068007   -8.3248813    281.46801  0.014079032  0.013057034            4 
 1667000   0.57443572   -8.3301683    280.98957  0.014046669  0.013046172            2 
 1668000   0.58398269   -8.3388158    281.02598  0.014040067  0.013035336            7 
 1669000   0.59099525   -8.3095925    280.80788  0.014020765  0.013024512            4 
 1670000   0.57726677   -8.3159185    281.09152  0.014026523  0.013013704            3 
 1671000   0.58450493   -8.3221498     280.9613  0.014011635  0.013002919            6 
 1672000   0.58412831   -8.3569847    280.91524  0.014000959   0.01299212            4 
 1673000   0.58042345   -8.3088066    280.90489  0.013992075  0.012981327            4 
 1674000    0.5923837   -8.3205982    281.46744   0.01401172  0.012970543            7 
 1675000    0.5798059   -8.3280354    281.12277  0.013986207   0.01295978            4 
 1676000   0.58946523   -8.3451553     281.0868  0.013976074  0.012949039            3 
 1677000   0.57431189   -8.3267877    280.96821  0.013961847    0.0129383            5 
 1678000    0.5882396    -8.340104    281.41945  0.013975936  0.012927558            3 
 1679000   0.58721062   -8.3361092    280.92288  0.013942966  0.012916826            5 
 1680000   0.58701204   -8.3458102    280.93824  0.013935429  0.012906116            6 
 1681000   0.58050445    -8.335803    281.06209  0.013933278  0.012895398            2 
 1682000   0.59939199   -8.3343946    281.09349   0.01392655  0.012884699            2 
 1683000   0.58729255   -8.3206528    281.30943  0.013928967  0.012874006            4 
 1684000   0.58070234   -8.3448119    280.94959   0.01390289  0.012863327            4 
 1685000   0.57329729   -8.3550101    280.99447  0.013896858  0.012852638            2 
 1686000   0.57774379   -8.3383064    281.07269  0.013892482  0.012841949            3 
 1687000   0.58011092   -8.3384779    280.90938   0.01387618  0.012831271            5 
 1688000   0.59035073   -8.3564179    280.80477  0.013862795  0.012820594            5 
 1689000   0.57918743    -8.325233    280.68144  0.013848502  0.012809936            4 
 1690000   0.58168028   -8.3325325    280.78945  0.013845634  0.012799285            1 
 1691000   0.58284426   -8.3454189    280.76954  0.013836465  0.012788643            5 
 1692000   0.57280954   -8.3447209    281.36537  0.013857633  0.012778021            5 
 1693000   0.56914657   -8.3539347    280.79158  0.013821204  0.012767398            2 
 1694000   0.57754591   -8.3337994    280.94941  0.013820809  0.012756777            3 
 1695000   0.57013283   -8.3365408    280.74095  0.013802406  0.012746174            5 
 1696000   0.57527277   -8.3499027    280.79844  0.013797093  0.012735587            4 
 1697000   0.57448548   -8.3476707    280.85149  0.013791568  0.012725023            4 
 1698000   0.59481485   -8.3525008    280.92421  0.013787014  0.012714443            3 
 1699000   0.57364279   -8.3420033    280.28378  0.013747488  0.012703878            3 
 1700000   0.57011017   -8.3502801    280.98827  0.013773935  0.012693326            7 
 1701000   0.56400406   -8.3541642    280.98867  0.013765857  0.012682783            6 
 1702000    0.5682168   -8.3439289    280.54367  0.013735981  0.012672248            7 
 1703000   0.58660933   -8.3464424    281.07189  0.013753763  0.012661722            3 
 1704000   0.56290296   -8.3637658     281.0992  0.013747026    0.0126512            3 
 1705000   0.55645646   -8.3636279    280.42276  0.013705902  0.012640686            3 
 1706000    0.5592536   -8.3655171    281.03654   0.01372785  0.012630182            3 
 1707000   0.56736063   -8.3705341    280.37952  0.013687733  0.012619681            2 
 1708000   0.57119601   -8.3423398    281.00715  0.013710341  0.012609178            3 
 1709000   0.57018127   -8.3567506    280.91369  0.013697761  0.012598706            3 
 1710000   0.57214027   -8.3478552    280.55742  0.013672389  0.012588225            2 
 1711000   0.57012243   -8.3514782    280.36894  0.013655218  0.012577748            4 
 1712000   0.56815129   -8.3393607    280.57457  0.013657251  0.012567286            3 
 1713000   0.56853328   -8.3624292    280.67457  0.013654143  0.012556852            6 
 1714000   0.57196796    -8.339555    280.63186    0.0136441   0.01254641            4 
 1715000   0.56973505    -8.358305     280.4341  0.013626535  0.012535985            8 
 1716000   0.56622078   -8.3697941    280.75806  0.013634327  0.012525567            5 
 1717000   0.58185446   -8.3506337    280.68624    0.0136229  0.012515168            1 
 1718000   0.58235953   -8.3651723    280.29761   0.01359612   0.01250478            2 
 1719000   0.57123454   -8.3730173    280.61446  0.013603571  0.012494412            3 
 1720000   0.56876623   -8.3527748    280.24142  0.013577588  0.012484047            3 
 1721000   0.56329065   -8.3533164    280.58451  0.013586312  0.012473682            2 
 1722000   0.55475358   -8.3498627    281.28713  0.013612424  0.012463349            8 
 1723000   0.56620927   -8.3531205    280.67215   0.01357478  0.012453016            4 
 1724000   0.55898043   -8.3657609    280.37717  0.013552648  0.012442697            5 
 1725000    0.5655345   -8.3523237    280.01788  0.013527434  0.012432384            3 
 1726000   0.57293467   -8.3701492    280.56992   0.01354625  0.012422071            9 
 1727000    0.5692429   -8.3579506    280.14613  0.013517957  0.012411769            7 
 1728000   0.56685252   -8.3688602    280.51527  0.013527935  0.012401474            5 
 1729000   0.56862639   -8.3895205    280.48558  0.013518681  0.012391189            3 
 1730000   0.56210953   -8.3523177    280.66631  0.013519572  0.012380905            3 
 1731000   0.56078676   -8.3815631    280.60609  0.013508862  0.012370635            4 
 1732000   0.56028157   -8.3789829    280.98086  0.013519095  0.012360372            7 
 1733000   0.57141653    -8.400596    279.97293  0.013462826  0.012350119            4 
 1734000   0.56620355   -8.3927556    280.31165   0.01347134  0.012339865            4 
 1735000   0.57359673   -8.3753245    279.85854  0.013441813  0.012329632           10 
 1736000   0.56509998   -8.3801462    280.77007  0.013477826  0.012319411            3 
 1737000   0.56252249    -8.386238    280.20379  0.013442899  0.012309183            4 
 1738000   0.55439691   -8.3732326    280.53687  0.013451135  0.012298973            2 
 1739000   0.55031192   -8.3879544     280.5738   0.01344517  0.012288784            2 
 1740000   0.56196863   -8.3799182    280.48849  0.013433357  0.012278591            2 
 1741000   0.56590851   -8.3714166    279.96504  0.013400586  0.012268412            3 
 1742000    0.5565842   -8.3695803    280.83082   0.01343431  0.012258232            8 
 1743000   0.55253807   -8.4029249    280.13532   0.01339335  0.012248058            2 
 1744000   0.55437006    -8.380331    280.38498    0.0133976   0.01223789            6 
 1745000   0.55901481   -8.3874881    279.92898  0.013368146  0.012227752            3 
 1746000   0.56333314   -8.3688149    280.59227  0.013392147  0.012217631            3 
 1747000   0.55141813   -8.3697362    280.45075  0.013377731  0.012207513            2 
 1748000   0.54044034   -8.3711943    280.54735  0.013374683   0.01219741            6 
 1749000   0.55781281   -8.3725324    280.52248  0.013365851  0.012187327            3 
 1750000   0.55841532    -8.380638    280.56882   0.01336042  0.012177233            3 
 1751000   0.57588363   -8.3874833    280.46693  0.013347941  0.012167159            2 
 1752000   0.55418015   -8.3697813    280.18877  0.013327091  0.012157093            1 
 1753000   0.55411606   -8.3737963    280.27978  0.013323815  0.012147034            3 
 1754000   0.55994245   -8.3902612    280.51894  0.013327582  0.012136983           10 
 1755000    0.5517733   -8.3750849     280.2769  0.013308495  0.012126945            7 
 1756000   0.54542246   -8.3843417    280.39391  0.013306469  0.012116902            6 
 1757000   0.56267557   -8.3897084    280.22427   0.01329085  0.012106875            5 
 1758000   0.55158307    -8.385747    279.93408  0.013269533   0.01209686            3 
 1759000   0.54812188   -8.3970705    280.61993  0.013294482  0.012086854            4 
 1760000   0.54569736   -8.3914388    280.24463  0.013269159  0.012076851            2 
 1761000   0.54821424   -8.3792061    279.76095  0.013238735  0.012066863            4 
 1762000   0.56078806   -8.4087798    280.16765  0.013250456   0.01205689            3 
 1763000   0.55079329   -8.3963672    280.57446  0.013262169  0.012046925            2 
 1764000   0.54937171   -8.3996042    280.64396  0.013257935  0.012036963            2 
 1765000   0.54952922   -8.4015498    280.59099  0.013247922  0.012027014            3 
 1766000   0.54859966   -8.4029642    279.72833  0.013199713  0.012017077            5 
 1767000   0.54214874    -8.399688    280.58512   0.01323265  0.012007133            3 
 1768000   0.55098177   -8.4117333     279.9915  0.013197186  0.011997196            2 
 1769000   0.55048231   -8.3768048    280.09427  0.013194567  0.011987277            2 
 1770000   0.55369586   -8.3964791    280.21711  0.013192896  0.011977373            3 
 1771000   0.54108912   -8.3955301    280.35784  0.013192069  0.011967473            3 
 1772000   0.53593475   -8.4130473    280.42976  0.013188006  0.011957587            4 
 1773000   0.54732496   -8.4093015    280.31221  0.013175043  0.011947716            5 
 1774000   0.53974375   -8.3974558    280.13474   0.01315928  0.011937849            4 
 1775000   0.54406348    -8.392184    280.16385  0.013153233  0.011927996            3 
 1776000   0.52637856   -8.4070717    280.15133  0.013145239  0.011918144            3 
 1777000   0.54308857   -8.4095958    280.37293  0.013148233  0.011908322            1 
 1778000   0.56003038   -8.3970302    280.26553  0.013135805  0.011898495            3 
 1779000   0.54486301   -8.3967729    280.22343  0.013126449  0.011888688            4 
 1780000   0.53632627   -8.4110314    280.04994  0.013110952   0.01187889            3 
 1781000   0.54571264    -8.405082    280.18339  0.013109835  0.011869103            5 
 1782000   0.54451861   -8.3922492    280.19516  0.013103028  0.011859316            3 
 1783000   0.54516634   -8.3947721    279.84211  0.013079179  0.011849544            5 
 1784000   0.53603426   -8.3933649    279.93949  0.013076396  0.011839797            4 
 1785000   0.54663573   -8.4141661    280.10956   0.01307701  0.011830051            3 
 1786000    0.5342756   -8.4131697    280.34835   0.01308083  0.011820304            3 
 1787000   0.54342581   -8.3948879    280.12738  0.013063205  0.011810576            3 
 1788000   0.53928292   -8.3967633    280.27579  0.013062816  0.011800864            3 
 1789000   0.54041171    -8.406702     279.9899  0.013042198  0.011791158            7 
 1790000   0.54153504   -8.4000041    279.95895  0.013033471  0.011781451            3 
 1791000    0.5417301   -8.4274016    280.02257  0.013029154  0.011771745            3 
 1792000   0.54349288   -8.3988078    280.14032  0.013027359  0.011762044            3 
 1793000   0.54501892   -8.4203903     280.4548  0.013034709  0.011752352            3 
 1794000   0.53464981   -8.4256695    279.85025  0.012999361  0.011742668            3 
 1795000   0.54817086   -8.4159313    279.84344  0.012991803  0.011733001            2 
 1796000   0.54115199   -8.4170803    280.09863   0.01299641   0.01172335            3 
 1797000    0.5368171    -8.408332    279.74618  0.012972834  0.011713701            3 
 1798000    0.5326839   -8.4184905    279.89716  0.012972616  0.011704066            3 
 1799000   0.53493061   -8.3982469    279.86338   0.01296384  0.011694431            4 
 1800000   0.52517617   -8.4318495    279.62608  0.012945652  0.011684809            2 
 1801000   0.54242797   -8.4030576    280.15717  0.012963038  0.011675193            3 
 1802000   0.53194483   -8.4251923    280.29128  0.012962046  0.011665589            3 
 1803000   0.53046964   -8.4152329    280.18253   0.01294983  0.011656002            3 
 1804000     0.531487   -8.4243116    280.09256  0.012938496   0.01164641            4 
 1805000   0.53055274   -8.4195067    279.77847  0.012916827  0.011636827            2 
 1806000   0.52474998   -8.4041556    280.16604  0.012927558  0.011627242            2 
 1807000   0.52891932   -8.4220009     280.1216  0.012918355  0.011617683            3 
 1808000   0.52474664   -8.4224157    279.36941   0.01287654  0.011608123            5 
 1809000   0.53489048   -8.4200961    279.75172  0.012887034  0.011598577            2 
 1810000   0.53318153   -8.4237484    280.58358  0.012918213  0.011589051            2 
 1811000   0.53217023   -8.4176936    280.02739  0.012885486  0.011579523            5 
 1812000   0.53445466   -8.4287728    279.67183  0.012862023  0.011570002            5 
 1813000    0.5316899    -8.437625    279.97927   0.01286906   0.01156049            3 
 1814000   0.53710974   -8.4200381    279.93583   0.01285997  0.011550989            5 
 1815000    0.5234201   -8.4532765    280.14518  0.012862497  0.011541483            4 
 1816000   0.53047228   -8.4350356    280.03566  0.012850388  0.011532002            9 
 1817000   0.52488981   -8.4112853    279.91038   0.01283757  0.011522529            4 
 1818000   0.54223131   -8.4379643    279.50666  0.012812003   0.01151306            6 
 1819000   0.53845538   -8.4316134     280.0037  0.012827731    0.0115036            6 
 1820000   0.53671259   -8.4329382    279.56548  0.012800617  0.011494147            4 
 1821000   0.51647267   -8.4363069    279.58459  0.012794462  0.011484701            4 
 1822000   0.52240351   -8.4525316    279.55107  0.012785907  0.011475271            4 
 1823000   0.51681716   -8.4323064    279.65856  0.012783807  0.011465849            4 
 1824000   0.53504451   -8.4203464    279.55266   0.01277196   0.01145644            4 
 1825000   0.52840711   -8.4344359    279.96468  0.012783775  0.011447038            4 
 1826000   0.52585259   -8.4422903    279.94191  0.012775735  0.011437645            4 
 1827000   0.52058888   -8.4356634    279.75868  0.012760385  0.011428256            5 
 1828000   0.52059758   -8.4416975    279.85248  0.012757681  0.011418878            7 
 1829000   0.52150864   -8.4405812      279.746  0.012745854  0.011409515            4 
 1830000   0.52087187   -8.4525026    279.81177  0.012741884  0.011400151            4 
 1831000   0.52455309   -8.4245439    279.44491  0.012718228  0.011390807            3 
 1832000   0.52702393   -8.4291493     279.8627   0.01273029   0.01138147            5 
 1833000   0.52707567   -8.4463981    279.92508  0.012726181   0.01137214            4 
 1834000   0.52421334   -8.4277633    279.49835  0.012699852  0.011362821            3 
 1835000   0.52348951   -8.4359598    279.92343  0.012712236  0.011353507            4 
 1836000   0.51896844   -8.4419272    279.94659  0.012706363  0.011344195            3 
 1837000    0.5225377   -8.4634268    279.82999  0.012694157  0.011334891            5 
 1838000    0.5126669   -8.4564973    279.47484  0.012671148    0.0113256            3 
 1839000   0.52434039     -8.44151    279.87529  0.012682404  0.011316318            5 
 1840000     0.528107   -8.4440245    280.05877  0.012683821  0.011307041            2 
 1841000    0.5184545   -8.4390762    279.91548  0.012670446  0.011297782            4 
 1842000   0.52381004   -8.4437334    279.31234   0.01263628  0.011288522            3 
 1843000   0.50291773   -8.4406998    279.87123  0.012654695   0.01127928            3 
 1844000   0.51766685   -8.4521912    279.19916   0.01261746   0.01127003            4 
 1845000   0.51775904   -8.4574054    279.54217  0.012626114  0.011260798            7 
 1846000   0.50774328    -8.460788    279.54208   0.01261927  0.011251563            4 
 1847000    0.5103859   -8.4438353    279.50493  0.012610762  0.011242344            4 
 1848000   0.52074612   -8.4485732    279.78208  0.012616436  0.011233153            6 
 1849000   0.51293198   -8.4444197    279.68994   0.01260546  0.011223953            3 
 1850000   0.50969293   -8.4402109    279.24394  0.012578556  0.011214761            3 
 1851000    0.5193883   -8.4437743    279.01529  0.012561466  0.011205587            3 
 1852000   0.52185862    -8.443039    279.80358  0.012590154  0.011196414            3 
 1853000   0.51886094   -8.4420673    279.69879  0.012578647  0.011187252            3 
 1854000   0.51375297   -8.4774818    279.73842  0.012573643  0.011178102            3 
 1855000   0.52270063   -8.4512371    279.66536  0.012563583  0.011168957            4 
 1856000   0.51436694    -8.462403    279.84432  0.012564849  0.011159823            5 
 1857000   0.51006594   -8.4526045    279.33875  0.012535395  0.011150692            3 
 1858000   0.50624768   -8.4352958    279.29613  0.012526737  0.011141577            4 
 1859000   0.50897623   -8.4589282    279.18827  0.012515163  0.011132463            3 
 1860000   0.51612664   -8.4562557    279.87351  0.012539136  0.011123359            4 
 1861000   0.51617276   -8.4482918    278.97348  0.012492096  0.011114264            2 
 1862000   0.50226629   -8.4779664     279.6721  0.012516653  0.011105176            3 
 1863000   0.51647593    -8.468646    279.58713  0.012506134  0.011096095            2 
 1864000   0.49755523   -8.4756462    279.67279  0.012503254   0.01108702            3 
 1865000   0.50536629   -8.4425126    279.54695  0.012490927  0.011077966            5 
 1866000   0.50572295   -8.4706234    279.79223  0.012495187  0.011068906            5 
 1867000   0.50993256   -8.4623743    279.08816  0.012457069  0.011059871            5 
 1868000   0.50305394   -8.4623247    278.81542  0.012438232  0.011050826            2 
 1869000   0.49943188   -8.4710415    279.41366  0.012458251  0.011041801            2 
 1870000   0.51274301   -8.4636065    279.02136  0.012434107  0.011032778            3 
 1871000   0.51438411   -8.4647443    279.10525  0.012431198  0.011023774            3 
 1872000   0.50408623   -8.4884147    279.03169  0.012421283  0.011014765            5 
 1873000   0.50002801   -8.4699762    279.09977   0.01241768  0.011005763            2 
 1874000    0.4994234   -8.4531858    279.02471  0.012407716  0.010996782            3 
 1875000    0.4901488   -8.4704785    279.31084  0.012413815  0.010987801            4 
 1876000   0.50433228   -8.4782308    278.84126  0.012386339  0.010978826            5 
 1877000   0.49765376   -8.4709276    279.42729  0.012405758  0.010969861            3 
 1878000   0.50650347   -8.4769863    278.84493  0.012373311  0.010960906            4 
 1879000   0.50384286   -8.4806686    279.17511  0.012381369  0.010951957            3 
 1880000   0.51343806   -8.4723209    279.09231  0.012371113  0.010943009            3 
 1881000   0.49768034   -8.4735356    279.29415  0.012373478  0.010934082            3 
 1882000   0.50307557   -8.4837343    278.74869  0.012342751  0.010925158            4 
 1883000   0.49936377   -8.4720377    279.39463  0.012364783  0.010916241            3 
 1884000   0.49520984   -8.5024457    279.22169   0.01235057  0.010907336            6 
 1885000   0.50203463   -8.4580179    279.31405  0.012348101  0.010898441            3 
 1886000   0.50164009   -8.4810069    278.91368  0.012323863  0.010889563            3 
 1887000   0.49352476   -8.4768484    278.55245   0.01230138  0.010880684            3 
 1888000   0.49909541   -8.4816781    279.21677  0.012324187  0.010871815            4 
 1889000     0.496889   -8.4683117    279.67599  0.012337921  0.010862948            4 
 1890000    0.5066779   -8.4812586    278.90601  0.012297443  0.010854098            3 
 1891000   0.48849482   -8.4650139    278.90489  0.012290891  0.010845253            3 
 1892000   0.50697392   -8.4657086      278.699  0.012275326  0.010836422            3 
 1893000   0.49207579   -8.4780893    279.07355   0.01228533  0.010827593            4 
 1894000   0.49421855     -8.48402    279.44338  0.012295115  0.010818789            6 
 1895000   0.48958027   -8.4882201    278.79456  0.012260095  0.010809978            7 
 1896000   0.49409608   -8.4895685    279.13259  0.012268486  0.010801168            5 
 1897000   0.50329115   -8.4890875    278.64764  0.012240715  0.010792376            4 
 1898000   0.48865293   -8.4789928     278.9901  0.012249302  0.010783591            6 
 1899000   0.49356175   -8.4793159    279.18696   0.01225149  0.010774809            3 
 1900000    0.4875607   -8.5061773    278.99694  0.012236708   0.01076604            4 
 1901000   0.48763027   -8.4835198    278.46725  0.012207051  0.010757273            3 
 1902000   0.48869633   -8.4843055    279.00491   0.01222419   0.01074851            2 
 1903000   0.50094444   -8.4848981    278.95983  0.012215792   0.01073976            4 
 1904000   0.48643526   -8.4850157    279.16115  0.012218188  0.010731014            3 
 1905000   0.49580455   -8.4820134    278.97971  0.012203837  0.010722282            5 
 1906000   0.48918456   -8.4854336    278.77953  0.012188682  0.010713553            4 
 1907000   0.49376815   -8.4943091    278.74204  0.012180652  0.010704842            3 
 1908000   0.49875036   -8.4724601     278.8295  0.012178088   0.01069614            3 
 1909000   0.49370171   -8.4972823    279.15777  0.012186038  0.010687444            2 
 1910000   0.47861251   -8.4854293    279.27826  0.012184915   0.01067876            4 
 1911000   0.48194804   -8.4837245    278.88483  0.012161383  0.010670071            5 
 1912000   0.49193944   -8.4986235    279.07326  0.012163235  0.010661393            3 
 1913000   0.48693648   -8.4939138     278.6352  0.012137794  0.010652715            2 
 1914000   0.49158564   -8.4875174    278.99152  0.012146966  0.010644055            6 
 1915000   0.48734138   -8.4894084    278.95887  0.012139202  0.010635403            3 
 1916000   0.48114777   -8.4765866    278.53999  0.012114648  0.010626759            3 
 1917000   0.48950469   -8.5079869    278.32058  0.012098791  0.010618119            3 
 1918000   0.48886782   -8.4901525    278.99987  0.012121997  0.010609492            4 
 1919000   0.48952657   -8.4976933    278.87767  0.012110373  0.010600873            5 
 1920000   0.49485105   -8.4896313     278.9433  0.012106914  0.010592274            3 
 1921000   0.48604435   -8.5004846    278.66593  0.012088579  0.010583671            6 
 1922000   0.49013228   -8.5004349    278.81544  0.012088772  0.010575079            4 
 1923000   0.48744475   -8.5074623    278.85434  0.012084171    0.0105665            3 
 1924000   0.48999806   -8.4839202    278.32051  0.012054769  0.010557931            5 
 1925000    0.4792998   -8.4960298    278.71893  0.012065755  0.010549364            4 
 1926000   0.49217921   -8.5178545    278.52576  0.012051132  0.010540813            3 
 1927000   0.48528508   -8.4896519    278.69087  0.012052018  0.010532269            4 
 1928000   0.49558183   -8.4812258    278.79882  0.012050433  0.010523736            2 
 1929000   0.49078366   -8.5079156    278.47423  0.012030164   0.01051521            4 
 1930000   0.48146422   -8.5125505    278.80255  0.012038107  0.010506689            3 
 1931000   0.47168206   -8.5071571    278.69723  0.012027327  0.010498182            2 
 1932000   0.47959476   -8.5068539    278.89042  0.012029435  0.010489684            4 
 1933000   0.48383771    -8.502395    278.69587  0.012014824  0.010481192            3 
 1934000   0.48060501   -8.5118517     278.5007  0.012000202  0.010472718            6 
 1935000   0.47513369   -8.5132477    278.57784  0.011997323   0.01046424            3 
 1936000   0.48044156   -8.5119561    278.82302   0.01200168  0.010455777            6 
 1937000   0.48453689   -8.5125478    278.56033  0.011984182  0.010447314            3 
 1938000   0.48630251   -8.5137937    278.89038   0.01199219  0.010438869            4 
 1939000   0.47887575   -8.5018963    278.79308  0.011981824  0.010430427            4 
 1940000   0.48693867   -8.5107191    278.60458  0.011967551  0.010421986            4 
 1941000   0.47581725   -8.4907557    278.69169  0.011965125  0.010413555            4 
 1942000   0.47021099     -8.50702    278.24779  0.011939915  0.010405133            5 
 1943000   0.47032477   -8.5132354    278.61788  0.011949643  0.010396717            5 
 1944000   0.47337368   -8.5157415    278.44439  0.011936059  0.010388306            6 
 1945000   0.47745752   -8.5228622    278.40257  0.011928131  0.010379904            4 
 1946000   0.47567185   -8.5086417    278.47795  0.011925229  0.010371511            3 
 1947000   0.47670836   -8.5317399    278.08653  0.011902351  0.010363118            4 
 1948000   0.47944851   -8.5291498    278.28039  0.011904534  0.010354736            3 
 1949000   0.47947374   -8.5052941    278.35023  0.011901412  0.010346361            6 
 1950000   0.46888734   -8.5370951    278.42938  0.011898692     0.010338            5 
 1951000   0.47424344   -8.5327025    279.33967  0.011931474   0.01032965            4 
 1952000   0.46570908   -8.5196289    278.21197  0.011877219  0.010321301            3 
 1953000   0.48172778   -8.5198403    278.23702  0.011872206  0.010312967            7 
 1954000   0.46916463   -8.5103624     277.9607  0.011854346  0.010304639            4 
 1955000   0.47108302    -8.525296    278.42842  0.011868219  0.010296314            2 
 1956000   0.47927904   -8.5325238    278.35094  0.011858851  0.010288004            6 
 1957000    0.4775525   -8.5278076    278.52364  0.011860145  0.010279693            5 
 1958000   0.48985553   -8.5238604    278.35613  0.011846958  0.010271395            7 
 1959000   0.46831455   -8.5363948    278.26612  0.011837082  0.010263106            4 
 1960000   0.46880495   -8.5279702    278.20511  0.011828448  0.010254829            4 
 1961000   0.46625397   -8.5399857    278.53266  0.011836336  0.010246563            3 
 1962000   0.47985905   -8.5250238    278.38286  0.011823941  0.010238302            4 
 1963000   0.46304537   -8.5388059     278.4292  0.011819885  0.010230043            4 
 1964000   0.47592444   -8.5155311    278.34775   0.01181041   0.01022179            3 
 1965000   0.46947612   -8.5180788    278.19024   0.01179772  0.010213547            4 
 1966000   0.46069172    -8.518513    277.71433  0.011771547   0.01020531            4 
 1967000   0.47833797    -8.524189     278.3184  0.011791154  0.010197084            4 
 1968000   0.46493599   -8.5362104    278.04726  0.011773681   0.01018887            5 
 1969000   0.47302814   -8.5364618    277.93838  0.011763094  0.010180658            5 
 1970000    0.4651958   -8.5309568    278.36525   0.01177518  0.010172458            4 
 1971000   0.46256541   -8.5269863    278.13618  0.011759521  0.010164268            5 
 1972000    0.4544927   -8.5339162    278.30439  0.011760666  0.010156084            5 
 1973000   0.45428418   -8.5113707    278.40225  0.011758838  0.010147906            2 
 1974000   0.45231942   -8.5263283    277.98764  0.011735378  0.010139728            4 
 1975000   0.46672722    -8.529875    277.99595  0.011729787  0.010131564            3 
 1976000   0.47025256   -8.5345267    278.35433  0.011738965  0.010123413            4 
 1977000   0.46113091   -8.5534714    278.01289  0.011718635   0.01011527            3 
 1978000   0.46103228   -8.5323025    278.19166  0.011720242   0.01010713            5 
 1979000   0.46194227   -8.5216994    278.15225   0.01171266  0.010099006            3 
 1980000   0.46549325   -8.5498133    278.58855  0.011725107  0.010090888            3 
 1981000   0.46482939   -8.5345608    278.37751  0.011710311   0.01008278            4 
 1982000    0.4676377   -8.5319972    278.01947  0.011689349  0.010074678            5 
 1983000   0.46550243   -8.5384343    278.24959  0.011693124  0.010066584            4 
 1984000   0.46203771   -8.5517167    277.90206  0.011672634  0.010058499            3 
 1985000   0.45398585   -8.5414494    277.99275  0.011670561  0.010050412            3 
 1986000   0.46110459   -8.5521585    278.09818  0.011669108  0.010042339            3 
 1987000   0.46484528   -8.5394251    278.15046  0.011665428  0.010034278            6 
 1988000   0.45691246   -8.5608927    278.17549  0.011660609  0.010026219            2 
 1989000   0.44570878   -8.5436281    278.16349  0.011654244  0.010018164            2 
 1990000   0.46908291   -8.5326476    277.94645  0.011639299  0.010010119            2 
 1991000   0.46154084   -8.5305131    277.91769  0.011632249  0.010002084            3 
 1992000   0.45115043   -8.5504093    278.04844  0.011631879 0.0099940526            2 
 1993000   0.45485794   -8.5552316    278.14204  0.011629957 0.0099860379            2 
 1994000   0.45754149   -8.5558997    278.04876  0.011620226 0.0099780274            2 
 1995000   0.45910103   -8.5395085    278.28706  0.011624355 0.0099700308            3 
 1996000   0.45671676   -8.5397374    278.23938   0.01161654 0.0099620394            4 
 1997000   0.46000545   -8.5480504     277.7918  0.011592047 0.0099540537            3 
 1998000    0.4554554   -8.5446894    277.97662  0.011593953 0.0099460852            3 
 1999000   0.45785913   -8.5657684    278.53469  0.011611418 0.0099381197            3 
 2000000   0.44981419   -8.5475122    277.92804  0.011580335  0.009930159            2 
 2001000   0.46113587    -8.550759    277.58914  0.011560434 0.0099222055            3 
 2002000   0.45695879   -8.5572922     277.9789  0.011570883 0.0099142655            6 
 2003000   0.45752409   -8.5492355    278.03617  0.011567489  0.009906335            4 
 2004000   0.45309841   -8.5480937    278.03963  0.011561861 0.0098984034            4 
 2005000   0.45100175   -8.5589479    277.85538  0.011548436 0.0098904871            6 
 2006000   0.45778826   -8.5544462    277.78135  0.011539604 0.0098825769            3 
 2007000   0.45707461   -8.5607021    278.01415  0.011543521 0.0098746785            6 
 2008000   0.44855526   -8.5499332    277.99983  0.011537178 0.0098667834            6 
 2009000   0.44356388   -8.5523011    277.85884  0.011525586 0.0098588958            3 
 2010000   0.44974119   -8.5703541    278.04781  0.011527687 0.0098510145            5 
 2011000   0.45874009   -8.5429723    277.73185  0.011508862 0.0098431422            3 
 2012000    0.4481212   -8.5571013    278.03507    0.0115157 0.0098352815            4 
Loop time of 4700.25 on 48 procs for 2000000 steps with 4000 atoms

Performance: 73527.941 tau/day, 425.509 timesteps/s
99.4% CPU use with 48 MPI tasks x no OpenMP threads

MPI task timing breakdown:
Section |  min time  |  avg time  |  max time  |%varavg| %total
---------------------------------------------------------------
Pair    | 295.62     | 315.85     | 335.12     |  53.3 |  6.72
Neigh   | 31.073     | 32.276     | 33.848     |  12.9 |  0.69
Comm    | 296.46     | 319.02     | 340.05     |  65.4 |  6.79
Output  | 4.1813     | 4.1832     | 4.2145     |   0.2 |  0.09
Modify  | 3974.8     | 3985.9     | 4000.1     |  11.3 | 84.80
Other   |            | 43.05      |            |       |  0.92

Nlocal:        83.3333 ave          92 max          75 min
Histogram: 1 2 6 6 8 15 3 5 0 2
Nghost:        2008.96 ave        2033 max        1987 min
Histogram: 2 4 6 7 5 12 4 2 4 2
Neighs:        13032.0 ave       14547 max       11424 min
Histogram: 1 5 1 5 11 6 9 6 3 1
FullNghs:      26119.7 ave       28837 max       23125 min
Histogram: 1 2 5 3 10 9 10 4 3 1

Total # of neighbors = 1253746
Ave neighs/atom = 313.43650
Neighbor list builds = 107291
Dangerous builds = 0

#clear
#
#next RN
#
#jump SELF
Total wall time: 1:18:23
