
units lj                  # Use reduced LJ style units
atom_style atomic         # Uncharged point particles
atom_modify map hash      # Needed for indexing of clusters etc
                          # Used to be able to find where atoms are in relation to each other.

lattice fcc 1.0 spacing 1 1 1
Lattice spacing in x,y,z = 1.5874011 1.5874011 1.5874011
region box block 0 10 0 10 0 10 units lattice
create_box 2 box
Created orthogonal box = (0.0000000 0.0000000 0.0000000) to (15.874011 15.874011 15.874011)
  3 by 4 by 4 MPI processor grid
create_atoms 1 box
Created 4000 atoms
  using lattice units in orthogonal box = (0.0000000 0.0000000 0.0000000) to (15.874011 15.874011 15.874011)
  create_atoms CPU = 0.002 seconds
set type 1 type/fraction 2 0.53 78393
Setting atom values ...
  2126 settings made for type/fraction
mass 1 1.0
mass 2 1.0
pair_style lj/cut  3.5
pair_modify tail  yes
pair_coeff 1  1  1.0  1.0   # Intearaction between 1 and 1 set with epsilon = 1 and sigma = 1
pair_coeff 1  2  1.5  0.8
pair_coeff 2  2  0.5  0.88

write_data data.0
System init for write_data ...
Neighbor list info ...
  update every 1 steps, delay 10 steps, check yes
  max neighbors/atom: 2000, page size: 100000
  master list distance cutoff = 3.8
  ghost atom cutoff = 3.8
  binsize = 1.9, bins = 9 9 9
  1 neighbor lists, perpetual/occasional/extra = 1 0 0
  (1) pair lj/cut, perpetual
      attributes: half, newton on
      pair build: half/bin/atomonly/newton
      stencil: half/bin/3d
      bin: standard
WARNING: Not all mixed pair coeffs generated from mixing. Use write_data with 'pair ij' option to store all pair coeffs. (../write_data.cpp:312)


#############################
#   M E L T   S Y S T E M   #
#############################

velocity all create 2.4 9622624 mom yes dist gaussian # Assign velocities
                                                    # Temperature 2.4, random number seed, zero linear momentum
                                                                                # Gaussian distribution

timestep 0.002   # simulation timestep
thermo 1000       # output thermodynamic data every 1000 steps bf 100

# Define a fix  in this case with index 1 applied to all
# particles in the simulation. This fix is for simulations
# in the anisotropic NPT ensemble. Note that we use the MTK
# correction.
fix 1 all npt temp 2.4 2.4 0.1 iso 5.68 5.68 0.5 mtk yes tchain 5 pchain 5 # Use NPT ensemble
                                                                         # Set temperature and pressure and damping
                                                                         # Numbers of thermostats in chain and in barostat
run 10000          # run for 10000 steps
Per MPI rank memory allocation (min/avg/max) = 3.642 | 3.644 | 3.648 Mbytes
Step Temp E_pair E_mol TotEng Press Volume 
       0          2.4   -5.1225569            0   -1.5234569   -4.1795691         4000 
    1000    2.4120159   -4.7534085            0   -1.1362892    5.6491166    3682.8777 
    2000    2.4194014   -4.7928535            0   -1.1646586     5.700511    3656.5725 
    3000    2.3954868     -4.93794            0   -1.3456081     5.832349    3590.2128 
    4000    2.3931754   -4.8056516            0   -1.2167859     5.950337    3627.7345 
    5000    2.3914522   -4.7371895            0   -1.1509079     5.739685    3690.1309 
    6000    2.3827184   -4.7794582            0   -1.2062741    5.9934057    3643.2167 
    7000    2.3804681    -4.808218            0   -1.2384086    5.5876508    3649.8354 
    8000    2.4212171   -4.8210469            0   -1.1901293    5.8079941    3640.6037 
    9000    2.3901777   -4.8113536            0   -1.2269833    5.5301473    3661.6426 
   10000    2.4315225   -4.8258354            0   -1.1794635    5.9154178    3635.2066 
Loop time of 2.64667 on 48 procs for 10000 steps with 4000 atoms

Performance: 652896.851 tau/day, 3778.338 timesteps/s
99.6% CPU use with 48 MPI tasks x no OpenMP threads

MPI task timing breakdown:
Section |  min time  |  avg time  |  max time  |%varavg| %total
---------------------------------------------------------------
Pair    | 1.1908     | 1.2693     | 1.4462     |   3.6 | 47.96
Neigh   | 0.21616    | 0.22281    | 0.24516    |   0.9 |  8.42
Comm    | 0.71136    | 0.89075    | 0.98991    |   4.5 | 33.66
Output  | 0.00025327 | 0.00025917 | 0.00032062 |   0.0 |  0.01
Modify  | 0.20697    | 0.24701    | 0.28812    |   5.5 |  9.33
Other   |            | 0.01652    |            |       |  0.62

Nlocal:        83.3333 ave          93 max          72 min
Histogram: 1 1 4 4 9 12 5 7 4 1
Nghost:        1746.96 ave        1785 max        1704 min
Histogram: 1 1 3 5 12 11 3 8 3 1
Neighs:        10501.3 ave       12092 max        8649 min
Histogram: 1 2 2 3 12 9 10 7 0 2

Total # of neighbors = 504064
Ave neighs/atom = 126.01600
Neighbor list builds = 900
Dangerous builds = 176

# Equilibrate just above the melting temperature to avoid step fn in T

fix 1 all npt temp 1.25 1.25 0.1 iso 5.68 5.68 0.5 mtk yes tchain 5 pchain 5
run 2000
Per MPI rank memory allocation (min/avg/max) = 3.644 | 3.646 | 3.649 Mbytes
Step Temp E_pair E_mol TotEng Press Volume 
   10000    2.4315225   -4.8258354            0   -1.1794635    5.9154178    3635.2066 
   11000    1.2558332   -6.9323062            0   -5.0490274    5.7133049    2833.1003 
   12000    1.2364663   -7.0439678            0    -5.189732    5.6505486    2803.8262 
Loop time of 0.656813 on 48 procs for 2000 steps with 4000 atoms

Performance: 526176.906 tau/day, 3045.005 timesteps/s
99.6% CPU use with 48 MPI tasks x no OpenMP threads

MPI task timing breakdown:
Section |  min time  |  avg time  |  max time  |%varavg| %total
---------------------------------------------------------------
Pair    | 0.30065    | 0.32314    | 0.35969    |   2.3 | 49.20
Neigh   | 0.041124   | 0.043507   | 0.04649    |   0.5 |  6.62
Comm    | 0.20146    | 0.23924    | 0.26724    |   2.9 | 36.42
Output  | 5.074e-05  | 5.2941e-05 | 6.8599e-05 |   0.0 |  0.01
Modify  | 0.04078    | 0.045734   | 0.050628   |   1.5 |  6.96
Other   |            | 0.00514    |            |       |  0.78

Nlocal:        83.3333 ave          89 max          78 min
Histogram: 4 5 7 5 6 4 5 3 4 5
Nghost:        2084.21 ave        2101 max        2056 min
Histogram: 2 1 2 4 3 8 6 8 9 5
Neighs:        13605.7 ave       15118 max       12521 min
Histogram: 7 3 6 9 8 3 5 1 4 2

Total # of neighbors = 653074
Ave neighs/atom = 163.26850
Neighbor list builds = 142
Dangerous builds = 12

#############################
# L I N E A R  Q U E N C H  #
#############################

# Define solid atoms. This closely follows ten Wolde  Ruiz-Montero and Frenkel  Faraday Discuss  1996  104  93-110
# Compute components of the per-atom q6 vector
compute q6 all orientorder/atom degrees 1 6 components 6 nnn NULL cutoff 1.3 # compute the Q6 parameter.
                                                                             # Use all neighbours within 1.3 unit cell.

# get number of connections
compute coord_number all coord/atom orientorder q6 0.5

# An atom is solid if it has 8 or more connections (of a possible 14)
variable is_solid atom c_coord_number>=8
group solid dynamic all var is_solid    # Must be dynamic to update
dynamic group solid defined

# do clustering
compute cluster solid cluster/atom 1.3 # Create a cluster where all atoms within are solid and max 1.3 units from another member

# define chunks one chunk per cluster
compute clus_chunks solid chunk/atom c_cluster nchunk every compress yes  # Says which atoms are in which chunk

# count the size of each chunk
compute size_chunks solid property/chunk clus_chunks count


# Find the maximum entry in the vector of chunk sizes
variable max_n equal max(c_size_chunks)


# Thermo style which includes this variable
# thermo_style custom step temp pe vol v_max_n

thermo ${N}  # Print the thermo information every 100 steps
thermo 1000  

# Reset the npt fix at a lower temperature (below freezing)
fix 1  all npt temp  ${temp} ${temp}  0.1  iso  5.68  5.68  0.5  mtk yes tchain  5  pchain  5
fix 1  all npt temp  0.45 ${temp}  0.1  iso  5.68  5.68  0.5  mtk yes tchain  5  pchain  5
fix 1  all npt temp  0.45 0.45  0.1  iso  5.68  5.68  0.5  mtk yes tchain  5  pchain  5

dump dmp2 all dcd ${N} traj.dcd
dump dmp2 all dcd 1000 traj.dcd


compute msd all msd com yes
variable twopoint equal c_msd[4]/6/(step*dt+1.0e-6)
fix 9 all vector 10 c_msd[4]
variable fit equal slope(f_9)/6/(10*dt)
thermo_style custom step temp pe c_msd[4] v_twopoint v_fit v_max_n

fix 1 all npt temp 1.25 ${temp} 0.1 iso 5.68 5.68 0.5 mtk yes tchain 5 pchain 5
fix 1 all npt temp 1.25 0.45 0.1 iso 5.68 5.68 0.5 mtk yes tchain 5 pchain 5
run 500000 # 5000000  # Run for this many steps
Neighbor list info ...
  update every 1 steps, delay 10 steps, check yes
  max neighbors/atom: 2000, page size: 100000
  master list distance cutoff = 3.8
  ghost atom cutoff = 3.8
  binsize = 1.9, bins = 8 8 8
  4 neighbor lists, perpetual/occasional/extra = 1 3 0
  (1) pair lj/cut, perpetual
      attributes: half, newton on
      pair build: half/bin/atomonly/newton
      stencil: half/bin/3d
      bin: standard
  (2) compute orientorder/atom, occasional
      attributes: full, newton on
      pair build: full/bin/atomonly
      stencil: full/bin/3d
      bin: standard
  (3) compute coord/atom, occasional
      attributes: full, newton on
      pair build: full/bin/atomonly
      stencil: full/bin/3d
      bin: standard
  (4) compute cluster/atom, occasional
      attributes: full, newton on
      pair build: full/bin/atomonly
      stencil: full/bin/3d
      bin: standard
Per MPI rank memory allocation (min/avg/max) = 9.842 | 9.848 | 9.852 Mbytes
Step Temp PotEng c_msd[4] v_twopoint v_fit v_max_n 
   12000    1.2364663   -7.0439678 2.5594592e-30 1.7774022e-32 8.3333333e+20            2 
   13000    1.2584983   -7.0357504   0.43712111 0.0028020583  0.034936124            2 
   14000    1.2682538   -7.0158054   0.85953776  0.005116296  0.034930464            3 
   15000    1.2745357   -6.9966893    1.2225787 0.0067921034  0.033153916            1 
   16000    1.2461196   -7.0643293    1.6197863 0.0084363866  0.032816683            1 
   17000    1.2594069   -7.0330355    1.9677795 0.0096459778   0.03226315            4 
   18000    1.2387548   -7.0157456    2.3816615  0.011026211  0.032333181            4 
   19000    1.2690154   -7.0575055    2.7563645  0.012089318  0.032353158            1 
   20000    1.2092568   -7.1016326    3.1215542  0.013006476   0.03210789            2 
   21000    1.2075952   -7.0490562    3.4282706  0.013604248  0.031833895            2 
   22000    1.2414648    -7.069053    3.7929876  0.014367377  0.031429908            2 
   23000    1.2278164    -7.077198    4.1833671  0.015157127   0.03119888            3 
   24000    1.2109135   -7.1340095    4.5084981  0.015654507  0.031068185            2 
   25000    1.2448667   -7.0520447     4.916273  0.016387576  0.030948008            1 
   26000    1.2568377   -7.0761202    5.3321628  0.017090265  0.030891626            3 
   27000    1.2337264   -7.0564294    5.7145394  0.017637467  0.030953224            2 
   28000    1.2377202   -7.1079285    6.0877683  0.018118358  0.031038886            1 
   29000    1.2048057   -7.1136349    6.5046556  0.018691539  0.031132976            2 
   30000    1.2091979   -7.0817922    6.9386256   0.01927396   0.03125533            2 
   31000    1.2011366   -7.1213791    7.2874019   0.01958979  0.031426671            3 
   32000    1.1994792   -7.1458909    7.6688697  0.019971015  0.031496401            2 
   33000    1.2297102   -7.0657336    8.0273041   0.02027097  0.031515689            4 
   34000    1.2324646   -7.1475611    8.4504307   0.02071184  0.031547566            2 
   35000    1.1977806   -7.1392059    8.8141851  0.020986155   0.03160527            2 
   36000    1.2178412   -7.1058082    9.2193386  0.021341061   0.03164972            4 
   37000    1.2172951   -7.1350479    9.6550553   0.02174562  0.031699352            6 
   38000    1.2203521   -7.1508185    9.9634232  0.021849612  0.031717734            1 
   39000    1.2240579   -7.1262519    10.324636  0.022061188  0.031718671            4 
   40000    1.2212676   -7.1331005     10.52569  0.021928521  0.031651297            2 
   41000    1.2157784   -7.1480047    10.812553  0.021976734  0.031538633            2 
   42000    1.1973745   -7.1379973    11.192565   0.02220747  0.031423853            2 
   43000     1.210411   -7.1161623    11.591889    0.0224649  0.031345607            2 
   44000    1.2040684   -7.1084371    11.946695  0.022626316  0.031256758            3 
   45000    1.1965517   -7.1656991    12.273214  0.022728174  0.031185774            3 
   46000    1.1802359   -7.1404566    12.722638  0.023048257  0.031138224            3 
   47000     1.199117   -7.1556051    12.971091  0.022998388  0.031076135            2 
   48000    1.2035846   -7.1813842    13.323443  0.023130977  0.031001751            4 
   49000    1.2004267   -7.1812408    13.664427   0.02323882  0.030930488            3 
   50000    1.2011917   -7.1934405    14.003759  0.023339597  0.030840731            4 
   51000    1.1740711   -7.1215048    14.295393  0.023358485  0.030743771            3 
   52000    1.1986809   -7.1684053    14.744068  0.023628313  0.030659812            5 
   53000    1.1962498   -7.1597425    15.125446  0.023782147  0.030613771            1 
   54000    1.1892561   -7.2075877     15.54988  0.023996728  0.030590861            4 
   55000    1.1780597   -7.1748094    15.983336  0.024217175  0.030577678            2 
   56000    1.1715991   -7.1638245    16.353861  0.024336103  0.030579061            3 
   57000    1.1709112   -7.1631928    16.555423  0.024203834  0.030552231            2 
   58000    1.1802042   -7.1976555    16.785788  0.024117511  0.030499847            2 
   59000    1.1713012   -7.1978154    17.106607  0.024161874  0.030434867            3 
   60000    1.1884475   -7.2131938    17.375494  0.024132631   0.03036315            2 
   61000    1.1738366   -7.2068703    17.706313  0.024188952  0.030293636            1 
   62000    1.1737883   -7.2449746    17.861076  0.024006823  0.030212627            3 
   63000    1.1655806   -7.2696507    18.109245  0.023954027  0.030110991            2 
   64000    1.1682292   -7.2823716    18.366585  0.023914823  0.029992624            2 
   65000    1.1718787   -7.2533441    18.666803  0.023931799  0.029866922            3 
   66000    1.1803338    -7.280056    18.861027  0.023814428  0.029737917            4 
   67000    1.1674955   -7.2330833     19.03757   0.02367857  0.029593477            2 
   68000    1.1527829   -7.2290435    19.415268   0.02379322  0.029454704            2 
   69000    1.1619663   -7.2397919    19.673839  0.023760675  0.029325984            1 
   70000    1.1487994   -7.2907474     19.90254    0.0236935  0.029190663            3 
   71000    1.1666584    -7.257318    20.068803  0.023554933  0.029051155            3 
   72000    1.1544353     -7.29039     20.28617  0.023479363  0.028908786            5 
   73000    1.1263355   -7.2406805    20.678122  0.023605162  0.028775501            3 
   74000    1.1574613   -7.2959129    20.906531   0.02354339  0.028647074            2 
   75000    1.1294755    -7.283705    21.277354  0.023641504  0.028526907            5 
   76000    1.1314559   -7.3221814    21.386664   0.02345029  0.028403463            3 
   77000    1.1572222     -7.23273    21.653329  0.023434339  0.028277078            1 
   78000    1.1559609   -7.2964318    21.837531  0.023330696  0.028143923            1 
   79000    1.1297509   -7.3049969    22.192138  0.023409428  0.028014998            3 
   80000    1.1509326   -7.2896973    22.461322   0.02339721   0.02789238            1 
   81000     1.130703   -7.2871979    22.662066  0.023314883  0.027772042            3 
   82000    1.1532499   -7.2991805    22.898552  0.023270886  0.027652149            2 
   83000    1.1340493   -7.3192486    23.114148  0.023206976  0.027525945            2 
   84000    1.1547339   -7.3048571    23.485978  0.023299581  0.027406614            3 
   85000    1.1589163    -7.282787     23.69831  0.023233637  0.027298023            3 
   86000    1.1276919   -7.3432426    23.959415  0.023216487  0.027184948            3 
   87000    1.1036688   -7.3397501    24.324749  0.023299568  0.027078899            2 
   88000    1.1242792   -7.3071191    24.740844  0.023428829  0.026985196            1 
   89000    1.1316571   -7.3339403    24.993562  0.023402212  0.026902731            4 
   90000    1.1169179   -7.3346931    25.092733  0.023234012   0.02681631            1 
   91000    1.1330002   -7.3602512    25.252013  0.023124554  0.026719392            2 
   92000    1.1169112   -7.3423078    25.516801  0.023113044  0.026620004            3 
   93000    1.1226516   -7.3873418    25.811415  0.023128508  0.026520313            4 
   94000    1.1319907   -7.3515281    26.091456  0.023130724  0.026426717            5 
   95000    1.1143962   -7.3721688    26.287052  0.023058817  0.026336398            4 
   96000    1.1295188    -7.369906    26.504742  0.023007588  0.026246691            3 
   97000    1.1059766   -7.3824378    26.772864  0.023000742  0.026161172            3 
   98000    1.1274284   -7.4048742    27.141347  0.023079377  0.026079864            4 
   99000    1.0929105   -7.3406997    27.462935  0.023116949  0.026003313            1 
  100000     1.123376    -7.358623     27.66943  0.023057858   0.02593118            1 
  101000    1.1063413   -7.4420226    27.817228  0.022951508  0.025853999            2 
  102000    1.0952675   -7.4424111    27.990267  0.022867865  0.025773686            3 
  103000    1.1173457   -7.3970986    28.169977  0.022791243  0.025686917            3 
  104000    1.0709153   -7.3912237    28.427669  0.022778581  0.025603257            2 
  105000     1.086742   -7.4098692    28.676188  0.022758879  0.025522389            3 
  106000    1.1078342   -7.4268545     28.88164  0.022705691  0.025444583            2 
  107000     1.095056   -7.3928436    29.104952  0.022667408  0.025366228            4 
  108000    1.0777921   -7.4340285    29.269763  0.022584694  0.025285321            5 
  109000    1.0929853   -7.4334047    29.525776  0.022573223   0.02520707            4 
  110000    1.1175432   -7.3825704    29.907855  0.022657466  0.025131305            4 
  111000    1.1195514   -7.4315244    30.047309   0.02255804   0.02505484            8 
  112000    1.0750501   -7.3836196    30.277235  0.022527705  0.024977931            2 
  113000    1.0954438   -7.4408661    30.476197  0.022475071  0.024900559            3 
  114000    1.0842045   -7.4020425    30.698139   0.02244016  0.024822594            3 
  115000    1.0797686   -7.4370716    30.783438  0.022306839  0.024746682            3 
  116000    1.0965076   -7.4623477    31.014664   0.02228065  0.024668025            1 
  117000    1.0803895   -7.4893052    31.192025  0.022216542  0.024590186            2 
  118000    1.0912383   -7.4759788     31.50025  0.022245939  0.024516765            5 
  119000    1.0767322   -7.4943588    31.654861   0.02216727  0.024443802            2 
  120000    1.0719192   -7.4289702    31.999493   0.02222187  0.024371317            4 
  121000    1.0871809   -7.4271295    32.164611  0.022151936  0.024302423            2 
  122000    1.0798233   -7.4532183    32.388844  0.022123527  0.024231078            4 
  123000    1.0631706   -7.4541157    32.381814  0.021938898  0.024155312            2 
  124000    1.0660255   -7.4839561    32.616702  0.021919827  0.024078129            4 
  125000    1.0572481   -7.4977428    32.988392  0.021992261  0.024004734            5 
  126000    1.0609678   -7.4994938    33.163919  0.021933809  0.023934336            3 
  127000    1.0585007   -7.5118153    33.306531  0.021854679  0.023860441            3 
  128000    1.0634872    -7.507494    33.491048  0.021804067  0.023787824            3 
  129000    1.0610463    -7.499341    33.532414  0.021661766  0.023710654            2 
  130000    1.0987668   -7.4916799    33.834537  0.021688805  0.023634916            1 
  131000    1.0463285   -7.5549389    33.735728  0.021460386  0.023558727            2 
  132000     1.062703    -7.515314    34.090276  0.021521639  0.023482704            2 
  133000    1.0521279   -7.5076537    34.114265  0.021374853  0.023406445            4 
  134000    1.0482932   -7.5188714    34.468076   0.02143537   0.02333119            3 
  135000    1.0500416   -7.5344467    34.554638  0.021330024  0.023254118            3 
  136000    1.0564289   -7.5509478      34.6186  0.021212378  0.023176064            4 
  137000    1.0345169   -7.5301729    34.808192  0.021172866   0.02309782            5 
  138000    1.0546047    -7.539052    34.886172  0.021066529   0.02301705            2 
  139000    1.0407903   -7.5557915    35.087294  0.021035548  0.022934946            5 
  140000     1.038665   -7.5894549    35.009154  0.020838782  0.022852153            4 
  141000    1.0403576   -7.5352981    35.427593  0.020938294  0.022769128            3 
  142000    1.0503419   -7.6121566    35.647016   0.02091961  0.022689756            3 
  143000    1.0364354   -7.5892954    35.713836  0.020812258  0.022611617            5 
  144000    1.0437784    -7.557557    35.978476  0.020820877   0.02253627            4 
  145000    1.0683074   -7.6187145     36.12091  0.020759144  0.022460568            4 
  146000    1.0108186   -7.5858871    36.403656  0.020778342  0.022385014            3 
  147000    1.0393925   -7.5687227    36.693936  0.020801551  0.022312737            3 
  148000    1.0140237   -7.5903403     36.65557  0.020639398  0.022240224            4 
  149000   0.99594714   -7.6021717    36.731555  0.020543375  0.022166398            3 
  150000    1.0371877   -7.6120604    36.707396  0.020392998  0.022089473            2 
  151000    1.0544899   -7.6514427    37.034453   0.02043844  0.022011803            2 
  152000    1.0263471   -7.6444067    37.198885  0.020394125  0.021935262            3 
  153000    1.0276664   -7.6282739    37.443097  0.020393843  0.021861753            8 
  154000    1.0290485   -7.6734556    37.478678   0.02028067  0.021788739           10 
  155000    1.0059906   -7.6468129    37.602192  0.020216232  0.021716309            2 
  156000    1.0178335   -7.6037839    37.900987  0.020246254  0.021643572            3 
  157000    1.0130836   -7.6523255    37.863963  0.020097645  0.021570029            2 
  158000    1.0164142   -7.6646123    37.905688  0.019992451  0.021496282            6 
  159000    1.0202878   -7.6868922      38.2185   0.02003066  0.021420517            6 
  160000    1.0011109   -7.6528126    38.424875  0.020012956  0.021348863            3 
  161000   0.99805514   -7.6611977    38.603786  0.019981256  0.021278881            2 
  162000    1.0028702    -7.650339    38.718329  0.019916836  0.021209368            3 
  163000    1.0104382   -7.6665603    38.826329  0.019849861  0.021141336           10 
  164000   0.99666327   -7.6177648    39.109424  0.019872675  0.021071386            6 
  165000    1.0259167   -7.6959797    38.875037  0.019633857   0.02100029            6 
  166000    1.0150855   -7.6786939    39.157947  0.019657604  0.020929727            4 
  167000    1.0046772    -7.674198    39.272654  0.019597132  0.020858763            2 
  168000    1.0120451    -7.673516    39.378665  0.019533068  0.020787968            2 
  169000   0.97547613    -7.701783     39.53804  0.019496075  0.020716951            7 
  170000    1.0053734    -7.663589    39.688303   0.01945505  0.020647144            5 
  171000    0.9938801   -7.6624343    39.837766  0.019414116  0.020578826            3 
  172000   0.97789165   -7.6689246    39.959056  0.019360008  0.020510231            3 
  173000   0.98067376   -7.6944885    40.147629  0.019338935  0.020444605            4 
  174000    1.0101384   -7.7186362    40.394319  0.019345938  0.020378969            5 
  175000   0.99423756   -7.7289137    40.483347  0.019277784     0.020313            3 
  176000   0.99548052   -7.7345994     40.54847  0.019199086  0.020246934            3 
  177000   0.97872114   -7.7757958    40.571132  0.019101286  0.020181748            6 
  178000   0.97358666   -7.7593868    40.737806  0.019072006  0.020115326            4 
  179000   0.97371212   -7.7464826    40.917831   0.01904927  0.020049418            8 
  180000   0.94124798   -7.7543116    41.123422  0.019038621  0.019983708            4 
  181000   0.96124825   -7.7756329    41.117056  0.018930504  0.019919001            3 
  182000   0.97800005    -7.754173    41.193033  0.018861279  0.019853103            6 
  183000   0.96617975   -7.7465512    41.425404  0.018864027  0.019788353            5 
  184000   0.97964874   -7.7277486    41.694538  0.018883396  0.019725143            3 
  185000   0.98785268   -7.7538599     41.95338  0.018897919  0.019664418            4 
  186000   0.96456395   -7.7254239      41.9953  0.018815098  0.019603086            7 
  187000   0.95870942   -7.7588202    42.161299  0.018788457   0.01954424            3 
  188000   0.95821784   -7.7407742    42.136276  0.018677427  0.019483517            7 
  189000   0.97682695    -7.770173    42.369251  0.018681328  0.019422851            4 
  190000   0.95725208   -7.7802069    42.327481  0.018564685  0.019361941            4 
  191000   0.97844851   -7.7862395    42.503092  0.018544106  0.019300864            5 
  192000     0.963079   -7.7641785    42.599545  0.018489386  0.019239999            6 
  193000   0.95943237   -7.7946567    42.552445  0.018373249  0.019178407            9 
  194000   0.96635145    -7.827809     42.58495  0.018292504  0.019115972            5 
  195000   0.96168536   -7.8331593     42.74816  0.018268444  0.019052898            7 
  196000   0.93268017   -7.8133486    42.810374  0.018201689  0.018990149            4 
  197000   0.95472701   -7.8386989     42.81656  0.018111912  0.018927436            5 
  198000   0.95485727   -7.8679541    42.692213  0.017968103  0.018861066            9 
  199000   0.95403348   -7.8630967    42.814807  0.017929149  0.018794942            3 
  200000   0.95055815   -7.8687339    43.142145  0.017975894  0.018729697            4 
  201000   0.95140774    -7.896194    43.152976  0.017890952   0.01866603            7 
  202000   0.94321583   -7.8464525    43.284648  0.017856703  0.018602723            6 
  203000   0.93205621   -7.8310866    43.341969   0.01779227  0.018538819            5 
  204000   0.94874367   -7.8750066    43.231483   0.01765992  0.018475383            6 
  205000   0.93793997    -7.914003    43.291572    0.0175982  0.018410131            2 
  206000    0.9612732   -7.9082267    43.265534  0.017502239  0.018344342            6 
  207000   0.91856232   -7.9144893    43.529627  0.017524004   0.01827925            6 
  208000   0.92806451   -7.9040637    43.584611  0.017461783  0.018215618            8 
  209000   0.91831417   -7.9097021    43.676846   0.01741501  0.018152203            7 
  210000   0.93240487   -7.8848308    43.853231  0.017402076  0.018087775            5 
  211000   0.93193899   -7.9228505    43.780327  0.017290809  0.018024248            4 
  212000   0.95877758   -7.8747433    44.006846  0.017298289  0.017960728            3 
  213000   0.94473654   -7.8690999    44.084894  0.017247611  0.017897806            3 
  214000   0.92578933   -7.9053853    44.077727  0.017164224  0.017834453            2 
  215000   0.93293935   -7.9357586    43.876808  0.017006515  0.017770204            6 
  216000   0.90745355    -7.921936    44.069188  0.017002002  0.017704858            3 
  217000   0.93094994   -7.9236441    44.336482  0.017026299  0.017640907            5 
  218000   0.90910731   -7.9403777    44.177884   0.01688757  0.017576905            5 
  219000    0.9358187   -7.9256631    44.358084  0.016879027  0.017513661            4 
  220000    0.9180843   -7.9337168    44.644588  0.016910829  0.017451618            6 
  221000    0.9270316   -7.9680101    44.701964  0.016855944    0.0173904            3 
  222000   0.92082102   -7.8976507    44.906048  0.016856625  0.017330652            4 
  223000   0.91567251   -7.9530965    44.913573  0.016783846  0.017270129            5 
  224000   0.91732209    -7.960761    44.942854  0.016719812  0.017209529           12 
  225000    0.9096056   -7.9602728    44.906682  0.016632105  0.017149146            4 
  226000   0.89196409   -7.9799196    45.078067  0.016621706   0.01708847            7 
  227000     0.904841   -8.0163237    45.055723   0.01654028  0.017028219           11 
  228000   0.90455711   -7.9645004    45.057444  0.016468364  0.016968239            5 
  229000   0.89263946   -7.9622224    45.361111  0.016506955  0.016909253           15 
  230000   0.89435926   -7.9821479    45.367056  0.016437339  0.016850728           15 
  231000   0.89275214   -7.9898613     45.66021  0.016471937   0.01679288            6 
  232000    0.9053911   -8.0049795    45.556268  0.016363602  0.016735163            6 
  233000   0.86641069   -7.9778531    45.661519  0.016331015  0.016676873            7 
  234000   0.88868299   -7.9637983    45.701996  0.016275639  0.016618881            6 
  235000   0.88309531    -7.982105    45.691937  0.016202814  0.016561296            6 
  236000   0.86550134   -8.0361274    45.835501  0.016184852  0.016504474            5 
  237000    0.8701004   -8.0373018    45.754313  0.016088014   0.01644683            8 
  238000   0.89998719    -7.986031    46.040296  0.016120552  0.016390039            8 
  239000   0.88893982     -8.02668     45.97441  0.016030129  0.016333525            7 
  240000   0.87578303   -8.0434544    45.949324  0.015954626  0.016276963           12 
  241000   0.88570393   -8.0272311    46.014096  0.015910822  0.016220023            5 
  242000   0.87647412   -8.0059283      46.1262  0.015883678  0.016163298            5 
  243000   0.88325697   -8.0703004     46.11245  0.015813597  0.016107023            9 
  244000   0.88976285   -8.0502672    46.067997  0.015733605  0.016050494            4 
  245000   0.86332382   -8.0511391    46.261329  0.015735146  0.015993666            9 
  246000   0.89085006   -8.0509309    46.215534  0.015655669  0.015937465           12 
  247000   0.87636719   -8.0689945     46.56518   0.01571025  0.015880962            7 
  248000   0.85943102   -8.0435534    46.412427  0.015595573  0.015824903            3 
  249000   0.85818123   -8.0595337    46.349949  0.015512031  0.015768703           24 
  250000   0.87380614   -8.0722285    46.276983  0.015425661   0.01571201           11 
  251000    0.8462339   -8.0774648     46.32437  0.015379937  0.015655452           26 
  252000   0.85477492   -8.0988509    46.371313  0.015334429  0.015598975           21 
  253000   0.85272499   -8.0652108    46.509449  0.015319318  0.015543022           15 
  254000   0.86265298   -8.0588363    46.490043  0.015252639  0.015487476           16 
  255000   0.87515699    -8.106987    46.582826  0.015223146  0.015431669           34 
  256000   0.86496796   -8.1066661    46.746514  0.015216964  0.015376481           51 
  257000   0.85854782   -8.0977154    46.588934  0.015106658  0.015320707           42 
  258000   0.85992507   -8.1534854    46.693581  0.015081906  0.015265168           31 
  259000   0.85593945   -8.1390896    46.606433  0.014995635  0.015209521           13 
  260000   0.85106271   -8.1290297    46.752988  0.014984932  0.015154421           33 
  261000   0.85183438    -8.144813    46.785013  0.014937743  0.015099369           39 
  262000    0.8431875   -8.1457965    47.002965  0.014950052  0.015045042           46 
  263000    0.8452783   -8.1775496    46.831544  0.014838892  0.014990867           54 
  264000   0.84826401   -8.1597177    47.004042  0.014837134  0.014937143           87 
  265000   0.84541172   -8.1796575    46.999446    0.0147797  0.014883105           94 
  266000   0.84990829   -8.1772043    47.061039  0.014743433  0.014829184          103 
  267000   0.85348203   -8.1709329    47.020415  0.014675535  0.014775645          117 
  268000   0.83445217   -8.1674719    47.062835  0.014633966  0.014722325          109 
  269000   0.82123609   -8.1753335    47.192535  0.014619744  0.014669178          132 
  270000   0.84572313   -8.1767952    47.188416  0.014564326  0.014616716          162 
  271000   0.83201505   -8.1598973    47.178036  0.014507391  0.014563985          133 
  272000    0.8292436   -8.1702157    47.090875  0.014427351  0.014510801          151 
  273000   0.83482461   -8.1908586    47.199929  0.014407793  0.014457707          180 
  274000   0.85119168   -8.1877525    47.206453  0.014357194  0.014404694          159 
  275000   0.84238416   -8.1952452    47.408937  0.014366345  0.014352163          188 
  276000   0.83394162   -8.2098121    47.303059  0.014282325  0.014299581          189 
  277000   0.82904961    -8.205662    47.346959  0.014243971  0.014247093          208 
  278000   0.81113652   -8.2325912    47.331802   0.01418819  0.014194763          215 
  279000   0.82703443    -8.252882      47.2417  0.014110424  0.014142455          206 
  280000   0.81768707   -8.2530514    47.410276  0.014110201  0.014090324          236 
  281000   0.82225477   -8.2653291    47.353743  0.014043221  0.014038412          236 
  282000   0.82129337   -8.2728232    47.405106  0.014008601  0.013986566          263 
  283000   0.82846419   -8.2481742    47.522129   0.01399356  0.013935134          270 
  284000    0.8165816   -8.3057729    47.289123  0.013875916  0.013883438          284 
  285000   0.82128004    -8.300456    47.370881  0.013851135   0.01383164          304 
  286000   0.82966923   -8.2838589    47.423712  0.013818098  0.013780134          308 
  287000   0.81224272   -8.3079872    47.525989  0.013799648  0.013728871          316 
  288000   0.81964803   -8.3151421     47.55581  0.013760362  0.013677817          318 
  289000    0.7938396   -8.3200334     47.51168  0.013700023  0.013626868          297 
  290000   0.80891133   -8.3506784    47.501239  0.013649781  0.013575923          344 
  291000   0.82042934    -8.322368    47.616291  0.013635822  0.013525613          345 
  292000   0.81183605   -8.3180451    47.583151  0.013579666  0.013475165          362 
  293000     0.805592    -8.322116    47.782892  0.013590129   0.01342548          379 
  294000   0.80823702   -8.3361215    47.677936  0.013514154  0.013375991          437 
  295000   0.79903726   -8.3890111    47.656104  0.013462176  0.013326491          431 
  296000   0.81194502    -8.358888     47.78122   0.01345192   0.01327674          408 
  297000   0.79570356   -8.3659107    47.767595  0.013402804  0.013227162          446 
  298000   0.78740181   -8.3529896    47.674877  0.013331901  0.013178095          429 
  299000   0.79950421   -8.3760322    47.642541    0.0132783  0.013128876          420 
  300000   0.80370859   -8.4057054    47.705636  0.013251566  0.013079595          490 
  301000   0.77862965   -8.3899423     47.73847  0.013216631   0.01303045          521 
  302000   0.79396547    -8.386936    47.782701  0.013185072  0.012981575          522 
  303000   0.78084125   -8.4247531    47.612617  0.013094779  0.012932557          517 
  304000   0.76757203   -8.3814184    47.747167  0.013088587  0.012883386          516 
  305000   0.78237606   -8.4013147    47.646653  0.013018211  0.012834485          571 
  306000   0.79128488   -8.4438312    47.579942    0.0129575  0.012785667          560 
  307000   0.76853263   -8.4170021    47.707689   0.01294997  0.012737106          614 
  308000   0.79316053   -8.4739763    47.659848  0.012894981  0.012688584          641 
  309000   0.76873509    -8.469148     47.70576  0.012865631  0.012640124          682 
  310000   0.76814318   -8.4819364    47.660245  0.012811894  0.012591639          685 
  311000   0.77770242   -8.4782453    47.590335  0.012751965   0.01254294          744 
  312000   0.78111281   -8.4725641      47.7147  0.012744311  0.012494298          707 
  313000    0.7759528   -8.5267362    47.579586  0.012667621  0.012446044          705 
  314000   0.75168096   -8.4978835    47.564041  0.012623153  0.012397936          788 
  315000   0.75601985   -8.5443449    47.494847  0.012564774   0.01234996          793 
  316000   0.77590273    -8.534338    47.505234  0.012527751  0.012302037          754 
  317000   0.75926755   -8.4945843    47.734634  0.012548537  0.012254392          774 
  318000   0.75422642   -8.5261787    47.588314  0.012470732  0.012207133          814 
  319000   0.74635364   -8.5371691    47.655918  0.012449299  0.012160369          772 
  320000    0.7633494   -8.5295731    47.788519  0.012444927  0.012113923          792 
  321000   0.75345904    -8.547113    47.714239  0.012386874  0.012067789          825 
  322000   0.73860726   -8.5550991    47.733745  0.012353454  0.012021571          819 
  323000   0.75728355   -8.5574763    47.638669  0.012290678  0.011975297          871 
  324000   0.75308948   -8.5672097    47.778432  0.012288691  0.011929168          847 
  325000   0.74426368   -8.5712335    47.781103  0.012251565  0.011883441          897 
  326000    0.7471939   -8.5848038    47.714034  0.012196839  0.011837672          925 
  327000   0.75085745   -8.6011354    47.773323  0.012174649  0.011792226          907 
  328000   0.74962746   -8.5902383    47.801443  0.012144675  0.011747228          953 
  329000   0.73018075   -8.6109856    47.650412  0.012069507  0.011702136          988 
  330000   0.72918265    -8.620156    47.754347  0.012059178  0.011656896          980 
  331000   0.73244592   -8.6051797    47.883156  0.012055175  0.011611883         1025 
  332000   0.73704156   -8.6322215    47.703998  0.011973895  0.011566967         1091 
  333000   0.73162843   -8.6382898    47.623682  0.011917838  0.011521932         1071 
  334000   0.72401232   -8.6458127    47.671149  0.011893999  0.011477119         1119 
  335000   0.73578201   -8.6293139    47.667429  0.011857569  0.011432393         1155 
  336000   0.72459196   -8.6545727     47.66082   0.01182064  0.011387816         1183 
  337000   0.72564499   -8.6718313    47.735747  0.011804092  0.011343428         1174 
  338000   0.72585765   -8.6809741    47.680413  0.011755526  0.011299151         1204 
  339000   0.72338033   -8.6717448    47.714684  0.011729273  0.011255187         1196 
  340000   0.72830202   -8.6747225    47.697851   0.01169065  0.011211418         1226 
  341000    0.7252024   -8.6700406    47.786047   0.01167792  0.011167763         1249 
  342000   0.71937362   -8.6640315    47.744462  0.011633641  0.011124475         1209 
  343000   0.71959503   -8.6953281    47.709004  0.011591109  0.011081261         1152 
  344000   0.73194589   -8.7148714    47.668651  0.011547638  0.011038132         1246 
  345000   0.71845575   -8.7084092    47.699594  0.011521641  0.010995098         1229 
  346000    0.7225423   -8.6821668    47.713613  0.011491718  0.010952269         1217 
  347000   0.70906839   -8.7114617    47.664801  0.011446878  0.010909707         1250 
  348000    0.7083919   -8.7092166    47.685741  0.011418999  0.010867254         1201 
  349000   0.71478444    -8.706232    47.711361  0.011392398  0.010825048         1237 
  350000    0.6981861   -8.7024816    47.615922  0.011337124  0.010782835         1262 
  351000   0.71016026   -8.7352396    47.670554  0.011317795  0.010740975         1274 
  352000   0.71678751   -8.7484648    47.686688  0.011289462  0.010699159         1317 
  353000   0.69820179   -8.7313849    47.611964   0.01123984  0.010657682         1345 
  354000   0.69421717   -8.7459671    47.654437  0.011218088  0.010616344         1334 
  355000   0.68857889   -8.7508121    47.712241  0.011200056  0.010575236         1371 
  356000   0.69043013   -8.7543348     47.71287  0.011168743  0.010534329         1419 
  357000   0.68961842   -8.7502965    47.629393  0.011117972  0.010493403         1399 
  358000   0.69622236   -8.7746142    47.659829  0.011094001  0.010452707         1415 
  359000   0.69569532   -8.7696596    47.624278  0.011054846  0.010412057         1442 
  360000   0.69260752   -8.7632098    47.551501  0.011007292  0.010371552         1511 
  361000   0.68020327   -8.8014615    47.715985   0.01101477  0.010331212         1483 
  362000   0.67830912   -8.7747376    47.700256  0.010980722  0.010290956         1498 
  363000   0.70816629   -8.8062944    47.611963  0.010930203  0.010251001         1456 
  364000   0.69750632   -8.7695016    47.703161  0.010921053  0.010211339         1506 
  365000   0.69201012    -8.820255    47.676248  0.010884988  0.010171874         1589 
  366000   0.68739866   -8.8012479    47.665635  0.010852831  0.010132615         1577 
  367000   0.69724042   -8.7952724    47.633299  0.010815917  0.010093495         1603 
  368000   0.68752201   -8.8630809    47.517834  0.010760379  0.010054453         1667 
  369000   0.69062924   -8.8411323    47.588306  0.010747133  0.010015465         1715 
  370000   0.67067183   -8.8413881    47.506647  0.010699695 0.0099765485         1682 
  371000   0.69575868   -8.8412105    47.501608  0.010669723  0.009937827         1778 
  372000   0.68993809   -8.8511135    47.531684  0.010647779 0.0098991629         1783 
  373000   0.66974479   -8.8860916    47.541537  0.010621434 0.0098606401         1904 
  374000   0.67483737   -8.8473551    47.485869   0.01058063 0.0098223055         1907 
  375000   0.66953766   -8.8519094    47.507008  0.010557113 0.0097842331         1843 
  376000   0.67432297    -8.884927    47.526037  0.010533253 0.0097463239         1936 
  377000   0.67137558   -8.8701894    47.575149  0.010516169 0.0097085765         1918 
  378000   0.66024921   -8.8828804    47.482158  0.010467848 0.0096709321         1947 
  379000   0.65989104   -8.8977101    47.484657  0.010440778 0.0096334863         1952 
  380000   0.65221096   -8.9056599    47.459219  0.010407723 0.0095962088         2055 
  381000   0.66838564   -8.9195711    47.478578  0.010384641 0.0095588947         2029 
  382000   0.65510264   -8.9204105    47.447101  0.010350589 0.0095218517         2041 
  383000   0.65944844   -8.9258698    47.488773  0.010332631 0.0094848931         2076 
  384000   0.65370797   -8.9230716     47.48645  0.010305219 0.0094481247         2088 
  385000   0.65590502    -8.923621    47.518615  0.010285414 0.0094115455         2103 
  386000   0.64419419   -8.9431808    47.392288  0.010231496 0.0093750304         2164 
  387000   0.65492842   -8.9338145    47.442863  0.010215948 0.0093386284         2144 
  388000   0.65004754    -8.956372    47.333829    0.0101662 0.0093023991         2268 
  389000   0.63448759   -8.9475338    47.446543  0.010164212 0.0092663916         2162 
  390000   0.63038296   -8.9633739    47.340043  0.010115394 0.0092304481         2230 
  391000   0.63630361   -8.9753474    47.417808  0.010106097 0.0091946229         2253 
  392000   0.64320926   -8.9772047    47.293477  0.010053885 0.0091589514         2294 
  393000   0.63366028   -8.9557873    47.264467  0.010022152 0.0091234008         2236 
  394000   0.63812832   -8.9799932    47.334695  0.010011568 0.0090879413         2277 
  395000   0.64150318   -8.9974489    47.266176 0.0099717672 0.0090526677         2301 
  396000   0.63819178   -9.0129533    47.327481 0.0099594868  0.009017585         2351 
  397000   0.63552902    -8.996269    47.355207 0.0099402197 0.0089827035         2389 
  398000   0.64507629    -8.998824    47.218283 0.0098865751 0.0089479576         2353 
  399000   0.63052944   -9.0232515    47.268146 0.0098722109 0.0089133841         2374 
  400000   0.63371271   -9.0108111    47.291213 0.0098523361  0.008878908         2378 
  401000   0.61754747   -9.0285085    47.241708 0.0098174788 0.0088445314         2424 
  402000   0.62433353   -9.0238245    47.285468 0.0098021285 0.0088103597         2428 
  403000   0.62622265    -9.032535    47.227425 0.0097658032  0.008776347         2500 
  404000   0.62207848   -9.0279877    47.282218 0.0097529327 0.0087425094         2438 
  405000   0.62398172   -9.0246171    47.256172 0.0097234921 0.0087087408         2503 
  406000   0.61564275   -9.0406193    47.194075  0.009686797 0.0086751431         2534 
  407000   0.62636923   -9.0584916    47.120603 0.0096479532 0.0086417708         2544 
  408000   0.61957253   -9.0549577    47.230737 0.0096468008 0.0086085073         2669 
  409000   0.61897779   -9.0505407    47.238303  0.009624756 0.0085753853         2624 
  410000   0.61013574   -9.0514714    47.266852 0.0096070837 0.0085424096         2641 
  411000   0.62824956   -9.0704974    47.166582 0.0095633783 0.0085095903         2615 
  412000   0.60826725   -9.0710202    47.199063 0.0095467361 0.0084768711         2627 
  413000   0.62737365   -9.0883383    47.162312 0.0095162051 0.0084443534         2669 
  414000   0.59814726   -9.0768642    47.119938 0.0094846896 0.0084119696         2557 
  415000   0.61202052   -9.1032678    47.173265 0.0094725431 0.0083797299         2583 
  416000   0.61612299   -9.0989299    47.116789 0.0094384594  0.008347636         2660 
  417000   0.60442105   -9.0904302    47.174874 0.0094274328 0.0083157258         2625 
  418000   0.59585969   -9.0932877    47.137397 0.0093974076 0.0082838683         2725 
  419000   0.60652785    -9.108096    47.115918 0.0093707076 0.0082521675         2658 
  420000   0.58597821   -9.1023642    47.154482 0.0093560481 0.0082206166         2722 
  421000   0.60213144   -9.1020646    47.137012 0.0093303665 0.0081892201         2706 
  422000   0.59611143   -9.1429912    47.052068 0.0092914826 0.0081579697         2720 
  423000   0.58387172   -9.1054513    47.019374 0.0092630761 0.0081268962         2775 
  424000     0.591459   -9.1542296    47.063438 0.0092498895 0.0080959572         2830 
  425000   0.58284663    -9.138422    46.966354  0.009209089 0.0080651203         2789 
  426000   0.58715616   -9.1431449    47.011994 0.0091963995 0.0080343997         2838 
  427000   0.57502107   -9.1339478    47.008493 0.0091741789 0.0080038029         2786 
  428000   0.57508819   -9.1581003    47.001283 0.0091513402 0.0079732906         2857 
  429000   0.58166842   -9.1279071    47.081826 0.0091456538 0.0079429618         2801 
  430000   0.58012573   -9.1143615    47.011952 0.0091108433 0.0079127358         2800 
  431000   0.57933482   -9.1536874    46.985729 0.0090846344 0.0078827125         2812 
  432000   0.56595133   -9.1378794     47.00771 0.0090678452 0.0078528142         2859 
  433000   0.56538898    -9.160154     46.89079 0.0090244014 0.0078230118         2899 
  434000   0.57232012    -9.172055    46.916808 0.0090086037 0.0077933457         2893 
  435000   0.57178546   -9.1786503    47.002625 0.0090043344 0.0077638426         2904 
  436000    0.5581152   -9.1640552    46.949664 0.0089735597 0.0077345002         2912 
  437000   0.57572708   -9.2008569    47.045475 0.0089712957 0.0077052666         2979 
  438000   0.55755936   -9.1677355    46.984263 0.0089391673 0.0076761844         2919 
  439000   0.56191518    -9.167067     46.94983 0.0089122684 0.0076472167         2914 
  440000   0.57472622   -9.1919367    46.937362  0.008889652 0.0076183781         2907 
  441000   0.56656721    -9.176839     46.97103 0.0088758559 0.0075897048         2843 
  442000      0.57132   -9.1762406    46.993946 0.0088600954 0.0075611974         2889 
  443000   0.56657095   -9.2034161    47.048187 0.0088502985 0.0075328149         2900 
  444000    0.5682676   -9.1784231    46.877717 0.0087983703 0.0075045678         2864 
  445000   0.56119613   -9.1962676    46.871549 0.0087774437 0.0074764636         2891 
  446000   0.55320743   -9.2025355    46.849779 0.0087536957 0.0074484947         2917 
  447000   0.56704799   -9.2140989    46.842687 0.0087327903 0.0074206526         2911 
  448000   0.54779644   -9.1953967    46.942806 0.0087319207 0.0073929194         2880 
  449000   0.54576504   -9.2033556    46.935256 0.0087110719 0.0073653082         2855 
  450000   0.54310308   -9.1880709    46.916083 0.0086881635  0.007337897         2917 
  451000   0.54007236    -9.222309    46.835014 0.0086539199 0.0073105538         2901 
  452000   0.54779738   -9.2116925      46.9002  0.008646792 0.0072833754         2889 
  453000   0.55836706   -9.2322134    46.876414 0.0086233285   0.00725629         2934 
  454000   0.54699222   -9.2243385    46.819025 0.0085938005 0.0072293673         2950 
  455000   0.55116921   -9.2196488    46.885133 0.0085870206  0.007202593         2933 
  456000   0.55249295   -9.2273104    46.876584 0.0085666272 0.0071759332         2930 
  457000   0.52686905   -9.2340158    46.807488 0.0085352823 0.0071494022         2939 
  458000   0.53772384   -9.2386687    46.771265 0.0085100555 0.0071229804         2940 
  459000   0.53976149   -9.2365089    46.854745 0.0085066712 0.0070967016         2942 
  460000   0.51959105    -9.241025     46.79259 0.0084769185 0.0070705675         2889 
  461000   0.52814522   -9.2322789    46.773338 0.0084550502 0.0070445719         2941 
  462000   0.53982923   -9.2426231    46.804956 0.0084424523 0.0070186397         2968 
  463000   0.53522395   -9.2428447      46.8485 0.0084320554 0.0069928616         2923 
  464000   0.52366291   -9.2430426    46.857352 0.0084154727 0.0069672058         2965 
  465000   0.52270454   -9.2457179    46.804912  0.008387977 0.0069416751         2982 
  466000   0.53163261   -9.2488028    46.834845 0.0083753299 0.0069162273         2952 
  467000   0.52724078   -9.2700306     46.81345 0.0083535778 0.0068908966         2964 
  468000    0.5249297   -9.2600115    46.828491 0.0083384066 0.0068657411         2950 
  469000   0.51654514   -9.2389553    46.820054 0.0083191284 0.0068406434         2933 
  470000   0.51487507   -9.2572063    46.805645 0.0082988733 0.0068156597         2970 
  471000   0.50743045   -9.2600016    46.740774  0.008269776 0.0067908101         2958 
  472000    0.5167734     -9.25475    46.824492 0.0082670359 0.0067661116         3000 
  473000   0.51322809   -9.2619938    46.843531 0.0082529123 0.0067415157         2990 
  474000   0.50830608   -9.2660368    46.727027 0.0082150188 0.0067170427         2982 
  475000   0.51528581   -9.2681647    46.792669 0.0082092402 0.0066927184         3015 
  476000   0.51480987   -9.2837591    46.728396 0.0081807415  0.006668461         2999 
  477000   0.50756116   -9.3026144    46.692867 0.0081573842  0.006644315         3041 
  478000   0.50869587    -9.278786    46.741927 0.0081488715 0.0066202849         3037 
  479000   0.49397362   -9.2900551    46.834161 0.0081479055 0.0065964167         3001 
  480000   0.50276995     -9.29646    46.720136 0.0081111347 0.0065726315         3015 
  481000   0.49713409   -9.2918373    46.784742 0.0081054646 0.0065489658         3037 
  482000    0.5057727   -9.3087951    46.714281 0.0080764662 0.0065254097         3030 
  483000   0.49093768    -9.287053    46.716795 0.0080601786  0.006501945         3019 
  484000   0.49433708   -9.2924968    46.703356 0.0080412114 0.0064786084         3020 
  485000   0.49353288   -9.3226189    46.742068 0.0080312831  0.006455397         3089 
  486000    0.4893852    -9.297816    46.748402  0.008015844 0.0064322867         2992 
  487000   0.48933823   -9.2997371    46.728372 0.0079959569 0.0064092757         3045 
  488000   0.48051313   -9.3027258     46.73702 0.0079810484  0.006386363         3049 
  489000   0.47284719   -9.3218338    46.647616 0.0079494915 0.0063635527         3062 
  490000   0.49068773   -9.3083878    46.676763 0.0079382251  0.006340844         3046 
  491000   0.49038854    -9.312012    46.692984 0.0079248105 0.0063182774         3088 
  492000   0.48407587   -9.3182734    46.673141 0.0079053424  0.006295807         3049 
  493000   0.48229204   -9.3178077    46.593649 0.0078758704 0.0062734566         3080 
  494000   0.48677766   -9.3287452    46.661371 0.0078713514 0.0062511953         3068 
  495000   0.47129171   -9.3290512    46.630749 0.0078502945 0.0062290106         2990 
  496000   0.48397484   -9.3332245    46.605805 0.0078302764 0.0062069196         3132 
  497000    0.4825894   -9.3447899     46.66618 0.0078246445 0.0061849482         3057 
  498000   0.46880804   -9.3430496    46.598992 0.0077976895 0.0061630465         3073 
  499000   0.46329171   -9.3474879    46.631512 0.0077874936 0.0061412948         3087 
  500000   0.47711477   -9.3475209    46.623322 0.0077705537  0.006119636         3093 
  501000   0.46957715   -9.3513746    46.560765 0.0077446382 0.0060980713         3128 
  502000   0.47046122   -9.3458759    46.582052 0.0077327443 0.0060765975         3092 
  503000   0.47281862    -9.364333    46.585133 0.0077178815 0.0060552368         3050 
  504000   0.45901184   -9.3628116    46.523317 0.0076923474 0.0060339917         3004 
  505000   0.46380755    -9.345517    46.679605 0.0077029051 0.0060128346         3048 
  506000    0.4585619   -9.3389049    46.577225 0.0076708209 0.0059917951         3064 
  507000    0.4623708   -9.3471362    46.599244 0.0076593103 0.0059708428         3080 
  508000   0.45976217   -9.3465999    46.659554 0.0076541262 0.0059499643         3096 
  509000   0.46051854    -9.368706    46.648133 0.0076372189 0.0059292169         3090 
  510000   0.45917739   -9.3503851    46.665496 0.0076250811 0.0059085442         3123 
  511000   0.43983098   -9.3970853    46.607241  0.007600659 0.0058879598         3125 
  512000   0.45443279    -9.365346    46.607225 0.0075858114 0.0058674676         3106 
Loop time of 1304.43 on 48 procs for 500000 steps with 4000 atoms

Performance: 66235.630 tau/day, 383.308 timesteps/s
99.4% CPU use with 48 MPI tasks x no OpenMP threads

MPI task timing breakdown:
Section |  min time  |  avg time  |  max time  |%varavg| %total
---------------------------------------------------------------
Pair    | 93.643     | 99.138     | 107.21     |  36.5 |  7.60
Neigh   | 8.9404     | 9.2488     | 9.7982     |   7.9 |  0.71
Comm    | 81.591     | 92.388     | 99.311     |  44.9 |  7.08
Output  | 1.2107     | 1.2129     | 1.2964     |   1.1 |  0.09
Modify  | 1082.5     | 1088.9     | 1096       |   9.4 | 83.48
Other   |            | 13.52      |            |       |  1.04

Nlocal:        83.3333 ave          90 max          75 min
Histogram: 1 1 2 2 13 7 11 1 8 2
Nghost:        2385.27 ave        2407 max        2365 min
Histogram: 3 2 4 5 13 8 5 2 4 2
Neighs:        16357.9 ave       19051 max       13307 min
Histogram: 1 1 7 6 5 7 12 3 4 2
FullNghs:      32716.3 ave       36042 max       29074 min
Histogram: 2 1 2 7 11 11 3 7 2 2

Total # of neighbors = 1570381
Ave neighs/atom = 392.59525
Neighbor list builds = 26616
Dangerous builds = 0

#clear
#
#next RN
#
#jump SELF
Total wall time: 0:21:48
