
units lj                  # Use reduced LJ style units
atom_style atomic         # Uncharged point particles
atom_modify map hash      # Needed for indexing of clusters etc
                          # Used to be able to find where atoms are in relation to each other.

lattice fcc 1.0 spacing 1 1 1
Lattice spacing in x,y,z = 1.5874011 1.5874011 1.5874011
region box block 0 10 0 10 0 10 units lattice
create_box 2 box
Created orthogonal box = (0.0000000 0.0000000 0.0000000) to (15.874011 15.874011 15.874011)
  3 by 4 by 4 MPI processor grid
create_atoms 1 box
Created 4000 atoms
  using lattice units in orthogonal box = (0.0000000 0.0000000 0.0000000) to (15.874011 15.874011 15.874011)
  create_atoms CPU = 0.003 seconds
set type 1 type/fraction 2 0.67 78393
Setting atom values ...
  2693 settings made for type/fraction
mass 1 1.0
mass 2 1.0
pair_style lj/cut  3.5
pair_modify tail  yes
pair_coeff 1  1  1.0  1.0   # Intearaction between 1 and 1 set with epsilon = 1 and sigma = 1
pair_coeff 1  2  1.5  0.8
pair_coeff 2  2  0.5  0.88

write_data data.0
System init for write_data ...
Neighbor list info ...
  update every 1 steps, delay 10 steps, check yes
  max neighbors/atom: 2000, page size: 100000
  master list distance cutoff = 3.8
  ghost atom cutoff = 3.8
  binsize = 1.9, bins = 9 9 9
  1 neighbor lists, perpetual/occasional/extra = 1 0 0
  (1) pair lj/cut, perpetual
      attributes: half, newton on
      pair build: half/bin/atomonly/newton
      stencil: half/bin/3d
      bin: standard
WARNING: Not all mixed pair coeffs generated from mixing. Use write_data with 'pair ij' option to store all pair coeffs. (../write_data.cpp:312)


#############################
#   M E L T   S Y S T E M   #
#############################

velocity all create 2.4 3143649 mom yes dist gaussian # Assign velocities
                                                    # Temperature 2.4, random number seed, zero linear momentum
                                                                                # Gaussian distribution

timestep 0.002   # simulation timestep
thermo 1000       # output thermodynamic data every 1000 steps bf 100

# Define a fix  in this case with index 1 applied to all
# particles in the simulation. This fix is for simulations
# in the anisotropic NPT ensemble. Note that we use the MTK
# correction.
fix 1 all npt temp 2.4 2.4 0.1 iso 5.68 5.68 0.5 mtk yes tchain 5 pchain 5 # Use NPT ensemble
                                                                         # Set temperature and pressure and damping
                                                                         # Numbers of thermostats in chain and in barostat
run 10000          # run for 10000 steps
Per MPI rank memory allocation (min/avg/max) = 3.642 | 3.644 | 3.648 Mbytes
Step Temp E_pair E_mol TotEng Press Volume 
       0          2.4   -4.3445498            0  -0.74544977   -3.8717164         4000 
    1000    2.4548978   -4.0149826            0  -0.33355647    5.7380742    3642.9905 
    2000    2.3622866   -4.0510375            0  -0.50849355    5.5436584    3615.9524 
    3000    2.4474121   -4.0104899            0  -0.34028951    5.5720116      3655.25 
    4000    2.3976219   -3.9467353            0  -0.35120153    6.1380181    3633.6211 
    5000     2.435018   -4.0292918            0  -0.37767795    5.7743197    3615.3926 
    6000    2.4027678   -4.0785444            0  -0.47529367    5.7850339    3590.6746 
    7000    2.3900558   -4.0229729            0  -0.43878545    5.4447189    3659.0792 
    8000    2.4515387   -4.0396069            0  -0.36321816    5.9351608    3608.8334 
    9000    2.3764266   -4.0273726            0  -0.46362377    5.5246869    3648.7746 
   10000    2.3853322   -4.0017887            0  -0.42468491    5.8334021    3628.8855 
Loop time of 2.67022 on 48 procs for 10000 steps with 4000 atoms

Performance: 647136.948 tau/day, 3745.005 timesteps/s
99.6% CPU use with 48 MPI tasks x no OpenMP threads

MPI task timing breakdown:
Section |  min time  |  avg time  |  max time  |%varavg| %total
---------------------------------------------------------------
Pair    | 1.2138     | 1.2773     | 1.4158     |   3.2 | 47.84
Neigh   | 0.21716    | 0.22557    | 0.24344    |   1.1 |  8.45
Comm    | 0.77941    | 0.8968     | 0.98014    |   4.7 | 33.59
Output  | 0.00027048 | 0.00027542 | 0.00034589 |   0.0 |  0.01
Modify  | 0.21013    | 0.25456    | 0.29794    |   5.5 |  9.53
Other   |            | 0.01568    |            |       |  0.59

Nlocal:        83.3333 ave          94 max          68 min
Histogram: 1 0 2 3 0 19 13 5 3 2
Nghost:        1753.27 ave        1783 max        1731 min
Histogram: 4 5 6 8 5 9 5 3 2 1
Neighs:        10517.0 ave       11964 max        8249 min
Histogram: 1 0 4 0 4 10 18 6 2 3

Total # of neighbors = 504818
Ave neighs/atom = 126.20450
Neighbor list builds = 908
Dangerous builds = 216

# Equilibrate just above the melting temperature to avoid step fn in T

fix 1 all npt temp 1.25 1.25 0.1 iso 5.68 5.68 0.5 mtk yes tchain 5 pchain 5
run 2000
Per MPI rank memory allocation (min/avg/max) = 3.644 | 3.646 | 3.650 Mbytes
Step Temp E_pair E_mol TotEng Press Volume 
   10000    2.3853322   -4.0017887            0  -0.42468491    5.8334021    3628.8855 
   11000    1.2369641   -5.9052715            0   -4.0502892    5.9524883    2766.4868 
   12000     1.255277   -5.9641435            0   -4.0816987    5.7431214    2766.4005 
Loop time of 0.660437 on 48 procs for 2000 steps with 4000 atoms

Performance: 523289.726 tau/day, 3028.297 timesteps/s
99.6% CPU use with 48 MPI tasks x no OpenMP threads

MPI task timing breakdown:
Section |  min time  |  avg time  |  max time  |%varavg| %total
---------------------------------------------------------------
Pair    | 0.29532    | 0.32761    | 0.36047    |   2.1 | 49.61
Neigh   | 0.04144    | 0.0442     | 0.046829   |   0.5 |  6.69
Comm    | 0.20185    | 0.237      | 0.27685    |   2.8 | 35.89
Output  | 5.4199e-05 | 5.5668e-05 | 7.1055e-05 |   0.0 |  0.01
Modify  | 0.041381   | 0.046573   | 0.0511     |   1.3 |  7.05
Other   |            | 0.004998   |            |       |  0.76

Nlocal:        83.3333 ave          92 max          75 min
Histogram: 1 4 6 4 9 9 7 5 2 1
Nghost:        2101.96 ave        2122 max        2082 min
Histogram: 1 3 3 11 8 6 7 2 4 3
Neighs:        13801.8 ave       15465 max       12190 min
Histogram: 2 1 5 9 9 9 2 6 3 2

Total # of neighbors = 662487
Ave neighs/atom = 165.62175
Neighbor list builds = 143
Dangerous builds = 7

#############################
# L I N E A R  Q U E N C H  #
#############################

# Define solid atoms. This closely follows ten Wolde  Ruiz-Montero and Frenkel  Faraday Discuss  1996  104  93-110
# Compute components of the per-atom q6 vector
compute q6 all orientorder/atom degrees 1 6 components 6 nnn NULL cutoff 1.3 # compute the Q6 parameter.
                                                                             # Use all neighbours within 1.3 unit cell.

# get number of connections
compute coord_number all coord/atom orientorder q6 0.5

# An atom is solid if it has 8 or more connections (of a possible 14)
variable is_solid atom c_coord_number>=8
group solid dynamic all var is_solid    # Must be dynamic to update
dynamic group solid defined

# do clustering
compute cluster solid cluster/atom 1.3 # Create a cluster where all atoms within are solid and max 1.3 units from another member

# define chunks one chunk per cluster
compute clus_chunks solid chunk/atom c_cluster nchunk every compress yes  # Says which atoms are in which chunk

# count the size of each chunk
compute size_chunks solid property/chunk clus_chunks count


# Find the maximum entry in the vector of chunk sizes
variable max_n equal max(c_size_chunks)


# Thermo style which includes this variable
# thermo_style custom step temp pe vol v_max_n

thermo ${N}  # Print the thermo information every 100 steps
thermo 1000  

# Reset the npt fix at a lower temperature (below freezing)
fix 1  all npt temp  ${temp} ${temp}  0.1  iso  5.68  5.68  0.5  mtk yes tchain  5  pchain  5
fix 1  all npt temp  0.45 ${temp}  0.1  iso  5.68  5.68  0.5  mtk yes tchain  5  pchain  5
fix 1  all npt temp  0.45 0.45  0.1  iso  5.68  5.68  0.5  mtk yes tchain  5  pchain  5

dump dmp2 all dcd ${N} traj.dcd
dump dmp2 all dcd 1000 traj.dcd


compute msd all msd com yes
variable twopoint equal c_msd[4]/6/(step*dt+1.0e-6)
fix 9 all vector 10 c_msd[4]
variable fit equal slope(f_9)/6/(10*dt)
thermo_style custom step temp pe c_msd[4] v_twopoint v_fit v_max_n

fix 1 all npt temp 1.25 ${temp} 0.1 iso 5.68 5.68 0.5 mtk yes tchain 5 pchain 5
fix 1 all npt temp 1.25 0.45 0.1 iso 5.68 5.68 0.5 mtk yes tchain 5 pchain 5
run 500000 # 5000000  # Run for this many steps
Neighbor list info ...
  update every 1 steps, delay 10 steps, check yes
  max neighbors/atom: 2000, page size: 100000
  master list distance cutoff = 3.8
  ghost atom cutoff = 3.8
  binsize = 1.9, bins = 8 8 8
  4 neighbor lists, perpetual/occasional/extra = 1 3 0
  (1) pair lj/cut, perpetual
      attributes: half, newton on
      pair build: half/bin/atomonly/newton
      stencil: half/bin/3d
      bin: standard
  (2) compute orientorder/atom, occasional
      attributes: full, newton on
      pair build: full/bin/atomonly
      stencil: full/bin/3d
      bin: standard
  (3) compute coord/atom, occasional
      attributes: full, newton on
      pair build: full/bin/atomonly
      stencil: full/bin/3d
      bin: standard
  (4) compute cluster/atom, occasional
      attributes: full, newton on
      pair build: full/bin/atomonly
      stencil: full/bin/3d
      bin: standard
Per MPI rank memory allocation (min/avg/max) = 9.843 | 9.851 | 9.855 Mbytes
Step Temp PotEng c_msd[4] v_twopoint v_fit v_max_n 
   12000     1.255277   -5.9641435 1.0562848e-30 7.3353105e-33 8.3333333e+20            3 
   13000    1.2877806    -5.980559   0.57266882 0.0036709538  0.048059032            4 
   14000    1.2305116   -5.9703263    1.1260747 0.0067028255  0.047031582            4 
   15000    1.2637137   -6.0069494    1.6660076 0.0092555975  0.045753355            2 
   16000     1.262558   -6.0202661    2.1819287  0.011364211  0.045249623            1 
   17000    1.2540639   -6.0023793    2.7863202  0.013658432  0.045434373            5 
   18000    1.2057321   -6.0289503    3.2414309  0.015006624  0.045248521            1 
   19000    1.2359047   -6.0158594    3.8350892  0.016820566  0.045057189            2 
   20000    1.2255191   -6.0057685    4.3625757  0.018177398   0.04504131            2 
   21000    1.2259747   -6.0458799    4.9101897  0.019484879  0.045001682            1 
   22000     1.225654   -6.0113427    5.4622372  0.020690292   0.04516814            1 
   23000    1.1902154     -6.05555    5.8756609  0.021288626  0.044931066            2 
   24000    1.2374523   -6.0390059    6.3639021  0.022096882  0.044481914            2 
   25000    1.2356419   -6.0184873    6.9192959  0.023064319  0.044175749            3 
   26000    1.2007636   -6.0357843    7.4372731  0.023837413  0.044011106            2 
   27000     1.208987   -6.0405579     7.957535  0.024560293  0.043887758            2 
   28000    1.2464326   -6.0679671     8.400213  0.025000634  0.043769379            3 
   29000    1.2324194   -6.0638012    8.8798291   0.02551675  0.043567597            1 
   30000     1.259354   -6.0194191    9.5034127  0.026398368  0.043409886            1 
   31000    1.2219208   -6.0856715    9.9777913  0.026822019  0.043367234            3 
   32000    1.2325491   -6.0315623    10.560167  0.027500434   0.04336485            5 
   33000    1.2349987   -6.0311087    11.082256  0.027985495  0.043357706            3 
   34000    1.2345447   -6.0798461    11.506852  0.028203068  0.043339813            2 
   35000    1.2115484   -6.0978136    11.961385  0.028479488  0.043224115            2 
   36000    1.2030114   -6.0732475    12.421674  0.028753875  0.043140951            4 
   37000     1.177838   -6.1008625     12.94312  0.029151171  0.043037372           11 
   38000    1.2098551   -6.0810971    13.394335  0.029373541  0.042928132            2 
   39000    1.1828459   -6.0854515     13.84799  0.029589722   0.04276134            4 
   40000    1.1856482   -6.0761648    14.299277  0.029790161  0.042612185            5 
   41000    1.2265672   -6.0523636    14.859522   0.03020228  0.042470715            2 
   42000    1.1842532   -6.1155486    15.252954  0.030263797  0.042362466            1 
   43000    1.1979511   -6.1279236    15.640838  0.030311701  0.042232197            1 
   44000    1.1893547   -6.1304935    16.116583  0.030523831  0.042087712            2 
   45000    1.2201068   -6.1299778    16.583281  0.030709779  0.041924629            2 
   46000    1.2036924   -6.1657586    17.063932  0.030912921  0.041797048            3 
   47000    1.2081039   -6.1178474     17.68055  0.031348493  0.041702872            2 
   48000    1.1770474   -6.1296651    18.059865  0.031353931   0.04162154            2 
   49000    1.1770661   -6.1424454    18.367922  0.031237963  0.041511617            1 
   50000    1.2054323   -6.1084025     18.62852  0.031047532  0.041330909            2 
   51000    1.1704918   -6.1168117     19.07539  0.031168938  0.041128126            1 
   52000    1.1920836   -6.1104185    19.716989  0.031597738  0.040974404            2 
   53000    1.2001164   -6.1597907    20.063451  0.031546306  0.040846688            6 
   54000    1.1839095   -6.1616261    20.385173    0.0314586  0.040701116            2 
   55000    1.1888094   -6.1679568     20.99634  0.031812636  0.040566536            3 
   56000    1.1891856   -6.1473501    21.465453  0.031942638  0.040451438            3 
   57000    1.1945942   -6.1691957    21.909875  0.032031981  0.040361594            4 
   58000    1.1920236   -6.1562373    22.355348  0.032119753   0.04026648            3 
   59000    1.1729253   -6.1358774     22.80941   0.03221668  0.040175609            2 
   60000    1.1753953   -6.1916136    23.064139  0.032033526  0.040059425            3 
   61000    1.1580104   -6.1387446    23.580728  0.032214109  0.039934516            2 
   62000    1.1821776   -6.1499486    23.897142  0.032119814   0.03980627            5 
   63000    1.1707375   -6.1749205    24.189373  0.031996524  0.039668452            3 
   64000    1.1649055   -6.1758943    24.688988   0.03214712  0.039534923            5 
   65000    1.1748691   -6.1815659    25.164632  0.032262348  0.039416041            3 
   66000    1.1606973   -6.1797077     25.47423  0.032164432  0.039308121            3 
   67000    1.1717673   -6.1813309    25.838406   0.03213732  0.039184419            2 
   68000    1.1868167   -6.1912553     26.12671  0.032018027  0.039043217            1 
   69000     1.149209   -6.2398747    26.544571  0.032058661  0.038906718            2 
   70000    1.1635006   -6.1977839    26.980266  0.032119364  0.038777687            4 
   71000    1.1139235   -6.1841737    27.464518   0.03223535  0.038655429            8 
   72000     1.138438    -6.220269    27.780736  0.032153629  0.038525396            2 
   73000    1.1670023      -6.1919      28.3791  0.032396232  0.038412414            2 
   74000    1.1725564   -6.2062908    28.596802  0.032203606    0.0382963            2 
   75000    1.1353809    -6.229186     29.11653    0.0323517  0.038179763            1 
   76000    1.1534805   -6.2285561    29.570624  0.032423929  0.038079525            2 
   77000    1.1435493   -6.2628266    29.780179  0.032229631  0.037973516            4 
   78000    1.1797961   -6.1858471    30.266722  0.032336242  0.037870727            2 
   79000    1.1514449   -6.2906081    30.324161  0.031987511  0.037758991            3 
   80000    1.1566152   -6.2191876    30.744255  0.032025265  0.037648021            5 
   81000    1.1365962   -6.2263808    31.081664  0.031977021  0.037539169            3 
   82000    1.1537275   -6.2043207    31.551463  0.032064495  0.037431389            3 
   83000    1.1111463   -6.2852956    31.658732  0.031785875  0.037310448            4 
   84000    1.1533442   -6.2289139    32.236712  0.031980865  0.037194668            3 
   85000    1.1202066    -6.272185    32.629753  0.031989954  0.037088785            3 
   86000    1.1204456   -6.2661907    32.819562  0.031801901   0.03698103            2 
   87000    1.1289285   -6.2876178    33.552818  0.032138714  0.036880165            3 
   88000     1.137752   -6.2579227    33.883731  0.032086867   0.03678817            3 
   89000    1.1242651   -6.2614891    34.116672  0.031944449  0.036687807            3 
   90000    1.1320554   -6.2394301    34.408992  0.031860178  0.036582391            1 
   91000    1.1677284    -6.328335    34.694991  0.031771969  0.036477626            4 
   92000    1.1215557   -6.3133586    35.088071  0.031782673  0.036371197            2 
   93000    1.1419813   -6.2858605    35.543693  0.031849187  0.036274254            5 
   94000    1.1185066   -6.3198216    35.777743  0.031717857  0.036170276            5 
   95000    1.1255676   -6.3214566    35.964383  0.031547704  0.036062006            4 
   96000    1.1264548   -6.2914313    36.439479  0.031631492  0.035952497            1 
   97000    1.1052191   -6.3216385    36.727375  0.031552727  0.035843888            3 
   98000    1.1055097   -6.3100081    37.003241  0.031465341  0.035738988            4 
   99000    1.1035389   -6.3020676    37.638309  0.031682078  0.035637023            3 
  100000    1.1257201   -6.2533329    37.887217   0.03157268  0.035541201            5 
  101000    1.1037749   -6.3691919    38.066976  0.031408396  0.035443579            4 
  102000    1.1150987   -6.3519123    38.246644  0.031247258  0.035339843            3 
  103000    1.1300223   -6.3218364    38.751021  0.031351959    0.0352357            3 
  104000    1.0929738   -6.3295843    39.122219  0.031347932  0.035137201            3 
  105000    1.1378008   -6.3560413    39.318907  0.031205481  0.035037071            3 
  106000    1.0810752   -6.3613055    39.632138  0.031157341  0.034935319            2 
  107000    1.1062656   -6.3583213    40.226227  0.031328837  0.034837763            5 
  108000     1.085334    -6.381939    40.244708  0.031053015  0.034744375            2 
  109000    1.0733489   -6.3249384    40.919475  0.031284002  0.034651452            3 
  110000    1.0953559   -6.3849634    41.039258  0.031090347  0.034565015            4 
  111000    1.0779757   -6.3650729    41.567772  0.031207036  0.034477785            2 
  112000    1.0913235   -6.4045195    41.741048  0.031057327  0.034391503            3 
  113000    1.0979017    -6.391059    42.066042  0.031022155  0.034306843            8 
  114000    1.1012518   -6.4365259    42.353757  0.030960348  0.034224184            4 
  115000    1.1117984   -6.3745365    42.799762   0.03101432   0.03414378            4 
  116000    1.0870466   -6.3749304    43.209847  0.031041557  0.034066706            2 
  117000    1.0919286   -6.3924747    43.448701  0.030946368  0.033989954            2 
  118000    1.0778347   -6.3771237    44.058471  0.031114739  0.033916389            8 
  119000    1.0552596   -6.4093279    44.131499  0.030904411  0.033841402            3 
  120000    1.0935721   -6.4315296    44.449555  0.030867746  0.033767617            4 
  121000    1.0762149   -6.4215508    44.721651  0.030800035  0.033690297            3 
  122000    1.0620119     -6.41696    44.953687   0.03070607  0.033607448            5 
  123000    1.0707479    -6.439906    45.135122  0.030579351  0.033523873            6 
  124000    1.0808745   -6.4428431    45.325799  0.030460886  0.033438342            5 
  125000     1.054982    -6.437663    45.607185   0.03040479  0.033347947            7 
  126000    1.0685931   -6.3884052    46.066468  0.030467241  0.033258845            5 
  127000    1.0766281   -6.3968098    46.416916  0.030457294  0.033172506            5 
  128000    1.0593876   -6.4257458    46.532079  0.030294322   0.03308647            3 
  129000    1.0736765   -6.4162625    46.975034  0.030345629  0.033003794            5 
  130000    1.0549374   -6.4203708    47.310159  0.030327025  0.032926474            3 
  131000     1.047421   -6.4593072    47.662737  0.030319807  0.032849938            5 
  132000    1.0757828   -6.4430522    47.742785  0.030140647  0.032769093            2 
  133000    1.0628673   -6.4300749    47.815974  0.029959883  0.032685021            3 
  134000    1.0556645   -6.4680698    48.167867  0.029955141   0.03259821            4 
  135000    1.0482284   -6.4692696    48.599565  0.029999731   0.03251514            3 
  136000    1.0266186   -6.4471611    48.954308  0.029996512  0.032432111            6 
  137000    1.0429126   -6.4539411    49.137417   0.02988894  0.032352366            3 
  138000    1.0317467   -6.4649602    49.343815   0.02979699  0.032272914            2 
  139000    1.0468467   -6.4707083    49.620107  0.029748265  0.032188917            4 
  140000    1.0280226   -6.4468843    49.911147  0.029709016  0.032105319            6 
  141000    1.0433658   -6.5103354    50.382545  0.029776918  0.032024275            5 
  142000    1.0537818   -6.5002186    50.318138  0.029529423  0.031944539            2 
  143000    1.0368413    -6.463307     50.91154  0.029668729   0.03186774            5 
  144000    1.0466892   -6.4888381    51.148753  0.029599973  0.031789574            5 
  145000    1.0400273   -6.4906255    51.446774  0.029567112  0.031714128            2 
  146000    1.0259946   -6.4812611    51.848006  0.029593611  0.031640009            3 
  147000    1.0156467   -6.4969782    51.904758  0.029424466  0.031566571            3 
  148000    1.0251227    -6.442844    52.467328  0.029542414  0.031494213            4 
  149000    1.0243149   -6.4879869    52.643346  0.029442587  0.031421332            5 
  150000    1.0283914   -6.5112593    52.796807  0.029331559  0.031345464            4 
  151000    1.0226114   -6.4921674    53.005921  0.029252716  0.031270398            2 
  152000    1.0383835    -6.515378    53.124348  0.029125191  0.031194536            4 
  153000    1.0214292   -6.5248551    53.364024  0.029065372  0.031118551            4 
  154000    1.0064267   -6.5359737    53.765037  0.029093634  0.031042188            4 
  155000     1.028142   -6.5529556    53.832347  0.028942122  0.030964809            3 
  156000    1.0169081   -6.5313197    54.004656  0.028848641  0.030883024            3 
  157000     1.025852   -6.5752602    54.078088  0.028703868  0.030802663            3 
  158000    1.0282527   -6.5660073    54.212055  0.028592856   0.03071971            3 
  159000     1.009298   -6.5546106    54.657128  0.028646293  0.030636474            5 
  160000    1.0133993   -6.5845828    54.783152  0.028532892  0.030555017            4 
  161000   0.98807174   -6.5412555    55.132761  0.028536626  0.030474669            2 
  162000    1.0147154   -6.5709852    55.407858  0.028501985  0.030394885            6 
  163000   0.98126982   -6.5868567    55.512893  0.028380824   0.03031311            8 
  164000    1.0183897   -6.5757613    55.681765   0.02829358  0.030231784            2 
  165000    1.0040081   -6.5997663    56.067288  0.028316812  0.030153045            4 
  166000    1.0092091   -6.5848586    56.101026  0.028163166  0.030073227            5 
  167000    1.0306402    -6.627406     56.34169  0.028114616   0.02999511            5 
  168000    0.9967802   -6.6044947    56.709982  0.028129951  0.029916207            5 
  169000    1.0114805   -6.5671781    57.116587  0.028163998  0.029840043            3 
  170000   0.98933226   -6.6021869     57.44716  0.028160372  0.029763406            3 
  171000     1.000336   -6.5981917    57.445399  0.027994834   0.02968985            2 
  172000   0.98306502   -6.6133373    57.823696  0.028015357  0.029615913            4 
  173000   0.96779279   -6.5875756    58.137571   0.02800461  0.029544969           10 
  174000   0.99430446   -6.6300477    57.941915  0.027749959  0.029472968            4 
  175000   0.99358315   -6.6697404    58.157617  0.027694103  0.029397605            9 
  176000    1.0105334   -6.6060719    58.796759  0.027839374  0.029325966            9 
  177000   0.97990746    -6.620923    59.251597  0.027896232  0.029256995            5 
  178000   0.98939844   -6.6875579    59.361679  0.027791048  0.029188401            5 
  179000   0.98146175   -6.6405484    59.429817  0.027667513  0.029117258           16 
  180000   0.98724892   -6.6612042    59.620041  0.027601871  0.029045401            5 
  181000   0.99168965   -6.6814807    59.824435  0.027543478  0.028972964            4 
  182000   0.97681189   -6.6284893    60.070708  0.027504903  0.028903243            2 
  183000   0.98429812   -6.6293847    60.367989  0.027489977  0.028832984            7 
  184000    0.9543515   -6.6596835    60.452934  0.027379046  0.028763243            5 
  185000   0.98885399   -6.6823865    60.531864  0.027266606  0.028691468           10 
  186000   0.97600515   -6.6659651    60.550947  0.027128561  0.028616111            4 
  187000   0.98331669   -6.6825004    60.701255   0.02705047  0.028540839            7 
  188000   0.97384931   -6.6660907    60.845866  0.026970685   0.02846537           13 
  189000    0.9495705   -6.6753948    60.963589  0.026879889  0.028388549            5 
  190000   0.95492447   -6.7032756     61.20749   0.02684539  0.028312072            7 
  191000   0.96490868   -6.7277967    61.468034  0.026818514  0.028236539            5 
  192000   0.96792315   -6.6803367    61.509552  0.026696854  0.028158839            3 
  193000   0.96926266   -6.7177308    61.789256  0.026679299  0.028082472            6 
  194000   0.95720224   -6.7115393    62.032787  0.026646386  0.028007611            5 
  195000   0.94120095   -6.7163801    62.190356  0.026577075  0.027931829            4 
  196000   0.95868589   -6.7049563    62.278819   0.02647909  0.027856546            5 
  197000   0.95129387   -6.7167271    62.580112  0.026472129  0.027781447            2 
  198000   0.96277951     -6.69074    62.697969  0.026388034  0.027707122            7 
  199000   0.94660616   -6.7493353    62.982269  0.026374485  0.027634448            4 
  200000   0.95004488   -6.7253467    63.092634  0.026288597  0.027560173            5 
  201000   0.94386774   -6.7192585    63.091876  0.026157494    0.0274832            8 
  202000   0.95826719   -6.7096969    63.366856  0.026141442  0.027407434            5 
  203000    0.9400126   -6.7175238    63.385342  0.026020255  0.027332219            9 
  204000   0.93970641   -6.7493399    63.592252  0.025977227  0.027256586            6 
  205000   0.92961334   -6.7214176     63.70965  0.025898232  0.027180284            6 
  206000   0.92298098   -6.7719308    63.495677  0.025685954  0.027102394            6 
  207000   0.92325988   -6.7821641    63.607213  0.025606769  0.027022288            4 
  208000    0.9409085   -6.7703292     63.93119  0.025613458  0.026942351            6 
  209000    0.9365215   -6.7562756    64.056252   0.02554077  0.026862381            6 
  210000   0.92958875   -6.7702511    63.944128  0.025374654  0.026783149           11 
  211000   0.94253626   -6.7886785    64.451957  0.025454959  0.026704073            3 
  212000   0.94549995    -6.787538    64.420047  0.025322345  0.026624417            7 
  213000   0.93363902   -6.7857325    64.607849  0.025276936  0.026544952            4 
  214000   0.91637063    -6.779148     64.74001  0.025210284  0.026465748            7 
  215000   0.92016215   -6.8051858    64.999431  0.025193578  0.026388519            6 
  216000   0.92797858   -6.8142079    65.316302  0.025199191  0.026311708            5 
  217000   0.93196162   -6.8053388    65.156575  0.025021726  0.026233964            7 
  218000   0.91395888    -6.832057    65.269253   0.02495002  0.026155354            5 
  219000   0.91132072   -6.7777273    65.675684  0.024990747  0.026078469            4 
  220000   0.89968368   -6.8179977    65.669974   0.02487499  0.026001474            4 
  221000   0.91138779   -6.8216804    65.897851   0.02484836  0.025924795            4 
  222000   0.91807829   -6.8350138    65.950621  0.024756239  0.025848216            6 
  223000   0.92547878   -6.8113554    66.178224  0.024730278   0.02577189            8 
  224000   0.92595029   -6.8648378    66.149176  0.024609069  0.025695325            7 
  225000   0.93596104   -6.8552528    66.233971    0.0245311  0.025618134            4 
  226000   0.91403057   -6.8350842     66.25125  0.024428927  0.025541341            4 
  227000   0.90657484   -6.8548744    66.556416  0.024433339  0.025465447            4 
  228000   0.90188931   -6.8506528    66.590412  0.024338601  0.025388069            7 
  229000   0.90848799   -6.8843666    66.542457  0.024214868  0.025311124           15 
  230000    0.9236358   -6.8702036    66.736405  0.024179857   0.02523395            6 
  231000   0.87064894   -6.9247473    66.666938  0.024050122  0.025155457           12 
  232000   0.89911477   -6.8903655     66.80603  0.023996419  0.025076439           10 
  233000    0.9077335   -6.8863299    66.908575  0.023930105  0.024997591            5 
  234000   0.89226556   -6.8712475    66.911651  0.023828936  0.024919239            4 
  235000   0.89238119   -6.8408763    67.438909  0.023914507  0.024842549            3 
  236000   0.90750722   -6.8677685    67.442623  0.023814486  0.024766229            5 
  237000   0.90152077   -6.8929984    67.399811  0.023698949  0.024689081            4 
  238000   0.87284797   -6.9223908      67.1756  0.023520868  0.024610625           11 
  239000   0.88538788   -6.9514005    67.161518  0.023417545  0.024531537           16 
  240000   0.88442101    -6.878284    67.500359  0.023437625  0.024452343           11 
  241000   0.89692513   -6.9270024    67.561256   0.02336143  0.024374316            7 
  242000   0.87841277   -6.9290974    67.859338  0.023367541  0.024296354           10 
  243000   0.87995718   -6.9260907    67.811729  0.023255051  0.024218128            8 
  244000   0.86532436   -6.9583607    67.831364  0.023166449  0.024139354            4 
  245000   0.88675386   -6.9290684    67.825285  0.023069825   0.02406086            7 
  246000   0.87698291   -6.9599995    67.930322  0.023011627  0.023982768            6 
  247000   0.87638364    -6.972234    68.090015   0.02297234  0.023905614            7 
  248000   0.89456097   -6.9632177    68.207083  0.022919047  0.023828714            7 
  249000   0.87845418   -6.9355904    68.387018  0.022887221  0.023751462           13 
  250000   0.88199401   -6.9802792    68.302895  0.022767632  0.023674956            5 
  251000    0.8775199   -6.9486804    68.637367   0.02278797  0.023599267           10 
  252000   0.86886212   -7.0034273    68.643804  0.022699671  0.023523589           11 
  253000   0.85458394   -6.9657962    68.646182  0.022610732  0.023447041            9 
  254000   0.84886094   -6.9708492    68.791542  0.022569403  0.023370507            5 
  255000   0.86400415   -7.0211055    68.778924  0.022476773  0.023295118           10 
  256000   0.86006478   -7.0081661    68.929516  0.022437994  0.023220488           14 
  257000    0.8702544   -6.9537741    69.453742  0.022520669   0.02314733            8 
  258000   0.85684134   -6.9546015    69.518866  0.022454414  0.023075751            7 
  259000    0.8606934   -7.0046271     69.55186  0.022378333  0.023003836           13 
  260000   0.86081129   -6.9795963    69.718981  0.022345827  0.022932652           23 
  261000   0.85749833   -6.9815743    69.918195  0.022323817  0.022862806            8 
  262000    0.8353775   -6.9766614    69.943582  0.022246686  0.022792956           13 
  263000   0.85801963   -7.0264195    69.868303  0.022138246  0.022722685           18 
  264000   0.84974372   -7.0505913    69.898756  0.022064001  0.022651942            8 
  265000   0.84983123   -7.0586491    70.074912  0.022036136  0.022581255           18 
  266000   0.85265261   -7.0508823    69.987433  0.021925887  0.022510695           10 
  267000   0.85477618     -7.01022    70.064895  0.021867945  0.022440241            6 
  268000   0.83795433   -7.0274308    70.292815  0.021857218  0.022369412            9 
  269000   0.83770356   -7.0561836    70.226499  0.021755421   0.02229863            5 
  270000   0.82647542   -7.0349198    70.316106  0.021702502  0.022228612            8 
  271000   0.84964568   -7.0239929    70.461313   0.02166707  0.022158384            8 
  272000   0.83700113   -7.0531729     70.54888   0.02161424  0.022088493            5 
  273000   0.83675318   -7.0389022    70.723345  0.021588323  0.022019416            8 
  274000   0.83461628   -7.0372534    70.526464  0.021449654  0.021949956            7 
  275000    0.8125156   -7.0654368    70.893829  0.021482979  0.021880672            5 
  276000   0.81835499    -7.073426    70.593851  0.021314568  0.021811778            5 
  277000   0.83477258   -7.0619221    70.861134  0.021318031  0.021742723            6 
  278000   0.81760888   -7.1042829     70.97739  0.021276196  0.021673778            5 
  279000   0.81168282   -7.0826153    70.900255  0.021176898  0.021604692            4 
  280000   0.82399687   -7.0893718    71.109122  0.021163429  0.021536024            5 
  281000   0.82001365   -7.0998515    71.201309  0.021115453  0.021467621            6 
  282000   0.81700269   -7.0995406    71.427304  0.021107359  0.021399388            8 
  283000   0.81792772   -7.1039286    71.084563   0.02093185  0.021331235           10 
  284000   0.82681769   -7.1251017    71.373421  0.020942905  0.021262896           11 
  285000   0.80819212   -7.1320051    71.233056  0.020828379  0.021195091            9 
  286000   0.79763868   -7.1189174    71.470241  0.020824662  0.021127502           13 
  287000   0.82317447   -7.1438313    71.430428  0.020740542  0.021060158            5 
  288000   0.81989707   -7.1390054    71.725451  0.020753892  0.020993381            9 
  289000   0.81149969   -7.1287159    71.630909  0.020654818  0.020926889           13 
  290000   0.80304877   -7.1341561    71.773729  0.020624635  0.020860944           11 
  291000   0.79870129   -7.1450284    71.810474  0.020564282  0.020795176           12 
  292000   0.79895103   -7.1400458    72.032849   0.02055732  0.020730385            6 
  293000   0.80462657   -7.1678293    72.159018  0.020523043  0.020666356           20 
  294000   0.79034507    -7.139265    72.232088  0.020473948  0.020602313           10 
  295000   0.79020854   -7.1656273    72.156036  0.020383061  0.020538688            7 
  296000   0.81005219   -7.1635966    72.258484  0.020343042  0.020475437            9 
  297000   0.79506586   -7.1535601     72.46656  0.020332929  0.020412748           13 
  298000    0.7904602   -7.1385618    72.597651  0.020301357    0.0203503            9 
  299000   0.80003226   -7.1701987    72.390573  0.020175745  0.020287546           10 
  300000   0.78886667   -7.1899576    72.493112  0.020136976  0.020224645           16 
  301000   0.76953365   -7.2014469    72.380412  0.020038874  0.020161293           11 
  302000   0.78416346    -7.159547    72.574603  0.020026105  0.020097934            9 
  303000   0.78597884   -7.2103333    72.475155  0.019932661  0.020034708           26 
  304000    0.7617064   -7.2049826    72.650423  0.019915138  0.019971604           12 
  305000   0.80024936    -7.213221    72.573765  0.019828897   0.01990928           16 
  306000   0.77870083   -7.2339553    72.596042  0.019770164  0.019846455            8 
  307000   0.77337943   -7.2375442    72.695007   0.01973263  0.019783588           20 
  308000   0.78225045   -7.2370771    72.584855  0.019638759  0.019720428            9 
  309000   0.77089148   -7.2518206    72.804035  0.019634314   0.01965768           14 
  310000   0.77055042   -7.2743114    72.519279   0.01949443   0.01959519           17 
  311000   0.76144842   -7.2739064    72.723748  0.019486535  0.019532516           16 
  312000   0.77683072   -7.2718619    72.830231  0.019452519  0.019469813            9 
  313000    0.7883472    -7.270996    72.819435  0.019387496  0.019407209           10 
  314000   0.77518602    -7.272953    72.946809  0.019359557  0.019344933            8 
  315000   0.78229277   -7.3009553     72.96715  0.019303479  0.019282421           13 
  316000   0.76462251   -7.3098058    72.962863  0.019241261   0.01922022           18 
  317000    0.7586928   -7.2737452    72.930556   0.01917207  0.019158399           13 
  318000   0.75046939    -7.297994    72.970739  0.019122311  0.019096223           12 
  319000   0.77636833   -7.2843844    72.933719  0.019052696  0.019034152           10 
  320000   0.75084255   -7.2920111    73.013499  0.019013932  0.018972452           23 
  321000   0.74277381   -7.3100147    73.089112  0.018974328  0.018910865           21 
  322000   0.74675504   -7.3399417     73.09051  0.018915763  0.018849429           20 
  323000   0.73868292   -7.3206625    72.998931  0.018833573  0.018788266           19 
  324000   0.74788349   -7.3346787    73.267062  0.018844409  0.018727368           11 
  325000   0.75094697   -7.2706345    73.422315  0.018826235   0.01866666           18 
  326000   0.73810228   -7.3225341    73.046127  0.018672323  0.018606048           25 
  327000   0.74402359   -7.3332005    73.182842  0.018650062  0.018545601           19 
  328000   0.73436538   -7.3223694    73.181762  0.018592927  0.018485511           22 
  329000   0.73859123   -7.3256199    73.381891  0.018587105  0.018425785           26 
  330000   0.74236367   -7.3205187    73.361133  0.018525539  0.018366349           32 
  331000   0.74139363    -7.335328    73.480384  0.018499593  0.018306911           17 
  332000   0.74457276   -7.3366895     73.60286  0.018474613  0.018247716           19 
  333000   0.74428732   -7.3622451    73.369084  0.018360632  0.018188582           16 
  334000   0.72691346   -7.3498773    73.343855  0.018299365  0.018129225           13 
  335000   0.72846456   -7.3858831    73.332534  0.018241924  0.018069969           10 
  336000   0.72565481   -7.3719563    73.400442  0.018204475  0.018010905           19 
  337000   0.73355264    -7.390521    73.373498  0.018143793  0.017951782           16 
  338000   0.72898082   -7.3758936    73.320084  0.018076944  0.017892778           27 
  339000    0.7373277   -7.3727555     73.52341  0.018073601  0.017833729           12 
  340000   0.73549532   -7.3854607    73.388911  0.017987478  0.017774858           17 
  341000   0.72579483    -7.412428    73.448097  0.017949193  0.017716215           28 
  342000   0.71458274   -7.4051301    73.504169  0.017910373  0.017657177           42 
  343000   0.71320952    -7.397995    73.481895  0.017852744  0.017599078           14 
  344000   0.71864085   -7.4310835     73.46154  0.017795916  0.017540906           26 
  345000   0.72501041   -7.4312038    73.448228  0.017741118  0.017482828           22 
  346000   0.73065277   -7.4371235    73.443961  0.017688815  0.017424758           19 
  347000   0.70518425   -7.4526546    73.448313  0.017638884  0.017366961           17 
  348000   0.68900618   -7.4453897     73.46531  0.017592268   0.01730932           18 
  349000   0.70542332   -7.4381624    73.588363  0.017571242  0.017251866           17 
  350000    0.7045135   -7.4405684    73.485067  0.017496445  0.017194346           28 
  351000   0.71117274   -7.4445534    73.362605  0.017417522  0.017136867           31 
  352000   0.71422653   -7.4716493    73.546352  0.017411542   0.01707971           42 
  353000   0.69577446   -7.4879111    73.344156  0.017314484   0.01702224           37 
  354000   0.70553503   -7.4737704    73.468318  0.017294802  0.016965044           44 
  355000   0.69347861   -7.4748047    73.376563  0.017224545  0.016908012           30 
  356000   0.70517178   -7.4894211    73.290997  0.017156132  0.016850914           18 
  357000     0.691882   -7.4890714    73.446456  0.017144364  0.016794299           36 
  358000   0.71007234   -7.5029714    73.343411  0.017072489  0.016737789           20 
  359000   0.69934552   -7.4843406     73.31613    0.0170186  0.016681397           17 
  360000   0.69250401   -7.4709795      73.4406  0.017000139  0.016625015           23 
  361000   0.69362092   -7.5024973    73.370981  0.016936976  0.016568839           30 
  362000   0.69119266   -7.4984105    73.347372  0.016884754  0.016512395           48 
  363000   0.69663842   -7.5001642    73.332522   0.01683483  0.016456216           40 
  364000   0.68637485   -7.4845674    73.314652   0.01678449  0.016400193           23 
  365000   0.68391784   -7.4994602    73.392867  0.016756362  0.016344442           28 
  366000   0.68155096   -7.5313125    73.401639  0.016712577  0.016289037           30 
  367000   0.68187135   -7.5003083    73.563772  0.016703854  0.016233743           26 
  368000   0.69103527   -7.5145118    73.321472  0.016603594  0.016178689           28 
  369000   0.68960481   -7.5285799     73.48586  0.016595723  0.016123809           25 
  370000   0.67818626   -7.5178783    73.488572   0.01655148  0.016069106           21 
  371000   0.68952545    -7.524621    73.443582  0.016496761    0.0160146           16 
  372000   0.67111158   -7.5467963    73.439719   0.01645155  0.015960223           33 
  373000   0.66762829   -7.5314052    73.562463  0.016434867  0.015906292           25 
  374000   0.66642571   -7.5740869    73.728169  0.016427845   0.01585264           38 
  375000   0.66246834   -7.5548285    73.788338  0.016397408  0.015799175           42 
  376000   0.67209284   -7.5524214    73.412225   0.01627044   0.01574585           26 
  377000   0.67560376   -7.5593663    73.839987  0.016321836  0.015693039           26 
  378000   0.66175376   -7.5647166    73.585928  0.016222647  0.015640224           43 
  379000    0.6489415   -7.5563636    73.707761  0.016206632  0.015587538           44 
  380000   0.66357616   -7.5397805    73.700185  0.016162321   0.01553491           46 
  381000   0.67063457   -7.5856041     73.42409  0.016059512  0.015482217           46 
  382000   0.65441511   -7.5629654    73.483934  0.016030527  0.015429802           34 
  383000   0.66538471   -7.5809151      73.3498  0.015959486  0.015377452           29 
  384000   0.64835941   -7.6043472    73.468668  0.015943721  0.015325192           24 
  385000   0.66140167   -7.5917951     73.43967  0.015896032  0.015273091           38 
  386000   0.65090306   -7.6051935    73.387481  0.015843584  0.015221098           27 
  387000   0.63080656    -7.613599    73.331094  0.015790503  0.015169052           39 
  388000   0.66203086   -7.6048671    73.362115  0.015756468  0.015117143           45 
  389000   0.66197038   -7.6300258    73.352251   0.01571385  0.015065546           45 
  390000   0.64683918   -7.6098168    73.355588  0.015674271   0.01501407           49 
  391000      0.64445   -7.6335788    73.387274  0.015640936  0.014962679           35 
  392000   0.63598904   -7.6211915    73.396811  0.015603063  0.014911404           72 
  393000   0.64558725   -7.6417396    73.189031  0.015519303  0.014860393           67 
  394000   0.64365524   -7.6387971      73.1821  0.015478448  0.014809435           32 
  395000   0.63369564   -7.6405161    73.320776  0.015468518  0.014758747           34 
  396000   0.63855889   -7.6313646    73.311628  0.015427531  0.014707974           40 
  397000   0.62711707   -7.6553512    73.331523  0.015392847  0.014657601           47 
  398000   0.63310927   -7.6286498    73.427625  0.015374293  0.014607452           42 
  399000   0.62274254    -7.648833    73.334449  0.015316301  0.014557617           46 
  400000    0.6227389   -7.6470803     73.46704  0.015305633  0.014507851           37 
  401000   0.62108008   -7.6372868    73.369079  0.015247107  0.014458374           26 
  402000   0.63398062   -7.6455179    73.314457  0.015197856   0.01440899           41 
  403000   0.63299539   -7.6578225    73.276303  0.015152255  0.014359614           29 
  404000   0.62695579   -7.6732633    73.262921  0.015111989   0.01431042           54 
  405000   0.60806893   -7.6693724    73.201928  0.015062125  0.014261267           62 
  406000   0.62265141   -7.6513995    73.413132  0.015068377  0.014212517           35 
  407000   0.61610129   -7.6562608    73.171073  0.014981792  0.014163939           78 
  408000    0.6053559   -7.6797861    73.149038  0.014940571  0.014115424          118 
  409000   0.60440534   -7.6646192      73.3506   0.01494511  0.014067082           37 
  410000   0.61425072   -7.6703568    73.270824  0.014892444  0.014019033           60 
  411000   0.61095585   -7.6886615    73.266013  0.014855234  0.013971197          101 
  412000   0.59946293   -7.6883744    73.215055   0.01480887  0.013923505           61 
  413000   0.60886332   -7.6885806    73.180212  0.014765983  0.013875981          166 
  414000   0.60409134   -7.7083535    73.216691  0.014737659  0.013828661          144 
  415000   0.60250192   -7.6975388    73.040828  0.014666833  0.013781399          179 
  416000   0.61401983   -7.6983914    73.261294   0.01467574  0.013734413          126 
  417000   0.61321328   -7.6985377    73.277647  0.014643814  0.013687463          176 
  418000   0.58355277   -7.7098586    73.147015  0.014582738  0.013640695          215 
  419000   0.60223497   -7.6949438     73.17511  0.014553522  0.013594125          177 
  420000   0.61059452    -7.716544    73.139501  0.014511806  0.013547658          138 
  421000   0.59136048   -7.7392014    73.374203  0.014523793  0.013501442           83 
  422000   0.60947072   -7.7248747    73.266772  0.014468162  0.013455442          163 
  423000   0.57383788   -7.7408642     73.09889  0.014400884  0.013409672          151 
  424000   0.58457622   -7.7377876    73.004067  0.014348284  0.013363899          107 
  425000   0.59309515    -7.733249    73.082642   0.01432993  0.013318288          201 
  426000   0.59239433   -7.7483607    73.157835  0.014311001   0.01327286           61 
  427000   0.58369066   -7.7503717    73.112156  0.014268571  0.013227612          148 
  428000   0.57032421   -7.7350926     73.24594  0.014261281  0.013182611          153 
  429000   0.57759854   -7.7492186    73.195171  0.014218176  0.013137856          121 
  430000   0.58079729   -7.7536466    73.128386  0.014172168  0.013093253          125 
  431000   0.58136502   -7.7599533    73.220976  0.014157188  0.013048862          122 
  432000   0.56164413   -7.7525181    73.034537  0.014088452  0.013004514          135 
  433000   0.58524839   -7.7613674    73.092243  0.014067021  0.012960286          151 
  434000   0.57313528   -7.7621202    73.085587  0.014033331  0.012916211          132 
  435000   0.57131049   -7.7603581    73.044908  0.013993277  0.012872282          175 
  436000   0.57289824   -7.7751032    72.975844  0.013947982  0.012828531          141 
  437000   0.56684918   -7.7798229    72.915364  0.013904532  0.012784945           77 
  438000    0.5643844       -7.781    72.988834  0.013886764   0.01274152          135 
  439000   0.57231717   -7.7671516    73.063349  0.013869277  0.012698257          151 
  440000   0.56075512   -7.7746365    73.085652   0.01384198  0.012655186          153 
  441000    0.5568373   -7.7974479      72.9796  0.013790552  0.012612363           48 
  442000     0.553433   -7.7857673    73.081839  0.013778627   0.01256962          143 
  443000   0.55828203   -7.8069885    72.834315  0.013700962  0.012526935           51 
  444000   0.54503888   -7.8106346     72.95643  0.013693024  0.012484459           91 
  445000   0.55093638   -7.8297746    73.004745  0.013671301  0.012442165          105 
  446000   0.55811379   -7.8107035    72.917009  0.013624254  0.012400076           93 
  447000   0.55902004   -7.8139234    73.103751  0.013628589  0.012358185          114 
  448000   0.54629496   -7.8202374    72.977504  0.013574684  0.012316355          131 
  449000   0.53441091   -7.8310353    72.891068  0.013528409  0.012274746          114 
  450000    0.5416227    -7.833919    72.946529  0.013508616  0.012233145          141 
  451000    0.5503656   -7.8199636    72.968474  0.013482719  0.012191712          107 
  452000   0.54576166   -7.8158935    72.878463  0.013436295  0.012150477          242 
  453000   0.54915459   -7.8317975    72.887748  0.013408342  0.012109381          102 
  454000   0.54548495    -7.833653    72.817056  0.013365833  0.012068389           62 
  455000   0.53754297   -7.8376517    72.746687  0.013323569  0.012027595           79 
  456000   0.53572161   -7.8448753    72.688537  0.013283724  0.011986886          141 
  457000   0.54387911   -7.8406692    72.709908  0.013258554  0.011946343          163 
  458000   0.51913047   -7.8424646     72.78723  0.013243674  0.011906022          170 
  459000   0.52010275   -7.8319833    72.751852  0.013208397  0.011865888          112 
  460000   0.53653522   -7.8416143     72.66532  0.013164007  0.011825905          160 
  461000   0.52865336   -7.8458132    72.786041  0.013157274  0.011785969          108 
  462000   0.52983397   -7.8679905    72.762981  0.013124636  0.011746272          202 
  463000   0.53155572   -7.8605763    72.662091   0.01307813   0.01170665          154 
  464000   0.52151438   -7.8454699    72.670166  0.013051395   0.01166728          306 
  465000   0.52331412   -7.8550793    72.656289   0.01302084  0.011627998          183 
  466000   0.51939622   -7.8681555    72.674618  0.012996176  0.011588792           97 
  467000   0.51939385   -7.8668731    72.709522  0.012974576  0.011549768          109 
  468000   0.53010865   -7.8586382    72.585118  0.012924701  0.011510879          148 
  469000   0.51771235   -7.8717452    72.619951  0.012903332  0.011472204          112 
  470000   0.53126911   -7.8721336     72.60728  0.012873631  0.011433725           77 
  471000   0.51651426   -7.8512781    72.688409  0.012860653  0.011395404          108 
  472000   0.51266957   -7.8718304    72.669482  0.012830064  0.011357208          100 
  473000   0.51671623    -7.887819    72.613061  0.012792999  0.011319068          163 
  474000   0.51189309   -7.8856778    72.513268  0.012748465  0.011281158          101 
  475000   0.50459317   -7.8866264    72.437636  0.012708357  0.011243412          104 
  476000   0.50325526   -7.8955734    72.658415  0.012720311   0.01120587          225 
  477000   0.50672208   -7.8897036    72.626355  0.012688042  0.011168468          205 
  478000   0.50018839   -7.9117084    72.459979  0.012632493  0.011131152          141 
  479000   0.50531118   -7.9136071    72.670127   0.01264268  0.011094048          111 
  480000   0.49873169   -7.8930366     72.64533  0.012612036  0.011056905          153 
  481000   0.50554442   -7.9065197    72.594582  0.012577024  0.011019948          214 
  482000   0.49003714   -7.9115848    72.435509  0.012523428   0.01098317          159 
  483000    0.4902681   -7.9154192    72.521312  0.012512304  0.010946552          125 
  484000   0.49415238   -7.9083812    72.431361  0.012470964  0.010910082           70 
  485000   0.49682781   -7.9076254    72.470717  0.012452013  0.010873748           97 
  486000   0.50887985   -7.9257356    72.413445  0.012416572   0.01083754          124 
  487000   0.48362297   -7.9220081    72.462567  0.012399481  0.010801498           76 
  488000    0.4915524    -7.921942    72.636231  0.012403728  0.010765682           84 
  489000   0.49116124   -7.9319272    72.460812  0.012348468  0.010729923          255 
  490000    0.4811647   -7.9514838    72.422727   0.01231679   0.01069429          223 
  491000   0.48939277   -7.9451005    72.402686  0.012288304  0.010658877          174 
  492000   0.48178406   -7.9276059    72.525397  0.012284112  0.010623574          139 
  493000   0.47752184   -7.9291823    72.343792  0.012228498  0.010588379          159 
  494000   0.47964306   -7.9237405     72.29587   0.01219566  0.010553325          173 
  495000   0.46409249   -7.9549172      72.3346  0.012177542  0.010518413           53 
  496000   0.46997501   -7.9395831    72.394301  0.012163021  0.010483756          118 
  497000   0.47655763   -7.9285421    72.444044  0.012146889  0.010449223           68 
  498000   0.46965096    -7.946285     72.45934  0.012125057   0.01041484           73 
  499000   0.47377318   -7.9613927    72.308594  0.012075584  0.010380552          146 
  500000   0.47152348    -7.945982    72.348714  0.012058119  0.010346388          219 
  501000   0.47293096   -7.9724662    72.427061  0.012047083  0.010312387          241 
  502000   0.46384405   -7.9666213    72.382698   0.01201572   0.01027857          107 
  503000   0.46396589   -7.9593458    72.325052  0.011982282  0.010244841          134 
  504000   0.47431118   -7.9524141    72.308598  0.011955787  0.010211243          155 
  505000    0.4611156   -7.9620379    72.270843  0.011925882  0.010177806          215 
  506000   0.45517468   -7.9554703    72.357126  0.011916523  0.010144525          169 
  507000    0.4600528   -7.9795733    72.177258  0.011863455  0.010111349          168 
  508000   0.46468975   -7.9890149    72.192365   0.01184258  0.010078249          119 
  509000   0.45504897   -7.9712292    72.304129  0.011837611  0.010045296          195 
  510000   0.45267435   -7.9958506    72.273241  0.011809353  0.010012472          163 
  511000    0.4590333   -7.9816068    72.350294  0.011798809 0.0099798185          187 
  512000   0.45650751    -7.991154    72.188506  0.011749431 0.0099472854          402 
Loop time of 1319.77 on 48 procs for 500000 steps with 4000 atoms

Performance: 65466.176 tau/day, 378.855 timesteps/s
99.4% CPU use with 48 MPI tasks x no OpenMP threads

MPI task timing breakdown:
Section |  min time  |  avg time  |  max time  |%varavg| %total
---------------------------------------------------------------
Pair    | 95.001     | 100.81     | 107.35     |  32.0 |  7.64
Neigh   | 9.2577     | 9.5482     | 9.9342     |   5.6 |  0.72
Comm    | 83.507     | 91.128     | 99.055     |  39.5 |  6.90
Output  | 1.2376     | 1.2385     | 1.2635     |   0.3 |  0.09
Modify  | 1097.6     | 1104.1     | 1109.1     |   8.4 | 83.66
Other   |            | 12.94      |            |       |  0.98

Nlocal:        83.3333 ave          89 max          75 min
Histogram: 1 0 3 2 4 17 5 11 3 2
Nghost:        2421.85 ave        2440 max        2397 min
Histogram: 1 1 3 5 7 6 10 8 4 3
Neighs:        16839.8 ave       19693 max       14052 min
Histogram: 1 4 5 8 7 5 9 6 1 2
FullNghs:      33678.5 ave       36023 max       30277 min
Histogram: 1 1 2 2 6 12 14 5 3 2

Total # of neighbors = 1616570
Ave neighs/atom = 404.14250
Neighbor list builds = 26691
Dangerous builds = 0

#clear
#
#next RN
#
#jump SELF
Total wall time: 0:22:03
