
units lj                  # Use reduced LJ style units
atom_style atomic         # Uncharged point particles
atom_modify map hash      # Needed for indexing of clusters etc
                          # Used to be able to find where atoms are in relation to each other.

lattice fcc 1.0 spacing 1 1 1
Lattice spacing in x,y,z = 1.5874011 1.5874011 1.5874011
region box block 0 10 0 10 0 10 units lattice
create_box 2 box
Created orthogonal box = (0.0000000 0.0000000 0.0000000) to (15.874011 15.874011 15.874011)
  3 by 4 by 4 MPI processor grid
create_atoms 1 box
Created 4000 atoms
  using lattice units in orthogonal box = (0.0000000 0.0000000 0.0000000) to (15.874011 15.874011 15.874011)
  create_atoms CPU = 0.003 seconds
set type 1 type/fraction 2 0.52 78393
Setting atom values ...
  2077 settings made for type/fraction
mass 1 1.0
mass 2 1.0
pair_style lj/cut  3.5
pair_modify tail  yes
pair_coeff 1  1  1.0  1.0   # Intearaction between 1 and 1 set with epsilon = 1 and sigma = 1
pair_coeff 1  2  1.5  0.8
pair_coeff 2  2  0.5  0.88

write_data data.0
System init for write_data ...
Neighbor list info ...
  update every 1 steps, delay 10 steps, check yes
  max neighbors/atom: 2000, page size: 100000
  master list distance cutoff = 3.8
  ghost atom cutoff = 3.8
  binsize = 1.9, bins = 9 9 9
  1 neighbor lists, perpetual/occasional/extra = 1 0 0
  (1) pair lj/cut, perpetual
      attributes: half, newton on
      pair build: half/bin/atomonly/newton
      stencil: half/bin/3d
      bin: standard
WARNING: Not all mixed pair coeffs generated from mixing. Use write_data with 'pair ij' option to store all pair coeffs. (../write_data.cpp:312)


#############################
#   M E L T   S Y S T E M   #
#############################

velocity all create 2.4 5833274 mom yes dist gaussian # Assign velocities
                                                    # Temperature 2.4, random number seed, zero linear momentum
                                                                                # Gaussian distribution

timestep 0.002   # simulation timestep
thermo 1000       # output thermodynamic data every 1000 steps bf 100

# Define a fix  in this case with index 1 applied to all
# particles in the simulation. This fix is for simulations
# in the anisotropic NPT ensemble. Note that we use the MTK
# correction.
fix 1 all npt temp 2.4 2.4 0.1 iso 5.68 5.68 0.5 mtk yes tchain 5 pchain 5 # Use NPT ensemble
                                                                         # Set temperature and pressure and damping
                                                                         # Numbers of thermostats in chain and in barostat
run 10000          # run for 10000 steps
Per MPI rank memory allocation (min/avg/max) = 3.642 | 3.644 | 3.648 Mbytes
Step Temp E_pair E_mol TotEng Press Volume 
       0          2.4   -5.1913276            0   -1.5922276   -4.1950394         4000 
    1000    2.4432201    -4.792754            0     -1.12884    5.8938777    3683.0473 
    2000    2.4232824   -4.9089046            0   -1.2748897    5.8876286    3619.5459 
    3000    2.4308758   -4.8301923            0   -1.1847902    5.8352762    3665.1012 
    4000    2.4154568   -4.8942961            0   -1.2720166    5.3965236    3667.1691 
    5000    2.4255645   -4.8483934            0   -1.2109562    6.0897391    3645.7512 
    6000    2.3391577   -4.8109435            0   -1.3030841    5.4026877    3703.8684 
    7000    2.4169337   -4.8211413            0    -1.196647    5.3975985    3705.2216 
    8000     2.398266   -4.8637745            0   -1.2672749    5.7948034    3656.7117 
    9000    2.4499219   -4.8745802            0    -1.200616    5.5800644    3674.5428 
   10000    2.4100263   -4.7620515            0   -1.1479158    5.9172984    3683.6321 
Loop time of 2.58624 on 48 procs for 10000 steps with 4000 atoms

Performance: 668151.429 tau/day, 3866.617 timesteps/s
99.7% CPU use with 48 MPI tasks x no OpenMP threads

MPI task timing breakdown:
Section |  min time  |  avg time  |  max time  |%varavg| %total
---------------------------------------------------------------
Pair    | 1.1742     | 1.2434     | 1.3137     |   2.5 | 48.08
Neigh   | 0.21262    | 0.22259    | 0.23199    |   0.8 |  8.61
Comm    | 0.7826     | 0.87034    | 0.9439     |   3.5 | 33.65
Output  | 0.00024026 | 0.00024452 | 0.00030758 |   0.0 |  0.01
Modify  | 0.2024     | 0.23461    | 0.26143    |   3.5 |  9.07
Other   |            | 0.01506    |            |       |  0.58

Nlocal:        83.3333 ave          93 max          71 min
Histogram: 2 1 1 6 5 14 9 2 5 3
Nghost:        1731.69 ave        1758 max        1701 min
Histogram: 2 2 5 6 6 8 5 8 3 3
Neighs:        10356.5 ave       11550 max        8483 min
Histogram: 1 2 2 3 4 8 12 8 5 3

Total # of neighbors = 497110
Ave neighs/atom = 124.27750
Neighbor list builds = 911
Dangerous builds = 250

# Equilibrate just above the melting temperature to avoid step fn in T

fix 1 all npt temp 1.25 1.25 0.1 iso 5.68 5.68 0.5 mtk yes tchain 5 pchain 5
run 2000
Per MPI rank memory allocation (min/avg/max) = 3.644 | 3.646 | 3.649 Mbytes
Step Temp E_pair E_mol TotEng Press Volume 
   10000    2.4100263   -4.7620515            0   -1.1479158    5.9172984    3683.6321 
   11000    1.2547237   -6.9335309            0   -5.0519159    5.5680359    2863.5733 
   12000     1.244607   -7.0369608            0    -5.170517    5.9285817    2823.2576 
Loop time of 0.651339 on 48 procs for 2000 steps with 4000 atoms

Performance: 530598.943 tau/day, 3070.596 timesteps/s
99.7% CPU use with 48 MPI tasks x no OpenMP threads

MPI task timing breakdown:
Section |  min time  |  avg time  |  max time  |%varavg| %total
---------------------------------------------------------------
Pair    | 0.28705    | 0.31402    | 0.37893    |   2.8 | 48.21
Neigh   | 0.040042   | 0.043292   | 0.051085   |   0.9 |  6.65
Comm    | 0.1794     | 0.24565    | 0.27181    |   3.3 | 37.71
Output  | 4.8337e-05 | 5.0053e-05 | 6.6181e-05 |   0.0 |  0.01
Modify  | 0.035879   | 0.043653   | 0.049727   |   1.9 |  6.70
Other   |            | 0.004673   |            |       |  0.72

Nlocal:        83.3333 ave          91 max          75 min
Histogram: 1 1 4 9 3 15 6 4 3 2
Nghost:        2078.46 ave        2098 max        2049 min
Histogram: 1 1 5 3 5 6 12 3 9 3
Neighs:        13522.7 ave       14953 max       11900 min
Histogram: 2 5 3 5 7 6 6 4 5 5

Total # of neighbors = 649090
Ave neighs/atom = 162.27250
Neighbor list builds = 144
Dangerous builds = 14

#############################
# L I N E A R  Q U E N C H  #
#############################

# Define solid atoms. This closely follows ten Wolde  Ruiz-Montero and Frenkel  Faraday Discuss  1996  104  93-110
# Compute components of the per-atom q6 vector
compute q6 all orientorder/atom degrees 1 6 components 6 nnn NULL cutoff 1.3 # compute the Q6 parameter.
                                                                             # Use all neighbours within 1.3 unit cell.

# get number of connections
compute coord_number all coord/atom orientorder q6 0.5

# An atom is solid if it has 8 or more connections (of a possible 14)
variable is_solid atom c_coord_number>=8
group solid dynamic all var is_solid    # Must be dynamic to update
dynamic group solid defined

# do clustering
compute cluster solid cluster/atom 1.3 # Create a cluster where all atoms within are solid and max 1.3 units from another member

# define chunks one chunk per cluster
compute clus_chunks solid chunk/atom c_cluster nchunk every compress yes  # Says which atoms are in which chunk

# count the size of each chunk
compute size_chunks solid property/chunk clus_chunks count


# Find the maximum entry in the vector of chunk sizes
variable max_n equal max(c_size_chunks)


# Thermo style which includes this variable
# thermo_style custom step temp pe vol v_max_n

thermo ${N}  # Print the thermo information every 100 steps
thermo 1000  

# Reset the npt fix at a lower temperature (below freezing)
fix 1  all npt temp  ${temp} ${temp}  0.1  iso  5.68  5.68  0.5  mtk yes tchain  5  pchain  5
fix 1  all npt temp  0.45 ${temp}  0.1  iso  5.68  5.68  0.5  mtk yes tchain  5  pchain  5
fix 1  all npt temp  0.45 0.45  0.1  iso  5.68  5.68  0.5  mtk yes tchain  5  pchain  5

dump dmp2 all dcd ${N} traj.dcd
dump dmp2 all dcd 1000 traj.dcd


compute msd all msd com yes
variable twopoint equal c_msd[4]/6/(step*dt+1.0e-6)
fix 9 all vector 10 c_msd[4]
variable fit equal slope(f_9)/6/(10*dt)
thermo_style custom step temp pe c_msd[4] v_twopoint v_fit v_max_n

fix 1 all npt temp 1.25 ${temp} 0.1 iso 5.68 5.68 0.5 mtk yes tchain 5 pchain 5
fix 1 all npt temp 1.25 0.45 0.1 iso 5.68 5.68 0.5 mtk yes tchain 5 pchain 5
run 2000000 # 5000000  # Run for this many steps
Neighbor list info ...
  update every 1 steps, delay 10 steps, check yes
  max neighbors/atom: 2000, page size: 100000
  master list distance cutoff = 3.8
  ghost atom cutoff = 3.8
  binsize = 1.9, bins = 8 8 8
  4 neighbor lists, perpetual/occasional/extra = 1 3 0
  (1) pair lj/cut, perpetual
      attributes: half, newton on
      pair build: half/bin/atomonly/newton
      stencil: half/bin/3d
      bin: standard
  (2) compute orientorder/atom, occasional
      attributes: full, newton on
      pair build: full/bin/atomonly
      stencil: full/bin/3d
      bin: standard
  (3) compute coord/atom, occasional
      attributes: full, newton on
      pair build: full/bin/atomonly
      stencil: full/bin/3d
      bin: standard
  (4) compute cluster/atom, occasional
      attributes: full, newton on
      pair build: full/bin/atomonly
      stencil: full/bin/3d
      bin: standard
Per MPI rank memory allocation (min/avg/max) = 9.838 | 9.848 | 9.855 Mbytes
Step Temp PotEng c_msd[4] v_twopoint v_fit v_max_n 
   12000     1.244607   -7.0369608 8.4605332e-31  5.87537e-33 8.3333333e+20            1 
   13000    1.2423482   -7.0347556   0.45333846 0.0029060156  0.036993032            3 
   14000    1.2653031    -7.097454   0.84745096 0.0050443507  0.033732382            4 
   15000    1.2703187   -7.0815155    1.2158213 0.0067545626  0.033066693            2 
   16000    1.2666231   -7.0702395     1.599833 0.0083324633  0.032536916            5 
   17000    1.2276653   -7.0715486    2.0015774 0.0098116538  0.032187184            3 
   18000    1.2593046   -7.0740962    2.4010398  0.011115925  0.032323322            4 
   19000    1.2536061   -7.0548851    2.8553414  0.012523427   0.03286374            2 
   20000    1.2631618     -7.08194    3.2414036  0.013505848  0.033055247            2 
   21000    1.2358322   -7.1035911     3.631027  0.014408837  0.033330857            1 
   22000    1.2413827   -7.0343494    4.0353523  0.015285425  0.033329587            2 
   23000     1.262215   -7.0646126    4.3994991  0.015940214  0.033327004            2 
   24000    1.2632858   -7.0845109    4.7588412  0.016523754  0.033229915            1 
   25000    1.2741205   -7.0827766    5.1764759  0.017254919  0.033108577            5 
   26000    1.2465688   -7.0599599    5.6368437  0.018066807  0.033049092            2 
   27000    1.2396155   -7.0877049    5.9409727  0.018336335  0.032988971            3 
   28000    1.2230624   -7.0704044    6.3787972  0.018984515  0.032928384            2 
   29000    1.2412241    -7.049172     6.643169  0.019089566  0.032819939            1 
   30000    1.2229361    -7.100564    7.0607145  0.019613096  0.032665297            1 
   31000    1.2339695   -7.0731582      7.40952  0.019918064   0.03255771            2 
   32000    1.2522086   -7.0878828    7.7505077  0.020183613  0.032437276            1 
   33000    1.2630695   -7.1087565    8.1286755  0.020526958  0.032322864            2 
   34000    1.2384183   -7.0750672    8.6294938   0.02115072  0.032263775            2 
   35000     1.242388   -7.0724445    9.0709414  0.021597479  0.032301233            2 
   36000    1.2326418   -7.0746286    9.4063082  0.021773861  0.032329881            4 
   37000    1.2291151   -7.1008587    9.7224466  0.021897402  0.032334836            1 
   38000    1.2287441   -7.1383141    10.117977  0.022188547  0.032312048            2 
   39000    1.2424492   -7.0911523    10.601081  0.022651882  0.032293422            2 
   40000    1.2142445   -7.0832408    10.913255  0.022735948  0.032298439            2 
   41000    1.2177195   -7.0952951    11.293913  0.022955108   0.03226657            1 
   42000    1.2421622   -7.0717898    11.787179  0.023387259  0.032277832            2 
   43000     1.219184   -7.1390155    12.285429  0.023808971  0.032332082            2 
   44000    1.2084871   -7.0800662    12.682385  0.024019669  0.032402132            2 
   45000    1.2354514   -7.0956226    12.981156  0.024039178  0.032474945            2 
   46000    1.2312332   -7.0760867    13.350304  0.024185334  0.032472504            2 
   47000    1.2308404    -7.077917    13.711708  0.024311539  0.032470623            1 
   48000    1.2255809   -7.0772333    14.078566  0.024441955  0.032464639            1 
   49000    1.2290688   -7.0756558    14.480642  0.024626942  0.032459327            2 
   50000    1.2292353   -7.1452971    14.829465  0.024715775  0.032451638            1 
   51000     1.230463   -7.1376592     15.21817  0.024866291  0.032442985            2 
   52000     1.232882   -7.1203485    15.699851  0.025160017  0.032450025            2 
   53000    1.2262931   -7.0882503    16.161786  0.025411613  0.032472025            1 
   54000    1.2384176   -7.1160467    16.524334  0.025500515  0.032504585            2 
   55000    1.2428425   -7.0732729    16.999472  0.025756776  0.032520802            1 
   56000    1.2281628   -7.0989035    17.321901  0.025776638  0.032549393            1 
   57000    1.2487245   -7.1363457    17.447592  0.025508175  0.032535309            1 
   58000    1.2134566   -7.1215842    17.847643  0.025643165  0.032494615            1 
   59000    1.2322266   -7.1146631    18.288491  0.025831201  0.032463134            3 
   60000    1.2257578   -7.1552211    18.584615  0.025811966  0.032434648            2 
   61000     1.228388   -7.1456093    18.964619  0.025907949  0.032397096            2 
   62000    1.2333787     -7.09466    19.247398  0.025870159  0.032352618            4 
   63000    1.2473143   -7.1051777     19.60027  0.025926283  0.032300559            2 
   64000    1.2381239   -7.0767655    20.076821  0.026141694  0.032255671            3 
   65000    1.2310252    -7.086897    20.488506  0.026267315  0.032226366            1 
   66000    1.2173692   -7.0883889    20.845096  0.026319565  0.032200706            1 
   67000    1.2332657   -7.1588271    20.997655  0.026116486  0.032153471            1 
   68000    1.1974168   -7.0994719    21.437019  0.026270856  0.032107174            2 
   69000    1.2203192    -7.122293    21.738986  0.026254814  0.032059185            1 
   70000    1.2240757    -7.081565    22.243489  0.026480344  0.032013965            1 
   71000    1.2137331   -7.1286603    22.623314  0.026553185  0.031983238            3 
   72000    1.2680397   -7.0867482    23.061511  0.026691564  0.031959496            2 
   73000    1.2248832   -7.1417708    23.274848  0.026569461  0.031933614            1 
   74000    1.2120936   -7.1540767    23.699795  0.026688958  0.031897503            1 
   75000    1.2640997   -7.1152892    24.103864  0.026782071  0.031868018            3 
   76000    1.2191227    -7.180577    24.371738  0.026723397  0.031839304            3 
   77000    1.1973566    -7.072148    24.791452  0.026830576  0.031809155            1 
   78000     1.196179   -7.1412116    25.109341  0.026826219  0.031776966            2 
   79000    1.2167446   -7.0908484     25.52732  0.026927552  0.031741792            2 
   80000    1.2225563   -7.1498867    25.798061   0.02687298  0.031710149            1 
   81000    1.2104421   -7.1255729    26.091462  0.026843068  0.031674161            1 
   82000    1.2393426   -7.0980542    26.830001  0.027266261   0.03165409            1 
   83000    1.1898213   -7.1315575    27.403375  0.027513429  0.031659736            1 
   84000    1.1856882   -7.0967904    27.733776  0.027513666   0.03166859            1 
   85000    1.2279995   -7.1329356    28.007907  0.027458732  0.031670468            3 
   86000    1.2261999   -7.0837673    28.478089  0.027595047  0.031670128            1 
   87000    1.2046201   -7.1595616    28.705356  0.027495552  0.031669076            3 
   88000    1.2313814   -7.1286337    29.227724  0.027677769  0.031667749            1 
   89000    1.1832795   -7.1553735    29.497684  0.027619554   0.03166746            2 
   90000    1.2482645   -7.1556662    29.631588  0.027436656  0.031660464            3 
   91000    1.2375671    -7.177493    30.220759  0.027674688  0.031650375            1 
   92000    1.1953611   -7.1496883    30.542614  0.027665411  0.031647917            3 
   93000    1.2217673   -7.1427793    31.130819  0.027894999  0.031645016            2 
   94000    1.2176692   -7.1381198    31.417984  0.027852823  0.031645074            3 
   95000    1.2261083   -7.1875902    31.727505  0.027831145  0.031648781            4 
   96000    1.2202428   -7.1218517    32.165964  0.027921844  0.031652398            2 
   97000    1.2219558   -7.1235164    32.699337  0.028092214  0.031657152            2 
   98000    1.2352376   -7.1809452     33.03485  0.028090859  0.031668081            4 
   99000    1.1888045   -7.1104358    33.607575  0.028289205  0.031682146            5 
  100000    1.2264271   -7.1318099    33.942276   0.02828523  0.031694528            3 
  101000    1.2258397   -7.1367949    34.357133  0.028347469  0.031705808            7 
  102000    1.2239926   -7.1281428    34.618372  0.028282983  0.031713466            6 
  103000     1.202491    -7.175243    34.824803  0.028175407  0.031718442            1 
  104000    1.2203269   -7.1242189    35.386215  0.028354339  0.031719659            1 
  105000    1.2238679   -7.1864405    35.771576   0.02839014  0.031725324            4 
  106000    1.2087468   -7.1982827    36.020852  0.028318279  0.031731589            1 
  107000    1.1957553   -7.1723018    36.487199  0.028416822  0.031740786            2 
  108000    1.1892636    -7.214154    37.115405   0.02863843  0.031753018            6 
  109000     1.226945   -7.1663646    37.517785  0.028683321  0.031772035            2 
  110000    1.1674353   -7.1414186    37.889432  0.028704115  0.031793229            2 
  111000    1.2172066   -7.1599199    38.302242  0.028755437  0.031805366            4 
  112000    1.2440494   -7.1640112    38.503359  0.028648332  0.031816126            3 
  113000    1.2033611   -7.1558431      39.0602  0.028805457   0.03182177            2 
  114000    1.2128271   -7.1530323    39.561256  0.028919047  0.031836602            5 
  115000    1.2112566   -7.1677893    40.001353  0.028986487   0.03185607            1 
  116000    1.2076645   -7.1664438    40.185339  0.028868778  0.031870058            2 
  117000    1.2127044   -7.1449409     40.83782  0.029086767  0.031884837            1 
  118000    1.2010615    -7.177528    40.904039  0.028887033  0.031903509            2 
  119000    1.2158268   -7.1678496    41.408306  0.028997413  0.031913309            3 
  120000    1.2058356   -7.1710974    41.570343  0.028868294  0.031920168            1 
  121000     1.179588    -7.197704    42.154189   0.02903181  0.031929322            2 
  122000    1.2033643   -7.1586439    42.366161  0.028938635  0.031939555            2 
  123000    1.1981425   -7.1413521    42.961697   0.02910684  0.031946647            1 
  124000    1.2096418   -7.2085636    43.203718  0.029034757  0.031952516            4 
  125000    1.1873366   -7.1660046    43.558767  0.029039178  0.031957159            3 
  126000    1.2207729   -7.1333327    44.137814  0.029191676  0.031960829            2 
  127000    1.2092857   -7.1540241    44.240554  0.029029235  0.031966753            2 
  128000    1.1730831   -7.2015824    44.507207  0.028976046  0.031963595            1 
  129000    1.1939314   -7.1862677    44.892931  0.029000601  0.031960096            2 
  130000    1.1954207   -7.1780602     45.34779  0.029069096   0.03195838            2 
  131000    1.1853908   -7.1630398    45.693693  0.029067235  0.031955397            2 
  132000    1.2009993   -7.1604475    45.941046  0.029003185  0.031949413            3 
  133000    1.2098859   -7.1835197    46.296923  0.029008097  0.031939456            4 
  134000    1.1947473   -7.1674761    46.610007  0.028986323  0.031924503            2 
  135000    1.2016399   -7.1977821    47.191073  0.029130292  0.031916836            1 
  136000    1.2023014     -7.20398    47.422709  0.029058033  0.031911836            1 
  137000    1.2120099   -7.2057406    47.620179  0.028966045  0.031900259            2 
  138000    1.2023462   -7.1990031    47.649088  0.028773604  0.031885138            2 
  139000    1.1985642   -7.1748478    48.089493  0.028830631  0.031863875            1 
  140000    1.1829079   -7.1928548    48.273031  0.028733947  0.031839124            2 
  141000    1.1820308   -7.2008482    48.699886  0.028782439  0.031817179            2 
  142000    1.1735305   -7.2354006    49.045195  0.028782392  0.031793746            1 
  143000    1.2132934   -7.2281056    49.345653  0.028756208  0.031768722            5 
  144000    1.2042309   -7.1978144    49.793075  0.028815437   0.03174112            2 
  145000    1.2110125    -7.192699    50.101075  0.028793721  0.031716796            2 
  146000    1.1808311   -7.1701417    50.509889  0.028829845  0.031693392            2 
  147000    1.2031954   -7.1653594    50.733624  0.028760558  0.031667579            1 
  148000    1.1951876   -7.2297274    50.927416  0.028675347   0.03164085            2 
  149000    1.1984387   -7.1731963     51.30384  0.028693423  0.031616226            1 
  150000    1.2014461   -7.1953242    51.785968  0.028769982  0.031592064            1 
  151000    1.1602781   -7.2698487    51.581553  0.028466641  0.031563384            4 
  152000    1.1792844   -7.2195857    52.021677  0.028520656  0.031528827            3 
  153000    1.1847926   -7.2506179    52.327585  0.028500863  0.031494794            2 
  154000    1.1820985   -7.1903048    52.914578   0.02863343  0.031465642            1 
  155000     1.203613   -7.2154005    53.125922  0.028562324  0.031438854            4 
  156000    1.1941411   -7.1741239    53.542944     0.028602  0.031410176            5 
  157000     1.195324   -7.2384199    53.872752  0.028594879  0.031382576            2 
  158000    1.2061478   -7.1995431     54.44531  0.028715881  0.031354091            2 
  159000    1.1944964   -7.2374775     54.37229  0.028497007  0.031325982            3 
  160000    1.1606669   -7.2477334    54.784302  0.028533491  0.031298026            2 
  161000    1.1866899   -7.2038093    55.194141  0.028568396  0.031268225            2 
  162000    1.1644096   -7.1709676     55.37178  0.028483426  0.031240165            2 
  163000    1.1965232   -7.2330402    55.903114  0.028580324  0.031215286            2 
  164000    1.1651209   -7.2509577    56.142886  0.028527889  0.031189318            4 
  165000    1.2005161    -7.224564     56.47451   0.02852248  0.031160984            2 
  166000    1.1806109    -7.293131    56.502964  0.028364942   0.03113328            3 
  167000    1.2068755   -7.2307638    57.038819  0.028462484  0.031105962            2 
  168000    1.1846286   -7.1816201    57.637678  0.028590118  0.031079156            2 
  169000    1.1800655   -7.2609756    57.710661  0.028456933  0.031051625            1 
  170000    1.1729601   -7.2546491    57.896079  0.028380431  0.031024952            2 
  171000     1.200922   -7.2195919    58.273558   0.02839842  0.030998756            2 
  172000    1.2017174   -7.2264587     58.67988  0.028430175  0.030975514            2 
  173000    1.1911881   -7.2412423    58.915879  0.028379518  0.030947865            4 
  174000    1.1581672   -7.2289294    59.419976  0.028457843  0.030918078            5 
  175000    1.1876307   -7.2213264    59.791933  0.028472349  0.030889335            3 
  176000    1.1846819   -7.2193563    60.142488  0.028476557  0.030861615            3 
  177000     1.172197   -7.1888617    60.444671  0.028457943  0.030834854            1 
  178000    1.1694931   -7.1936985    60.939303  0.028529636  0.030809069            4 
  179000    1.1748346   -7.1813274    61.053532  0.028423432  0.030785507            2 
  180000    1.1917427   -7.2562659     61.36291  0.028408754  0.030759496            4 
  181000    1.1791996   -7.2512594    61.535441  0.028331234  0.030732381            3 
  182000    1.1734463   -7.2697447    62.029603  0.028401833  0.030706989            3 
  183000     1.179974   -7.2578718    62.258224  0.028350739  0.030681762            1 
  184000    1.1783674   -7.2473042    62.556426  0.028331715  0.030657027            2 
  185000    1.1967096   -7.2112342    63.306067  0.028516246  0.030632427            1 
  186000    1.1681994   -7.2191775    63.347681  0.028381577  0.030610207            1 
  187000    1.1800456   -7.2546204    63.707748  0.028390262  0.030586382            2 
  188000    1.1617716   -7.2240195     64.21875  0.028465758  0.030564911            1 
  189000    1.2040011   -7.2867645     64.10822  0.028266411  0.030540193            2 
  190000    1.1965017   -7.2325979    64.598195  0.028332542  0.030513348            2 
  191000    1.1822237   -7.2544395    65.040564  0.028377209  0.030488076            2 
  192000    1.1769556   -7.2254436    65.384745  0.028378796   0.03046294            4 
  193000    1.1530731   -7.2398289    65.264127  0.028179675  0.030436831            1 
  194000    1.1829718   -7.2193769    65.714786  0.028228001  0.030410487            2 
  195000    1.1926773    -7.257907    65.958968  0.028187593  0.030384543            1 
  196000    1.1831091   -7.2442813    66.251175  0.028168017  0.030356591            1 
  197000    1.1983476   -7.2595621    66.278579  0.028036624  0.030328964            7 
  198000    1.1759049   -7.2722524    66.640948  0.028047537   0.03029903            1 
  199000    1.1949326   -7.2477258    67.119712  0.028107082  0.030269202            3 
  200000    1.1790254   -7.2200621    67.620461  0.028175192  0.030239902            1 
  201000    1.1818083    -7.200241     68.08961  0.028229523  0.030211161            3 
  202000    1.1601453   -7.2324692    68.321061  0.028185256  0.030184709            2 
  203000     1.183341   -7.2907084    68.506473  0.028122526  0.030158511            2 
  204000    1.1707235     -7.24001    68.523207  0.027991506  0.030131586            2 
  205000    1.1709751   -7.2204183    68.695437  0.027924974  0.030102715            1 
  206000    1.1702042   -7.2440011    69.468681  0.028102217  0.030074595            2 
  207000    1.1954528   -7.2272766     69.82698    0.0281107  0.030048238            1 
  208000    1.1691872   -7.2104064    70.271708  0.028153729  0.030022324            2 
  209000    1.1909056    -7.271172    70.514545  0.028115847  0.029998899            3 
  210000    1.1888698    -7.252365    70.695817  0.028053896  0.029974456            5 
  211000    1.1629191   -7.1995999    71.095204  0.028078675  0.029949318            2 
  212000    1.1664793   -7.2543153    71.292373  0.028023731  0.029926075            2 
  213000    1.1521313   -7.2571953    71.665167  0.028038015  0.029904009            1 
  214000    1.1710959   -7.2410145    72.265064  0.028140601  0.029882163            1 
  215000    1.1856468   -7.2262772    72.572476  0.028128866  0.029859954            1 
  216000    1.1327719   -7.2521098    72.741291  0.028063769  0.029837962            2 
  217000    1.1784394   -7.2885922    72.882763  0.027988772  0.029816123            3 
  218000    1.1640346   -7.2895073    73.341571  0.028035769  0.029793067            4 
  219000     1.169521   -7.2910376    73.710604  0.028048175  0.029771812            2 
  220000    1.1787915   -7.2402759     74.01574  0.028036265  0.029751491            2 
  221000    1.1589452   -7.2497871    74.218163  0.027985733  0.029728139            4 
  222000    1.1684946   -7.3052372    74.031628   0.02778965  0.029704447            3 
  223000    1.1439343   -7.2743452    74.744568  0.027931453  0.029680673            2 
  224000     1.160257   -7.3050672    74.874786  0.027855203  0.029657564            6 
  225000    1.1844881   -7.3058904    75.489885  0.027959217  0.029635434            2 
  226000    1.1650967   -7.2752505    75.977545  0.028015319  0.029614626            2 
  227000    1.1657333   -7.2710949    76.286426  0.028005296  0.029595292            2 
  228000    1.1760603   -7.2820623    76.580842  0.027990074   0.02957779            3 
  229000    1.1449216    -7.291207    76.936201  0.027997162  0.029560671            1 
  230000    1.1347602   -7.2527578    77.248591   0.02798862  0.029542452            3 
  231000    1.1766677   -7.2571442    77.341604  0.027901012  0.029523077            4 
  232000    1.1526996   -7.3296296    77.409294  0.027805062  0.029501915            2 
  233000    1.1385425   -7.2901762     77.98127  0.027890297  0.029481214            3 
  234000    1.1537896   -7.2485592    78.413467  0.027925024  0.029460323            2 
  235000    1.1556291   -7.2596039    78.350471  0.027783855  0.029439907            2 
  236000    1.1495906   -7.2954034    78.954339  0.027879357  0.029420368            2 
  237000    1.1539347   -7.2787301    79.349995  0.027900842   0.02939946            2 
  238000    1.1560111   -7.3068181    79.743315  0.027921329  0.029380103            3 
  239000    1.1582277   -7.2803203    79.758426  0.027809772  0.029360295            2 
  240000    1.1713358   -7.2799553    80.233306  0.027858787   0.02934064            4 
  241000    1.1477476   -7.3223664    80.428938  0.027810836  0.029319586            1 
  242000    1.1706563   -7.2769112     80.53749  0.027733295  0.029297656            4 
  243000    1.1601463   -7.3793823     80.42884  0.027581907  0.029274966            3 
  244000    1.1394712   -7.2731736    81.025876  0.027672772  0.029251798            3 
  245000    1.1628715   -7.2636139    81.474058  0.027712264  0.029230362            3 
  246000    1.1408726   -7.3264847    81.309636  0.027543914   0.02920851            4 
  247000    1.1668142    -7.312367    81.957332  0.027650922  0.029185456            2 
  248000    1.1492415   -7.3110227    82.067882  0.027576573  0.029162943            5 
  249000    1.1615955   -7.3111821    82.647936  0.027659952  0.029142365            2 
  250000    1.1541203   -7.3064833    82.836205  0.027612068  0.029119746            3 
  251000    1.1578158   -7.2859954    83.155496  0.027608066   0.02909833            2 
  252000    1.1645488   -7.3288013     83.27491  0.027537999  0.029076221            4 
  253000    1.1336587   -7.3123841    83.689431  0.027565689  0.029054691            2 
  254000    1.1594296   -7.3045066    84.239191   0.02763753  0.029034443            1 
  255000    1.1288982   -7.2975043    84.543283  0.027628524  0.029015992            2 
  256000    1.1550969   -7.3081652    84.831337  0.027614367  0.028996714            2 
  257000    1.1349941   -7.3085922    85.403368  0.027692402  0.028978229            4 
  258000      1.17334   -7.3104185    85.510627  0.027619712  0.028958092            3 
  259000    1.1663739   -7.2816745    85.914522  0.027643025   0.02893861            8 
  260000    1.1668826   -7.3070142    85.934926  0.027543246  0.028919045            3 
  261000    1.1723149   -7.2531773     86.65322  0.027667056  0.028900621            5 
  262000    1.1384084    -7.321369    86.649695  0.027560336  0.028882641            4 
  263000    1.1617019   -7.3756137    86.928045   0.02754374  0.028863397            2 
  264000    1.1657961    -7.290816    87.313684  0.027561138  0.028843858            3 
  265000    1.1488038   -7.3489584    87.468347  0.027505769  0.028824608            3 
  266000     1.159425   -7.3174394    87.773553   0.02749798  0.028804811            1 
  267000    1.1197128   -7.2972859    88.488824  0.027618235  0.028787223            2 
  268000    1.1445815   -7.3339828    88.482712  0.027513281  0.028769027            2 
  269000    1.1531414   -7.3104689    88.721111  0.027484855  0.028749689            2 
  270000    1.1495093     -7.30786    89.143897  0.027513548  0.028730824            2 
  271000    1.1275388   -7.3604327    89.041468  0.027380525  0.028711591            3 
  272000    1.1740132   -7.3126588    89.598588  0.027450548  0.028692027            2 
  273000     1.157864   -7.3129872    89.572597  0.027342063  0.028672099            2 
  274000    1.1443954   -7.3570494     89.80967  0.027314377  0.028651372            2 
  275000    1.1470169    -7.359543    90.375534  0.027386526  0.028631324            5 
  276000     1.153322   -7.3397897    90.415116   0.02729925  0.028610476            3 
  277000    1.1537967   -7.3056802    91.036599  0.027387665  0.028590082            2 
  278000    1.1358419   -7.2931634    91.328644  0.027376692  0.028570587            2 
  279000    1.1462065   -7.3223321    91.466296  0.027319682  0.028550806            4 
  280000     1.163409   -7.3527408    91.541206  0.027244406  0.028529888            3 
  281000     1.132857   -7.3204574    91.973104  0.027275535  0.028511181            5 
  282000    1.1504863   -7.3194459    92.452077  0.027320354  0.028492154            3 
  283000    1.1041933   -7.3387332    92.658057  0.027284469  0.028473059            2 
  284000    1.1549618   -7.3114506    93.341857  0.027389042   0.02845477            3 
  285000    1.1194661   -7.3353673    93.338329  0.027291909  0.028437177            2 
  286000    1.1214358   -7.3371298    93.675675  0.027294777  0.028419207            3 
  287000    1.1366056   -7.3303618    93.820363  0.027241685  0.028400136            2 
  288000    1.1233518   -7.3234094    94.250247  0.027271483  0.028382788            4 
  289000    1.1268893    -7.320997    94.638397  0.027289042  0.028365352            2 
  290000    1.1128337   -7.3406306    94.896637  0.027269148  0.028348023            1 
  291000    1.1527088   -7.3546055    94.851051  0.027162386  0.028328947            3 
  292000    1.1291254   -7.3557279    95.299673  0.027197395  0.028309955            1 
  293000    1.1571969   -7.3405992    95.773217  0.027239254  0.028291438            3 
  294000    1.1311881   -7.3421553    95.689195  0.027122788  0.028272825            2 
  295000    1.1169349   -7.3757862    95.966151  0.027109082  0.028255448            2 
  296000    1.1319278   -7.2928767    96.796993  0.027251406  0.028238524            1 
  297000    1.1204554   -7.3538509    96.898303  0.027188076  0.028221672            4 
  298000     1.105678    -7.317062    97.206112  0.027182917  0.028204285            4 
  299000    1.1123055   -7.3441778    97.423426  0.027152571  0.028188858            2 
  300000    1.1345832   -7.3203415    97.599911  0.027111086  0.028171239            3 
  301000    1.1447188   -7.3459318    98.097186  0.027158689  0.028153575            2 
  302000    1.1507354   -7.3378622    97.840164  0.026997838  0.028135279            2 
  303000    1.1486383   -7.3486651    98.173508  0.027000415  0.028115889            3 
  304000    1.1169226   -7.3083428    98.791022  0.027080872  0.028097443           10 
  305000    1.1193661   -7.4008012    98.527342  0.026920039  0.028077956            2 
  306000    1.1254499   -7.3833179    98.797358  0.026905599   0.02805857            4 
  307000    1.1554883   -7.3572293    99.281812   0.02694946  0.028038606            3 
  308000    1.1296459   -7.3669059    99.586807  0.026944482  0.028019204            3 
  309000     1.128059   -7.3727865     99.61364   0.02686452  0.028000193            2 
  310000    1.1219325   -7.3550661    100.04255  0.026893158   0.02798128            2 
  311000    1.1501731   -7.3657272    100.42753  0.026909841  0.027964199            2 
  312000    1.1413039   -7.4102101    100.38254  0.026811577  0.027945645            4 
  313000    1.1025591   -7.3669514    101.27984  0.026964814  0.027926823            4 
  314000    1.1286597   -7.3645909    101.37778  0.026904931  0.027907422            3 
  315000    1.1109413   -7.4033556    101.28993  0.026796278  0.027888209            7 
  316000    1.1348328   -7.3413071    101.96691  0.026890008  0.027868633            3 
  317000    1.1451022   -7.3299412    101.92605   0.02679444   0.02784954            1 
  318000    1.1538513   -7.3502124    102.16924  0.026773909  0.027831094            2 
  319000    1.1255005    -7.341506    102.50199  0.026776904  0.027812347            3 
  320000    1.1379728   -7.3700763     102.9411  0.026807577  0.027793347            2 
  321000    1.1501134    -7.379475     102.9002  0.026713449  0.027773148            2 
  322000    1.1045476   -7.3840597    102.91032  0.026633106  0.027753054            5 
  323000    1.1308699   -7.3977072    103.42064  0.026682312  0.027732062            8 
  324000    1.1444462   -7.4001201    103.63754  0.026655747  0.027712426            2 
  325000    1.1297205   -7.3918897    104.07378  0.026685586  0.027693077            4 
  326000    1.1215168    -7.407446    104.43018  0.026694831  0.027674339            3 
  327000    1.1203277   -7.3998018    104.50663  0.026632678  0.027655728            5 
  328000    1.1401649    -7.402046    104.72177  0.026606141  0.027635444            2 
  329000     1.131754   -7.3927386    104.80336  0.026545938  0.027615735            2 
  330000    1.1279808   -7.3850468    105.23333  0.026574073  0.027596824            5 
  331000    1.1186601   -7.4064797    105.74002  0.026621355  0.027576845            1 
  332000     1.121838   -7.4168693     105.5191  0.026485717  0.027557869            2 
  333000    1.1227719   -7.3544912    105.80599  0.026477975     0.027538            2 
  334000    1.1019154   -7.4165146    105.82676  0.026403883   0.02751795            3 
  335000     1.115075   -7.3678429    106.51177  0.026495465  0.027497781            2 
  336000    1.1419447   -7.3870959    106.68209  0.026458851  0.027477636            2 
  337000    1.1281035   -7.3832957    106.94318  0.026444902  0.027458078            4 
  338000    1.0996773   -7.3489782    107.38244  0.026474961  0.027439654            2 
  339000    1.1409721   -7.3715812     107.5225  0.026431292  0.027420732            2 
  340000    1.1238807   -7.3759472    108.23706  0.026528691  0.027401398            2 
  341000    1.1348587   -7.4038764    108.13954  0.026427063  0.027382759            4 
  342000    1.1072563   -7.4286934    108.25028  0.026376775  0.027363078            3 
  343000    1.1166171   -7.4287906    108.36056  0.026326667   0.02734347            2 
  344000    1.1083729   -7.4112126     108.8393  0.026366109  0.027324001            3 
  345000    1.0907841   -7.3932412    109.52079  0.026454298  0.027304427            1 
  346000     1.093469   -7.4077556    109.47728  0.026367361  0.027284924            2 
  347000    1.1115977   -7.4208857    109.67669  0.026339263  0.027265343            3 
  348000    1.1140683     -7.46793     109.4433  0.026207687   0.02724528            3 
  349000    1.1459997   -7.4138783    110.06621  0.026281329  0.027225874            5 
  350000    1.1050726    -7.432919    109.90402  0.026167623   0.02720573            3 
  351000    1.1375183   -7.4234604    109.94095  0.026101841  0.027184599            2 
  352000    1.1153467   -7.3920081    110.67456  0.026201364  0.027163646            2 
  353000    1.1115376   -7.4179412      110.672  0.026126533   0.02714281            5 
  354000    1.1285729    -7.375673    110.85141  0.026094964  0.027121752            3 
  355000    1.1307466    -7.415687    110.95266  0.026045225  0.027100506            2 
  356000    1.1227176   -7.3704978    111.47944  0.026095375  0.027079329            3 
  357000    1.1162391   -7.3836093    111.37439  0.025997758  0.027057448            4 
  358000    1.0982967   -7.3855603    111.27251  0.025901423   0.02703503            6 
  359000    1.1163675   -7.4173974    111.44801  0.025870011  0.027012257            3 
  360000    1.1050572   -7.4037846    112.36465  0.026010336  0.026989508            3 
  361000     1.104212   -7.4033781    112.21682  0.025904159  0.026967331            3 
  362000    1.1161683   -7.4548681    112.26345  0.025843336  0.026945314            1 
  363000    1.1220266   -7.4046922    112.80802  0.025897158  0.026922204            3 
  364000    1.1140664   -7.4153462    112.82727  0.025830419  0.026899086            5 
  365000    1.1083722    -7.417787    112.84158  0.025762917  0.026876096            4 
  366000    1.1146715   -7.4270757    113.05922   0.02574208  0.026853004            3 
  367000    1.1025682   -7.4570924    113.44268  0.025759011  0.026830256            2 
  368000    1.0899153   -7.4064601    113.75497  0.025759731    0.0268072            2 
  369000    1.1060112    -7.464234    113.46632  0.025624734  0.026784322            9 
  370000    1.1056563   -7.4508371    113.68341  0.025604371   0.02676122            4 
  371000    1.1305968   -7.4573733    114.53933  0.025727613   0.02673753            4 
  372000    1.0906369   -7.3926085    114.80767  0.025718564  0.026714591            2 
  373000    1.1316421   -7.4261252    115.40448   0.02578295  0.026692217            6 
  374000    1.1158482   -7.4600246    114.95537  0.025613942  0.026669622            5 
  375000     1.113738   -7.4484355    114.61505  0.025470011  0.026646606            2 
  376000    1.1047789   -7.4143063    115.43216  0.025583369  0.026623301            1 
  377000    1.1065602   -7.4083213    115.78999  0.025594604  0.026599939            2 
  378000    1.1030645   -7.4911165    115.39002  0.025438718  0.026576106            3 
  379000    1.0935158   -7.4761249    115.53316  0.025403069  0.026551777            2 
  380000     1.096034   -7.4679245    116.07065   0.02545409  0.026527353            6 
  381000    1.1064289   -7.4347802    116.38565   0.02545618  0.026504165            2 
  382000    1.0922663   -7.4495695    116.61462  0.025439489  0.026480331            2 
  383000    1.1173049   -7.4607825    116.88799  0.025432549    0.0264569            3 
  384000    1.1048345   -7.4066751     117.3387  0.025464129  0.026434389            5 
  385000    1.0991248   -7.4538059    117.30468  0.025390622  0.026411005            2 
  386000     1.095473     -7.39893    117.68053  0.025405987  0.026387706            3 
  387000    1.1304095   -7.4049944    117.92006  0.025391917  0.026364825            2 
  388000    1.0895311   -7.4532116    117.66998  0.025272762  0.026341693            2 
  389000    1.0990027   -7.4470414    117.88049   0.02525289  0.026318068            3 
  390000    1.0969658   -7.4484046    118.25717  0.025268627  0.026294114            6 
  391000    1.0770512    -7.486941    118.31627  0.025216597  0.026270904            3 
  392000    1.1290419   -7.4533967    118.89387  0.025275057  0.026247987            4 
  393000    1.0875563   -7.4182103    119.91715  0.025427725   0.02622612            3 
  394000    1.1111904   -7.4403491    119.71492  0.025320415  0.026205043            1 
  395000    1.0961377   -7.4365551    120.00438  0.025317379  0.026183941            3 
  396000    1.0921624   -7.4417207    120.14356  0.025282735  0.026162634            5 
  397000     1.102953   -7.4954257    120.55173  0.025304729  0.026141144            2 
  398000    1.0957967   -7.4557793    120.45152  0.025220167  0.026118878            1 
  399000    1.1110761   -7.4847933    120.42435  0.025151285  0.026096689            2 
  400000    1.1152415   -7.4452228    120.67991  0.025141648  0.026074824            2 
  401000    1.0867514   -7.4808468    120.98973  0.025143336  0.026052845            4 
  402000    1.1065084   -7.4269999    121.69502  0.025226994  0.026031598            1 
  403000    1.1088695    -7.497971    121.54673  0.025133731  0.026010582            4 
  404000     1.070261   -7.4941112     121.9037  0.025145152  0.025989423            7 
  405000    1.0855765   -7.4924272    121.75322  0.025052102  0.025967516            1 
  406000    1.0808849   -7.4867935    122.04993  0.025051298  0.025945405            2 
  407000    1.0747803   -7.4625743    122.29812  0.025040565  0.025922796            2 
  408000    1.0792798   -7.5164524    121.96935   0.02491204  0.025900085            3 
  409000    1.0951486   -7.4966051    122.55038  0.024969516   0.02587697            3 
  410000    1.1003991   -7.4935958    122.63929  0.024926684  0.025853864            2 
  411000     1.106448   -7.5071947    122.40173  0.024817868  0.025831178            1 
  412000    1.0719547   -7.4650473     123.2995  0.024939218  0.025807691            3 
  413000    1.0661084   -7.4849578    122.86129  0.024790413   0.02578436            5 
  414000     1.091703   -7.5178607    123.08708  0.024775982  0.025760866            5 
  415000    1.0874296   -7.4499473    123.57277  0.024813809  0.025737701            2 
  416000    1.0960224   -7.4773502    123.70747  0.024781144  0.025714267            3 
  417000    1.0807495   -7.4456525    124.18749  0.024817644  0.025691222            2 
  418000    1.0766082   -7.4499888    124.33227  0.024787136  0.025668851            2 
  419000    1.1223701   -7.4678413    124.03283  0.024668423  0.025646582            2 
  420000    1.1048576   -7.4615214    124.86022  0.024773854  0.025624316            3 
  421000    1.0884813   -7.5022707    125.16545  0.024775426  0.025601999            4 
  422000    1.1033682   -7.4377943    125.82734  0.024847421  0.025580982            2 
  423000    1.0962514   -7.4772073    125.84111  0.024791393  0.025560468            4 
  424000    1.0745213   -7.5293876    126.34303  0.024831571  0.025539651            2 
  425000    1.1016634   -7.4640688    126.63123  0.024829654  0.025518946            2 
  426000    1.0718021   -7.4891086      126.821  0.024808489  0.025498966            2 
  427000    1.0779941     -7.47949     126.9873  0.024782846  0.025479123            5 
  428000    1.0824754   -7.4936543    127.12018  0.024750814  0.025459593            2 
  429000    1.0979196    -7.478355    127.64096  0.024794282  0.025440166            2 
  430000    1.1018744   -7.4697207    127.66165   0.02474063  0.025420456            5 
  431000    1.0786393   -7.5296245    127.80204  0.024710371  0.025401129            3 
  432000    1.0817598   -7.5488671    127.90736  0.024673488  0.025381731            5 
  433000    1.0913625   -7.4983796     127.9678  0.024628138   0.02536159            2 
  434000    1.0700162   -7.5373387    128.49204  0.024672052  0.025341631            2 
  435000    1.0944816   -7.5080104    128.65989  0.024647489  0.025321921            2 
  436000     1.096577   -7.4955323    128.91137  0.024639024  0.025301973            3 
  437000    1.0882173   -7.5160663    128.97793  0.024595333  0.025282072            5 
  438000    1.0756571   -7.5197422    129.30337  0.024601099  0.025262775            7 
  439000    1.0686495   -7.4841026    129.90438  0.024659147  0.025243289            2 
  440000    1.0784125   -7.5202423     129.4409  0.024515322  0.025222831            3 
  441000    1.1115487   -7.5196501    129.31571  0.024436075  0.025202357            2 
  442000    1.0790707    -7.505098     129.8114  0.024474246  0.025182023            4 
  443000     1.062479   -7.5185457     130.1809  0.024488507  0.025161295            4 
  444000    1.0767106   -7.4770202    130.54168  0.024501067  0.025140821            2 
  445000    1.0487399   -7.4978362    130.84571  0.024502941  0.025120861            3 
  446000    1.0578835   -7.5180497    130.44262  0.024372686  0.025100601            2 
  447000    1.0854161   -7.4977662    131.53858   0.02452248  0.025081033            5 
  448000    1.0866398   -7.5057267     131.0571   0.02437818  0.025061407            7 
  449000    1.0695492   -7.4651154    132.11474  0.024520181  0.025041952            4 
  450000    1.0572501   -7.5256609    131.60154  0.024370656  0.025021946            2 
  451000    1.1039907   -7.5715041    131.73166  0.024340662  0.025001623            5 
  452000    1.0725459   -7.5581376    131.69111  0.024279334  0.024981274            2 
  453000    1.1033055   -7.5240167    132.04273  0.024290422  0.024961074            3 
  454000    1.1005315   -7.5479563    132.51611  0.024323808  0.024941363            2 
  455000    1.1045285   -7.5003204    132.68422  0.024301138  0.024921813            4 
  456000    1.0799344   -7.5473575    132.95963  0.024298178  0.024902282            8 
  457000    1.0779974   -7.5646088    132.85548  0.024226017  0.024882457            2 
  458000    1.0574366   -7.5104003    133.50231  0.024290814  0.024862447            6 
  459000    1.0681815   -7.5463795    133.11917  0.024168332  0.024842292            2 
  460000    1.0628195   -7.5904814    133.04543  0.024102433  0.024821947            3 
  461000    1.0707266   -7.5185447    133.82909   0.02419181  0.024801676            9 
  462000    1.0724617    -7.484541    134.31277   0.02422669  0.024782228            2 
  463000    1.0727183   -7.5379598    134.42435  0.024194448  0.024763201            2 
  464000    1.0811579   -7.5197596    134.79824  0.024209454  0.024744179            4 
  465000    1.0856798   -7.5111006    135.44856  0.024273936  0.024725271            4 
  466000    1.0755357   -7.5229629    135.19805  0.024177047  0.024706141            1 
  467000    1.0556774   -7.5464899    135.42936  0.024166553  0.024687477            4 
  468000    1.0724828   -7.5613972    135.52891   0.02413264  0.024668327            3 
  469000    1.0608606   -7.5058156    135.36624  0.024052281  0.024649158            2 
  470000    1.0698948   -7.5418881    135.66159  0.024053474  0.024629388            4 
  471000    1.0674834    -7.517979    135.82923  0.024032065  0.024609419            2 
  472000    1.0558235   -7.5313079    135.85981  0.023986548  0.024589984            6 
  473000    1.0897035   -7.5556959    136.34633  0.024021552  0.024570386            2 
  474000    1.0594229   -7.5319581    136.57867  0.024011721  0.024551122            2 
  475000    1.0551902   -7.5245154    136.62047  0.023968504  0.024531541            3 
  476000    1.0556464   -7.5731305    136.38485    0.0238769  0.024511886            4 
  477000    1.0713606   -7.5695864    136.91462  0.023919395   0.02449243            1 
  478000    1.0657451   -7.5834195    136.93804  0.023873439  0.024472817            4 
  479000    1.0486784   -7.5092433    137.78492  0.023970932  0.024453327            3 
  480000    1.0830878   -7.5417489    138.01401  0.023960766  0.024434836            3 
  481000    1.0656258    -7.533932    137.71681  0.023859462  0.024415886            5 
  482000    1.0581457   -7.5295532    138.42961  0.023933196  0.024396859            3 
  483000    1.0861022   -7.5325736    138.47825  0.023892038  0.024378071            3 
  484000    1.0685852   -7.5542887    138.23757  0.023801234  0.024358728            3 
  485000    1.0621407   -7.5237347    138.39756  0.023779649   0.02433887            1 
  486000    1.0748997   -7.5844143    138.44895  0.023739532  0.024319278            3 
  487000    1.0538424    -7.550578     138.3316  0.023670706  0.024299121            2 
  488000    1.0790574   -7.4969306    139.33515  0.023793571  0.024279416            3 
  489000    1.0723981   -7.5321812    139.20552  0.023722821  0.024259443            6 
  490000     1.072161   -7.5739713    138.99475  0.023638563  0.024239397            3 
  491000    1.0513954   -7.5612746     139.2077  0.023626561   0.02421969            3 
  492000    1.0604525   -7.5980994    139.39628  0.023610481  0.024199699            3 
  493000    1.0333976   -7.5618375    139.52212  0.023583861  0.024180049            5 
  494000    1.0168747    -7.531577    140.22753  0.023655117  0.024160816            3 
  495000    1.0521766   -7.5620451    140.50253  0.023653625  0.024141413            5 
  496000    1.0812739   -7.4914342    140.76902  0.023650709  0.024122409            1 
  497000    1.0367819    -7.591188    140.75096  0.023600093   0.02410332            4 
  498000    1.0732523   -7.5533641      141.401  0.023661478  0.024084329            4 
  499000    1.0492503   -7.5697322    141.10697  0.023564958  0.024065272            1 
  500000    1.0569512   -7.5903345    140.67608  0.023446014  0.024045966            7 
  501000    1.0821183   -7.5702639    141.70095  0.023569685  0.024026577            3 
  502000    1.0494876   -7.5627837    141.64654  0.023513701  0.024007615            3 
  503000    1.0420496   -7.5537404    141.83612  0.023498364  0.023988824            1 
  504000    1.0418237   -7.5742426    142.21594   0.02351454  0.023969897            2 
  505000    1.0513116   -7.5934741    142.01828   0.02343536  0.023950759            3 
  506000    1.0200917   -7.5719761    142.24077  0.023425687  0.023931485            5 
  507000    1.0564517   -7.5833504     142.7626  0.023465254  0.023912398            3 
  508000    1.0500821   -7.5836646    142.68588  0.023406476  0.023892818            4 
  509000    1.0635017   -7.6211381    142.71382  0.023365065  0.023873872            7 
  510000    1.0786345   -7.5616515    143.42391  0.023435279  0.023855001            4 
  511000    1.0627277   -7.6150872     143.4464  0.023393085   0.02383621            3 
  512000     1.063583   -7.5914168    143.59073  0.023370888   0.02381737            2 
  513000    1.0262041   -7.6290556    143.64718    0.0233345  0.023798636            3 
  514000    1.0685589   -7.6125097    143.49403  0.023264272  0.023779671            5 
  515000    1.0583584   -7.5905802    144.32355  0.023353326  0.023760447            3 
  516000    1.0355213   -7.5795423    144.31573  0.023306804  0.023741747            2 
  517000    1.0493741   -7.5389795    144.79959  0.023339715  0.023723009            3 
  518000    1.0515466   -7.5855538     144.4269  0.023234701  0.023704384            1 
  519000    1.0475898   -7.6063761    144.18921  0.023151768  0.023685599            2 
  520000     1.045844   -7.6135067    144.51613  0.023159636  0.023667164            5 
  521000    1.0347686   -7.5999837    145.02627   0.02319678  0.023648361            3 
  522000    1.0552255     -7.59714    145.66937  0.023255007  0.023630208            2 
  523000    1.0291315   -7.6112525    145.57819  0.023196014  0.023611732            4 
  524000    1.0393524   -7.5802416      145.467  0.023134064   0.02359307            6 
  525000    1.0537382    -7.617934    145.85273  0.023151227    0.0235746            4 
  526000    1.0446147   -7.6042183     145.8313  0.023103818  0.023555812            5 
  527000    1.0319217   -7.6489192    145.51902  0.023010597  0.023536862            3 
  528000    1.0352449   -7.6392909    146.37094  0.023101474  0.023517965            2 
  529000    1.0484118   -7.5965685     146.4513  0.023070464  0.023499549            2 
  530000    1.0505407   -7.6003424     147.1152   0.02313132  0.023481491            6 
  531000    1.0403623   -7.5928723    146.93592  0.023059623  0.023463817            3 
  532000    1.0261737   -7.6186741    147.74709   0.02314334  0.023446097            3 
  533000    1.0401233   -7.5991975    147.95718  0.023132767  0.023428573            2 
  534000    1.0226352   -7.6527775    147.83403   0.02307023  0.023410826            7 
  535000    1.0348021   -7.6716228    147.55491  0.022983631  0.023392997            3 
  536000    1.0257761   -7.6584947    148.21334  0.023043118  0.023375191           14 
  537000    1.0303923   -7.6653226    147.97215   0.02296278  0.023357475            2 
  538000    1.0206833   -7.6797364    148.25614  0.022964087  0.023339681            5 
  539000    1.0430006   -7.6330059    148.58965  0.022973044  0.023321737            1 
  540000    1.0575438   -7.6178889    149.31485  0.023042415   0.02330414            9 
  541000    1.0280521   -7.5841062    149.05659  0.022960042  0.023286605            4 
  542000    1.0506574   -7.6556237    148.86684  0.022888505  0.023269235            4 
  543000    1.0320438   -7.5651017    149.78521  0.022987294  0.023251287            6 
  544000    1.0358905   -7.6006595    149.37744  0.022882574  0.023233667            3 
  545000    1.0187139   -7.5862943    150.02335   0.02293935  0.023216412            5 
  546000    1.0128858   -7.5965074    150.26692  0.022934512  0.023199346            2 
  547000    1.0448337   -7.6299596    150.01398  0.022854049  0.023181958            3 
  548000    1.0371998   -7.6397713     150.5128    0.0228882  0.023164669            3 
  549000    1.0371781   -7.6290637    150.93628  0.022910789  0.023147734            4 
  550000     1.031501   -7.6431413    150.91034  0.022865203  0.023131091            2 
  551000    1.0376395   -7.5856416    151.59104  0.022926654  0.023114461            3 
  552000    1.0283627   -7.6491027    151.73871  0.022907414  0.023098115            4 
  553000    1.0489353   -7.6298657    151.72301  0.022863624  0.023081688            2 
  554000    1.0273643   -7.6459883    151.49045  0.022787372   0.02306543            5 
  555000    1.0229469   -7.6255537    151.72372   0.02278134  0.023048703            2 
  556000    1.0176831    -7.652537    151.61569  0.022724174  0.023031681            4 
  557000    1.0224012   -7.6589241    151.78418  0.022708585  0.023014788            3 
  558000    1.0238572   -7.6316979    151.94883  0.022692477  0.022997462            3 
  559000    1.0264794   -7.6147406    152.77467  0.022774996  0.022980397            2 
  560000    1.0207715   -7.6454481    152.28463  0.022661404  0.022963226            1 
  561000    1.0134484   -7.6651479    152.09448  0.022592763  0.022945848            7 
  562000    1.0448358   -7.6647719    152.19459  0.022567406  0.022928224            3 
  563000    1.0143456   -7.6395079    152.68752  0.022600285  0.022910586            4 
  564000    1.0402259   -7.6184856    153.66646  0.022704855   0.02289318            6 
  565000    1.0137964   -7.5885809     153.4902  0.022638673  0.022876042            3 
  566000    1.0329216   -7.6745755    153.03467  0.022531606   0.02285883            3 
  567000    1.0476948   -7.6720256    153.12057  0.022504493  0.022840957            3 
  568000    1.0535032   -7.6509365    153.29804   0.02249091  0.022822853            2 
  569000    1.0341224   -7.6562498    153.33136  0.022456262  0.022804748            3 
  570000    1.0235401   -7.6450484    153.47807  0.022438314  0.022786797            2 
  571000    1.0371735   -7.6544323    154.12347  0.022493209  0.022769195            2 
  572000    1.0179153   -7.6282219    154.09588  0.022449866  0.022751354            2 
  573000    1.0447804   -7.6701007    154.11864  0.022413996  0.022733553            2 
  574000    1.0221632   -7.6613461    154.28317  0.022398833  0.022715321            7 
  575000    1.0302077   -7.6372623    154.56074  0.022400108  0.022697323            3 
  576000    1.0268973   -7.6453638    154.43598  0.022343168  0.022679777            3 
  577000    1.0078009   -7.6736513     154.1163  0.022258275    0.0226618            5 
  578000    1.0066879   -7.7106713    153.75265  0.022167337  0.022643073            4 
  579000    1.0295134   -7.6493168    154.21236  0.022195216  0.022624001            2 
  580000    1.0187509   -7.6878424    154.41658  0.022186291  0.022605022            1 
  581000    1.0288347   -7.6881682    154.17692  0.022113729  0.022585669            2 
  582000    1.0399887   -7.7105949    154.24177  0.022085018  0.022566442            2 
  583000    1.0276063   -7.6605349    155.13794  0.022175235   0.02254756            4 
  584000    1.0266858   -7.7190141    154.70568  0.022075583  0.022528549            3 
  585000    1.0164773    -7.681286    154.71702  0.022039461  0.022509618            4 
  586000    1.0228816   -7.6941467    154.86007  0.022022194  0.022490881           13 
  587000    1.0121411   -7.6389045     156.0094  0.022147842  0.022472046            2 
  588000    1.0315472   -7.6555072    155.53454  0.022042876  0.022453298            3 
  589000    1.0227404   -7.6679788    155.90896  0.022058427  0.022434841            5 
  590000    1.0213893   -7.6587495    156.27279  0.022072428  0.022416123            8 
  591000    1.0205422   -7.7000474    155.67173  0.021950329  0.022397557            3 
  592000    1.0311877   -7.7108188    156.39474  0.022015025  0.022378725            5 
  593000    1.0070125   -7.6763816      156.583  0.022004356  0.022360137            2 
  594000    1.0095806   -7.7115189    156.49077  0.021954374  0.022341745            4 
  595000    1.0190718   -7.6579752    157.06453  0.021997834  0.022323154            6 
  596000    1.0098169   -7.7047229    156.95037  0.021944962  0.022304867            2 
  597000    1.0280744   -7.6675147    157.47276  0.021981122  0.022286735            6 
  598000    1.0082778   -7.7107153    157.26157  0.021914934  0.022268814           20 
  599000    1.0053573   -7.7059609    158.27316  0.022019082  0.022250984            3 
  600000    1.0182696   -7.7316237    158.07968  0.021955511  0.022233067            5 
  601000    1.0128738   -7.6923639    158.24398   0.02194176  0.022215129            2 
  602000    1.0281803   -7.7157678    158.54596  0.021947114  0.022197271            3 
  603000    1.0187998   -7.7369845    157.87063  0.021817389  0.022179193            6 
  604000     1.025524   -7.7053155    158.53092  0.021872367  0.022161314           15 
  605000    1.0002142   -7.6918405    158.83431  0.021878004    0.0221435            5 
  606000   0.99804546   -7.6276791    159.55727  0.021941318  0.022125795            3 
  607000   0.99619642   -7.6570463    159.34248  0.021875683  0.022108309            4 
  608000    1.0101641   -7.6862877    159.14372  0.021812462  0.022090769            2 
  609000    1.0231503    -7.670344    159.42611  0.021815285  0.022073057            2 
  610000    1.0371396   -7.7262933     159.6647  0.021812117  0.022055311            5 
  611000    1.0148168   -7.6759584    160.00748   0.02182317  0.022037898            4 
  612000   0.99501794   -7.7151776    160.02156  0.021789427  0.022020575            6 
  613000    1.0327186   -7.7126088    159.69645  0.021709687  0.022003035            5 
  614000    0.9778901   -7.7555933     159.7374  0.021679885    0.0219854            2 
  615000    1.0260443   -7.6998078    159.93772  0.021671778  0.021967763            3 
  616000    1.0178502   -7.6825525    160.55766  0.021720462  0.021950173            3 
  617000   0.99863309   -7.6735225     160.6875  0.021702795  0.021932587            9 
  618000    1.0163851   -7.6977041    160.91587  0.021698472   0.02191526            7 
  619000    1.0185065   -7.6888965    160.87116  0.021657399  0.021897577            2 
  620000     1.001043   -7.7122403    161.05897   0.02164771  0.021880161            3 
  621000    1.0119509    -7.711345    161.03047  0.021609027  0.021862901            2 
  622000    1.0083167   -7.6832331    161.36453  0.021619042  0.021845434            4 
  623000    1.0001048   -7.7028487    161.78906  0.021641126  0.021827935            2 
  624000    1.0395325   -7.6957615    161.71382  0.021596396  0.021810486            3 
  625000    1.0001844   -7.6783511    161.65856  0.021554475  0.021793196            2 
  626000    1.0031462   -7.6541537     161.9292   0.02155607  0.021775857            3 
  627000    1.0144405   -7.7144281    161.92422  0.021521029  0.021758383            3 
  628000    1.0286798   -7.7268027    161.81739  0.021472583   0.02174077            5 
  629000    1.0089408   -7.6787548    162.90092  0.021581998  0.021723367            3 
  630000    1.0075179   -7.7256577    162.52989  0.021498663  0.021706082            5 
  631000    1.0059569   -7.7164694    162.84964  0.021506819  0.021688723            4 
  632000   0.98181292   -7.6875094    163.20611  0.021519793  0.021671828            6 
  633000   0.99946764   -7.7234333    162.58449  0.021403962  0.021654655            2 
  634000    0.9869595   -7.7170148    162.69399  0.021384594  0.021637248           11 
  635000    1.0022263   -7.6980582    162.64342   0.02134428  0.021619851            3 
  636000   0.99692037   -7.7112702    163.29297  0.021395829  0.021602575            5 
  637000    1.0020531   -7.7058902    163.62291  0.021405404  0.021585281            4 
  638000   0.98460818   -7.6933433    164.35601  0.021467608  0.021568318            5 
  639000   0.99096957   -7.7507446    163.23961   0.02128842  0.021550808            7 
  640000   0.99610811   -7.7092998    164.15258  0.021374033  0.021533014            4 
  641000   0.98196661   -7.6850049    163.99618  0.021320356  0.021515617            4 
  642000   0.98901709   -7.7814762    163.24695  0.021189895  0.021498025            3 
  643000    1.0345773   -7.7767294    163.56272  0.021197865  0.021480143            3 
  644000    1.0051786   -7.7728233    163.59949  0.021169706  0.021461964            3 
  645000    1.0022635    -7.711023    164.25979  0.021222195   0.02144394            3 
  646000   0.98710314   -7.7339737     164.2625  0.021189693  0.021426327            3 
  647000    0.9836872   -7.7303232    163.94101  0.021115534  0.021408419            3 
  648000    1.0183878   -7.7470621    164.41647  0.021144093  0.021390614            3 
  649000    1.0079263   -7.7530928    164.32079  0.021099229  0.021372683            8 
  650000    1.0172976   -7.7993066    164.60824   0.02110362  0.021354697            6 
  651000   0.99971703   -7.7383373    164.69111  0.021081812  0.021337038            3 
  652000   0.99780583   -7.7594559     165.1751  0.021111337  0.021319311            3 
  653000   0.98713962   -7.7509913    164.94792  0.021050015  0.021301662            3 
  654000   0.99081416   -7.7398067    165.16033  0.021044894  0.021283827            2 
  655000   0.97779551   -7.7454088    165.49422  0.021055244  0.021266193            5 
  656000    1.0126321   -7.7453681    165.84055  0.021067143  0.021248772            4 
  657000    1.0005385   -7.7832402    165.50409  0.020992401  0.021231183            4 
  658000   0.97115723   -7.8064482    165.22597  0.020925275  0.021213411           12 
  659000    1.0070185   -7.7833118     165.0099  0.020866199  0.021195505            5 
  660000    1.0008338   -7.7750119     165.8472  0.020940304  0.021177699            7 
  661000    0.9875664   -7.7534757    165.54136  0.020870065  0.021159915            5 
  662000   0.99264833    -7.792992    165.88595  0.020881917  0.021141821            3 
  663000   0.98635308   -7.7541824    165.93046  0.020856016  0.021123711            8 
  664000   0.99773348   -7.7835307    165.73025  0.020799479  0.021105642            3 
  665000    1.0036108   -7.7639588    165.79499  0.020776314  0.021087312            5 
  666000   0.99435443   -7.7587893    166.10334  0.020783702  0.021069183            2 
  667000   0.98567519   -7.7535046    166.55963  0.020809549  0.021051216            5 
  668000   0.97708045   -7.7831928    165.98873  0.020707177  0.021033222            3 
  669000   0.97026615   -7.7802723    166.87166  0.020786206  0.021015026            3 
  670000   0.97069391   -7.7678599    166.37693  0.020693648  0.020996956            6 
  671000   0.96051336   -7.7804591    166.45839  0.020672925  0.020978601            6 
  672000   0.99485603   -7.7777721    166.80472  0.020685109  0.020960212            3 
  673000     1.005815    -7.769106    167.36023  0.020723159  0.020942083            2 
  674000     1.000801   -7.7207208    167.46445  0.020705298  0.020924078            4 
  675000   0.97045741   -7.8031396    167.08079  0.020627257  0.020905971            4 
  676000   0.98263903   -7.7740609    167.46836  0.020644521  0.020887865            5 
  677000    1.0013942   -7.7741282     167.2831  0.020591223  0.020869551            5 
  678000   0.98899145   -7.8194829    166.80574   0.02050218  0.020851191            4 
  679000    1.0026713    -7.797024    167.34181  0.020537777  0.020832798            6 
  680000   0.99624481   -7.7994083    167.47985  0.020524491  0.020814472            2 
  681000   0.99856689   -7.7692304    168.15753   0.02057728  0.020796548            3 
  682000   0.98586749   -7.7918086    167.98599  0.020526147  0.020778297            2 
  683000    0.9799322   -7.7927846    167.25478  0.020406879  0.020759822            7 
  684000   0.96965603   -7.7576037    167.64145  0.020424154  0.020741505           13 
  685000   0.97455838   -7.7824628    168.30009  0.020474463  0.020723139            9 
  686000    0.9837707    -7.786406    168.12329   0.02042314  0.020704959            4 
  687000    0.9668111   -7.8159409    168.01491  0.020380266  0.020686915            6 
  688000    0.9817824    -7.780468    169.24253  0.020499337  0.020668733            3 
  689000   0.97102029   -7.8332163    168.33157  0.020359407  0.020650666            9 
  690000   0.98217871    -7.804171    168.96994  0.020406998  0.020632852            6 
  691000    1.0047615   -7.7758826    169.70537  0.020466157  0.020615152            3 
  692000   0.97615424   -7.8116395    169.40172  0.020400015  0.020597473            3 
  693000   0.95598599   -7.8167536    169.21201  0.020347764  0.020579776            6 
  694000   0.97594626   -7.8401385    169.18956  0.020315749  0.020561983            9 
  695000   0.98511192   -7.8051063    168.86132   0.02024716  0.020543863            4 
  696000   0.99006631   -7.8269373    169.14198  0.020251673  0.020525772            3 
  697000   0.99117777   -7.8057902    168.95931  0.020200778  0.020507407            2 
  698000   0.99221681   -7.7953361    169.05763  0.020183576  0.020489121            3 
  699000   0.98211903   -7.7957705    169.82217  0.020245848  0.020471014            4 
  700000   0.96751768   -7.7724072    169.95934  0.020233255  0.020452966            5 
  701000   0.96900013   -7.7783436    169.64129  0.020166582  0.020434849            4 
  702000   0.97866954   -7.7599517    170.01356  0.020182046  0.020416941            6 
  703000    0.9663071   -7.8262795    169.83022  0.020131605  0.020398983            5 
  704000   0.97225013   -7.7858107    170.60176  0.020194337  0.020381028            6 
  705000   0.96248309    -7.803682    170.37238  0.020138579  0.020363184            4 
  706000   0.96235042   -7.7756969    170.64901  0.020142707  0.020345199            4 
  707000   0.98384916   -7.8426761    170.08373  0.020047588  0.020327135            3 
  708000   0.96414022    -7.822901    170.69408  0.020091111  0.020308952           17 
  709000   0.94927841   -7.8277411    170.37971  0.020025823  0.020290935            5 
  710000   0.96593613   -7.8051295    170.98278  0.020068401  0.020272975            5 
  711000   0.99139353   -7.7343273    171.77938  0.020133542  0.020255323            3 
  712000   0.97731631   -7.8013888     171.2462   0.02004286  0.020237673            5 
  713000   0.97705586   -7.7943977    171.03174  0.019989684  0.020219977           13 
  714000   0.97807263   -7.8151685    171.18192  0.019979215  0.020201927            9 
  715000   0.96963804   -7.8333574    171.26429  0.019960873  0.020184025           15 
  716000   0.95859326   -7.7979914    171.33739  0.019941502   0.02016599            3 
  717000   0.95825041   -7.8244201    171.27465  0.019906398  0.020148006           10 
  718000   0.95136683   -7.8076178    171.32622  0.019884659  0.020129802            5 
  719000   0.96633917   -7.8046863    171.49843  0.019876963  0.020111578            9 
  720000   0.97113205   -7.8317568    171.65726  0.019867739  0.020093638            4 
  721000   0.96337533   -7.7860169    172.21315  0.019904433  0.020075717            5 
  722000   0.96427304   -7.8285082    171.86239   0.01983638  0.020057916            8 
  723000   0.96987384    -7.874773    172.60518  0.019894557   0.02004007           10 
  724000   0.97595878   -7.8218415    172.24933   0.01982612  0.020022192            5 
  725000   0.95384012   -7.8863068    172.34356  0.019809604  0.020004605           11 
  726000   0.98932674   -7.8290303    172.43437  0.019792743  0.019986979            5 
  727000   0.95506579   -7.8106419    172.96193   0.01982599  0.019969243            5 
  728000   0.94808754   -7.8192094    172.94499  0.019796817   0.01995174            2 
  729000   0.95995806   -7.8104256     173.1255  0.019790294   0.01993436            2 
  730000   0.95790476   -7.8143586    172.86791   0.01973378  0.019916831            7 
  731000     0.966942   -7.8224169    173.06828  0.019729627  0.019899359            2 
  732000    0.9547551   -7.8551349    173.47589  0.019749076  0.019881924            4 
  733000   0.96389816   -7.8622331    172.62772  0.019625707  0.019864369            6 
  734000    0.9597021    -7.842411    173.97364  0.019751776  0.019846708            9 
  735000   0.92455915   -7.8200051    173.68176  0.019691809  0.019829234            4 
  736000   0.95199859   -7.8692242    173.21739  0.019612476  0.019811825            6 
  737000    0.9476974   -7.8456279    173.85738  0.019658229  0.019794294            4 
  738000   0.96495213   -7.8436566    173.95568  0.019642692  0.019776783            7 
  739000   0.93752799    -7.865461    174.19892   0.01964354  0.019759172            7 
  740000    0.9560883   -7.8025304    174.41967  0.019641855  0.019741867            6 
  741000   0.97158776   -7.8651686    174.13804  0.019583675  0.019724591            5 
  742000    0.9346521   -7.8425827    174.43702   0.01959086  0.019707127            4 
  743000   0.94969767   -7.8566816    174.52987  0.019574906  0.019689619            4 
  744000   0.94543812   -7.8248553    174.53209  0.019548845   0.01967243            2 
  745000   0.94336927   -7.8358824    174.66827  0.019537838  0.019655221            2 
  746000   0.94757138   -7.8383143    174.46803  0.019489279  0.019637915            4 
  747000   0.94465563   -7.8551661    174.65518  0.019484067  0.019620432            3 
  748000   0.93606899   -7.8532482    174.34969  0.019423985  0.019602961            8 
  749000    0.9460316   -7.8523052    174.52716  0.019417797  0.019585436            5 
  750000   0.96293723   -7.8321546    175.04905  0.019449894  0.019567977            3 
  751000   0.95914151   -7.8418661    174.91006  0.019408573  0.019550545            4 
  752000   0.97488057   -7.8627016    174.88398  0.019379874  0.019533082           10 
  753000   0.95808655   -7.8684069    175.16486  0.019385222   0.01951562            4 
  754000   0.94840116   -7.8744491    175.12609  0.019355226   0.01949802            5 
  755000   0.95012469   -7.8535833    175.23423  0.019341527  0.019480551            6 
  756000   0.96178834   -7.8764926    175.46094  0.019340933  0.019463015            4 
  757000   0.92822931   -7.8651669    175.12312  0.019278194  0.019445621            8 
  758000    0.9451935   -7.8477259    175.40734  0.019284008  0.019428252            3 
  759000   0.97162424   -7.8568117    176.01877  0.019325732  0.019410942            3 
  760000   0.93599575    -7.894936    175.67282  0.019262371  0.019393691            4 
  761000   0.95320231   -7.8718998    176.01048  0.019274034  0.019376503           13 
  762000   0.93708626   -7.8773363    175.81872  0.019227769  0.019359336            4 
  763000   0.94015402   -7.8574317    175.69235  0.019188767  0.019342278           16 
  764000    0.9234576   -7.9195958    175.44095   0.01913623  0.019325087            7 
  765000   0.94380173   -7.8850221    176.52801  0.019229631  0.019307873            7 
  766000   0.93095481   -7.8873685    176.29797  0.019179501  0.019290595            4 
  767000   0.95245659    -7.866847    176.72959   0.01920139  0.019273451            2 
  768000   0.94543198   -7.8805258    176.46485  0.019147661  0.019256256            4 
  769000   0.95392528   -7.8936201    177.24163  0.019206939  0.019239327            5 
  770000   0.96299165   -7.8857486    177.13579   0.01917054  0.019222473            4 
  771000   0.94414024   -7.8966669    177.23245  0.019156123  0.019205689            5 
  772000   0.95745083   -7.9055258    176.57187  0.019060003  0.019188682           10 
  773000    0.9467969   -7.8602993    177.81653  0.019169526  0.019171768            3 
  774000   0.94091206   -7.8632891    177.14696  0.019072671  0.019154919            4 
  775000   0.94975174   -7.8814408    176.97252  0.019029303  0.019138002            5 
  776000    0.9425098   -7.8654087    177.84536  0.019098514  0.019121134            8 
  777000   0.93085637   -7.8455438    177.87611  0.019077232  0.019104347            4 
  778000   0.91476689   -7.8649812    177.55565  0.019018386    0.0190877            5 
  779000   0.93481229    -7.910147    177.66532  0.019005704  0.019071024            1 
  780000   0.93747366   -7.9386592    177.85127  0.019001204  0.019054363            5 
  781000   0.94990262   -7.9518462     178.0385  0.018996852    0.0190376            4 
  782000   0.93850024   -7.8708476    178.43424  0.019014732  0.019020793            2 
  783000    0.9510946   -7.8661027    178.42174  0.018989117  0.019004198            2 
  784000   0.96503169   -7.8899635     178.3245   0.01895456  0.018987627            4 
  785000   0.92543937   -7.8880373    178.42568  0.018941155  0.018971106            5 
  786000   0.90724494   -7.8874132    179.01365  0.018979395  0.018954802            3 
  787000   0.94817828   -7.9213507    179.14863  0.018969571  0.018938452            5 
  788000   0.93158371   -7.9171777    178.80738   0.01890941  0.018922109            5 
  789000   0.93817701   -7.8715911    179.68239  0.018977862   0.01890589            5 
  790000   0.94711532   -7.8704595    179.54489  0.018939334   0.01888986            4 
  791000   0.94339245   -7.8879231    179.43707  0.018904032   0.01887384           10 
  792000   0.94018711   -7.9110033    179.51171  0.018888017  0.018857585            3 
  793000   0.94615821   -7.8924453    179.28667   0.01884055  0.018841312            4 
  794000   0.95115903   -7.8941512    179.77825  0.018868414  0.018825054            2 
  795000   0.93916641    -7.884601    179.99808  0.018867724  0.018808742            4 
  796000   0.94266715   -7.8637144     179.9579  0.018839814  0.018792501            5 
  797000   0.92459233   -7.9017544    179.93915  0.018814215  0.018776314            4 
  798000   0.93560786   -7.9863351    179.65853  0.018761334  0.018760068            7 
  799000   0.90889173   -7.9525884    179.57012  0.018728631   0.01874367           13 
  800000   0.93096613   -7.9595591    179.80164  0.018729337  0.018727286            2 
  801000   0.93195303   -7.9121979    179.60799  0.018685809   0.01871099            5 
  802000   0.91588419   -7.9456351    180.05652  0.018709114  0.018694784            4 
  803000    0.9125075   -7.9420163    180.39878  0.018721334  0.018678415            7 
  804000   0.95243878   -7.9244713    180.61749  0.018720718  0.018662346            7 
  805000    0.9414999    -7.894302    180.95213  0.018732104  0.018646344            4 
  806000   0.94127862   -7.9065372    181.25589  0.018740269  0.018630481            6 
  807000   0.94634973   -7.9301716    180.80596  0.018670587  0.018614491            8 
  808000   0.94662115   -7.9538348     180.6386  0.018630218   0.01859854            3 
  809000   0.92202744   -7.9671138    181.05708  0.018650296  0.018582704           11 
  810000   0.91037762    -7.941136    181.22126  0.018644163  0.018566865           11 
  811000   0.94428544   -7.9570465     181.1023   0.01860895  0.018550978            4 
  812000   0.91513517   -7.9609517    181.40614  0.018617214  0.018535161            6 
  813000   0.92264619   -7.9163767    181.49642  0.018603569  0.018519442            5 
  814000   0.93512981   -7.9606969    181.60705   0.01859204  0.018503899            3 
  815000   0.91348223   -7.9369835    181.73625  0.018582439  0.018488301            3 
  816000   0.91706829   -7.9238996    182.22062  0.018609132  0.018472665            5 
  817000   0.93993434   -7.9380263    182.04371   0.01856831  0.018457008            8 
  818000    0.9135399   -7.9048887    183.02422  0.018645499  0.018441601            4 
  819000   0.93708835   -7.9743447    182.88591   0.01860866  0.018426391            6 
  820000   0.94323607   -7.9367238    182.67005   0.01856403  0.018411212            4 
  821000   0.92716578   -7.9450976    183.23603  0.018598866  0.018395963            4 
  822000   0.94941272   -7.9585614     182.7679  0.018528781  0.018380882            5 
  823000   0.93319499   -7.9574323    182.44612  0.018473685  0.018365542            6 
  824000   0.91076649   -7.9743256     183.1273  0.018520156   0.01835027            3 
  825000   0.92126159   -7.9162907    183.08779  0.018493716  0.018335132            5 
  826000   0.93211818   -7.9480625     183.5112  0.018514044   0.01832006           22 
  827000   0.92785311   -7.9374999    183.42774  0.018483247   0.01830493            8 
  828000   0.92635317   -7.9491885    183.36391    0.0184545  0.018289958            5 
  829000   0.91828544   -7.9316509     183.4547  0.018441365  0.018274909            7 
  830000   0.93862699   -7.9406914    183.54293  0.018428005  0.018259853            6 
  831000    0.9369552   -7.9252632    184.08194  0.018459881  0.018244782           11 
  832000   0.89360458   -7.9449787     183.8339  0.018412851  0.018229596            6 
  833000   0.92343996   -7.9517126    184.01495  0.018408859  0.018214382            8 
  834000    0.9192008   -7.9071312    184.46272  0.018431526  0.018199189            5 
  835000   0.90559178   -7.9106994    184.87109  0.018450209  0.018184372            4 
  836000   0.89397125   -7.9079789    184.42039  0.018383213  0.018169296            6 
  837000   0.92268302   -7.9469657      184.036  0.018322978  0.018154166            6 
  838000   0.91894719   -7.9672135    184.18233  0.018315665  0.018138927            4 
  839000   0.93275807   -7.9459361    184.39388  0.018314847  0.018123742            3 
  840000    0.9265432   -7.9380771      184.111  0.018264981  0.018108478            6 
  841000   0.91545104   -7.9527142    183.86823  0.018219206  0.018093219            4 
  842000   0.91294827   -7.9459605    184.43832  0.018253991  0.018077964            9 
  843000   0.92555515   -7.9816392    183.88096   0.01817724   0.01806268           12 
  844000   0.90919753   -8.0103172    184.21895  0.018189075  0.018047346            6 
  845000   0.93465105   -7.9736682     184.4857  0.018193856  0.018031997           15 
  846000   0.91996986   -7.9762795    184.58305   0.01818194  0.018016748            7 
  847000   0.91264517   -8.0111395    183.86682  0.018090006  0.018001433            3 
  848000     0.944309   -7.9898014    184.56207  0.018136995  0.017986228           11 
  849000   0.89693015   -7.9571165    184.92814  0.018151565  0.017970984            5 
  850000   0.92150218   -7.9400088    184.94617  0.018131978  0.017956115           12 
  851000   0.90505803   -7.9829809     185.0772  0.018123502  0.017941091            6 
  852000   0.92036986   -7.9798808     185.0537  0.018099932  0.017926055            6 
  853000   0.91144534   -7.9530148    185.49464   0.01812179  0.017911151            4 
  854000   0.88838641   -7.9606237    185.44152  0.018095386   0.01789605            4 
  855000   0.91058467    -7.991496    185.26512  0.018057029  0.017880973            5 
  856000   0.90479207   -7.9543195    184.92387  0.018002713  0.017865798            2 
  857000   0.91454895    -7.995753    185.28913  0.018017224  0.017850573            5 
  858000   0.88975408   -8.0001423     185.2637  0.017993755  0.017835384            7 
  859000    0.9205376   -7.9842754    185.69892  0.018015029  0.017820191           10 
  860000   0.89448059   -8.0057792    185.30869  0.017956268  0.017805021            7 
  861000   0.90848305   -7.9543085    186.09126  0.018011155  0.017789904            4 
  862000   0.90881952    -7.983336    185.07122   0.01789165  0.017774679            3 
  863000   0.90065951   -7.9599422    185.84035  0.017945187  0.017759434            7 
  864000   0.89649127   -7.9810467    185.67081  0.017908065  0.017744358            9 
  865000   0.91926825   -7.9741144    186.24808  0.017942975  0.017729115            4 
  866000    0.8950956    -8.006476    185.50798  0.017851037  0.017713974            7 
  867000   0.90933453   -7.9866614    185.79118  0.017857668   0.01769895           11 
  868000   0.90844172   -7.9450106    186.27269  0.017883323  0.017683877            4 
  869000   0.89105197    -7.981918    186.27019  0.017862503  0.017668804            8 
  870000   0.91851139   -7.9818035    186.14477  0.017829958  0.017653857           10 
  871000   0.89073791   -7.9767406    185.98107  0.017793826  0.017638796           13 
  872000   0.90460719   -7.9968501    185.77222  0.017753462  0.017623878            7 
  873000   0.91054962   -8.0074125    186.68615  0.017820365  0.017608812            5 
  874000   0.91534188   -8.0100782    186.75298  0.017806348  0.017593697            2 
  875000   0.90603125   -8.0050369    186.36383  0.017748936  0.017578643           10 
  876000   0.93059819   -8.0093958    186.88917   0.01777865  0.017563609            5 
  877000   0.88193848   -8.0102729    186.85764  0.017755382  0.017548786            3 
  878000   0.89441825   -7.9903286    187.80515   0.01782509  0.017533964           10 
  879000   0.92031801   -8.0394149     186.7326  0.017703129  0.017519131            2 
  880000   0.91237097   -7.9829533    186.97725  0.017706179  0.017504157            7 
  881000   0.91016931   -8.0350721    187.53091  0.017738452  0.017489323            7 
  882000    0.8888448   -8.0313708    187.23277  0.017690171  0.017474472            4 
  883000   0.88934593   -8.0040947    187.83751   0.01772721  0.017459806            1 
  884000   0.89474666   -8.0110328    187.60711  0.017685436  0.017445185            3 
  885000   0.90780146   -7.9999123    188.08725  0.017710664  0.017430676           10 
  886000   0.89896908   -8.0334412    188.20411  0.017701665  0.017416066            4 
  887000   0.88256252   -8.0429298    187.88122  0.017651374  0.017401569           12 
  888000   0.91331587   -8.0154897    188.08001  0.017650151  0.017387134           10 
  889000   0.91573222   -8.0078354     188.3355  0.017654247   0.01737268            2 
  890000   0.89819603    -8.007787    188.26272  0.017627596   0.01735841            4 
  891000   0.89301281   -8.0109797    188.01349  0.017584502  0.017344083            3 
  892000   0.89710006   -8.0529569    188.58365  0.017618054  0.017329803            5 
  893000   0.87973949   -7.9785997    189.10652  0.017647119  0.017315568           12 
  894000   0.89421153   -7.9718414    188.97382  0.017615009  0.017301481            3 
  895000   0.89793151    -7.987726    189.72999  0.017665735  0.017287333            2 
  896000   0.89247083   -8.0130363    189.55636   0.01762987  0.017273227            4 
  897000   0.90009916   -8.0383041    189.18976  0.017576157  0.017259125            5 
  898000   0.87636453   -8.0525978     189.1248  0.017550556  0.017245026            2 
  899000   0.89305977    -7.997333    189.55358  0.017570781  0.017230867            2 
  900000   0.89120393   -8.0078872    189.57936  0.017553644  0.017216763            6 
  901000   0.88788935   -8.0516779    189.45974  0.017523099  0.017202662            5 
  902000   0.89312493   -8.0153294    190.12707  0.017565324  0.017188586            7 
  903000   0.88764076   -8.0365804    189.00847  0.017442642  0.017174572            3 
  904000   0.88944345   -8.0173462    189.96474  0.017511498  0.017160507           12 
  905000   0.89605771   -8.0051123    189.96248  0.017491941  0.017146485            7 
  906000   0.89521456   -8.0153227    190.11947  0.017487074  0.017132413            7 
  907000    0.8999258   -8.0552263    189.66446  0.017425988  0.017118359            3 
  908000   0.89861989   -8.0235095    189.54345  0.017395691  0.017104411            6 
  909000   0.88138344   -8.0099269    190.48718  0.017463071  0.017090295            6 
  910000   0.91049258    -8.064906    189.80987  0.017381856  0.017076331            4 
  911000   0.90627455    -8.080549    190.46633  0.017422826  0.017062407            3 
  912000   0.88143555   -8.0890211    190.08851  0.017369198  0.017048409            9 
  913000   0.88441946   -8.1104714    190.03929  0.017345681  0.017034374            6 
  914000   0.86478518   -8.0662588    189.95311  0.017318847  0.017020315           20 
  915000   0.91084899   -8.0561249    190.12881  0.017315921  0.017006312            7 
  916000   0.88512575   -8.0437836    190.44359  0.017325654  0.016992274            7 
  917000   0.89982398   -8.0742171    190.40961  0.017303672  0.016978245            4 
  918000   0.86025544   -8.0317128    190.96445   0.01733519  0.016964308            3 
  919000    0.8860724   -8.0378596     190.6314  0.017286127  0.016950208           11 
  920000   0.90525742   -8.0764651    190.02013  0.017211968  0.016936089            3 
  921000   0.89793972   -8.0941095    189.84866  0.017177765  0.016921999            9 
  922000   0.87939023   -8.0558714    190.43012  0.017211688  0.016907747            3 
  923000   0.89024816   -8.0961865    191.11863  0.017255204  0.016893636            9 
  924000   0.87433244   -8.0983101    190.71754  0.017200356  0.016879549            8 
  925000   0.87409574   -8.0802334    190.76909  0.017186404  0.016865338            5 
  926000   0.89361631   -8.0766376    190.22898  0.017119238  0.016851214           10 
  927000    0.8779918   -8.0522958     190.4468  0.017120352  0.016837129            4 
  928000   0.88605939   -8.0746091    190.47676  0.017104594  0.016822944            6 
  929000   0.87836705    -8.061827    190.93724  0.017127488  0.016808804            3 
  930000   0.88682435    -8.101624    190.97453  0.017112413  0.016794697           10 
  931000   0.89133716   -8.0947412    190.72754  0.017071924   0.01678054            8 
  932000   0.88807763   -8.0908181    190.98837  0.017076928  0.016766361            6 
  933000   0.88224869   -8.1014376    190.50891  0.017015801  0.016752169           11 
  934000   0.88884884   -8.1098803    190.32224  0.016980928  0.016737878            5 
  935000   0.88558201    -8.061019    190.75616   0.01700144  0.016723596            6 
  936000    0.8813718   -8.1059462    190.44957  0.016955981   0.01670942            4 
  937000   0.87385371   -8.0672137    191.16863  0.017001835  0.016695169            5 
  938000   0.88086002   -8.1035227    191.17257  0.016984059  0.016680939            7 
  939000   0.88744563   -8.0828566     190.9956  0.016950266  0.016666629            9 
  940000   0.88118118   -8.1055313    191.02481  0.016934823  0.016652293            9 
  941000   0.87142846   -8.0629866    191.09189  0.016922768  0.016638011           10 
  942000   0.86940455   -8.0728501    190.90825  0.016888557  0.016623722           11 
  943000   0.88475586   -8.1318774    190.80469  0.016861496  0.016609407           20 
  944000   0.87981001   -8.0557823    191.47304  0.016902634  0.016595237           24 
  945000   0.87853323   -8.0887446    191.34338  0.016873313   0.01658116           20 
  946000   0.86808641    -8.119105    191.67938  0.016885076  0.016567064           15 
  947000   0.87222808   -8.0840582    191.29948  0.016833816  0.016552939           18 
  948000   0.88312049   -8.1079557    191.58588  0.016841234  0.016538738           10 
  949000   0.89006889   -8.1117892     191.1119  0.016781867  0.016524587           15 
  950000   0.87731303   -8.1303297     191.7401  0.016819307  0.016510328           22 
  951000   0.86396009   -8.1525745    191.30647  0.016763623  0.016496081           20 
  952000   0.88275136   -8.1208199     191.2336  0.016739636  0.016481655           17 
  953000   0.88012811   -8.1134352    191.30324   0.01672816  0.016467302           30 
  954000   0.87575008    -8.084857    191.68421  0.016743903  0.016453032           31 
  955000   0.87209498   -8.0710107    191.35622   0.01669775  0.016438777           11 
  956000   0.85944497   -8.1052738    191.51209  0.016693871  0.016424446            6 
  957000   0.87316238   -8.0962729    191.33216  0.016660759  0.016410149           15 
  958000   0.86665174   -8.0858027    192.06725  0.016707311  0.016395919            6 
  959000   0.86929979   -8.0973097     191.7297  0.016660558  0.016381635            3 
  960000   0.87343017   -8.1267385    191.52941  0.016625817  0.016367266            3 
  961000   0.88664658   -8.1300355    191.19179  0.016579239  0.016352808           16 
  962000   0.87520411   -8.1285164    191.09963  0.016554022  0.016338424            9 
  963000   0.86782465   -8.1144463    191.58773  0.016579069  0.016323969            7 
  964000   0.86416619   -8.1053253    191.93619  0.016591994  0.016309568           18 
  965000   0.86862645   -8.1424566    191.90562   0.01657216  0.016295205            5 
  966000    0.8778194   -8.0998758     192.2084  0.016581125  0.016280884            6 
  967000   0.85945794   -8.0901321    192.15691   0.01655954  0.016266582            6 
  968000   0.87791557   -8.1094501    191.96031  0.016525509  0.016252332           16 
  969000   0.86784212   -8.1166051    192.04667  0.016515882  0.016238035           11 
  970000   0.86115396    -8.102897    192.47672  0.016535801  0.016223727            8 
  971000   0.85608816   -8.1260676    192.38285  0.016510715  0.016209401            5 
  972000   0.86392435   -8.1286114    192.29369  0.016486085  0.016195005           12 
  973000   0.88628348   -8.1301095    192.21074  0.016462037  0.016180615           15 
  974000   0.85769741   -8.1486088    192.40765  0.016461983  0.016166273            7 
  975000   0.85056363    -8.153537    191.87882  0.016399899  0.016151913           12 
  976000   0.85353336   -8.1247264    192.33592  0.016422124  0.016137598           12 
  977000   0.87250361   -8.1377519    192.10345  0.016385487  0.016123377           36 
  978000   0.87144611   -8.1053617    192.51563  0.016403854  0.016109087           15 
  979000   0.87155247   -8.1423957    192.27648  0.016366742  0.016094739           10 
  980000   0.86883733   -8.1182574     192.2209  0.016345314  0.016080367           12 
  981000   0.86002643   -8.1479781      192.365  0.016340894  0.016066125            3 
  982000   0.86046708   -8.1580563    192.11204  0.016302787  0.016051823           25 
  983000   0.86623309    -8.095094    193.07477  0.016367817  0.016037513           20 
  984000    0.8783881   -8.1406725    192.42063  0.016295785  0.016023169            5 
  985000   0.87543822   -8.1383703    192.37689   0.01627554  0.016008868            8 
  986000   0.86581933    -8.119338    192.95506  0.016307899   0.01599458           21 
  987000   0.86924601   -8.1587244    192.14791  0.016223228  0.015980344           13 
  988000   0.84231845   -8.1362151    192.69443  0.016252904   0.01596611            7 
  989000   0.85826197   -8.1385511    192.31843  0.016204789  0.015951764           18 
  990000   0.85124665   -8.1697053    192.58771  0.016211086  0.015937382           16 
  991000   0.85218173   -8.1598927    192.65303  0.016200221  0.015922957           17 
  992000    0.8526942   -8.1690682    192.46311  0.016167936  0.015908528           24 
  993000   0.86009335   -8.1557201    192.92859  0.016190718  0.015894117           16 
  994000   0.84396044   -8.2057568    191.83642  0.016082865  0.015879607           21 
  995000   0.84514221   -8.1953575    192.03797  0.016083582  0.015865023            7 
  996000   0.84292499   -8.2007738    191.85224  0.016051894   0.01585054           12 
  997000   0.86951876   -8.1572122    192.41306   0.01608267  0.015836117           13 
  998000   0.84001463   -8.2167019    192.46975  0.016071288  0.015821696           21 
  999000   0.86217566   -8.1955913    192.73094  0.016076989  0.015807274           15 
 1000000    0.8478935   -8.1526507    192.70197  0.016058498  0.015792874           27 
 1001000   0.83479164   -8.1646097    192.68569  0.016041099  0.015778547           12 
 1002000   0.83981979   -8.1865801    192.82948   0.01603705   0.01576416           21 
 1003000   0.85352312   -8.1589517    192.75518  0.016014887  0.015749681           44 
 1004000   0.83966756   -8.2067301    192.29237  0.015960522  0.015735285           43 
 1005000   0.84833762   -8.1972335    192.87472  0.015992929  0.015720899           54 
 1006000   0.85624891   -8.1543229    192.80617  0.015971353  0.015706403           43 
 1007000   0.85249907   -8.1835884    193.22366  0.015990042  0.015692031           30 
 1008000   0.84262566   -8.1322867    193.67453  0.016011453  0.015677824           13 
 1009000   0.84725873    -8.193406    192.84341  0.015926941  0.015663618           14 
 1010000   0.86783738   -8.2013959    192.99456  0.015923644  0.015649317           41 
 1011000   0.85119071   -8.1680349    193.29514  0.015932669  0.015635046           43 
 1012000   0.84649546   -8.1931571    193.06573  0.015898035  0.015620862           23 
 1013000    0.8443547   -8.1658958    193.24131  0.015896784  0.015606699           35 
 1014000   0.84193405   -8.1808889    192.90866  0.015853769  0.015592539           57 
 1015000   0.83895064   -8.1581001    193.53101  0.015889245  0.015578321           53 
 1016000   0.86058399   -8.1568152    193.30137  0.015854771  0.015564163           28 
 1017000   0.83223837    -8.156967    193.50885  0.015856183  0.015549991           32 
 1018000   0.85392986   -8.1513485    193.56294  0.015845035   0.01553575           48 
 1019000   0.84319331   -8.2223803    193.37105  0.015813792   0.01552149           73 
 1020000   0.84634458   -8.1935806    193.63894  0.015820175  0.015507243           55 
 1021000   0.84432899   -8.1784379    193.49279  0.015792752  0.015492973           45 
 1022000   0.83665554   -8.2018677    193.43719  0.015772765  0.015478704           76 
 1023000   0.85504008    -8.203164    193.23634  0.015740985  0.015464454           66 
 1024000   0.82709648    -8.192328     193.4237  0.015740861  0.015450265           78 
 1025000   0.85485306   -8.2091129    193.29984  0.015715434  0.015436076           74 
 1026000   0.83588602   -8.1902007     193.6922  0.015731985  0.015421876           68 
 1027000   0.85405374   -8.2256701    193.26792  0.015682239  0.015407616           76 
 1028000   0.85073712   -8.2270426    193.58176  0.015692425   0.01539339           72 
 1029000   0.83403751   -8.1696906    193.36126  0.015659318  0.015379138          104 
 1030000   0.84563646   -8.1756372    193.95076  0.015691809  0.015365027           89 
 1031000   0.85368547   -8.2152751    193.58938   0.01564738  0.015350954           95 
 1032000   0.83299677   -8.2255128    193.32451   0.01561083  0.015336876          112 
 1033000   0.84833924   -8.2327415    193.69162  0.015625332  0.015322739           93 
 1034000    0.8188927   -8.2177789    193.73615  0.015613809   0.01530858          137 
 1035000    0.8371564   -8.2527359    193.74626  0.015599538  0.015294485          162 
 1036000   0.83922653   -8.2454131    193.78766   0.01558781   0.01528037          142 
 1037000   0.84644821   -8.2339013     193.9555  0.015586267  0.015266266          194 
 1038000   0.85546114   -8.2309545    194.00471  0.015575201  0.015252224          198 
 1039000   0.84410447   -8.2281637    193.87498  0.015549806  0.015238242          170 
 1040000   0.82071613   -8.1902586    194.50766   0.01558555  0.015224278          146 
 1041000   0.86285237   -8.2298626    194.17436  0.015543897  0.015210322          214 
 1042000   0.83977726   -8.2185831    193.82885  0.015501348  0.015196303          198 
 1043000   0.85042307   -8.2441277    194.00682  0.015500705  0.015182326          224 
 1044000   0.82146725   -8.2186938    193.88648  0.015476252  0.015168292          204 
 1045000   0.82842076   -8.2400573    194.04883  0.015474388  0.015154338          227 
 1046000   0.82052558   -8.2500575    193.69153  0.015431129  0.015140425          215 
 1047000    0.8410443   -8.2803921    193.92266  0.015434787   0.01512638          257 
 1048000   0.83412825   -8.2689613    193.89932  0.015418203  0.015112337          247 
 1049000   0.83418203    -8.306344    193.80042  0.015395648  0.015098224          220 
 1050000   0.84038111   -8.2942681    193.93195  0.015391424  0.015084028          264 
 1051000   0.82441772   -8.2934901    193.13732  0.015313774  0.015069884          281 
 1052000   0.83195096   -8.2860145    193.44509  0.015323597  0.015055721          266 
 1053000   0.83889148   -8.2924946    193.75577  0.015333632  0.015041539          281 
 1054000    0.8244499   -8.2879511    193.18844  0.015274229  0.015027355          283 
 1055000   0.84871445   -8.2660273    194.13283  0.015334347  0.015013244          268 
 1056000    0.8135102   -8.2896553    193.99411  0.015308879  0.014999149          313 
 1057000    0.8348262   -8.2945463    193.96521  0.015292117   0.01498515          324 
 1058000   0.83813246   -8.2949133    193.65367  0.015253124  0.014971068          307 
 1059000   0.81533662   -8.2828366    193.88149  0.015256649  0.014957008          339 
 1060000   0.81654409   -8.2846675    194.07605  0.015257551  0.014942915          333 
 1061000   0.83622908    -8.286026    194.03795  0.015240178  0.014928808          318 
 1062000    0.8365407    -8.278292    194.16119  0.015235498  0.014914741          356 
 1063000   0.82789307   -8.3071222     193.4549  0.015165796  0.014900688          370 
 1064000   0.84930027   -8.3057462    193.75535  0.015175074   0.01488655          353 
 1065000   0.81410039   -8.3104104     193.9516  0.015176182  0.014872413          344 
 1066000   0.82938892   -8.2928691    194.13085  0.015175958  0.014858377          389 
 1067000   0.82509444   -8.2832651    194.31162  0.015175853   0.01484442          369 
 1068000   0.82984292   -8.2764123    194.47211  0.015174166  0.014830518          348 
 1069000   0.82001546   -8.2874421    194.31267  0.015147542  0.014816602          343 
 1070000   0.81842526   -8.2848323     193.8994    0.0151012   0.01480271          351 
 1071000   0.81958597   -8.3233889    194.24231  0.015113781  0.014788861          350 
 1072000   0.82950898   -8.3159318    194.28676  0.015103137  0.014775081          356 
 1073000   0.82942357   -8.3285333    194.54966   0.01510948  0.014761239          397 
 1074000   0.82256055   -8.3048036    194.36355  0.015080971  0.014747363          377 
 1075000   0.81044053   -8.3159017    194.32102  0.015063645  0.014733503          403 
 1076000   0.84048462   -8.3233981    194.86685  0.015091918  0.014719607          445 
 1077000   0.80882957   -8.3368744    194.06439  0.015015815  0.014705711          466 
 1078000    0.8191149   -8.3496111    194.38697  0.015026822  0.014691736          452 
 1079000    0.8179637   -8.3581705    194.32044  0.015007757  0.014677858          509 
 1080000   0.83000893   -8.3440652    194.28478  0.014991109  0.014663957          492 
 1081000   0.80541369   -8.3687205    194.43933  0.014989156  0.014650027          493 
 1082000    0.8095935   -8.3565815    193.82562  0.014928036  0.014636044          511 
 1083000   0.80295399   -8.3442701    194.39162  0.014957804  0.014622057          549 
 1084000    0.8254807   -8.3846834    194.19496  0.014928887  0.014608014          546 
 1085000   0.83194451   -8.3673617    194.23883  0.014918497  0.014593964          565 
 1086000   0.80669654   -8.3665467    194.45506  0.014921352  0.014579905          636 
 1087000   0.81925817   -8.3699176    194.34827  0.014899438  0.014565849          595 
 1088000   0.82530662   -8.3744371    194.32736  0.014884142  0.014551781          598 
 1089000   0.81726993   -8.3987017    194.16003   0.01485767  0.014537757          674 
 1090000   0.83178387   -8.3869822    193.89365  0.014823674  0.014523713          647 
 1091000   0.82768632    -8.409042    193.40281  0.014772595  0.014509612          636 
 1092000   0.81908709   -8.3946596    193.49711  0.014766263  0.014495572          699 
 1093000   0.81412534   -8.4243809    193.50242  0.014753158  0.014481486          698 
 1094000   0.82081483   -8.4107571    193.60329  0.014747356  0.014467333          676 
 1095000   0.80985367   -8.4353968     193.4878  0.014725099  0.014453219          731 
 1096000   0.82046385   -8.4366568    193.40081   0.01470505  0.014439097          705 
 1097000   0.80354086   -8.3987148    193.87401  0.014727591  0.014425006          726 
 1098000   0.83346824   -8.4394299    193.68494  0.014699828  0.014410882          760 
 1099000   0.82291614   -8.4337429    194.05648  0.014714626  0.014396781          751 
 1100000   0.79773976   -8.4458772    193.69364   0.01467376   0.01438265          775 
 1101000   0.81461104   -8.4651017    193.17541  0.014621209  0.014368526          799 
 1102000   0.83660935   -8.4430995    193.31291  0.014618339  0.014354374          815 
 1103000   0.82000224    -8.457602    193.37583  0.014609839  0.014340225          831 
 1104000   0.81139181   -8.4736389    193.11742    0.0145771  0.014326064          851 
 1105000   0.79342013   -8.4534405     193.3417  0.014580822  0.014311835          899 
 1106000    0.8267934   -8.4547719    193.36498  0.014569392  0.014297633          951 
 1107000   0.82625487    -8.474865    193.60192  0.014574068  0.014283442          972 
 1108000   0.82154184   -8.4414624    193.42219  0.014547397  0.014269167          961 
 1109000   0.80956303   -8.4720655      193.326  0.014527051  0.014254995         1011 
 1110000   0.81911203   -8.4798994    193.74593  0.014545491  0.014240774         1022 
 1111000   0.82040929   -8.4581066     193.5637  0.014518729  0.014226529         1036 
 1112000   0.81111255   -8.4893274    192.90548  0.014456346  0.014212284         1089 
 1113000   0.82485163   -8.4922848    193.18058  0.014463955  0.014198038         1017 
 1114000   0.81468358   -8.4859952      193.096  0.014444644  0.014183823         1094 
 1115000   0.81798938   -8.4995166    193.44328  0.014457645  0.014169575         1059 
 1116000   0.80678437   -8.5424835    192.92191  0.014405758  0.014155343         1100 
 1117000   0.82193388   -8.5369635    192.87367  0.014389262   0.01414106         1102 
 1118000   0.83219703   -8.5397266    192.73203  0.014365834   0.01412677         1170 
 1119000   0.79865604   -8.5231056    193.15968  0.014384843  0.014112526         1191 
 1120000   0.79646156   -8.5197263    193.33817  0.014385281  0.014098309         1194 
 1121000   0.81606308   -8.5258976    192.79324  0.014331939  0.014084048         1220 
 1122000   0.78947855   -8.5441059    192.90095  0.014327165   0.01406978         1287 
 1123000   0.81606748   -8.5734279    193.14847  0.014332775   0.01405551         1390 
 1124000   0.80418664    -8.581165    192.96202  0.014306199  0.014041142         1394 
 1125000   0.79241552   -8.5622957    192.98115    0.0142949  0.014026826         1377 
 1126000   0.81361826    -8.573304    192.80066  0.014268847  0.014012481         1406 
 1127000   0.79228058   -8.5814145    192.73786  0.014251542  0.013998088         1540 
 1128000   0.80069472   -8.5841531    192.60222  0.014228887  0.013983692         1510 
 1129000   0.79384784   -8.5999116    192.25348  0.014190543  0.013969276         1602 
 1130000   0.80246322   -8.6122635    192.07035   0.01416448  0.013954896         1683 
 1131000   0.80837208   -8.6206599    192.55671  0.014187792  0.013940525         1709 
 1132000   0.82125823   -8.6286984    192.52462  0.014172896  0.013926081         1723 
 1133000   0.80087992   -8.6103543    192.31282  0.014144809  0.013911658         1732 
 1134000   0.79542894   -8.6486558    192.27037  0.014129216  0.013897228         1743 
 1135000   0.81578155   -8.6533061    192.26237   0.01411618  0.013882792         1815 
 1136000   0.79292161   -8.6712848    191.41935  0.014041913  0.013868303         1917 
 1137000   0.80293675    -8.692466    191.59536  0.014042462  0.013853782         1977 
 1138000   0.80541971   -8.7014644    191.68301  0.014036541  0.013839251         2025 
 1139000   0.79924532   -8.6934889    191.67639  0.014023733  0.013824671         2103 
 1140000   0.79695537   -8.7370741    191.67728  0.014011497  0.013810064         2214 
 1141000   0.79015265    -8.745702    191.79506  0.014007819  0.013795361         2293 
 1142000   0.79756634   -8.7565398    191.23387  0.013954602  0.013780641         2296 
 1143000   0.79069208   -8.7514131    191.24904    0.0139435  0.013765904         2340 
 1144000   0.78807884   -8.7536723    191.04772  0.013916646  0.013751164         2359 
 1145000   0.80441119   -8.7625737    191.20197  0.013915718  0.013736459         2424 
 1146000   0.77756666   -8.8118866     190.7559  0.013871139  0.013721751         2435 
 1147000   0.78891921   -8.8097518    191.15898   0.01388833  0.013707024         2491 
 1148000   0.80620893   -8.8057948     191.1725  0.013877214  0.013692269         2478 
 1149000   0.81225487   -8.8288685    190.29745  0.013801672  0.013677432         2579 
 1150000   0.78165513   -8.8365788    190.36695  0.013794706  0.013662616         2649 
 1151000   0.78270471   -8.8156419    190.92822  0.013823358  0.013647781         2606 
 1152000   0.79919807    -8.857565    190.44519  0.013776417  0.013632936         2746 
 1153000   0.77822595   -8.8494622    190.42447  0.013762971  0.013618088         2761 
 1154000   0.79051229   -8.8700251    190.39796  0.013749131  0.013603223         2752 
 1155000    0.7900318   -8.8771772    190.40819  0.013737965  0.013588359         2899 
 1156000   0.78832402   -8.8769714    190.69594  0.013746824  0.013573466         2865 
 1157000   0.79404179   -8.8761728    190.46723   0.01371847  0.013558599         2872 
 1158000   0.78809346   -8.8897674    190.13288  0.013682562  0.013543767         2921 
 1159000   0.76921157   -8.9149039    189.56785   0.01363013   0.01352884         3047 
 1160000   0.79449403    -8.902654    189.70544  0.013628264    0.0135139         2955 
 1161000   0.79388216   -8.9116096    189.65203  0.013612692  0.013498987         3081 
 1162000   0.78738407    -8.898438    189.89991  0.013618754  0.013484026         3006 
 1163000   0.80223877   -8.9047737    189.67929  0.013591236  0.013469071         3053 
 1164000   0.79896677   -8.9413195    189.55496  0.013570659  0.013454137         3070 
 1165000   0.79150617    -8.915659     189.9751  0.013589063  0.013439196         3092 
 1166000    0.7762267   -8.9283615    189.72584  0.013559594   0.01342428         3146 
 1167000   0.78978085   -8.9529371    189.53366  0.013534252  0.013409346         3135 
 1168000   0.78307726   -8.9813996    189.44938  0.013516651  0.013394391         3210 
 1169000   0.77924614   -8.9813753    189.40073   0.01350162  0.013379411         3252 
 1170000   0.79194522   -9.0011084    189.33682  0.013485529  0.013364393         3328 
 1171000   0.78117681   -8.9775639    189.49003  0.013484916  0.013349377         3309 
 1172000   0.79898064   -8.9698675    189.66407  0.013485784  0.013334378         3312 
 1173000   0.78357399   -8.9640222     189.0438  0.013430222  0.013319375         3336 
 1174000   0.77886071   -8.9910714    188.99837  0.013415557  0.013304395         3398 
 1175000   0.77551766   -8.9925828     189.5523  0.013443426  0.013289434         3343 
 1176000   0.79549398   -8.9951839    189.22843  0.013409044  0.013274487         3415 
 1177000   0.78501419   -9.0135322    189.02244  0.013383067  0.013259518         3393 
 1178000   0.77103598   -9.0196898    189.17025  0.013382163  0.013244534         3396 
 1179000   0.78544485   -9.0035641    188.77368  0.013342782  0.013229567         3451 
 1180000   0.78481581   -9.0303995    189.04437  0.013350591  0.013214609         3459 
 1181000   0.77258531   -9.0363953    189.17121  0.013348237  0.013199644         3476 
 1182000   0.78325592   -9.0209289    188.57328  0.013294789  0.013184685         3452 
 1183000     0.792584   -9.0478963    188.92276  0.013308169  0.013169783         3522 
 1184000   0.77881438   -9.0475776    188.99382   0.01330193  0.013154838         3512 
 1185000   0.76771882   -9.0263703    189.44183   0.01332221   0.01313991         3518 
 1186000   0.77659079   -9.0333644     188.9569  0.013276904   0.01312499         3512 
 1187000   0.79053233   -9.0427218    188.66345  0.013245117  0.013110067         3534 
 1188000    0.7936774   -9.0385178    189.13416  0.013266987  0.013095172         3528 
 1189000   0.77651871   -9.0723536    188.21439  0.013191364  0.013080282         3533 
 1190000    0.7819135   -9.0633589    188.84091  0.013224153  0.013065392         3581 
 1191000   0.77753299   -9.0396382    188.72149  0.013204695  0.013050506         3586 
 1192000   0.77603589   -9.0486888    188.67381  0.013190283  0.013035606         3546 
 1193000   0.76295501   -9.0387601    188.65378  0.013177827  0.013020767         3534 
 1194000    0.7877365   -9.0571004    188.47846  0.013154555  0.013005914         3561 
 1195000   0.76545722   -9.0816822    188.63814  0.013154682  0.012991113         3632 
 1196000   0.76081299   -9.0726461    188.56246   0.01313841  0.012976304         3648 
 1197000   0.78229479   -9.0727731    188.55305  0.013126779  0.012961487         3620 
 1198000   0.78593154   -9.0643301    188.39586  0.013104888  0.012946716         3635 
 1199000   0.77167196   -9.0660031    188.58084  0.013106814  0.012931956         3634 
 1200000   0.76119068   -9.0583078    188.11544  0.013063572  0.012917185         3616 
 1201000   0.77990711   -9.0836445    188.59549  0.013086004  0.012902445         3642 
 1202000   0.76756239   -9.0971753    188.80969  0.013089968  0.012887705         3640 
 1203000   0.78596427   -9.0718607    188.68849  0.013070691  0.012873017         3646 
 1204000    0.7921446   -9.0803047    188.18623  0.013025071  0.012858321         3654 
 1205000   0.77393994   -9.1020382    188.47026  0.013033904  0.012843656         3658 
 1206000   0.77418387   -9.0989416    188.42678  0.013020092  0.012828999         3669 
 1207000   0.77417805   -9.0885847    188.44327  0.013010444  0.012814347         3658 
 1208000   0.76580522   -9.0942209     188.4908  0.013002952  0.012799694         3628 
 1209000   0.79712501   -9.1058074    188.69332  0.013006156  0.012785049         3642 
 1210000   0.75886641   -9.1258211    188.41703  0.012976379  0.012770419         3690 
 1211000   0.77247583   -9.0910305    188.23988  0.012953474  0.012755852         3633 
 1212000   0.77154375   -9.1124822    188.06228  0.012930575  0.012741266         3715 
 1213000   0.76751402   -9.0852438    188.53802  0.012952598  0.012726699         3679 
 1214000   0.78431668   -9.1225781     188.1974  0.012918548  0.012712142         3692 
 1215000   0.76013751   -9.0703545    188.31494  0.012915977  0.012697617         3673 
 1216000   0.75613157   -9.0988476    188.32336  0.012905932  0.012683119         3707 
 1217000   0.77453937   -9.1038582    188.33661  0.012896235  0.012668607         3679 
 1218000   0.79277762   -9.1107191    188.16702  0.012874043  0.012654126         3716 
 1219000   0.76586795   -9.1225313    188.21845  0.012866998  0.012639674         3722 
 1220000   0.75962178   -9.1307822    188.25575  0.012858999  0.012625228         3712 
 1221000   0.77092447    -9.111924    188.42954  0.012860329  0.012610811         3686 
 1222000   0.76152305   -9.1080315     188.2805  0.012839641  0.012596419         3723 
 1223000    0.7708837   -9.1109599    187.97974   0.01280865  0.012582024         3669 
 1224000   0.76044043   -9.1394513    187.98507  0.012798548  0.012567646         3675 
 1225000   0.77885617   -9.1120693    188.27262  0.012807661  0.012553266         3681 
 1226000   0.77530877    -9.111978    188.11676   0.01278662  0.012538922         3660 
 1227000   0.76352596   -9.1316364    188.40974  0.012796097  0.012524591         3668 
 1228000   0.76544027   -9.1050514    188.10058  0.012764697   0.01251027         3680 
 1229000   0.76502083   -9.1325684    188.56589  0.012785862  0.012495984         3715 
 1230000   0.76242483   -9.1316454    187.83525  0.012725965  0.012481714         3712 
 1231000   0.76844099   -9.1520227    187.86415  0.012717584  0.012467445         3727 
 1232000   0.76161133   -9.1539544    188.46234  0.012747723  0.012453227         3718 
 1233000   0.75986888   -9.1115718    188.10263  0.012713073  0.012439018         3682 
 1234000   0.76336074   -9.1137781    188.38482  0.012721827  0.012424808         3714 
 1235000   0.76456666   -9.1432287    188.12274  0.012693842  0.012410607         3707 
 1236000   0.75696406   -9.1041642    188.56024  0.012713069  0.012396419         3724 
 1237000   0.75396659   -9.1309704    187.99263  0.012664553  0.012382246         3733 
 1238000    0.7587939   -9.1620813    187.67895  0.012633209  0.012368091         3729 
 1239000   0.76090471   -9.1390066     188.1088  0.012651924  0.012353936         3708 
 1240000   0.78582131   -9.1422848    188.10353  0.012641366  0.012339815         3704 
 1241000   0.76401509   -9.1696209    187.78078  0.012609507  0.012325711         3730 
 1242000   0.77617875   -9.1586002    188.02665  0.012615852  0.012311621         3715 
 1243000    0.7319611   -9.1555194    188.02725  0.012605742  0.012297538         3752 
 1244000   0.76632629   -9.1603106    187.86182  0.012584527  0.012283479         3721 
 1245000   0.74685184   -9.1794453    187.91362  0.012577886   0.01226943         3713 
 1246000   0.75803073   -9.1520806    188.18204  0.012585744  0.012255392         3711 
 1247000   0.76169809   -9.1719009    188.13619  0.012572587   0.01224137         3750 
 1248000   0.76315364   -9.1522225    188.16988  0.012564763  0.012227372         3708 
 1249000   0.76346227   -9.1793929    188.09159  0.012549479  0.012213379         3747 
 1250000   0.75039087   -9.1629193    188.12499  0.012541666  0.012199409         3733 
 1251000   0.73538949   -9.1773924      188.223   0.01253817  0.012185456         3736 
 1252000    0.7567232   -9.1855336    188.05354  0.012516875  0.012171506         3731 
 1253000    0.7416814    -9.181301    187.78655  0.012489129  0.012157596         3747 
 1254000   0.76963329   -9.1728683    187.64748  0.012469928  0.012143689         3732 
 1255000   0.75762374   -9.1486328    188.28459  0.012502297  0.012129807         3718 
 1256000   0.75549036   -9.1782522    187.62701  0.012448713   0.01211593         3725 
 1257000   0.75176376   -9.1473219    188.24193  0.012479576   0.01210205         3732 
 1258000   0.73755709   -9.1862673    187.69633  0.012433514  0.012088209         3756 
 1259000   0.75923258   -9.1693839    187.88369   0.01243604  0.012074359         3747 
 1260000    0.7544797   -9.1901145    187.39326  0.012393734   0.01206056         3718 
 1261000   0.74869764   -9.1711826    187.90721   0.01241787  0.012046757         3753 
 1262000   0.74503392   -9.1823638    187.75412  0.012397922  0.012032981         3732 
 1263000    0.7609879   -9.1939605    187.60848  0.012378496  0.012019228         3758 
 1264000   0.74838059   -9.1733164    187.98689   0.01239365    0.0120055         3769 
 1265000   0.73424127   -9.1859501    187.78993  0.012370878  0.011991794         3740 
 1266000   0.73674801   -9.1651406     188.1829  0.012386974  0.011978085         3732 
 1267000    0.7479289   -9.1792645    187.69448  0.012345072  0.011964423         3769 
 1268000   0.74161003   -9.1815287     188.1286  0.012363867  0.011950774         3777 
 1269000   0.75686814   -9.1959123    187.64822  0.012322578  0.011937134         3755 
 1270000    0.7487196   -9.1969117    187.99602  0.012335697  0.011923506         3755 
 1271000   0.73513947   -9.1904496    187.61338  0.012300904  0.011909896         3800 
 1272000   0.75803535   -9.1721104    188.00222  0.012316707  0.011896313         3756 
 1273000   0.73740748   -9.1885231    187.34358  0.012263916  0.011882745         3724 
 1274000   0.74363527   -9.1887561    187.58627  0.012270164  0.011869178         3725 
 1275000   0.73454194    -9.190277    187.57319  0.012259686  0.011855624         3760 
 1276000   0.74660803    -9.211049     187.4273   0.01224055  0.011842096         3776 
 1277000   0.74971227   -9.1660868    187.75703  0.012252482  0.011828598         3752 
 1278000   0.74951574   -9.2036789    187.55469  0.012229701  0.011815104         3794 
 1279000   0.74375712   -9.1987681     187.5977  0.012222941  0.011801614         3795 
 1280000   0.74564841   -9.1903876     187.8397  0.012229147  0.011788153         3792 
 1281000   0.75163363   -9.2128397    187.89957  0.012223495  0.011774705         3797 
 1282000   0.74773195   -9.2110391    187.53984  0.012190577  0.011761261         3744 
 1283000    0.7449233   -9.1832516    187.86937  0.012202479  0.011747847         3765 
 1284000   0.74101961   -9.1937797    187.67906  0.012180624  0.011734437         3749 
 1285000   0.74032341   -9.2006406    187.18813  0.012139308  0.011721046         3747 
 1286000   0.74726266   -9.1987463     187.4601  0.012147492  0.011707678         3803 
 1287000   0.73990863   -9.2087511    187.66836  0.012151539  0.011694313         3777 
 1288000   0.74386331   -9.2072845     187.1122  0.012106121  0.011680989         3762 
 1289000   0.74114801   -9.2057684    187.53804  0.012124259  0.011667672         3764 
 1290000   0.72510025   -9.1977367    187.38657  0.012105075  0.011654376         3792 
 1291000   0.74092827   -9.2004676    187.86168  0.012126367  0.011641105         3792 
 1292000    0.7306391   -9.2250029      187.015  0.012062371  0.011627859         3782 
 1293000   0.72147512    -9.225151    187.63591   0.01209306  0.011614623         3746 
 1294000   0.75416522   -9.2328373    187.47639  0.012073441  0.011601387         3754 
 1295000   0.72422847   -9.2110525    187.54667  0.012068641  0.011588175         3743 
 1296000   0.74086136   -9.2398482    187.74155  0.012071859  0.011574974         3737 
 1297000   0.75527074   -9.2337103    187.29706  0.012033992  0.011561797         3776 
 1298000     0.741099   -9.2118741    187.49017  0.012037119  0.011548634         3751 
 1299000   0.73230176   -9.2393443     187.6212  0.012036259  0.011535476         3777 
 1300000   0.72510444   -9.2430568    187.45122  0.012016104  0.011522315         3770 
 1301000   0.74332543   -9.2173791    187.33261  0.011999271  0.011509181         3744 
 1302000   0.72902951   -9.2320573    187.31454  0.011988898  0.011496061         3768 
 1303000   0.71885641   -9.2171044     187.2982  0.011978652   0.01148297         3795 
 1304000   0.73082491   -9.2353209    187.72512  0.011996748  0.011469884         3769 
 1305000   0.73138791   -9.2458872    187.66858  0.011983945  0.011456828         3788 
 1306000   0.73619575   -9.2240698    187.29663  0.011951035  0.011443779         3778 
 1307000   0.72152374   -9.2210008    187.19347  0.011935314  0.011430758         3783 
 1308000   0.74216289   -9.2125374    187.36856  0.011937345  0.011417742         3764 
 1309000   0.74655405   -9.2568648    187.22218  0.011918906  0.011404725         3798 
 1310000   0.73391816   -9.2492086    187.52081  0.011928804  0.011391748         3807 
 1311000   0.74825679   -9.2335714    187.29312  0.011905233  0.011378789         3764 
 1312000   0.71910059   -9.2375327    187.19295  0.011889796   0.01136584         3790 
 1313000   0.71939506   -9.2615597    186.98318  0.011867427  0.011352901         3787 
 1314000   0.70824228   -9.2360466    187.45931  0.011888592  0.011339985         3811 
 1315000   0.71954295   -9.2503286    187.33137  0.011871443  0.011327095         3783 
 1316000   0.72044429    -9.223088    187.37147  0.011864961  0.011314209         3803 
 1317000   0.72240748    -9.261485    187.10685  0.011839208  0.011301337         3811 
 1318000   0.74140686   -9.2425277    187.28894  0.011841739  0.011288504         3812 
 1319000   0.73998296   -9.2292205     187.2069  0.011827578  0.011275675         3774 
 1320000   0.71284423   -9.2366047    187.34146  0.011827112  0.011262874         3777 
 1321000   0.72604137   -9.2522634     187.1927  0.011808775  0.011250073         3803 
 1322000   0.73546365   -9.2457293    187.14612  0.011796906  0.011237275         3808 
 1323000   0.73082086   -9.2551791     187.1304  0.011786999  0.011224492         3795 
 1324000   0.73206482   -9.2309075    187.23748  0.011784836  0.011211735         3810 
 1325000   0.71837459   -9.2656337    187.25027  0.011776746   0.01119901         3815 
 1326000   0.71540003   -9.2701699    187.04372  0.011754885  0.011186292         3818 
 1327000   0.71341929   -9.2477009    187.04776   0.01174628  0.011173595         3820 
 1328000   0.72025575   -9.2922047    186.99387  0.011734053  0.011160908         3830 
 1329000   0.72116999   -9.2702715    187.29084  0.011743845  0.011148232         3816 
 1330000   0.71205416   -9.2531326    186.95517  0.011713983  0.011135575         3809 
 1331000   0.72235865   -9.2559016    187.13776  0.011716614  0.011122935         3840 
 1332000   0.72924974   -9.2773555    186.82081  0.011687989  0.011110311         3812 
 1333000   0.71000168   -9.2683635    187.21894   0.01170411   0.01109773         3836 
 1334000   0.72822192     -9.28209    187.03062  0.011683572  0.011085164         3854 
 1335000   0.71974357    -9.268355     186.8706  0.011664832  0.011072589         3808 
 1336000   0.71941471   -9.2379207    187.39275   0.01168867  0.011060043         3832 
 1337000    0.7237564   -9.2573849    187.24131  0.011670488  0.011047501         3808 
 1338000   0.72641184   -9.2698671    186.75861  0.011631702  0.011034985         3831 
 1339000   0.71688335   -9.2685292    186.91061  0.011632475   0.01102248         3831 
 1340000     0.717428   -9.2827876    186.51984  0.011599493  0.011010004         3819 
 1341000   0.71767738   -9.2655155    187.02191  0.011622043  0.010997539         3845 
 1342000   0.72374583   -9.2682882    186.75831  0.011597014   0.01098507         3808 
 1343000   0.72993616   -9.2805964    187.24796  0.011618762  0.010972641         3824 
 1344000   0.72150291   -9.2613361    187.26845  0.011611387  0.010960216         3811 
 1345000   0.73026051   -9.2873342    187.21927  0.011599707  0.010947811         3842 
 1346000   0.71255459     -9.27706    187.04866  0.011580526  0.010935434         3837 
 1347000    0.7011185    -9.264324    187.15781  0.011578682  0.010923077         3817 
 1348000   0.70279272   -9.2715993    187.09393  0.011566143  0.010910733         3836 
 1349000   0.71865129   -9.2623204    187.12418  0.011559438  0.010898409         3855 
 1350000   0.70779812    -9.286283    186.96711  0.011541179  0.010886086         3836 
 1351000   0.71692644   -9.2740919     186.4072    0.0114981  0.010873795         3823 
 1352000   0.71558926   -9.2652056    187.09745   0.01153214  0.010861513         3834 
 1353000   0.72449345    -9.272791    187.01428  0.011518495  0.010849266         3835 
 1354000   0.71935566   -9.2619341    187.26788  0.011525596   0.01083702         3846 
 1355000   0.72105586   -9.2951686    186.86321  0.011492202  0.010824804         3853 
 1356000   0.70872472   -9.2824288    186.98783  0.011491386  0.010812601         3857 
 1357000   0.73247673   -9.2990611    186.88087  0.011476349  0.010800398         3863 
 1358000   0.69071409   -9.2785428    186.91321  0.011469883  0.010788224         3871 
 1359000   0.70139892    -9.291912    186.73279   0.01145038  0.010776049         3863 
 1360000   0.70459358   -9.2860051    186.80766  0.011446548  0.010763902         3863 
 1361000   0.70362988   -9.3010438    187.12533  0.011457588  0.010751762         3838 
 1362000   0.70111708   -9.2955273    186.92713  0.011437049  0.010739635         3848 
 1363000   0.69334308   -9.2920947    187.00727  0.011433558   0.01072754         3821 
 1364000   0.70404618   -9.3098778     186.8283  0.011414241  0.010715474         3851 
 1365000   0.69963107   -9.2879622    186.83887  0.011406524  0.010703416         3859 
 1366000   0.70180801   -9.3151183    186.60321  0.011383798   0.01069136         3851 
 1367000   0.69470926   -9.2999281    186.89639  0.011393342  0.010679338         3845 
 1368000   0.72447303   -9.2985112    187.37473  0.011414153  0.010667335         3859 
 1369000   0.70879563   -9.2878415    186.82653  0.011372445  0.010655328         3840 
 1370000   0.69949076   -9.2865985    186.71485  0.011357351  0.010643349         3843 
 1371000   0.71787347   -9.2891081    187.12321  0.011373888  0.010631383         3843 
 1372000   0.71367905   -9.2992427    186.89024  0.011351448   0.01061943         3835 
 1373000   0.71104128   -9.3049723    186.78234  0.011336631  0.010607508         3861 
 1374000   0.69355524   -9.3021657    186.90343  0.011335725  0.010595598         3852 
 1375000   0.71685718   -9.3032798    186.59222  0.011308619   0.01058371         3858 
 1376000   0.69389442   -9.3071933    186.93689  0.011321275  0.010571833         3860 
 1377000   0.71297168   -9.3208191    186.95119  0.011313918   0.01055996         3846 
 1378000   0.70140714    -9.298552    186.72423  0.011291983  0.010548112         3852 
 1379000   0.70504712   -9.3179608    186.74737  0.011285193   0.01053628         3858 
 1380000   0.69598588   -9.2772555    186.82295  0.011281579  0.010524465         3847 
 1381000   0.69568018   -9.2956299    186.67965  0.011264763  0.010512677         3848 
 1382000   0.69316591   -9.3099975    186.71192  0.011258558  0.010500886         3852 
 1383000    0.6937172   -9.3044087    186.87339  0.011260147  0.010489118         3826 
 1384000    0.7056732   -9.3000398    186.86274   0.01125137  0.010477368         3837 
 1385000   0.72091001   -9.3083314    186.78979  0.011238856  0.010465624         3836 
 1386000   0.70420105   -9.3133009    187.12838  0.011251105  0.010453894         3866 
 1387000   0.70259634   -9.2842485    186.84667  0.011226067  0.010442184         3863 
 1388000   0.68455058   -9.3058287    186.72698  0.011210794  0.010430493         3860 
 1389000   0.68669642   -9.3124223    186.44984  0.011186096  0.010418818         3869 
 1390000   0.70068996    -9.319892    186.46853  0.011179169  0.010407161         3860 
 1391000   0.68909648   -9.2913212    186.92249  0.011198328  0.010395515         3866 
 1392000     0.693316   -9.3041097    186.45352  0.011162208  0.010383901         3846 
 1393000   0.70299638   -9.3135276    186.96522  0.011184806  0.010372283         3842 
 1394000   0.69689916   -9.3013613    186.49216  0.011148503  0.010360692         3835 
 1395000   0.69628376    -9.326271    186.43575  0.011137141   0.01034912         3834 
 1396000   0.70007553   -9.2944084    186.79176  0.011150416  0.010337558         3850 
 1397000    0.6959668   -9.3251509    186.38202  0.011117992  0.010326005         3849 
 1398000   0.68458612   -9.3105991    186.67981   0.01112779  0.010314476         3868 
 1399000   0.69849946    -9.309858    186.66565  0.011118993  0.010302962         3853 
 1400000   0.70781892   -9.3054109    186.82105  0.011120301  0.010291471         3855 
 1401000   0.68976416   -9.3244031    186.46082  0.011090937  0.010279992         3871 
 1402000   0.68481575   -9.3142809    186.41367  0.011080223   0.01026853         3856 
 1403000   0.68311563    -9.296969    186.80038  0.011095295  0.010257087         3850 
 1404000   0.68235704   -9.3024345    186.54152  0.011072028  0.010245658         3853 
 1405000   0.69791514   -9.2910224    186.98216  0.011090282  0.010234247         3847 
 1406000   0.69444263   -9.3407083    186.72232  0.011066994  0.010222859         3856 
 1407000    0.6923803   -9.3155727    186.62073  0.011053111  0.010211488         3843 
 1408000   0.69593154   -9.2820774    186.59024  0.011043456  0.010200127         3858 
 1409000   0.69603252   -9.3110363    186.57784  0.011034885  0.010188791         3871 
 1410000   0.69183895   -9.3156626    186.58818   0.01102767  0.010177454         3853 
 1411000   0.67211052   -9.3365456    186.77359  0.011030805  0.010166138         3853 
 1412000    0.6767961   -9.3082071    186.31879  0.010996152  0.010154835         3864 
 1413000   0.68103021    -9.331905    186.53039  0.011000849  0.010143541         3869 
 1414000    0.6960438   -9.3278553     186.7098  0.011003642  0.010132273         3812 
 1415000   0.67333369   -9.3323029     186.3908  0.010977079  0.010121023         3822 
 1416000   0.68963771   -9.3069858    186.55439  0.010978954  0.010109782         3808 
 1417000   0.69668561   -9.3180532    186.53401  0.010970007  0.010098565         3816 
 1418000   0.67903812   -9.3465822    186.39488  0.010954095   0.01008737         3827 
 1419000   0.67544569   -9.3320685    186.36939  0.010944879  0.010076188         3849 
 1420000   0.68705394   -9.3216818    186.81536  0.010963343  0.010065008         3852 
 1421000   0.67934683   -9.3212886    186.60868  0.010943507  0.010053849         3850 
 1422000   0.68601432   -9.3272731    186.67005  0.010939407  0.010042711         3857 
 1423000   0.69166088   -9.3217717    186.72989  0.010935224  0.010031592         3839 
 1424000   0.68384966   -9.3116219    186.60588  0.010920288  0.010020481         3840 
 1425000   0.68605565    -9.334649    186.35016   0.01089767  0.010009405         3836 
 1426000   0.67459859   -9.3318647    186.37013  0.010891195 0.0099983296         3862 
 1427000   0.69174629   -9.3433332    186.25953  0.010877104 0.0099872658         3844 
 1428000   0.67531482   -9.3330296    186.51149  0.010884191 0.0099762263         3836 
 1429000   0.69559911   -9.3410452    186.33571  0.010866323 0.0099651899         3823 
 1430000    0.6735633    -9.323752    186.23392  0.010852793 0.0099541726         3833 
 1431000   0.68351107   -9.3453086    186.58757  0.010865803 0.0099431689         3849 
 1432000   0.67341019   -9.3542536    186.32704  0.010843054 0.0099321802         3842 
 1433000   0.65429976   -9.3543007    186.62787  0.010852981 0.0099211953         3839 
 1434000   0.68599445   -9.3180594    186.69705  0.010849433  0.009910238         3853 
 1435000   0.66881988   -9.3371755    186.56598  0.010834261 0.0098992918         3840 
 1436000   0.68873263   -9.3343857    186.37274  0.010815502 0.0098883613         3839 
 1437000   0.68182273   -9.3433092      186.268  0.010801902   0.00987745         3826 
 1438000   0.66995663   -9.3386185    186.28558  0.010795409 0.0098665528         3840 
 1439000    0.6985219   -9.3593193    186.68761  0.010811189 0.0098556643         3844 
 1440000   0.68028383   -9.3367263    186.75884  0.010807803 0.0098447934         3843 
 1441000    0.6795071   -9.3443418    186.41311   0.01078031 0.0098339461         3873 
 1442000   0.68463797   -9.3366401    185.94714  0.010745905 0.0098231034         3849 
 1443000   0.67484719   -9.3440626    186.05672  0.010744787 0.0098122693         3844 
 1444000   0.68048886   -9.3451645    186.19757  0.010745474 0.0098014637         3847 
 1445000    0.6901846   -9.3531777     186.1951  0.010737895 0.0097906745         3855 
 1446000   0.67869929   -9.3679919    186.14512  0.010727589 0.0097798981         3866 
 1447000   0.67454373   -9.3711766    186.52567  0.010742091 0.0097691239         3836 
 1448000   0.66985516   -9.3400135    186.49973   0.01073318 0.0097583705         3855 
 1449000    0.6777119   -9.3524797    186.16567   0.01070656 0.0097476355         3855 
 1450000   0.65480261   -9.3536351    186.42119  0.010713861 0.0097369098         3847 
 1451000   0.66970315   -9.3432854     186.3494  0.010702355 0.0097261956         3837 
 1452000   0.66507251   -9.3348118    186.50434  0.010703876 0.0097154948         3868 
 1453000   0.67388775   -9.3803999    185.92215   0.01066312 0.0097048145         3874 
 1454000   0.68352514   -9.3539026    186.14559  0.010668592 0.0096941461         3845 
 1455000   0.67454773   -9.3691035    186.28299  0.010669129 0.0096835046         3861 
 1456000   0.66763856   -9.3634702    186.05582  0.010648799 0.0096728762         3865 
 1457000   0.68454864   -9.3649609     186.2286  0.010651373 0.0096622602         3844 
 1458000   0.67942957   -9.3532413    186.05011  0.010633866 0.0096516596         3851 
 1459000   0.67423539   -9.3777184      186.476  0.010650902 0.0096410783         3861 
 1460000   0.65920251   -9.3528398    186.39665  0.010639078 0.0096305063         3869 
 1461000   0.66424545   -9.3742361    186.13526  0.010616887 0.0096199389         3842 
 1462000    0.6542439   -9.3630966    186.29583  0.010618778 0.0096093936         3879 
 1463000    0.6788822    -9.338354    186.34333  0.010614225 0.0095988675         3864 
 1464000   0.66975165   -9.3611325    186.16021  0.010596551 0.0095883534         3874 
 1465000   0.67441914   -9.3603188    186.06658  0.010583992 0.0095778457         3867 
 1466000   0.66652464   -9.3705996    186.20812  0.010584818 0.0095673519         3885 
 1467000   0.67981495   -9.3562168    186.14551  0.010574046 0.0095568833         3886 
 1468000   0.66131789   -9.3717297    186.35981  0.010579008 0.0095464227         3877 
 1469000   0.67658138   -9.3874086    186.15433  0.010560151 0.0095359717         3870 
 1470000   0.65797885   -9.3745126    186.18034  0.010554441 0.0095255289         3864 
 1471000   0.67148016   -9.3442704    186.08553  0.010541895 0.0095151154         3869 
 1472000   0.65737718   -9.3649461    186.46807   0.01055639  0.009504716         3881 
 1473000   0.66929021   -9.3978407     186.3264  0.010541208 0.0094943239         3878 
 1474000   0.65475243   -9.3699312     185.9411  0.010512274 0.0094839462         3870 
 1475000     0.664602   -9.3847617    186.41627  0.010531993 0.0094735758         3882 
 1476000   0.66207819    -9.377769    186.33977  0.010520538 0.0094632182         3883 
 1477000   0.66353514   -9.3785445     185.8909  0.010488089 0.0094528796         3879 
 1478000   0.66669148   -9.3764863    185.90426  0.010481747 0.0094425493         3882 
 1479000       0.6481   -9.3985947    185.74802  0.010465857 0.0094322377         3881 
 1480000   0.66201831   -9.3892343    185.95529  0.010470456 0.0094219379         3880 
 1481000   0.65471075   -9.3774401    185.65576  0.010446532 0.0094116566         3892 
 1482000   0.66201344    -9.400669    186.19004  0.010469525 0.0094013866         3891 
 1483000   0.66842075   -9.3994668    185.92988  0.010447847 0.0093911188         3889 
 1484000   0.66257926   -9.3742554    186.15799  0.010453616 0.0093808758         3860 
 1485000   0.66709103   -9.3853433    186.24558  0.010451492 0.0093706437         3873 
 1486000    0.6589446    -9.407427    185.91987  0.010426193 0.0093604219         3868 
 1487000   0.65674083   -9.3665241    186.40091   0.01044614 0.0093502242         3866 
 1488000   0.64035246   -9.3659233    185.85084  0.010408313  0.009340042         3872 
 1489000   0.66521407   -9.3764152    186.01725  0.010410636   0.00932987         3894 
 1490000   0.66188657   -9.4133629    185.66045  0.010383694 0.0093196984         3888 
 1491000   0.66119574   -9.3888236    185.89141  0.010389638 0.0093095439         3870 
 1492000   0.64624745   -9.3777986    185.90793  0.010383598 0.0092994228         3893 
 1493000   0.65654213   -9.4056289    186.04167  0.010384108 0.0092893046         3879 
 1494000   0.66290157    -9.393467    185.78587  0.010362889 0.0092792001         3899 
 1495000   0.65579224   -9.4066635    185.94348  0.010364742 0.0092691116         3881 
 1496000    0.6532988   -9.4112665    185.72896  0.010345865 0.0092590443         3878 
 1497000   0.65934249   -9.3941937    186.18732  0.010364469 0.0092489847         3884 
 1498000   0.65879988   -9.3639552    186.14522  0.010355208 0.0092389437         3881 
 1499000   0.67072952   -9.4020661    185.70613   0.01032389 0.0092289188         3885 
 1500000   0.65154533   -9.3854689    185.74912  0.010319396 0.0092188911         3888 
 1501000   0.65334178    -9.410561     186.0549  0.010329497 0.0092088877         3905 
 1502000   0.66218375   -9.3804143    186.07149   0.01032354 0.0091989041         3911 
 1503000   0.65091643   -9.3839217    186.09085  0.010317745 0.0091889309         3898 
 1504000    0.6604485    -9.403717    185.77566  0.010293421 0.0091789615         3898 
 1505000   0.63067492   -9.4080833    186.01962   0.01030009 0.0091690123         3879 
 1506000   0.65929388   -9.4291648    185.84904  0.010283811 0.0091590868         3877 
 1507000   0.64869247   -9.3975059    185.88252  0.010278839 0.0091491711         3898 
 1508000   0.64983084   -9.4048856    186.06058  0.010281862 0.0091392663         3891 
 1509000   0.65086828   -9.4010707    185.90422  0.010266414 0.0091293698         3893 
 1510000   0.66539581   -9.4092947    185.73238  0.010250132 0.0091194998         3868 
 1511000   0.65630331    -9.425421    185.78498  0.010246248 0.0091096448         3903 
 1512000   0.65403836    -9.415222    185.91557  0.010246669  0.009099796         3884 
 1513000   0.66170598   -9.3982976    185.86474  0.010237097 0.0090899661         3884 
 1514000   0.66265059   -9.4067263    185.82945  0.010228393 0.0090801362         3891 
 1515000   0.65158166   -9.3978566    185.57409  0.010207596 0.0090703277         3878 
 1516000   0.64935259   -9.3838847    186.15446  0.010232765 0.0090605407         3885 
 1517000   0.63310207    -9.403548     185.8552   0.01020958 0.0090507649         3880 
 1518000   0.64364606   -9.4206647    185.52361  0.010184651  0.009040999         3863 
 1519000   0.64655086   -9.3833011    185.66803   0.01018587  0.009031244         3878 
 1520000   0.64200125    -9.388987    185.90107  0.010191944 0.0090215033         3894 
 1521000   0.65221368   -9.3735833    185.81326  0.010180433 0.0090117782         3885 
 1522000   0.63848589   -9.4097315    186.27788  0.010199183 0.0090020593         3898 
 1523000   0.65157568   -9.3926794    185.90232  0.010171937 0.0089923612         3864 
 1524000   0.64621516    -9.411965     185.7996  0.010159646 0.0089826724         3890 
 1525000   0.64613676   -9.4047206    185.54993   0.01013934 0.0089729892         3894 
 1526000    0.6142437   -9.4302075    186.07878  0.010161576  0.008963325         3860 
 1527000   0.63141048   -9.4070131    185.78284  0.010138771 0.0089536715         3874 
 1528000   0.65490542    -9.411525    185.76828  0.010131341 0.0089440403         3879 
 1529000   0.63997426   -9.4154666    185.70494  0.010121263 0.0089344197         3858 
 1530000   0.63274479   -9.4107239    185.77207  0.010118305 0.0089248288         3892 
 1531000   0.63922257   -9.4443835    185.56608  0.010100483 0.0089152398         3888 
 1532000   0.64611169    -9.423882    185.92101  0.010113197 0.0089056669         3870 
 1533000   0.64960485   -9.4216379    185.89938  0.010105424 0.0088961026         3880 
 1534000   0.64704236   -9.4365146    185.84844  0.010096069 0.0088865459         3885 
 1535000   0.63896761   -9.4275941    185.52154  0.010071745 0.0088770132         3862 
 1536000   0.63321868   -9.3966924    185.72939  0.010076464 0.0088674909         3890 
 1537000   0.64105592   -9.4256954    185.86646   0.01007734 0.0088579826         3867 
 1538000   0.63949121   -9.4377043    185.58506  0.010055541 0.0088484914         3887 
 1539000   0.63553677   -9.4225914    186.02024  0.010072571 0.0088390031         3885 
 1540000   0.64202653    -9.391851    185.66777  0.010046957 0.0088295324         3898 
 1541000    0.6340574   -9.3958951    185.88571  0.010052223 0.0088200703         3899 
 1542000   0.64157603   -9.4268621    185.61156  0.010030888 0.0088106263         3890 
 1543000   0.64596688   -9.4354885    185.63228  0.010025507 0.0088011959         3891 
 1544000    0.6467309   -9.4125665    185.70442  0.010022907 0.0087917737         3894 
 1545000   0.65205187   -9.4311397    185.88654  0.010026243  0.008782367         3890 
 1546000    0.6526336   -9.4411644    185.63978  0.010006456 0.0087729792         3894 
 1547000   0.64549799   -9.4246522    186.06169  0.010022716 0.0087636015         3896 
 1548000     0.650438   -9.4297206    185.65151 0.0099941595 0.0087542441         3907 
 1549000   0.64403206   -9.4185887    185.48911 0.0099789707 0.0087449034         3878 
 1550000   0.62922098   -9.4370556    185.57428 0.0099771117 0.0087355686         3898 
 1551000    0.6363974     -9.42083    185.66052 0.0099753128 0.0087262404         3903 
 1552000    0.6352332   -9.4283645    185.37079 0.0099533287 0.0087169294         3902 
 1553000   0.64173991   -9.4044221    185.54671  0.009956359 0.0087076238         3913 
 1554000   0.62446706   -9.4425845    185.52206 0.0099486303  0.008698337         3893 
 1555000   0.62606178   -9.4140215    185.70208 0.0099518798 0.0086890625         3876 
 1556000   0.61912953   -9.4299189     185.6321 0.0099417364 0.0086797905         3865 
 1557000    0.6445442   -9.4395284    185.31517 0.0099183884 0.0086705394         3901 
 1558000   0.63033637   -9.4460862    185.90383  0.009943508 0.0086613109         3900 
 1559000   0.64113257   -9.4431833    185.66418 0.0099243201  0.008652086         3874 
 1560000   0.63185166   -9.4356188    185.64303 0.0099168286  0.008642877         3867 
 1561000   0.62848712   -9.4296513    185.68288 0.0099126033 0.0086336786         3879 
 1562000   0.62413322   -9.4447928    185.37111 0.0098896238 0.0086244799         3881 
 1563000   0.63657819   -9.4541022    185.43374 0.0098866359 0.0086153098         3883 
 1564000   0.62571425   -9.4514398    185.64969 0.0098918209  0.008606157         3869 
 1565000   0.62790712   -9.4273725     185.5569  0.009880559 0.0085970193         3878 
 1566000   0.62774889    -9.440796    185.71431 0.0098826259 0.0085878896         3884 
 1567000    0.6281283   -9.4460914    185.67584 0.0098742735 0.0085787736         3887 
 1568000   0.63087103   -9.4173652    185.62989  0.009865534 0.0085696589         3895 
 1569000   0.62717429   -9.4365871    185.42312 0.0098482641 0.0085605571         3897 
 1570000   0.64452726   -9.4560911    185.65038 0.0098540539 0.0085514747         3906 
 1571000   0.62407339   -9.4369086    185.55239 0.0098425837 0.0085424068         3891 
 1572000    0.6437062   -9.4420159    185.82389 0.0098507152 0.0085333416         3872 
 1573000   0.63254096   -9.4356051    185.35614 0.0098196726 0.0085242971         3894 
 1574000   0.63140456   -9.4536072    185.48674 0.0098203486 0.0085152725         3910 
 1575000   0.61530845   -9.4306078    185.83131 0.0098323447 0.0085062499         3893 
 1576000   0.63617954   -9.4373212    185.73679 0.0098211078 0.0084972463         3883 
 1577000   0.63943778   -9.4434035     185.8231 0.0098194411 0.0084882598         3872 
 1578000   0.62384164   -9.4460775     185.3624  0.009788889  0.008479274         3909 
 1579000    0.6141515   -9.4651368    185.36015 0.0097825709 0.0084703044         3900 
 1580000   0.62951088   -9.4362094    185.38964 0.0097779343  0.008461349         3878 
 1581000   0.63129478    -9.448001    185.48407 0.0097767273 0.0084524063         3896 
 1582000   0.63352457   -9.4545586    185.57376 0.0097752716 0.0084434764         3876 
 1583000   0.61256346   -9.4645465    185.54556 0.0097676123 0.0084345534         3887 
 1584000   0.62396032   -9.4674376    185.32206 0.0097496876 0.0084256433         3890 
 1585000   0.61311788   -9.4604916    185.21834 0.0097380829 0.0084167439         3897 
 1586000   0.62065631   -9.4582276    185.14646 0.0097281661 0.0084078513         3891 
 1587000   0.61143908   -9.4507868    185.54535 0.0097429821 0.0083989691         3882 
 1588000   0.60554197   -9.4422901    185.41571 0.0097300438 0.0083901173         3908 
 1589000   0.62978923   -9.4572514    185.02797 0.0097035854 0.0083812676         3898 
 1590000   0.60883884   -9.4740091    185.48135 0.0097212445 0.0083724364         3912 
 1591000   0.61153992   -9.4620544    185.18279 0.0096994968 0.0083636069         3885 
 1592000   0.60965603     -9.45114    185.34826 0.0097020653 0.0083547977         3899 
 1593000   0.61207865   -9.4711076    185.06146  0.009680972 0.0083459958         3906 
 1594000   0.61738299   -9.4583633    185.33721 0.0096893147 0.0083372129         3898 
 1595000    0.6152229   -9.4771439    185.53745 0.0096937017 0.0083284375         3911 
 1596000   0.61156677    -9.462677    185.07852 0.0096636654 0.0083196745         3899 
 1597000   0.61677788   -9.4785785    185.23107 0.0096655747 0.0083109162         3895 
 1598000   0.62354763   -9.4544269    185.23186 0.0096595672 0.0083021762         3901 
 1599000   0.60364118   -9.4535606    185.44838 0.0096648104 0.0082934484         3898 
 1600000    0.6045386   -9.4769514    185.27013 0.0096494861 0.0082847297         3907 
 1601000   0.61437967   -9.4628089     185.6255 0.0096619561 0.0082760178         3891 
 1602000   0.60740796   -9.4618735    185.29641 0.0096388059 0.0082673218         3884 
 1603000    0.6214629   -9.4349654    185.54774  0.009645859 0.0082586489         3903 
 1604000   0.59964611   -9.4791587    185.30676 0.0096273255 0.0082499814         3894 
 1605000   0.61161618   -9.4609643    185.11508 0.0096113748 0.0082413235         3897 
 1606000   0.61305618   -9.4761638    185.09437 0.0096043156 0.0082326908         3871 
 1607000   0.62371107   -9.4728786    185.22292 0.0096050054 0.0082240602         3901 
 1608000   0.61362387   -9.4885586    185.52365 0.0096146171 0.0082154499         3909 
 1609000   0.62238265   -9.4580624      185.263 0.0095951419 0.0082068404         3892 
 1610000   0.62003321   -9.4634941    185.35267 0.0095938234 0.0081982409         3897 
 1611000   0.60992372   -9.4608129    185.25529 0.0095828308 0.0081896663         3892 
 1612000   0.61818037   -9.4697556    185.67101 0.0095983771 0.0081811026         3902 
 1613000   0.62004224   -9.4860868    185.49079  0.009583116 0.0081725525         3877 
 1614000   0.60388352   -9.4707462     185.0986 0.0095569288 0.0081640107         3923 
 1615000   0.61028236   -9.4850085    185.18326 0.0095553798 0.0081554831         3891 
 1616000   0.60518725   -9.4549273    185.48984 0.0095652764 0.0081469601         3910 
 1617000   0.59742709   -9.4831589    185.50538 0.0095601618 0.0081384466         3904 
 1618000   0.60230753   -9.4641613    185.27695 0.0095424882  0.008129951         3906 
 1619000   0.60867321   -9.4721011     185.0058 0.0095226377 0.0081214628         3888 
 1620000   0.60715853   -9.4646927     185.5405 0.0095442645 0.0081129928         3903 
 1621000   0.61397789   -9.4623508    185.23427 0.0095226339 0.0081045259         3882 
 1622000    0.6047046    -9.471583    185.34885 0.0095226494 0.0080960698         3903 
 1623000   0.61500166   -9.4594803    185.52534 0.0095258443 0.0080876301         3908 
 1624000   0.59185822   -9.4747651    185.14419   0.00950042 0.0080792091         3898 
 1625000   0.60760778   -9.4712978    185.20581 0.0094977337 0.0080707932         3890 
 1626000   0.61454781    -9.487133    185.14912 0.0094889875 0.0080623887         3892 
 1627000   0.59689337   -9.4772022    184.99817 0.0094754237 0.0080539863         3891 
 1628000   0.58849946   -9.4778349    185.26307  0.009483163 0.0080456032         3891 
 1629000   0.59584742   -9.4683548    184.98536 0.0094631351 0.0080372284         3887 
 1630000   0.58926825   -9.4795692    185.36159 0.0094765638 0.0080288696         3900 
 1631000   0.59998299   -9.4812284    185.00073  0.009452316 0.0080205152         3904 
 1632000   0.60500136   -9.4868358    185.24516 0.0094590054 0.0080121722         3901 
 1633000   0.60230064    -9.501997    185.15551 0.0094486381 0.0080038356         3903 
 1634000   0.59942791   -9.4847194    185.16956  0.009443572  0.007995511         3873 
 1635000   0.60340831   -9.4916848    185.04719 0.0094315594 0.0079871977         3895 
 1636000    0.5992845   -9.4863591    184.92013 0.0094193219 0.0079788983         3907 
 1637000   0.59649711   -9.4893177    185.16162 0.0094258613 0.0079706134         3902 
 1638000   0.60088076   -9.4750815    185.08642 0.0094162812 0.0079623411         3898 
 1639000   0.60846644   -9.4844534    184.89268 0.0094006851 0.0079540724         3919 
 1640000   0.58462566    -9.491933    185.31661 0.0094164943 0.0079458187         3903 
 1641000   0.60555669   -9.4892155    185.08234 0.0093988595 0.0079375806         3898 
 1642000   0.60330013   -9.4914799    184.73552 0.0093755338 0.0079293506         3895 
 1643000   0.58296047   -9.5029888    185.11779 0.0093892162 0.0079211319         3903 
 1644000   0.60481865    -9.481397    184.84178 0.0093695143 0.0079129147         3901 
 1645000    0.5933097   -9.4997133    185.16768 0.0093803284 0.0079047152         3897 
 1646000    0.5961708   -9.5210827    184.95929 0.0093640789 0.0078965325         3904 
 1647000   0.60276715   -9.5150908     185.1358 0.0093673246 0.0078883593         3913 
 1648000    0.5996144    -9.494417    185.10034 0.0093598475 0.0078801907         3890 
 1649000   0.58755909   -9.4964587    185.16699 0.0093575392 0.0078720392         3910 
 1650000   0.58336926   -9.5044197    184.92092 0.0093394406 0.0078639017         3917 
 1651000   0.59844319   -9.5025784    184.88986  0.009332216 0.0078557721         3900 
 1652000   0.58296086   -9.4905504    184.98826 0.0093315306 0.0078476498         3919 
 1653000   0.58497049   -9.4797835    184.78232 0.0093155031 0.0078395398         3904 
 1654000   0.59840666   -9.4869362    185.06865  0.009324297 0.0078314394         3892 
 1655000   0.60167471   -9.5007124    184.79184 0.0093047249 0.0078233596         3900 
 1656000   0.58466803   -9.4905078    184.79277 0.0092991533 0.0078152925         3901 
 1657000   0.57475627   -9.5133968    184.80197 0.0092940038 0.0078072311         3897 
 1658000   0.59672671   -9.5232806    185.05363  0.009301047   0.00779917         3913 
 1659000     0.592579   -9.4939175    185.28227 0.0093069255 0.0077911342         3889 
 1660000   0.58819534   -9.5082467    184.98207 0.0092862484 0.0077831087         3926 
 1661000    0.5861954   -9.4826657    184.99418 0.0092812651 0.0077750999         3894 
 1662000   0.59627282   -9.5179143    184.61187 0.0092565119 0.0077670971         3890 
 1663000   0.59712161   -9.4999362    184.73549 0.0092571401 0.0077590984         3911 
 1664000   0.59770322   -9.5015814    185.05985 0.0092678209  0.007751109         3904 
 1665000    0.5778291   -9.5077483    184.81925 0.0092502127 0.0077431356         3909 
 1666000   0.58856669    -9.504179    185.23921 0.0092656666 0.0077351719         3887 
 1667000   0.58819854   -9.5090793    184.84035 0.0092401693 0.0077272157         3904 
 1668000   0.59869133   -9.5139925    185.03005 0.0092441072 0.0077192664         3896 
 1669000   0.58490764   -9.5162116    185.13084 0.0092436012 0.0077113267         3903 
 1670000   0.59131085   -9.5257923    184.67588 0.0092153631    0.0077034         3913 
 1671000   0.59892442   -9.5249815     185.2038 0.0092361761  0.007695489         3912 
 1672000   0.58462251   -9.5193175    184.96308 0.0092186541  0.007687591         3900 
 1673000   0.58830848   -9.5081707    184.73662 0.0092018638 0.0076797041         3882 
 1674000   0.57459374   -9.5279596    184.76259 0.0091976597 0.0076718248         3901 
 1675000   0.58785522   -9.5156833    184.92399 0.0092001984 0.0076639565         3901 
 1676000   0.59189155   -9.5279474    184.86037 0.0091915456 0.0076560956         3896 
 1677000     0.587685   -9.5220335    184.80294 0.0091832109 0.0076482499         3910 
 1678000   0.58878525   -9.5208487    185.00039 0.0091875441  0.007640412         3906 
 1679000      0.59137   -9.5190917    185.18185 0.0091910787 0.0076325914         3914 
 1680000   0.58056788   -9.5100195    185.03811 0.0091784775 0.0076247834         3893 
 1681000   0.59002542   -9.5021852    185.22954 0.0091825073 0.0076169882         3894 
 1682000   0.57464942   -9.5366644    184.73936 0.0091527623 0.0076092002         3909 
 1683000   0.57329653   -9.5343119    184.80281 0.0091504658 0.0076014195         3882 
 1684000   0.58332269   -9.5035925    184.97139 0.0091533743 0.0075936486         3909 
 1685000   0.59725495   -9.5332981    184.72882 0.0091359454 0.0075858868         3898 
 1686000   0.58530644   -9.5268351    184.75587 0.0091318636 0.0075781405         3901 
 1687000   0.58346659   -9.5270604    184.70699 0.0091240361 0.0075703991         3892 
 1688000   0.58118099   -9.5524856    185.24177  0.009145032 0.0075626731         3895 
 1689000   0.57910927   -9.5338705    184.69642 0.0091127106 0.0075549557         3904 
 1690000    0.5744347   -9.5303092    185.50441 0.0091471601 0.0075472569         3918 
 1691000   0.58513312   -9.5299613    185.09946  0.009121795   0.00753956         3895 
 1692000   0.58194051   -9.5278611    184.68873 0.0090961746 0.0075318777         3909 
 1693000   0.58335262   -9.5352483    184.79772 0.0090961664 0.0075241994         3891 
 1694000   0.57245755    -9.524658    184.80933 0.0090913682 0.0075165405         3922 
 1695000   0.57357446   -9.5252295    184.99294 0.0090950316 0.0075088864         3915 
 1696000   0.58091464   -9.5062226    184.92283 0.0090862239  0.007501244         3895 
 1697000   0.58239911   -9.5097294    184.87503 0.0090785224 0.0074936159         3908 
 1698000   0.57291561   -9.5301283    184.97508  0.009078086  0.007485996         3886 
 1699000   0.57650927   -9.5442899    184.71547 0.0090600091 0.0074783832         3894 
 1700000   0.56321081   -9.5095144    184.56323 0.0090472171 0.0074707795         3887 
 1701000   0.58175626   -9.5388441    184.92667 0.0090597036 0.0074631901         3919 
 1702000   0.56923824     -9.54111    184.44065 0.0090305842 0.0074556071         3905 
 1703000   0.58200943   -9.5380567    184.61523 0.0090338239 0.0074480366         3885 
 1704000    0.5632887   -9.5457178    184.67741 0.0090315633 0.0074404809         3911 
 1705000   0.55939957   -9.5317482    184.70445 0.0090275878 0.0074329289         3902 
 1706000   0.57304583   -9.5320185    184.66836 0.0090205333  0.007425385         3910 
 1707000   0.57203971   -9.5405141    184.79415 0.0090213901 0.0074178504         3908 
 1708000   0.56621564   -9.5197842    184.66062 0.0090095929 0.0074103302         3910 
 1709000   0.56785853   -9.5383787    184.70198  0.009006338 0.0074028221         3886 
 1710000   0.55529246   -9.5289233    184.65833  0.008998944 0.0073953244         3917 
 1711000   0.58218925    -9.553813    184.60447 0.0089910613 0.0073878388         3904 
 1712000    0.5753865   -9.5283494    184.63412 0.0089872526 0.0073803531         3894 
 1713000   0.58462104   -9.5478852    184.36692 0.0089690074 0.0073728771         3895 
 1714000    0.5684164    -9.539975     184.6789  0.008978943 0.0073654167         3910 
 1715000    0.5665794   -9.5488996    184.81047 0.0089801007  0.007357963         3910 
 1716000   0.56283209   -9.5499103    184.64859 0.0089670061 0.0073505237         3899 
 1717000   0.56088961   -9.5324499    184.64681  0.008961697 0.0073430947         3908 
 1718000   0.56450992   -9.5220738    184.69941 0.0089590325 0.0073356676         3910 
 1719000   0.56692305    -9.545627    184.40729 0.0089396593 0.0073282576         3900 
 1720000   0.56822496   -9.5439915    184.58695 0.0089431663 0.0073208561         3893 
 1721000   0.55390735    -9.538137    184.69241  0.008943076 0.0073134642         3905 
 1722000   0.57616985   -9.5370579    184.91109 0.0089484655 0.0073060904         3920 
 1723000   0.55385776   -9.5371679    184.42662 0.0089198403 0.0072987211         3911 
 1724000   0.56684014    -9.535493    184.45971 0.0089162659  0.007291359         3919 
 1725000     0.576812   -9.5717053    184.41103 0.0089087453 0.0072840085         3909 
 1726000   0.57820099   -9.5634575    184.39849 0.0089029785 0.0072766647         3909 
 1727000   0.56253059   -9.5662623    184.72583 0.0089136187 0.0072693329         3925 
 1728000   0.57294201   -9.5658819    184.38648 0.0088920949 0.0072620133         3916 
 1729000   0.57074023   -9.5345389    184.82429 0.0089080533 0.0072547054         3929 
 1730000    0.5625252   -9.5554097    184.45604 0.0088851655 0.0072474031         3903 
 1731000   0.56928354   -9.5695206    184.94467 0.0089035561 0.0072401135         3892 
 1732000   0.55031641   -9.5622825    184.77129 0.0088900734 0.0072328343         3908 
 1733000   0.56657639   -9.5552427    184.29678 0.0088621263 0.0072255607         3921 
 1734000   0.56674183   -9.5619948    184.47949 0.0088657962 0.0072183006         3903 
 1735000    0.5643772   -9.5637004    184.54503 0.0088638342 0.0072110483         3910 
 1736000   0.56503952   -9.5627479    184.63401 0.0088629997 0.0072038036         3898 
 1737000   0.56367252   -9.5550529    184.15237 0.0088347901 0.0071965666         3899 
 1738000   0.55225982   -9.5582626    184.69095 0.0088555306 0.0071893484         3906 
 1739000   0.55124409   -9.5715352    184.45236 0.0088390053 0.0071821391         3904 
 1740000   0.56779253   -9.5573685    184.73004  0.008847224 0.0071749354         3903 
 1741000   0.56501403   -9.5485738    184.64399 0.0088380238 0.0071677479         3908 
 1742000   0.56193197   -9.5657886    184.40502 0.0088215183 0.0071605654         3911 
 1743000   0.55129319    -9.567245    184.33548 0.0088131325 0.0071533925         3915 
 1744000    0.5609588   -9.5708726    184.39683 0.0088110105 0.0071462306         3906 
 1745000   0.56876116   -9.5609813    184.82999 0.0088266471 0.0071390824         3898 
 1746000   0.56047495   -9.5407309    184.73323 0.0088169738  0.007131937         3906 
 1747000   0.55360542   -9.5876358    184.47722 0.0087997147  0.007124809         3920 
 1748000     0.563323   -9.5606794    184.59978 0.0088005236 0.0071176851         3905 
 1749000   0.54693372   -9.5531981    184.46563 0.0087891001 0.0071105703         3901 
 1750000   0.54813059    -9.572796    184.33137 0.0087776844 0.0071034647         3914 
 1751000   0.55423601   -9.5581009    184.57792  0.008784405 0.0070963673         3895 
 1752000   0.55403453   -9.5527968    184.80251 0.0087900738 0.0070892817         3914 
 1753000   0.55521107   -9.5609867    184.65549 0.0087780705 0.0070821998         3891 
 1754000   0.55723225   -9.5615011    184.64727 0.0087726755 0.0070751295         3899 
 1755000   0.57369661   -9.5575317    184.23342 0.0087480258 0.0070680694         3903 
 1756000   0.55632361   -9.5612107    184.14709 0.0087389469 0.0070610198         3903 
 1757000   0.56411011   -9.5803074    184.62673  0.008756722 0.0070539817         3907 
 1758000    0.5407183    -9.567587    184.36399 0.0087392866 0.0070469497         3903 
 1759000    0.5493602   -9.5670761     184.3238 0.0087324145 0.0070399228         3905 
 1760000    0.5464002   -9.5569258    184.46744 0.0087342539 0.0070329124         3924 
 1761000   0.56272331   -9.5528731      184.373  0.008724825 0.0070259116         3912 
 1762000    0.5453101   -9.5610096    184.52771 0.0087271901 0.0070189223         3892 
 1763000   0.54086348   -9.5801467    184.42512 0.0087173906 0.0070119375         3919 
 1764000   0.53983788   -9.5821366     184.6723 0.0087241259 0.0070049642         3914 
 1765000   0.54673868   -9.5752794    184.49839 0.0087109723 0.0069980058         3915 
 1766000     0.547699   -9.5844509    184.46144 0.0087042961 0.0069910542         3900 
 1767000   0.56771369   -9.5850291    184.38129   0.00869559 0.0069841061         3899 
 1768000    0.5476467   -9.5825673     184.3163 0.0086876085 0.0069771659         3903 
 1769000   0.54046133   -9.5725195    184.38812 0.0086860807 0.0069702464         3905 
 1770000   0.55338062   -9.5811311    184.26967 0.0086755963 0.0069633332         3918 
 1771000   0.54289283   -9.5796692    184.19075 0.0086669841 0.0069564226         3902 
 1772000   0.55027118   -9.5922498    184.44596 0.0086740954 0.0069495255         3919 
 1773000   0.55172071   -9.5647158     184.7693 0.0086844003 0.0069426329         3912 
 1774000   0.54492723    -9.576922    184.65567 0.0086741673 0.0069357498         3919 
 1775000   0.55205906   -9.5695084    184.07087 0.0086418249 0.0069288713         3896 
 1776000   0.53224926   -9.5891022     184.3402 0.0086495964 0.0069220085         3905 
 1777000   0.54231927   -9.5779305    184.21242 0.0086387367 0.0069151467         3910 
 1778000   0.54845731    -9.579087    184.23558 0.0086349635  0.006908296         3900 
 1779000   0.54115253   -9.5781888     184.3084 0.0086335206 0.0069014596         3918 
 1780000   0.53844451    -9.580406    184.33562 0.0086299446 0.0068946314         3907 
 1781000    0.5608257   -9.6118976    184.24867 0.0086210309 0.0068878122         3906 
 1782000     0.559362   -9.5849289    184.60085 0.0086326621 0.0068810014         3926 
 1783000   0.52483083   -9.5830563    184.35574 0.0086163647 0.0068741979         3918 
 1784000    0.5358066   -9.5880464    184.10407 0.0085997793  0.006867405         3908 
 1785000    0.5484962   -9.5874118     184.3533 0.0086065966 0.0068606219         3913 
 1786000   0.54400342   -9.5840504    184.42912 0.0086053153 0.0068538496         3911 
 1787000   0.53255184   -9.5969475    184.13084   0.00858659 0.0068470839         3920 
 1788000   0.53945746   -9.5761079    184.37376 0.0085931097 0.0068403262         3918 
 1789000   0.54625721   -9.5869432    183.91133 0.0085667658 0.0068335772         3910 
 1790000   0.53502232   -9.5892169    184.10958 0.0085712094 0.0068268389         3904 
 1791000   0.54228141   -9.6029522    184.50523  0.008584833 0.0068201091         3911 
 1792000   0.54365957    -9.620088     184.1117  0.008561742 0.0068133852         3908 
 1793000   0.53700198   -9.5887901    184.42038 0.0085713133 0.0068066685         3912 
 1794000   0.52620157   -9.5989295    184.30944 0.0085613826 0.0067999619         3921 
 1795000    0.5502339   -9.5981777    184.11243 0.0085474667 0.0067932626         3924 
 1796000   0.53264193   -9.5872362    184.18867 0.0085462449 0.0067865734         3914 
 1797000   0.54382846   -9.6195555    184.28018 0.0085457326 0.0067798882         3930 
 1798000   0.52766899   -9.6017559    184.42381 0.0085476365 0.0067732199         3925 
 1799000   0.53542145   -9.6142996    184.12509 0.0085290481 0.0067665636         3935 
 1800000     0.538404   -9.6254202    184.05382 0.0085210103 0.0067599074         3933 
 1801000   0.53194734   -9.6030325     184.2757 0.0085265453 0.0067532603         3922 
 1802000   0.52795672   -9.6158012    183.83738 0.0085015438 0.0067466246         3942 
 1803000   0.53023982    -9.590089    184.07566 0.0085078416 0.0067399973         3923 
 1804000   0.52892376     -9.59567    184.01779 0.0085004521 0.0067333751         3900 
 1805000   0.52428367   -9.5987384    184.08336 0.0084987699 0.0067267686         3926 
 1806000   0.53823893   -9.5973231    184.12845  0.008496145 0.0067201681         3918 
 1807000   0.53193649   -9.6021556    184.21909  0.008495623 0.0067135789         3918 
 1808000   0.53084461   -9.6021544    184.41628 0.0085000127 0.0067069968         3913 
 1809000   0.52211561   -9.6091129    184.16192 0.0084835968 0.0067004262         3927 
 1810000   0.52971685   -9.6103498    184.23112 0.0084820956 0.0066938617         3922 
 1811000   0.52096895   -9.6157516     183.9123 0.0084627418 0.0066873026         3914 
 1812000   0.52161561   -9.6342075     183.9375 0.0084592299 0.0066807538         3931 
 1813000   0.53014608   -9.6131078    184.14402  0.008464057 0.0066742142         3909 
 1814000   0.53055206   -9.6083221     184.2586 0.0084646545 0.0066676839         3913 
 1815000   0.53272654   -9.6110244    184.12881 0.0084540316 0.0066611652         3911 
 1816000   0.53216511   -9.6138801     183.9779 0.0084424512 0.0066546526         3923 
 1817000   0.52278162   -9.6300883    184.36029 0.0084553427 0.0066481509         3918 
 1818000   0.51813887   -9.6074955    184.11913 0.0084396375 0.0066416522         3932 
 1819000    0.5298248   -9.6289882    184.04047 0.0084313941 0.0066351687         3926 
 1820000   0.51795459    -9.602709    184.23275 0.0084355657 0.0066286882         3916 
 1821000   0.52401027   -9.6030086    184.11159 0.0084253885 0.0066222116         3916 
 1822000   0.52336165   -9.6212206    184.26378 0.0084277252 0.0066157513         3921 
 1823000    0.5199327   -9.5988859    184.11247 0.0084161854 0.0066093036         3913 
 1824000   0.52649656   -9.6109834    183.94318  0.008403837 0.0066028555         3905 
 1825000   0.52952799   -9.6262697    184.02989 0.0084031915 0.0065964174         3915 
 1826000   0.52113623   -9.6183487    184.01874 0.0083980806 0.0065899899         3919 
 1827000   0.53046666   -9.6146976    183.86116 0.0083862962 0.0065835703         3918 
 1828000    0.5355053   -9.6227805    183.79378 0.0083786367  0.006577161         3928 
 1829000   0.52454288   -9.6167442    183.99117 0.0083830496 0.0065707657         3923 
 1830000    0.5344976   -9.6234109    184.10492 0.0083836485  0.006564372         3921 
 1831000   0.52508997   -9.6133397    183.85485 0.0083676883 0.0065579848         3924 
 1832000   0.52428807   -9.6270454    183.82316 0.0083616792 0.0065516047         3921 
 1833000   0.51791262    -9.638458     183.9945 0.0083649072  0.006545235         3912 
 1834000   0.51325522   -9.6196057     183.9968 0.0083604506  0.006538871         3917 
 1835000   0.51784079   -9.6314556    184.19048 0.0083646902  0.006532522         3923 
 1836000   0.52105877   -9.6123345    184.01186 0.0083520271 0.0065261771         3913 
 1837000    0.5071011   -9.6095702    184.02985 0.0083482965  0.006519843         3912 
 1838000   0.53164518   -9.6430727    184.00107 0.0083424498 0.0065135142         3928 
 1839000   0.51261719    -9.638357    184.09786 0.0083422993 0.0065071954         3921 
 1840000   0.51851906   -9.6314978    184.02712 0.0083345614 0.0065008814         3920 
 1841000   0.51529022   -9.6304234    184.00952 0.0083292377 0.0064945834         3920 
 1842000    0.5140463   -9.6320103    184.10496 0.0083290337 0.0064882901         3918 
 1843000   0.51726657   -9.6371102    183.98886 0.0083192648 0.0064820013         3924 
 1844000   0.51022959   -9.6143914    184.47277  0.008336622 0.0064757265         3913 
 1845000   0.52046564   -9.6265331    184.07791 0.0083142688 0.0064694564         3923 
 1846000   0.51597709   -9.6265871     183.5505 0.0082859563 0.0064631972         3917 
 1847000   0.52493513   -9.6344913    184.10357 0.0083064237 0.0064569455         3918 
 1848000   0.52232578    -9.634935    184.04508 0.0082992913    0.0064507         3920 
 1849000   0.51733892   -9.6413528    183.77864 0.0082827943 0.0064444608         3910 
 1850000   0.52776815   -9.6277199    183.99193 0.0082879247 0.0064382356         3912 
 1851000   0.53001571   -9.6347268    183.96392 0.0082821863 0.0064320151         3927 
 1852000   0.50533651   -9.6427903    184.01987 0.0082802318 0.0064258003         3916 
 1853000   0.51950106   -9.6334743    183.78483 0.0082651928 0.0064195937         3925 
 1854000   0.50732192   -9.6259862    184.06823 0.0082734731 0.0064133991         3920 
 1855000   0.52229576    -9.649249    183.97239 0.0082647074 0.0064072157         3942 
 1856000    0.5209575   -9.6384735    183.87841 0.0082560348 0.0064010326         3921 
 1857000   0.50180042   -9.6316619    184.02586 0.0082582057 0.0063948676         3920 
 1858000    0.5203915   -9.6463246    184.06725 0.0082556178 0.0063887034         3915 
 1859000   0.51542456   -9.6527322    183.83937 0.0082409616 0.0063825453         3908 
 1860000   0.51294606   -9.6256829    183.63939 0.0082275714 0.0063763998         3915 
 1861000   0.51380426   -9.6235616    183.82783 0.0082315882 0.0063702556         3931 
 1862000   0.51396168   -9.6421362     183.8077 0.0082262666 0.0063641226         3917 
 1863000    0.5149541    -9.649165    184.32377  0.008244935 0.0063579976         3932 
 1864000   0.51005578    -9.630729    183.99371 0.0082257558  0.006351876         3927 
 1865000   0.50096414   -9.6335229    183.80958 0.0082131178 0.0063457689         3931 
 1866000   0.49954318   -9.6327701    183.72986 0.0082051562 0.0063396667         3929 
 1867000   0.50961857   -9.6256362    183.63232 0.0081964076 0.0063335747         3917 
 1868000   0.50669034   -9.6359893    184.03591 0.0082100245 0.0063274882         3925 
 1869000   0.50911388   -9.6449486    183.54637 0.0081838048 0.0063214122         3930 
 1870000   0.50673753   -9.6449418    183.58945  0.008181348 0.0063153407         3931 
 1871000   0.52035547   -9.6372194    183.72717 0.0081831095  0.006309283         3943 
 1872000   0.50546609   -9.6511126    184.10504  0.008195559 0.0063032273         3904 
 1873000   0.49535882   -9.6438964    183.97351 0.0081853316 0.0062971806         3929 
 1874000   0.51375999   -9.6297107    184.00234 0.0081822458 0.0062911476         3927 
 1875000   0.50399591   -9.6435983    183.91174 0.0081738552 0.0062851184         3908 
 1876000   0.49927114   -9.6450153    183.68042 0.0081592225 0.0062790956         3906 
 1877000    0.5032242   -9.6589162    183.51086 0.0081473477 0.0062730827         3926 
 1878000   0.50643506   -9.6428883    184.05677 0.0081672331  0.006267078         3922 
 1879000   0.50967318   -9.6391444    183.81488 0.0081521591 0.0062610824         3922 
 1880000   0.51199264   -9.6461497    183.93953 0.0081533479 0.0062550927         3902 
 1881000    0.5114895   -9.6498161    183.79978  0.008142822 0.0062491092         3928 
 1882000   0.50920084   -9.6534974    183.66991 0.0081327446 0.0062431351         3913 
 1883000   0.50451866   -9.6453529    183.76565 0.0081326627 0.0062371623         3925 
 1884000   0.49585058   -9.6395414    183.85089 0.0081321163 0.0062312036         3912 
 1885000   0.49139681   -9.6512947    183.67308 0.0081199415 0.0062252518         3927 
 1886000   0.49471359   -9.6379366    183.97359 0.0081289142 0.0062193053         3928 
 1887000   0.50012505   -9.6465125    183.79958 0.0081169219 0.0062133637         3912 
 1888000   0.49979571   -9.6611756    183.75904 0.0081108334 0.0062074395         3918 
 1889000   0.50465062   -9.6497701    183.49469 0.0080948778 0.0062015161         3902 
 1890000   0.49695225   -9.6731795     183.3969 0.0080862831    0.0061956         3932 
 1891000   0.49630442   -9.6600402    183.82103 0.0081006975  0.006189691         3898 
 1892000   0.50025925    -9.654359    183.73949 0.0080928245  0.006183791         3918 
 1893000   0.49151318   -9.6593842    183.80801  0.008091566  0.006177902         3919 
 1894000   0.50417691   -9.6697403    183.52789 0.0080749688 0.0061720183         3907 
 1895000   0.49197456    -9.662875     183.9423 0.0080889312 0.0061661394         3936 
 1896000   0.50651165   -9.6417385    183.56513 0.0080680877  0.006160271         3928 
 1897000   0.50108515   -9.6418981    183.76223 0.0080724931 0.0061544093         3930 
 1898000   0.49797241   -9.6610118    183.83775 0.0080715556 0.0061485565         3927 
 1899000   0.48879542   -9.6640308    183.55451 0.0080548758 0.0061427084         3917 
 1900000   0.49743354   -9.6543974    184.09167 0.0080741961 0.0061368721         3928 
 1901000   0.50447106   -9.6576198    183.84573 0.0080591673 0.0061310429         3930 
 1902000   0.47707226   -9.6622534    183.63229 0.0080455787 0.0061252219         3910 
 1903000   0.49503109   -9.6679257    183.55381 0.0080379144  0.006119406         3920 
 1904000   0.49293423   -9.6450395    183.60473 0.0080359213 0.0061135954         3923 
 1905000   0.49628006   -9.6543766    183.61205 0.0080320231 0.0061077986         3897 
 1906000   0.49461395   -9.6664201    183.54534 0.0080248925 0.0061020046         3910 
 1907000   0.49957623   -9.6671163    183.69817 0.0080273628 0.0060962198         3924 
 1908000   0.49140327   -9.6473568    183.39874 0.0080100779 0.0060904414         3916 
 1909000   0.48051442    -9.675442    183.61652 0.0080153885 0.0060846681         3907 
 1910000   0.48319098   -9.6704683    183.94699 0.0080256104 0.0060789049         3936 
 1911000   0.48646526   -9.6642083    183.65675 0.0080087541 0.0060731536         3934 
 1912000   0.49058792   -9.6797867    183.48852 0.0079972332 0.0060674041         3933 
 1913000   0.49438385   -9.6624706    183.43313 0.0079906397 0.0060616623         3920 
 1914000   0.48554828   -9.6592238    183.56019 0.0079919973 0.0060559242         3925 
 1915000   0.49173175   -9.6647875    183.59223  0.007989218 0.0060501997         3928 
 1916000   0.48994902   -9.6520916    183.62969 0.0079866774 0.0060444798         3927 
 1917000   0.49427263   -9.6690894    183.44726 0.0079745808 0.0060387659         3917 
 1918000   0.48595625   -9.6811115    183.49105 0.0079723256 0.0060330633         3923 
 1919000   0.49820732    -9.688627    183.83509 0.0079831113 0.0060273663         3921 
 1920000   0.47740499   -9.6690965    183.68441 0.0079724136 0.0060216772         3913 
 1921000   0.48300435   -9.6819701    183.40563 0.0079561701 0.0060159909         3931 
 1922000   0.48027297   -9.6814462    183.56041 0.0079587414 0.0060103114         3914 
 1923000   0.48605624   -9.6784342    183.60654 0.0079566016 0.0060046424         3912 
 1924000    0.4811117   -9.6547707    183.44522 0.0079454789 0.0059989827         3912 
 1925000   0.48111685   -9.6687121    183.60206 0.0079481412 0.0059933215         3921 
 1926000   0.48081461   -9.6866049     183.4695 0.0079382788 0.0059876715         3918 
 1927000   0.49999242   -9.6554503    183.74083 0.0079458932 0.0059820296         3930 
 1928000   0.48823084   -9.6852699    183.72865 0.0079412453 0.0059763978         3925 
 1929000   0.48226643   -9.6693452    183.70139  0.007935951 0.0059707729         3930 
 1930000   0.48406974   -9.6694062    183.53346 0.0079245881 0.0059651596         3917 
 1931000   0.48115747   -9.6744978    183.60545  0.007923591 0.0059595495         3912 
 1932000   0.47733839   -9.6804403     183.3904 0.0079102137 0.0059539486         3926 
 1933000   0.48180605   -9.6873236    183.63025 0.0079164619 0.0059483525         3929 
 1934000   0.48089807   -9.6698027    183.42265 0.0079034233 0.0059427653         3920 
 1935000   0.48218092    -9.661334    183.53752  0.007904286  0.005937183         3919 
 1936000   0.47629559   -9.6742214    183.64751 0.0079049375 0.0059316084         3930 
 1937000   0.47975961   -9.6754628    183.57118 0.0078975726 0.0059260414         3929 
 1938000   0.48806301   -9.6675256    183.44501 0.0078880724  0.005920482         3931 
 1939000    0.4902057   -9.6738759    183.55871 0.0078888906 0.0059149306         3921 
 1940000   0.47866454   -9.6888029    183.69664 0.0078907493 0.0059093875         3940 
 1941000   0.48440192   -9.6717263    183.43749 0.0078755575 0.0059038453         3925 
 1942000    0.4881517    -9.679835    183.46751 0.0078727904 0.0058983114         3929 
 1943000   0.47226839    -9.683731    183.44648 0.0078678366 0.0058927881         3932 
 1944000   0.47576625   -9.6845792    183.29924 0.0078574776 0.0058872716         3919 
 1945000   0.47853176   -9.6871633     183.5948 0.0078661012 0.0058817609         3928 
 1946000   0.48216697   -9.6936781    183.30577 0.0078496819 0.0058762565         3919 
 1947000   0.48046517   -9.7022629    183.49277  0.007853654 0.0058707606         3926 
 1948000   0.47172364   -9.6844339    183.67298 0.0078573315 0.0058652718         3918 
 1949000    0.4846855   -9.6852244    183.41185 0.0078421349 0.0058597867         3914 
 1950000   0.48129686   -9.6784043    183.58734 0.0078456129 0.0058543109         3920 
 1951000   0.47344391   -9.6824169    183.59114 0.0078417536 0.0058488399         3926 
 1952000   0.47560354   -9.6698062     183.7337 0.0078438227 0.0058433768         3926 
 1953000   0.47734874   -9.6784542    183.21148 0.0078175233 0.0058379208         3925 
 1954000   0.47595634   -9.6774634    183.57665 0.0078290963 0.0058324728         3922 
 1955000   0.49104644   -9.6842504    183.66391  0.007828811 0.0058270394         3911 
 1956000   0.47273917   -9.7073238    183.40429 0.0078137481 0.0058216077         3924 
 1957000   0.48413929   -9.6938748    183.42707 0.0078107252 0.0058161794         3922 
 1958000    0.4759423   -9.6902801     183.5002 0.0078098484 0.0058107612         3929 
 1959000   0.47004134   -9.6930181     183.5293 0.0078070999 0.0058053509         3913 
 1960000   0.46844546   -9.6888199    183.56415 0.0078045982 0.0057999397         3925 
 1961000   0.46601325   -9.7064811    183.23801  0.007786759 0.0057945398         3933 
 1962000   0.47227326   -9.6789389    183.47258 0.0077927532  0.005789144         3921 
 1963000   0.47396785   -9.7041012    183.44889 0.0077877778 0.0057837558         3930 
 1964000   0.47817891   -9.6943074    183.51856 0.0077867684 0.0057783742         3932 
 1965000   0.47095142    -9.697898      183.054 0.0077631043  0.005773002         3921 
 1966000   0.46928167   -9.6958952    183.19778   0.00776525 0.0057676389         3917 
 1967000   0.45780196   -9.6993821      183.152  0.007759363 0.0057622749         3918 
 1968000   0.46606278   -9.7005168    183.16319  0.007755894  0.005756919         3936 
 1969000   0.46632986   -9.6925749    183.18666 0.0077529483 0.0057515753         3923 
 1970000   0.46418004   -9.6995286    183.54565 0.0077641983 0.0057462358         3920 
 1971000   0.46411844   -9.7047507    183.07691 0.0077404408 0.0057409043         3933 
 1972000   0.46897995   -9.7080694    183.43619 0.0077516982 0.0057355785         3933 
 1973000   0.46930342   -9.7021424    183.52105 0.0077513535 0.0057302577         3918 
 1974000   0.47297118   -9.7023002    183.38189 0.0077415521 0.0057249448         3930 
 1975000   0.46070683   -9.7069241    183.34243 0.0077359676 0.0057196409         3928 
 1976000   0.45471463   -9.7018288    183.25077 0.0077281868 0.0057143396         3913 
 1977000   0.46269377   -9.7130516    183.01545 0.0077143587 0.0057090437         3942 
 1978000    0.4669003   -9.7021427    183.32857 0.0077236508 0.0057037527         3914 
 1979000   0.46205597   -9.6962153     183.4136 0.0077233284 0.0056984722         3906 
 1980000   0.47150967   -9.6978038    183.28244 0.0077139075 0.0056931956         3937 
 1981000   0.47285983   -9.6959093    183.29229 0.0077104277 0.0056879319         3934 
 1982000   0.45664928    -9.694854    183.16419 0.0077011516 0.0056826689         3924 
 1983000      0.46526   -9.7083482    183.27086 0.0077017506 0.0056774149         3922 
 1984000   0.45815808   -9.7036063    183.26733 0.0076977207 0.0056721684         3921 
 1985000   0.46355799   -9.7261043    183.30162 0.0076952823 0.0056669259         3908 
 1986000    0.4669676   -9.7084509    183.26595 0.0076899106  0.005661691         3925 
 1987000   0.46356436   -9.7217555    183.02022 0.0076757346 0.0056564622         3924 
 1988000   0.46248619   -9.7127013    183.36702 0.0076864108 0.0056512381         3921 
 1989000   0.45830595    -9.707725    182.92251 0.0076639228 0.0056460213         3927 
 1990000   0.46132874   -9.7031908    183.36721 0.0076786941 0.0056408109         3905 
 1991000   0.45178738   -9.7004769    183.30758 0.0076723412 0.0056356075         3928 
 1992000   0.45363129   -9.6962834    183.18638 0.0076634193 0.0056304102         3919 
 1993000   0.44962892   -9.7197644    183.32303 0.0076652883 0.0056252178         3914 
 1994000   0.45223885   -9.7146099     183.0954 0.0076519308 0.0056200373         3917 
 1995000   0.45247336   -9.7119116    183.48604 0.0076644127 0.0056148589         3910 
 1996000   0.45656824   -9.7137223      183.048 0.0076422846 0.0056096867         3934 
 1997000   0.46825756   -9.7035535    183.21699 0.0076455095 0.0056045255         3921 
 1998000   0.45779897   -9.7118622    183.32539 0.0076462039 0.0055993724         3915 
 1999000   0.44789983   -9.7071525    183.18248 0.0076364217 0.0055942233         3914 
 2000000   0.45051823   -9.7209683    183.00659 0.0076252744 0.0055890787         3930 
 2001000   0.43944758    -9.708307    183.50966 0.0076424146 0.0055839402         3933 
 2002000   0.44061281   -9.7258346    183.11917 0.0076223431 0.0055788084         3913 
 2003000   0.45477279   -9.7285319    183.41672 0.0076309169 0.0055736818         3934 
 2004000   0.46081961   -9.7202056    183.01728 0.0076104989 0.0055685628         3921 
 2005000   0.45532713   -9.7163444    183.31974 0.0076192744 0.0055634494         3923 
 2006000   0.45233609   -9.7060183    183.24828 0.0076125075  0.005558344         3922 
 2007000   0.45636857   -9.7299028    183.26826 0.0076095442 0.0055532453         3914 
 2008000   0.46308541   -9.7152216    182.92995 0.0075917144 0.0055481537         3931 
 2009000    0.4527127   -9.7188108    183.29309 0.0076029985 0.0055430634         3918 
 2010000   0.45147521   -9.7249095    183.13398 0.0075926193 0.0055379857         3918 
 2011000   0.44162177   -9.7282787    183.40353 0.0076000137 0.0055329109         3932 
 2012000   0.44900043   -9.7227742    183.02281 0.0075804675 0.0055278421         3924 
Loop time of 5247.91 on 48 procs for 2000000 steps with 4000 atoms

Performance: 65854.823 tau/day, 381.104 timesteps/s
99.4% CPU use with 48 MPI tasks x no OpenMP threads

MPI task timing breakdown:
Section |  min time  |  avg time  |  max time  |%varavg| %total
---------------------------------------------------------------
Pair    | 361.3      | 411.92     | 446.6      |  99.3 |  7.85
Neigh   | 35.622     | 37.73      | 38.904     |  10.9 |  0.72
Comm    | 332.1      | 371.89     | 428.7      | 102.9 |  7.09
Output  | 5.6887     | 5.692      | 5.7372     |   0.3 |  0.11
Modify  | 4354.6     | 4371       | 4385.5     |  13.8 | 83.29
Other   |            | 49.67      |            |       |  0.95

Nlocal:        83.3333 ave          91 max          77 min
Histogram: 3 1 9 6 6 15 2 5 0 1
Nghost:        2406.88 ave        2436 max        2376 min
Histogram: 2 5 2 6 4 9 9 6 4 1
Neighs:        16584.6 ave       19291 max       13778 min
Histogram: 2 1 7 8 8 3 6 7 3 3
FullNghs:      33168.5 ave       36778 max       29668 min
Histogram: 1 3 2 6 14 9 6 3 3 1

Total # of neighbors = 1592088
Ave neighs/atom = 398.02200
Neighbor list builds = 106459
Dangerous builds = 0

#clear
#
#next RN
#
#jump SELF
Total wall time: 1:27:31
