
units lj                  # Use reduced LJ style units
atom_style atomic         # Uncharged point particles
atom_modify map hash      # Needed for indexing of clusters etc
                          # Used to be able to find where atoms are in relation to each other.

lattice fcc 1.0 spacing 1 1 1
Lattice spacing in x,y,z = 1.5874011 1.5874011 1.5874011
region box block 0 10 0 10 0 10 units lattice
create_box 2 box
Created orthogonal box = (0.0000000 0.0000000 0.0000000) to (15.874011 15.874011 15.874011)
  3 by 4 by 4 MPI processor grid
create_atoms 1 box
Created 4000 atoms
  using lattice units in orthogonal box = (0.0000000 0.0000000 0.0000000) to (15.874011 15.874011 15.874011)
  create_atoms CPU = 0.052 seconds
set type 1 type/fraction 2 0.11 78393
Setting atom values ...
  470 settings made for type/fraction
mass 1 1.0
mass 2 1.0
pair_style lj/cut  3.5
pair_modify tail  yes
pair_coeff 1  1  1.0  1.0   # Intearaction between 1 and 1 set with epsilon = 1 and sigma = 1
pair_coeff 1  2  1.5  0.8
pair_coeff 2  2  0.5  0.88

write_data data.0
System init for write_data ...
Neighbor list info ...
  update every 1 steps, delay 10 steps, check yes
  max neighbors/atom: 2000, page size: 100000
  master list distance cutoff = 3.8
  ghost atom cutoff = 3.8
  binsize = 1.9, bins = 9 9 9
  1 neighbor lists, perpetual/occasional/extra = 1 0 0
  (1) pair lj/cut, perpetual
      attributes: half, newton on
      pair build: half/bin/atomonly/newton
      stencil: half/bin/3d
      bin: standard
WARNING: Not all mixed pair coeffs generated from mixing. Use write_data with 'pair ij' option to store all pair coeffs. (../write_data.cpp:312)


#############################
#   M E L T   S Y S T E M   #
#############################

velocity all create 2.4 3143649 mom yes dist gaussian # Assign velocities
                                                    # Temperature 2.4, random number seed, zero linear momentum
                                                                                # Gaussian distribution

timestep 0.002   # simulation timestep
thermo 1000       # output thermodynamic data every 1000 steps bf 100

# Define a fix  in this case with index 1 applied to all
# particles in the simulation. This fix is for simulations
# in the anisotropic NPT ensemble. Note that we use the MTK
# correction.
fix 1 all npt temp 2.4 2.4 0.1 iso 5.68 5.68 0.5 mtk yes tchain 5 pchain 5 # Use NPT ensemble
                                                                         # Set temperature and pressure and damping
                                                                         # Numbers of thermostats in chain and in barostat
run 10000          # run for 10000 steps
Per MPI rank memory allocation (min/avg/max) = 3.642 | 3.644 | 3.648 Mbytes
Step Temp E_pair E_mol TotEng Press Volume 
       0          2.4   -7.6169122            0   -4.0178122   -3.1065461         4000 
    1000     2.407842   -4.6255458            0   -1.0146857    5.7161536    4803.9399 
    2000    2.3750885   -4.6070909            0   -1.0453488     5.799285    4798.4428 
    3000    2.3437907   -4.6638921            0   -1.1490851    5.6428932    4781.5272 
    4000    2.4173497   -4.6528505            0   -1.0277324     5.801677    4771.3863 
    5000    2.4141305   -4.6740107            0   -1.0537202    5.8127591    4761.3469 
    6000    2.3999851   -4.6578303            0   -1.0587527    5.8498683    4768.8654 
    7000    2.3498957   -4.6518539            0   -1.1278916    5.6093647    4791.1288 
    8000    2.4116102   -4.5991723            0  -0.98266137    5.8478011    4799.2161 
    9000    2.3643784   -4.6751428            0   -1.1294619    5.7759198    4760.5057 
   10000     2.434027   -4.6069898            0  -0.95686208    6.0477591    4768.9948 
Loop time of 2.17172 on 48 procs for 10000 steps with 4000 atoms

Performance: 795683.533 tau/day, 4604.650 timesteps/s
99.7% CPU use with 48 MPI tasks x no OpenMP threads

MPI task timing breakdown:
Section |  min time  |  avg time  |  max time  |%varavg| %total
---------------------------------------------------------------
Pair    | 0.91528    | 0.96662    | 1.0685     |   3.0 | 44.51
Neigh   | 0.18776    | 0.19629    | 0.21961    |   1.2 |  9.04
Comm    | 0.62381    | 0.75988    | 0.83576    |   4.1 | 34.99
Output  | 0.00024038 | 0.00024566 | 0.00030831 |   0.0 |  0.01
Modify  | 0.19756    | 0.23402    | 0.2713     |   4.0 | 10.78
Other   |            | 0.01466    |            |       |  0.68

Nlocal:        83.3333 ave          93 max          75 min
Histogram: 3 2 7 10 5 9 4 3 1 4
Nghost:        1459.67 ave        1497 max        1427 min
Histogram: 1 5 4 7 10 7 9 2 1 2
Neighs:        7976.88 ave        9199 max        6908 min
Histogram: 2 3 5 9 12 7 3 3 1 3

Total # of neighbors = 382890
Ave neighs/atom = 95.722500
Neighbor list builds = 898
Dangerous builds = 178

# Equilibrate just above the melting temperature to avoid step fn in T

fix 1 all npt temp 1.25 1.25 0.1 iso 5.68 5.68 0.5 mtk yes tchain 5 pchain 5
run 2000
Per MPI rank memory allocation (min/avg/max) = 3.642 | 3.644 | 3.648 Mbytes
Step Temp E_pair E_mol TotEng Press Volume 
   10000     2.434027   -4.6069898            0  -0.95686208    6.0477591    4768.9948 
   11000    1.2275784   -6.2289373            0   -4.3880301    5.7205769    3945.5718 
   12000    1.2379983   -6.2266679            0   -4.3701348    5.7600847    3947.3752 
Loop time of 0.46088 on 48 procs for 2000 steps with 4000 atoms

Performance: 749869.990 tau/day, 4339.525 timesteps/s
99.7% CPU use with 48 MPI tasks x no OpenMP threads

MPI task timing breakdown:
Section |  min time  |  avg time  |  max time  |%varavg| %total
---------------------------------------------------------------
Pair    | 0.20699    | 0.22371    | 0.24392    |   1.7 | 48.54
Neigh   | 0.030543   | 0.032546   | 0.034487   |   0.4 |  7.06
Comm    | 0.13485    | 0.1555     | 0.17056    |   2.2 | 33.74
Output  | 4.8368e-05 | 4.9285e-05 | 6.0822e-05 |   0.0 |  0.01
Modify  | 0.038161   | 0.044477   | 0.052597   |   1.7 |  9.65
Other   |            | 0.00459    |            |       |  1.00

Nlocal:        83.3333 ave          94 max          76 min
Histogram: 4 8 6 6 4 7 8 3 1 1
Nghost:        1652.27 ave        1682 max        1620 min
Histogram: 2 2 5 5 7 11 5 5 3 3
Neighs:        9651.56 ave       11070 max        8599 min
Histogram: 4 3 9 10 3 6 7 2 2 2

Total # of neighbors = 463275
Ave neighs/atom = 115.81875
Neighbor list builds = 141
Dangerous builds = 12

#############################
# L I N E A R  Q U E N C H  #
#############################

# Define solid atoms. This closely follows ten Wolde  Ruiz-Montero and Frenkel  Faraday Discuss  1996  104  93-110
# Compute components of the per-atom q6 vector
compute q6 all orientorder/atom degrees 1 6 components 6 nnn NULL cutoff 1.3 # compute the Q6 parameter.
                                                                             # Use all neighbours within 1.3 unit cell.

# get number of connections
compute coord_number all coord/atom orientorder q6 0.5

# An atom is solid if it has 8 or more connections (of a possible 14)
variable is_solid atom c_coord_number>=8
group solid dynamic all var is_solid    # Must be dynamic to update
dynamic group solid defined

# do clustering
compute cluster solid cluster/atom 1.3 # Create a cluster where all atoms within are solid and max 1.3 units from another member

# define chunks one chunk per cluster
compute clus_chunks solid chunk/atom c_cluster nchunk every compress yes  # Says which atoms are in which chunk

# count the size of each chunk
compute size_chunks solid property/chunk clus_chunks count


# Find the maximum entry in the vector of chunk sizes
variable max_n equal max(c_size_chunks)


# Thermo style which includes this variable
# thermo_style custom step temp pe vol v_max_n

thermo ${N}  # Print the thermo information every 100 steps
thermo 1000  

# Reset the npt fix at a lower temperature (below freezing)
fix 1  all npt temp  ${temp} ${temp}  0.1  iso  5.68  5.68  0.5  mtk yes tchain  5  pchain  5
fix 1  all npt temp  0.45 ${temp}  0.1  iso  5.68  5.68  0.5  mtk yes tchain  5  pchain  5
fix 1  all npt temp  0.45 0.45  0.1  iso  5.68  5.68  0.5  mtk yes tchain  5  pchain  5

dump dmp2 all dcd ${N} traj.dcd
dump dmp2 all dcd 1000 traj.dcd


compute msd all msd com yes
variable twopoint equal c_msd[4]/6/(step*dt+1.0e-6)
fix 9 all vector 10 c_msd[4]
variable fit equal slope(f_9)/6/(10*dt)
thermo_style custom step temp pe c_msd[4] v_twopoint v_fit v_max_n

fix 1 all npt temp 1.25 ${temp} 0.1 iso 5.68 5.68 0.5 mtk yes tchain 5 pchain 5
fix 1 all npt temp 1.25 0.45 0.1 iso 5.68 5.68 0.5 mtk yes tchain 5 pchain 5
run 5000000 # 5000000  # Run for this many steps
Neighbor list info ...
  update every 1 steps, delay 10 steps, check yes
  max neighbors/atom: 2000, page size: 100000
  master list distance cutoff = 3.8
  ghost atom cutoff = 3.8
  binsize = 1.9, bins = 9 9 9
  4 neighbor lists, perpetual/occasional/extra = 1 3 0
  (1) pair lj/cut, perpetual
      attributes: half, newton on
      pair build: half/bin/atomonly/newton
      stencil: half/bin/3d
      bin: standard
  (2) compute orientorder/atom, occasional
      attributes: full, newton on
      pair build: full/bin/atomonly
      stencil: full/bin/3d
      bin: standard
  (3) compute coord/atom, occasional
      attributes: full, newton on
      pair build: full/bin/atomonly
      stencil: full/bin/3d
      bin: standard
  (4) compute cluster/atom, occasional
      attributes: full, newton on
      pair build: full/bin/atomonly
      stencil: full/bin/3d
      bin: standard
Per MPI rank memory allocation (min/avg/max) = 9.748 | 9.758 | 9.764 Mbytes
Step Temp PotEng c_msd[4] v_twopoint v_fit v_max_n 
   12000    1.2379983   -6.2266679 1.0205888e-30 7.0874219e-33 8.3333333e+20            2 
   13000    1.2645607   -6.2141996    0.5448444 0.0034925921  0.045179093            3 
   14000    1.2757199   -6.2341319    1.0638553 0.0063324721  0.043734833            1 
   15000    1.2612168   -6.2541296    1.6118108 0.0089545039  0.043947427            4 
   16000    1.2547451   -6.2698518    2.1637252  0.011269402  0.044786775            3 
   17000    1.2590533    -6.221263    2.6763019  0.013119127  0.044675048            3 
   18000     1.277849   -6.2286204    3.2079541  0.014851639  0.044468321            3 
   19000    1.2515969   -6.2420919    3.8036871  0.016682838  0.044797055            2 
   20000    1.2372944   -6.2746757    4.3893972  0.018289154  0.045123006            3 
   21000    1.2564197    -6.242484    4.9312786  0.019568565  0.045508698            2 
   22000    1.2448853   -6.2249164    5.4494412  0.020641822   0.04557024            3 
   23000    1.2246726   -6.2090382    6.1311123  0.022214175  0.045839111            2 
   24000    1.2506649   -6.2857049    6.6577575  0.023117213  0.046114825            3 
   25000    1.2639398   -6.2727408     7.077916  0.023593053  0.046095968            1 
   26000    1.2206134   -6.2545724    7.5716789  0.024268201  0.045923393            2 
   27000    1.2341351   -6.2648897    8.1567022  0.025175006  0.045737227            2 
   28000    1.2658211   -6.2671553    8.7078467   0.02591621  0.045632089            4 
   29000    1.2486637   -6.2529874    9.2497302  0.026579684  0.045580489            3 
   30000    1.2192304   -6.2814906    9.8204378  0.027278994  0.045549191            1 
   31000    1.2600901   -6.2596137    10.328532   0.02776487   0.04555524            2 
   32000    1.2387272   -6.2071951    10.919992  0.028437478  0.045527327            3 
   33000    1.2309236   -6.2525034    11.441408  0.028892444  0.045505493            2 
   34000    1.2472033   -6.2210049    11.992489  0.029393356   0.04544397            1 
   35000    1.2584284   -6.2611381    12.517178  0.029802803  0.045410824            1 
   36000    1.2515301   -6.3017544    12.999629  0.030091734  0.045410051            2 
   37000    1.2384688   -6.2830011    13.568621  0.030559957   0.04535567            2 
   38000     1.230571   -6.2944592    13.983583  0.030665753  0.045268215            2 
   39000    1.2376294   -6.2996861    14.477279  0.030934357   0.04515268            4 
   40000     1.274987   -6.2453526    15.049848  0.031353849  0.045062744            2 
   41000    1.2469108   -6.2684174    15.687831  0.031885834  0.045009006            4 
   42000    1.2444221    -6.239575    16.366226  0.032472671  0.045065344            3 
   43000    1.2746412   -6.2431032    16.923339  0.032797169  0.045130534            3 
   44000    1.2630086   -6.2817226    17.530554  0.033201806  0.045207688            3 
   45000    1.2111348    -6.237589    18.256348  0.033808051  0.045331267            3 
   46000     1.230649   -6.2821349    18.774349  0.034011502  0.045463068            2 
   47000    1.2433475   -6.2526467    19.314804  0.034246106   0.04555132            3 
   48000    1.2481418   -6.2799083    19.841294   0.03444669  0.045623604            5 
   49000    1.2498222   -6.2720909    20.424991   0.03473638  0.045706099            1 
   50000    1.2401797   -6.2687669    20.974872   0.03495812  0.045775913            2 
   51000    1.2347139   -6.2507857    21.650126  0.035376023  0.045835342            2 
   52000     1.298748   -6.2644235    22.207373  0.035588738  0.045932591            1 
   53000    1.2293601   -6.2145708    23.037746   0.03622287  0.046034253            1 
   54000    1.2351701   -6.2101596    23.568416  0.036371012  0.046146544            5 
   55000    1.2321061   -6.2648619    24.140086  0.036575888  0.046237803            7 
   56000    1.2314115   -6.2945142    24.532535  0.036506749  0.046331818            2 
   57000     1.277825    -6.258866    25.238452  0.036898321   0.04642131            2 
   58000    1.2351523   -6.2449608    25.876494   0.03717887  0.046508942            3 
   59000    1.2507486   -6.2280972    26.321878  0.037177794  0.046578108            2 
   60000    1.1914151   -6.2652608    26.780869   0.03719565  0.046640858            2 
   61000    1.2509491   -6.2639759    27.130207  0.037063124  0.046662681            3 
   62000     1.233517   -6.2761356     27.74835  0.037296169  0.046662025            2 
   63000    1.2507493   -6.2634887    28.156626  0.037244214  0.046639296            1 
   64000    1.2091669   -6.2750822     28.70402  0.037375026  0.046608063            4 
   65000    1.2438257   -6.2647911    29.105788  0.037315113  0.046563567            2 
   66000    1.2442359   -6.2546008     29.76782  0.037585631   0.04652441            5 
   67000    1.2464428   -6.2486628    30.275459  0.037656043  0.046480852            3 
   68000    1.2306941   -6.2873191    30.586003  0.037482847  0.046428248            5 
   69000    1.2414953   -6.2987229    31.228629  0.037715735  0.046355752            2 
   70000    1.2362773   -6.3011018    31.635384  0.037661171  0.046300426            3 
   71000    1.2683603   -6.2339258    32.523362   0.03817296  0.046262535            6 
   72000    1.2237437   -6.2574948    33.007115  0.038202679  0.046242931            5 
   73000     1.241758   -6.2759277    33.500788  0.038242908  0.046213958            2 
   74000    1.2816901   -6.2567831    33.937318    0.0382177  0.046175146            3 
   75000    1.2347512   -6.2543736    34.555858  0.038395397    0.0461355            3 
   76000    1.2374501   -6.2741654    35.085349  0.038470777  0.046108242            3 
   77000     1.243874   -6.2603675    35.704685  0.038641433  0.046080877            3 
   78000    1.2464153   -6.2925373    36.358054  0.038844074   0.04606972            1 
   79000     1.223252   -6.2677574    36.684706  0.038696947  0.046052665            1 
   80000    1.2409094   -6.2597389    37.169599  0.038718332  0.046025366            2 
   81000    1.2144522   -6.2609067    37.486886  0.038566754  0.045989246            3 
   82000    1.2271262   -6.2668266    38.115645  0.038735411  0.045939143            3 
   83000    1.2417539   -6.2535396    38.697869  0.038853282   0.04589682            1 
   84000    1.2051992   -6.3122388     39.30387  0.038991935   0.04585594            1 
   85000    1.2243826    -6.214047    39.706481  0.038927922   0.04581402            1 
   86000    1.2346906    -6.248558    40.267927  0.039019309  0.045780485            3 
   87000    1.2604412   -6.2392121    40.928623  0.039203661  0.045742404            2 
   88000    1.2169569   -6.2715501    41.285696  0.039096303  0.045704684            4 
   89000    1.2020807   -6.2762526    41.797396  0.039136139  0.045667581            6 
   90000    1.2145897   -6.2164263    42.156094   0.03903342  0.045633647            2 
   91000    1.2280767   -6.2759232    42.967261  0.039347308  0.045597962            1 
   92000    1.2129061    -6.248731    43.301041  0.039221958  0.045564123            2 
   93000    1.2361311   -6.2478128    43.812705  0.039258696  0.045525078            2 
   94000    1.2211344   -6.2784147    44.250774  0.039229409  0.045486875            4 
   95000    1.2393438   -6.2928085    44.842903   0.03933588    0.0454533            2 
   96000    1.2393129   -6.2477359    45.126675  0.039172461   0.04541002            4 
   97000    1.2168693   -6.2506063    45.800058  0.039347129  0.045369765            2 
   98000    1.2564917   -6.2517546    46.455779  0.039503213  0.045321997            2 
   99000    1.2070111   -6.3018985    46.757167  0.039357884  0.045278991            3 
  100000    1.2297473   -6.2507417    47.786353  0.039821961  0.045252666            4 
  101000     1.230129    -6.256993    48.487392  0.040006099  0.045241822            3 
  102000    1.2123963    -6.316122    49.166242  0.040168499  0.045240404            2 
  103000     1.241753   -6.3005206    49.748145  0.040249308  0.045249919            2 
  104000    1.2377101   -6.2932417    50.144089  0.040179558  0.045253469            3 
  105000    1.2320989   -6.2684363    51.026183  0.040496971  0.045263223            1 
  106000    1.1984423   -6.2597553    51.426052  0.040429286  0.045272131            4 
  107000     1.216167   -6.3028617    51.602931  0.040189198  0.045276161            2 
  108000    1.2219699    -6.266322    52.200395  0.040278083  0.045269285            1 
  109000    1.2441538   -6.2574061    52.814481  0.040378043  0.045261693            2 
  110000    1.2280608    -6.256688     53.31016  0.040386484  0.045257933            3 
  111000    1.2357213   -6.2812402    53.881843  0.040451834  0.045255162            2 
  112000    1.2618104   -6.2779856    54.459422  0.040520403  0.045251532            2 
  113000    1.2105286   -6.3130599    54.927759  0.040507197  0.045252234            3 
  114000    1.2525252   -6.2933175    55.672831  0.040696514  0.045257666            2 
  115000     1.250808   -6.2721184     55.99758  0.040577956  0.045257011            5 
  116000    1.1958995   -6.3235356    56.251514   0.04041057  0.045245596            3 
  117000    1.2444379   -6.2476984    56.939299  0.040555056  0.045228472            2 
  118000    1.2271795    -6.282539    57.036638  0.040280111  0.045209732            3 
  119000    1.2512755   -6.2546572     57.76155  0.040449265  0.045185875            5 
  120000    1.2243685   -6.2655373    58.149632  0.040381688  0.045161044            3 
  121000    1.2240814   -6.2791066    58.805682  0.040499781  0.045136703            2 
  122000    1.2351699   -6.2914227    59.343173  0.040534954  0.045121315            3 
  123000    1.2322124   -6.2863595    60.171931  0.040766891  0.045112626            1 
  124000    1.2390465     -6.27243    60.887188  0.040918809  0.045109324            3 
  125000    1.2481802   -6.2777211    61.562428  0.041041618  0.045112659            3 
  126000    1.2315617   -6.2954752    62.041471  0.041032718  0.045118007            5 
  127000    1.2342673   -6.2672775    62.610722  0.041083151  0.045122504            1 
  128000    1.2375794   -6.2611509    62.956646  0.040987399  0.045128373            2 
  129000    1.2372365    -6.318753    63.577567  0.041070779  0.045129817            3 
  130000    1.2158513   -6.3199376    64.352682  0.041251719  0.045137284            2 
  131000    1.2222881   -6.2085336    65.205267  0.041479177  0.045146544            2 
  132000    1.2303015   -6.2471766    65.474501  0.041334912  0.045156092            3 
  133000    1.2207124   -6.2751115     65.72245   0.04117948  0.045160886            4 
  134000    1.2195156   -6.2683936    66.164141  0.041146854  0.045154779            2 
  135000    1.2468418   -6.3127963    66.417967  0.040998745   0.04514366            3 
  136000    1.2448017   -6.2960704     66.87931  0.040979969  0.045128934            2 
  137000    1.2131545   -6.3060286    67.622211  0.041132731  0.045117428            3 
  138000    1.2068115   -6.3006839    68.152171  0.041154692   0.04510742            1 
  139000    1.1978258   -6.2883641    68.420083  0.041019234  0.045094005            4 
  140000    1.2129705   -6.2903621    69.212109  0.041197684  0.045077433            2 
  141000    1.2339318   -6.2999784    69.762154  0.041230588  0.045065403            2 
  142000    1.2269613   -6.3060378    70.376158  0.041300562  0.045058006            5 
  143000    1.2172735   -6.2889222    71.274574  0.041535299  0.045059149            2 
  144000    1.2466472    -6.268602    71.714947  0.041501705  0.045060908            1 
  145000    1.2475283    -6.296154    72.071653   0.04142049   0.04506219            2 
  146000    1.2106291   -6.2633083    72.464622  0.041361085  0.045057874            2 
  147000    1.2338048   -6.3055197    73.210416  0.041502503  0.045056873            2 
  148000    1.2311439   -6.3065625     73.80129   0.04155478  0.045057025            1 
  149000    1.2177399   -6.3036969    74.275413  0.041541059  0.045054422            2 
  150000    1.2182552    -6.311631    74.958677  0.041643709  0.045056992            2 
  151000    1.2311951   -6.2823246    75.534523  0.041685719  0.045060006            2 
  152000    1.2581906   -6.3269457    75.778891  0.041545444  0.045062046            2 
  153000    1.2305036   -6.2656786     76.46088  0.041645359  0.045058421            3 
  154000    1.2171419    -6.282673    76.855794  0.041588633  0.045054259            2 
  155000    1.2235783   -6.2828582    77.328928  0.041574692  0.045047938            3 
  156000     1.210144   -6.2927544    77.938131  0.041633617  0.045044266            2 
  157000    1.2711405   -6.2807915    78.468543   0.04164997  0.045035849            2 
  158000    1.2622718   -6.3254388    78.848486  0.041586754  0.045030705            2 
  159000     1.215209   -6.3121258    79.575431  0.041706201  0.045026527            3 
  160000    1.2068085   -6.2998572    79.900529  0.041614859  0.045019122            3 
  161000    1.2157818   -6.2924914    80.370374  0.041599573  0.045007698            3 
  162000    1.2477028   -6.2738582    81.079986  0.041707812  0.044994101            1 
  163000    1.2374751   -6.3077977    81.327023  0.041578233  0.044981369            1 
  164000    1.2537293   -6.3271801    81.669815   0.04149889  0.044970808            2 
  165000    1.2116574   -6.3051181    82.367853  0.041599925  0.044963517            1 
  166000    1.2109915   -6.3045224    83.113165  0.041723476  0.044955793            2 
  167000    1.2115463   -6.3005824    83.572471   0.04170283  0.044948881            2 
  168000    1.2565457   -6.2447788    84.109331  0.041720898  0.044942656            5 
  169000    1.2397507   -6.2905958    84.577174  0.041704721  0.044938192            1 
  170000    1.2349177   -6.3019779    85.061858  0.041696989  0.044926866            3 
  171000    1.2317042   -6.2825603    85.418456  0.041626928  0.044916413            2 
  172000    1.2058074   -6.2938096    85.879555  0.041608311   0.04490508            2 
  173000    1.2147302   -6.2956775    86.360675  0.041599554  0.044892652            2 
  174000    1.2607891   -6.3290286    86.547007  0.041449716  0.044874343            3 
  175000    1.2044249   -6.3180904    87.181309  0.041514909  0.044857117            4 
  176000    1.2276044   -6.3102113    87.926464  0.041631848   0.04484515            2 
  177000    1.2382667    -6.369551     88.08325  0.041470457  0.044829786            3 
  178000    1.2260282   -6.2767389    88.649026  0.041502353  0.044813018            1 
  179000    1.2034172   -6.2665143     89.18421  0.041519651  0.044794668            5 
  180000    1.2103491   -6.3178269    89.944607  0.041641021   0.04477546            3 
  181000    1.2397451   -6.2743249    89.957172  0.041416746  0.044760246            2 
  182000     1.220659   -6.2656142    91.136691  0.041729254  0.044744698            2 
  183000    1.2081792   -6.3041558    91.336027  0.041591998  0.044729199            3 
  184000    1.2141865   -6.3146601    92.041611  0.041685512  0.044715471            4 
  185000    1.2048737   -6.2961972    92.069677  0.041472827  0.044700222            2 
  186000    1.1968769   -6.3152828     92.69478  0.041529919  0.044686238            3 
  187000     1.232451   -6.2954356     93.34092  0.041595775  0.044669636            4 
  188000    1.1899281   -6.3010356    93.914413  0.041628729  0.044653669            2 
  189000    1.2309099   -6.3112367    94.174841  0.041523298  0.044640034            2 
  190000    1.2363229   -6.2758263    95.043815  0.041685884  0.044625242            2 
  191000    1.2168881   -6.2711216    95.521056  0.041675853  0.044610776            2 
  192000     1.232713   -6.2869864    95.837497  0.041596136  0.044593647            2 
  193000    1.2377215   -6.3425152    95.848108  0.041385193  0.044574574            3 
  194000    1.2188752   -6.3176388    96.742743  0.041556161  0.044554243            3 
  195000    1.2177525   -6.3282345    97.257537   0.04156305  0.044535446            2 
  196000    1.2177779   -6.2955516    97.186083  0.041320613  0.044515361            1 
  197000    1.2362079   -6.2522437    98.255841  0.041563384  0.044495515            1 
  198000    1.2066962   -6.2931739     98.68592  0.041534478  0.044478588            2 
  199000    1.2078794    -6.307137    99.253217  0.041563324  0.044464089            4 
  200000     1.223882   -6.3032649    100.21979  0.041758245  0.044452539            2 
  201000    1.2438811   -6.2980641    100.86107  0.041816362  0.044444517            2 
  202000     1.189344    -6.264021    101.32962  0.041802648  0.044436091            2 
  203000    1.2038069   -6.3186528    101.52954  0.041678792  0.044426405            3 
  204000    1.2357765   -6.3127104    102.41253  0.041835185  0.044417513            5 
  205000    1.2077009   -6.2849627    103.22757  0.041962425  0.044410524            1 
  206000    1.2357066   -6.2839043    103.63994  0.041925541   0.04440398            2 
  207000    1.2116614   -6.2831711    103.91321  0.041833013  0.044396463            3 
  208000     1.224399   -6.3242262     104.4828  0.041860096  0.044388071            3 
  209000    1.2274128   -6.2860654    105.35234  0.042006515  0.044379078            3 
  210000    1.2192917   -6.2585222    105.46658  0.041851818  0.044370706            2 
  211000    1.2195542   -6.3491115    106.01961  0.041871883  0.044362264            2 
  212000    1.2354553   -6.2819581    106.62618  0.041912807  0.044354244            9 
  213000    1.2131618   -6.2737132    107.33351  0.041992766  0.044348016            2 
  214000    1.2074015   -6.3507808    107.56911  0.041888283  0.044339858            3 
  215000    1.2169594   -6.3081695    108.04776  0.041878976  0.044333095            3 
  216000     1.220171   -6.3159972    108.66245  0.041922242  0.044323677            1 
  217000    1.1898682   -6.2906975    109.07572  0.041887756  0.044312356            3 
  218000    1.2256123   -6.3259563    109.44074  0.041835146  0.044302895            2 
  219000    1.2197641   -6.3093689    110.01982  0.041864468  0.044293772            2 
  220000    1.2258609   -6.2763143    111.08896   0.04207915  0.044285697            2 
  221000     1.228156    -6.331148     110.6933  0.041739555  0.044276478            2 
  222000    1.1898418   -6.2970161    111.60418  0.041893461  0.044266935            3 
  223000    1.1974293   -6.2710686    111.43225  0.041641349  0.044253814            3 
  224000    1.2277235   -6.3178754    112.08865  0.041699647  0.044238742            6 
  225000    1.2058675   -6.3264156     112.9954  0.041850147  0.044225126            1 
  226000    1.2083156   -6.2951205    113.30977  0.041780887  0.044211735            1 
  227000    1.1955535   -6.3293542    113.13212  0.041531614  0.044195993            2 
  228000    1.2019435   -6.3048918    113.83337  0.041605764  0.044179105            2 
  229000    1.2263505   -6.2794853     114.4896  0.041662882  0.044163571            3 
  230000    1.1956133   -6.2719138    115.05024  0.041684871  0.044148546            2 
  231000    1.2122647   -6.3420476    115.22963   0.04156913  0.044132685            2 
  232000    1.2334387   -6.3048921    115.90211  0.041631506  0.044117524            1 
  233000    1.2204098   -6.3102596     116.4256  0.041640058  0.044102494            5 
  234000    1.2358129   -6.2993726      116.812  0.041599717  0.044085927            2 
  235000    1.2174187   -6.3352322    116.96109  0.041475563  0.044070423            4 
  236000    1.2045153   -6.3660715    117.60818   0.04152831  0.044054341            2 
  237000    1.2158086   -6.3157348     118.5399  0.041680695  0.044039839            2 
  238000     1.221306   -6.3401565    118.95517  0.041650969  0.044023917            4 
  239000    1.2293258   -6.2934768    119.88646  0.041801417  0.044008103            1 
  240000     1.220309   -6.3008409    119.68558  0.041557494  0.043994931            1 
  241000    1.1764132   -6.3057699    120.00921  0.041496961  0.043979139            3 
  242000    1.2022843   -6.3019708    120.22775  0.041400742  0.043963378            3 
  243000    1.2523736   -6.3312001    121.31052  0.041601689  0.043946336            3 
  244000     1.217195   -6.3138632    121.44082  0.041475689  0.043931324            3 
  245000    1.2067359   -6.3382825     121.9668  0.041485304  0.043914875            5 
  246000    1.2231653   -6.3336955    122.83203  0.041609765  0.043900417            3 
  247000    1.2175085   -6.3079802    123.98045  0.041828762   0.04388997            3 
  248000    1.1924956   -6.3405253    124.19131  0.041730951  0.043880653            3 
  249000    1.2132542   -6.3211551    124.91478  0.041805483  0.043872323            3 
  250000    1.2315672   -6.2928379    125.64946  0.041883153   0.04386458            3 
  251000     1.229521    -6.292767    125.95133  0.041816511   0.04385654            1 
  252000    1.1939032   -6.3244351    126.51237    0.0418361  0.043847569            2 
  253000    1.2054609   -6.2673095    127.30217  0.041930886   0.04383908            2 
  254000    1.2094276   -6.3062662    127.52707  0.041839589  0.043832212            1 
  255000    1.2185128   -6.3149183    127.71308    0.0417363  0.043822753            4 
  256000    1.1916442    -6.351126    128.04641  0.041681773  0.043813139            2 
  257000    1.2107473   -6.3327914    128.73808  0.041743864  0.043803185            4 
  258000    1.2096873   -6.3268687     128.9245  0.041642282  0.043791415            3 
  259000    1.2104604   -6.3199774    130.03981  0.041840351  0.043780488            3 
  260000    1.1766243   -6.2748889    130.80122  0.041923467  0.043771997            3 
  261000    1.2257688   -6.3344941    131.19389  0.041888216  0.043764097            3 
  262000    1.2014089   -6.3429671    131.96737  0.041974354  0.043756209            3 
  263000    1.2111435   -6.3058956    131.88991  0.041790212  0.043748681            2 
  264000    1.1952826   -6.3070221    132.42262  0.041800071  0.043741129            3 
  265000     1.205333   -6.3647274    132.68074  0.041723503  0.043732753            2 
  266000     1.185836   -6.3221153    133.83544  0.041928394  0.043723484            2 
  267000    1.1683595    -6.296016    133.83012  0.041769699  0.043713788            4 
  268000    1.1955489   -6.3276519    134.32972  0.041769191  0.043706156            2 
  269000    1.1839368   -6.2766892    135.81222  0.042073179  0.043700786            3 
  270000    1.2207033   -6.2881422    135.67598  0.041875301  0.043695996            3 
  271000    1.2047043   -6.3521114     136.3012  0.041913039  0.043690027            3 
  272000    1.2184338   -6.3118529    136.55934  0.041838032  0.043683837            2 
  273000    1.2036599   -6.3281736    137.29758  0.041910129  0.043676315            2 
  274000    1.1959907    -6.282393    138.05807  0.041988465  0.043670112            2 
  275000    1.2064241    -6.313231    138.37811  0.041932759  0.043665451            2 
  276000    1.2080452   -6.3341813     138.4443  0.041800815  0.043659481            3 
  277000    1.2235806   -6.3587311    139.60863  0.042000188  0.043654295            5 
  278000    1.2249372   -6.3565017     139.8927  0.041934263  0.043648774            3 
  279000    1.1968736   -6.3571696    140.13051   0.04185499  0.043641878            2 
  280000    1.1996432   -6.3340565    140.86235  0.041923318  0.043633292            4 
  281000    1.1987302   -6.2980478    141.55799  0.041980423  0.043625782            2 
  282000     1.197738   -6.2907102    141.84891  0.041917527  0.043619172            1 
  283000    1.2123888   -6.3072724     142.6673  0.042010394  0.043611846            4 
  284000    1.1882675   -6.3556267    142.71724  0.041877124  0.043604128            3 
  285000    1.2145872    -6.257264    143.60997  0.041991218  0.043597555            2 
  286000    1.2336394    -6.329839    143.78673  0.041895901  0.043590755            4 
  287000    1.2107118   -6.2542751    144.86785  0.042063835  0.043583908            1 
  288000    1.2209283   -6.2842899    144.75158  0.041884138  0.043576358            2 
  289000     1.200286   -6.3476575    145.35866  0.041914262  0.043569861            4 
  290000    1.1776158   -6.3242409    145.49746  0.041809616  0.043563233            4 
  291000    1.1989672   -6.3121658     146.2787  0.041889662  0.043556263            3 
  292000    1.2003974   -6.3461269     146.5186  0.041814668  0.043549476            4 
  293000     1.204615   -6.3358476    147.05547  0.041824651  0.043541611            3 
  294000    1.2068759   -6.3061377    147.71123  0.041868261  0.043534837            1 
  295000    1.1964933   -6.2988434    148.06146   0.04182527  0.043527981            3 
  296000    1.2252543   -6.2836194    148.14195   0.04170663  0.043519009            3 
  297000    1.1972509   -6.3678608    148.02524  0.041533456  0.043509088            2 
  298000    1.1996043   -6.3423579    148.79035   0.04160804  0.043498399            2 
  299000    1.1917902   -6.3324878     149.0839  0.041550697  0.043488058            3 
  300000    1.1912137   -6.3068218    150.00819   0.04166894  0.043475698            4 
  301000     1.202308   -6.3203126    150.41446  0.041642985  0.043462615            5 
  302000    1.2086196    -6.314552    150.59631  0.041555274   0.04344705            2 
  303000    1.1972712   -6.3593462     149.9013  0.041226979  0.043431047            3 
  304000    1.2037355    -6.320455    151.06748  0.041411042  0.043415482            4 
  305000    1.1924445   -6.2896371    151.63017  0.041429007  0.043400778            1 
  306000    1.1907531   -6.3363616    152.07678  0.041415244  0.043385544            3 
  307000    1.2169222   -6.3586594    152.74838  0.041462644  0.043370092            3 
  308000    1.2173455    -6.339577    153.13611  0.041432929  0.043355219            1 
  309000    1.2145365   -6.3598815    154.25052  0.041599385  0.043341812            3 
  310000    1.1985317   -6.3044692    154.53952  0.041542883  0.043329921            2 
  311000    1.1931962    -6.363316    155.23664  0.041596099  0.043317647            1 
  312000    1.1929597   -6.3225341     155.8073  0.041615196   0.04330738            3 
  313000    1.2084605   -6.3415228    156.80072   0.04174673   0.04329758            2 
  314000     1.226339   -6.3253893    157.85238  0.041892883  0.043289756            3 
  315000    1.1814078   -6.3423102    158.27466  0.041871602   0.04328247            1 
  316000    1.2068853   -6.3013042    158.08747  0.041689735  0.043275075            2 
  317000    1.1735697   -6.3447242    159.14867  0.041837189  0.043266964            2 
  318000     1.206379    -6.334702    158.95614  0.041655172  0.043259778            3 
  319000    1.1811149   -6.2954989    159.89418  0.041769641  0.043251369            2 
  320000    1.1934818   -6.3460333    160.69316  0.041847178  0.043244847            2 
  321000    1.1713831   -6.3234303    161.06208  0.041812586  0.043239467            5 
  322000    1.2007338   -6.3241483    161.55324  0.041809844  0.043233297            2 
  323000      1.17915   -6.3405518    162.25528  0.041861528  0.043227632            3 
  324000    1.1896741   -6.2993491    162.87949  0.041892872   0.04322259            5 
  325000     1.183061   -6.3074623     163.2581   0.04186105  0.043216879            2 
  326000    1.1882481    -6.304214    163.30558   0.04174478  0.043211604            1 
  327000    1.1923792   -6.3758536    163.73641  0.041726914  0.043205138            1 
  328000    1.1829982   -6.3402535    163.76513  0.041606994  0.043198083            3 
  329000    1.2003942   -6.3511354    165.06895  0.041810778  0.043189932            2 
  330000    1.1893697   -6.3480095    165.67609  0.041837397  0.043182132            2 
  331000    1.1971652   -6.3451198    165.81795  0.041746715   0.04317431            2 
  332000    1.2056849   -6.3492855    165.82924  0.041623806  0.043165936            2 
  333000    1.1797837   -6.3158008    166.35063  0.041629288  0.043157143            1 
  334000    1.1941492   -6.3301958     166.9466  0.041653343  0.043147437            6 
  335000    1.1743768   -6.3292722    167.56719  0.041683381   0.04313875            1 
  336000    1.2001457    -6.315605    168.15738    0.0417057  0.043130705            1 
  337000    1.1786658   -6.3465047    168.47361   0.04166014  0.043122441            3 
  338000    1.2181676   -6.3384276    169.42485  0.041771414  0.043114848            2 
  339000    1.1755729   -6.3565202     169.9306  0.041772517  0.043108251            3 
  340000    1.2026784   -6.3322203    169.81886  0.041622269  0.043102142            2 
  341000    1.1557693   -6.3232186    171.32501  0.041868281  0.043096711            5 
  342000     1.193742   -6.3735879    171.64608  0.041824092  0.043092035            2 
  343000    1.2096664   -6.3463062     171.9889  0.041785447  0.043084986            2 
  344000    1.2077514   -6.3391529    172.79576  0.041859438   0.04307758            3 
  345000     1.206252   -6.3333085    172.26895  0.041610857  0.043069994            4 
  346000    1.2060973   -6.3772313    172.46773  0.041538471  0.043061454            3 
  347000     1.183061   -6.3666432    172.94052  0.041532305  0.043053003            2 
  348000     1.174698   -6.3123326    173.89436   0.04164137  0.043043711            2 
  349000    1.1672872   -6.3773305    174.26567  0.041610713  0.043034916            3 
  350000     1.189986   -6.3417355    174.46136  0.041538419  0.043025445            4 
  351000    1.2056509   -6.3514912    174.98408  0.041544177  0.043015655            3 
  352000    1.1861404   -6.3497213    175.04738   0.04144114  0.043005116            4 
  353000    1.2015314   -6.3573629    175.59655  0.041453387  0.042993434            2 
  354000    1.1776317   -6.3570513    175.49744  0.041312956  0.042980723            3 
  355000    1.1866515   -6.3621378    175.90902  0.041293197  0.042967664            5 
  356000    1.1955598   -6.3377545    176.31958   0.04127331  0.042953561            3 
  357000    1.1943211   -6.3231584    176.19245  0.041128022   0.04293905            4 
  358000    1.2017473    -6.326105    176.86707  0.041170175  0.042924723            4 
  359000    1.2050092   -6.3580235    178.01049  0.041320913  0.042911038            2 
  360000    1.2294658   -6.3399148    178.70843  0.041367692  0.042898994            2 
  361000    1.1784432   -6.3800666    178.45954  0.041195646  0.042886026            2 
  362000    1.1847142   -6.3520104    178.68874  0.041134608  0.042872018            3 
  363000     1.186222   -6.3092999    179.83684  0.041284858  0.042857529            4 
  364000    1.1783395   -6.3808166    179.60143  0.041117542  0.042843204            3 
  365000    1.1929474   -6.3358979     180.7878  0.041275754  0.042829337            4 
  366000      1.19701   -6.3469719    180.36711  0.041067193  0.042814671            5 
  367000    1.1963602   -6.3732621    180.93264  0.041083706    0.0428002            4 
  368000    1.1929298   -6.3196842    181.22568  0.041038425  0.042785187            7 
  369000    1.1995274   -6.3411185    181.79864  0.041056603  0.042770909            4 
  370000     1.190552   -6.3938311    181.64672  0.040911424  0.042754643            4 
  371000    1.2099517   -6.3102764    182.62862  0.041021703  0.042739365            3 
  372000    1.1959763   -6.3659635    183.43769  0.041092671  0.042724647            2 
  373000    1.2136193   -6.3150047    183.81808  0.041067488  0.042709785            2 
  374000    1.1963309   -6.3922481    183.93762  0.040984319  0.042694967            6 
  375000    1.1796972   -6.3909263    183.76246  0.040836103  0.042679931            5 
  376000       1.1948    -6.327343     184.6062  0.040914495  0.042665053            6 
  377000    1.1975803   -6.3875026    185.34094  0.040968377  0.042648959            2 
  378000    1.1923522     -6.33825    185.34192  0.040860212  0.042634271            4 
  379000    1.1924473   -6.3469711    186.38728  0.040982252  0.042619522            2 
  380000    1.2077717   -6.3849028    186.88873  0.040984371  0.042605674            1 
  381000    1.1799132   -6.3108819    187.23921  0.040953457  0.042591552            5 
  382000    1.1824672   -6.3083835    187.97863  0.041007555  0.042577701            2 
  383000    1.1766432   -6.3332427    188.60021  0.041035729  0.042563449            3 
  384000    1.1995192   -6.3865743    188.51964   0.04091138  0.042548392            3 
  385000    1.2083821    -6.361898    189.01403  0.040912127  0.042533546            3 
  386000    1.1902084   -6.3619048     189.1931  0.040844798  0.042519123            2 
  387000    1.1736144   -6.3659382    189.94827  0.040901867  0.042504144            1 
  388000    1.1696584   -6.3417684    190.62456  0.040941701   0.04248844            4 
  389000    1.1895305   -6.3831352    192.06987  0.041146074  0.042474849            2 
  390000    1.2083108   -6.3592291    191.62294  0.040945072  0.042461838            4 
  391000     1.181995   -6.3695019    191.57249  0.040829602  0.042448109            3 
  392000    1.1657236   -6.3796541    192.32963  0.040886401  0.042434058            4 
  393000    1.2088939   -6.3445468    193.49468  0.041029407  0.042419478            2 
  394000    1.1664821   -6.3808333    192.21479  0.040654567  0.042404119            2 
  395000    1.1904722   -6.3670676    193.69497  0.040863918  0.042389742            2 
  396000    1.1915574   -6.3358602    193.78565  0.040779808  0.042374936            4 
  397000    1.1939814   -6.3754642    193.83102  0.040686613  0.042359206            1 
  398000    1.1833379    -6.362568    194.36147   0.04069545  0.042342958            4 
  399000    1.1983765   -6.3442277    195.35386  0.040800723  0.042328366            2 
  400000    1.1682355   -6.3527295    195.41664  0.040711799  0.042314283           11 
  401000    1.1900309   -6.3731431    195.63581  0.040655821  0.042299802            2 
  402000    1.1873767   -6.3651209     196.6157  0.040757815  0.042284005            3 
  403000    1.2106797   -6.3789515    197.33301  0.040805006  0.042269281            4 
  404000    1.1966491   -6.3557286     197.7737  0.040794905   0.04225488            2 
  405000    1.1715001   -6.3844851    198.59113  0.040862373  0.042241527            3 
  406000    1.2134199   -6.3312933    198.07708  0.040656216  0.042227727            4 
  407000    1.1803279   -6.3688362    199.63675  0.040875665  0.042213285            4 
  408000    1.1784439   -6.3225766    199.31995  0.040710775  0.042198693            1 
  409000    1.1914117   -6.3738044    199.56533  0.040661232  0.042183761            3 
  410000    1.1992136    -6.369122    200.13067  0.040676965   0.04216922            4 
  411000    1.2013215   -6.3689534    200.54606  0.040662218  0.042154465            5 
  412000    1.1979892    -6.392492    201.22782   0.04070142  0.042139599            3 
  413000    1.1712829   -6.3775782    200.99389  0.040555668  0.042124207            4 
  414000    1.1752967   -6.3441656    201.76751  0.040613428  0.042108933            2 
  415000    1.2154102   -6.3443186    202.28358  0.040619193  0.042092974            2 
  416000    1.1719143   -6.3511872    202.71478  0.040607929   0.04207721            3 
  417000    1.1683807   -6.3371355    203.16808  0.040601135  0.042062034            1 
  418000    1.2079056   -6.4006925     203.4131  0.040552851  0.042047081            2 
  419000    1.1610489   -6.3648652    203.56347  0.040485972  0.042031804            2 
  420000     1.201027   -6.3327211    204.48816  0.040573047  0.042016637            5 
  421000    1.1831521   -6.3309365    205.72516  0.040721527  0.042002638            3 
  422000    1.1740111   -6.3547812    204.94498  0.040470968  0.041987545            2 
  423000    1.1856887   -6.3700714    205.97586   0.04057838  0.041972287            2 
  424000    1.1402576   -6.3532795    206.51513  0.040588665  0.041958369            2 
  425000    1.1523302   -6.3929022    206.05351   0.04040265   0.04194364            2 
  426000    1.2102841   -6.3525643    206.82612  0.040458943  0.041928567            1 
  427000    1.1917043   -6.3285358    207.50883   0.04049743  0.041913312            2 
  428000    1.1740238   -6.3620466    207.43772  0.040388965  0.041898552            4 
  429000    1.1614805   -6.3827594    208.41426   0.04048451  0.041884285            4 
  430000    1.1740195   -6.3921125    208.23542  0.040355702   0.04186935            1 
  431000    1.2013318   -6.3714678    208.84801  0.040380513  0.041853594            3 
  432000    1.1948344     -6.36021    209.32742  0.040379518  0.041838267            2 
  433000    1.1827258   -6.3845587    209.40993  0.040302143  0.041822333            3 
  434000    1.1819304   -6.3498662     210.7341  0.040463536  0.041807097            5 
  435000    1.1704821   -6.3683729    211.32055  0.040482864  0.041792384            4 
  436000    1.1897624   -6.3903679    210.47369  0.040228151  0.041778177            2 
  437000    1.1687934   -6.4220415    211.19594  0.040273825  0.041763198            5 
  438000    1.1884671   -6.3501499    212.95209  0.040515998  0.041748908            2 
  439000     1.226178   -6.3629716    212.99133  0.040431156  0.041735986            1 
  440000       1.1937   -6.3857693      213.287  0.040395265  0.041722529            3 
  441000     1.200103   -6.3782554     213.7774  0.040396335  0.041708649            1 
  442000    1.2073258   -6.3647502    213.56734  0.040265335  0.041694518            2 
  443000    1.1844621   -6.3461664    214.59607  0.040367959  0.041680382            4 
  444000    1.1759791   -6.3452557    214.74799  0.040305554  0.041665506            5 
  445000    1.2046395   -6.3814824    214.64389  0.040195484  0.041650407            1 
  446000    1.1934842   -6.3601855     216.0817  0.040374009  0.041635468            1 
  447000    1.1562781   -6.3305164    216.64178  0.040388101  0.041621327            2 
  448000     1.166712   -6.3577022    217.27959  0.040416591  0.041607467            3 
  449000    1.1958557   -6.3452002    217.55173  0.040377084  0.041593947            4 
  450000    1.1714773   -6.4037067    217.41852  0.040262688  0.041580363            3 
  451000    1.1794731   -6.3959217    218.04129  0.040288486  0.041566014            3 
  452000     1.184875   -6.3453103     218.5191  0.040287445  0.041552144            3 
  453000    1.1642431   -6.3598231      218.531  0.040200699  0.041537738            5 
  454000    1.1991757   -6.3838086    218.76015  0.040154213   0.04152339            2 
  455000    1.1833431   -6.3636155    219.50148  0.040201737  0.041508976            5 
  456000    1.1682962   -6.3992209    220.55696  0.040306462  0.041495012            3 
  457000    1.1801999    -6.363034    220.75594  0.040254548  0.041481403            1 
  458000    1.1638791    -6.376285    222.10583  0.040412269  0.041468521            3 
  459000    1.1790179   -6.3574403    221.61215  0.040234594  0.041455771            3 
  460000    1.2019002   -6.3385104    221.93352  0.040205348   0.04144207            2 
  461000    1.1656175    -6.382301    222.27136  0.040179205  0.041429022            4 
  462000    1.1983922    -6.400598    223.13249  0.040247564  0.041415298            4 
  463000    1.1866446   -6.3850237    222.80296  0.040101324  0.041401854            4 
  464000     1.188955   -6.4069764     223.3893  0.040120205  0.041388551            6 
  465000    1.1601694   -6.4013154    224.49992  0.040232961  0.041374333            3 
  466000    1.1581608   -6.3386358    225.11402  0.040256442  0.041360914            2 
  467000    1.1746208   -6.3886994    224.99263  0.040148577  0.041348039            1 
  468000    1.1774809   -6.3724821    225.20321  0.040100286   0.04133531            4 
  469000    1.1758849   -6.4429346     226.0257  0.040160927  0.041322133            4 
  470000    1.1910961   -6.3650094    226.80076  0.040212901  0.041309082            3 
  471000    1.1864945   -6.3732188    227.31451  0.040218419  0.041296078            3 
  472000    1.2016907   -6.3769584    227.41764  0.040151419  0.041283775            2 
  473000    1.1604279   -6.3934753    228.57013   0.04026958  0.041272371            4 
  474000     1.159293    -6.395859    228.77403   0.04022047  0.041261467            2 
  475000    1.1889202   -6.3646206    229.22249  0.040214472  0.041250416            2 
  476000    1.1789138   -6.3856608    229.85657  0.040240997  0.041238923            2 
  477000    1.1914462   -6.3979543    229.98781  0.040179562   0.04122873            6 
  478000    1.1848885   -6.3925241    230.59131  0.040200716  0.041218505            2 
  479000    1.1607318   -6.3573881     231.5991  0.040292118  0.041208434            4 
  480000    1.1826936   -6.3857142    232.75274  0.040408462  0.041198403            3 
  481000      1.15869   -6.4092017    232.83429  0.040338582  0.041188022            2 
  482000      1.16668   -6.4098915    232.91634  0.040269077  0.041177402            3 
  483000    1.1782371    -6.363098    233.50347  0.040287003  0.041166715            3 
  484000    1.1408974   -6.3890807    232.94889  0.040108281  0.041156244            4 
  485000    1.1482952   -6.3980793    234.13512  0.040229402  0.041144894            2 
  486000    1.1792074    -6.404628    233.79254  0.040087884  0.041133693            1 
  487000    1.1720703   -6.3765835    234.68859  0.040158896  0.041122609            4 
  488000    1.1754276   -6.3778697    234.82292  0.040099542  0.041111415            3 
  489000    1.1754745   -6.3690891    235.87213  0.040196341  0.041100617            2 
  490000    1.1610996   -6.3951821    234.85507  0.039941338    0.0410888            4 
  491000    1.1919288   -6.3950875    235.74636  0.040011263  0.041076369            2 
  492000    1.1877146    -6.403374    236.12683  0.039994381  0.041063549            2 
  493000    1.1621162   -6.3986959    236.50387  0.039976989   0.04105125            3 
  494000    1.1616776   -6.4129494    237.83049  0.040119852  0.041039933            2 
  495000    1.1467452   -6.3991093     237.4675  0.039977693  0.041028037            1 
  496000     1.174006    -6.406828    238.52001  0.040073927   0.04101642            2 
  497000    1.1803278   -6.3918462    238.80922  0.040041787  0.041005289            2 
  498000    1.1527565   -6.4171783     239.7469   0.04011829  0.040994412            2 
  499000    1.1669286    -6.370083     239.6478  0.040021343  0.040983036            2 
  500000    1.1790477   -6.3654281    240.08973  0.040014955   0.04097135            2 
  501000    1.1815635   -6.4493516    239.34679  0.039811509   0.04095949            3 
  502000    1.1847053   -6.3728023     240.7832  0.039970651  0.040947057            4 
  503000    1.1613311   -6.3661429      241.577  0.040022696  0.040934928            2 
  504000    1.1700957   -6.4016169    240.94904  0.039839458  0.040922536            3 
  505000     1.150402   -6.3855961    241.69392  0.039883486  0.040910293            2 
  506000    1.1639376   -6.3865449    241.93228   0.03984392  0.040897842            2 
  507000    1.1665078   -6.4096133    242.22835  0.039813996   0.04088567            3 
  508000    1.1769807   -6.4206898    242.65602  0.039805778  0.040873129            7 
  509000     1.183409   -6.3560319    244.20881  0.039981796  0.040860981            3 
  510000    1.1800362   -6.3966981    243.75004  0.039828437  0.040849046            2 
  511000    1.1660462   -6.3976691    243.94246  0.039781875  0.040836283            3 
  512000    1.1573092   -6.3655464    245.77531  0.040002491  0.040824888            2 
  513000    1.1776337   -6.4009706    245.39643  0.039862968  0.040814012            2 
  514000    1.1521935   -6.4023455    245.85733  0.039860137   0.04080245            1 
  515000    1.1746028   -6.3456649    246.45648  0.039879689  0.040790884            2 
  516000    1.1606939   -6.4064786    246.45885  0.039802785  0.040780011            2 
  517000    1.1665967    -6.375913    247.45858  0.039886941  0.040768936            3 
  518000     1.169637   -6.4454316    246.80481  0.039704764  0.040757994            3 
  519000    1.1509323   -6.3849831    247.91869  0.039807111  0.040745349            2 
  520000    1.1451648   -6.3900485    248.45516  0.039816533  0.040733496            3 
  521000    1.1586872   -6.3910453    249.47724  0.039903589  0.040722524            4 
  522000    1.1590908   -6.4039743    248.80066  0.039719135  0.040710575            3 
  523000    1.1386884   -6.3984265    249.93039  0.039823199  0.040698622            2 
  524000    1.1633221   -6.3601436    251.10292  0.039933671  0.040687807            3 
  525000    1.1633064   -6.3791755    251.23055  0.039877866  0.040677639            3 
  526000    1.1583102   -6.4098596    251.02931   0.03977017  0.040666659            2 
  527000    1.1589169   -6.3877705    252.13246  0.039869143  0.040655525            1 
  528000    1.1493122    -6.381069    251.40253   0.03967843  0.040645034            1 
  529000     1.165351   -6.3898669    252.67722  0.039804226  0.040634112            6 
  530000    1.1648076   -6.4176841    252.10083  0.039638496  0.040622813            3 
  531000    1.1688384   -6.4525098    253.17189  0.039731935  0.040611687            3 
  532000    1.1679355   -6.4318941     253.5329  0.039713801  0.040600551            4 
  533000    1.2045184   -6.3961931    253.17411  0.039583194  0.040589044            7 
  534000    1.1636309   -6.3929134     254.6267  0.039735752  0.040578565            6 
  535000    1.1853802   -6.3773765     255.3293  0.039770919  0.040568206            3 
  536000     1.158618   -6.3739063    255.13918  0.039667161  0.040557643            3 
  537000     1.177279   -6.4069684    255.40857  0.039635098  0.040547315            2 
  538000    1.1612936   -6.4020876    256.84185  0.039783434  0.040536754            3 
  539000    1.1894581   -6.4147666    257.62957  0.039831411  0.040526753            3 
  540000    1.1766607   -6.4029041    257.51822  0.039740466  0.040516811            2 
  541000      1.17673   -6.3929583    257.46221  0.039658381  0.040505868            5 
  542000    1.1668387   -6.3866034    258.80135  0.039791105  0.040494857            2 
  543000    1.1547696   -6.4019311    257.94411  0.039586267  0.040484222            4 
  544000    1.1811235   -6.4041753    258.68891  0.039627591  0.040473968            3 
  545000    1.1599905   -6.4259307    259.33288  0.039653346  0.040463254            2 
  546000    1.1585941   -6.3928007    260.92937  0.039824384  0.040453528            3 
  547000    1.1668613    -6.349084    261.34584  0.039815027  0.040443728            2 
  548000    1.1834684   -6.4073954    260.93305    0.0396796  0.040434096            2 
  549000    1.1797132   -6.4107076    263.10291  0.039936689  0.040424866            2 
  550000    1.1656674   -6.3722312    263.30329  0.039894437  0.040416917            4 
  551000    1.1759147   -6.3882995    263.06785  0.039786426    0.0404089            6 
  552000    1.1653718   -6.4201918    263.61259  0.039796587  0.040400416            4 
  553000    1.1554757   -6.3912955    264.09362  0.039797109  0.040391964            4 
  554000    1.1755693    -6.423547    264.68799  0.039814679   0.04038373            4 
  555000    1.1732287   -6.4254942    265.21906  0.039822682  0.040375933            3 
  556000    1.1432048   -6.4218221    265.72787  0.039827319  0.040367337            3 
  557000    1.1792836   -6.4014019    265.78327  0.039764104  0.040358982            5 
  558000    1.1701435   -6.4566332    265.55959  0.039659437  0.040350706            2 
  559000    1.1593704   -6.3651803    266.72312  0.039761943  0.040342823            6 
  560000    1.1525565   -6.3944696    266.43077  0.039647436  0.040334847            6 
  561000    1.1615449   -6.3811984    267.91469  0.039797191  0.040326903            2 
  562000    1.1689485   -6.4080342    269.21872  0.039919739  0.040318701            1 
  563000    1.1649223   -6.4091154    268.09086  0.039681892  0.040310349            4 
  564000    1.1526122   -6.4130314    269.52133  0.039822892  0.040302126            2 
  565000    1.1725954   -6.4171323    269.13672  0.039695682  0.040294537            2 
  566000    1.1433771   -6.3734496    269.81129  0.039724866   0.04028601            2 
  567000    1.1866259   -6.4222505    269.55492  0.039617125  0.040277933            5 
  568000     1.178027   -6.3976176    270.39253  0.039670266   0.04026918            2 
  569000    1.1713799   -6.4041116    271.24711  0.039725705  0.040260744            5 
  570000    1.1616036    -6.420736    271.65227  0.039715244  0.040253249            6 
  571000     1.166312   -6.3866772    272.71301  0.039800497  0.040245279            4 
  572000    1.1655941   -6.3783512    271.54867  0.039561286  0.040237033            4 
  573000    1.1601306   -6.4277491    273.33817  0.039752497  0.040229025            4 
  574000    1.1690204   -6.4324582    273.32461  0.039681273  0.040221022            4 
  575000    1.1828604   -6.3639587    274.40553  0.039768918  0.040213315            6 
  576000    1.1523283   -6.3944171    274.66191  0.039736967   0.04020559            3 
  577000    1.1580612   -6.4209203    273.92163  0.039561183  0.040197737            3 
  578000    1.1845512   -6.4372996    275.27953  0.039688514  0.040190051            2 
  579000    1.1578032   -6.4403218    274.84716  0.039557737  0.040182805            4 
  580000    1.1852936     -6.39723    277.49014  0.039869273  0.040175378            2 
  581000    1.1535965   -6.3876658    276.31701  0.039632389  0.040168187            2 
  582000    1.1739246   -6.4038055     278.0963  0.039819057  0.040161199            1 
  583000    1.1624656   -6.3757305    277.83211  0.039712995  0.040154083            7 
  584000    1.1790111   -6.4540657    277.71565  0.039628375  0.040146519            1 
  585000    1.1610152   -6.4209348    277.45718  0.039523815  0.040138902            7 
  586000    1.1439387   -6.4188028    279.01673  0.039678147  0.040130261            3 
  587000    1.1182392    -6.421274    278.87887  0.039590982  0.040122186            2 
  588000    1.1612441   -6.3907243    278.37719   0.03945255  0.040113734            2 
  589000    1.1674996   -6.4088255    278.80172  0.039445631    0.0401051            3 
  590000    1.1602898   -6.4217611    280.13848  0.039567582  0.040096179            2 
  591000    1.2021347   -6.4161474    280.62233  0.039568857  0.040088123            3 
  592000    1.1897455   -6.4313825    279.98352  0.039412094  0.040079575            3 
  593000    1.1470816   -6.4141724    280.76699  0.039455732  0.040071685            6 
  594000      1.14575   -6.3916538    281.25314  0.039457511  0.040063803            3 
  595000    1.1427137   -6.3892691    282.41604  0.039554067  0.040055648            2 
  596000    1.1752801   -6.4465798    283.26182  0.039605959  0.040047892            5 
  597000    1.1614559   -6.4083342     283.3018  0.039545198  0.040040318            3 
  598000    1.1482995   -6.4225546    283.46964  0.039502458  0.040032721            1 
  599000     1.162165    -6.429615    284.64493  0.039600019   0.04002521            2 
  600000    1.1361746   -6.3926414    284.05962  0.039452725  0.040017712            2 
  601000     1.136711   -6.4198144    284.40458  0.039434911  0.040010202            2 
  602000    1.1494016   -6.4204323    285.35046  0.039500341  0.040001771            4 
  603000    1.1526948   -6.4021714    285.78805  0.039495308  0.039993304            2 
  604000    1.1421953   -6.4133428     286.3488  0.039507284  0.039984948            6 
  605000    1.1741527   -6.4187928    286.43282  0.039453556  0.039977019            2 
  606000    1.1557055   -6.4488944     286.5645   0.03940656  0.039969606            2 
  607000    1.1771998   -6.4119337    288.04579  0.039545001  0.039962079            3 
  608000    1.1518678   -6.4168927    287.77748  0.039443186   0.03995447            2 
  609000    1.1564639   -6.4210759    288.48241  0.039474878  0.039946651            2 
  610000    1.1813961   -6.3945957     289.2138  0.039510083  0.039939427            3 
  611000     1.133459   -6.4152097    289.32965  0.039461217  0.039931968            3 
  612000    1.1622875   -6.4396705    289.78949  0.039459353  0.039924203            5 
  613000     1.173241   -6.4104295    290.71947  0.039521407  0.039916808            3 
  614000    1.1536418   -6.4428024     290.5721  0.039437039  0.039909517            5 
  615000    1.1615495   -6.3957415    291.85542  0.039546804  0.039902544            3 
  616000    1.1635304   -6.4098047    291.87286  0.039484965  0.039895586            2 
  617000    1.1573195   -6.4188291    290.79281  0.039275096  0.039888473            2 
  618000    1.1521866   -6.4109991    293.22872   0.03954001  0.039881175            3 
  619000    1.1796215   -6.4168339    292.81545  0.039420497  0.039873698            2 
  620000    1.1630818   -6.4384176    293.37242  0.039431777  0.039866145            3 
  621000    1.1854701   -6.4153657    294.02578  0.039455955  0.039858758            3 
  622000    1.1491756   -6.4014635     295.1259  0.039539912  0.039851331            1 
  623000    1.1591427   -6.4309886    295.42621  0.039516615  0.039844199            2 
  624000    1.1606088   -6.4229497    294.86032  0.039377714  0.039836932            3 
  625000    1.1533941   -6.4689414    295.54796  0.039406395  0.039829011            6 
  626000    1.1168852   -6.3785605    296.04325  0.039409379  0.039821067            2 
  627000    1.1598369   -6.4058988    297.21979  0.039502897  0.039813767            3 
  628000    1.1430951   -6.4338928    297.19658  0.039436914  0.039806377            3 
  629000    1.1564588   -6.4421526    297.18746  0.039373007  0.039799098            4 
  630000    1.1706722   -6.4223332    297.42155  0.039341475  0.039791623            3 
  631000    1.1674556   -6.4029013    298.58973  0.039433403  0.039784573            4 
  632000    1.1511921   -6.4221127    298.11687  0.039308658  0.039777643            2 
  633000    1.1387774   -6.4139623    299.13854  0.039381061  0.039770292            5 
  634000    1.1435341   -6.4675896    298.67109  0.039257504   0.03976255            4 
  635000     1.158351   -6.4403162    300.15021  0.039389791   0.03975501            3 
  636000    1.1770956   -6.4484656    300.41425  0.039362454  0.039747616            4 
  637000    1.1452863   -6.4199431    300.58626  0.039323163  0.039739772            2 
  638000    1.1221222   -6.4783924    299.96264  0.039180073  0.039732176            3 
  639000    1.1304249   -6.4544559    302.02317  0.039387477  0.039724717            6 
  640000    1.1498617    -6.414689    302.29942  0.039361903  0.039717124            4 
  641000    1.1447195   -6.4702487    301.21818  0.039159929  0.039709801            4 
  642000    1.1455586     -6.44633    302.22552  0.039229688  0.039702623            2 
  643000    1.1354306    -6.435581    303.11858  0.039284419  0.039695351            4 
  644000    1.1595883    -6.424977    303.59589  0.039285183  0.039688288            1 
  645000    1.1562422    -6.380252      304.649  0.039360335   0.03968165            1 
  646000    1.1428068   -6.4175806    304.08497  0.039226648  0.039674719            2 
  647000    1.1689798   -6.4501889    305.08014  0.039294196  0.039667303            2 
  648000    1.1480356   -6.4375309    304.81631  0.039199628  0.039660229            2 
  649000    1.1420062   -6.4375826    305.60363  0.039240322  0.039653381            2 
  650000    1.1507017   -6.4368014    306.19517  0.039255791  0.039646585            5 
  651000    1.1358865   -6.4400081    306.08516  0.039181408  0.039639137            2 
  652000    1.1600323   -6.4846695    306.29183  0.039147728  0.039632063            3 
  653000    1.1295093   -6.4063217    308.18792  0.039329749  0.039624319            4 
  654000     1.172736   -6.4427736    307.16453  0.039139211  0.039616686            4 
  655000    1.1617021   -6.3971358    306.52832  0.038998514  0.039608954            1 
  656000    1.1630137   -6.3989568    308.06686   0.03913451  0.039600676            2 
  657000    1.1644965   -6.4092128    307.76375  0.039036498  0.039592299            4 
  658000    1.1409477   -6.4060054    308.78821  0.039106916  0.039583621            4 
  659000     1.141749   -6.4607756    308.80482  0.039049674  0.039574712            3 
  660000    1.1585604   -6.4272138    308.47392  0.038948728   0.03956531            5 
  661000    1.1252238    -6.436158    308.42406  0.038883518   0.03955605            3 
  662000    1.1399462    -6.444884     309.8876  0.039009013  0.039546831            4 
  663000    1.1450715   -6.4472372     309.8266  0.038942509  0.039537793            2 
  664000    1.1247558   -6.4119798    311.77446   0.03912832  0.039528823            3 
  665000    1.1479388   -6.4598944    310.34919  0.038890876  0.039519538            3 
  666000    1.1644711   -6.4302372    310.48558  0.038849547  0.039509758            2 
  667000    1.1816816   -6.4064446    311.07144  0.038864498  0.039500414            7 
  668000    1.1441626   -6.4411526    312.19642  0.038946659  0.039491143            2 
  669000    1.1522699   -6.4229458    313.44871  0.039044433  0.039482194            3 
  670000     1.131389   -6.4485519     312.9104  0.038919204  0.039473303            3 
  671000    1.1578512   -6.4395683    314.14247  0.039014216  0.039464433            2 
  672000      1.14619   -6.4574221     313.0542  0.038821206  0.039455616            3 
  673000    1.1434748   -6.4417379    313.65967  0.038838493  0.039446799            3 
  674000    1.1558636   -6.4663599    314.76237  0.038917207  0.039437957            4 
  675000    1.1215907   -6.4313902    315.48109  0.038948282  0.039429222            4 
  676000    1.1697193   -6.4026363    316.19169  0.038978266  0.039420646            2 
  677000    1.1442246   -6.4416242    315.11857  0.038788597  0.039412325            3 
  678000    1.1388373    -6.469931    316.21972   0.03886673  0.039403434            8 
  679000     1.127693   -6.4030624    318.00345  0.039028406  0.039394488            3 
  680000    1.1697257   -6.4131263     317.2938  0.038884044  0.039385854            3 
  681000    1.1375176   -6.4493259    318.10288  0.038925951  0.039377558            2 
  682000    1.1198061    -6.461556    317.60686  0.038808267  0.039369008            3 
  683000    1.1379305   -6.4538957    318.27155  0.038832546  0.039360399            2 
  684000    1.1594908   -6.4249666    318.42596  0.038794586  0.039351542            5 
  685000    1.1417153   -6.4631983    318.39073  0.038733665  0.039343039            4 
  686000    1.1523572   -6.4150766    319.76419  0.038844046  0.039334334            3 
  687000     1.151226   -6.4136935    320.28402  0.038850561  0.039326061            3 
  688000    1.1196999   -6.4552642    320.88461  0.038866838  0.039317991            6 
  689000    1.1427286   -6.4460579     321.6043  0.038897472  0.039309987            2 
  690000    1.1529172   -6.4527195    321.85795  0.038871733  0.039301857            4 
  691000     1.159198   -6.4373932     321.6756  0.038793487  0.039293631            1 
  692000    1.1450691   -6.4519679    323.17269  0.038917713  0.039285473            3 
  693000    1.1263792   -6.4581945    322.76906  0.038813019  0.039277139            1 
  694000    1.1390542   -6.3900532    323.59221  0.038855933  0.039269223            4 
  695000    1.1584793   -6.4731302    322.91648  0.038719003  0.039260779            2 
  696000    1.1182762   -6.4736816    324.39502    0.0388404  0.039252617            3 
  697000    1.1589662   -6.4405617    324.94619  0.038850573  0.039244796            4 
  698000    1.1298847    -6.442182    325.55528  0.038867632  0.039237172            2 
  699000    1.1388848   -6.4246421    326.19433  0.038888213  0.039229621            2 
  700000    1.1584168    -6.422183    326.27035  0.038841708  0.039222108            6 
  701000    1.1260214   -6.4118791    327.33518  0.038912883  0.039214658            7 
  702000    1.1350034   -6.4517719    326.46822  0.038754537  0.039207153            2 
  703000    1.1499827   -6.4432362    326.94119  0.038755476  0.039199355            5 
  704000    1.1489279   -6.4041341    327.82892  0.038805507  0.039191534            5 
  705000    1.1342659   -6.4351738    328.30564  0.038806813  0.039183401            2 
  706000    1.1661566   -6.4189035    328.65259  0.038792798  0.039175753            1 
  707000    1.1380715   -6.4621566    328.89306  0.038766274  0.039168131            3 
  708000    1.1388718   -6.4050419    328.23217   0.03863373   0.03916047            2 
  709000    1.1402261   -6.4556058    330.65829  0.038864397  0.039152903            4 
  710000    1.1174703   -6.4613749    329.35274  0.038656425  0.039145242            3 
  711000    1.1375508   -6.4507782     329.3669  0.038603715  0.039137317           10 
  712000    1.1311273   -6.4394096    330.72647  0.038708622  0.039129457            2 
  713000     1.141722   -6.4546671    330.41609  0.038618056  0.039121667            6 
  714000    1.1549452    -6.475743    331.96121  0.038744306  0.039114183            3 
  715000    1.1389171   -6.4436205    332.66321  0.038771936  0.039107167            2 
  716000    1.1486603   -6.4607649    333.11688  0.038770586  0.039099843            2 
  717000    1.1349225   -6.4236355    334.02478  0.038822034  0.039092644            2 
  718000    1.1384192   -6.4210084    334.05231  0.038771159  0.039085522            3 
  719000    1.1247848   -6.4773484    334.43024  0.038761039  0.039078526            5 
  720000     1.147457   -6.4816683    334.60709  0.038727672  0.039071537            3 
  721000    1.1276753   -6.4447259    335.65257  0.038794795  0.039064521            2 
  722000    1.1380724   -6.4410206    336.30477  0.038816339  0.039057864            4 
  723000    1.1558649   -6.4376036    337.60521  0.038912541  0.039051303            5 
  724000    1.1621937    -6.435468    338.24085  0.038931958  0.039045013            2 
  725000    1.1509492   -6.4205464    337.60797  0.038805514  0.039039015            2 
  726000    1.0939368    -6.463335    337.73822  0.038767013  0.039032536            2 
  727000    1.1278254   -6.4583581    339.26436  0.038888625  0.039026225            4 
  728000    1.1377515   -6.4877661    338.23197   0.03871703  0.039019443            5 
  729000    1.1439899   -6.5036955    339.18069  0.038772369  0.039012486            4 
  730000    1.1416881   -6.4556681    339.52692   0.03875878  0.039005804            2 
  731000    1.1122298   -6.4563062    340.93175  0.038865909  0.038999262            4 
  732000    1.1406657   -6.4837813    339.62617  0.038664182  0.038993005            3 
  733000    1.1354813   -6.4871788     341.5546  0.038830673  0.038987171            6 
  734000    1.1373754   -6.4377473    341.77272  0.038802534  0.038980871            2 
  735000    1.1210985   -6.4047556    342.59471  0.038842938  0.038974976            6 
  736000    1.1442855   -6.4564815    342.32477  0.038759598  0.038968922            2 
  737000    1.1157311   -6.4692957    343.24966  0.038811585  0.038962979            2 
  738000    1.1379738   -6.4469022    343.61815  0.038800604  0.038957176            2 
  739000    1.1331997   -6.4851817    343.53827  0.038739092  0.038951366            3 
  740000    1.1444229   -6.4783635     344.5358  0.038799077  0.038945659            6 
  741000    1.1332629   -6.4586208    345.30355  0.038833058  0.038939903            3 
  742000    1.1206569   -6.4508358    345.21589  0.038770877  0.038934049            2 
  743000    1.1510724   -6.4455879     345.6663  0.038769213  0.038928507            7 
  744000    1.1522695   -6.4543384    346.17782  0.038774397  0.038922583            4 
  745000     1.151939   -6.4370695    348.76857  0.039012144  0.038917424            5 
  746000    1.1419333    -6.471333     346.2103  0.038674073  0.038912105            6 
  747000    1.1637988    -6.435401    347.63097  0.038780787  0.038906697            5 
  748000     1.113978   -6.4521136    347.99701   0.03876972  0.038901391            2 
  749000    1.1152367   -6.4310453    348.45807  0.038769256   0.03889631            3 
  750000    1.1329763   -6.4243137    350.60792  0.038956435  0.038891564            3 
  751000     1.111999    -6.491247    349.51592  0.038783391  0.038886673            3 
  752000    1.1445772   -6.4914221    350.03422  0.038789253  0.038881312            2 
  753000    1.1345129   -6.4832531    349.32869  0.038659661  0.038875844            2 
  754000      1.13522   -6.4862539    350.83256  0.038774597  0.038870687            4 
  755000    1.1291848   -6.4492326    352.39652  0.038895864  0.038865423            2 
  756000    1.1624548   -6.4760043    351.10269  0.038701796  0.038860064            5 
  757000    1.0996349   -6.4543344    351.70953  0.038717474  0.038854584            4 
  758000    1.1416678   -6.5013969    350.84207  0.038571028  0.038848754            3 
  759000    1.0955241   -6.4388517    352.81888  0.038737251  0.038842674            2 
  760000    1.1631778   -6.4427212    352.41177  0.038641642  0.038836893            4 
  761000    1.1242133   -6.4828537    352.71863  0.038624467  0.038830928            3 
  762000    1.1238764   -6.4569658    354.52627  0.038771464  0.038824993            4 
  763000    1.1618381   -6.4888856    354.71585  0.038741356  0.038819901            5 
  764000    1.1147387   -6.4719844    354.76115  0.038695588  0.038814841            2 
  765000    1.1238733   -6.4278247    356.76615  0.038863415  0.038809842            3 
  766000    1.1100231   -6.4049539    357.25855  0.038866248  0.038804934            7 
  767000    1.1194639   -6.4460399    356.68503  0.038753262  0.038800017            2 
  768000    1.1078321   -6.4683534    356.74225  0.038709011  0.038794533            3 
  769000    1.1486781   -6.4806784    358.13636  0.038809748  0.038789322            2 
  770000    1.1414496   -6.4533846    356.23435  0.038553502  0.038783906            2 
  771000     1.150179   -6.4865344     357.9288   0.03868664  0.038778345            2 
  772000    1.1470493   -6.4239833    357.96763   0.03864072  0.038772656            3 
  773000    1.1314512    -6.474088     357.6878  0.038560565  0.038766897            5 
  774000    1.1447846   -6.4911776    358.83111   0.03863384  0.038761072            3 
  775000    1.1228618   -6.4522543    359.49068  0.038654912  0.038755635            2 
  776000    1.1279444   -6.4816019    359.13172   0.03856655  0.038749874            3 
  777000    1.1307014   -6.4441425    360.56004  0.038670102   0.03874411            4 
  778000    1.1246233    -6.470752    360.91186  0.038658083    0.0387384            3 
  779000    1.1166049   -6.4667399      360.805  0.038597026  0.038732586            2 
  780000    1.1282895   -6.4661834     361.5954  0.038631987  0.038726372            4 
  781000    1.1054644   -6.4839462    361.83281  0.038607855  0.038720602            2 
  782000    1.1506374   -6.4748471    362.38051  0.038616849   0.03871469            2 
  783000    1.1294914   -6.4620155    363.02668  0.038636301  0.038709013            4 
  784000     1.116236   -6.4881951    362.20235  0.038499399   0.03870323            3 
  785000    1.1142711   -6.4814808    363.65386  0.038604443  0.038697666            2 
  786000    1.1444973   -6.4696639    364.28647  0.038622399  0.038692495            3 
  787000    1.1228456   -6.4631581    364.05959    0.0385493  0.038687018            3 
  788000    1.1357478   -6.4793346    365.11771  0.038612279  0.038682046            3 
  789000    1.1430207   -6.4766131    365.59523  0.038613776  0.038676733            3 
  790000    1.1429046   -6.4763575    366.47736  0.038657949  0.038671521            4 
  791000     1.141066   -6.4643046    366.37725  0.038598531  0.038666348            6 
  792000    1.1437082   -6.5206832    367.01871  0.038617289  0.038661273            3 
  793000    1.1224946   -6.4908185    367.21968   0.03858971  0.038655507            5 
  794000    1.1392015   -6.4855944    366.17663  0.038431636   0.03865005            4 
  795000    1.1231736   -6.4608996    367.98821  0.038573187  0.038644616            4 
  796000    1.1179301   -6.4839917    367.85604  0.038510892  0.038639147            3 
  797000     1.119811   -6.4716347    368.76582  0.038557697  0.038633439            3 
  798000    1.1328142   -6.4956568    368.49627  0.038481231  0.038627723            2 
  799000    1.1321415   -6.4290425    369.54326  0.038542268  0.038622174            5 
  800000    1.1005204   -6.4752152    369.29014  0.038467722  0.038616182            3 
  801000     1.113199   -6.4719916    369.66252  0.038458439  0.038610302            4 
  802000    1.1187222   -6.4627553    368.79525  0.038320371  0.038604234            4 
  803000    1.1649763    -6.498507    369.11927  0.038306275  0.038597882            5 
  804000    1.1062966   -6.4857421    370.26646  0.038377535  0.038592098            5 
  805000    1.1094064   -6.5022485    371.84162  0.038492921  0.038586409            3 
  806000    1.1260792   -6.4376244    371.92478  0.038453761  0.038580614            2 
  807000    1.1324917   -6.4959512    372.87418  0.038504149  0.038575224            2 
  808000    1.1244949   -6.4761502    372.88111   0.03845721  0.038569771            3 
  809000    1.1363947   -6.4653027    373.30519  0.038453357  0.038564021            3 
  810000    1.1087761   -6.4791345    372.16963  0.038289056  0.038558012            3 
  811000    1.1239716    -6.478117    374.16113  0.038446478  0.038552083            4 
  812000    1.1165002   -6.4671729    374.60327  0.038444506  0.038546079            4 
  813000     1.118626   -6.4809169    374.76396   0.03841369  0.038540519            2 
  814000    1.1125026   -6.4787065    374.94695  0.038385232  0.038534696            1 
  815000    1.1061481   -6.4739294    375.14493  0.038358378  0.038528741            2 
  816000    1.1203629   -6.4766281    376.13929  0.038412918  0.038522349            3 
  817000    1.1090085   -6.4933092    375.85951  0.038337364  0.038515945            2 
  818000     1.096727   -6.4983424    375.90028  0.038294649  0.038509389            5 
  819000    1.1425757   -6.4752606    376.55941  0.038314958  0.038502797            3 
  820000    1.1058587   -6.5036659    375.84356  0.038195483   0.03849618            3 
  821000    1.1150825   -6.4617959    376.64683  0.038230494  0.038489338            3 
  822000     1.123301   -6.4790809    375.85214  0.038103421  0.038482647            4 
  823000    1.1330937   -6.4488588    377.05747  0.038179169  0.038475942            3 
  824000     1.128651   -6.4995055    377.48377  0.038175948  0.038469387            3 
  825000    1.1189582   -6.4639085    377.71526  0.038153056  0.038462559            2 
  826000    1.1184553   -6.4664548    378.41721  0.038177684   0.03845547            3 
  827000    1.1150343   -6.4829709    379.32337  0.038222831  0.038448333            2 
  828000    1.1348034   -6.4701206    378.27533  0.038071189  0.038441438            3 
  829000    1.1293387   -6.4579447     381.2908  0.038328387  0.038434459            4 
  830000    1.1258038     -6.48879     378.2542   0.03797733    0.0384272            3 
  831000    1.1057331   -6.4841577    379.71884  0.038078504  0.038419672            4 
  832000    1.1098351   -6.4645994    380.50461  0.038111439  0.038412304            5 
  833000    1.1148855   -6.4962373    379.44073  0.037959257  0.038404727            7 
  834000    1.1203059   -6.4930697    380.44775  0.038014364  0.038396633            3 
  835000    1.1147785   -6.4697828    380.07725  0.037931861  0.038388332            4 
  836000    1.1104741   -6.4858748    380.32836  0.037911519  0.038380376            5 
  837000    1.1270197   -6.5208175    380.83012  0.037916181  0.038372074            2 
  838000    1.1085402   -6.4445873    381.21423  0.037909132  0.038364222            3 
  839000    1.1125743   -6.5131146    381.40821  0.037883216  0.038356098            2 
  840000     1.111775   -6.4734548    381.82517  0.037879481  0.038347566            2 
  841000    1.1121828   -6.5184178    382.81517  0.037932538   0.03833922            3 
  842000     1.108953   -6.4793673    382.51773  0.037858049  0.038331099            4 
  843000    1.1112832   -6.5060442    384.19665  0.037979108  0.038322937            6 
  844000    1.1277415   -6.4800925    383.54097  0.037869369  0.038314882            3 
  845000    1.1087063   -6.5395752    382.57539  0.037729328  0.038306689            3 
  846000     1.108434   -6.4697115    384.17051  0.037841855  0.038298359            5 
  847000    1.1242904   -6.4956067    383.74628  0.037755439  0.038289757            3 
  848000    1.1152102   -6.5048073     384.1652  0.037752083  0.038280996            4 
  849000    1.1178636   -6.5012905    384.61937  0.037752195  0.038272409            3 
  850000     1.079498   -6.4936225     385.6011  0.037804029  0.038263766            5 
  851000    1.1500236   -6.5044918    385.23801  0.037724051   0.03825522            5 
  852000    1.1233058   -6.4925435    386.13141  0.037767156  0.038246773            5 
  853000    1.1190951   -6.5146034    387.26931  0.037834048  0.038238187            3 
  854000    1.1110704   -6.5037262    387.42978  0.037805404  0.038229963            2 
  855000    1.1089943   -6.5056161    386.95244  0.037714663  0.038222158            4 
  856000     1.120698   -6.4788565    388.70861   0.03784157  0.038214417            2 
  857000    1.1249646   -6.4547191    389.75589   0.03789925   0.03820676            8 
  858000    1.1111804   -6.4990936      389.188  0.037799922  0.038199009            2 
  859000    1.1087862   -6.4829856    390.19779  0.037853879  0.038190984            3 
  860000     1.130127   -6.4748506    390.95433  0.037883171  0.038183125            4 
  861000    1.1041985   -6.5021934    391.14866  0.037857981  0.038175692            4 
  862000    1.1004885   -6.4941534     391.1482  0.037814018  0.038167909            4 
  863000    1.1019583   -6.5106647    391.65672  0.037819305  0.038160084            3 
  864000    1.0986239   -6.5049282    392.19849  0.037827787  0.038152306            2 
  865000    1.1187482    -6.494788    394.06785  0.037964147  0.038144862            4 
  866000     1.108875   -6.5271062    392.57081  0.037776252  0.038137481            3 
  867000    1.1174957    -6.537814    392.35038  0.037711494  0.038130142            5 
  868000    1.1120905   -6.4649921    394.17697  0.037843411   0.03812262            6 
  869000    1.1263639    -6.523031     393.6936  0.037753509   0.03811549            4 
  870000    1.1074005    -6.485657       394.38  0.037775862  0.038108447            4 
  871000    1.1201236   -6.4864552    395.45324  0.037835175  0.038100757            1 
  872000    1.1239204   -6.4612084    395.19362  0.037766974  0.038093094            4 
  873000     1.132579   -6.4961077    396.82163  0.037879117   0.03808591            4 
  874000    1.1266853   -6.4913455    395.22244  0.037683299  0.038078877            3 
  875000    1.1029813   -6.4862834    397.58007  0.037864768  0.038071806            6 
  876000    1.1167101   -6.5213436    398.23948  0.037884273   0.03806465            4 
  877000    1.0986756   -6.5151016    397.70655  0.037790436  0.038057303            3 
  878000    1.1077892   -6.5091342    397.71647  0.037748336  0.038050128            5 
  879000    1.1081193   -6.5068641    398.25507  0.037756453  0.038042655            2 
  880000    1.1388998   -6.5086408    398.34852  0.037722398  0.038035282            3 
  881000     1.123129   -6.5234429    398.31553  0.037676459  0.038027833            4 
  882000    1.0935389   -6.4971317     399.5918  0.037754327  0.038020688            4 
  883000    1.0899406   -6.5058414    399.90354  0.037740991   0.03801326            2 
  884000    1.1057071   -6.5060648    399.96131  0.037703744  0.038005887            3 
  885000    1.1282669   -6.5467371    399.81711  0.037647562  0.037998008            3 
  886000    1.1020608   -6.5061845    399.47555  0.037572945  0.037990298            5 
  887000    1.1028767   -6.5002254    400.11143  0.037590326  0.037982399            3 
  888000    1.1002663    -6.514831    399.96767  0.037534504   0.03797429            3 
  889000    1.0992972   -6.4769191    401.10107  0.037598526  0.037966301            4 
  890000    1.1163917   -6.5338365     401.0047  0.037547257  0.037958107            3 
  891000    1.1069189   -6.4939841    401.32981  0.037535522  0.037950179            4 
  892000    1.1026832   -6.5466673    402.65818  0.037617543  0.037942087            4 
  893000    1.1121388   -6.4999512    401.40729  0.037458687  0.037933733            5 
  894000    1.1221205   -6.5194417    402.34006  0.037503734  0.037925691            7 
  895000    1.1061315     -6.48068    403.39384  0.037559948  0.037917722            4 
  896000    1.1167907   -6.5288099    402.16301  0.037403554  0.037909571            3 
  897000     1.098831   -6.5364231    402.85633  0.037426266  0.037901152            3 
  898000    1.1011011   -6.5407279     402.7482  0.037374554  0.037892335            4 
  899000    1.1055217   -6.5310049    403.80533  0.037430973  0.037883804            1 
  900000    1.0905267   -6.5088417    403.90836  0.037398922  0.037875403            3 
  901000    1.0766282   -6.5192054    404.92534  0.037451474  0.037867426            4 
  902000    1.1351535   -6.5265105    404.54841   0.03737513  0.037859093            4 
  903000     1.134624   -6.5139392    404.26708  0.037307777  0.037850437            7 
  904000    1.1014975   -6.5403195    405.33474  0.037364928  0.037841822            2 
  905000    1.1002218   -6.5109511    404.90483  0.037284055  0.037832889            1 
  906000    1.0934749   -6.4763351    406.74747  0.037412387  0.037823933            3 
  907000    1.1005114   -6.4801102    404.67235  0.037180481  0.037814989            2 
  908000    1.1019682   -6.4564011     406.5068  0.037307892  0.037805721            3 
  909000    1.1213497   -6.5040416    406.50545  0.037266726  0.037796675            2 
  910000    1.1327564   -6.4881671    406.54503  0.037229398  0.037787841            2 
  911000    1.1211962   -6.5024772    408.18022   0.03733811  0.037778986            2 
  912000    1.1030394   -6.4669208    409.15457  0.037386199  0.037770209            3 
  913000    1.1369071   -6.4955202    408.79892  0.037312789  0.037761451            3 
  914000    1.0879327   -6.5175114    407.67506  0.037169498  0.037752583            4 
  915000    1.1055983   -6.5221208    411.39984  0.037468109   0.03774391            1 
  916000    1.1111048   -6.4983614    410.49813  0.037345172   0.03773522            3 
  917000    1.1061839   -6.5107617    410.44355  0.037299487  0.037726733            1 
  918000    1.1088048    -6.539001     409.6489  0.037186719  0.037718154            4 
  919000    1.1031672   -6.5017091    413.11664  0.037460704   0.03770971            5 
  920000    1.0895758   -6.5063953    411.39037  0.037263621  0.037701167            3 
  921000    1.0926913   -6.5031009    411.27315  0.037212554  0.037692491            2 
  922000    1.1074994   -6.4970821    412.20629  0.037256534  0.037683625            1 
  923000    1.1247354   -6.4995823     410.8967  0.037097933  0.037674775            3 
  924000    1.1169675   -6.5106323    411.49209   0.03711148  0.037665938            2 
  925000    1.0946216   -6.5563229    412.38066  0.037151411  0.037656804            2 
  926000    1.1071024   -6.4986272     412.8074  0.037149694  0.037647625            2 
  927000    1.0824099   -6.4843217    414.33645  0.037247074  0.037638685            1 
  928000    1.1203838   -6.5310318    413.55157  0.037136455  0.037629748            7 
  929000     1.108889   -6.5387372    414.11951  0.037147426  0.037620766            2 
  930000    1.1075397   -6.5479206    414.40849  0.037133378    0.0376121            3 
  931000    1.1095798   -6.5193377    413.79162  0.037038276  0.037603111            4 
  932000    1.1046991   -6.5399132    415.84793  0.037182398  0.037594381            2 
  933000    1.1317398   -6.5230364    415.50368  0.037111797  0.037585437            2 
  934000    1.1091853   -6.4887414    415.81431  0.037099778  0.037576837            2 
  935000     1.104843    -6.510994    417.55493  0.037215234  0.037568291            4 
  936000    1.1137576    -6.505817    416.11429  0.037047213  0.037559952            2 
  937000    1.1135268   -6.5468616    417.73329  0.037151663  0.037551668            3 
  938000    1.1032434   -6.5166786     418.5126   0.03718129  0.037543758            3 
  939000     1.105818    -6.523077    420.43852  0.037312613  0.037535824            4 
  940000    1.1058254   -6.5542372    419.26565  0.037168941  0.037527517            2 
  941000    1.1001616   -6.5542188    418.78887  0.037087219  0.037519151            2 
  942000    1.1119492   -6.5317205    419.35775  0.037098174  0.037511003            2 
  943000    1.1229696   -6.5237057    420.04876  0.037119898  0.037502819           10 
  944000    1.1039558   -6.5445116     420.0702  0.037082468  0.037494615            8 
  945000    1.1222757     -6.51278    419.99303  0.037036422  0.037486044            3 
  946000    1.1171618   -6.5300286    420.34004   0.03702784  0.037477889            9 
  947000    1.1154501   -6.5465273    422.58233  0.037186055  0.037469325            3 
  948000    1.1258163   -6.5208296    421.11976  0.037018263  0.037460881            3 
  949000    1.1053535   -6.5245348    423.02649  0.037146688  0.037452696            2 
  950000    1.0957644   -6.5272792    421.76939  0.036997315  0.037444462            5 
  951000    1.0868513   -6.5277241    423.65961  0.037124046  0.037436234            3 
  952000    1.1211628   -6.5178528     422.4362  0.036977958   0.03742821            2 
  953000    1.1046306   -6.5109508    424.02694  0.037078257  0.037420352            2 
  954000    1.1080882   -6.5242527    425.51729  0.037169574  0.037412882            3 
  955000    1.0993112   -6.5253326    425.32114  0.037113537   0.03740527            5 
  956000    1.1090071   -6.5101982    424.83107  0.037031997  0.037397822            2 
  957000    1.1012597   -6.5149824    427.90764  0.037261202  0.037390353            2 
  958000    1.0975891   -6.4988263    428.05902  0.037235475  0.037382987            3 
  959000    1.1136536   -6.4953005    428.05988  0.037196722  0.037375744            4 
  960000     1.092659   -6.4854449    429.37949  0.037272526  0.037368676            6 
  961000    1.1207017   -6.5595444    428.33713  0.037143351  0.037361628            4 
  962000    1.1130341   -6.5271307    429.32466  0.037190286  0.037354916            2 
  963000     1.106401   -6.4985792    428.39958  0.037071615  0.037347885            3 
  964000    1.1036019    -6.513371    429.77965  0.037152459  0.037340609            2 
  965000    1.0857819   -6.5034995    429.75577  0.037111897  0.037333444            2 
  966000    1.1045812   -6.4976976    429.43121  0.037045481  0.037326461            2 
  967000    1.0865911   -6.4795002    431.36314  0.037173659  0.037319332            2 
  968000    1.0968266   -6.5289383    430.25143  0.037039552  0.037311899            3 
  969000    1.0880684   -6.5484339    430.87278  0.037054762   0.03730433            3 
  970000    1.0926399   -6.5318783    429.12929  0.036866777  0.037296598            2 
  971000    1.0816492   -6.5298051    431.63376  0.037043749  0.037289035            2 
  972000    1.0949996   -6.5351807     430.9938  0.036950771  0.037281595            4 
  973000      1.10174   -6.5188467    432.52122  0.037043612  0.037274095            1 
  974000    1.0773279   -6.5301888    433.10295  0.037055351  0.037266636            2 
  975000     1.105892   -6.5078047    432.31955  0.036950389  0.037258731            2 
  976000    1.0690029   -6.5323822    431.77144  0.036865731  0.037250587            5 
  977000    1.1006755   -6.5043485    432.13637  0.036859124  0.037242568            9 
  978000    1.0932458   -6.5263376    432.62387  0.036862975  0.037234609            2 
  979000    1.0919097   -6.5296441    433.88358  0.036932548  0.037226589            2 
  980000    1.0687978   -6.5126376    434.43914  0.036942104  0.037218749            3 
  981000    1.0768717    -6.555497    433.76008  0.036846762  0.037211004            3 
  982000    1.0697654   -6.5468657    434.19154  0.036845854  0.037203098            4 
  983000    1.1041766   -6.5315244    433.63928  0.036761553  0.037195052            3 
  984000    1.0947116   -6.5180774    434.76546  0.036819568  0.037187233            4 
  985000    1.0977315   -6.5147674    434.71615  0.036778016  0.037179294            3 
  986000    1.0849116   -6.5693012    434.18012  0.036695412  0.037171046            5 
  987000    1.1001982   -6.4953641    435.08687  0.036734792  0.037162626            3 
  988000    1.1375659   -6.5142031     436.7976  0.036841903  0.037154497            2 
  989000    1.0744892   -6.5106158    436.68971   0.03679556   0.03714615            2 
  990000    1.0905046   -6.5746213    435.83536  0.036686478  0.037137817            2 
  991000     1.073786    -6.490365    437.68561  0.036805046  0.037129517            3 
  992000    1.1163371   -6.5253501    437.36135  0.036740705  0.037121065            2 
  993000    1.0981996   -6.5284122    436.81738  0.036658055  0.037112794            4 
  994000    1.1047349   -6.5387445    436.40637  0.036586718  0.037104509            7 
  995000     1.102067   -6.5469622    439.13203  0.036778227  0.037096433            4 
  996000    1.0872837   -6.5422593    438.06909  0.036652367  0.037088353            5 
  997000    1.1023622    -6.561622    437.76911  0.036590531  0.037080261            5 
  998000    1.0861746   -6.5451808    438.64723   0.03662719  0.037072095            3 
  999000    1.0817876   -6.5788996    438.84742  0.036607225  0.037064023            3 
 1000000    1.0708547   -6.5533231    440.31319  0.036692765  0.037055733            4 
 1001000    1.0986001   -6.5452806    441.78763  0.036778857  0.037047704            2 
 1002000     1.091744   -6.5184736    441.73826  0.036738045  0.037040036            2 
 1003000    1.0852434   -6.5497432    441.59721  0.036689698  0.037032273            3 
 1004000    1.0784116    -6.555301    443.56524  0.036816504  0.037024516            1 
 1005000     1.109231   -6.5262873    443.05892  0.036737887  0.037017017            5 
 1006000    1.0888589   -6.5543773    442.56712   0.03666063  0.037009753            4 
 1007000    1.0842571   -6.5474418    444.70185  0.036800881  0.037002354            1 
 1008000    1.1026591   -6.5180075    444.30308  0.036731406  0.036994645            3 
 1009000    1.0824683   -6.5562616    444.43034  0.036705512  0.036987019            2 
 1010000    1.0845311   -6.5519471    444.83895  0.036702884  0.036979051            2 
 1011000    1.0873384   -6.5313571    445.25897  0.036701201   0.03697128            3 
 1012000    1.0963292   -6.5489116    445.48571  0.036683606   0.03696353            5 
 1013000    1.0762401   -6.4688454    447.86329  0.036842982  0.036955984            4 
 1014000    1.1020603   -6.5397412    446.77744  0.036717409  0.036948574            5 
 1015000    1.0930769    -6.549894    447.96078  0.036778389  0.036941031            4 
 1016000    1.1042607   -6.5010846    447.16641  0.036677035   0.03693346            4 
 1017000     1.099432    -6.537377    446.72587  0.036604873  0.036925446            5 
 1018000    1.0898115   -6.5301372    448.00113  0.036673308  0.036917621            3 
 1019000    1.1008313   -6.5411015    447.04229  0.036558905  0.036909882            5 
 1020000    1.0725631   -6.5365344    447.48964  0.036559611  0.036902108            3 
 1021000    1.0750404   -6.5599194    447.29683  0.036508066  0.036894287            3 
 1022000    1.0867377   -6.5178213    448.51694  0.036571831  0.036886517            3 
 1023000    1.0825801   -6.5045565    450.30112   0.03668142  0.036878677            4 
 1024000    1.0904403   -6.5430651    449.34485  0.036567778  0.036870951            5 
 1025000    1.0914495   -6.5526963    448.79315  0.036487248   0.03686322            4 
 1026000    1.0840394   -6.5409029    450.21464  0.036567141  0.036855398            2 
 1027000    1.0667392   -6.5392681    450.95076  0.036591266    0.0368475            2 
 1028000    1.0947368   -6.5141247    450.53991  0.036522366  0.036839767            4 
 1029000    1.0968763   -6.5354076    450.89917  0.036515968  0.036831793            3 
 1030000     1.077983   -6.5526397     450.9901  0.036487872  0.036823738            3 
 1031000    1.0563864   -6.5563627    450.97552  0.036451303  0.036815411            2 
 1032000    1.0981946   -6.4975968    451.06316  0.036423059   0.03680676            3 
 1033000    1.0982985   -6.4943795    451.69061  0.036438417  0.036798322            4 
 1034000    1.0859287   -6.5249314    452.22543  0.036446279  0.036790148            4 
 1035000    1.0881554   -6.5330565    452.64608  0.036444934  0.036781956            2 
 1036000    1.0723583   -6.5212847    451.99264  0.036357194  0.036773851            5 
 1037000     1.098575   -6.5173789    454.39415   0.03651512  0.036765434            2 
 1038000    1.0606263    -6.541571    453.28122  0.036390592  0.036757219            3 
 1039000    1.0827491   -6.5944975    452.49069  0.036292163  0.036748763            5 
 1040000    1.0681188   -6.5228268    452.08081  0.036224424  0.036740241            2 
 1041000    1.0745147   -6.5643589     454.7053   0.03639972  0.036731698            2 
 1042000     1.080336   -6.5609256     454.7077  0.036364979  0.036723203            2 
 1043000    1.0825289   -6.5533316    454.74121  0.036332791  0.036714785            3 
 1044000    1.1058074   -6.5461614    454.66744  0.036292101  0.036706361            3 
 1045000    1.0842422   -6.5170818    456.55983   0.03640828  0.036698074            3 
 1046000    1.1005096   -6.5681117    456.56295  0.036373721   0.03668986            3 
 1047000     1.086203   -6.5539917    455.92958  0.036288569  0.036681704            8 
 1048000    1.0680242   -6.5342842    458.46658  0.036455676  0.036673807            3 
 1049000    1.0673269    -6.522059    458.33601  0.036410551  0.036666117            3 
 1050000     1.099729    -6.521763    459.10497  0.036436903  0.036658381            2 
 1051000    1.0882874   -6.5440561    459.39977  0.036425608  0.036650501            4 
 1052000    1.0875154   -6.5712077    458.76929   0.03634104  0.036642996            3 
 1053000    1.0587246   -6.5580406    461.70646  0.036538973  0.036635344            4 
 1054000     1.080065   -6.5377146     460.5137  0.036410001  0.036628157            3 
 1055000     1.070309   -6.5543436    460.64479  0.036385844  0.036620545            2 
 1056000    1.0745382   -6.5182637    462.34381  0.036485465  0.036613009            4 
 1057000    1.0915342   -6.5683658    460.99614  0.036344697  0.036605753            6 
 1058000    1.0896894   -6.5366248    461.96501  0.036386658  0.036598473            5 
 1059000     1.091974   -6.5449958     463.0271  0.036435875  0.036591176            2 
 1060000    1.0801429   -6.5662567    463.92536  0.036472119   0.03658392            2 
 1061000    1.0781371   -6.5578096    463.59373  0.036411697  0.036576789            5 
 1062000    1.0801055   -6.5687166    463.70861  0.036386426  0.036569447            5 
 1063000    1.0715838   -6.5822604    464.17782  0.036388979  0.036562218            4 
 1064000    1.0976069   -6.5644672    463.68115   0.03631588  0.036554921            4 
 1065000    1.0790301   -6.5503537    465.26148  0.036405437  0.036547694            2 
 1066000    1.0957701   -6.5452007    465.24598  0.036370074   0.03654076            4 
 1067000    1.0735247   -6.5772984    464.80598  0.036301623  0.036533876            3 
 1068000    1.0732034   -6.5603112    465.95449  0.036357248  0.036526869            3 
 1069000    1.0811485   -6.5579077    467.24758   0.03642404  0.036519832            3 
 1070000    1.0910901   -6.5473057    467.92036  0.036442396  0.036512942            3 
 1071000    1.0765386   -6.5358614    467.97683  0.036412763  0.036506285            2 
 1072000    1.0769667   -6.5717105    467.77959  0.036363463  0.036499441            3 
 1073000    1.0762912   -6.5755487    467.55914  0.036312453  0.036492336            7 
 1074000    1.1007228   -6.5411607    469.15023  0.036402097  0.036485111            3 
 1075000    1.0849042   -6.5343891    467.23221  0.036219551  0.036477925            2 
 1076000     1.105902   -6.5822685    468.24195  0.036264091  0.036470815            2 
 1077000    1.0714757   -6.5905306    469.91916  0.036360195  0.036463855            2 
 1078000     1.071371   -6.5615359     469.4177  0.036287701   0.03645672            4 
 1079000    1.0954757   -6.5575282    468.34203  0.036170994  0.036449717            2 
 1080000    1.0781423   -6.5450286    471.08902  0.036349461  0.036442681            3 
 1081000    1.0779386   -6.5954687    470.52721  0.036272526  0.036435592            4 
 1082000    1.0660241   -6.6001419    472.67211  0.036404198  0.036428525            5 
 1083000    1.0836088   -6.5539821    471.40142  0.036272809  0.036421312            4 
 1084000    1.0603328    -6.575193    471.15055  0.036220061  0.036414122            4 
 1085000     1.091509   -6.5599309    472.26883  0.036272568   0.03640698            3 
 1086000    1.0502849   -6.5705714    472.11697  0.036227515  0.036399931            5 
 1087000    1.0586581   -6.5492187     472.3786  0.036214244  0.036392818            2 
 1088000     1.085429   -6.5869694    473.06026  0.036233169  0.036385712            5 
 1089000    1.0572944   -6.5968153     473.5135   0.03623458  0.036378623            3 
 1090000     1.079898   -6.5501108    474.08132   0.03624475  0.036371729            3 
 1091000    1.0808659   -6.5662802    475.64571   0.03633102  0.036365349            2 
 1092000    1.0661678   -6.5594201     475.8077  0.036310111  0.036358716            8 
 1093000    1.0700584   -6.5967892    474.33679  0.036164744  0.036352003            6 
 1094000    1.1018538    -6.604567    475.06118  0.036186866  0.036345198            4 
 1095000    1.0636667   -6.6062916    476.46248  0.036260463  0.036338318            6 
 1096000     1.071248   -6.5530117    475.68622  0.036168356  0.036331394            2 
 1097000    1.0760455   -6.5805544    477.31154  0.036258853  0.036324515            5 
 1098000    1.0700225     -6.54278    476.13993   0.03613691  0.036317625            4 
 1099000    1.0707185   -6.5901153    477.54515  0.036210582  0.036310696            3 
 1100000    1.0848968   -6.5634125    479.00261  0.036288076   0.03630377            3 
 1101000    1.0919592   -6.6071738    477.60862  0.036149608  0.036296954            5 
 1102000    1.0711474   -6.5756095    478.79325  0.036206386  0.036289795            3 
 1103000    1.1001458   -6.5919513    478.01324   0.03611463  0.036282787            2 
 1104000    1.0891385   -6.5348027    478.59486   0.03612582  0.036275895            2 
 1105000    1.0820874   -6.5928603    479.58855  0.036168066  0.036268779            7 
 1106000    1.0920922    -6.583081    480.62055  0.036213121  0.036261623            2 
 1107000    1.0445589   -6.5809836    478.93711  0.036053682  0.036254511            3 
 1108000    1.0675775   -6.5510526    479.01284  0.036026838  0.036247485            4 
 1109000    1.0588885   -6.5770676    480.55151  0.036109972  0.036240445            3 
 1110000    1.0601894   -6.5850743    479.41477    0.0359921  0.036233378            3 
 1111000    1.0497368   -6.5953135    480.25377  0.036022635  0.036226006           10 
 1112000    1.0845386   -6.5710181    480.74926  0.036027373  0.036218564            3 
 1113000    1.0832892   -6.5499101    481.04956  0.036017487  0.036211073            2 
 1114000    1.0774041   -6.5385238    482.04419   0.03605956  0.036203893            3 
 1115000    1.0620322   -6.5677189    482.23405  0.036041409  0.036196513            3 
 1116000    1.0750866   -6.5753349    482.29351  0.036013554  0.036189273            3 
 1117000    1.0827515   -6.5611376    483.09829  0.036041352  0.036182046            4 
 1118000    1.0556378   -6.5864066    482.54402  0.035967801   0.03617473            5 
 1119000    1.0853254   -6.5450124    483.35055  0.035995721  0.036167559            2 
 1120000    1.0561728   -6.5920633    481.42988  0.035820676  0.036160251            5 
 1121000    1.0911427   -6.6204025    482.34361  0.035856646  0.036152964            2 
 1122000    1.0854269   -6.6238247    483.14062  0.035883884  0.036145546            3 
 1123000    1.0895231    -6.540908    485.84549  0.036052648  0.036138186            3 
 1124000    1.0948617   -6.5559198    486.55935  0.036073499  0.036130984            3 
 1125000    1.0612691   -6.5795936    485.52352  0.035964706  0.036123478            3 
 1126000    1.0752497   -6.5743918    485.77146  0.035951115  0.036116091            2 
 1127000    1.0848751   -6.5984537    485.47124  0.035897016  0.036108894            6 
 1128000    1.0679304   -6.5770314    487.31005  0.036001038  0.036101621            2 
 1129000    1.0687433   -6.5697235    486.05789  0.035876727  0.036094401            1 
 1130000    1.0703237   -6.5441939    487.68578  0.035965028  0.036087226            3 
 1131000    1.0709262   -6.6147789    486.47629  0.035844112  0.036079712            2 
 1132000    1.0762388   -6.5178884     486.6561  0.035825684  0.036072389            3 
 1133000    1.0659884   -6.6048028    485.95314  0.035742361   0.03606518            3 
 1134000    1.0498211   -6.6037428    488.35245  0.035887159  0.036057764            4 
 1135000    1.0783634   -6.5864441    488.79729    0.0358882  0.036050666            3 
 1136000    1.0819523   -6.5784027    488.98202   0.03587016  0.036043433            5 
 1137000    1.0541285   -6.5843569     488.9362  0.035835254   0.03603597            4 
 1138000    1.0443256   -6.5529284    488.15765  0.035746753  0.036028715            3 
 1139000    1.0772253   -6.5872086    490.43352  0.035881879  0.036021444            2 
 1140000    1.0749665   -6.5871224    489.98121   0.03581734   0.03601431            4 
 1141000     1.104305   -6.5532494    490.94673  0.035856466  0.036007035            4 
 1142000    1.0743252   -6.5396368     491.3322  0.035853196  0.036000071            4 
 1143000    1.0413077   -6.5877153    491.30361  0.035819744  0.035993034            4 
 1144000    1.0620862   -6.5322934    492.03608  0.035841789  0.035985848            2 
 1145000    1.0750754   -6.6041766    491.04975  0.035738701  0.035978533            3 
 1146000    1.0795786   -6.5969947    492.53784  0.035815725   0.03597137            2 
 1147000    1.0830075    -6.573267    492.30684  0.035767716  0.035964324            5 
 1148000    1.0743778   -6.6118006    492.69111  0.035764453  0.035957065            7 
 1149000    1.0473491   -6.6023984    493.71905   0.03580788  0.035949807            4 
 1150000    1.0873062   -6.5841611    493.47876   0.03575933  0.035942207            5 
 1151000    1.0360419   -6.5965379    492.87253  0.035684371  0.035934853            2 
 1152000    1.0607908   -6.5954332    493.72718  0.035715219  0.035927398            2 
 1153000    1.0585649    -6.531958    494.36234  0.035730149  0.035919889            6 
 1154000    1.0669672   -6.5671749    494.98975  0.035744494    0.0359123            2 
 1155000    1.0568552   -6.5525768     494.4646  0.035675657  0.035904682            3 
 1156000    1.1064623   -6.6196214    493.10667  0.035546905  0.035896851            4 
 1157000    1.0774629   -6.6337263    494.19943  0.035594889  0.035888911            5 
 1158000    1.0638635   -6.5777525    494.74973  0.035603751  0.035880927            2 
 1159000    1.0701068   -6.5917925    493.69116   0.03549692  0.035873064            3 
 1160000    1.0719318   -6.6194103    493.93521  0.035483851  0.035864982            3 
 1161000    1.0579843    -6.621921    494.13681  0.035467758  0.035856828            4 
 1162000    1.0720973    -6.586204    494.66071  0.035474807  0.035848841            5 
 1163000     1.056455   -6.6026203    494.51139  0.035433605  0.035840661            2 
 1164000    1.0697801   -6.5947619    496.17897  0.035522549  0.035832566            4 
 1165000    1.0698526   -6.5808876    496.67566  0.035527586  0.035824578            7 
 1166000    1.0448155   -6.6164268      496.641   0.03549464  0.035816411            4 
 1167000    1.0566181   -6.5808941    496.38629  0.035446036  0.035808358            2 
 1168000    1.0561344   -6.5539746    496.64858  0.035434402  0.035800191            6 
 1169000    1.0644847   -6.5816569      496.408   0.03538694  0.035792148            2 
 1170000    1.0571184   -6.6472042    496.00387  0.035327911  0.035783767            4 
 1171000    1.0698115   -6.5836276    495.78337   0.03528205  0.035775463            9 
 1172000    1.0612054   -6.5496624    497.77546  0.035393591  0.035767152            2 
 1173000    1.0586515   -6.5832457    500.09413  0.035528142  0.035758805            2 
 1174000    1.0687992   -6.5806208    499.59181  0.035462224  0.035750567            4 
 1175000    1.0808965    -6.545605    499.60932  0.035433285  0.035742484            6 
 1176000    1.0775668   -6.6071536    498.04111  0.035292029  0.035734259            3 
 1177000    1.0673897   -6.6096759    499.07048  0.035334925  0.035725955            2 
 1178000    1.0503417   -6.5849158    500.73602  0.035422752  0.035717519            2 
 1179000    1.0602245   -6.5862153    499.76433  0.035324027    0.0357091            3 
 1180000    1.0605565   -6.6093233    499.19071  0.035253581  0.035700538            5 
 1181000    1.0587291   -6.5378995    500.69001  0.035329524  0.035691923            4 
 1182000    1.0529903    -6.601316    499.81892  0.035238221  0.035683455            5 
 1183000    1.0709078    -6.613728    500.23464  0.035237718  0.035674684            6 
 1184000    1.0791483      -6.5946    500.61789   0.03523493  0.035666122            6 
 1185000    1.0815524   -6.5923826     504.0264  0.035444894  0.035657827            5 
 1186000    1.0740608   -6.5837366    502.13166  0.035281876   0.03564956            5 
 1187000    1.0997315   -6.5615711    503.63658  0.035357805  0.035641429            2 
 1188000    1.0560381   -6.5981876    502.93486   0.03527882   0.03563315            4 
 1189000    1.0748545   -6.5685909     503.3714  0.035279745  0.035624983            2 
 1190000    1.0431692   -6.6160723    502.98455  0.035223008  0.035616814            4 
 1191000    1.0693823   -6.5971635    503.97112  0.035262463  0.035608653            5 
 1192000    1.0481944   -6.5909164     504.7748  0.035289066  0.035600472            4 
 1193000    1.0449261   -6.6112815    505.32821  0.035298143  0.035592435            3 
 1194000    1.0490107    -6.588927     507.0997  0.035392218   0.03558436            7 
 1195000    1.0788983    -6.589889    505.60683  0.035258495  0.035576143            4 
 1196000     1.042251   -6.6631514    503.39711  0.035075049   0.03556796            3 
 1197000     1.047772   -6.6014201    505.78003  0.035211642  0.035559599            4 
 1198000    1.0746603    -6.562513    506.41529  0.035226439   0.03555137            4 
 1199000    1.0342111   -6.6129333    506.50825   0.03520352  0.035543162            3 
 1200000    1.0439778   -6.5963601    505.34071  0.035093105  0.035534872            4 
 1201000    1.0693202   -6.5616589    507.43417  0.035209143  0.035526568            5 
 1202000    1.0566874   -6.6071721    506.29244  0.035100696  0.035518473            3 
 1203000    1.0589159   -6.6095594    507.52351  0.035156796  0.035510262            3 
 1204000     1.052297   -6.5691839    507.92374  0.035155298  0.035501811            5 
 1205000    1.0401582    -6.554968    506.95806   0.03505934  0.035493354            3 
 1206000    1.0795986    -6.607215    507.72246  0.035083089  0.035484611            2 
 1207000    1.0596921   -6.6118888    508.30358  0.035094144  0.035476011            3 
 1208000    1.0415608   -6.6096618    507.50774  0.035010192  0.035467368            8 
 1209000    1.0479551    -6.577903    510.46237  0.035184889  0.035459087            3 
 1210000    1.0515099   -6.5674999    510.04048  0.035126755  0.035450833            4 
 1211000    1.0538076   -6.5960488    509.50388  0.035060823  0.035442706            1 
 1212000    1.0703563   -6.5743164    512.64825  0.035248092  0.035434594            6 
 1213000    1.0461722   -6.6201328     510.8243  0.035093727   0.03542652            3 
 1214000    1.0640554   -6.6327138    511.38179  0.035103089  0.035418194            7 
 1215000    1.0416861    -6.588338    514.61815  0.035296169  0.035410138            3 
 1216000    1.0443689   -6.5764935     512.1006  0.035094614  0.035402317            1 
 1217000    1.0693838   -6.5829007    512.48847  0.035092336  0.035394416            2 
 1218000    1.0813437   -6.6178523    513.61982  0.035140929  0.035386407            2 
 1219000    1.0815503   -6.5956648    513.51235  0.035104754  0.035378619            1 
 1220000    1.0583581   -6.6329437    513.95175  0.035105994  0.035370963            2 
 1221000    1.0485074   -6.5780968    515.69382  0.035196138  0.035363191            3 
 1222000    1.0586133   -6.5874107    513.81179  0.035038993  0.035355415            4 
 1223000    1.0525171   -6.6080154    514.96502  0.035088922  0.035347482            4 
 1224000    1.0400539   -6.5987238    514.12783  0.035003257  0.035339517            4 
 1225000    1.0608401    -6.628473    514.66412  0.035011164  0.035331445            3 
 1226000    1.0613009   -6.5985173    515.82309  0.035061385  0.035323303            4 
 1227000    1.0506111   -6.5888217    516.00441  0.035045124  0.035315087            2 
 1228000    1.0506414   -6.6073228    513.74571  0.034863308  0.035306912            3 
 1229000    1.0374144   -6.6159259    515.72935  0.034969443  0.035298736            3 
 1230000    1.0764537   -6.6214113    517.16555  0.035038317  0.035290484            3 
 1231000    1.0514531    -6.605265    516.66755  0.034976141  0.035282244            5 
 1232000    1.0331485    -6.601489    517.24647  0.034986909  0.035274089            3 
 1233000    1.0385275   -6.5849216    518.38751  0.035035652  0.035266216            4 
 1234000    1.0547973   -6.6152298    518.03739  0.034983616  0.035258164            3 
 1235000    1.0605222   -6.5816195    519.51223  0.035054807  0.035249954            3 
 1236000    1.0617262   -6.6247633    516.91396  0.034851265   0.03524159            4 
 1237000    1.0366863   -6.5936648    518.57694  0.034935122  0.035233242            2 
 1238000    1.0585409   -6.6052457    517.01402  0.034801698  0.035224907            3 
 1239000    1.0486957   -6.6403941    516.55421  0.034742683  0.035216431            3 
 1240000    1.0543747   -6.5985166    518.00791  0.034812359  0.035208029            4 
 1241000    1.0550787    -6.607105    520.07697  0.034923245  0.035199737            3 
 1242000    1.0735626   -6.5914968    520.26832  0.034907965  0.035191828            4 
 1243000    1.0351005   -6.6133934    520.57042  0.034900135  0.035183792            2 
 1244000    1.0532189   -6.6155209     520.0236   0.03483545  0.035175698            4 
 1245000    1.0482769   -6.6191643    522.09583  0.034946173  0.035167606            2 
 1246000    1.0581498   -6.6324213    521.58714  0.034884105  0.035159672            3 
 1247000    1.0560477   -6.5611723    524.08476  0.035023039    0.0351518            3 
 1248000    1.0277095   -6.5866456    522.42819  0.034884361  0.035144112            6 
 1249000    1.0594156   -6.6080036    522.87351  0.034886143  0.035136242            5 
 1250000    1.0475139   -6.6066911    523.89195   0.03492613  0.035128281            5 
 1251000    1.0557667   -6.6196032    523.38436  0.034864399  0.035120399            5 
 1252000    1.0344833   -6.6080036    524.59337  0.034917024  0.035112679            1 
 1253000    1.0588436   -6.6161863    523.00331  0.034783407  0.035104806            4 
 1254000    1.0504451   -6.6377851    523.09847  0.034761993  0.035096864            2 
 1255000     1.027512   -6.6062713    523.22918  0.034742973  0.035088766            3 
 1256000    1.0466708   -6.6298942    525.64194  0.034875394   0.03508062            4 
 1257000    1.0436793   -6.6024717     526.5758   0.03490956  0.035072663            4 
 1258000    1.0467129   -6.6168343    525.15981  0.034788011  0.035064648            2 
 1259000    1.0548298   -6.6056569    527.59638  0.034921656  0.035056711            3 
 1260000    1.0627398   -6.5830007    527.62964   0.03489614  0.035048884            4 
 1261000    1.0607242   -6.6360782    526.70467   0.03480734   0.03504098            5 
 1262000    1.0419257   -6.6191328    527.34374  0.034821959  0.035032981            3 
 1263000    1.0575538   -6.6302721    525.54099  0.034675441  0.035025102            4 
 1264000    1.0346275   -6.5874401    527.21824  0.034758586  0.035016925            4 
 1265000    1.0275479   -6.5917491    529.08674  0.034854199  0.035008909            3 
 1266000    1.0596173   -6.6518715    525.56377  0.034594771  0.035000976            2 
 1267000    1.0349839   -6.6372906    526.94931  0.034658597  0.034992797            3 
 1268000    1.0448911   -6.5374486    528.50802  0.034733703  0.034984584            2 
 1269000     1.045256    -6.606524    527.48696  0.034639281  0.034976509            3 
 1270000    1.0440221   -6.6164384     529.2028  0.034724593  0.034968226            3 
 1271000    1.0555641   -6.6352684    526.97349  0.034551107  0.034959965            2 
 1272000    1.0473298   -6.6249941    527.76229  0.034575621  0.034951513            4 
 1273000    1.0382106    -6.576616    529.97696  0.034693438  0.034943306            3 
 1274000    1.0520011    -6.658527    528.80123  0.034589301  0.034934989            4 
 1275000    1.0240804   -6.6252088    528.68935  0.034554859  0.034926538            3 
 1276000     1.040013   -6.6219997     528.2608  0.034499791   0.03491801            4 
 1277000    1.0506164   -6.6457301    528.22673  0.034470552  0.034909469            2 
 1278000    1.0411066    -6.656705    529.63915  0.034535677  0.034901149            3 
 1279000    1.0518763   -6.6078981    530.38001  0.034556946  0.034892809            7 
 1280000    1.0254879   -6.6265383    532.21862  0.034649649  0.034884637            2 
 1281000    1.0743424   -6.6070137    531.20703  0.034556794  0.034876555            6 
 1282000    1.0209598   -6.6067026    530.88558  0.034508943  0.034868319            2 
 1283000    1.0450872   -6.6028144    530.93797  0.034485449  0.034859764            2 
 1284000    1.0421383    -6.577856    533.15039   0.03460218  0.034851268            6 
 1285000    1.0583725   -6.5791727    532.70734   0.03454652  0.034843129            3 
 1286000    1.0411911   -6.6320583    532.37001  0.034497798  0.034834861            3 
 1287000    1.0602621   -6.6136409    533.62397  0.034552187  0.034826735            9 
 1288000    1.0650072   -6.5982847    534.53467  0.034584282  0.034818603            3 
 1289000    1.0336944    -6.624052     535.1912  0.034599897  0.034810457            4 
 1290000     1.011153   -6.6394432    534.29188   0.03451498  0.034802227            4 
 1291000    1.0188733   -6.6264429    534.03369  0.034471578  0.034794064            4 
 1292000    1.0522421   -6.6397606    534.49988  0.034474966  0.034785983            3 
 1293000    1.0625165   -6.6037681    536.95382  0.034606459  0.034778076            4 
 1294000    1.0289759    -6.629091    535.86271  0.034509448  0.034770106            2 
 1295000    1.0468299   -6.6101772    535.12539  0.034435354  0.034762162            3 
 1296000    1.0332787   -6.6423709    536.33588  0.034486618  0.034754173            5 
 1297000    1.0112986   -6.6216425    535.83679  0.034427961  0.034746131            5 
 1298000    1.0576499   -6.5904165    537.74832   0.03452416  0.034738039            3 
 1299000    1.0490834   -6.6254385    537.86828  0.034505278  0.034730139            4 
 1300000    1.0267088   -6.6466222    535.78524  0.034345208  0.034722056            3 
 1301000    1.0557809    -6.661682     535.3423  0.034290437  0.034713802            4 
 1302000    1.0397029   -6.5908156    537.46026  0.034399658  0.034705377            4 
 1303000    1.0437305   -6.6349896    536.40403  0.034305707  0.034696829            2 
 1304000    1.0466138   -6.6262611    538.11375   0.03438866  0.034688452            5 
 1305000     1.037084   -6.6239001    539.23533  0.034433929  0.034680217            3 
 1306000    1.0374245   -6.5986443    539.29643  0.034411462  0.034672045            7 
 1307000    1.0343609   -6.6262198    539.93259  0.034425694  0.034664049            4 
 1308000     1.025591   -6.6229458    539.66031  0.034382028  0.034656006            3 
 1309000    1.0451034   -6.6409951    538.74096  0.034297235  0.034647954            4 
 1310000    1.0539842   -6.6103745    541.51567  0.034447562  0.034639796            4 
 1311000    1.0308239   -6.6093973    542.77695  0.034501459  0.034631719            2 
 1312000    1.0588632   -6.6221253    540.76112  0.034347124  0.034623801            3 
 1313000    1.0614321   -6.6166249    541.29985  0.034355157  0.034615827            2 
 1314000    1.0314172   -6.6333531    541.48407  0.034340695    0.0346076            6 
 1315000    1.0447492   -6.6780974    540.43638  0.034248186  0.034599352            6 
 1316000     1.031433   -6.6459431    542.71692  0.034366573  0.034591082            5 
 1317000    1.0480981   -6.6681718    540.77399  0.034217539  0.034583025            2 
 1318000    1.0275548   -6.6499757    542.63908  0.034309502  0.034574786            2 
 1319000    1.0441614   -6.6353933    544.60612  0.034407766  0.034566912            2 
 1320000    1.0376897   -6.5841666    543.39161  0.034305026  0.034558972            7 
 1321000    1.0265346   -6.6369855    544.37167  0.034340883   0.03455104            5 
 1322000    1.0455206   -6.6248775    545.42253  0.034381148  0.034543198            7 
 1323000      1.04954   -6.5955469    545.56386  0.034364063  0.034535356            4 
 1324000     1.051038    -6.642714    546.75668  0.034413185  0.034527673            3 
 1325000    1.0543195   -6.6380019    545.07088  0.034281188  0.034520019            2 
 1326000    1.0491354   -6.6296405    545.38221    0.0342749  0.034512232            3 
 1327000    1.0393484   -6.6488699     545.5483  0.034259501    0.0345046            3 
 1328000    1.0586209   -6.6123675      547.792  0.034374498  0.034497115            3 
 1329000     1.045614   -6.6246862    546.61508  0.034274835  0.034489619            3 
 1330000    1.0341657    -6.625078    547.55225  0.034307785  0.034481913            3 
 1331000    1.0338672   -6.6239329    548.74531  0.034356706   0.03447434            3 
 1332000    1.0177805   -6.6351915    550.04424  0.034412177  0.034466733            5 
 1333000     1.035275   -6.6046783    548.39855   0.03428348  0.034459294            3 
 1334000    1.0375828   -6.6624955    547.47965  0.034200378  0.034451688            4 
 1335000    1.0222067   -6.6331549    549.68068  0.034312152  0.034444174            3 
 1336000    1.0383471   -6.6611098     550.0259  0.034308003  0.034436692            4 
 1337000     1.016316   -6.6267192    549.38838  0.034242606  0.034429059            2 
 1338000    1.0318657   -6.6366178    551.08091  0.034322428  0.034421476            3 
 1339000    1.0734325   -6.6271119    551.38579   0.03431577  0.034413969            2 
 1340000     1.055201   -6.6310443     551.6868   0.03430888   0.03440642            3 
 1341000    1.0534497   -6.6498121    549.46067  0.034144958  0.034398774            3 
 1342000    1.0273391   -6.6339294    550.10117  0.034159288    0.0343912            2 
 1343000    1.0224657   -6.6064454    552.20917  0.034264655    0.0343837            2 
 1344000    1.0400143    -6.636693    550.95515  0.034161406  0.034376185            2 
 1345000    1.0361961   -6.6381762    553.56037  0.034297421  0.034368809            4 
 1346000    1.0433104   -6.6176573    552.69401  0.034218302  0.034361417            8 
 1347000    1.0626856   -6.6292666    552.81517  0.034200394  0.034354033            2 
 1348000    1.0534404   -6.6286346    554.54116  0.034281723  0.034346541            6 
 1349000    1.0647964   -6.6202059    554.25105   0.03423839  0.034339371            3 
 1350000    1.0340226   -6.6145748    554.09298   0.03420327  0.034332038            3 
 1351000    1.0192218   -6.6227113    553.70195  0.034153833  0.034324581            2 
 1352000    1.0427657   -6.6929089    553.97674  0.034145509  0.034317152            6 
 1353000    1.0389689   -6.6475929    557.51203  0.034338016  0.034309722            3 
 1354000    1.0358305   -6.6560597    554.25337  0.034112098  0.034302178            3 
 1355000    1.0497182   -6.6307808    554.95262  0.034129928  0.034294712            7 
 1356000   0.99545576   -6.6320472    555.67792  0.034149331  0.034287228            3 
 1357000    1.0466888   -6.6621913    556.99476  0.034205033  0.034279651            5 
 1358000    1.0352691   -6.6237515    556.36279  0.034141065  0.034272309            6 
 1359000    1.0272591    -6.631351    556.89173  0.034148377  0.034264947            3 
 1360000    1.0125084   -6.6198282    557.24841  0.034145123  0.034257522            3 
 1361000    1.0159037   -6.6568805    557.72551  0.034149248  0.034250161            3 
 1362000    1.0199379   -6.6347533    558.76538  0.034187798  0.034242831            3 
 1363000    1.0408691   -6.6447001    557.11669  0.034061915   0.03423524            3 
 1364000    1.0520635   -6.6313187    560.75619  0.034259298  0.034227784            5 
 1365000    1.0471887   -6.6514526    557.61105  0.034042188  0.034220489            6 
 1366000    1.0405013   -6.6463869    559.05047   0.03410508  0.034213005            5 
 1367000    1.0452543   -6.6531677    559.07197  0.034081442  0.034205534            4 
 1368000    1.0501323   -6.6428458    559.97564  0.034111577  0.034198236            2 
 1369000    1.0244482   -6.6623547    559.23041  0.034041296  0.034190886            2 
 1370000    1.0562418   -6.6611774    559.26722  0.034018688  0.034183373            2 
 1371000    1.0401719   -6.6456892    559.69274  0.034019738  0.034175827            2 
 1372000    1.0317682   -6.6138438    560.30872  0.034032356  0.034168072            6 
 1373000    1.0107267   -6.6531377    559.66493  0.033968496  0.034160414            5 
 1374000    1.0178061   -6.6603019    561.37455  0.034047462  0.034152861            3 
 1375000    1.0145876   -6.6208341    563.19771  0.034133195  0.034145491            4 
 1376000     1.048047   -6.6414584    561.87456  0.034028256   0.03413813            2 
 1377000    1.0517424   -6.6627644    563.03132  0.034073549  0.034130593            3 
 1378000    1.0363588   -6.6484453    561.53162  0.033958129    0.0341232            3 
 1379000    1.0353514   -6.6610399    562.55026  0.033995061  0.034115864            2 
 1380000    1.0403671   -6.6461586    563.64534  0.034036555  0.034108359            4 
 1381000     1.021511   -6.6474841    563.28734  0.033990306  0.034100966            6 
 1382000    1.0249858   -6.6683975     564.8018  0.034057031  0.034093524            3 
 1383000    1.0278516   -6.6718209    562.75539  0.033909098  0.034086117            2 
 1384000    1.0192234   -6.6374505    565.26045  0.034035432  0.034078861           10 
 1385000     1.019422   -6.6513935    564.15849  0.033944554  0.034071482            4 
 1386000    1.0134208    -6.660281    563.99667  0.033910334  0.034064088            6 
 1387000    1.0477407   -6.6274368    563.72923  0.033869817  0.034056667            4 
 1388000    1.0635874   -6.7052977    562.61893  0.033778754  0.034049023            4 
 1389000    1.0180608   -6.6849541    563.90182  0.033831403  0.034041486            4 
 1390000    1.0540701   -6.6471114    563.91969  0.033808135   0.03403382            4 
 1391000    1.0248648   -6.6631226    565.39434  0.033872174  0.034026151            2 
 1392000    1.0213808   -6.6276087    564.40541  0.033788638  0.034018344            5 
 1393000    1.0430699   -6.6696818    564.55959  0.033773605  0.034010639            2 
 1394000    1.0290329   -6.6541204    565.25728  0.033791086  0.034002687            5 
 1395000    1.0500625   -6.7033658    563.02696   0.03363363  0.033994649            4 
 1396000    1.0183595   -6.6863234    564.80146  0.033715464  0.033986613            3 
 1397000    1.0360127    -6.638509    565.71575  0.033745869  0.033978552            7 
 1398000    1.0191609   -6.6516698    564.75632   0.03366454  0.033970481            3 
 1399000    1.0304627   -6.6741124    565.72507  0.033698181  0.033962295            4 
 1400000    1.0287428   -6.6632026    566.77268  0.033736469   0.03395433            5 
 1401000    1.0350501   -6.6351394     566.8737  0.033718397  0.033946307            3 
 1402000    1.0454438   -6.6593357    567.61189  0.033738224  0.033938206            2 
 1403000    1.0277191   -6.6661206    565.28945  0.033576233  0.033929954            3 
 1404000    1.0125967   -6.6627636    567.24898  0.033668624  0.033921785           10 
 1405000    1.0494328   -6.6858581    569.03265  0.033750454  0.033913736            5 
 1406000    1.0266183   -6.6704132    567.21241  0.033618564  0.033905741            4 
 1407000    1.0397712   -6.6552155    568.88834  0.033693931  0.033897847           10 
 1408000    1.0449917   -6.6796524     569.7364  0.033720194  0.033889886            2 
 1409000    1.0402506   -6.6417434    568.61416  0.033629889  0.033881811            4 
 1410000    1.0473854   -6.6755846    568.74937  0.033614029  0.033873742            4 
 1411000     1.011223   -6.6882038    568.26046  0.033561331  0.033865441            5 
 1412000    1.0453606   -6.6748556    569.23249   0.03359493  0.033857089            3 
 1413000    1.0242457   -6.6586191    572.16424  0.033744058  0.033849111            4 
 1414000    1.0333376   -6.6650741    570.26824  0.033608453  0.033841173            4 
 1415000    1.0100879   -6.6532837     569.4846  0.033538551  0.033833268            5 
 1416000    1.0315594   -6.6753738    569.72182  0.033528827    0.0338252            6 
 1417000    1.0446121   -6.6566093    572.25171  0.033653947  0.033817183            2 
 1418000    1.0044381   -6.6770867    571.25094    0.0335714  0.033809227            2 
 1419000   0.99989623   -6.6746015    572.43079   0.03361703  0.033801056            6 
 1420000   0.99942959   -6.6622028    571.09233  0.033514808  0.033793018            5 
 1421000    1.0374062   -6.6473645    572.53208  0.033575656  0.033784894            4 
 1422000    1.0333498   -6.6624149    571.59272  0.033496995  0.033776698            2 
 1423000    1.0226518   -6.6348382    572.59209   0.03353198  0.033768512            3 
 1424000    1.0168241   -6.6873286    571.22555  0.033428462  0.033760261            5 
 1425000    1.0296252   -6.6440578    574.09675  0.033572909  0.033752147            6 
 1426000    1.0327435   -6.6581682    572.68592  0.033466919  0.033744217            4 
 1427000    1.0414291   -6.6957173    574.02844  0.033521866  0.033736106            4 
 1428000    1.0060912   -6.6520667    576.28034  0.033629805  0.033728034            3 
 1429000    1.0183156   -6.6676447    573.14227  0.033423272      0.03372            3 
 1430000    1.0156356   -6.6897005    574.52993  0.033480765  0.033711983            3 
 1431000    1.0213305   -6.6778719    573.73644   0.03341116  0.033703816            4 
 1432000    1.0024036   -6.6447533    574.18379  0.033413861  0.033695699            4 
 1433000    1.0318838   -6.6653721    574.40166  0.033403214   0.03368767            4 
 1434000    1.0146271   -6.6501754    575.63877  0.033451811  0.033679509            7 
 1435000     1.019066   -6.6974118    573.73447  0.033317913  0.033671388            5 
 1436000    1.0112653   -6.6762715    576.53037  0.033456962  0.033663267            3 
 1437000    1.0166518   -6.6561217    576.91684  0.033456092   0.03365518            3 
 1438000    1.0159895   -6.6572327    577.09129  0.033442935  0.033647049            3 
 1439000    1.0088116    -6.679567    578.21887  0.033484993  0.033639023            3 
 1440000    1.0403061   -6.6604146    577.32631  0.033410088  0.033630932            7 
 1441000    1.0071099   -6.6464799    577.29123  0.033384873  0.033622656            3 
 1442000    1.0129213   -6.6736213    575.74966  0.033272634  0.033614322            3 
 1443000     1.028256    -6.682423    575.31256  0.033224334   0.03360597            4 
 1444000    1.0040947   -6.6725267    576.64264  0.033278084  0.033597552            6 
 1445000    1.0348337   -6.6824757     576.9912  0.033275156  0.033589174            5 
 1446000     1.013336   -6.6717543    578.11672  0.033317008  0.033580737           12 
 1447000    1.0133033   -6.6459775    575.47454  0.033141819  0.033572359            1 
 1448000   0.99078465   -6.6788652    577.79311  0.033252366  0.033564047            5 
 1449000    0.9930819   -6.6753927    578.05113  0.033244257  0.033555699            2 
 1450000    1.0198834   -6.6805712    579.15617  0.033284837  0.033547384            2 
 1451000    1.0321701   -6.6903157    578.64039  0.033232276  0.033539066            4 
 1452000   0.99638604   -6.6406089    579.50814  0.033259191  0.033530824            7 
 1453000    1.0270837   -6.6918378    578.50779  0.033178928  0.033522458            4 
 1454000    1.0166053   -6.6583947    580.88824   0.03329254    0.0335141            7 
 1455000    1.0021757   -6.6693439    578.90698  0.033156185  0.033505759            2 
 1456000    1.0300782   -6.6919432    580.29828  0.033213042  0.033497419            6 
 1457000    1.0212129   -6.6672447    581.11173  0.033236773  0.033489029            2 
 1458000    1.0157174   -6.6703369    580.09436  0.033155828  0.033480692            2 
 1459000    1.0251303   -6.6560982    580.80008  0.033173411  0.033472283            4 
 1460000    1.0325925   -6.6911271    580.68768  0.033144274  0.033463836            6 
 1461000    1.0303614   -6.6669267    581.22149  0.033152035  0.033455376            4 
 1462000    1.0085051   -6.6829425    582.35769  0.033194123  0.033447003            4 
 1463000    1.0322527   -6.6761171    582.49067  0.033179009  0.033438716            2 
 1464000   0.99546068   -6.6430634    582.70971  0.033168813   0.03343055            5 
 1465000    1.0074465   -6.6907983    582.81087  0.033151926  0.033422209           10 
 1466000     1.005672    -6.655312     583.6225  0.033175449  0.033413924            3 
 1467000    1.0229582   -6.6717766    583.10374  0.033123366  0.033405786            7 
 1468000    1.0254982    -6.698917    583.45208  0.033120577  0.033397365            5 
 1469000    1.0371863   -6.6738205    582.32646  0.033034176  0.033389095            5 
 1470000    1.0108289   -6.7001009     584.0853  0.033111412  0.033380853            8 
 1471000   0.98611859   -6.6632446    583.78013  0.033071614   0.03337268            4 
 1472000    1.0170998   -6.6887508    586.46937  0.033201391  0.033364496           11 
 1473000    1.0157506   -6.6689724    585.76907  0.033139232   0.03335623            3 
 1474000    1.0270349   -6.6760739    584.45626   0.03304253   0.03334801            3 
 1475000   0.99608929   -6.6768566    585.32414   0.03306916  0.033339629            3 
 1476000    1.0154359   -6.7144506     584.0882  0.032976976  0.033331251            2 
 1477000    1.0134978   -6.6663306     585.4994   0.03303427  0.033322879            8 
 1478000    1.0217602   -6.6819507    586.06036  0.033043548  0.033314665            3 
 1479000    1.0150358   -6.6769091     587.0741  0.033078324  0.033306415            2 
 1480000    1.0031553   -6.6705728     586.7089  0.033035411  0.033298206            4 
 1481000    1.0318714   -6.6708451    588.05173  0.033088664   0.03328991            4 
 1482000   0.99985808   -6.7006023    586.28526  0.032967007   0.03328156            8 
 1483000     1.007482   -6.7203488    586.02822  0.032930334  0.033273071            5 
 1484000    1.0016795   -6.6896317    587.62534  0.032997829  0.033264611            2 
 1485000    1.0388429   -6.6775527    587.21285  0.032952461  0.033256255            7 
 1486000    1.0069628   -6.7136712    587.50462  0.032946647  0.033247759            3 
 1487000    1.0176071   -6.6659563    586.67152  0.032877803  0.033239246            4 
 1488000   0.99172276   -6.6515351    588.53909  0.032960299  0.033230953            6 
 1489000    1.0030669   -6.6896933    587.10617  0.032857968  0.033222505            3 
 1490000    1.0270967   -6.6823114    588.14037  0.032893756  0.033214108            7 
 1491000    1.0106774   -6.6859713    588.21018  0.032875597  0.033205783            2 
 1492000    1.0095824   -6.7092094    589.50295  0.032925768  0.033197303            4 
 1493000    1.0116513   -6.6354107    589.46581  0.032901641  0.033188866            2 
 1494000    1.0086768   -6.6948521    588.48109  0.032824693  0.033180546            5 
 1495000    1.0144147   -6.7224178    589.86804  0.032880047  0.033172132            3 
 1496000   0.99142801   -6.6941401     589.0382  0.032811842  0.033163737            5 
 1497000   0.98428541   -6.6905671    588.87903  0.032781064   0.03315525            3 
 1498000    1.0110343   -6.6524904    588.94767  0.032762999  0.033146796            3 
 1499000   0.99459858   -6.6711179    588.85486  0.032735983  0.033138394           11 
 1500000     1.020348   -6.6858978    591.02765  0.032834869  0.033129854            3 
 1501000   0.99958444   -6.6706849    590.73395  0.032796688  0.033121197            2 
 1502000    1.0316092   -6.6870363    590.94592  0.032786614  0.033112495            7 
 1503000    1.0270569   -6.6894617     590.7178  0.032752151  0.033103917            2 
 1504000    1.0030896   -6.6739478    589.58128  0.032667402  0.033095242            4 
 1505000    1.0291756   -6.6829519    589.13244  0.032620844  0.033086483            8 
 1506000     1.020847   -6.6626729    591.48544  0.032729385   0.03307791            5 
 1507000    1.0209251   -6.7379644    589.72075  0.032610083  0.033069138            5 
 1508000    1.0050362    -6.659473    591.57648  0.032691008  0.033060234            9 
 1509000    1.0105886   -6.7135763    590.13137  0.032589539  0.033051463            9 
 1510000   0.99595937   -6.6603425    592.39107  0.032692664  0.033042601            4 
 1511000    1.0146175    -6.688409    591.91453  0.032644746  0.033033769            6 
 1512000    1.0211066   -6.7057699    590.99252  0.032572339  0.033024954            3 
 1513000    0.9979726   -6.6912278    590.42304  0.032519445  0.033016117            6 
 1514000   0.99706852   -6.6526611     594.1524  0.032703236  0.033007329            3 
 1515000   0.99983033   -6.7217479    592.32592  0.032581184  0.032998478            5 
 1516000    1.0118263   -6.6686232    591.60139  0.032519865  0.032989571            4 
 1517000    1.0172725   -6.7138173    591.74548  0.032506344  0.032980668            3 
 1518000    1.0134344   -6.7323561    592.67066  0.032535719  0.032971723            6 
 1519000    1.0094939   -6.7066793    592.06464  0.032481054  0.032962677            6 
 1520000   0.98226997    -6.681433    595.52656  0.032649483  0.032953776            4 
 1521000    1.0157518   -6.6971669    595.06117  0.032602519  0.032945081            4 
 1522000    1.0262074   -6.7140477    594.56382  0.032553867  0.032936432            8 
 1523000   0.99417181    -6.699873    596.54278  0.032640774  0.032927966            5 
 1524000    1.0171734   -6.6984839    594.72729  0.032520083  0.032919429            4 
 1525000    1.0149878   -6.7010143    595.46864   0.03253927  0.032910751            3 
 1526000    1.0141858   -6.6936337    595.19327  0.032502909  0.032902084            5 
 1527000   0.98595571   -6.6979175    597.46171   0.03260542  0.032893611            3 
 1528000    1.0145623   -6.7095144    596.17063  0.032513669  0.032885115            6 
 1529000    1.0214175   -6.7231026     597.8875  0.032585977  0.032876665            3 
 1530000    1.0193703   -6.6958629      599.205  0.032636438  0.032868189            3 
 1531000   0.99429523   -6.6827043    601.28185  0.032728165  0.032859915            3 
 1532000    1.0170485   -6.6781273    597.87681  0.032521584  0.032851685            5 
 1533000    1.0179227   -6.7145315    599.30136  0.032577808   0.03284346            4 
 1534000   0.99230159   -6.7035641    600.42088  0.032617388  0.032835217            5 
 1535000   0.97796411   -6.7347309    600.09821  0.032578621  0.032826854            3 
 1536000   0.99073969   -6.7236929    599.03944   0.03249997  0.032818581            3 
 1537000    1.0280488   -6.6894517    600.84525  0.032576732  0.032810359            3 
 1538000   0.99299405   -6.7048496    601.93618  0.032614661  0.032802109            3 
 1539000    1.0053311    -6.678288     602.3242  0.032614479  0.032793885            3 
 1540000   0.99998854   -6.7226618    601.73481  0.032561407  0.032785656            3 
 1541000   0.99006422    -6.729655    601.21039  0.032511918  0.032777422            4 
 1542000    1.0065013   -6.6952498    602.04722  0.032536058  0.032769185            2 
 1543000    1.0224501   -6.6618853    602.72686  0.032551678  0.032761121            6 
 1544000    1.0259562   -6.6993595    603.05954   0.03254855  0.032753041            3 
 1545000    1.0163165   -6.7023118    604.35293  0.032597246  0.032744948           11 
 1546000     1.018586   -6.6947087    603.64669  0.032538092  0.032736875            6 
 1547000    1.0258562   -6.6944019    604.37479  0.032556281  0.032728658            3 
 1548000    1.0162891   -6.7161698    604.13101  0.032522126  0.032720515            4 
 1549000   0.98777473   -6.7106704    605.86895  0.032594628  0.032712487            6 
 1550000    1.0091064    -6.721452    605.34771  0.032545576  0.032704362            5 
 1551000    1.0191143   -6.7098731    604.23263   0.03246468  0.032696323            3 
 1552000    1.0080337   -6.7194073    605.34995  0.032503756   0.03268823            5 
 1553000     1.016832   -6.7027645    603.56881  0.032387251  0.032680111            4 
 1554000    1.0182522   -6.6914012    605.48518  0.032469175  0.032671979            4 
 1555000    1.0225981   -6.7021874    606.27243  0.032490484  0.032663866            5 
 1556000   0.99697004   -6.6866925       606.19  0.032465188  0.032655696            5 
 1557000    1.0119035   -6.6740971    606.98501  0.032486888  0.032647691            4 
 1558000    0.9832026   -6.7219999    606.91472  0.032462276  0.032639572            7 
 1559000   0.99404365   -6.7050202    606.73523   0.03243186  0.032631542            3 
 1560000   0.98825571   -6.6801751    608.35111  0.032497389  0.032623625            4 
 1561000    0.9900697   -6.7158781    607.88377  0.032451621  0.032615677            3 
 1562000    1.0109684   -6.7306546    608.11551  0.032443209  0.032607549            4 
 1563000    1.0142201   -6.7118668    608.19154  0.032426506   0.03259937            5 
 1564000   0.99405531   -6.7271361    607.55466  0.032371838    0.0325912            3 
 1565000   0.98889507   -6.7428385     606.7508  0.032308349  0.032582975            2 
 1566000   0.98214027   -6.7371933    608.13625  0.032361443  0.032574861            2 
 1567000    1.0034334   -6.7581658     607.4898  0.032306414  0.032566816            6 
 1568000    1.0169298   -6.7056582    609.35622  0.032385003  0.032558725            4 
 1569000    1.0155848   -6.7298382    608.24545  0.032305367  0.032550751            2 
 1570000    1.0060164   -6.7171015     609.9629   0.03237595  0.032542633            2 
 1571000    1.0235644   -6.7194046    607.21919  0.032209802   0.03253458            5 
 1572000    1.0070038   -6.7001367    609.96436  0.032334837  0.032526493            7 
 1573000   0.99902427   -6.6909029    610.54708  0.032345152  0.032518538            2 
 1574000    1.0102905   -6.7514634    608.85054  0.032234781  0.032510407            6 
 1575000    1.0035472   -6.7077481    610.81395  0.032318198  0.032502467           17 
 1576000     1.021783   -6.7021067     609.6734  0.032237384  0.032494515           13 
 1577000   0.97229682   -6.7090227    609.95829  0.032231996  0.032486468            9 
 1578000   0.99995944   -6.7025812    610.02921  0.032215316  0.032478342            4 
 1579000   0.99027342   -6.7153253    610.79501  0.032235329   0.03247014            7 
 1580000   0.99541216   -6.7413901    610.30594  0.032189132  0.032461856            4 
 1581000   0.99522876   -6.7183683     611.7181  0.032243206   0.03245367            6 
 1582000   0.99458973   -6.6828623    610.19719  0.032142709  0.032445516            4 
 1583000    1.0206827   -6.6774113    611.88403  0.032211204  0.032437167            5 
 1584000    1.0140044   -6.7301548    612.04586  0.032199382  0.032428945            9 
 1585000   0.99591695   -6.7339334    612.00887  0.032177123  0.032420636            2 
 1586000    1.0129188   -6.7237573     612.1838  0.032166026  0.032412241            2 
 1587000   0.98867192   -6.6936652    612.20226  0.032146726  0.032403873           11 
 1588000   0.99946097   -6.7526743    611.82981  0.032106938  0.032395619            6 
 1589000   0.99992582   -6.7232817    612.65122   0.03212981  0.032387128            6 
 1590000   0.99995029   -6.7216367    612.87289  0.032121221  0.032379005            3 
 1591000   0.99969328   -6.6839729      613.842  0.032151791  0.032370886            3 
 1592000   0.99257475   -6.7575543    612.74645  0.032074249  0.032362741            4 
 1593000   0.99814271   -6.6822368    613.84618  0.032111644  0.032354505            3 
 1594000    1.0017188   -6.7102714    613.41431  0.032068921  0.032346446            4 
 1595000    1.0229248   -6.6989121    613.17343  0.032036229   0.03233834            5 
 1596000    1.0169785   -6.7379047    613.56966  0.032036845  0.032330118            2 
 1597000   0.98575162   -6.6843856    614.09526  0.032044211  0.032321832            5 
 1598000    1.0132679   -6.7172812    615.77083  0.032111537  0.032313677            2 
 1599000   0.99437664   -6.7298408    615.30805  0.032067336  0.032305576            2 
 1600000    1.0163002   -6.7130831    616.33423  0.032100741  0.032297512            3 
 1601000   0.99369877   -6.7131746    617.64122  0.032148721  0.032289385            4 
 1602000    1.0265049   -6.7271297    617.23185  0.032107358  0.032281477            4 
 1603000    1.0037931   -6.6997039    618.98157  0.032178289  0.032273435            6 
 1604000   0.99818902   -6.7053029    615.76321  0.031991023  0.032265433            6 
 1605000    0.9824705   -6.7330003    616.73653  0.032021626  0.032257257            3 
 1606000    1.0042496   -6.7207374    618.02167  0.032068372  0.032249125            3 
 1607000   0.99092542   -6.7614634    616.43403  0.031966087  0.032240908            2 
 1608000   0.98172497   -6.7153411    617.35883  0.031994135  0.032232737            6 
 1609000    1.0229686   -6.7043362    617.64288  0.031988962  0.032224571            6 
 1610000   0.97393307   -6.7463518    616.54556  0.031912296  0.032216394            1 
 1611000    1.0101755    -6.728745    616.75646  0.031903396  0.032208144            3 
 1612000    1.0165484   -6.7129739    619.09378  0.032004434  0.032199908            6 
 1613000    1.0130138   -6.7151897    619.55491  0.032008417  0.032191703            3 
 1614000    1.0096813   -6.7213344    619.14406  0.031967372  0.032183439            4 
 1615000   0.97500972   -6.7334122    618.44699  0.031911609   0.03217523            8 
 1616000   0.99443307   -6.7023667     619.4909  0.031945694  0.032167014            5 
 1617000    1.0027892   -6.7288409    619.37346  0.031919886   0.03215885            2 
 1618000   0.99527758   -6.7189297    620.45757  0.031955993  0.032150849            6 
 1619000    1.0024354   -6.7361324     621.2513  0.031977111  0.032142878            3 
 1620000    1.0150054   -6.7528815    621.01232  0.031945078  0.032134838            2 
 1621000   0.99680566   -6.7188815      621.127  0.031931267  0.032126775            8 
 1622000   0.98647885   -6.7152736    621.73346  0.031942738  0.032118792            4 
 1623000   0.99584598   -6.7098726     622.9955  0.031987857  0.032110819            4 
 1624000    0.9826313   -6.6978205    624.90117  0.032065947  0.032102844            3 
 1625000    1.0086665   -6.7395278    622.49865  0.031923008  0.032094866            4 
 1626000   0.99973896    -6.737683    622.45138  0.031900952  0.032086864            3 
 1627000   0.99418757    -6.736766     622.6726  0.031892676  0.032078831            4 
 1628000   0.98949254   -6.7671177     621.4992  0.031813022  0.032070817            4 
 1629000   0.98671041    -6.754326    624.10397  0.031926743  0.032062903            3 
 1630000   0.96549109   -6.7062858    626.17872  0.032013227  0.032055085            4 
 1631000   0.98449271   -6.6992154     625.5027  0.031959059  0.032047387            4 
 1632000    1.0164903   -6.7137218    626.31582  0.031980996  0.032039727            8 
 1633000   0.97968561   -6.7123331    627.07888  0.032000351  0.032031988            5 
 1634000   0.98161738   -6.7213797    626.70371  0.031961634  0.032024285            5 
 1635000   0.95293268   -6.7183066    627.57872  0.031986683   0.03201655            7 
 1636000   0.99235993   -6.7741898    624.16793  0.031793395  0.032008786            5 
 1637000   0.98406904    -6.764429    626.27941  0.031881461  0.032000946            4 
 1638000   0.98377791   -6.7037033    628.56664   0.03197836  0.031993105            8 
 1639000   0.97082295   -6.6998942    628.65823  0.031963506  0.031985478            1 
 1640000    0.9879495    -6.736873    627.03019   0.03186129  0.031977804            7 
 1641000    1.0051348   -6.7339317    627.91884  0.031887002  0.031970062           10 
 1642000    1.0145971   -6.7110512    625.46923  0.031743262  0.031962242            4 
 1643000   0.97971883   -6.7262795    627.56069  0.031830021   0.03195445            4 
 1644000   0.99251699   -6.7572143    628.74514  0.031870699  0.031946531            4 
 1645000   0.99565146   -6.6893562    628.59461  0.031843699  0.031938675            3 
 1646000   0.98654855   -6.7333121    629.30936  0.031860538  0.031930865           12 
 1647000   0.99886683     -6.74574    628.71511  0.031811127  0.031923181            4 
 1648000   0.97553301   -6.7739802    628.93382  0.031802883  0.031915383            7 
 1649000   0.97222501   -6.6961014    629.94597  0.031834747  0.031907748            8 
 1650000   0.97492932   -6.7709211    629.14112  0.031774804  0.031900062            6 
 1651000   0.98121441   -6.7371781    631.39865  0.031869506  0.031892403            4 
 1652000    0.9648103   -6.7130423    630.25041  0.031792292  0.031884655            4 
 1653000   0.98566066   -6.7575403    630.93658  0.031807652  0.031876782            3 
 1654000   0.97596803    -6.736359    630.52383  0.031767626   0.03186893            7 
 1655000   0.97554485   -6.7490898    629.69481  0.031706687  0.031861111            4 
 1656000   0.95093715    -6.749328    631.06102  0.031756291  0.031853211            1 
 1657000   0.99412557   -6.7416785    630.13542  0.031690576  0.031845269            3 
 1658000   0.98132967    -6.747267    631.47813  0.031738949  0.031837459            5 
 1659000    1.0013416   -6.7545708    630.82534  0.031687027  0.031829666            9 
 1660000   0.99174638   -6.7436636    632.02972    0.0317284  0.031821839            4 
 1661000   0.98525441   -6.7246268    631.41408   0.03167841  0.031814033            4 
 1662000   0.95942433   -6.7374858    632.27431  0.031702483  0.031806192            2 
 1663000   0.97353793   -6.7666836    630.46206  0.031592607  0.031798263            4 
 1664000   0.97842151     -6.72646     630.7722  0.031589153  0.031790304            2 
 1665000   0.97612997   -6.7421253    633.87616  0.031725533  0.031782466            3 
 1666000    0.9928587   -6.7335525     633.0838  0.031666857  0.031774611            3 
 1667000   0.97636229   -6.7429286     632.3242  0.031609888  0.031766697            4 
 1668000    0.9862615   -6.7204783    633.36216  0.031642794  0.031758772            5 
 1669000   0.99472151   -6.7526825    634.55205  0.031683246  0.031750844            4 
 1670000   0.99016483   -6.7402053    632.75589  0.031574645   0.03174304            7 
 1671000   0.99511192   -6.7604271    633.13706  0.031574758  0.031735084            3 
 1672000   0.96826782   -6.7739278    633.79088  0.031588461   0.03172717           11 
 1673000   0.96605302   -6.7498017    630.93067  0.031427111  0.031719131            4 
 1674000   0.97468597    -6.742774    634.00322  0.031561291  0.031711243            4 
 1675000     1.007471   -6.7425839    633.60029  0.031522402  0.031703221            4 
 1676000   0.98691061   -6.7137372     635.2933  0.031587773  0.031695282            2 
 1677000   0.97145149    -6.738695    634.36922  0.031523018  0.031687188            3 
 1678000   0.97762166   -6.7540912     633.4072  0.031456456  0.031679118            3 
 1679000    0.9698799   -6.7525015      633.826  0.031458507  0.031671074            5 
 1680000   0.99149609   -6.7592034    635.68266  0.031531878  0.031663123            5 
 1681000   0.97092159   -6.7157655    635.35885  0.031497068   0.03165514            2 
 1682000   0.96973316   -6.7582347    635.42973  0.031481854  0.031647178            3 
 1683000   0.98427223    -6.764931    636.07503  0.031495099  0.031639233            3 
 1684000   0.99293242   -6.7417283    637.83572  0.031563525  0.031631263            4 
 1685000   0.97318052   -6.7596674    638.81465  0.031593207  0.031623382            4 
 1686000    0.9758432   -6.7704755    636.78174  0.031473989   0.03161544           11 
 1687000   0.97143823   -6.7418965    636.01403  0.031417409  0.031607508            3 
 1688000    1.0045718   -6.7298041    635.58005  0.031377372  0.031599544            5 
 1689000    1.0031627   -6.7804233    635.61927   0.03136073  0.031591575            4 
 1690000   0.97943016   -6.7428317    637.30843  0.031425465  0.031583521            6 
 1691000   0.95375856   -6.7262134     635.7839  0.031331752  0.031575463            2 
 1692000    0.9724129   -6.7502828    635.68411  0.031308319  0.031567337            6 
 1693000   0.98549446   -6.7576614     636.4043  0.031325276  0.031559236            9 
 1694000    0.9912176   -6.7420497    637.18026  0.031344956   0.03155123            3 
 1695000    1.0082472   -6.7303204    639.30222  0.031430787  0.031543147            3 
 1696000   0.98145966     -6.74189    637.05701  0.031301936   0.03153505            5 
 1697000   0.97118987   -6.7509163    638.79253  0.031368716  0.031526996            2 
 1698000   0.98777583   -6.7484266    637.27785  0.031275906  0.031519025            3 
 1699000   0.96772082   -6.7636718    638.50524  0.031317699  0.031510984            6 
 1700000   0.98616507   -6.7453314    641.34648  0.031438553  0.031503021            2 
 1701000   0.96930422   -6.7735811    639.48847  0.031329045  0.031495039            3 
 1702000   0.97158304   -6.7434814    642.06816  0.031436945  0.031487163            3 
 1703000   0.99155385   -6.7687048    639.49021  0.031292338  0.031479209            4 
 1704000   0.98740778   -6.7622163    641.09315  0.031352364  0.031471201            4 
 1705000   0.99054324   -6.7562283    641.17598  0.031338025   0.03146327            7 
 1706000   0.96262632    -6.749595    640.63108  0.031293038  0.031455338            5 
 1707000   0.96141274   -6.7799255    640.91778  0.031288702  0.031447482            5 
 1708000    1.0002048   -6.7378201    643.18364  0.031380935  0.031439705            5 
 1709000   0.98069448   -6.7731904    643.45416  0.031375763  0.031431917            4 
 1710000   0.97561885   -6.7561884    641.86456   0.03127995  0.031424144            4 
 1711000   0.97376244   -6.6944894    642.74848  0.031304719  0.031416392            3 
 1712000   0.96993476   -6.7704395    643.74258  0.031334822  0.031408638            8 
 1713000   0.97009741   -6.7869074     642.1933  0.031241161  0.031400767            4 
 1714000   0.97620742   -6.7601683    644.11353  0.031316294  0.031392943            4 
 1715000     0.984619   -6.7252965    645.85468  0.031382638  0.031385126            5 
 1716000   0.98303199   -6.7768569    642.91455  0.031221569  0.031377283            4 
 1717000   0.98571784   -6.7647016    644.00194  0.031256161  0.031369431            6 
 1718000   0.97782292   -6.7204944    645.88446  0.031329281  0.031361608            3 
 1719000    0.9758642   -6.7766936    643.17956  0.031179928  0.031353862            6 
 1720000   0.98130716   -6.7145375    644.31136  0.031216636  0.031346021            4 
 1721000   0.99896119   -6.7472424     644.4126  0.031203399  0.031338227            5 
 1722000   0.97991505   -6.7481387    644.32902  0.031181234  0.031330382            2 
 1723000   0.96410512   -6.7453667    647.56973  0.031319875  0.031322667            4 
 1724000   0.98463652   -6.7662068    644.11403  0.031134669  0.031314973            2 
 1725000   0.99016054   -6.7641679    644.61246  0.031140698  0.031307008            4 
 1726000   0.99073581   -6.7780273    645.49139  0.031165092  0.031299102            4 
 1727000     0.980725   -6.7495089    646.40072  0.031190925  0.031291244            4 
 1728000   0.97817974   -6.7615664    646.18747   0.03116259  0.031283354            4 
 1729000   0.95747014    -6.782747    647.43296  0.031204596  0.031275387            5 
 1730000   0.98465258   -6.7533378    645.73947  0.031104984  0.031267441            2 
 1731000   0.97839732   -6.7769063    644.90263  0.031046728  0.031259495            3 
 1732000   0.97710294   -6.7545197    647.08475  0.031133793  0.031251549            3 
 1733000   0.96377952   -6.7396699    646.52911  0.031089109  0.031243778            3 
 1734000   0.97102008   -6.7778075    645.83683   0.03103791  0.031235932            2 
 1735000   0.98918351   -6.7295069    648.38933  0.031142619    0.0312281            4 
 1736000   0.97351867   -6.7389516    648.24742  0.031117868  0.031220328            4 
 1737000   0.98143598   -6.7665421    647.49798  0.031063998  0.031212613            5 
 1738000   0.96807652    -6.772458    649.44237  0.031139354  0.031204752            4 
 1739000   0.99368501   -6.7692138     650.0518  0.031150652  0.031196937            6 
 1740000   0.96615306   -6.7459929    650.60879  0.031159425  0.031189188            6 
 1741000   0.95942407   -6.7671861    650.60937  0.031141555  0.031181462            4 
 1742000   0.98233438   -6.7749283    649.59227  0.031075023  0.031173712            4 
 1743000   0.98379845   -6.7862142    652.07923  0.031176096  0.031165946            4 
 1744000    0.9867162   -6.7706514    650.75351  0.031094873  0.031158176            7 
 1745000   0.95690716   -6.7461626    650.27161  0.031054041  0.031150377            5 
 1746000   0.97489262   -6.7492878    651.88842  0.031113422  0.031142706            3 
 1747000   0.97787554   -6.7395198    651.08802  0.031057433  0.031135055            3 
 1748000    0.9497643   -6.7662335    650.89698  0.031030558  0.031127278           13 
 1749000   0.96466299   -6.7633536    651.01101  0.031018249  0.031119563            4 
 1750000   0.97833899   -6.7574867    653.58571  0.031123129  0.031111891            7 
 1751000   0.96816458   -6.7646064    654.37728  0.031143027  0.031104288            2 
 1752000   0.95830497   -6.7521457    653.52223  0.031084581  0.031096831            6 
 1753000   0.97544115    -6.770908    653.46694   0.03106422  0.031089312            7 
 1754000    0.9743087   -6.7578073    653.41351  0.031043972  0.031081884            3 
 1755000   0.96746257   -6.7705329    653.62029  0.031036101  0.031074281           14 
 1756000   0.98936869   -6.7469832    652.65865  0.030972791  0.031066636            3 
 1757000   0.99234739   -6.7728606    654.75964  0.031054811  0.031059082            3 
 1758000   0.96172314   -6.7999128    653.98203  0.031000286  0.031051512           10 
 1759000   0.97232415   -6.7935454     653.7797  0.030973077    0.0310439            3 
 1760000   0.96382473   -6.7498938    652.96371  0.030916842  0.031036431            3 
 1761000    0.9666402   -6.7957105    655.43879  0.031016411  0.031028798            4 
 1762000   0.98800555   -6.7632028    656.10401  0.031030269  0.031021183            3 
 1763000   0.98334705   -6.7596409    654.67964  0.030945341  0.031013692            3 
 1764000   0.96079407   -6.7888359    655.89282  0.030985111  0.031005955            3 
 1765000   0.96594866   -6.7861774    654.63894  0.030908354   0.03099823            3 
 1766000    0.9660356   -6.7687594    654.96207    0.0309061   0.03099045            4 
 1767000   0.98338449   -6.8007271    654.52305  0.030867905  0.030982803           13 
 1768000   0.97488221   -6.7679636    655.31241  0.030887651  0.030975106            4 
 1769000   0.96463198   -6.7823208    656.93084  0.030946431  0.030967468            5 
 1770000   0.96963588   -6.8181971    656.68435  0.030917342  0.030959861           12 
 1771000   0.97661889   -6.7690386    655.83223  0.030859789  0.030952254            4 
 1772000   0.95101272   -6.7500142    658.60162  0.030972612  0.030944703            3 
 1773000   0.97898434   -6.7706161    659.37098  0.030991304  0.030937196            3 
 1774000   0.94953629   -6.7547722    655.50591  0.030792273  0.030929516            4 
 1775000   0.97881104   -6.7566769    657.94598  0.030889483  0.030921904            6 
 1776000   0.99571704   -6.7861766    656.57239  0.030807639  0.030914323            6 
 1777000   0.98353889   -6.7824313    658.17562  0.030865486  0.030906731            6 
 1778000   0.95721944   -6.7948274    657.25309  0.030804888  0.030899072            7 
 1779000   0.95826571   -6.7571258    659.02521  0.030870583  0.030891473            5 
 1780000   0.95400138    -6.791257    658.95254  0.030849838  0.030883869            4 
 1781000   0.96180726   -6.7750188    659.08229  0.030838587  0.030876298            5 
 1782000   0.96994955   -6.7895294    658.70281  0.030803536  0.030868858            3 
 1783000   0.95785934   -6.7751854    657.25542  0.030718612  0.030861275            7 
 1784000   0.97965691   -6.7784488    661.09342  0.030880672  0.030853714            6 
 1785000   0.94815078   -6.7993304    658.71009  0.030752105  0.030846163            3 
 1786000   0.98328909    -6.751736    659.80148   0.03078581  0.030838602            8 
 1787000   0.98697198   -6.7845191    660.16305  0.030785444  0.030831061            7 
 1788000   0.94455421   -6.7713425    658.85924  0.030707459  0.030823469            5 
 1789000   0.94258733   -6.7739236    660.70468  0.030776257  0.030815716            3 
 1790000   0.98384427   -6.7949435    659.57498   0.03070647  0.030808057            8 
 1791000   0.97365315   -6.7456832    661.17455  0.030763752   0.03080037            6 
 1792000   0.96392749   -6.7807211    661.14856  0.030745376  0.030792716            3 
 1793000   0.95125594   -6.7856907    661.84559  0.030760624  0.030785017            5 
 1794000   0.97913309   -6.7578269     661.0818  0.030707999  0.030777398            7 
 1795000   0.95598527   -6.7868088    660.95529  0.030685018  0.030769756            7 
 1796000   0.96268786   -6.8059059    661.38445  0.030687846  0.030762152            3 
 1797000   0.96568887   -6.8196874    663.18803  0.030754407  0.030754509            3 
 1798000   0.97263965   -6.7685221    663.86435  0.030768648  0.030747003            4 
 1799000   0.97457445   -6.7717192    662.47405  0.030687143   0.03073953            4 
 1800000    0.9788429    -6.784141    663.93716  0.030737831  0.030732046            5 
 1801000   0.95470735   -6.7769332    664.05583  0.030726255  0.030724565            4 
 1802000   0.95198398    -6.819314    663.44561  0.030680985  0.030717098            7 
 1803000   0.97201382   -6.7685308    666.47667  0.030804061  0.030709702            4 
 1804000   0.96257679   -6.7628973    665.97125  0.030763639  0.030702259            3 
 1805000   0.96137858    -6.799445    665.68947  0.030733586  0.030694836            6 
 1806000   0.95853689   -6.7862367    665.04264  0.030686722  0.030687455            5 
 1807000   0.96789852   -6.8039199    663.92186  0.030618053  0.030680059            9 
 1808000   0.97590347   -6.8249035     664.2945  0.030618294   0.03067256            3 
 1809000    0.9491401   -6.7543557     667.6409  0.030755523  0.030665163            4 
 1810000    0.9679703   -6.8057685    666.08083  0.030666705  0.030657793            7 
 1811000   0.97516258     -6.78413    666.28461  0.030659148  0.030650381            7 
 1812000   0.95751752   -6.8173303    666.21734  0.030639134  0.030642917            3 
 1813000    0.9584539   -6.7804957    667.17357  0.030666187  0.030635492            4 
 1814000   0.96116408   -6.7826688    666.66154   0.03062576  0.030628056            5 
 1815000   0.96307972   -6.8033339    666.86449  0.030618204   0.03062063            9 
 1816000   0.99212778   -6.7867976    668.12001  0.030658958  0.030613219            6 
 1817000   0.96320569   -6.7880359    669.96889   0.03072688  0.030605843            5 
 1818000   0.95606848   -6.8005674    667.64777  0.030603583  0.030598459            2 
 1819000   0.96549464    -6.807069    668.34652   0.03061877  0.030590954            5 
 1820000   0.95922784   -6.7859607    667.24414  0.030551472  0.030583558            4 
 1821000   0.95776993   -6.8010745    668.10316  0.030574005  0.030576092            5 
 1822000   0.96112436   -6.7954481    668.82314  0.030590155  0.030568665            4 
 1823000   0.94833501   -6.7747469    668.42848  0.030555334  0.030561218            6 
 1824000     0.969071    -6.786675    669.58134  0.030591253  0.030553843            3 
 1825000   0.93526866   -6.8064686    669.44678  0.030568346  0.030546383            3 
 1826000   0.95655759   -6.8145827    669.36553  0.030547898  0.030538863            6 
 1827000   0.94350431   -6.7822602    668.01795  0.030469711  0.030531406            6 
 1828000   0.94919146    -6.791013    670.17296  0.030551284  0.030524004            3 
 1829000    0.9674711   -6.8232792    669.12816  0.030486977  0.030516564            5 
 1830000   0.96992475   -6.8026011    670.08976  0.030514106  0.030509048            3 
 1831000   0.94905496   -6.7809766    672.26157  0.030596285  0.030501623            5 
 1832000   0.96665801   -6.7857185    671.64207  0.030551404  0.030494312            3 
 1833000   0.96611619   -6.7923627    671.28573  0.030518537  0.030486947            3 
 1834000   0.95672255   -6.7673259    672.66158  0.030564412   0.03047966            3 
 1835000   0.95294655   -6.7779245    672.17182  0.030525514  0.030472357            5 
 1836000   0.96126013   -6.7950734    673.38662  0.030564026  0.030465147            5 
 1837000   0.96856934   -6.7610785     673.4484  0.030550191  0.030457893            5 
 1838000   0.94837018   -6.8158153    670.91912  0.030418894  0.030450555            6 
 1839000    0.9552271   -6.7920137    671.48075  0.030427803  0.030443273            4 
 1840000   0.94694304   -6.8068889     674.4948  0.030547772  0.030436032            7 
 1841000   0.96387817    -6.788591    674.64599  0.030538023  0.030428737            5 
 1842000   0.95092326   -6.7481977    676.26937  0.030594886  0.030421602            3 
 1843000    0.9536909   -6.7958013    674.34978  0.030491489  0.030414317            6 
 1844000   0.96272025   -6.8130041    673.34384  0.030429494  0.030406904            5 
 1845000   0.95226317    -6.786663    675.08591  0.030491685  0.030399577            6 
 1846000   0.94358391   -6.7991003    674.63881  0.030454984  0.030392227            3 
 1847000   0.98758257   -6.7719288    673.04231  0.030366464  0.030384887           14 
 1848000   0.94066114   -6.8101364    675.19768  0.030447226  0.030377536            7 
 1849000   0.98150318   -6.8242874    674.14334  0.030383241  0.030370229            3 
 1850000   0.97747352   -6.8224012    673.50167  0.030337913  0.030362933            3 
 1851000   0.95686906   -6.8105979    676.93271  0.030475991  0.030355653            7 
 1852000   0.94896546   -6.8038128    674.09287  0.030331753  0.030348378            3 
 1853000   0.93935756   -6.7923714    677.13581  0.030452231  0.030341102            4 
 1854000   0.94485445   -6.7968502    675.62007  0.030367677  0.030333827            7 
 1855000   0.95505409   -6.7806162     677.3563  0.030429304  0.030326605            4 
 1856000   0.96738542   -6.8301564    675.71248  0.030339102   0.03031924            5 
 1857000   0.95741878   -6.7971806     677.4448  0.030400502  0.030311964            6 
 1858000   0.96978645   -6.8010556    678.40508   0.03042721  0.030304671            2 
 1859000   0.95093527   -6.8066836    677.30439  0.030361502  0.030297402            8 
 1860000   0.94220902   -6.8172341    676.39552  0.030304459   0.03029004            5 
 1861000   0.95686869   -6.7857597    676.59087  0.030296923  0.030282782            5 
 1862000   0.96203067   -6.7704817    677.66397  0.030328677  0.030275436            4 
 1863000   0.94767551   -6.8003516    678.35049  0.030343106  0.030268104            4 
 1864000   0.93955634    -6.833903    678.21097  0.030320591  0.030260847            5 
 1865000   0.96201889   -6.7661109    676.65547  0.030234829  0.030253648            4 
 1866000   0.96349912   -6.8055727    679.47097  0.030344363  0.030246519            6 
 1867000   0.93860661   -6.8051891     679.8381  0.030344497  0.030239314            3 
 1868000   0.93486097   -6.7807635    679.56659   0.03031614  0.030232213            3 
 1869000   0.97170852   -6.8409182    678.72847   0.03026255  0.030224988            9 
 1870000   0.92765572   -6.8060762    678.56124  0.030238915  0.030217722            3 
 1871000   0.95625345   -6.8207123     678.1464  0.030204276   0.03021054            8 
 1872000   0.95965754   -6.8347075    680.38915  0.030287979  0.030203255            4 
 1873000   0.95139154   -6.8281488    679.66726   0.03023969   0.03019601            3 
 1874000   0.98149435   -6.8211193    679.22969  0.030204095  0.030188645            3 
 1875000   0.97043826   -6.8443139    680.44347  0.030241932  0.030181451            4 
 1876000   0.93658153    -6.796477    682.69659  0.030325897  0.030174208            5 
 1877000   0.95197683   -6.8065411     681.4783  0.030255652  0.030167035            4 
 1878000   0.93848404   -6.7982378    681.70018  0.030249387  0.030159857            3 
 1879000   0.95823254    -6.792966    680.45878  0.030178232   0.03015264            5 
 1880000   0.94577841   -6.8179241    680.41246  0.030160127  0.030145468           12 
 1881000   0.94357157   -6.8089883    681.41318  0.030188427  0.030138229            7 
 1882000   0.95802922   -6.7968399    681.88114  0.030193108  0.030130903            4 
 1883000   0.95662952   -6.8447287    682.21226  0.030191727  0.030123628            3 
 1884000   0.95313894   -6.7957819    682.15156  0.030173017  0.030116397            4 
 1885000   0.94887471   -6.8081816    681.47566  0.030127129   0.03010907            6 
 1886000   0.94403931   -6.8128153    682.04346  0.030136243  0.030101739            4 
 1887000   0.94320101   -6.8249937    683.81049  0.030198308   0.03009449            5 
 1888000   0.97753953   -6.7940366    685.24698  0.030245718  0.030087221            2 
 1889000   0.94972014   -6.8039869    682.41596  0.030104816  0.030079906            4 
 1890000   0.95785073   -6.8148031    682.87177  0.030108984  0.030072599            4 
 1891000   0.91845086   -6.7778842    683.28143  0.030111116   0.03006537           11 
 1892000   0.93042199   -6.8245879     682.7495  0.030071772  0.030058116            2 
 1893000    0.9290696   -6.8099922    684.66845  0.030140361   0.03005081            7 
 1894000   0.94211169   -6.8013434    684.96039  0.030137293  0.030043592            5 
 1895000   0.97735016   -6.8117705    684.35659  0.030094837   0.03003641            4 
 1896000   0.97097852   -6.8070492    684.56637  0.030088184  0.030029183            5 
 1897000   0.93428509   -6.8303412    682.17187  0.029967135  0.030021826            7 
 1898000   0.94862877   -6.8105291    683.75207  0.030020727  0.030014503            2 
 1899000   0.94961111   -6.7957979    685.48786  0.030081089  0.030007227            3 
 1900000   0.95341516   -6.8035104     686.5493  0.030111812  0.030000005            4 
 1901000   0.94610189   -6.8312607    685.77863  0.030062188  0.029992825            7 
 1902000   0.94246291   -6.7801036    687.43748  0.030119063  0.029985726            5 
 1903000   0.94465168   -6.8361493    686.92203  0.030080663   0.02997862            3 
 1904000   0.93736941   -6.8152006    687.12524  0.030073759  0.029971506            4 
 1905000   0.95976579   -6.8248666    688.66545  0.030125348  0.029964414            5 
 1906000   0.94447814    -6.846322    685.06136  0.029951966  0.029957176            9 
 1907000    0.9467367   -6.7891077    687.06832  0.030023961   0.02994993            4 
 1908000   0.94437562   -6.7598834     688.3806   0.03006554  0.029942748            3 
 1909000   0.94952058   -6.8334835    687.46536  0.030009838  0.029935622            3 
 1910000    0.9616704   -6.7958277    686.29906   0.02994324  0.029928371            4 
 1911000   0.94083233   -6.8283228    687.10939  0.029962907  0.029921043            4 
 1912000    0.9254231   -6.8248358    687.62704  0.029969798  0.029913655            5 
 1913000   0.97250473   -6.8078136    688.40011  0.029987807  0.029906326            4 
 1914000    0.9406965    -6.829889    688.05342  0.029957045  0.029899004            4 
 1915000   0.95326151   -6.8538247    687.93849  0.029936401  0.029891688            4 
 1916000   0.94660485    -6.812744    687.24035  0.029890412  0.029884312            3 
 1917000    0.9578121   -6.8264955    686.05721  0.029823388  0.029876877            3 
 1918000   0.94439351   -6.8337596    686.52545  0.029828183  0.029869348           10 
 1919000   0.93973083   -6.8302832    688.02925  0.029877942  0.029861906            2 
 1920000   0.94420937   -6.8160485    686.46817  0.029794625  0.029854496            5 
 1921000   0.93500875   -6.8463991    688.27361  0.029857436  0.029847034            5 
 1922000   0.95134153   -6.8218774    689.28155  0.029885603  0.029839663            5 
 1923000   0.94822006   -6.8690065    686.85695  0.029764992  0.029832211            9 
 1924000   0.94282686   -6.8236195    689.40521  0.029859893  0.029824681            5 
 1925000   0.94085504   -6.8363363    689.92079  0.029866701   0.02981723            5 
 1926000   0.95014474   -6.8124401    688.32121  0.029781984  0.029809764            4 
 1927000   0.94493175   -6.8098686    689.74085  0.029827921  0.029802375            4 
 1928000    0.9213506   -6.8095853    691.32395  0.029880876  0.029795063            3 
 1929000     0.949212    -6.796941    692.20204   0.02990332  0.029787886            3 
 1930000   0.93481055   -6.8359334    691.41793  0.029853969  0.029780702            2 
 1931000   0.95079395    -6.807116    693.90596  0.029945881  0.029773509            2 
 1932000   0.94166693   -6.8118095      692.896  0.029886819  0.029766313            4 
 1933000   0.94523836   -6.7972618    692.12387   0.02983807  0.029759142            4 
 1934000    0.9448592   -6.7871788    694.52639  0.029926163  0.029751991            3 
 1935000   0.91786192   -6.8205604    693.94652  0.029885724  0.029744825            7 
 1936000    0.9390928   -6.7995981    694.70046   0.02990274  0.029737659            8 
 1937000   0.94468183   -6.8115308    694.10605   0.02986173  0.029730494            6 
 1938000   0.93973771   -6.8276772    692.04632  0.029757754  0.029723295            8 
 1939000   0.93321602   -6.8413383    694.79979  0.029860744  0.029716141            4 
 1940000   0.94782737    -6.850894    692.24088  0.029735433  0.029708967            3 
 1941000   0.95009831   -6.8188265    695.93341  0.029878645  0.029701818            6 
 1942000   0.94770271   -6.8464757     694.7141  0.029810938  0.029694536            9 
 1943000   0.96241284   -6.8406509    694.73169   0.02979635    0.0296873            4 
 1944000   0.93024452   -6.8160521    695.08148  0.029796017  0.029680082            5 
 1945000   0.95520312   -6.8360147      695.373  0.029793188   0.02967284            4 
 1946000   0.93719078   -6.8664279    694.67524  0.029747998  0.029665453            8 
 1947000   0.95741486   -6.8425561    694.09295  0.029707796  0.029658148            2 
 1948000   0.95866392   -6.8133995    693.54296  0.029669018  0.029650931            6 
 1949000   0.95117522   -6.8228834    695.01293  0.029716647   0.02964369            5 
 1950000   0.94200708   -6.8359163    696.46809  0.029763594  0.029636509            6 
 1951000   0.93495393   -6.8156185    695.85902  0.029722323  0.029629255            4 
 1952000   0.94690835    -6.838232    694.97399  0.029669313  0.029622002            3 
 1953000   0.95578576   -6.8389015    693.45344  0.029589241  0.029614767            2 
 1954000   0.96573847   -6.8553247    694.52122  0.029619636  0.029607426            4 
 1955000    0.9316943   -6.8079814    697.25881  0.029721177  0.029600118            6 
 1956000   0.93397128   -6.8509941    695.63128  0.029636643  0.029592859            5 
 1957000   0.94322332   -6.8238396    696.11931   0.02964228  0.029585608            2 
 1958000   0.93396518   -6.8464047    695.99514  0.029621856   0.02957834            6 
 1959000   0.94407851   -6.8265437    696.12349  0.029612195  0.029571151            3 
 1960000   0.93745984   -6.8200745    697.20597  0.029643111   0.02956392            4 
 1961000   0.92858841   -6.8658772    697.90034  0.029657502  0.029556755            5 
 1962000   0.95952008   -6.8352993    696.35027  0.029576549  0.029549543           10 
 1963000    0.9308177   -6.8542059    697.85079  0.029625182  0.029542323            4 
 1964000    0.9602496   -6.8604694    697.16768  0.029581114  0.029535098            8 
 1965000   0.93297235   -6.8202291    697.77163  0.029591672  0.029527817            9 
 1966000   0.90711804   -6.8249426    696.84677  0.029537418  0.029520483            7 
 1967000   0.95172469   -6.8487348    697.24171  0.029539134  0.029513182            4 
 1968000   0.92596523   -6.8763714    699.16848  0.029605712   0.02950589            6 
 1969000    0.9219026   -6.8314456     698.2695  0.029552628  0.029498569            4 
 1970000   0.93752519   -6.8284303    698.85259  0.029562292  0.029491332            5 
 1971000   0.94043161   -6.8336864    697.35509   0.02948398  0.029484067            3 
 1972000    0.9480615   -6.8749542     697.2722  0.029465526  0.029476736            3 
 1973000   0.94942492   -6.8092599    699.44264  0.029542264  0.029469392            5 
 1974000   0.94096718    -6.843913    699.99338  0.029550548   0.02946208            5 
 1975000    0.9176402   -6.8270913    700.69217   0.02956507  0.029454871           10 
 1976000   0.93741091   -6.8389006    701.04888  0.029565152  0.029447626            4 
 1977000   0.93717796   -6.8312405    699.84606  0.029499497   0.02944037            2 
 1978000   0.93524535    -6.841105    700.16929    0.0294982  0.029433087            7 
 1979000   0.93881062   -6.8514918    700.82877  0.029511065  0.029425762            7 
 1980000   0.93425772   -6.8150289    700.76188  0.029493345  0.029418414            7 
 1981000   0.91071268   -6.8331221    699.86803  0.029440856   0.02941108            4 
 1982000   0.93308039   -6.8404319    700.10009  0.029435759  0.029403661            2 
 1983000   0.93534679    -6.829008    700.43428  0.029434959  0.029396282            3 
 1984000   0.92484931   -6.8651548    698.74857  0.029349318   0.02938879            6 
 1985000   0.93455614   -6.8401173     700.3801  0.029403027   0.02938139            3 
 1986000    0.9491824   -6.8916126    700.07573   0.02937545  0.029373941            5 
 1987000   0.92246383   -6.8778266    701.51158  0.029420885  0.029366603            4 
 1988000   0.93870572   -6.8862999    702.91557  0.029464938   0.02935937            3 
 1989000   0.93941744   -6.8339187    704.28161  0.029507358  0.029352094            2 
 1990000   0.95248447   -6.8084692    704.53713   0.02950323  0.029344898            8 
 1991000   0.92755381   -6.8592894    702.83082  0.029416994  0.029337595            4 
 1992000   0.92989845   -6.8652922    701.75585  0.029357256   0.02933027            2 
 1993000   0.92971924   -6.8660355    702.59918  0.029377788  0.029322952            4 
 1994000   0.94219311   -6.8731942    702.13642  0.029343715  0.029315593            5 
 1995000    0.9375001   -6.8419052    703.01243  0.029365599  0.029308292            4 
 1996000   0.93763591   -6.8398558     703.5628  0.029373864  0.029300977            8 
 1997000   0.92365659   -6.8307045    703.74458  0.029366741   0.02929373            7 
 1998000   0.94014574    -6.830333    701.82456  0.029271962  0.029286469            4 
 1999000   0.91449341   -6.8495665    704.36153  0.029363079  0.029279224            4 
 2000000   0.95216433    -6.841828    704.05915  0.029335798  0.029271964            4 
 2001000    0.9503243   -6.8354224    703.58423  0.029301359  0.029264687            9 
 2002000   0.95740374   -6.8483106    705.50196  0.029366548  0.029257419            7 
 2003000   0.93118795   -6.8358497    704.60453   0.02931455  0.029250154            4 
 2004000   0.94153134   -6.7910788    705.43057  0.029334272  0.029242966            3 
 2005000   0.92681322   -6.8423038    706.63211  0.029369581  0.029235748            6 
 2006000   0.92305922    -6.863819    706.77523  0.029360885  0.029228555            5 
 2007000   0.91518903   -6.8260214    704.92062   0.02926925   0.02922129            9 
 2008000   0.92680752   -6.8621446    706.79002  0.029332255  0.029214006           12 
 2009000   0.93475271   -6.8702268    707.11356  0.029331075  0.029206808            5 
 2010000   0.92811789   -6.8055051    708.64616  0.029380023  0.029199657            5 
 2011000   0.91433565   -6.8399217    706.59267  0.029280319  0.029192469            5 
 2012000   0.93699809   -6.8705557    705.06723  0.029202586  0.029185292            5 
 2013000   0.94092025   -6.8633622    705.74965  0.029216329    0.0291781            5 
 2014000   0.93881403   -6.8779314    706.38775  0.029228225  0.029170893            5 
 2015000   0.92152525   -6.8298473    708.82795  0.029314638  0.029163699            7 
 2016000   0.92366863   -6.8777757    708.36778  0.029281076  0.029156515            7 
 2017000   0.93109671   -6.8352143    708.26256  0.029262211  0.029149399            3 
 2018000   0.93457275   -6.8626708    708.80854  0.029270257  0.029142343            5 
 2019000   0.93930876   -6.8426386    708.05399  0.029224616  0.029135199            5 
 2020000    0.9378495   -6.8562462    709.03367  0.029250564  0.029128127            6 
 2021000   0.92195873   -6.8338591    710.91504  0.029313667  0.029121065            7 
 2022000   0.90879776    -6.856413    708.59215  0.029203435  0.029114028            5 
 2023000   0.93995963   -6.8396778    709.82921  0.029239958  0.029106936            5 
 2024000   0.94680228   -6.8663627    711.13264  0.029279177  0.029099949            2 
 2025000   0.92748286   -6.8206094    710.41108  0.029235024  0.029092951            7 
 2026000     0.920422   -6.8646682    710.24147  0.029213617  0.029085932            6 
 2027000   0.90941335   -6.8445941    711.60392  0.029255218   0.02907896           10 
 2028000    0.9107928   -6.8272107    713.50096  0.029318744  0.029071976            6 
 2029000   0.93035642   -6.8470331    712.54591   0.02926507  0.029065033            6 
 2030000    0.9385933   -6.8393536    713.12928  0.029274601  0.029058068            4 
 2031000   0.93445568   -6.8761616    710.29836  0.029144033  0.029051063            6 
 2032000    0.9367699   -6.8673503    711.45788  0.029177243  0.029043977            9 
 2033000   0.93205024   -6.8473291    711.02828  0.029145281  0.029036868            6 
 2034000   0.91376853   -6.8782586    710.29581  0.029100943  0.029029722            7 
 2035000   0.91087579   -6.8566947    711.91163   0.02915281  0.029022554            4 
 2036000   0.91909786   -6.8592374    710.70578  0.029089136  0.029015421            3 
 2037000    0.9171436   -6.8398653    713.45077  0.029187153  0.029008274            5 
 2038000   0.92440604   -6.8545746    710.54228  0.029053904  0.029001072            3 
 2039000   0.92386662   -6.8605576    711.28861  0.029070157  0.028993959            4 
 2040000   0.92248791    -6.861509    713.61655  0.029151003  0.028986912            5 
 2041000   0.92727866   -6.8951914    711.99537  0.029070528  0.028979707            4 
 2042000   0.93361868   -6.8928933     712.0294   0.02905768  0.028972476            3 
 2043000   0.90870016   -6.8688062    711.90301  0.029038302  0.028965194            6 
 2044000   0.92987237   -6.8762209    711.20618  0.028995686  0.028957901            8 
 2045000   0.91600397   -6.8589855    710.87594   0.02896805  0.028950667            3 
 2046000   0.93766963   -6.8667014    713.27112  0.029051447  0.028943396            5 
 2047000   0.93246286   -6.8534891    712.28411  0.028997073  0.028936042            5 
 2048000   0.93295114   -6.8653914    713.10129  0.029016166  0.028928882            3 
 2049000   0.95324547   -6.8529889      713.079  0.029001098  0.028921661            7 
 2050000   0.93491196   -6.8907847    713.21109  0.028992321  0.028914355            7 
 2051000   0.93950188   -6.8864109    711.84334  0.028922613  0.028907025            4 
 2052000   0.90257291   -6.8680595    712.86196  0.028949884  0.028899673            9 
 2053000   0.91572173   -6.8444047    714.71903  0.029011164  0.028892356            4 
 2054000    0.9084019   -6.8686262    714.48502  0.028987546  0.028885124            5 
 2055000   0.93384062    -6.859311    716.17701  0.029042052  0.028877862            4 
 2056000   0.90488564   -6.8673588    715.60559  0.029004766  0.028870599            6 
 2057000   0.92186001   -6.8745488    713.51684  0.028906046  0.028863385            2 
 2058000   0.93314832   -6.8676455    716.26103  0.029003119  0.028856093            6 
 2059000    0.9114535    -6.865177    712.68207  0.028844183  0.028848813            3 
 2060000   0.92072333   -6.8738059    714.02705   0.02888459  0.028841602            6 
 2061000   0.93346019   -6.8622025    715.34062  0.028923687  0.028834351            4 
 2062000   0.92631024   -6.8665867    714.24865  0.028865529  0.028827081           10 
 2063000   0.91699314   -6.8827003    713.42198  0.028818144  0.028819798            2 
 2064000   0.92796346   -6.8777212    714.01159  0.028827987  0.028812476            3 
 2065000   0.90148499   -6.8469635    715.51398  0.028874656   0.02880524            6 
 2066000   0.93906932   -6.8709223    716.01932  0.028881063  0.028798016            5 
 2067000   0.91079859   -6.8764559    715.57867  0.028849325  0.028790833            5 
 2068000   0.91163119   -6.8682489    716.76424  0.028883149  0.028783658            3 
 2069000   0.92587188   -6.8827694    716.53006  0.028859757  0.028776452            3 
 2070000   0.90433276   -6.8642692    717.34524  0.028878633  0.028769202            4 
 2071000   0.89750736   -6.8744948    718.06678  0.028893722  0.028762023            4 
 2072000   0.91495167   -6.9115097    717.19119  0.028844562  0.028754806            3 
 2073000   0.90845889   -6.8917576    717.01071  0.028823392  0.028747471            3 
 2074000   0.92486626   -6.8541544     715.4822  0.028748079  0.028740155            6 
 2075000    0.9239955   -6.8769225    717.75459  0.028825485   0.02873286            2 
 2076000   0.90672018   -6.8709317    718.28189  0.028832767  0.028725681            4 
 2077000   0.91659686   -6.8884564    717.78068  0.028798775  0.028718491            6 
 2078000   0.90435852   -6.8723838    716.51663  0.028734225  0.028711219            3 
 2079000   0.91990703   -6.8679589    718.65547  0.028806136  0.028703955            4 
 2080000   0.94191325   -6.8678913    716.42061  0.028702749  0.028696698            3 
 2081000   0.91538935   -6.8671651    718.37371  0.028767167  0.028689437           10 
 2082000   0.94132812   -6.8933323    718.09647  0.028742254  0.028682341            2 
 2083000    0.9039691   -6.8642134    720.39194  0.028820289  0.028675227            4 
 2084000   0.91647582   -6.8821538    720.69701  0.028818659   0.02866807            6 
 2085000   0.90089601   -6.8664231    721.69901  0.028844884  0.028660878            8 
 2086000   0.92190711   -6.8844813     719.6383  0.028748734  0.028653773           10 
 2087000   0.92412029    -6.865312    719.22934  0.028718629  0.028646572           18 
 2088000   0.91865321   -6.8841769    717.36783  0.028630581  0.028639376            5 
 2089000   0.92743214   -6.8687722    718.60921  0.028666396  0.028632198            6 
 2090000   0.90149626   -6.8950906    721.79841  0.028779841  0.028625056            6 
 2091000   0.90914471   -6.9005022    720.03961  0.028695983  0.028617904            6 
 2092000   0.92186642   -6.8849777    720.41498  0.028697219  0.028610766            5 
 2093000   0.92465807   -6.8883229    720.56145  0.028689339  0.028603494            6 
 2094000   0.93464297   -6.8858001    720.66392  0.028679717  0.028596273            4 
 2095000   0.91409552   -6.8593693    721.95054  0.028717205  0.028589104            2 
 2096000   0.92001813   -6.9140512    721.36737  0.028680318  0.028581986            8 
 2097000   0.91853672   -6.8672762    721.58481  0.028675283  0.028574797            7 
 2098000   0.91826031    -6.894113    721.76831  0.028668903  0.028567613            6 
 2099000   0.89303225    -6.859033    721.65006   0.02865055  0.028560458            5 
 2100000   0.92178823   -6.8938379    722.58858   0.02867415   0.02855327            9 
 2101000   0.92262516   -6.8583505    723.42966  0.028693863  0.028546103            4 
 2102000   0.91287469   -6.8715222    722.11151  0.028627954  0.028538899            6 
 2103000   0.92347992   -6.8931913    720.62607  0.028555479  0.028531711            5 
 2104000   0.91526079   -6.8976901    722.15606  0.028602506  0.028524522            6 
 2105000   0.90904904   -6.9007629    720.70465  0.028531459  0.028517293           11 
 2106000   0.93833222   -6.9001195    722.27421  0.028580018  0.028510111            6 
 2107000   0.91753181   -6.8685681    723.49553  0.028614758  0.028503037            5 
 2108000   0.91823373   -6.9107035    723.16701  0.028588196  0.028495971            7 
 2109000   0.92593978   -6.8850941    723.80121    0.0285997  0.028488824            6 
 2110000   0.91906993   -6.8364043    723.91998  0.028590836  0.028481676            6 
 2111000   0.91854994    -6.850074    726.48143  0.028678408  0.028474583            6 
 2112000   0.90410829   -6.8768409    724.52973  0.028587821  0.028467469            6 
 2113000   0.91195052    -6.884286    724.11755  0.028558035  0.028460256            4 
 2114000   0.91073487   -6.8926644    723.71251   0.02852856  0.028453049            5 
 2115000   0.91269196   -6.8645267    724.90035  0.028561873  0.028445867            6 
 2116000   0.90767072   -6.8950378    724.91088   0.02854879  0.028438723            9 
 2117000   0.91762419   -6.8836382    724.15277  0.028505462  0.028431539            9 
 2118000    0.9200286   -6.8796191     724.3945  0.028501515  0.028424312            4 
 2119000   0.88523978   -6.8601068    726.33963   0.02856456  0.028417141            5 
 2120000   0.91818952   -6.8819773    726.89305   0.02857284  0.028409953            9 
 2121000   0.90497676   -6.8869646    722.97422  0.028405399  0.028402737            7 
 2122000   0.91650516   -6.8601898    725.33374  0.028484674  0.028395516            4 
 2123000   0.92684026   -6.8722175    723.01171  0.028380111  0.028388269            5 
 2124000   0.91578768   -6.8649747    723.92005  0.028402387  0.028380991            4 
 2125000   0.89982265   -6.8884956    724.98618  0.028430831  0.028373641            3 
 2126000   0.90503532   -6.8484017    725.54748  0.028439459  0.028366369            3 
 2127000   0.91391669   -6.8887414    726.58863  0.028466879  0.028359119           10 
 2128000   0.90087373   -6.8676316    724.35607  0.028366074  0.028351854            4 
 2129000   0.92635353   -6.9038874    724.94361  0.028375748  0.028344531            3 
 2130000   0.89359647   -6.8938666    727.73142  0.028471495  0.028337248            2 
 2131000   0.91742389   -6.9054711    725.77272  0.028381539  0.028329873            5 
 2132000   0.88130535    -6.899475    724.12553  0.028303844  0.028322567            5 
 2133000   0.89315735   -6.8654425    724.21677  0.028294138  0.028315188            4 
 2134000   0.89176331   -6.9183471     722.8303  0.028226738  0.028307795            3 
 2135000    0.8956108   -6.9028648    725.86326  0.028331899  0.028300366            4 
 2136000   0.90421176   -6.8854868    724.34662  0.028259465  0.028292974           10 
 2137000   0.90577804   -6.8835578    724.63792  0.028257601  0.028285445            3 
 2138000    0.9040627   -6.9145781    724.33885  0.028232727  0.028277944            9 
 2139000   0.90829934   -6.8626025    725.40838  0.028261196  0.028270467            5 
 2140000   0.89892736     -6.89092    724.32255  0.028205707  0.028262958            5 
 2141000   0.89412429   -6.8378516    726.09563  0.028261545  0.028255483            5 
 2142000   0.90395012    -6.878593    725.55533  0.028227332  0.028247972            6 
 2143000   0.90484815   -6.8877214    725.83022  0.028224849  0.028240391            4 
 2144000   0.89456463   -6.8500663    725.47669  0.028197944  0.028232862            4 
 2145000   0.91003216   -6.8955448    724.79926  0.028158479  0.028225396            4 
 2146000   0.91772039   -6.8912113    725.13334  0.028158331  0.028217958            8 
 2147000   0.91618629   -6.8846177    728.29222  0.028267824  0.028210534            5 
 2148000   0.91260898   -6.9111343    724.60755  0.028111714  0.028203153            7 
 2149000   0.88078167   -6.8819267    727.97111  0.028229064  0.028195628            9 
 2150000   0.88308551   -6.9104619    726.62652  0.028163819  0.028188104            6 
 2151000   0.90825747   -6.9064394    724.91915  0.028084579  0.028180521            3 
 2152000   0.89986825    -6.866045    727.93947  0.028188486  0.028172989            7 
 2153000    0.9242212   -6.8805936    727.24433  0.028148488  0.028165467            4 
 2154000   0.89412953   -6.8986679    727.74941   0.02815496  0.028158048            7 
 2155000   0.90665457   -6.9121077    727.93917  0.028149233  0.028150614            5 
 2156000   0.93843439   -6.8828113     726.5125  0.028081034  0.028143188            5 
 2157000   0.89430794   -6.9042796    728.62153  0.028149495  0.028135845            6 
 2158000    0.8941502   -6.8986985    728.82338  0.028144246  0.028128456           12 
 2159000   0.89579626   -6.8701279    730.18768  0.028183869    0.0281211            5 
 2160000   0.93820355   -6.8751335    730.12294  0.028168323  0.028113675            5 
 2161000   0.91668367   -6.8780021    726.88018   0.02803024  0.028106237            4 
 2162000   0.91340921   -6.9092824    728.20303  0.028068264  0.028098702            4 
 2163000    0.9012407   -6.8888359    727.40368  0.028024491  0.028091164            9 
 2164000   0.91555897   -6.8672631    730.13995  0.028116911  0.028083648           10 
 2165000   0.90507492   -6.8920643    729.59375    0.0280829  0.028076179            6 
 2166000   0.92646248   -6.9203502    728.39129  0.028023672  0.028068749            3 
 2167000   0.90710173   -6.9151683    728.36332  0.028009664  0.028061275            4 
 2168000     0.888449   -6.9135783     730.9618  0.028096625  0.028053761            5 
 2169000   0.90823506   -6.9175182    728.44051  0.027986803  0.028046297            7 
 2170000   0.92033686   -6.8844399    728.69946   0.02798385  0.028038701            2 
 2171000   0.92105919   -6.8813565    730.72973  0.028048892  0.028031234            3 
 2172000   0.91253358   -6.9115283    730.06752  0.028010571  0.028023814            5 
 2173000   0.90869657   -6.9065687    729.39264  0.027971799  0.028016354           11 
 2174000   0.88830926    -6.916157    730.51996  0.028002145  0.028008915            9 
 2175000   0.90962194   -6.8763992    729.79225  0.027961389  0.028001427            4 
 2176000   0.89515907   -6.9342835    730.26338  0.027966582  0.027993974           10 
 2177000   0.90106308   -6.8939328    729.75459  0.027934259  0.027986525            4 
 2178000   0.88863393   -6.9194507    730.74458  0.027959312  0.027979012            4 
 2179000   0.89416429   -6.9116339    732.95825   0.02803114   0.02797161           12 
 2180000   0.90198311   -6.9033035    732.62659  0.028005604  0.027964246            4 
 2181000   0.92552959   -6.8735136     731.7034  0.027957489  0.027956903            2 
 2182000   0.89961043   -6.8940243    734.19807  0.028039951  0.027949553            5 
 2183000   0.91394266   -6.9307397    733.74185   0.02800969  0.027942223            6 
 2184000   0.89305982   -6.9314945    732.75277  0.027959126  0.027934825           15 
 2185000    0.8887169   -6.9037741    734.01169  0.027994344  0.027927446            5 
 2186000   0.91027123   -6.9368193     732.3671  0.027918844  0.027920091            6 
 2187000   0.90549632   -6.8912536    732.84931  0.027924452  0.027912741            5 
 2188000   0.90546664   -6.9231949    733.70248  0.027944183  0.027905396            7 
 2189000   0.90201838    -6.910534    733.24997  0.027914191  0.027898053            4 
 2190000   0.89623726   -6.9004967    733.65279  0.027916773  0.027890761            4 
 2191000   0.93114925   -6.8938118    735.69007  0.027981518   0.02788352            8 
 2192000   0.91802611   -6.8968391    734.97402  0.027941531   0.02787635            7 
 2193000   0.89313103   -6.8856647     733.9558  0.027890097  0.027869077            4 
 2194000   0.88730121     -6.89767    735.26389   0.02792707   0.02786186            9 
 2195000   0.91120436   -6.9093604    737.24143  0.027989424  0.027854642            4 
 2196000   0.89617897   -6.8917573    736.39536  0.027944572   0.02784741            6 
 2197000   0.88445686   -6.9017378    735.95259  0.027915058  0.027840218            7 
 2198000   0.90103953   -6.9556465    735.54224    0.0278868  0.027832983            4 
 2199000   0.90032262   -6.9654537    735.74192  0.027881685  0.027825704            6 
 2200000   0.90916428   -6.8951141    737.34889  0.027929882  0.027818467            3 
 2201000   0.89825565   -6.9124283    737.66537  0.027929175   0.02781132            7 
 2202000   0.87855826   -6.8961096    736.97075  0.027890204   0.02780413            8 
 2203000   0.89287392   -6.9481548    737.55142  0.027899509   0.02779688            7 
 2204000   0.90037337   -6.9147264    738.77499  0.027933114  0.027789686            4 
 2205000   0.89978289   -6.9142842    738.99486  0.027928755   0.02778254            4 
 2206000   0.90629668   -6.8732295    738.30124  0.027889893  0.027775469            7 
 2207000   0.88831006   -6.9078523    742.73115  0.028044523  0.027768402            7 
 2208000   0.91204015   -6.9433957    736.66612  0.027802918  0.027761301           12 
 2209000   0.88784507   -6.9292231    736.63236  0.027789059  0.027754083            3 
 2210000   0.88195037   -6.9073767    738.35444  0.027841419  0.027746959            6 
 2211000   0.88720641   -6.8804363    741.08563  0.027931767  0.027739892            8 
 2212000   0.89292653   -6.9193552    737.90649   0.02779937  0.027732783            5 
 2213000   0.89429909   -6.8868143    740.33239  0.027878159  0.027725601            7 
 2214000   0.90138204   -6.8921954     738.3927  0.027792559  0.027718408            7 
 2215000   0.88551389   -6.9289485    739.58956   0.02782504  0.027711226            4 
 2216000   0.90498423   -6.9113859    739.07788  0.027793241  0.027704043            5 
 2217000   0.90859564   -6.9034785    738.03913   0.02774166  0.027696901            7 
 2218000   0.88565863   -6.8567697    741.86089  0.027872741  0.027689824            7 
 2219000   0.89113771   -6.9521966      739.447  0.027769528  0.027682735            5 
 2220000   0.90883364   -6.8698711    740.75691   0.02780619  0.027675617            4 
 2221000   0.89048435   -6.9111114    739.34293  0.027740617  0.027668497            4 
 2222000   0.90456754   -6.9286347    740.52685  0.027772534  0.027661311            5 
 2223000   0.88192931   -6.9245958     738.8642  0.027697713  0.027654073            4 
 2224000   0.88306146   -6.9477831     740.6384  0.027751739  0.027646904            8 
 2225000   0.90117785   -6.9378859    739.13831  0.027683083  0.027639671            5 
 2226000   0.88053805    -6.921319    740.39319  0.027717625   0.02763241            6 
 2227000   0.89275344   -6.9107954    741.59996  0.027750335  0.027625172           16 
 2228000    0.8847257    -6.935615    741.03546  0.027716766  0.027617974            3 
 2229000   0.89352684   -6.9188861    741.18687  0.027709992   0.02761078            3 
 2230000   0.89329889   -6.9179354    740.62446  0.027676549  0.027603669            7 
 2231000   0.89834435   -6.9168961    740.84307  0.027672309  0.027596511            4 
 2232000   0.89531822    -6.915088    740.34862  0.027641451  0.027589363            3 
 2233000   0.92215548   -6.8942914     740.9217  0.027650459  0.027582176            5 
 2234000   0.91145582   -6.9079989    741.95173  0.027676504  0.027575023            8 
 2235000   0.89337579   -6.8965196    743.02296  0.027704062  0.027567877           12 
 2236000   0.89691181   -6.9406737    742.01032  0.027653933  0.027560658            4 
 2237000   0.90203297   -6.9000434    741.62877  0.027627357  0.027553445            8 
 2238000   0.91157662   -6.9459212    742.43123  0.027644893  0.027546185            5 
 2239000   0.88294455   -6.9171031    742.60595  0.027639048  0.027538923            5 
 2240000   0.89858281   -6.9289035    742.85999   0.02763616  0.027531618            5 
 2241000   0.88917124   -6.9295576    740.92971  0.027552049  0.027524323            6 
 2242000   0.89545089    -6.912942    743.24767  0.027625917  0.027517049           16 
 2243000   0.89560645   -6.9262039    740.66662  0.027517708  0.027509742            5 
 2244000   0.88445171   -6.9452339       741.72  0.027544563  0.027502465            6 
 2245000   0.89588103   -6.9311221     743.5978  0.027601997  0.027495206            5 
 2246000   0.90153202   -6.9194832    740.82153    0.0274867  0.027487977            3 
 2247000   0.89173844   -6.9534509    741.22871  0.027489568  0.027480645            5 
 2248000    0.8963497   -6.9215599     743.6417  0.027566789  0.027473358            4 
 2249000   0.89892222   -6.9331425    742.96094  0.027529307  0.027466046            9 
 2250000   0.90090952   -6.9334674    742.94086  0.027516328  0.027458868           10 
 2251000   0.89653501   -6.9126759    745.00851   0.02758065  0.027451663            4 
 2252000   0.88820023   -6.9103809    745.07589  0.027570896  0.027444556            6 
 2253000   0.90717821   -6.9419761    742.61319  0.027467569  0.027437381            6 
 2254000   0.89195597   -6.9397324     742.9757  0.027468785   0.02743016            4 
 2255000   0.89587097   -6.9220436    746.10336  0.027572186  0.027423009            3 
 2256000   0.90176944   -6.9082157    745.19577  0.027526439  0.027415947            5 
 2257000   0.90007456   -6.9339734    746.61788  0.027566751  0.027408851            3 
 2258000   0.89717605   -6.9276092    746.40907  0.027546836  0.027401722            2 
 2259000   0.88384053   -6.9408757     744.6506  0.027469773  0.027394559            6 
 2260000   0.87272705   -6.9398809    744.89619  0.027466674  0.027387431            3 
 2261000   0.89929974   -6.9276111    745.40458  0.027473263   0.02738032            6 
 2262000   0.89292974   -6.9766328    745.13094  0.027451037  0.027373169            9 
 2263000   0.88851003   -6.9412237    746.47911  0.027488552  0.027366029            7 
 2264000     0.881439    -6.899026    748.73935  0.027559605  0.027358895            6 
 2265000   0.89296659   -6.9314245    747.57636  0.027504649  0.027351814            5 
 2266000   0.90294226   -6.9498689    746.00552  0.027434742   0.02734468            7 
 2267000   0.88757593   -6.9575978    747.23101  0.027467689  0.027337586            4 
 2268000   0.89478519   -6.9024056    750.78106  0.027586018  0.027330526            8 
 2269000   0.90305751   -6.9497431    746.65565  0.027422347  0.027323405            4 
 2270000   0.88865749   -6.9519956    744.40936  0.027327803  0.027316238            4 
 2271000   0.87937794   -6.9427872    746.18151  0.027380798   0.02730912           11 
 2272000   0.88217564   -6.9291814     747.0964  0.027402303  0.027302003            4 
 2273000   0.89248229   -6.9780351    747.28805  0.027397274  0.027294892            4 
 2274000   0.87745966   -6.9410709     748.0249  0.027412229  0.027287747            3 
 2275000   0.88306511     -6.90046    746.99783  0.027362558  0.027280629            8 
 2276000     0.884789   -6.9557633    745.96064   0.02731256  0.027273503           10 
 2277000   0.89839012   -6.9518616     747.5392  0.027358337  0.027266349           11 
 2278000   0.86429425    -6.925792    749.38895  0.027413994  0.027259245            4 
 2279000   0.88509477   -6.9585603    749.61067  0.027410073  0.027252111            4 
 2280000   0.87713917    -6.926982    748.34502  0.027351792   0.02724496            4 
 2281000   0.88365412   -6.9338521    747.70791  0.027316524  0.027237829            8 
 2282000   0.89615482   -6.9231834    749.61403  0.027374161  0.027230772            5 
 2283000   0.88672626   -6.9640962    746.83879   0.02726087  0.027223616            9 
 2284000   0.89121424   -6.9496881    749.04572  0.027329456  0.027216407            4 
 2285000   0.88495009   -6.9304514    749.63401   0.02733895  0.027209239            6 
 2286000   0.90279972   -6.9501916     749.0118  0.027304309  0.027202074            7 
 2287000   0.88430401   -6.9566272    748.60005  0.027277367  0.027194909            5 
 2288000   0.90101011   -6.9474061    748.05838  0.027245716  0.027187669            3 
 2289000   0.90621048   -6.9354081     749.8159  0.027297798  0.027180489            6 
 2290000    0.8947468   -6.9315752    750.98482  0.027328414  0.027173342            4 
 2291000   0.86282486   -6.9570111    750.17052  0.027286866  0.027166226            6 
 2292000   0.89342517   -6.9723308    747.95016  0.027194232  0.027159004            8 
 2293000   0.89523355   -6.9365133    748.07217  0.027186806  0.027151757            9 
 2294000   0.89155838   -6.9425441     750.1435    0.0272502  0.027144548            7 
 2295000   0.86434004   -6.9421439     747.9672  0.027159303  0.027137295           10 
 2296000   0.87869635   -6.9733527    748.98861  0.027184546  0.027130013            5 
 2297000   0.89638704   -6.9666939    748.65973   0.02716078  0.027122664           12 
 2298000   0.90665785   -6.9565236    748.98332  0.027160695  0.027115347            5 
 2299000   0.88936287   -6.9654389    748.11814   0.02711752     0.027108            5 
 2300000   0.88758011   -6.9331639    750.51066  0.027192415  0.027100694            3 
 2301000   0.88900922   -6.9259382    751.37329  0.027211839  0.027093463            4 
 2302000   0.88531945    -6.916212    750.39156  0.027164479  0.027086241            5 
 2303000   0.86684408   -6.9457263    749.06061  0.027104523  0.027078996            7 
 2304000   0.86341297   -6.9351503    750.26658  0.027136378  0.027071706            6 
 2305000   0.90289081   -6.9358444    751.52651  0.027170156  0.027064423            6 
 2306000   0.89510911   -6.9431921    751.42526  0.027154715  0.027057173            5 
 2307000    0.8706744   -6.9377667    750.96537  0.027126332  0.027049932            9 
 2308000    0.8811079   -6.9814141    748.64625  0.027030844  0.027042607            7 
 2309000   0.88136434   -6.9048669    750.33847   0.02708021  0.027035355           10 
 2310000   0.86895752   -6.9232782     751.6937  0.027117377  0.027028085            7 
 2311000   0.86520356   -6.9478631     749.8746  0.027040048  0.027020806            3 
 2312000   0.86366494   -6.9324444    751.63938  0.027091962  0.027013574            7 
 2313000   0.88685204   -6.9074767    753.29294  0.027139823  0.027006334            8 
 2314000    0.8860024   -6.9666933    750.86651  0.027040713  0.026999087            7 
 2315000   0.88799041   -6.9511925    752.10136  0.027073483  0.026991823            6 
 2316000   0.88491645   -6.9409578     751.3303  0.027034049  0.026984576            5 
 2317000   0.89111882   -6.9301063    753.21911  0.027090315   0.02697734            6 
 2318000    0.8790939   -6.9851653    751.49029  0.027016476  0.026970072            9 
 2319000   0.89122939   -6.9493033    751.57936  0.027008027  0.026962794            6 
 2320000   0.88589615   -6.9528271    752.81133  0.027040637  0.026955526            4 
 2321000   0.87742845   -6.9650119    751.15307  0.026969448  0.026948252            6 
 2322000    0.8611029   -6.9406638    753.68125  0.027048566  0.026940928            4 
 2323000   0.87965041   -6.9488567    753.14346   0.02701763  0.026933589            5 
 2324000   0.86508208    -6.956372    752.52914  0.026983976  0.026926319            5 
 2325000   0.86412331   -6.9601514    751.33891   0.02692971  0.026919051            3 
 2326000   0.88970193   -6.9816876    750.14187  0.026875246  0.026911739            6 
 2327000   0.87973632    -6.955693    754.64864  0.027025091  0.026904407           11 
 2328000   0.90352698   -6.9568041    754.18853  0.026997012  0.026897164            4 
 2329000   0.85104209   -6.9432606    753.92401  0.026975956  0.026889912            4 
 2330000   0.86320769   -6.9279722    754.75304  0.026994029  0.026882695            4 
 2331000    0.8780025   -6.9702124    752.61008  0.026905837  0.026875482            6 
 2332000   0.88109445   -6.9662543    753.96642  0.026942768  0.026868254            3 
 2333000   0.86712108   -6.9575829    755.05853  0.026970229  0.026860992            7 
 2334000   0.85464424   -6.9522207    752.38666  0.026863277  0.026853727           12 
 2335000    0.8710219   -6.9673864    753.08393  0.026876657  0.026846422            5 
 2336000   0.87837917   -6.9466769    755.03232  0.026934658  0.026839089            6 
 2337000    0.8578824   -6.9511081    754.44343  0.026902134  0.026831827            4 
 2338000   0.88074951    -6.950527    754.22851  0.026882967  0.026824598            3 
 2339000   0.88096218   -6.9690337    755.15853  0.026904608  0.026817294            6 
 2340000   0.87148376   -6.9567026    753.91264  0.026848741  0.026810053            2 
 2341000   0.89685324   -6.9252758    756.55616  0.026931374  0.026802735            5 
 2342000   0.87234521   -6.9291954    755.71875  0.026890078  0.026795452            3 
 2343000   0.88314663   -6.9431579    754.95854  0.026851563   0.02678822            3 
 2344000   0.88015519   -6.9537722    755.40054  0.026855821   0.02678096           16 
 2345000   0.87273996   -6.9886973    755.43562  0.026845615  0.026773671            8 
 2346000   0.87852632   -6.9519209    753.66024  0.026771108  0.026766314            6 
 2347000   0.88340557   -6.9727165    755.60197  0.026828645  0.026759045           13 
 2348000   0.89723292   -6.9532305    757.52579  0.026885498  0.026751745            4 
 2349000   0.85788248   -6.9853946    755.03974  0.026785857    0.0267445            5 
 2350000    0.8746954   -6.9424383    755.26792   0.02678255  0.026737256            4 
 2351000   0.86043179    -6.928877    755.44725  0.026777515   0.02673003            5 
 2352000   0.87947251   -6.9877194    756.39973  0.026799877  0.026722791            5 
 2353000   0.90097531   -6.9752615    756.16665  0.026780233  0.026715493            6 
 2354000   0.86486797    -6.965457    756.10153  0.026766551  0.026708201            8 
 2355000   0.87254935   -6.9336851    756.56166  0.026771467  0.026700933            8 
 2356000   0.88904754   -6.9870453    756.28509  0.026750322  0.026693706            6 
 2357000   0.88507963   -6.9563691    757.37542  0.026777522  0.026686435            4 
 2358000   0.87765122   -6.9719074    756.14499  0.026722681  0.026679189            5 
 2359000   0.88030353   -6.9372897    757.15985  0.026747204  0.026671959            4 
 2360000   0.86103437   -6.9464401    757.00762  0.026730495  0.026664747            4 
 2361000   0.86260193   -6.9674457    756.95949  0.026717474  0.026657519            5 
 2362000     0.865248   -6.9553945    759.12199  0.026782458  0.026650332            8 
 2363000   0.86595489   -6.9461523    758.98568  0.026766317  0.026643125            9 
 2364000   0.85877864   -6.9845343     757.0088  0.026685308  0.026635912            4 
 2365000   0.87282966   -6.9713414    758.43808  0.026724386  0.026628664            6 
 2366000   0.86665554   -6.9493046    758.50587  0.026715479  0.026621428            4 
 2367000   0.88603327   -7.0082407    758.50223  0.026704064  0.026614281            8 
 2368000   0.87673238    -6.972411    757.10916  0.026643762  0.026607081            8 
 2369000   0.86783454   -6.9498938    759.14641  0.026704179  0.026599864            9 
 2370000   0.86190459   -6.9596129    756.75505  0.026608827  0.026592607            9 
 2371000   0.86329863    -6.967436    759.27369  0.026686127  0.026585405            4 
 2372000   0.87598401    -6.943435    757.49589  0.026612419  0.026578143            3 
 2373000   0.87955036   -6.9868796    758.08517  0.026621898  0.026570921            4 
 2374000   0.87681131   -6.9842212    757.59123  0.026593346  0.026563665            6 
 2375000   0.88177935   -6.9356574    760.85944  0.026696822  0.026556449            9 
 2376000   0.87374526   -6.9575976    761.66101    0.0267137  0.026549254           16 
 2377000   0.87046735   -6.9769302    758.52167  0.026592402  0.026542034            8 
 2378000   0.89354204   -6.9935528    758.01295  0.026563392  0.026534742            3 
 2379000   0.86788326   -7.0057138    759.70563  0.026611519  0.026527442            7 
 2380000   0.86779833   -7.0056637    758.42443  0.026555477  0.026520197            5 
 2381000   0.87196991   -6.9481237    760.26983  0.026608912  0.026512941            3 
 2382000   0.85734028   -6.9725004    758.57191   0.02653834    0.0265057            5 
 2383000   0.87355568   -6.9895223    758.36529  0.026519978  0.026498402            6 
 2384000    0.8689476   -6.9355979    760.35168  0.026578288  0.026491089            5 
 2385000   0.88394874   -6.9560287    761.79039  0.026617414  0.026483869            4 
 2386000   0.85907348   -6.9529979    758.54842  0.026493029  0.026476681            6 
 2387000   0.88821426   -6.9815577    759.65078  0.026520415  0.026469508           10 
 2388000    0.8744197   -6.9621385    761.60352  0.026577454  0.026462337            6 
 2389000   0.87347123   -6.9499151    762.56846  0.026599988  0.026455145            7 
 2390000   0.86392671   -6.9781621    760.28887  0.026509375  0.026447905            7 
 2391000   0.86112725   -6.9820247    761.59536  0.026543823  0.026440736            4 
 2392000   0.87906478   -6.9580686    762.90371  0.026578306   0.02643359            4 
 2393000   0.86812444   -6.9771972    762.14088  0.026540635  0.026426424            4 
 2394000   0.86717996   -6.9606818    761.76009  0.026516294  0.026419228            4 
 2395000    0.8541175   -6.9532105    763.17824  0.026554567  0.026412088            3 
 2396000   0.87777945    -6.976712    762.54416   0.02652143  0.026404964            6 
 2397000   0.86101092   -6.9980425    761.48622  0.026473586  0.026397815            4 
 2398000   0.85467061   -6.9938323      762.721  0.026505456  0.026390685            7 
 2399000   0.87083478   -6.9687323    763.95622  0.026537315  0.026383628            5 
 2400000   0.84816883   -6.9782097    762.68233  0.026482025  0.026376536            7 
 2401000   0.86664547   -6.9577125    764.56934   0.02653649  0.026369427            4 
 2402000   0.86665807   -6.9917044     764.2899  0.026515747  0.026362306            6 
 2403000   0.86031748   -6.9751594    764.31084  0.026505439  0.026355215           13 
 2404000   0.85542948   -6.9745983    763.99386  0.026483426  0.026348108            5 
 2405000   0.87841819   -6.9512732     764.7613  0.026499006  0.026340997            8 
 2406000   0.86713967   -7.0029424    761.49528  0.026374871  0.026333861            9 
 2407000   0.88175609   -6.9984413     761.6382  0.026368862  0.026326674            4 
 2408000   0.85710161   -6.9974236    762.96517  0.026403833  0.026319555            6 
 2409000   0.87267966   -6.9428129    763.97106  0.026427669  0.026312428            5 
 2410000   0.88310363    -6.984682    764.22013  0.026425316  0.026305293           10 
 2411000      0.88714   -6.9654935    765.59493  0.026461874  0.026298083            7 
 2412000   0.87379884   -6.9573798     762.5571  0.026345947  0.026290969            4 
 2413000    0.8690085   -6.9945359    764.32222  0.026395988  0.026283791            6 
 2414000   0.85519543   -6.9827347    765.24184  0.026416799  0.026276633            5 
 2415000   0.87993756   -6.9608032    764.91211  0.026394483   0.02626947           11 
 2416000   0.88002041   -7.0069382    765.82944  0.026415199  0.026262268            8 
 2417000   0.86861009   -6.9864966    764.32736  0.026352481  0.026255077            6 
 2418000   0.86357444   -6.9637496    763.33035  0.026307222  0.026247865            5 
 2419000   0.86152608   -6.9943131    765.71838  0.026378613   0.02624061            4 
 2420000   0.85667187   -6.9960508    766.09788  0.026380781  0.026233378            5 
 2421000   0.85871514   -6.9952802    765.19789  0.026338906  0.026226182            4 
 2422000   0.85327927    -6.978337    765.00777  0.026321489  0.026219024            4 
 2423000   0.86480242   -7.0080494    762.90236  0.026238216   0.02621178           10 
 2424000   0.86301492   -6.9898931    765.65258   0.02632194  0.026204593            6 
 2425000   0.87047162   -6.9641432    765.87912   0.02631887  0.026197389            7 
 2426000   0.84330272   -6.9648226    764.70499   0.02626769  0.026190189           11 
 2427000   0.85927693    -6.954716     763.3653  0.026210867  0.026183002            6 
 2428000   0.86576573   -6.9605987    764.16977  0.026227683  0.026175848            6 
 2429000   0.85587231   -6.9760482    767.06956   0.02631637  0.026168673            5 
 2430000   0.88642649   -6.9754372    766.83685   0.02629756  0.026161515            6 
 2431000   0.85600061   -6.9985599    763.93133  0.026187143  0.026154335           10 
 2432000   0.86023552   -6.9707981    766.28173  0.026256912  0.026147128            4 
 2433000   0.85868816   -6.9734998    768.18657  0.026311364  0.026139965            3 
 2434000   0.85797589   -6.9998945    766.82718  0.026254012  0.026132778            7 
 2435000   0.85281107    -6.992053    767.81269  0.026276957  0.026125652            5 
 2436000   0.88370708   -6.9989101    765.92605   0.02620163  0.026118507            8 
 2437000   0.87677399   -6.9867332    767.56906  0.026247061  0.026111296            9 
 2438000   0.87421841   -6.9775418    768.01619  0.026251579  0.026104141            6 
 2439000   0.86033353   -6.9746252    768.42351  0.026254732  0.026096979            4 
 2440000   0.85238528   -6.9903278    767.90651  0.026226315  0.026089828            8 
 2441000   0.86910361    -7.004511    769.44492  0.026268091  0.026082721            4 
 2442000   0.86563606   -7.0093922    766.82219  0.026167833  0.026075601            3 
 2443000   0.88271344   -6.9825958    768.88611  0.026227525   0.02606849           12 
 2444000   0.86166202    -6.963462    768.86973  0.026216235  0.026061417            6 
 2445000   0.87250917   -6.9950479    767.61885  0.026162878   0.02605432            6 
 2446000   0.87360577    -6.986744    766.00079  0.026097056  0.026047216            6 
 2447000   0.85601039   -7.0143713    767.66385  0.026143027  0.026040041           17 
 2448000   0.87371799   -6.9576638    770.26955   0.02622105  0.026032908            5 
 2449000   0.83168777   -6.9944546    768.49086  0.026149818  0.026025822            9 
 2450000   0.83658805   -6.9917695    767.96648  0.026121309   0.02601868            4 
 2451000   0.85377467   -6.9665904    766.94798  0.026076023  0.026011597           11 
 2452000    0.8699342   -6.9827732    767.97385  0.026100253   0.02600445            7 
 2453000   0.87137142    -7.008041      767.735  0.026081499  0.025997336            5 
 2454000   0.85865271   -6.9958897    767.55179  0.026064649  0.025990119            9 
 2455000   0.86871799   -6.9805721    769.26765  0.026112276  0.025982953            5 
 2456000   0.85200673   -6.9938403    766.56956  0.026010096  0.025975793           11 
 2457000   0.85040303    -6.996873    767.89198  0.026044363  0.025968573            5 
 2458000   0.84243321   -6.9664487    768.19872  0.026044166    0.0259614            6 
 2459000   0.85305278    -7.012068    767.70492   0.02601684  0.025954206            6 
 2460000    0.8586971   -7.0066601     769.2675  0.026059197  0.025947026            6 
 2461000   0.85329245   -7.0077594    769.19801  0.026046255   0.02593989            3 
 2462000   0.84272718   -6.9932905    768.38237  0.026008068  0.025932754            5 
 2463000   0.85590149   -6.9867923    770.48907  0.026068787  0.025925619           10 
 2464000   0.86304551   -7.0150405    769.69552  0.026031369  0.025918486            6 
 2465000    0.8743289   -7.0108368    769.71898  0.026021602  0.025911382            5 
 2466000   0.86847147   -7.0260079    770.26808  0.026029605  0.025904185            5 
 2467000   0.85215406   -7.0024694    769.20183  0.025983037  0.025897065            4 
 2468000   0.84187931   -6.9811159    771.33207  0.026044438  0.025889958            4 
 2469000    0.8609667   -7.0074078    768.73814  0.025946339  0.025882819            4 
 2470000   0.85462243    -6.974611    769.84679  0.025973238  0.025875718            9 
 2471000   0.85878929   -7.0104603    770.30485  0.025978175  0.025868629            8 
 2472000   0.83843458   -7.0015289    772.06561  0.026027023  0.025861554            6 
 2473000   0.83814507    -7.027179    770.79996   0.02597385  0.025854478            6 
 2474000   0.86214306   -7.0123254      771.119  0.025974097   0.02584742            5 
 2475000   0.85754665   -6.9944824    772.37894  0.026006025  0.025840325            5 
 2476000   0.87469998   -6.9868932     771.7712  0.025975067   0.02583325            3 
 2477000     0.858242   -6.9846746    772.59915  0.025992435  0.025826162            7 
 2478000   0.86318139   -7.0170455    771.87033  0.025957436  0.025819091            5 
 2479000   0.85091874   -7.0184986    771.95301  0.025949745  0.025812014            4 
 2480000   0.83237756   -7.0428802    774.32478  0.026018978  0.025804946            9 
 2481000   0.86046475   -7.0088921    772.58128  0.025949929  0.025797873            9 
 2482000   0.85075327   -6.9868343    770.94283  0.025884462  0.025790777            4 
 2483000   0.83932871   -7.0178157    772.97703  0.025942309  0.025783699            7 
 2484000   0.86250983   -6.9992989    773.59531  0.025952607  0.025776669            8 
 2485000   0.86741785   -7.0298918    772.20125  0.025895414  0.025769584            9 
 2486000   0.84244819   -7.0043708    773.42409  0.025925989  0.025762523           17 
 2487000   0.85290064   -7.0336221    771.82335  0.025861927  0.025755449            8 
 2488000    0.8543316   -6.9892558    775.28139  0.025967356  0.025748408            7 
 2489000   0.84103479   -7.0023787    772.60747  0.025867399  0.025741337            8 
 2490000   0.84059195    -6.999385    773.49817   0.02588682  0.025734288           12 
 2491000   0.87064367   -7.0094709    774.84273  0.025921408  0.025727267            6 
 2492000   0.86260978   -7.0094032    773.50664  0.025866327  0.025720214            5 
 2493000   0.84142846   -6.9924596    776.68434  0.025962172  0.025713225            4 
 2494000   0.85483903   -7.0430313    773.61714  0.025849276  0.025706204            8 
 2495000   0.85466998   -7.0096506    774.74386  0.025876549  0.025699134           11 
 2496000   0.86136045   -7.0150883    774.35217  0.025853104   0.02569209           10 
 2497000   0.85825126   -7.0177373     773.6162  0.025818189  0.025685049            9 
 2498000   0.86124168   -7.0029832    775.36154  0.025866078   0.02567802            4 
 2499000   0.85449226   -6.9868313    775.82138  0.025871061  0.025671043            4 
 2500000    0.8338282   -7.0335155    775.36705  0.025845568  0.025664043            5 
 2501000   0.86889619   -6.9774715    776.63808  0.025877585  0.025657035            7 
 2502000   0.85999326   -6.9963317     775.8498  0.025840987  0.025650058            7 
 2503000   0.84764525   -7.0193813    775.08419  0.025805174  0.025643059            4 
 2504000   0.87159481   -7.0375058    776.00221   0.02582542  0.025636077           11 
 2505000   0.87479534   -7.0089287    775.51208  0.025798805  0.025629122            5 
 2506000   0.84958076   -7.0134988    776.18392  0.025810851  0.025622211           15 
 2507000   0.84987347    -7.002957    777.52102  0.025845001  0.025615282            5 
 2508000   0.83134481   -6.9956503    777.49781  0.025833925  0.025608415            4 
 2509000   0.85674378   -7.0378597    777.37204  0.025819451  0.025601554            6 
 2510000   0.83703669   -7.0175245    776.28377  0.025773034  0.025594651            6 
 2511000   0.86303487   -7.0336981    775.84723  0.025748282  0.025587777            7 
 2512000    0.8333759   -7.0095301    778.30199  0.025819466  0.025580872            5 
 2513000   0.84704134   -7.0108804    776.93812  0.025763965  0.025573994            6 
 2514000   0.83625656   -7.0126162    777.98959   0.02578857  0.025567123            3 
 2515000   0.85419661    -7.013693    778.58145  0.025797927  0.025560213            4 
 2516000   0.83295209    -7.009473    777.59058  0.025754855  0.025553333            7 
 2517000   0.84995848   -7.0474126    778.76441  0.025783486  0.025546439            8 
 2518000   0.84404857   -7.0160689    778.32401  0.025758671  0.025539509            7 
 2519000   0.84434645    -6.989167    777.16956  0.025710254   0.02553261            7 
 2520000   0.84126733   -7.0219223    776.74621  0.025686052  0.025525743            6 
 2521000   0.83806406   -7.0197947    778.83033  0.025744755  0.025518855            7 
 2522000    0.8585335   -7.0436261    776.71256   0.02566457  0.025511873           12 
 2523000   0.82582517   -7.0268508    777.71603  0.025687542  0.025504916            7 
 2524000   0.83173563   -7.0222271    779.21528  0.025726865  0.025497998            8 
 2525000   0.83725412   -7.0302026     779.3612  0.025721492  0.025491094            9 
 2526000   0.84127843   -7.0156156    778.54129   0.02568426  0.025484232            6 
 2527000   0.85780896   -7.0155555     780.5784  0.025741274  0.025477365            6 
 2528000   0.85904961   -7.0194476    779.05372  0.025680832  0.025470469            4 
 2529000   0.83614492   -7.0354032    779.05925   0.02567086  0.025463566            3 
 2530000   0.86766978   -6.9773187    780.93263  0.025722419  0.025456672            3 
 2531000   0.83079513   -7.0450663    780.16953   0.02568713  0.025449812            4 
 2532000    0.8423746   -7.0370917    780.92141  0.025701731  0.025442881            3 
 2533000   0.84656127   -7.0182414    778.78444   0.02562128   0.02543598           12 
 2534000   0.84349283   -7.0290361    778.48127  0.025601199  0.025429106            9 
 2535000   0.84832472   -7.0149085    778.22119  0.025582551  0.025422249            9 
 2536000   0.84314529   -7.0387378    779.61577  0.025618289  0.025415337           11 
 2537000   0.84722663   -7.0347471     778.8505  0.025583054  0.025408456            9 
 2538000   0.83914632   -7.0083973    780.20445   0.02561743  0.025401588            5 
 2539000   0.84370921   -7.0511773    778.99777  0.025567736  0.025394691            9 
 2540000    0.8436381   -7.0310581    780.58238  0.025609658  0.025387731            4 
 2541000   0.83421333   -7.0328678    781.64034  0.025634276  0.025380826            6 
 2542000   0.84078667   -7.0412024    778.44047  0.025519292  0.025373884            5 
 2543000   0.82915451   -7.0369139    779.25216  0.025535855  0.025366977            4 
 2544000   0.84511195   -7.0169971    780.46071  0.025565406  0.025360073           11 
 2545000   0.84573615   -7.0493514    779.24356  0.025515506  0.025353166            6 
 2546000   0.85869982   -7.0150217    781.50336   0.02557945   0.02534632            6 
 2547000   0.84335418   -7.0338241     779.4586  0.025502506  0.025339452            2 
 2548000   0.84570061   -7.0107623     781.8431  0.025570483  0.025332573            4 
 2549000    0.8424823   -7.0060518    779.34977  0.025478938   0.02532574            2 
 2550000   0.85359351   -7.0149497    782.27047  0.025564394  0.025318939            8 
 2551000    0.8416438   -7.0200484    781.33146  0.025523698  0.025312119            7 
 2552000   0.85034276   -7.0252734    780.47187  0.025485628  0.025305258            5 
 2553000   0.84218782   -7.0140454    782.54348  0.025543266  0.025298356            6 
 2554000   0.85403984   -7.0596323    780.60797  0.025470111  0.025291393           12 
 2555000   0.84678662   -7.0520301    780.52636  0.025457481  0.025284453           10 
 2556000   0.82441672   -7.0374556    781.64842  0.025484103  0.025277568            4 
 2557000   0.82199288   -7.0291866    780.79455  0.025446309  0.025270672           10 
 2558000   0.85511138   -7.0565429    784.06301   0.02554284  0.025263783            7 
 2559000   0.84396479   -7.0281373    782.16462  0.025471038  0.025256902            5 
 2560000   0.83591267   -7.0441092    782.44253  0.025470134  0.025250036            4 
 2561000   0.83140216   -7.0567494    783.97876  0.025510177    0.0252432           10 
 2562000   0.84747803   -7.0343656    782.44623  0.025450372  0.025236407           10 
 2563000   0.83426956   -7.0264066    782.01749  0.025426502  0.025229561           12 
 2564000    0.8353079   -7.0453115    781.95386  0.025414517  0.025222723           11 
 2565000   0.84349622   -7.0271523    783.51884  0.025455453  0.025215875            8 
 2566000   0.84592659   -7.0492672    783.63903  0.025449436  0.025209059           12 
 2567000   0.84591626   -7.0333746    784.58106  0.025470103  0.025202256            7 
 2568000    0.8426882   -7.0384723    786.92429  0.025536224  0.025195442           13 
 2569000   0.84413073   -7.0420732    784.39039   0.02544409  0.025188692            4 
 2570000   0.84137545   -7.0445026    783.67947  0.025411137  0.025181925            8 
 2571000   0.83571443   -7.0211946    786.09568   0.02547957  0.025175187            4 
 2572000   0.81931083   -7.0349096    784.87651  0.025430162  0.025168459            4 
 2573000   0.84681609   -7.0620915    785.76983  0.025449211  0.025161756            4 
 2574000   0.83635186   -7.0215818    783.84186  0.025376906  0.025155039           10 
 2575000   0.84213238   -7.0541513    785.02546  0.025405355  0.025148351            5 
 2576000   0.82871463   -7.0316133    785.69378  0.025417112  0.025141632           18 
 2577000   0.86334909   -7.0601862    785.90777  0.025414169  0.025134935           13 
 2578000   0.85029458   -7.0334295    787.91203  0.025469098  0.025128285            6 
 2579000   0.83522949   -7.0475833    786.70965  0.025420371  0.025121624           10 
 2580000   0.81444426   -7.0435801    789.30464  0.025494336  0.025114939            9 
 2581000   0.83882793   -7.0330376    787.11919  0.025413896  0.025108287            3 
 2582000   0.84874629    -7.043078    787.08165  0.025402842  0.025101639            4 
 2583000   0.84732447   -7.0426889    787.48496  0.025406019  0.025094969            4 
 2584000   0.83154731   -7.0527127    785.40519  0.025329115  0.025088251            6 
 2585000   0.85399094   -7.0256832    787.18433  0.025376671  0.025081566            5 
 2586000      0.82372   -7.0113516      785.131   0.02530069  0.025074918            3 
 2587000   0.82978774   -7.0320956    787.99736  0.025383242  0.025068249            6 
 2588000   0.83919662   -7.0683968    787.59481  0.025360472  0.025061544           15 
 2589000   0.82383665   -7.0643266    788.04492  0.025365164  0.025054882            7 
 2590000   0.84289435   -7.0568259    787.22751  0.025329071  0.025048247            4 
 2591000   0.84711994   -7.0135604    787.23855   0.02531965  0.025041558            3 
 2592000   0.83694146   -7.0410668    787.82263   0.02532866  0.025034902            4 
 2593000   0.84261598   -7.0474263    788.51434  0.025341122  0.025028263            8 
 2594000   0.83003996   -7.0058307    789.32887  0.025357519  0.025021644            3 
 2595000   0.83006729   -7.0151914    789.12837  0.025341309  0.025015022            8 
 2596000   0.83154382    -7.045048    787.29961  0.025272843  0.025008394            4 
 2597000   0.84128639   -7.0707882    788.65877  0.025306725  0.025001771            5 
 2598000   0.84213208   -7.0371794    790.06296  0.025342025  0.024995149            8 
 2599000   0.86484389   -7.0474276     791.2403  0.025370024  0.024988556            3 
 2600000     0.841688   -7.0564809    790.11146  0.025324085   0.02498199           12 
 2601000   0.82595869   -7.0276855    790.89365   0.02533941  0.024975371            4 
 2602000   0.82788319   -7.0313521    790.85092  0.025328303  0.024968734           10 
 2603000   0.81967599   -7.0449263    791.29208  0.025332696  0.024962113           11 
 2604000   0.85274676   -7.0697371    789.82922  0.025276153  0.024955482            8 
 2605000   0.83434432   -7.0452676    789.33352  0.025250592  0.024948858            9 
 2606000   0.83959352   -7.0727912    788.52881  0.025215171  0.024942239            9 
 2607000   0.84554433   -7.0379071    792.00727  0.025316688  0.024935628            5 
 2608000   0.84335093    -7.046205    789.42745  0.025224548  0.024929026            9 
 2609000   0.85323806   -7.0467721    790.36184  0.025244725  0.024922424           13 
 2610000   0.83046369   -7.0392556    791.67798  0.025277075  0.024915852           12 
 2611000   0.84272666   -7.0768429    789.99073  0.025213543  0.024909267            8 
 2612000   0.84105801   -7.0485356    792.17069  0.025273439  0.024902674            6 
 2613000   0.84754633   -7.0427427    791.77286   0.02525108  0.024896147            7 
 2614000   0.82115483    -7.026234    792.22613   0.02525587  0.024889654            8 
 2615000    0.8334944   -7.0695786    791.82712  0.025233496   0.02488307            2 
 2616000   0.81704401   -7.0156278    794.12149  0.025296938  0.024876506            5 
 2617000    0.8414088   -7.0330652    790.88487  0.025184208  0.024869941           11 
 2618000    0.8488529   -7.0490623    790.55396  0.025164055   0.02486338           12 
 2619000   0.82619284   -7.0486077    792.88291  0.025228551  0.024856854            3 
 2620000   0.81039983   -7.0580158    794.26247  0.025262801  0.024850381            5 
 2621000   0.82126216   -7.0381436    794.11781  0.025248563  0.024843857            3 
 2622000   0.82280891   -7.0507511    792.90699  0.025200451  0.024837341            7 
 2623000   0.82895251    -7.043423    792.30167  0.025171612  0.024830824            7 
 2624000   0.84639309    -7.064209    792.95842  0.025182877  0.024824275            4 
 2625000   0.82526381   -7.0542597    791.85747  0.025138332  0.024817778            3 
 2626000    0.8332681   -7.0255901    794.78233  0.025221577  0.024811284            3 
 2627000   0.84197655   -7.0672842    794.10721   0.02519056  0.024804819            5 
 2628000   0.84654435   -7.0580767    792.66753  0.025135323  0.024798273            6 
 2629000   0.82876964   -7.0467616    791.38024  0.025084958  0.024791746           11 
 2630000   0.83227895   -7.0470284    793.86696  0.025154213  0.024785253            7 
 2631000   0.83334833   -7.0280898    795.49208  0.025196126  0.024778779            6 
 2632000   0.84848566   -7.0768481    795.32269  0.025181189  0.024772271            7 
 2633000   0.83666665   -7.0652396    794.10373  0.025133046  0.024765783            7 
 2634000   0.84395861   -7.0847081    792.79536  0.025082111  0.024759267           14 
 2635000   0.83847875   -7.0441606    794.75304  0.025134505  0.024752719            3 
 2636000   0.83300347   -7.0540915    796.61568  0.025183854  0.024746162            6 
 2637000   0.83648393   -7.0630189    791.88057  0.025024667  0.024739624            4 
 2638000   0.82601787   -7.0678466    792.78567  0.025043773  0.024733078            7 
 2639000    0.8132102     -7.03582    794.24294    0.0250803  0.024726539            8 
 2640000   0.82583488   -7.0518094    793.57725  0.025049787   0.02472003            7 
 2641000    0.8075398   -7.0756801    795.05768  0.025087015  0.024713504            7 
 2642000   0.83633687   -7.0575493     794.6683  0.025065238   0.02470695            9 
 2643000   0.82265375   -7.0399209    793.65663  0.025023857  0.024700355            8 
 2644000   0.83256015    -7.058947    794.27343  0.025033832   0.02469371            9 
 2645000   0.82915109   -7.0611386    793.83915  0.025010685  0.024687083            4 
 2646000   0.82276229    -7.044555    793.38359  0.024986885  0.024680487            6 
 2647000     0.838589   -7.0812283    792.69015  0.024955615  0.024673843            8 
 2648000    0.8156215   -7.0743522    792.76211  0.024948455   0.02466721            9 
 2649000   0.82225823   -7.0610997    794.05863  0.024979823  0.024660595            9 
 2650000   0.82661992   -7.0612061    793.85949  0.024964135  0.024653942            7 
 2651000    0.8244773   -7.0705159    795.27329   0.02499916  0.024647375           11 
 2652000   0.81559535   -7.0521144    795.18084  0.024986829  0.024640849            5 
 2653000   0.83079515   -7.0551125    794.89361  0.024968388  0.024634303            6 
 2654000   0.83845963   -7.0379862    796.23543  0.025001112  0.024627732            4 
 2655000    0.8289577   -7.0389321    795.00647  0.024953122  0.024621181            9 
 2656000   0.83935059   -7.0572298    793.61771  0.024900154  0.024614589           10 
 2657000   0.80756409   -7.0345757    796.79256  0.024990357  0.024608013            3 
 2658000   0.82301497    -7.066599    793.81383  0.024887567  0.024601461           11 
 2659000   0.83010298   -7.0380926    796.48641  0.024961966  0.024594884            7 
 2660000   0.81798018   -7.0599306    795.46336  0.024920531  0.024588296            6 
 2661000    0.8114076   -7.0581122    795.39504  0.024909027  0.024581711            4 
 2662000   0.81727387   -7.0375601    795.79741  0.024912265  0.024575163            6 
 2663000   0.82698104   -7.0815596    794.58912    0.0248651  0.024568617            7 
 2664000   0.82331872   -7.0389466    795.95925  0.024898625  0.024562006            6 
 2665000   0.81067364   -7.0667825    794.54593  0.024845089  0.024555374            6 
 2666000   0.83587767   -7.0603368    794.44939  0.024832752   0.02454873            4 
 2667000   0.81814607   -7.0491444    794.16018  0.024814404  0.024542081            6 
 2668000   0.84242471   -7.0735838    795.19217  0.024837337  0.024535437            6 
 2669000   0.81905288   -7.0603166    794.75263  0.024814307  0.024528825            9 
 2670000   0.81373749   -7.0782395    796.18692  0.024849779  0.024522215            5 
 2671000   0.82142922   -7.0699774    796.46963  0.024849296  0.024515589            3 
 2672000   0.82328221   -7.0834272    795.90499  0.024822386  0.024508969            6 
 2673000   0.82103936   -7.0991712    795.45808  0.024799167  0.024502323            8 
 2674000   0.81767201   -7.0825234    794.60931  0.024763441  0.024495665            5 
 2675000   0.82527415   -7.0639023      796.815  0.024822897  0.024489003           11 
 2676000   0.81489956   -7.0778073     796.3795  0.024800059  0.024482344            5 
 2677000   0.84282086   -7.0865663    795.73812  0.024770829  0.024475674            5 
 2678000   0.82828816   -7.0643843    796.15599  0.024774583  0.024469022            8 
 2679000   0.82921162   -7.0704824    795.64835  0.024749544  0.024462418            5 
 2680000   0.83132886   -7.0615683     794.4742    0.0247038  0.024455833           16 
 2681000   0.82790151    -7.093415    797.19897  0.024779279   0.02444917           14 
 2682000   0.83969681   -7.0903024    795.97246  0.024731931   0.02444254            5 
 2683000   0.82424606   -7.0662508    795.77151  0.024716471  0.024435902            4 
 2684000   0.81780101   -7.0484659    798.89478  0.024804234  0.024429272            4 
 2685000   0.82678519   -7.0750142    797.00536  0.024736355   0.02442264            6 
 2686000    0.8495307   -7.0564537    797.63472  0.024746672  0.024416089           10 
 2687000   0.82257887   -7.0755185    796.84258  0.024712895    0.0244095            7 
 2688000    0.8255416    -7.102381    796.97895  0.024707929  0.024402946            7 
 2689000   0.82093239   -7.1054639    796.90574  0.024696471  0.024396334            6 
 2690000    0.8276926   -7.1011056    798.49656  0.024736573   0.02438973           11 
 2691000   0.80909548   -7.0529266    801.30083  0.024814221  0.024383141            4 
 2692000   0.82382599   -7.0906969    799.21587  0.024740462  0.024376596            6 
 2693000   0.81678762   -7.0699661    797.52522  0.024678958  0.024370054            7 
 2694000   0.81303595   -7.0841614    796.45527  0.024636701  0.024363484            5 
 2695000   0.81380809   -7.1110841    797.46275  0.024658712  0.024356902           12 
 2696000   0.81547207   -7.0966952     798.7655  0.024689834   0.02435031            7 
 2697000   0.82808303   -7.0787795    797.42194  0.024639165  0.024343729            7 
 2698000   0.80069612   -7.0585084    800.09941  0.024712732  0.024337162            6 
 2699000   0.82243957   -7.0887104    798.83511   0.02466454  0.024330587            7 
 2700000   0.82390049   -7.0722348    798.89988  0.024657404   0.02432405            5 
 2701000   0.82663927   -7.0719817    800.89293  0.024709766  0.024317522            4 
 2702000    0.7990809   -7.0405566    799.88529  0.024669544  0.024311009            5 
 2703000   0.81417275   -7.1031577    798.82476  0.024627721  0.024304444            4 
 2704000   0.81958099   -7.0675084    801.29143  0.024694632  0.024297884            5 
 2705000   0.80394424   -7.0470477    801.32765  0.024686619  0.024291402            5 
 2706000   0.80996709   -7.0846665    800.61621  0.024655587  0.024284902            5 
 2707000   0.81711936   -7.0594053    800.13763  0.024631746  0.024278364            8 
 2708000   0.82645682   -7.0898406    800.73129  0.024640919  0.024271871            4 
 2709000   0.81651886   -7.0886459    800.99332  0.024639883  0.024265415            5 
 2710000   0.79723325   -7.0846235    800.74431  0.024623134  0.024258909            6 
 2711000   0.83085655   -7.0467135    803.02183   0.02468406   0.02425241            8 
 2712000    0.8359814   -7.0919899    801.70575  0.024634518  0.024245949            7 
 2713000   0.80385741   -7.0813656    802.69151  0.024655717  0.024239455            5 
 2714000   0.81156811   -7.0778783    801.00247   0.02459477  0.024232956           11 
 2715000   0.80576024   -7.0829981    803.34742  0.024657686  0.024226481            9 
 2716000   0.83191634   -7.0805361    802.23365  0.024614435  0.024220024            7 
 2717000   0.81356205   -7.0985033    802.70911  0.024619958  0.024213566           10 
 2718000   0.82135108   -7.1020095    803.59755  0.024638139  0.024207098            5 
 2719000    0.8048667   -7.0736813    802.80247   0.02460471  0.024200587            8 
 2720000   0.81897876   -7.0815574    802.89491  0.024598496  0.024194085            6 
 2721000   0.81350887   -7.0864854    801.79795   0.02455586  0.024187596            7 
 2722000   0.81652445   -7.0891127    802.69248  0.024574225  0.024181091           10 
 2723000   0.81555931   -7.0773226    802.67584  0.024564691  0.024174603            8 
 2724000   0.81788221   -7.0600832    804.80844  0.024620914  0.024168132           10 
 2725000   0.83815814   -7.0720381      800.541  0.024481376  0.024161678           21 
 2726000   0.81361133   -7.0866809    802.37757  0.024528539  0.024155253            6 
 2727000   0.82646322   -7.0569037     805.7258  0.024621862  0.024148817            5 
 2728000   0.80595292   -7.0642644    801.89909   0.02449594  0.024142399           11 
 2729000   0.80687238   -7.0736176     802.6103  0.024508681  0.024135913            9 
 2730000    0.8129857   -7.0766504    804.13138  0.024546135  0.024129475            8 
 2731000   0.81548256   -7.1041906    802.58268   0.02448989  0.024123035           19 
 2732000   0.81811605   -7.1195834    801.53586  0.024448995  0.024116527           19 
 2733000   0.84180257   -7.1125749    802.59197  0.024472252  0.024110038           11 
 2734000   0.81766138   -7.0823036    802.46186  0.024459335  0.024103544           11 
 2735000   0.80357495   -7.0659747    803.05949  0.024468601  0.024097061            7 
 2736000   0.82034869   -7.0817291    804.25923    0.0244962  0.024090595            6 
 2737000   0.78869478   -7.1191824    801.61772  0.024406824  0.024084109            2 
 2738000   0.83118956   -7.1045643    803.70047    0.0244613  0.024077611           11 
 2739000   0.82172348   -7.1082576    802.48923  0.024415518  0.024071138           14 
 2740000   0.81622427    -7.063941    805.22744  0.024489886  0.024064662            8 
 2741000   0.81407831   -7.0714391    804.95739  0.024472741  0.024058241            5 
 2742000   0.81894142   -7.0689414    803.32213  0.024414118  0.024051815           10 
 2743000   0.81810436   -7.0733426    803.94621  0.024424177  0.024045374           11 
 2744000   0.82224819   -7.1121636    803.04219  0.024387822  0.024038921            9 
 2745000   0.79526293   -7.1061944     803.3075  0.024386992  0.024032527           10 
 2746000   0.82456992   -7.0689564    805.13244  0.024433492  0.024026088            6 
 2747000   0.80439152   -7.1144394    803.34866  0.024370485  0.024019629           11 
 2748000   0.81241063    -7.088617     805.4065   0.02442402  0.024013152           13 
 2749000   0.82825089   -7.1156648    804.24696  0.024379986  0.024006654            5 
 2750000   0.80314975   -7.1201586    804.04779  0.024365084  0.024000211            6 
 2751000   0.80808282   -7.0928716     804.1853  0.024360393  0.023993749           19 
 2752000   0.79979551   -7.0946346    805.83919  0.024401623  0.023987274           14 
 2753000   0.81279944   -7.1048459    804.17342  0.024342336  0.023980768           11 
 2754000   0.81483249   -7.0935131    804.23074  0.024335232  0.023974272            6 
 2755000   0.81719732   -7.0631397    804.34199  0.024329764  0.023967781           10 
 2756000   0.80630929   -7.0664288    804.92421  0.024338541  0.023961308            7 
 2757000   0.81709787   -7.1040804    803.91744  0.024299282  0.023954818            8 
 2758000   0.81148645   -7.1153089    805.34571  0.024333627   0.02394831            6 
 2759000   0.83148515   -7.0873316    804.58286  0.024301766  0.023941843            6 
 2760000   0.80593394    -7.093582    804.83234  0.024300493  0.023935352           10 
 2761000   0.80148067   -7.0760181    805.78699  0.024320505  0.023928877            3 
 2762000   0.81134456   -7.0841137    804.66321  0.024277794  0.023922438           10 
 2763000   0.81729277   -7.1228289    806.02043  0.024309942  0.023916007            9 
 2764000   0.80705028   -7.0971993    807.04001  0.024331887   0.02390958            6 
 2765000    0.8081383   -7.0834254    807.36651  0.024332927  0.023903188            4 
 2766000   0.80322761   -7.0827009    807.08978  0.024315792  0.023896802            6 
 2767000    0.8053633   -7.0689564    807.43137  0.024317292  0.023890409           11 
 2768000   0.81448208   -7.0838026    806.14531  0.024269789  0.023884022            9 
 2769000   0.82051234   -7.1055003    806.03943  0.024257838  0.023877617            6 
 2770000   0.79365941   -7.1486116    805.66917  0.024237941  0.023871132            5 
 2771000   0.80758633   -7.1400503    805.60851   0.02422737  0.023864623            8 
 2772000   0.80797922   -7.1209971    804.57462  0.024187549  0.023858145            5 
 2773000   0.80303102   -7.1244794    806.18194  0.024227129  0.023851676           11 
 2774000   0.81445013   -7.1298543    805.46335  0.024196808  0.023845208           10 
 2775000   0.83030487   -7.1250972    806.07206  0.024206368  0.023838742            6 
 2776000   0.81849963   -7.1142544    807.13677   0.02422961  0.023832291           11 
 2777000   0.80578413   -7.1290053    805.63041  0.024175682   0.02382586           17 
 2778000   0.80971907   -7.1110642    808.17744  0.024243384  0.023819467           14 
 2779000   0.79065307   -7.1205937    806.25338  0.024176963    0.0238131            7 
 2780000   0.81508757   -7.1227349    807.55193  0.024207192  0.023806695            8 
 2781000   0.80805165   -7.1283717    807.79007  0.024205624  0.023800318            5 
 2782000   0.81126144   -7.1322331    808.21149  0.024209546   0.02379391            5 
 2783000   0.81641193   -7.1323517    808.10719  0.024197724  0.023787522            7 
 2784000   0.79691826   -7.1222246    807.15342  0.024160483  0.023781136            5 
 2785000   0.79439987   -7.1185611    807.27478  0.024155439  0.023774751            6 
 2786000   0.80440948   -7.1082661    807.66943  0.024158574  0.023768358           13 
 2787000    0.8126874   -7.0880402     805.9238   0.02409771  0.023762005           12 
 2788000   0.80333908   -7.1012243     809.2251  0.024187742  0.023755619            5 
 2789000   0.79719954   -7.0992821      809.585  0.024189823  0.023749252            6 
 2790000   0.80574463   -7.0947247    808.54443  0.024150073  0.023742925            7 
 2791000   0.81077823   -7.0936612    810.82295  0.024209452  0.023736622           10 
 2792000    0.8022219   -7.1241987    808.70791  0.024137652  0.023730355            7 
 2793000   0.80210814   -7.1143189     812.1652  0.024232164   0.02372406            5 
 2794000   0.79876748   -7.0868384    812.38682  0.024230101  0.023717786            4 
 2795000   0.78630116   -7.0973535    809.51217  0.024135724  0.023711553           10 
 2796000   0.80320453   -7.1400809    810.17912  0.024146969  0.023705259            3 
 2797000   0.81362011   -7.1186463    813.02251  0.024223052  0.023698969            5 
 2798000   0.80133949   -7.1116552    810.07826  0.024126705  0.023692709           11 
 2799000   0.81538422   -7.1251809    810.50412  0.024130764  0.023686457            8 
 2800000   0.79968185   -7.1331419    811.20422  0.024142983  0.023680172            9 
 2801000   0.80300106   -7.1141391     810.9056  0.024125479  0.023673894            5 
 2802000   0.80133673   -7.1093575    810.15967  0.024094685  0.023667631            5 
 2803000   0.81922892   -7.1039969    811.23975  0.024118199  0.023661358           11 
 2804000   0.79040357   -7.1105313    811.88172  0.024128677   0.02365508            8 
 2805000   0.79321961   -7.1063533    810.39326  0.024075855  0.023648794            3 
 2806000   0.79962178   -7.1093867    812.63111  0.024133735  0.023642502           12 
 2807000   0.80660763   -7.0788723    813.27615  0.024144287  0.023636223            5 
 2808000   0.79792031   -7.1501015    811.42204  0.024080663  0.023629958           12 
 2809000   0.80206525    -7.111669     812.7067  0.024110202  0.023623687           14 
 2810000    0.7980804    -7.148694    811.39447  0.024062707  0.023617403           14 
 2811000   0.80732963   -7.0964948    811.74112  0.024064423   0.02361116            7 
 2812000   0.81369597   -7.1134196     812.5968  0.024081223  0.023604908            9 
 2813000   0.80063156   -7.1267413     812.4397  0.024068009  0.023598604           13 
 2814000   0.80422085    -7.107669     811.9812  0.024045878  0.023592325            7 
 2815000   0.82579356   -7.1299888    811.12401   0.02401196  0.023586018            4 
 2816000   0.80040455    -7.116113    810.92368  0.023997505  0.023579725           11 
 2817000   0.79842875   -7.1084166    812.24631  0.024028112  0.023573461           16 
 2818000   0.80660078   -7.1109187    812.01127  0.024012635  0.023567214           12 
 2819000   0.80710089   -7.1215849    812.27411  0.024011887  0.023560928            9 
 2820000    0.8146682   -7.1252618    812.65075  0.024014502  0.023554648            7 
 2821000    0.8021755   -7.1121697    812.50348  0.024001639  0.023548426            8 
 2822000     0.809895   -7.0960623    812.24732  0.023985569   0.02354219           10 
 2823000   0.80130332   -7.1443943    812.71075  0.023990753  0.023535908            6 
 2824000    0.8115003   -7.1078292    811.70027  0.023952439  0.023529667            6 
 2825000   0.80636052   -7.0870917    815.03841  0.024042431  0.023523504            6 
 2826000   0.78678091   -7.0926768    813.34986  0.023984131  0.023517317           10 
 2827000   0.79590571    -7.111336    814.37272  0.024005799  0.023511143           10 
 2828000   0.80290202     -7.11333    813.86154  0.023982247  0.023504906            8 
 2829000    0.8087448   -7.0823225    816.53077  0.024052397  0.023498736            3 
 2830000   0.79414302   -7.1162603    814.55061  0.023985589  0.023492548           13 
 2831000   0.81057228   -7.0909983    813.39663  0.023943148  0.023486341            7 
 2832000   0.79394051   -7.1058332    815.44542  0.023994981  0.023480165           12 
 2833000   0.81772295   -7.0941993    815.49705   0.02398803  0.023473994            6 
 2834000      0.78594   -7.1367369    814.62506  0.023953924  0.023467802           11 
 2835000   0.79846245   -7.1349005    814.79805   0.02395056  0.023461571            6 
 2836000   0.81565715   -7.1050568    814.11147   0.02392194  0.023455361            5 
 2837000   0.79012513   -7.1430863    813.71285  0.023901799  0.023449178           10 
 2838000    0.7937656   -7.1267575    813.99515  0.023901666  0.023442969           16 
 2839000   0.78930518   -7.1213003    813.96046  0.023892229  0.023436751            6 
 2840000   0.78245462   -7.1150329    813.83812  0.023880227  0.023430516            6 
 2841000    0.7869488   -7.1187807    816.05883   0.02393696  0.023424274           10 
 2842000   0.78136128   -7.1324402    813.23491  0.023845734  0.023418044            7 
 2843000   0.79586864   -7.1392752    813.79138  0.023853658  0.023411826            7 
 2844000    0.8013644   -7.1282842    815.66754  0.023900244  0.023405622            5 
 2845000   0.80381624   -7.1410736    815.84944  0.023897172  0.023399418            5 
 2846000   0.80969875   -7.1406817    816.38602  0.023904486  0.023393238           26 
 2847000   0.80733544   -7.1375708    815.42073  0.023867836  0.023387046           12 
 2848000   0.79041191   -7.1284224    815.71815  0.023868158  0.023380852           13 
 2849000   0.79025446     -7.11634    816.06155  0.023869824  0.023374698            8 
 2850000   0.79019195   -7.1616549    814.83509  0.023825587  0.023368477            5 
 2851000   0.79949624    -7.169173    813.77127  0.023786136  0.023362201           10 
 2852000   0.79597376   -7.1618353    816.36118  0.023853471  0.023355935            5 
 2853000   0.80567696   -7.1757448    814.43844  0.023788948  0.023349706           11 
 2854000   0.81007125   -7.1756776    815.42176  0.023809325  0.023343449           10 
 2855000   0.80136207   -7.1482623    815.73899  0.023810245   0.02333724           13 
 2856000    0.8134868   -7.1282329     817.6807  0.023858564   0.02333107            9 
 2857000   0.79598037   -7.1112857    814.27497  0.023750874  0.023324909            8 
 2858000   0.79255813   -7.1084683     816.9396  0.023820259  0.023318718            3 
 2859000   0.79935942   -7.1151293    815.15389  0.023759878  0.023312533            4 
 2860000   0.78944914   -7.1423275    815.12919  0.023750851  0.023306378            6 
 2861000   0.79482568   -7.1021602    818.58477  0.023843201  0.023300195            8 
 2862000   0.78688447   -7.0987446     817.6399  0.023807358  0.023294012           11 
 2863000   0.76529515   -7.1400205    819.20739  0.023844667  0.023287816            8 
 2864000   0.77664823    -7.128245    816.00032  0.023743026  0.023281604            9 
 2865000   0.79721364   -7.1407983     818.2265  0.023799491  0.023275378            8 
 2866000   0.80166446   -7.1254119    816.92953  0.023753475  0.023269178            8 
 2867000   0.79220067    -7.129881    817.33301  0.023756918  0.023262987            6 
 2868000   0.80320166   -7.1266575    815.95143  0.023708491  0.023256755            8 
 2869000   0.79782558   -7.1181913    816.73726  0.023723053  0.023250571           11 
 2870000   0.79697324   -7.1407604    816.08082  0.023695727  0.023244354            8 
 2871000   0.77245629   -7.1463176      817.746  0.023735806  0.023238128            6 
 2872000   0.76685501   -7.1351207    819.12371  0.023767517   0.02323191            3 
 2873000   0.79214653   -7.1326317    817.04593  0.023698977  0.023225688           16 
 2874000   0.79449104   -7.1249947    819.21271  0.023753558  0.023219494           18 
 2875000   0.79144334   -7.1536506    818.41655  0.023722219  0.023213296            8 
 2876000   0.79302367   -7.1497557    817.90469  0.023699139  0.023207087            7 
 2877000   0.80176753   -7.1222957    817.51518   0.02367962  0.023200865            9 
 2878000   0.79841776   -7.1245758    819.28403  0.023722609  0.023194687           10 
 2879000   0.78984234   -7.1161691    818.77473  0.023699627  0.023188526            8 
 2880000   0.78675569   -7.1281349    818.96231  0.023696826   0.02318238            3 
 2881000   0.77406124   -7.1309052    818.64477  0.023679416  0.023176189            4 
 2882000   0.80697087   -7.1702399    816.74811  0.023616358      0.02317           10 
 2883000   0.79210197   -7.1421908    816.16152   0.02359121  0.023163835            4 
 2884000   0.79057386   -7.1418801    817.72642  0.023628249  0.023157677           17 
 2885000   0.78784142   -7.1198763    819.87097  0.023682004  0.023151534           10 
 2886000   0.76777676     -7.12884    818.08232  0.023622151  0.023145365            5 
 2887000   0.79898047   -7.1445996    819.57076  0.023656932  0.023139212            5 
 2888000   0.79345378   -7.1476671    818.95292  0.023630913  0.023133063            4 
 2889000   0.79545971   -7.1463477     819.8438  0.023648431  0.023126922            5 
 2890000   0.78551099    -7.143926    820.37857  0.023655668  0.023120789            4 
 2891000   0.78219377   -7.1571831    817.75911  0.023571979  0.023114641            6 
 2892000    0.7738085    -7.153511    820.52647   0.02364357   0.02310851           10 
 2893000     0.802079   -7.1671318    818.87924  0.023587949  0.023102357            6 
 2894000    0.8007293    -7.131098    821.09766  0.023643678  0.023096192            5 
 2895000   0.76613485   -7.1297529    820.41061  0.023615734  0.023090036           20 
 2896000   0.79181766   -7.1520689    821.05871  0.023626229  0.023083848            5 
 2897000   0.76642133   -7.1322038    820.55067   0.02360346  0.023077681            6 
 2898000   0.78255755   -7.1678746    821.32075  0.023617459  0.023071527           13 
 2899000    0.7917644   -7.1310061    820.70473  0.023591604  0.023065379            8 
 2900000   0.79379229   -7.1378883    821.65271   0.02361071  0.023059281            9 
 2901000   0.80115697   -7.1503684    820.35214  0.023565212   0.02305317           15 
 2902000   0.79266721   -7.1621878    820.99518  0.023575556  0.023047026            5 
 2903000   0.76612585   -7.1688038    818.77145  0.023503601  0.023040833            8 
 2904000   0.80027866   -7.1491102    819.27244  0.023509884  0.023034684            5 
 2905000   0.79728642   -7.1337326    820.52829  0.023537817  0.023028549            9 
 2906000   0.76937708   -7.1440096    818.80184  0.023480209  0.023022413           11 
 2907000   0.79051891   -7.1746396    820.68152  0.023526015   0.02301622            7 
 2908000   0.79074792   -7.1763795    823.15188  0.023588717  0.023010063           10 
 2909000   0.78915755   -7.1644013    819.43312  0.023474078  0.023003929            8 
 2910000   0.78982201   -7.1641479    821.24694  0.023517954  0.022997814           11 
 2911000    0.7998019   -7.1423416    820.53203  0.023489409  0.022991662           11 
 2912000   0.77797089   -7.1601767     822.1286  0.023527032  0.022985538            8 
 2913000   0.78478623   -7.1132203    824.25704  0.023579844   0.02297945            8 
 2914000    0.7881052   -7.1394911    821.39221  0.023489825   0.02297335            8 
 2915000   0.80873693   -7.1545197    820.19638  0.023447581  0.022967201            8 
 2916000   0.79223081   -7.1759761    820.87226  0.023458855   0.02296109            5 
 2917000   0.78815566   -7.1386598    822.02204   0.02348366  0.022954973           13 
 2918000   0.78312002   -7.1508547    821.22328  0.023452801  0.022948875            9 
 2919000   0.79407412   -7.1438737    822.13002  0.023470653  0.022942753           11 
 2920000   0.78224127   -7.1561861    820.95068  0.023428958  0.022936606           10 
 2921000   0.79289706   -7.1399751     822.8812  0.023476013  0.022930484           13 
 2922000   0.77746072   -7.1240425    822.27634  0.023450728   0.02292438            6 
 2923000   0.77812919   -7.1363497    823.13423  0.023467164  0.022918268            4 
 2924000   0.78007392   -7.1664435    820.73536  0.023390771  0.022912135            7 
 2925000   0.79089185   -7.1482843    820.59157  0.023378677  0.022905985            4 
 2926000   0.79459434   -7.1356749    821.87604  0.023407269  0.022899823            9 
 2927000   0.79468998   -7.1445495    822.19141  0.023408251  0.022893719            7 
 2928000   0.78143645   -7.1425797    822.68328  0.023414255   0.02288763            8 
 2929000   0.79470087   -7.1233875    822.25708  0.023394136  0.022881498            3 
 2930000   0.78681892   -7.1392921    821.09627  0.023353136  0.022875355            8 
 2931000   0.77987892   -7.1407646    823.42413  0.023411354  0.022869192           10 
 2932000   0.81004599   -7.1499967    819.95362   0.02330473   0.02286304           11 
 2933000    0.7857956   -7.1418849    821.43455  0.023338861  0.022856879            6 
 2934000   0.78158418   -7.1701778     821.9048  0.023344263   0.02285069           14 
 2935000    0.7724415   -7.1680988    821.72816  0.023331293  0.022844481            4 
 2936000   0.78879569   -7.1517287    821.65598  0.023321298  0.022838341            7 
 2937000   0.77476077    -7.167023    823.56548  0.023367537  0.022832198            5 
 2938000   0.77973651   -7.1656615    822.13816  0.023319099  0.022826052            4 
 2939000   0.78409886   -7.1584545     822.6043  0.023324382  0.022819905            6 
 2940000   0.78407788   -7.1726363    821.70382  0.023290925  0.022813736           13 
 2941000   0.77296395   -7.1476698    821.97317  0.023290637  0.022807601           14 
 2942000   0.77008743   -7.1448235    823.57772   0.02332817  0.022801433           14 
 2943000   0.77493702   -7.1899269    821.69162  0.023266837  0.022795237           10 
 2944000   0.78462296   -7.1611834    822.75099  0.023288921  0.022789062           20 
 2945000    0.7813635   -7.1742993     824.8922  0.023341602  0.022782886           16 
 2946000   0.76621952   -7.1857721     821.5242  0.023238408  0.022776711           21 
 2947000   0.77862915   -7.1720846    822.62992  0.023261789  0.022770518           10 
 2948000   0.77932234   -7.1735931    821.44427  0.023220383   0.02276431            6 
 2949000   0.78972665   -7.1707265     820.0707  0.023173694  0.022758112            7 
 2950000   0.78090161    -7.180141    822.18501  0.023225565  0.022751907           11 
 2951000   0.79172513    -7.172146    821.70854   0.02320424  0.022745742           12 
 2952000   0.77595368   -7.1574817    823.03833  0.023233918  0.022739598            6 
 2953000   0.77124414   -7.1865414    823.36001  0.023235129  0.022733453            8 
 2954000   0.77971914   -7.1659923    824.41193  0.023256938  0.022727309           10 
 2955000   0.76718736   -7.1592076    822.65546  0.023199534  0.022721144            7 
 2956000   0.77565641   -7.1668436     823.3344  0.023210825  0.022715004           14 
 2957000   0.77785172    -7.179111    823.21265  0.023199545  0.022708883           11 
 2958000   0.77214434   -7.1789562    824.08564  0.023216296  0.022702799           12 
 2959000   0.77698547   -7.1513264    823.24967  0.023184907  0.022696689           14 
 2960000   0.78278784   -7.1659578    824.17182  0.023203035  0.022690594           15 
 2961000   0.78382403   -7.1646917    823.94989  0.023188953    0.0226845            6 
 2962000   0.76991666   -7.1584049    822.93391  0.023152541  0.022678417            6 
 2963000   0.78425394   -7.1739601    823.69231  0.023166057  0.022672319            9 
 2964000   0.80427272   -7.1518576    826.86034  0.023247311  0.022666251           12 
 2965000    0.8056232   -7.1477515    826.45227  0.023228001  0.022660196            6 
 2966000   0.78251082   -7.1493411    825.45908  0.023192265  0.022654114            4 
 2967000    0.7837186   -7.1538632    822.83088   0.02311063  0.022647973            8 
 2968000   0.77757761   -7.1583622    824.58207  0.023152012  0.022641851           11 
 2969000   0.77406906   -7.1540522    825.15348  0.023160253  0.022635767            8 
 2970000   0.78273596    -7.162655    824.33291  0.023129431  0.022629647            7 
 2971000   0.75985979   -7.1831448    823.31201  0.023093011  0.022623504           11 
 2972000   0.78580657   -7.1911579    823.17205  0.023081316   0.02261735           11 
 2973000   0.78339175   -7.1959805    821.43195  0.023024777  0.022611185            7 
 2974000   0.77484295   -7.1717832    822.31276  0.023041716  0.022605008            7 
 2975000   0.77533066   -7.1615808    824.23545  0.023087828  0.022598862            8 
 2976000   0.77658077   -7.1788521    824.18916  0.023078774   0.02259272            7 
 2977000   0.75182633   -7.2072519    823.41106   0.02304924  0.022586574           13 
 2978000   0.76579467   -7.1792268    824.07888  0.023060188  0.022580406           14 
 2979000   0.78292967   -7.1648287    823.58792  0.023038713  0.022574228            7 
 2980000   0.78212795   -7.1939878    824.71256  0.023062432  0.022568059            8 
 2981000   0.77290882   -7.1628783    825.28601  0.023070726  0.022561892            7 
 2982000   0.78271426   -7.1852992     823.1719   0.02300391  0.022555706            7 
 2983000   0.78204244   -7.1745397     823.9578  0.023018153  0.022549511            5 
 2984000   0.75481559   -7.1780721    826.57682   0.02308358   0.02254332            7 
 2985000   0.78593515   -7.1818064    822.23652  0.022954677  0.022537138            9 
 2986000   0.78660751   -7.1773657    824.35415  0.023006088  0.022530907           19 
 2987000   0.77940113   -7.1847443    821.51496  0.022919176  0.022524691           17 
 2988000   0.76828766   -7.1684367    822.47229  0.022938205  0.022518476            9 
 2989000   0.76217616   -7.2095854    826.33709  0.023038282  0.022512269            9 
 2990000   0.77824817   -7.1806373    823.29006  0.022945654  0.022506083           18 
 2991000   0.78679867   -7.1721553    822.99827  0.022929853  0.022499886           13 
 2992000   0.77140238   -7.1734151     824.7702  0.022971541  0.022493719           12 
 2993000   0.76261088    -7.162769    826.50758  0.023012239  0.022487577            9 
 2994000   0.77479776   -7.1683517      823.419  0.022918587  0.022481418            6 
 2995000   0.77542205   -7.2031223    823.60706  0.022916167   0.02247527            3 
 2996000   0.77319342   -7.2056514    824.23014   0.02292585  0.022469067           10 
 2997000   0.77468556    -7.166831    827.73276  0.023015592  0.022462877            6 
 2998000    0.7801918   -7.1843976    826.09041  0.022962264  0.022456694            7 
 2999000   0.76776491   -7.1614739    825.01835  0.022924818  0.022450524            6 
 3000000   0.76405493   -7.1738163     825.3289  0.022925803  0.022444355            5 
 3001000   0.77347858   -7.1875906    823.10187  0.022856322   0.02243816            5 
 3002000   0.76938166   -7.1772951    824.00338  0.022873734  0.022431975            7 
 3003000   0.76293547   -7.1689028    823.98902  0.022865718  0.022425792           16 
 3004000   0.76264202   -7.2032545    824.15731  0.022862775  0.022419587            8 
 3005000   0.77403929   -7.1750693    825.41949  0.022890169  0.022413347            8 
 3006000   0.75830707   -7.1893691    825.75217  0.022891777  0.022407133            9 
 3007000   0.76295854   -7.1752148    826.73783   0.02291148  0.022400905           11 
 3008000   0.77742834   -7.2045349    823.97834  0.022827414  0.022394679            9 
 3009000   0.77294157   -7.1697386     824.5557  0.022835817  0.022388427            8 
 3010000   0.77732554   -7.2242061    822.95205  0.022783833  0.022382156            4 
 3011000   0.75032731   -7.1810795     824.9541  0.022831676  0.022375894            8 
 3012000   0.77753901   -7.1874886     825.1839  0.022830453  0.022369662            7 
 3013000   0.77485207   -7.1962308    825.09583   0.02282044  0.022363404            8 
 3014000   0.76596254   -7.1885961    824.13798  0.022786385  0.022357166           10 
 3015000   0.75489216   -7.1890801     826.2293  0.022836631  0.022350952            8 
 3016000   0.75666194   -7.1940598    825.09289  0.022797659  0.022344695            5 
 3017000   0.77275552   -7.1890912    823.67176   0.02275085   0.02233844            7 
 3018000   0.77696859   -7.1802848    825.37287  0.022790282    0.0223322           11 
 3019000   0.78317495    -7.165751    824.54526  0.022759889  0.022325975           15 
 3020000   0.76183203   -7.1971677    825.94227  0.022790901  0.022319765           13 
 3021000   0.77473565   -7.1718466    826.36962  0.022795146  0.022313555            8 
 3022000   0.75918577   -7.1824488    825.58431  0.022765947  0.022307356            6 
 3023000   0.77426152    -7.172674    825.11451  0.022745466  0.022301164            7 
 3024000   0.75526516   -7.2024916    826.09929  0.022765082  0.022294954            9 
 3025000   0.76463487   -7.1727765    826.21197   0.02276066  0.022288775            7 
 3026000   0.74587072   -7.1892368       827.09  0.022777319  0.022282587           11 
 3027000   0.76625896   -7.1839703    826.69015  0.022758786  0.022276443           13 
 3028000   0.77720147   -7.1575265    826.11747  0.022735509  0.022270302           15 
 3029000   0.74771956   -7.1937404    827.47646  0.022765392  0.022264117            5 
 3030000   0.76815863   -7.1763124    826.92191  0.022742627   0.02225794            5 
 3031000   0.76739407   -7.1913869    825.86156  0.022705971  0.022251759            9 
 3032000   0.76472999   -7.1634399    825.79886  0.022696758  0.022245559            7 
 3033000   0.76739214   -7.1866663    825.92319  0.022692691  0.022239361           10 
 3034000   0.76877782   -7.1898377    827.23694  0.022721296  0.022233142            6 
 3035000   0.76591895   -7.1795115       825.07  0.022654311  0.022226922            5 
 3036000   0.77046778   -7.1559023     822.8753  0.022586608  0.022220678            6 
 3037000   0.74787251   -7.2097481    824.58204  0.022626003  0.022214438            8 
 3038000   0.77044365   -7.1789348    826.08812  0.022659867  0.022208181           18 
 3039000   0.76336613   -7.1846772    825.39038  0.022633278  0.022201927            3 
 3040000   0.77965338   -7.1688822    824.98389   0.02261469  0.022195684           10 
 3041000   0.76747173   -7.2170837    824.41487   0.02259166  0.022189399           10 
 3042000   0.76031613   -7.2160745    823.61863  0.022562421  0.022183111            9 
 3043000   0.76856889   -7.2144222    823.45892  0.022550633  0.022176819           15 
 3044000   0.76033491   -7.1949251    825.26658  0.022592712  0.022170545           17 
 3045000   0.74657419   -7.2021216    826.45383  0.022617784  0.022164268           21 
 3046000   0.76584568   -7.2105726    824.41115  0.022554474  0.022157995           11 
 3047000   0.77282246   -7.1687559    824.25002  0.022542665   0.02215173           13 
 3048000   0.76179996   -7.2284576    824.01888   0.02252895   0.02214547           13 
 3049000   0.77173021    -7.218215    824.12824   0.02252455  0.022139177           13 
 3050000   0.76382662   -7.2112889     826.8931  0.022592708  0.022132933           10 
 3051000   0.76840001   -7.2010217    827.62143  0.022605196  0.022126738            9 
 3052000   0.76062096   -7.1924043    827.60266  0.022597277  0.022120518           19 
 3053000   0.73256325    -7.190469    827.11693  0.022576617   0.02211431           13 
 3054000   0.76121623   -7.1968414    826.90205  0.022563361  0.022108086           19 
 3055000   0.75449194   -7.1690973    827.54954  0.022573637  0.022101871            6 
 3056000   0.77781646   -7.2127488    825.69678  0.022515728  0.022095675           10 
 3057000   0.76344687   -7.1767864    828.54358  0.022585966  0.022089459           11 
 3058000   0.77568517   -7.2172631    826.23631  0.022515705  0.022083248            8 
 3059000   0.77446626   -7.1893699    827.79669  0.022550852  0.022077044            5 
 3060000   0.75304653   -7.1751279    827.50922  0.022535654  0.022070884            3 
 3061000   0.75842259   -7.1986221    826.95215  0.022513126  0.022064714            9 
 3062000   0.77622217   -7.1707475    828.22367  0.022540378  0.022058535           10 
 3063000   0.76020361    -7.235429    826.35066  0.022482062  0.022052365            9 
 3064000   0.75233488   -7.2160118     828.6064  0.022536075  0.022046191           20 
 3065000   0.76744361   -7.1989162    828.09314  0.022514767  0.022040042           15 
 3066000   0.75209535   -7.1987233    828.50376  0.022518584  0.022033861           14 
 3067000   0.76342039   -7.2353036    828.63925  0.022514924  0.022027678           24 
 3068000   0.75815161   -7.2226709    826.26742  0.022443161  0.022021488           13 
 3069000   0.75236459   -7.1858332    828.60837  0.022499413  0.022015322            9 
 3070000   0.74814477   -7.1777755    828.11898    0.0224788  0.022009196           13 
 3071000   0.74917816   -7.1924247    828.29212  0.022476178  0.022003042           10 
 3072000   0.74287499   -7.2004568    827.17017  0.022438427  0.021996868            8 
 3073000   0.74783524    -7.205692    828.73123  0.022473458  0.021990714            7 
 3074000   0.74107786   -7.2025736    829.71167  0.022492726  0.021984591           14 
 3075000   0.75909761   -7.2040159    829.70281  0.022485171  0.021978483            8 
 3076000    0.7507347   -7.2139209    829.22384  0.022464885  0.021972403            6 
 3077000   0.77069701   -7.2006123    831.01363  0.022506056  0.021966302            8 
 3078000   0.75600158   -7.2160095    828.17523  0.022421898  0.021960212           13 
 3079000   0.76612746   -7.1949833    828.29781  0.022417934  0.021954121            6 
 3080000    0.7325736   -7.1892763    829.24673  0.022436329  0.021948009           10 
 3081000    0.7648899   -7.1844798    830.60427  0.022465765  0.021941912            7 
 3082000   0.75068047    -7.200127    829.70255  0.022434094   0.02193578           10 
 3083000    0.7525294   -7.2309639    828.97122   0.02240705  0.021929658            7 
 3084000   0.76323007   -7.2075918    829.55184  0.022415474  0.021923529           10 
 3085000   0.75780681   -7.2330024    829.23804  0.022399731  0.021917384            7 
 3086000   0.76508638   -7.2373151    828.56065   0.02237418  0.021911225           13 
 3087000   0.73164949   -7.2208277    828.02679  0.022352521  0.021905056            5 
 3088000   0.75084811   -7.1981117    829.25797  0.022378507    0.0218989            6 
 3089000   0.75570162   -7.2037438    828.59707  0.022353433  0.021892744            7 
 3090000   0.74968713   -7.2226574    830.82676  0.022406331  0.021886591            8 
 3091000   0.76996462    -7.210929    831.28575  0.022411457  0.021880452            8 
 3092000   0.75467195   -7.2076418     828.4022  0.022326493  0.021874321            6 
 3093000   0.76685018    -7.204497    828.35371  0.022317968  0.021868155            6 
 3094000   0.77110895   -7.2159145    829.35045  0.022337601  0.021861992           13 
 3095000   0.74813924   -7.2026136     829.3874  0.022331379  0.021855817           28 
 3096000   0.74820562   -7.2180171    828.27749  0.022294291  0.021849623           21 
 3097000   0.74512032   -7.2079976    829.63053  0.022323499  0.021843451           13 
 3098000   0.76346081   -7.2017369    828.17467  0.022277132   0.02183727           11 
 3099000   0.75292701   -7.2185624    828.91375  0.022289818   0.02183109           15 
 3100000   0.75547245   -7.2080329    831.14058  0.022342489  0.021824915            6 
 3101000   0.75469602   -7.1750646    830.10824  0.022307542  0.021818753            5 
 3102000   0.77050833    -7.179745     829.5414  0.022285123  0.021812601            9 
 3103000   0.74448209   -7.2217327    829.28429  0.022271036  0.021806473           12 
 3104000   0.75009563   -7.2079077    830.62294    0.0222998  0.021800306           14 
 3105000   0.75144998   -7.2041819    828.29116  0.022230037  0.021794124           14 
 3106000   0.75354802    -7.223658     829.6963  0.022260579  0.021787956           17 
 3107000   0.76739126   -7.2235091     831.3041  0.022296537  0.021781811            5 
 3108000   0.76443157   -7.2184392    829.06357  0.022229289  0.021775684           12 
 3109000   0.74892338   -7.2013735    830.79224  0.022268474  0.021769536           12 
 3110000   0.75517136   -7.2045127    831.35223  0.022276319  0.021763444           12 
 3111000   0.73616873   -7.2115745    830.85882  0.022255942  0.021757318           10 
 3112000   0.75497001    -7.222955    831.47517  0.022265295  0.021751179            6 
 3113000   0.74302684   -7.2214798    829.53178  0.022206119  0.021745032           12 
 3114000   0.74817042   -7.2205303    830.50522  0.022225038  0.021738912           13 
 3115000   0.74407138   -7.2310738    831.60583  0.022247347  0.021732818            9 
 3116000   0.76977496   -7.2168259    831.27182  0.022231275  0.021726729           13 
 3117000   0.76743247   -7.2081183    832.65899  0.022261229   0.02172064            6 
 3118000   0.74480056   -7.2037028    830.66773  0.022200869  0.021714567            8 
 3119000   0.75417963   -7.2113003    832.39192  0.022239818  0.021708443            9 
 3120000   0.74024102   -7.2158772    828.71382   0.02213445  0.021702298           12 
 3121000   0.74494544   -7.2247867    829.52635  0.022149053  0.021696141           11 
 3122000   0.75161542   -7.2052623    829.26573  0.022135002  0.021689993            6 
 3123000   0.78442367   -7.2448819    829.21011   0.02212643  0.021683801            8 
 3124000   0.74745786   -7.2255667    831.57785  0.022182508  0.021677623           13 
 3125000   0.77042644   -7.2075372    830.80743  0.022154865  0.021671483            8 
 3126000   0.74404024   -7.2089428    829.32677  0.022108306   0.02166533           10 
 3127000   0.76163491   -7.2392954    830.31685  0.022127621  0.021659161           13 
 3128000   0.74587976   -7.2112775    830.50757  0.022125628  0.021653007           11 
 3129000    0.7570176   -7.2234617    829.18105  0.022083228   0.02164685            8 
 3130000   0.74523277   -7.2372472    831.23576  0.022130878  0.021640698           13 
 3131000   0.75861633   -7.2343004    830.23343  0.022097132  0.021634505           12 
 3132000   0.76185799   -7.2142852    832.07673  0.022139121  0.021628336           13 
 3133000   0.75845615    -7.201373    830.39505  0.022087324  0.021622204            5 
 3134000    0.7620332   -7.2033618    831.41345  0.022107356  0.021616077           12 
 3135000   0.73772163   -7.2171171    831.22676  0.022095342  0.021609932            7 
 3136000   0.77162972   -7.2360278     831.9947  0.022108703  0.021603811            6 
 3137000   0.75362176   -7.2428791    831.54079  0.022089597  0.021597706            9 
 3138000   0.72684186   -7.2284812    830.02254  0.022042239   0.02159159            9 
 3139000   0.75868524   -7.2386411    832.84798  0.022110226  0.021585473            7 
 3140000   0.74807236   -7.2155714     830.9321  0.022052338  0.021579352            6 
 3141000   0.74706243   -7.2686261    830.75893  0.022040723  0.021573251           13 
 3142000   0.75511269   -7.2200674    831.02217   0.02204069  0.021567162           21 
 3143000   0.74426766   -7.2114274    833.13403  0.022089671   0.02156107           13 
 3144000   0.74650684    -7.248008    831.34923  0.022035338  0.021554974            5 
 3145000   0.75407325   -7.2193882    831.92009  0.022043458  0.021548836            9 
 3146000   0.72770606   -7.1914307    833.75881  0.022085156  0.021542742            8 
 3147000   0.75908624   -7.2004609     831.2311  0.022011204   0.02153664            8 
 3148000   0.75279633   -7.2256514    832.62177  0.022041025  0.021530564           17 
 3149000   0.73624873   -7.2290966    833.48683  0.022056918  0.021524489            5 
 3150000   0.74872375   -7.2348731    831.88875  0.022007639  0.021518404           15 
 3151000   0.76689878   -7.2410924     832.9475  0.022028655  0.021512303           15 
 3152000   0.74901829   -7.2539024     830.7938  0.021964726  0.021506215            8 
 3153000   0.77365749   -7.2219512    833.02859  0.022016825  0.021500144            6 
 3154000   0.75722338    -7.219448    831.85928   0.02197895  0.021494063           12 
 3155000   0.73870766    -7.207657     832.2836  0.021983191  0.021487998            5 
 3156000   0.76002417    -7.219959    833.59334  0.022010808  0.021481931           19 
 3157000   0.74386443    -7.223502    833.93288  0.022012799  0.021475872           10 
 3158000   0.72639867   -7.2174998    833.96579  0.022006697  0.021469836           14 
 3159000   0.74856033    -7.249983    832.02512  0.021948537  0.021463765            7 
 3160000    0.7584628   -7.2227625    831.11401  0.021917564  0.021457695           18 
 3161000   0.73690184   -7.2322749    833.71355  0.021979161  0.021451632            8 
 3162000   0.74000357   -7.2342278    832.98204  0.021952932  0.021445559           10 
 3163000   0.74565636   -7.2139424    833.16542  0.021950823  0.021439497           15 
 3164000   0.74036754   -7.2524646    833.73446  0.021958872  0.021433405           16 
 3165000   0.73777424   -7.2349524    832.85783  0.021928853  0.021427336            9 
 3166000   0.73846579   -7.2302741    833.16714  0.021930068  0.021421274           12 
 3167000   0.75272152    -7.261598    832.22101  0.021898248   0.02141524            7 
 3168000   0.74621834   -7.2326742    831.42066  0.021870282  0.021409149           12 
 3169000   0.74958978    -7.237904    833.51638  0.021918491  0.021403092           11 
 3170000   0.75278062   -7.2181241    834.31311  0.021932521  0.021397039           16 
 3171000   0.75838986   -7.2745901    832.87823  0.021887896  0.021390974            3 
 3172000   0.74891087   -7.2346612     832.6072  0.021873876  0.021384894            6 
 3173000   0.73377127   -7.2427441    832.44496  0.021862721  0.021378805            8 
 3174000   0.75367165   -7.2446278    833.54297  0.021884661  0.021372723           12 
 3175000   0.74950471   -7.2506034    835.33134  0.021924707  0.021366646           12 
 3176000   0.75025077   -7.2262765    835.22292  0.021914959  0.021360574           12 
 3177000   0.73619017   -7.2230416    834.52911  0.021889862  0.021354545           13 
 3178000   0.74022718    -7.212667    834.63154   0.02188566  0.021348514            7 
 3179000   0.74967557   -7.2275088    834.16013  0.021866418  0.021342505            9 
 3180000   0.75635022     -7.22277    834.68801  0.021873376  0.021336499            9 
 3181000   0.74438367   -7.2112738     834.9299  0.021872836  0.021330477           11 
 3182000   0.74555172    -7.209385     833.0146  0.021815802  0.021324442            7 
 3183000   0.74467019   -7.2436079    834.78647  0.021855337   0.02131843           10 
 3184000   0.75480743   -7.2214572    835.41193  0.021864843   0.02131243            9 
 3185000   0.74852485   -7.2213323    835.30752  0.021855246  0.021306435            4 
 3186000   0.73933855   -7.2493083    833.24153  0.021794348  0.021300417           15 
 3187000   0.73685315   -7.2268987    833.80153  0.021802153  0.021294397           19 
 3188000   0.73992482    -7.219162    834.23019  0.021806519  0.021288378            8 
 3189000     0.732604   -7.2425358    836.02644   0.02184662  0.021282338            5 
 3190000   0.73759299   -7.2388599    834.42161  0.021797848  0.021276312           13 
 3191000   0.75965451   -7.2161941    834.60294  0.021795752  0.021270279            7 
 3192000   0.76062031   -7.2506042    835.27096  0.021806364  0.021264263           15 
 3193000   0.74167185   -7.2766963    833.75411  0.021759946  0.021258199           11 
 3194000   0.73873821    -7.223431    835.94798  0.021810373  0.021252143            6 
 3195000   0.74467914   -7.2320374    836.86494  0.021827463  0.021246109           14 
 3196000   0.74178317   -7.2412299    835.67019  0.021789481  0.021240071           11 
 3197000    0.7414408   -7.2494526    834.77417   0.02175931  0.021234016            9 
 3198000    0.7200286   -7.2252991    833.22581  0.021712159  0.021227954           21 
 3199000   0.73623492    -7.226789    834.01532  0.021725938  0.021221909           20 
 3200000   0.72335936   -7.2464751    834.32764  0.021727282  0.021215847           23 
 3201000    0.7422851   -7.2378848    835.64492  0.021754788  0.021209811           21 
 3202000   0.74058455   -7.2316499    833.61337  0.021695122  0.021203807           10 
 3203000   0.73306218   -7.2472604     835.7808  0.021744739  0.021197797           13 
 3204000    0.7579099   -7.2012345    837.93566  0.021793999   0.02119181           12 
 3205000   0.74619175   -7.2606733    836.13067  0.021740267  0.021185834           41 
 3206000   0.74546894   -7.2341732    836.62984  0.021746461  0.021179847           11 
 3207000   0.73074087   -7.2292371    836.29481  0.021730974   0.02117385           14 
 3208000   0.73840134   -7.2497224    836.16365  0.021720793  0.021167854           12 
 3209000    0.7453278   -7.2349014    835.77777  0.021704004  0.021161825            9 
 3210000   0.75191539   -7.2893116    833.22451  0.021630958  0.021155789           27 
 3211000   0.74205836   -7.2655617    833.06736  0.021620143  0.021149762            7 
 3212000   0.74506437   -7.2362154    836.05117  0.021690825  0.021143738           12 
 3213000   0.73573134   -7.2397813    837.00499  0.021708813  0.021137713           15 
 3214000   0.73011532   -7.2471242     836.1544  0.021680004   0.02113172           43 
 3215000   0.74752222   -7.2610437    836.74125  0.021688472   0.02112571           16 
 3216000   0.75677367   -7.2300298    835.38477  0.021646579  0.021119712           16 
 3217000   0.73551376   -7.2819795    836.97353  0.021681005  0.021113686           12 
 3218000   0.73683788   -7.2648269    835.96752  0.021648216  0.021107649           16 
 3219000   0.72486417   -7.2457011    836.38194   0.02165222  0.021101637           16 
 3220000   0.72569733   -7.2529233    836.53331  0.021649413  0.021095639           11 
 3221000   0.73765299   -7.2466873    837.19326  0.021659766  0.021089623           14 
 3222000   0.72197882   -7.2230388    837.71052  0.021666422  0.021083606            7 
 3223000   0.74095574   -7.2766366    836.34222  0.021624321  0.021077599           12 
 3224000   0.73533326   -7.2536221    834.88157  0.021579859  0.021071566            6 
 3225000   0.74491575   -7.2655446    835.48814  0.021588841  0.021065547            9 
 3226000    0.7352799   -7.2506227    832.86337  0.021514346  0.021059535            7 
 3227000   0.73196145   -7.2671167    833.91377  0.021534805  0.021053505           10 
 3228000   0.72940581   -7.2858695    835.84982  0.021578114  0.021047513           16 
 3229000   0.73312965    -7.255666    835.00761  0.021549696  0.021041499           15 
 3230000   0.75302937   -7.2742903    836.13139  0.021572017   0.02103548           10 
 3231000   0.74240776   -7.2670327    836.29099  0.021569457  0.021029473           13 
 3232000   0.74307518   -7.2576641    836.30718  0.021563201  0.021023482           16 
 3233000   0.72997057   -7.2801333     836.2086   0.02155399  0.021017486            9 
 3234000   0.74127935   -7.2527146    838.29226  0.021601017  0.021011512            9 
 3235000   0.71684737   -7.2462798    837.06767  0.021562794  0.021005556           10 
 3236000    0.7457804   -7.2353976    836.53092  0.021542308  0.020999616           16 
 3237000   0.72039011   -7.2790984    837.19231   0.02155268  0.020993671            7 
 3238000   0.74449308   -7.2741667     836.7368  0.021534301  0.020987717            9 
 3239000   0.72693921   -7.2292364    836.63224  0.021524963  0.020981756           14 
 3240000   0.71814272   -7.2613379    837.23978  0.021533945  0.020975788           18 
 3241000   0.73261986   -7.2660691    837.30744   0.02152904  0.020969797           14 
 3242000   0.71957477   -7.2626607    836.74738  0.021508004    0.0209638           23 
 3243000   0.74059107   -7.2754187     837.7592  0.021527372  0.020957806           10 
 3244000   0.72218977   -7.2475079    837.26651  0.021508079  0.020951827           10 
 3245000   0.74764173   -7.2544441     837.1025  0.021497239  0.020945858           10 
 3246000   0.73864683   -7.2568008    839.36181  0.021548619  0.020939903           21 
 3247000   0.72759369   -7.2604148    836.16995  0.021460064  0.020933926           26 
 3248000   0.73730707   -7.2785548     836.6905  0.021466813  0.020927954           10 
 3249000   0.73858873   -7.2769635    838.25756  0.021500399  0.020921972           18 
 3250000   0.74013973    -7.267635    837.21665  0.021467094  0.020916001           17 
 3251000   0.72584211   -7.2566992    838.91531  0.021504032  0.020910045           14 
 3252000   0.73067395   -7.2649923    836.90424  0.021445886  0.020904095            8 
 3253000   0.74569536   -7.2502421    837.56187   0.02145614  0.020898166           10 
 3254000   0.73325021   -7.2530555    837.90789  0.021458407  0.020892224           19 
 3255000   0.73008672   -7.2754302    838.35877  0.021463358  0.020886277           14 
 3256000   0.72066723     -7.26139     836.7207  0.021414842  0.020880348           11 
 3257000   0.73164768   -7.2777996    837.43522  0.021426548  0.020874416            8 
 3258000   0.73022501   -7.2797453     839.4032  0.021470309   0.02086851            6 
 3259000   0.71844054   -7.2689256    837.23978  0.021408402  0.020862567            7 
 3260000   0.71673016   -7.2624853    839.15495  0.021450791   0.02085665            9 
 3261000   0.73631445   -7.2544357    839.45696  0.021451931  0.020850765           13 
 3262000   0.74091912   -7.2660314    838.86144  0.021430141  0.020844865            7 
 3263000   0.72529263   -7.2589218    840.37713  0.021462282   0.02083896            5 
 3264000   0.72356025   -7.2484931    838.60609   0.02141049  0.020833066            6 
 3265000   0.73123474   -7.2554573    837.96379  0.021387539   0.02082716            5 
 3266000   0.71454501   -7.2617188    838.77252  0.021401626  0.020821264           13 
 3267000   0.72242024   -7.2478706    837.68626  0.021367367  0.020815357            7 
 3268000     0.732658   -7.2693912    837.80899  0.021363958   0.02080945           10 
 3269000   0.71969984   -7.2532133    839.33533  0.021396332  0.020803534           13 
 3270000   0.73189304   -7.2581816    837.37209  0.021339758   0.02079763            6 
 3271000   0.73131586   -7.2475096     837.7792  0.021343605  0.020791731            9 
 3272000   0.73361014   -7.2624224    838.74944  0.021361793   0.02078585            6 
 3273000   0.72495451   -7.2583016    840.38696  0.021396959  0.020779959            5 
 3274000   0.73104341   -7.2766359    838.07742  0.021331639  0.020774038           22 
 3275000   0.72234454   -7.2842666    839.07375  0.021350477  0.020768115           17 
 3276000   0.73921628    -7.293018    838.75491  0.021335849  0.020762195            5 
 3277000   0.71030955   -7.2816066    838.05361  0.021311505  0.020756267            7 
 3278000   0.71217698   -7.2606687    840.32458  0.021362736  0.020750324           10 
 3279000   0.71496264   -7.2704635    839.17563  0.021327021  0.020744419            6 
 3280000    0.7308633   -7.2479417    839.17737  0.021320563  0.020738527            4 
 3281000   0.72045753   -7.2818978     838.4262  0.021294986  0.020732603            7 
 3282000   0.73422931    -7.270367     838.5038  0.021290468  0.020726663           10 
 3283000   0.71523818    -7.284762    838.15363  0.021275095  0.020720705           26 
 3284000   0.73076404   -7.2687551     838.8569  0.021286462  0.020714765           19 
 3285000   0.72968527   -7.2771739     838.6333   0.02127431  0.020708839           10 
 3286000   0.72503452   -7.3200209    837.24785    0.0212327  0.020702885            9 
 3287000   0.72427772   -7.3326979    838.62802  0.021261232  0.020696924           10 
 3288000   0.72520052   -7.2954493    838.43907  0.021249976  0.020690986            8 
 3289000   0.72465161   -7.3105946    839.39762  0.021267802  0.020685058            8 
 3290000   0.72975638   -7.2822903    839.78973   0.02127127  0.020679126           16 
 3291000   0.71585016   -7.2702716     841.4597  0.021307093  0.020673214           12 
 3292000   0.71949637   -7.2651898    841.65624  0.021305595  0.020667302            7 
 3293000   0.72898261   -7.2946291     840.5731  0.021271715  0.020661421            8 
 3294000   0.72974929   -7.2798511    839.48326  0.021237686  0.020655529            7 
 3295000   0.70507431   -7.2719734    839.07651  0.021220954  0.020649664            4 
 3296000    0.7208631   -7.2912855    840.41968  0.021248475  0.020643801            7 
 3297000   0.71250104   -7.2785771    838.32649  0.021189124   0.02063793            8 
 3298000   0.72424789   -7.3018746    839.42395  0.021210429  0.020632035            9 
 3299000   0.71108588   -7.2713551    839.29665  0.021200784  0.020626151            7 
 3300000   0.71951978   -7.2544487    841.47403  0.021249344  0.020620258           10 
 3301000     0.722761   -7.2722826    841.02129  0.021231478  0.020614401            9 
 3302000   0.72418908   -7.2737619    841.45248   0.02123593   0.02060854            7 
 3303000    0.7250814   -7.2661531    840.03461  0.021193728  0.020602667            6 
 3304000   0.72573341   -7.2386008    839.42302  0.021171888  0.020596774           13 
 3305000   0.73767654   -7.2683822     839.9719  0.021179322  0.020590876            6 
 3306000   0.73010986   -7.2820236    839.76051  0.021167587  0.020584981           23 
 3307000   0.71594699   -7.3010724    839.77625  0.021161583   0.02057909           19 
 3308000   0.72716754    -7.298473    838.86471  0.021132223    0.0205732           11 
 3309000   0.73080194   -7.2862769    838.88428  0.021126329  0.020567303            5 
 3310000   0.71449296   -7.2662896    840.38787  0.021157801  0.020561414            6 
 3311000   0.73399637   -7.2766688    839.74798  0.021135306  0.020555528            8 
 3312000    0.7276699   -7.2791368    840.58857  0.021150075  0.020549657           13 
 3313000   0.73063046   -7.2752546    839.80435  0.021123965  0.020543806            6 
 3314000   0.71462355   -7.2654202    840.32767   0.02113075  0.020537929            6 
 3315000   0.71969736   -7.2903402    839.22718  0.021096711  0.020532059            6 
 3316000   0.72235846   -7.2795558     838.5887  0.021074304  0.020526172           13 
 3317000    0.7063803   -7.2965388    840.14556  0.021107063  0.020520269            8 
 3318000   0.71803082   -7.3154343    839.09448  0.021074304  0.020514368           20 
 3319000   0.71033003   -7.3008151    839.83948   0.02108666  0.020508465            6 
 3320000   0.72894262   -7.2688736     841.6433  0.021125585  0.020502586            7 
 3321000   0.71056248   -7.2820876    840.27909  0.021084992  0.020496721           10 
 3322000   0.72129038   -7.2923016    841.13596   0.02110014  0.020490859            9 
 3323000   0.71981926    -7.284863     840.2875  0.021072512   0.02048501            6 
 3324000   0.73256662   -7.2852047    839.43006  0.021044677  0.020479142            9 
 3325000   0.73373286   -7.2806669    840.78302  0.021072256  0.020473278           12 
 3326000   0.71480364   -7.3075895    840.38205  0.021055874  0.020467405           10 
 3327000   0.72024517   -7.3031378     838.3357  0.020998289  0.020461513           18 
 3328000    0.7056109   -7.2875033     838.7124  0.021001412   0.02045562            9 
 3329000   0.72061624   -7.2926863    841.05561   0.02105376  0.020449726            8 
 3330000   0.70018645    -7.308393     839.2837  0.021003096  0.020443821            6 
 3331000   0.71294529   -7.2942004    841.30541  0.021047368  0.020437929           19 
 3332000   0.72407809   -7.2818193    841.89175  0.021055716  0.020432049            8 
 3333000   0.71940115   -7.2788904    840.70216  0.021019656  0.020426171           13 
 3334000    0.7201739   -7.2979148      840.173  0.021000125  0.020420294            7 
 3335000   0.71042258   -7.2931844    840.60403  0.021004598  0.020414419           12 
 3336000   0.71462419   -7.3022991     840.6314  0.020998986  0.020408533           13 
 3337000   0.73650071   -7.2981483    840.66761  0.020993597   0.02040267            7 
 3338000   0.73399561   -7.2777384    841.89341   0.02101791  0.020396813            5 
 3339000   0.72816159    -7.293096    841.65948  0.021005777  0.020390945            6 
 3340000   0.73026034   -7.2974835    840.08171  0.020960123  0.020385066            8 
 3341000   0.72688957   -7.3001021    839.25896  0.020933327   0.02037917           21 
 3342000   0.70998601   -7.2835218    841.13672  0.020973886  0.020373337           20 
 3343000   0.72791825   -7.2795149    840.26568  0.020945899  0.020367493            6 
 3344000   0.72470978   -7.2839011    840.79996   0.02095295  0.020361668           10 
 3345000   0.71718862   -7.2753678     841.5022   0.02096418  0.020355847           10 
 3346000   0.71379431    -7.272126    841.62736  0.020961032   0.02035001           13 
 3347000   0.71917795     -7.28152     842.4736  0.020975839  0.020344185           13 
 3348000   0.72028857   -7.3081279    842.46024  0.020969241  0.020338363           12 
 3349000   0.70679389   -7.3185873     841.1818  0.020931168  0.020332506           15 
 3350000   0.73285123   -7.3190135    841.13161  0.020923672  0.020326662           19 
 3351000   0.71323749   -7.2965934    843.51885  0.020976794  0.020320819           22 
 3352000   0.70700338   -7.3188182    843.36426  0.020966693  0.020315005           22 
 3353000   0.71946716   -7.3148528    842.34844  0.020935193  0.020309189           18 
 3354000   0.72197991   -7.3028177    842.92661  0.020943317  0.020303399           17 
 3355000   0.71838579   -7.2950889    842.24964  0.020920259  0.020297599           12 
 3356000    0.7177516   -7.2745495    841.58726  0.020897578  0.020291822           11 
 3357000   0.71348021   -7.3291685    842.63002  0.020917238  0.020286036            8 
 3358000   0.69670544   -7.3175088     843.1759  0.020924556  0.020280224           13 
 3359000   0.71505146   -7.3371993    842.94054  0.020912487   0.02027442           10 
 3360000   0.70442426   -7.3106352    843.89777  0.020930004  0.020268612           15 
 3361000   0.71374047   -7.2858275    844.25717  0.020932688   0.02026282           26 
 3362000    0.7256315   -7.2713806     843.7881  0.020914835  0.020257044           18 
 3363000   0.70559591   -7.3144222    842.84913  0.020885349  0.020251256           30 
 3364000   0.70112978   -7.2978593    843.69311  0.020900047  0.020245472           19 
 3365000   0.71772153   -7.2801454    845.20086  0.020931175  0.020239721           20 
 3366000   0.70593658   -7.2798208    843.89628  0.020892659  0.020233972           17 
 3367000   0.71514538   -7.2861819    841.91143  0.020837329  0.020228224           16 
 3368000    0.7162194   -7.2988983    841.86806  0.020830069  0.020222465            8 
 3369000   0.70567105   -7.2843712    842.52526  0.020840142  0.020216703           14 
 3370000   0.70969504   -7.2985998    843.40603  0.020855738  0.020210937           14 
 3371000   0.72579984   -7.3145352    841.94167  0.020813351  0.020205166            8 
 3372000   0.71840618    -7.307019     842.8619   0.02082992  0.020199406            9 
 3373000   0.71741905   -7.2918251    843.18119  0.020831633  0.020193661           13 
 3374000   0.71544473   -7.2998524    843.78439  0.020840357  0.020187907            9 
 3375000    0.7038188   -7.3010547    845.01139  0.020864479  0.020182153           12 
 3376000   0.70671106   -7.2964058    843.61835  0.020823913  0.020176411            9 
 3377000   0.70776158   -7.2979141    843.78134  0.020821768  0.020170671            6 
 3378000   0.72271113   -7.3174441    841.72946  0.020764986  0.020164914           15 
 3379000   0.70284811   -7.3144072    844.83405  0.020835406  0.020159125           17 
 3380000   0.71236735   -7.3232493    843.15325  0.020787802  0.020153365           12 
 3381000   0.73624207   -7.3168472    843.34111  0.020786284  0.020147605            7 
 3382000   0.71075351   -7.3057989    844.93531  0.020819419  0.020141845           10 
 3383000   0.69907632   -7.3087254    843.37146  0.020774743  0.020136083            9 
 3384000   0.70304136   -7.3242666    845.21957  0.020814115  0.020130315           17 
 3385000   0.71138269   -7.3139765     843.8183  0.020773469  0.020124592           12 
 3386000   0.70066089    -7.350218    843.77448  0.020766255  0.020118838           39 
 3387000   0.69719596   -7.3048672    845.26485  0.020796793   0.02011309           17 
 3388000   0.71517228    -7.322197    843.77901  0.020754108  0.020107338           21 
 3389000   0.70609426   -7.3291021    842.38346  0.020713668  0.020101576           16 
 3390000   0.73478933   -7.3052797    844.77998   0.02076647  0.020095812           15 
 3391000   0.70280143   -7.3275151    842.96464  0.020715734  0.020090044           24 
 3392000   0.71142195   -7.2743441    843.57196  0.020724547  0.020084288            5 
 3393000   0.71980259   -7.3174213    841.63788  0.020670937   0.02007852           10 
 3394000   0.71668669    -7.324851    844.84755  0.020743654  0.020072766           10 
 3395000   0.71739253   -7.3336211    843.08499  0.020694281  0.020066993            9 
 3396000   0.69472024   -7.3241239    841.96291  0.020660653  0.020061206            9 
 3397000   0.70651279   -7.3090208    842.82147  0.020675632  0.020055445           10 
 3398000   0.71296447   -7.2867681    843.95589  0.020697368  0.020049691            9 
 3399000   0.72432435    -7.330343    842.92171  0.020665924  0.020043933           13 
 3400000    0.7047562   -7.3146989    842.55398  0.020650833  0.020038175            8 
 3401000   0.72477033   -7.3222527    840.78021  0.020601299  0.020032411           12 
 3402000   0.72136545   -7.3356428    843.08553  0.020651713  0.020026628           12 
 3403000   0.70619987   -7.3386989    840.80868  0.020589888  0.020020847            9 
 3404000   0.71009312    -7.321246    842.08436  0.020615069  0.020015065            9 
 3405000   0.69629143   -7.3136939    845.06184  0.020681885  0.020009286            8 
 3406000   0.70781253   -7.3221496    843.19927  0.020630242  0.020003539           10 
 3407000   0.72413991    -7.319675    843.14504  0.020622861  0.019997779            9 
 3408000   0.69099994   -7.3311108    843.43185  0.020623823  0.019992023           10 
 3409000   0.67843709    -7.322752    845.67763  0.020672671  0.019986261           17 
 3410000   0.69112676   -7.3174039    843.15956  0.020605072  0.019980496           15 
 3411000   0.70164343   -7.2985104    844.59428  0.020634083  0.019974759           14 
 3412000   0.70249704   -7.3387656    842.37068  0.020573727  0.019969025           16 
 3413000   0.70148408   -7.3196483    843.29026  0.020590152  0.019963287           11 
 3414000   0.70592229   -7.3075045    843.90669  0.020599167  0.019957542           14 
 3415000    0.7063132   -7.2974195    843.42496   0.02058138  0.019951815           12 
 3416000   0.70682563   -7.3448191    844.28627  0.020596367  0.019946076           10 
 3417000   0.69912876   -7.3475746      843.947  0.020582065  0.019940349           20 
 3418000   0.69945619   -7.3317874    845.99785  0.020626045  0.019934625            9 
 3419000   0.71441503   -7.3226081    844.51823  0.020583948  0.019928919            5 
 3420000   0.70553299   -7.3167038    843.22146  0.020546332  0.019923211           11 
 3421000   0.71935498   -7.3492583    845.00396  0.020583747  0.019917498           12 
 3422000   0.69774877   -7.3161038    844.73079  0.020571079  0.019911767           12 
 3423000   0.69360864   -7.3435667     845.8946  0.020593402  0.019906063           20 
 3424000   0.70243818   -7.3163728    844.86998  0.020562451  0.019900355           13 
 3425000    0.7082861   -7.3395896    845.67371  0.020576003  0.019894656           16 
 3426000   0.70475209    -7.321462    843.26454  0.020511397   0.01988896           17 
 3427000   0.70939683   -7.2931941    845.83808  0.020567991  0.019883261           16 
 3428000   0.72212003   -7.3236161    846.90189  0.020587852  0.019877568           19 
 3429000    0.6912168   -7.3038952    845.52537  0.020548395  0.019871866           15 
 3430000   0.69505063   -7.3390102    845.60058  0.020544232  0.019866153           11 
 3431000   0.69797062   -7.3400481    842.80043  0.020470233  0.019860424            9 
 3432000   0.69973273   -7.3423328    844.95718  0.020516637  0.019854708            8 
 3433000   0.69491657   -7.3174143    844.08489  0.020489487  0.019849022            9 
 3434000   0.70483519   -7.3589825    846.31654  0.020537676  0.019843337           12 
 3435000   0.70418634   -7.3064339    846.14625  0.020527566  0.019837628           16 
 3436000   0.71407355   -7.3240226    845.89229  0.020515432  0.019831934           20 
 3437000   0.70222047   -7.3131144    845.53143  0.020500714  0.019826254           10 
 3438000   0.70872846   -7.2997462    846.53805   0.02051915  0.019820563           17 
 3439000   0.69808382   -7.3184066    845.08145  0.020477887  0.019814879           22 
 3440000   0.70279062   -7.3300134    844.65549  0.020461615  0.019809202            7 
 3441000   0.70643592   -7.3444638    844.95733  0.020462979  0.019803507           11 
 3442000   0.69669284    -7.344344    846.20107  0.020487146   0.01979782           17 
 3443000   0.70317098   -7.3476779    845.30347   0.02045947  0.019792097           14 
 3444000   0.69543668   -7.3440261    846.67173  0.020486637  0.019786374           11 
 3445000   0.69989323   -7.3491408    845.14265  0.020443702  0.019780671           19 
 3446000   0.69911772   -7.3437574    846.89116  0.020480053  0.019774987           15 
 3447000   0.69214708   -7.3395523    844.81279  0.020423866    0.0197693            7 
 3448000   0.70467754   -7.3274027    843.59729  0.020388566  0.019763606            6 
 3449000   0.71981715   -7.3248418    846.32186  0.020448484  0.019757905            5 
 3450000   0.69345002   -7.3349683    845.09236  0.020412859   0.01975219           10 
 3451000   0.70644014   -7.3615312    843.90425  0.020378254   0.01974649           11 
 3452000   0.70670501   -7.3335712    845.22921  0.020404336  0.019740799           25 
 3453000   0.71356907   -7.3084038    846.52273  0.020429644  0.019735125           14 
 3454000     0.698123   -7.3122719     847.3018  0.020442525  0.019729437           23 
 3455000   0.68403212   -7.3058757    844.36776  0.020365841  0.019723778           16 
 3456000   0.70882168   -7.3397508    846.41812  0.020409388    0.0197181            7 
 3457000   0.71269659    -7.319701    846.23472  0.020399063  0.019712404           26 
 3458000   0.70910709    -7.328898    847.06391  0.020413146  0.019706707            7 
 3459000   0.69644254   -7.3357504    846.60494  0.020396187  0.019701031           15 
 3460000   0.71616468   -7.3283118    846.25833  0.020381944  0.019695371            9 
 3461000   0.69856769   -7.3308964     846.9049  0.020391623  0.019689695            9 
 3462000   0.70118771   -7.3240948    843.66037  0.020307635  0.019684016            8 
 3463000   0.70037366    -7.349793    846.51843  0.020370547  0.019678349            9 
 3464000   0.70370699   -7.3382535    845.81013  0.020347626  0.019672647           10 
 3465000   0.70329836    -7.356895    844.81171  0.020317742  0.019666945           29 
 3466000   0.71426624   -7.3673066    844.94313   0.02031504   0.01966124           14 
 3467000   0.70257717   -7.3418744    845.18902   0.02031509  0.019655533           31 
 3468000   0.68648996   -7.3770134    844.40117  0.020290301  0.019649827           19 
 3469000   0.68851927   -7.3488754    845.87535  0.020319865  0.019644126           20 
 3470000   0.69995868   -7.3583141    843.85739  0.020265547  0.019638433           18 
 3471000    0.7153755   -7.3485109    843.71395  0.020256265  0.019632741           21 
 3472000   0.69155389    -7.335832    845.30734  0.020288675  0.019627033           19 
 3473000   0.69356198   -7.3518314    846.59762  0.020313793  0.019621328           18 
 3474000   0.71143384   -7.3580413    845.46298  0.020280728  0.019615643           23 
 3475000   0.70470295   -7.3613272    845.08426   0.02026581  0.019609964           34 
 3476000   0.71357245   -7.3527713     845.3357  0.020266007  0.019604284           14 
 3477000   0.69108921   -7.3321401    846.47109  0.020287391  0.019598589           19 
 3478000   0.70346974   -7.3395765    845.93805  0.020268786  0.019592891           27 
 3479000   0.68943288    -7.330261    844.17328  0.020220688  0.019587211           29 
 3480000   0.70006844   -7.3311791    845.82159  0.020254348  0.019581526           25 
 3481000   0.70308913   -7.3392026    845.07725  0.020230711  0.019575835           29 
 3482000   0.69850951   -7.3380381    846.92709  0.020269172  0.019570144           32 
 3483000   0.70099685   -7.3482927    844.88202  0.020214423  0.019564448           50 
 3484000   0.69893599   -7.3714147    844.99846  0.020211406  0.019558748           48 
 3485000   0.67933597   -7.3747028    846.31032  0.020236976  0.019553043           21 
 3486000   0.68431079   -7.3770882    845.03633  0.020200716  0.019547345           23 
 3487000   0.68885138   -7.3699585    845.19095  0.020198618  0.019541629            9 
 3488000   0.70011624   -7.3442343    843.71898  0.020157659  0.019535929           16 
 3489000    0.7043902   -7.3355527    845.95637  0.020205321  0.019530244           13 
 3490000    0.6974469   -7.3676138    846.33314  0.020208528  0.019524568           12 
 3491000    0.6955176   -7.3505196    846.01625  0.020195175  0.019518896           11 
 3492000   0.68767719   -7.3439709    846.53787  0.020201839  0.019513223           15 
 3493000   0.70507329   -7.3361569    845.17266  0.020163486  0.019507564           14 
 3494000   0.69739406   -7.3719648    846.75953  0.020195562  0.019501895            6 
 3495000   0.69119099   -7.3568167    847.36988  0.020204337  0.019496249            7 
 3496000   0.68949883   -7.3392616     846.9547  0.020188661  0.019490592           11 
 3497000   0.68566924   -7.3451914    845.73964  0.020153933  0.019484942            8 
 3498000   0.68926734   -7.3575974    845.52985  0.020143173  0.019479289           20 
 3499000   0.69205957   -7.3360378     846.9388  0.020170973  0.019473611           25 
 3500000   0.70374753   -7.3358107    845.54457  0.020132014  0.019467924           15 
 3501000   0.69796756   -7.3305035    846.16537   0.02014104  0.019462252           20 
 3502000   0.70017493   -7.3726433    844.39655  0.020093198  0.019456567           13 
 3503000   0.69134663   -7.3664207    844.00133   0.02007806  0.019450867           26 
 3504000   0.69577715   -7.3394056    846.46988  0.020131038  0.019445177           18 
 3505000   0.69135588   -7.3455191    846.98729  0.020137596  0.019439483           14 
 3506000   0.68965061   -7.3685442    845.52115  0.020097004  0.019433791           24 
 3507000   0.69875315   -7.3627668     845.3789  0.020087893  0.019428104           12 
 3508000   0.68569553    -7.362798     846.0797  0.020098815   0.01942242            7 
 3509000   0.69664117   -7.3551469    847.13509  0.020118151  0.019416726            8 
 3510000   0.69294654   -7.3580467    845.44233   0.02007223  0.019411038           12 
 3511000   0.70490887   -7.3528686    844.77157  0.020050593  0.019405349           17 
 3512000   0.70071581   -7.3568657      844.949  0.020049094  0.019399648           11 
 3513000   0.67537397    -7.361105    843.97595  0.020020304  0.019393965           11 
 3514000   0.70270256   -7.3416199     845.6393  0.020054053  0.019388294           15 
 3515000   0.67932041   -7.3484267    844.23516  0.020015058   0.01938262           14 
 3516000   0.67908378   -7.3542649    846.03933  0.020052127  0.019376941           18 
 3517000   0.69760909   -7.3651446    847.24213  0.020074925  0.019371273            9 
 3518000   0.69751237   -7.3589121    846.69613  0.020056285  0.019365608            9 
 3519000   0.67466871   -7.3914648    845.92598  0.020032348  0.019359939            4 
 3520000   0.68365196   -7.3442974    845.68534   0.02002096  0.019354253            7 
 3521000   0.69611475   -7.3560274    846.05612  0.020024049  0.019348572            6 
 3522000   0.69040279   -7.3794004    846.09423  0.020019265  0.019342916            9 
 3523000   0.68361631   -7.3475209    846.39881  0.020020787  0.019337239            8 
 3524000   0.70696515   -7.3677053    845.59601  0.019996122  0.019331574           12 
 3525000   0.68067198   -7.3722346    845.50886  0.019988389   0.01932591           14 
 3526000   0.69842812   -7.3603358    846.09583  0.019996593  0.019320245           21 
 3527000   0.68856906   -7.3497737    845.89933   0.01998628  0.019314568            9 
 3528000   0.69595018   -7.3487316    845.49509  0.019971067   0.01930889           19 
 3529000   0.68383168    -7.349551    844.92646   0.01995198  0.019303199            7 
 3530000   0.69114006   -7.3369671    844.93418   0.01994651   0.01929752            5 
 3531000   0.70102672   -7.3580022    846.00866   0.01996622  0.019291831            6 
 3532000   0.70174495   -7.3533025    846.07518  0.019962136  0.019286155            8 
 3533000   0.67346478    -7.378775    845.26513  0.019937379  0.019280472            6 
 3534000   0.69681326   -7.3848987    843.47658  0.019889563  0.019274778           14 
 3535000   0.67545055   -7.3548139    846.23394  0.019948938  0.019269094           10 
 3536000   0.67791181   -7.3600005     846.6689  0.019953547  0.019263409           13 
 3537000   0.71380063   -7.3556361    845.24741  0.019914414  0.019257724           27 
 3538000   0.68041281   -7.3615988     844.6152  0.019893895  0.019252036           21 
 3539000    0.6701779   -7.3617035     843.8781  0.019870917   0.01924634           32 
 3540000   0.69551947   -7.3576487    845.74424  0.019909233  0.019240662           27 
 3541000    0.6778284   -7.3532273    845.26871   0.01989242  0.019234993           11 
 3542000   0.68909593   -7.3558159    845.94499  0.019902715  0.019229317           22 
 3543000   0.68038625   -7.3579649    845.05884  0.019876255  0.019223633           16 
 3544000   0.68623533   -7.3560194    845.63102    0.0198841  0.019217976           17 
 3545000   0.68950963   -7.3545886    846.80867  0.019906175  0.019212323           18 
 3546000   0.67810709   -7.3646966    843.63374  0.019825948  0.019206646           37 
 3547000   0.68690605   -7.3839342    845.46402  0.019863359  0.019200975           20 
 3548000     0.666576   -7.3967731    845.62037  0.019861433  0.019195289           12 
 3549000   0.67658574   -7.3530347    845.38981  0.019850423    0.0191896           18 
 3550000   0.68295796    -7.355652    844.89238  0.019833154  0.019183929           21 
 3551000   0.67991896   -7.3599404    845.29562  0.019837032  0.019178244           31 
 3552000   0.69308517   -7.3648426    846.22338  0.019853214  0.019172587           22 
 3553000   0.68155971   -7.3687152    846.65745  0.019857807  0.019166944           23 
 3554000   0.69189951   -7.3410324    844.31912  0.019797391  0.019161285           10 
 3555000   0.69894832    -7.361385    844.67731  0.019800218  0.019155617            8 
 3556000    0.6776229   -7.3790538    844.56099  0.019791924  0.019149939           18 
 3557000   0.68396991   -7.3542878    846.19507  0.019824643  0.019144268            9 
 3558000   0.69191194   -7.3593878    846.59017  0.019828325  0.019138608           11 
 3559000   0.67469494   -7.3599661     844.3041  0.019769226  0.019132939           15 
 3560000   0.67751145    -7.373631    847.57809  0.019840311  0.019127294           15 
 3561000   0.69340666   -7.3616915    845.57466  0.019787856  0.019121669           13 
 3562000   0.69272969   -7.3829537    846.31731  0.019799675  0.019116038           11 
 3563000   0.68213577   -7.3722343    847.89238  0.019830957  0.019110393           18 
 3564000   0.68445597   -7.3596454    845.93375  0.019779596  0.019104763            6 
 3565000   0.69475709   -7.3775347    846.50276  0.019787348  0.019099134           11 
 3566000   0.66205347   -7.3777504    846.48887  0.019781475  0.019093497           11 
 3567000   0.68791256   -7.3821549    844.80753  0.019736649  0.019087844           14 
 3568000   0.68392982   -7.3677327    846.36032  0.019767384  0.019082209           11 
 3569000   0.68714459    -7.356114    846.08103  0.019755324  0.019076574           17 
 3570000   0.67772224   -7.3825867    846.25642  0.019753885  0.019070947           14 
 3571000   0.69273699   -7.3633217    847.77409  0.019783769  0.019065318            7 
 3572000   0.65910523   -7.3564485    849.47861  0.019817997   0.01905971           12 
 3573000   0.67891567   -7.3638901    848.27047  0.019784272  0.019054105           13 
 3574000   0.68076836   -7.3803281    847.13471  0.019752255  0.019048477           18 
 3575000    0.6688537   -7.3732287     845.5829  0.019710557  0.019042845           13 
 3576000   0.69197633   -7.3587763    847.60301  0.019752121  0.019037242           19 
 3577000     0.675469   -7.3681063    846.96411  0.019731714  0.019031636           20 
 3578000   0.67524532   -7.3687421    847.01133  0.019727299  0.019026023           16 
 3579000   0.68114579   -7.3833876    845.59208  0.019688742   0.01902039           14 
 3580000   0.66255495   -7.3539472    846.33283  0.019700485  0.019014758           12 
 3581000   0.68864997   -7.3504242    846.05579  0.019688536  0.019009122            8 
 3582000   0.68926892   -7.3447331    848.50941  0.019740122  0.019003501            8 
 3583000   0.68342874    -7.366764    845.28324  0.019659579  0.018997906            9 
 3584000   0.68739039   -7.3884652    847.57754  0.019707439  0.018992294            8 
 3585000   0.68026814   -7.3704528    846.84529  0.019684921  0.018986677           25 
 3586000   0.67942048   -7.3788591    845.91794  0.019657881  0.018981062           14 
 3587000   0.68195159   -7.3772203    845.35326  0.019639282   0.01897546            8 
 3588000   0.68783061   -7.3782168    846.05043  0.019650001  0.018969845           15 
 3589000   0.66511027   -7.4037027    845.73316  0.019637159  0.018964231           15 
 3590000   0.67144683   -7.3559929    845.47876  0.019625784  0.018958612            6 
 3591000   0.66314954   -7.3602027    845.71519  0.019625805  0.018953016           20 
 3592000   0.69094721   -7.4117391    846.11642   0.01962965  0.018947401           11 
 3593000   0.67117478   -7.3752366    847.17072  0.019648639  0.018941796           16 
 3594000   0.67011102   -7.3647256    848.81449  0.019681286  0.018936189           23 
 3595000   0.67078639   -7.3869506    848.94529  0.019678843  0.018930574           22 
 3596000   0.66833593   -7.3770537    846.11295  0.019607734  0.018924972           20 
 3597000   0.68016099   -7.3763191    847.70593  0.019639188  0.018919354           24 
 3598000    0.6849776   -7.3830642    845.38168  0.019579898  0.018913751           10 
 3599000   0.67421524   -7.3692578    846.03282  0.019589534  0.018908146           10 
 3600000   0.66067388   -7.4007931    845.82106  0.019579191  0.018902539           12 
 3601000   0.68153994   -7.3764937     846.7385  0.019594985  0.018896928           13 
 3602000   0.67872466   -7.3778761    845.08743  0.019551347  0.018891312           21 
 3603000    0.6697723    -7.410643    844.56982  0.019533949  0.018885686           14 
 3604000    0.6771916    -7.377176    846.03893  0.019562498  0.018880078           17 
 3605000   0.66984164   -7.3818598    846.58771  0.019569758  0.018874471           14 
 3606000    0.6857777   -7.3882484    846.12233  0.019553576  0.018868885           12 
 3607000   0.68230687   -7.3968107    846.75964  0.019562879  0.018863297           19 
 3608000   0.67486972   -7.3936123    846.24047  0.019545465  0.018857692           20 
 3609000   0.67296027   -7.4066631    846.64621  0.019549418  0.018852099           33 
 3610000   0.67082108   -7.3844895     848.8682  0.019595295  0.018846511           16 
 3611000   0.68944412   -7.3767236    846.50341  0.019535295  0.018840926           11 
 3612000   0.66649978   -7.3742596    849.01833  0.019587909  0.018835341            9 
 3613000   0.68100822   -7.3931343    847.18706   0.01954025  0.018829784            8 
 3614000   0.67164592   -7.3640701    847.76771  0.019548232  0.018824222            9 
 3615000   0.68487348   -7.3553851    847.67871  0.019540773  0.018818675           11 
 3616000   0.67077459   -7.3591675    848.18227  0.019546973  0.018813117           12 
 3617000   0.65595435   -7.3657314    846.74832  0.019508532   0.01880756           13 
 3618000   0.67821391   -7.3850565    848.58588  0.019545464  0.018802003           14 
 3619000   0.67030923   -7.3745647    846.99422  0.019503413  0.018796426           11 
 3620000   0.67250863   -7.3634144    848.06046  0.019522571  0.018790864            6 
 3621000   0.67055146   -7.3919561     847.2673  0.019498925  0.018785297           15 
 3622000   0.65413104   -7.3715239    847.11861  0.019490121  0.018779737            9 
 3623000   0.68790007   -7.3874815    848.30446  0.019512017  0.018774161            3 
 3624000   0.67948899    -7.402391    846.18284  0.019457847  0.018768575            5 
 3625000   0.66454041   -7.3793176    846.60095  0.019462091  0.018762988           11 
 3626000   0.66389714   -7.4021197    846.35473  0.019451065  0.018757406           17 
 3627000   0.68769157   -7.3992607    845.97118  0.019436889  0.018751831           12 
 3628000   0.67266356   -7.3851996    847.66522  0.019470443  0.018746263            6 
 3629000   0.67416122   -7.4069281    846.74676  0.019443987  0.018740686           11 
 3630000   0.66903397   -7.3988782    847.51938  0.019456368  0.018735107           19 
 3631000   0.66139078   -7.4117081    844.91938  0.019391338  0.018729517            6 
 3632000   0.66993213   -7.4005731    845.33839  0.019395613  0.018723914           13 
 3633000   0.65936242   -7.4193243    845.78758  0.019400578  0.018718313           17 
 3634000   0.66904977   -7.4183178    846.03445    0.0194009  0.018712713           10 
 3635000   0.67991654   -7.3872928    847.05621  0.019418987  0.018707131            8 
 3636000   0.67681914   -7.4006196    847.09764  0.019414596  0.018701556            9 
 3637000   0.67051049   -7.3944537    847.71107  0.019423313  0.018695969           18 
 3638000   0.67604425    -7.398943    847.70806  0.019417905  0.018690383           19 
 3639000   0.68216712   -7.3865808    846.49217  0.019384725  0.018684797           16 
 3640000   0.66689469   -7.3838098    847.95451  0.019412878  0.018679218           16 
 3641000   0.65941132   -7.4071521    846.04711  0.019363891  0.018673641           20 
 3642000   0.66823827   -7.4285447    847.78178  0.019398265  0.018668067           14 
 3643000   0.65784866   -7.3943634     849.2866  0.019427363  0.018662494            6 
 3644000   0.69221753   -7.4360335    845.84222  0.019343263  0.018656905           14 
 3645000   0.65816139   -7.3988763    847.61601  0.019378509  0.018651311           14 
 3646000   0.66218264   -7.3902312    846.04482  0.019337283  0.018645715            6 
 3647000    0.6671366   -7.4045321    846.18996  0.019335297  0.018640126           11 
 3648000    0.6617916   -7.3938469    847.41099   0.01935789  0.018634559           16 
 3649000   0.66113765   -7.4189494    845.57846  0.019310735  0.018628976           15 
 3650000   0.66783696   -7.4192047    848.48587  0.019371824  0.018623409            8 
 3651000   0.67479595   -7.3888159    846.81789  0.019328446  0.018617844           11 
 3652000   0.67310377   -7.4200167    846.28544  0.019311004   0.01861227           14 
 3653000   0.66469093   -7.4056844    847.48914  0.019333177  0.018606695           15 
 3654000    0.6591579   -7.4167082    847.43774  0.019326714  0.018601116           13 
 3655000   0.67886699   -7.3934744    847.27531  0.019317723  0.018595538           30 
 3656000   0.66072365   -7.4205481    846.32582  0.019290796  0.018589961           57 
 3657000   0.67055735   -7.4328222    845.50262  0.019266763   0.01858437           25 
 3658000   0.67936856   -7.4378592    845.66949  0.019265297  0.018578791           22 
 3659000   0.67862631   -7.4238606    845.10178  0.019247102  0.018573202           17 
 3660000     0.666399    -7.396733     846.0437   0.01926329  0.018567624           21 
 3661000   0.66359991   -7.3957029    845.90992  0.019254983  0.018562049           23 
 3662000   0.66640571   -7.4217279    847.22721  0.019279702  0.018556486           26 
 3663000   0.65921969    -7.392517    846.64839   0.01926127  0.018550928           24 
 3664000   0.64919329   -7.4137348    846.74805   0.01925828  0.018545376           18 
 3665000   0.65630653    -7.431525    847.31866     0.019266  0.018539803           13 
 3666000   0.67212529   -7.4317819    844.84784  0.019204579  0.018534228           19 
 3667000   0.67838714   -7.4056841    846.81326  0.019244006  0.018528656           22 
 3668000   0.66960095   -7.4245826    846.26646  0.019226337  0.018523095           13 
 3669000   0.67459303   -7.4196487    846.86792  0.019234758  0.018517524           18 
 3670000   0.65785634   -7.4209368    846.03554  0.019210616  0.018511952           34 
 3671000   0.65523367    -7.415825    844.40657  0.019168405   0.01850638           28 
 3672000   0.66095381    -7.417022    846.77428  0.019216918  0.018500816           35 
 3673000   0.66247432   -7.4160302    845.63304  0.019185794  0.018495248           15 
 3674000    0.6576467   -7.4238249    846.10716  0.019191325  0.018489681           12 
 3675000   0.66622312   -7.4134696    846.10724  0.019186105  0.018484124           29 
 3676000   0.65060501   -7.4370605    847.28471  0.019207579  0.018478567           20 
 3677000   0.65760629   -7.4176338    846.89352  0.019193489  0.018473004           15 
 3678000   0.66999291   -7.4227454    845.87522  0.019165199  0.018467457           27 
 3679000   0.64620099   -7.4152813    848.17762  0.019212141   0.01846192           21 
 3680000   0.67461885   -7.4191808    849.05402  0.019226767  0.018456392           24 
 3681000   0.67093997   -7.4134822    846.26647  0.019158437  0.018450861           37 
 3682000   0.67417428   -7.4180256    846.20372  0.019151813  0.018445323           12 
 3683000   0.66377623   -7.3987257    847.15611  0.019168162  0.018439788           14 
 3684000   0.65643357   -7.4026277    848.67189  0.019197247  0.018434263           31 
 3685000   0.67516596   -7.4066688    847.76093  0.019171437  0.018428742           12 
 3686000   0.66458363   -7.4299882    846.66254  0.019141403  0.018423226           29 
 3687000   0.65872248   -7.4309514    846.45332  0.019131483  0.018417701           21 
 3688000   0.65572003   -7.4306141    846.83039  0.019134815  0.018412154           17 
 3689000   0.65869063   -7.4480963    846.48849  0.019121905  0.018406613           20 
 3690000   0.66088822   -7.4428963    847.63306  0.019142571  0.018401075           15 
 3691000   0.66129244   -7.4365919    846.77532   0.01911802  0.018395532           18 
 3692000    0.6652305   -7.4359489    847.03467  0.019118695  0.018389995           18 
 3693000   0.65843331   -7.4276362    847.32504   0.01912007  0.018384465           12 
 3694000   0.66937007   -7.4313652     844.8298  0.019058604   0.01837894           33 
 3695000   0.66496898   -7.4013815    847.25337  0.019108105  0.018373426           23 
 3696000   0.67189688   -7.4139657     847.1867  0.019101432  0.018367923           22 
 3697000    0.6590814   -7.4257268     847.7163  0.019108203   0.01836243           25 
 3698000   0.66651239   -7.4154917    847.97122   0.01910878  0.018356944           19 
 3699000    0.6490961    -7.419461    848.66908  0.019119336  0.018351462           18 
 3700000   0.64850118    -7.440786     847.6657   0.01909157  0.018345958           29 
 3701000   0.66956498   -7.4189968    849.01561  0.019116807  0.018340474           13 
 3702000   0.66329972   -7.4306893    847.62072  0.019080243  0.018334986           18 
 3703000   0.66068942   -7.4421293    845.82675  0.019034719  0.018329484           19 
 3704000   0.67934091   -7.4161064    847.36079  0.019064093  0.018323992           11 
 3705000   0.65536883   -7.4248687    848.72585   0.01908965  0.018318506           18 
 3706000   0.65728591   -7.4360945    847.51237  0.019057213  0.018313009           21 
 3707000   0.66079626   -7.4072024    848.32659  0.019070376  0.018307524           14 
 3708000   0.66722171   -7.4407162    847.37443  0.019043834  0.018302034           12 
 3709000   0.66699298   -7.4171544    847.36856  0.019038567  0.018296555           17 
 3710000   0.65513567   -7.4002955     849.8715  0.019089656   0.01829108           12 
 3711000   0.65831173   -7.4224006    847.91564  0.019040592  0.018285604           29 
 3712000   0.66268079   -7.3989672    849.30801  0.019066721  0.018280119           15 
 3713000   0.64674289   -7.4238107    846.29987  0.018994072  0.018274644           19 
 3714000   0.65619437   -7.4134631    848.75327  0.019044006  0.018269156           26 
 3715000   0.63982905   -7.4368411    848.11561  0.019024576  0.018263663           73 
 3716000   0.67444045   -7.4405861    847.51421   0.01900597  0.018258171           16 
 3717000   0.65564215   -7.4267736    846.35491  0.018974866  0.018252676           17 
 3718000     0.651494    -7.421949    846.81796  0.018980141  0.018247171           19 
 3719000   0.64938565    -7.438717    846.19682  0.018961119  0.018241691           27 
 3720000   0.66174682   -7.4157568    846.86452  0.018970979  0.018236203           15 
 3721000   0.65952345    -7.427452     846.6387  0.018960824  0.018230709           19 
 3722000   0.65631853   -7.4393984    847.10506  0.018966171   0.01822521           12 
 3723000   0.64849784   -7.4274232    846.59538  0.018949668  0.018219716           19 
 3724000   0.64738247   -7.4222336    846.60839  0.018944871   0.01821425           27 
 3725000   0.66319506   -7.4328072    846.32801  0.018933513  0.018208785           13 
 3726000   0.66338634   -7.4185602    847.34942  0.018951275  0.018203324           14 
 3727000   0.64337635   -7.4515175     846.3306   0.01892341  0.018197856           20 
 3728000   0.66221077   -7.4355477    846.82716  0.018929434  0.018192383           28 
 3729000   0.64525503   -7.4372768     846.2606  0.018911697  0.018186909           22 
 3730000   0.65381074   -7.4360129    846.85374  0.018919878  0.018181418           15 
 3731000   0.65718694   -7.4209738    847.09665  0.018920232   0.01817594           19 
 3732000   0.65282335   -7.4479201    847.45434   0.01892315  0.018170462           11 
 3733000    0.6686386   -7.4566798    845.85191  0.018882309   0.01816496           10 
 3734000   0.66221093   -7.4197883    846.65413  0.018895156  0.018159482           11 
 3735000   0.66239708   -7.4378289    846.53791  0.018887503  0.018154001           36 
 3736000   0.65135847   -7.4533622    847.42527  0.018902241  0.018148516           16 
 3737000   0.65946869   -7.4401742    846.74942  0.018882112  0.018143035           17 
 3738000   0.66221077    -7.422454    847.70814  0.018898434  0.018137557           20 
 3739000   0.66606983   -7.4473409    848.06345  0.018901298  0.018132086           25 
 3740000   0.65368314   -7.4196775    847.77294  0.018889771  0.018126636           32 
 3741000   0.64393604   -7.4218042    846.94339  0.018866243  0.018121181           18 
 3742000   0.64830846   -7.4418862    847.15788  0.018865978  0.018115735           16 
 3743000   0.65334793   -7.4418313    847.61424  0.018871098   0.01811028           12 
 3744000    0.6640837   -7.4381675    847.42423  0.018861829  0.018104836           35 
 3745000   0.64399234   -7.4141368     847.3224  0.018854526  0.018099392           23 
 3746000   0.65238195   -7.4047801    848.73444  0.018880905  0.018093948           33 
 3747000   0.64682511   -7.4542642    847.69636  0.018852779  0.018088499           17 
 3748000   0.65516903   -7.4346191    848.26331  0.018860355  0.018083059           32 
 3749000   0.64872294   -7.4058234    848.18757   0.01885364  0.018077619           16 
 3750000   0.64247776    -7.451251    846.36457  0.018808102  0.018072176            6 
 3751000   0.64909517   -7.4272048    848.16708  0.018843133  0.018066727           14 
 3752000   0.65656345    -7.419668    847.18773  0.018816359  0.018061264           14 
 3753000   0.66860654   -7.4430448    847.24367  0.018812587  0.018055816            8 
 3754000   0.66422892   -7.4483438    848.09617    0.0188265  0.018050366           16 
 3755000   0.64057012   -7.4575638     846.6491  0.018789372  0.018044918            8 
 3756000   0.64702871   -7.4578651    847.66736  0.018806961  0.018039472            7 
 3757000   0.64938738   -7.4261638    846.97448  0.018786587  0.018034018           14 
 3758000   0.64466832    -7.442153      848.202  0.018808808  0.018028567           12 
 3759000   0.64462641   -7.4593952    847.73809   0.01879352  0.018023113           16 
 3760000   0.65272593    -7.465629    845.99393  0.018749866  0.018017661            9 
 3761000   0.65982495   -7.4435499     847.8972  0.018787051  0.018012208            7 
 3762000   0.64611336   -7.4305455    847.52717  0.018773861  0.018006758            9 
 3763000   0.65272679   -7.4628655    846.85166  0.018753912   0.01800131           10 
 3764000   0.64041314   -7.4564812    848.23472   0.01877955  0.017995863           15 
 3765000    0.6348153   -7.4448281    848.21565   0.01877414  0.017990419           10 
 3766000   0.64182997   -7.4186599     848.2908  0.018770818   0.01798499           13 
 3767000   0.64866622   -7.4235225    846.32555   0.01872236  0.017979563            9 
 3768000   0.65270918   -7.4365557    847.92237  0.018752706  0.017974134            9 
 3769000   0.65073416   -7.4339832    848.07356  0.018751074  0.017968714           13 
 3770000   0.65552854   -7.4439652    849.51958  0.018778063  0.017963298           14 
 3771000    0.6470398   -7.4330363    847.81876  0.018735498  0.017957891           17 
 3772000   0.64945396   -7.4257762    848.41194  0.018743636  0.017952465           25 
 3773000   0.65197263   -7.4286359    848.22771  0.018734599   0.01794705           13 
 3774000   0.65076068   -7.4474457    847.66371  0.018717181  0.017941622           10 
 3775000   0.64831367   -7.4310885    847.67326  0.018712434  0.017936204           11 
 3776000   0.64441516   -7.4393375      847.182  0.018696637  0.017930787           10 
 3777000   0.64119706   -7.4540506    848.40244  0.018718614  0.017925373           13 
 3778000    0.6482366   -7.4378345    849.50277  0.018737929  0.017919951           12 
 3779000   0.65062107   -7.4589483     846.7388  0.018672021  0.017914535           27 
 3780000   0.65558698   -7.4519255    850.17656   0.01874287  0.017909122            7 
 3781000   0.65334943   -7.4424976    847.83213  0.018686241  0.017903716           16 
 3782000   0.65469474   -7.4454044    848.32026  0.018692056   0.01789831            9 
 3783000   0.65145129   -7.4403925    846.98738  0.018657753  0.017892919            8 
 3784000   0.64598866   -7.4389718    848.04722  0.018676163  0.017887521           25 
 3785000   0.64137744   -7.4429496    847.99387  0.018670054  0.017882127           26 
 3786000   0.63591904   -7.4430657    847.60273  0.018656514  0.017876734           11 
 3787000   0.64944733   -7.4310725     848.0736  0.018661949  0.017871329           18 
 3788000   0.63664829   -7.4431974    846.82609  0.018629578  0.017865924           32 
 3789000   0.65585954   -7.4408214    847.42714   0.01863788  0.017860515            9 
 3790000   0.64446091   -7.4415645    848.28092  0.018651735  0.017855117            6 
 3791000   0.63620538   -7.4481328     848.9316  0.018661118  0.017849727            6 
 3792000   0.65508323   -7.4396285    847.95433  0.018634721  0.017844325           17 
 3793000   0.65105715    -7.447495    848.87891  0.018650121  0.017838923           20 
 3794000   0.63546113   -7.4550745    846.16685  0.018585636  0.017833515           15 
 3795000   0.64655197   -7.4392257    846.88427  0.018596492  0.017828109           11 
 3796000   0.64351038   -7.4506348    846.16641  0.018575834  0.017822726           11 
 3797000   0.64492103   -7.4543341    849.64574  0.018647304  0.017817343           14 
 3798000   0.66419173   -7.4423149     848.5096  0.018617465  0.017811963           18 
 3799000   0.64503926   -7.4315573    847.18269  0.018583458  0.017806578           23 
 3800000    0.6467607   -7.4608719    848.89487  0.018616116  0.017801193           20 
 3801000   0.65888832   -7.4814006    847.36743   0.01857773  0.017795802           13 
 3802000   0.64669341   -7.4614875    846.73213  0.018558919  0.017790413           29 
 3803000   0.63041465   -7.4664321    847.15799  0.018563371  0.017785006           21 
 3804000   0.64826184   -7.4370385     845.7662  0.018528001  0.017779613           28 
 3805000   0.64519616   -7.4616998    847.57274  0.018562697  0.017774224           17 
 3806000   0.64937638    -7.466366     846.1653  0.018527003  0.017768828           23 
 3807000    0.6424251   -7.4808537    846.81383  0.018536333  0.017763434           24 
 3808000   0.64339367    -7.453996    847.16924  0.018539243  0.017758032           24 
 3809000   0.65271092   -7.4641585    846.84977  0.018527386  0.017752641           22 
 3810000   0.64011412   -7.4690199    847.69195  0.018540944  0.017747248           26 
 3811000   0.64480732    -7.468471    849.29322  0.018571093  0.017741862           21 
 3812000   0.64632575    -7.460255    848.41141  0.018546944  0.017736482           13 
 3813000   0.63296483    -7.464755    847.09373  0.018513282  0.017731101           35 
 3814000   0.63922712   -7.4640083    848.46735  0.018538441  0.017725729           16 
 3815000   0.64656673   -7.4635733    846.80644  0.018497301  0.017720349           41 
 3816000   0.64059029   -7.4935637    847.89809  0.018516293  0.017714985           43 
 3817000   0.62804879   -7.4868475    848.27661  0.018519706  0.017709615           37 
 3818000   0.64323728   -7.4783852    848.92855  0.018529085  0.017704244           14 
 3819000   0.63522751   -7.4905642    848.62824   0.01851768  0.017698871           12 
 3820000   0.64523304   -7.4858851     847.5768  0.018489895  0.017693495           13 
 3821000   0.64045565   -7.4627178    847.05122  0.018473594  0.017688119           18 
 3822000   0.64702396   -7.4895362    849.12375  0.018513949  0.017682748           20 
 3823000   0.64939533   -7.4526704    848.57333  0.018497108  0.017677385           19 
 3824000   0.64273895   -7.4581213    849.86312  0.018520378  0.017672026           18 
 3825000   0.63747756   -7.4514433    847.24772  0.018458556  0.017666675           26 
 3826000   0.64116517   -7.4936681    847.77469  0.018465209  0.017661312           21 
 3827000   0.64287787   -7.4711981    847.57562   0.01845605  0.017655949           22 
 3828000   0.62908226   -7.4579415    847.77564  0.018455583  0.017650595           33 
 3829000   0.63758736   -7.4796727    848.38878  0.018464107  0.017645241           20 
 3830000   0.63296496   -7.4624402    848.38617  0.018459229  0.017639886           48 
 3831000   0.64099385   -7.4602903    847.68089  0.018439069  0.017634531           22 
 3832000   0.63300712   -7.4758255    848.03253  0.018441904   0.01762918           15 
 3833000   0.64177183    -7.479788    848.09254  0.018438398  0.017623829           17 
 3834000   0.65665493   -7.4844416    849.58496  0.018466027  0.017618476           19 
 3835000   0.63274593   -7.4653648    849.19457  0.018452728  0.017613122           39 
 3836000   0.64323592   -7.4723802     847.7678  0.018416923  0.017607774           39 
 3837000   0.64163036   -7.4824679     846.4316  0.018383103   0.01760241           35 
 3838000   0.63171376   -7.4948626    846.73865   0.01838498   0.01759704           27 
 3839000   0.63920238   -7.4846845    846.50143  0.018375042  0.017591662           24 
 3840000   0.63694968   -7.4724922    847.17745  0.018384927  0.017586296           54 
 3841000   0.64562465   -7.4771397    848.99934  0.018419668  0.017580935           17 
 3842000   0.63835172   -7.4686996    847.49998  0.018382352  0.017575582           38 
 3843000   0.62806305   -7.4647181    846.53618   0.01835667  0.017570232           34 
 3844000   0.62974635   -7.4683349     846.8819  0.018359389  0.017564885           23 
 3845000   0.64405863   -7.4726837    847.01951  0.018357597  0.017559527           29 
 3846000   0.63354214   -7.4643139    848.47225  0.018384301  0.017554184           21 
 3847000   0.63845514   -7.4886811    846.58175   0.01833857  0.017548831           15 
 3848000   0.63493078   -7.4794961    845.72357  0.018315219  0.017543466           13 
 3849000   0.63610984    -7.474688    846.74028  0.018332473  0.017538115           20 
 3850000   0.64524382   -7.4733221     845.6223  0.018303513   0.01753276           19 
 3851000   0.61570743   -7.4933037    846.29793   0.01831338   0.01752742           41 
 3852000   0.63061412   -7.4647258    848.87452  0.018364367  0.017522066           35 
 3853000   0.63476568   -7.4872278    847.60774  0.018332203  0.017516731           19 
 3854000   0.62922858   -7.4794119    847.66021  0.018328581  0.017511397           28 
 3855000   0.64029703   -7.4650789    847.91939  0.018329429  0.017506075            8 
 3856000   0.62232708   -7.4727636    848.31396  0.018333203  0.017500761           23 
 3857000   0.63461687   -7.4723113    847.03271  0.018300767   0.01749545           38 
 3858000   0.63351465   -7.4846197    849.30135  0.018345026  0.017490141           35 
 3859000   0.63893004   -7.4728367    848.24702  0.018317505  0.017484831           24 
 3860000   0.62618785   -7.4904675    847.52689  0.018297213  0.017479517           16 
 3861000   0.64826362   -7.4563489    848.40307  0.018311385  0.017474197            9 
 3862000   0.65090577   -7.4677877    849.24582  0.018324828  0.017468883           25 
 3863000   0.64211783   -7.4702634    846.25164  0.018255493  0.017463564           24 
 3864000   0.61348229   -7.4663489    848.09622   0.01829055  0.017458242           36 
 3865000   0.63132599   -7.4622794    849.56034  0.018317386  0.017452917           21 
 3866000   0.64268642   -7.4867894    847.72881  0.018273168  0.017447593           15 
 3867000   0.62838726   -7.4685241    847.13707  0.018255691  0.017442272           20 
 3868000   0.63606012   -7.4668081    846.31027  0.018233158  0.017436952           27 
 3869000   0.63540818   -7.4804056    847.00971  0.018243511  0.017431623           12 
 3870000   0.62898111    -7.499367    848.13608  0.018263051  0.017426302           28 
 3871000   0.62682857   -7.4787916      846.751  0.018228515  0.017420987           11 
 3872000   0.61781253   -7.4872847    847.23538  0.018234232   0.01741568           23 
 3873000   0.63281756   -7.4741566    848.31404  0.018252733  0.017410362           17 
 3874000   0.63940191   -7.4812996     846.6885  0.018213055  0.017405044           15 
 3875000   0.62696222   -7.4812939    847.65601  0.018229161  0.017399737           13 
 3876000   0.64381038   -7.4816548       848.19  0.018235939  0.017394426           35 
 3877000   0.64284037    -7.452834    848.03114  0.018227821  0.017389124           22 
 3878000   0.62644962   -7.4910342    849.21729   0.01824861  0.017383819           18 
 3879000   0.63492529   -7.4654365     848.3152  0.018224525  0.017378521           50 
 3880000   0.62070537   -7.4717666    848.22415  0.018217873  0.017373243           16 
 3881000    0.6280719    -7.471186    848.98729  0.018229565  0.017367968            8 
 3882000   0.62616923   -7.4514666    849.16532  0.018228691  0.017362688           13 
 3883000   0.63727985     -7.47947    847.45671  0.018187328  0.017357413           16 
 3884000   0.61838607   -7.4641769    849.91799  0.018235453   0.01735213           20 
 3885000   0.62601034   -7.4522107    848.77016  0.018206138  0.017346852           13 
 3886000   0.61388542   -7.4627392    847.15248  0.018166763  0.017341581           18 
 3887000   0.63066934   -7.4720336    848.38317  0.018188474  0.017336295           15 
 3888000   0.61725431   -7.4840906    847.33742  0.018161382  0.017331012            8 
 3889000   0.62351638    -7.471407    848.17254  0.018174607  0.017325729           13 
 3890000   0.62556395   -7.4673435     848.7642  0.018182609  0.017320464           20 
 3891000   0.62522703   -7.4775432    849.37182   0.01819095  0.017315193            8 
 3892000    0.6316005   -7.4335387    849.47711   0.01818853  0.017309925            6 
 3893000   0.62692154   -7.4770497    849.46399  0.018183577  0.017304664            7 
 3894000   0.62004808   -7.5145435     847.9346  0.018146178  0.017299391            9 
 3895000   0.62804129   -7.4851075    848.05754  0.018144149   0.01729413            8 
 3896000   0.62685872   -7.4543277    848.62095  0.018151543  0.017288867            9 
 3897000   0.61963059   -7.4933351    849.13446  0.018157866  0.017283607            9 
 3898000    0.6359124   -7.4879917    847.02397  0.018108089  0.017278337            8 
 3899000   0.62755432   -7.4942853    848.24769  0.018129599  0.017273071           13 
 3900000   0.62534803   -7.4662349    847.70432   0.01811334    0.0172678            8 
 3901000   0.62896591   -7.4766662    847.30019  0.018100064  0.017262535           10 
 3902000   0.62491852   -7.4827428    846.83426  0.018085475  0.017257267           14 
 3903000   0.64213512   -7.4968813    846.93676  0.018083029  0.017252012            7 
 3904000   0.64100813      -7.4946    847.62806  0.018093154  0.017246754            7 
 3905000   0.61102075   -7.4913444    848.54244  0.018108033  0.017241492            9 
 3906000   0.62861474    -7.483547    847.03665  0.018071272  0.017236228           31 
 3907000   0.62466802   -7.4878318    849.00409   0.01810861  0.017230964           29 
 3908000   0.62521278    -7.502814    849.14923  0.018107072  0.017225703           16 
 3909000   0.61763562    -7.467343    847.35759  0.018064245  0.017220456           28 
 3910000   0.62097386   -7.5055414    846.46905  0.018040687  0.017215203           25 
 3911000   0.62099774    -7.496595    847.05349  0.018048528  0.017209942           53 
 3912000   0.62564977   -7.5035158      846.583  0.018033891  0.017204689           31 
 3913000   0.63264766   -7.4753249    848.30332   0.01806592  0.017199433           16 
 3914000   0.61210956   -7.4672225    846.07265   0.01801381  0.017194176           16 
 3915000   0.61883422   -7.4956417    846.02362  0.018008166  0.017188917           19 
 3916000   0.63726264   -7.4997155    847.05635  0.018025544  0.017183655           17 
 3917000   0.62709418   -7.5069231    846.55838  0.018010348  0.017178403           20 
 3918000   0.62245849    -7.487682    848.36208  0.018044114  0.017173147           28 
 3919000   0.62599742   -7.5177695    848.01293  0.018032086  0.017167892           32 
 3920000   0.61398461   -7.4989775    849.50012  0.018059101  0.017162628           18 
 3921000   0.61265036   -7.4890791    847.62752  0.018014697  0.017157375           45 
 3922000    0.6294017    -7.487355    846.85055  0.017993595  0.017152123           25 
 3923000   0.62084094   -7.4902444    847.84764  0.018010189  0.017146869           19 
 3924000   0.63739871   -7.4988859    848.43696  0.018018114  0.017141617           39 
 3925000   0.63769071   -7.4856152    846.41418  0.017970577  0.017136374           22 
 3926000   0.62895625   -7.4955653    847.69355  0.017993156  0.017131138           32 
 3927000   0.63174743   -7.4909354    849.43773  0.018025586  0.017125902           21 
 3928000   0.61870527   -7.4939647    846.86269  0.017966367  0.017120672           24 
 3929000   0.62778941   -7.4979185    848.55875  0.017997768  0.017115435           23 
 3930000   0.61625257   -7.5079934     847.3319  0.017967173    0.0171102           29 
 3931000   0.61409455   -7.5075073    849.32795  0.018004917  0.017104963           49 
 3932000   0.62674496   -7.4921762    847.72974  0.017966466   0.01709973           75 
 3933000   0.62153681   -7.5037043    847.90105  0.017965528  0.017094493           25 
 3934000   0.63345438   -7.5018067    846.67221  0.017934931  0.017089254           89 
 3935000   0.61279999   -7.4923045     845.3633  0.017902653  0.017084017           24 
 3936000    0.6314021   -7.4939356    847.06921  0.017934223   0.01707879           26 
 3937000   0.63024017   -7.4901905    846.84744  0.017924973  0.017073561           40 
 3938000   0.61571884    -7.515777     847.8082  0.017940752  0.017068335           31 
 3939000   0.62311796   -7.5140397    846.46318  0.017907743  0.017063104           45 
 3940000   0.61478874   -7.4849743    847.71855  0.017929749  0.017057867           19 
 3941000   0.60702437   -7.4990596      848.049  0.017932187   0.01705264           32 
 3942000   0.61260901   -7.5161086     846.5814  0.017896613  0.017047398           20 
 3943000   0.63218001   -7.4974775    847.85248  0.017918938  0.017042171           25 
 3944000    0.6098045   -7.4998928    848.25444  0.017922888  0.017036944           78 
 3945000   0.63836533   -7.5131906     847.6649  0.017905891  0.017031714           83 
 3946000   0.61742862   -7.5142758    848.88211  0.017927059  0.017026491           24 
 3947000   0.62009221   -7.5015837    848.32587  0.017910773  0.017021269           53 
 3948000   0.62590203   -7.5265421     846.9394  0.017876971  0.017016051           21 
 3949000   0.62279976   -7.5107796    849.03011  0.017916563  0.017010832           11 
 3950000   0.62691624     -7.51847    845.96618  0.017847388  0.017005618           19 
 3951000     0.610632   -7.5096051     847.1424  0.017867679  0.017000409           31 
 3952000   0.61966371   -7.5128618     848.3502  0.017888626  0.016995202           21 
 3953000   0.63170575   -7.4842428    846.15549  0.017837834  0.016989992           23 
 3954000   0.63093655   -7.5085534    846.97433   0.01785058  0.016984783           42 
 3955000   0.60997992   -7.5240648    847.47009  0.017856513  0.016979569           40 
 3956000   0.61619696   -7.5158285    848.02807  0.017863753  0.016974368           59 
 3957000   0.62326676   -7.5094436    847.84232  0.017855326  0.016969162           27 
 3958000    0.6213158   -7.5229917    848.06959    0.0178556  0.016963957           41 
 3959000   0.62815852   -7.4998658    848.15468  0.017852881  0.016958762           23 
 3960000   0.62090342   -7.4981329    846.89047  0.017821769  0.016953574           36 
 3961000   0.60179714   -7.5076037    848.37277  0.017848455  0.016948384           24 
 3962000   0.62828447   -7.5101728     849.5615  0.017868953  0.016943198           35 
 3963000    0.6179453   -7.5239416    846.78848  0.017806133  0.016938004           55 
 3964000   0.60829238   -7.4854384    847.58488  0.017818384  0.016932821           35 
 3965000   0.62074151   -7.5218171    847.05249  0.017802701  0.016927639           32 
 3966000   0.61325795   -7.5229388      847.436   0.01780627  0.016922468           34 
 3967000   0.62129848    -7.508242    847.85221  0.017810525  0.016917279           44 
 3968000   0.60807242   -7.5148317    847.79294  0.017804791  0.016912103           32 
 3969000   0.60960431   -7.5223471    849.78432  0.017842116  0.016906928           31 
 3970000   0.61415663   -7.5184896    847.52579  0.017790214  0.016901766           38 
 3971000   0.62003942    -7.497169    848.65942  0.017809524  0.016896602           33 
 3972000   0.61377736   -7.5039425    849.32363  0.017818975  0.016891453           30 
 3973000   0.60871981   -7.5260612    848.77705  0.017803026  0.016886297           30 
 3974000   0.61693892   -7.5402361    845.82256  0.017736591  0.016881136           29 
 3975000    0.6266995   -7.5265233    848.63672  0.017791126  0.016875977           31 
 3976000   0.61668535   -7.5067427    847.24994  0.017757586  0.016870816           24 
 3977000   0.62190239   -7.5122538    847.90426  0.017766831  0.016865663           22 
 3978000   0.63059113    -7.519121    847.21727  0.017747974  0.016860498           40 
 3979000   0.60606291   -7.5235001    848.72606  0.017775112  0.016855348           27 
 3980000   0.61624159   -7.5385471    846.99977  0.017734501  0.016850184           31 
 3981000   0.61797587   -7.5412894     846.7629  0.017725088  0.016845027           33 
 3982000   0.61069446   -7.5399607    848.22424  0.017751219   0.01683987           33 
 3983000   0.60704957   -7.5254552    848.34062  0.017749197  0.016834703           27 
 3984000   0.61432833   -7.5076458    847.27847  0.017722525  0.016829538           41 
 3985000   0.62103387   -7.5124597     847.5865  0.017724519  0.016824377           15 
 3986000   0.62061986   -7.5295755    849.06493  0.017750981  0.016819218           23 
 3987000   0.61800723   -7.5154836    846.43262   0.01769151  0.016814073           26 
 3988000   0.61215083   -7.5238331    847.57082  0.017710858  0.016808925           29 
 3989000   0.61049579   -7.5162944    847.75826  0.017710334  0.016803773           43 
 3990000   0.61603932   -7.5296293    846.66199  0.017682999  0.016798613           31 
 3991000   0.60889281   -7.5334934    848.37135   0.01771426  0.016793445           32 
 3992000   0.60210535   -7.5285107    846.85437  0.017678156   0.01678829           32 
 3993000     0.605145    -7.530712    846.47772  0.017665868  0.016783125           35 
 3994000   0.61023034   -7.5307463    847.85786  0.017690241  0.016777964           69 
 3995000   0.63043893   -7.5148527    845.57579   0.01763821  0.016772808           54 
 3996000     0.619262    -7.505841    847.35085  0.017670814  0.016767658           33 
 3997000   0.61376057    -7.537554    845.93524  0.017636878  0.016762499           28 
 3998000   0.62332176   -7.5295504    846.69248  0.017648251  0.016757359           24 
 3999000   0.60659579   -7.5314231    847.57048  0.017662134   0.01675221           46 
 4000000   0.60893727    -7.511873    847.03252  0.017646511  0.016747069           39 
 4001000    0.6082327   -7.5439712    846.52159  0.017631459  0.016741918           71 
 4002000   0.61080078   -7.5269328    847.30301  0.017643324  0.016736758           37 
 4003000   0.61074559   -7.5458397    846.13664  0.017614636  0.016731587           67 
 4004000   0.61741607   -7.5255869    846.59135    0.0176197  0.016726433           30 
 4005000   0.60421654    -7.516121    846.74155  0.017618426   0.01672128           27 
 4006000   0.61047606    -7.540153    848.46073   0.01764979  0.016716136           45 
 4007000    0.6028026   -7.5298097    847.88237  0.017633358  0.016710984           80 
 4008000   0.60947271   -7.5563477    847.14836  0.017613697  0.016705839           59 
 4009000    0.6085002   -7.5381198    847.18438  0.017610052  0.016700709           65 
 4010000   0.61676098   -7.5265236    847.21197  0.017606234   0.01669557           50 
 4011000   0.61713042   -7.5466035     846.9782  0.017596987  0.016690429           26 
 4012000   0.60606427   -7.5288015    847.54633  0.017604402  0.016685284           72 
 4013000   0.60944627   -7.5358815    847.05495  0.017589811  0.016680146           37 
 4014000   0.61219344   -7.5319086    847.54959  0.017595698  0.016675009           48 
 4015000   0.62456849   -7.5294412    847.35087  0.017587191  0.016669885           38 
 4016000    0.6085881   -7.5375023    846.18121  0.017558541  0.016664751           55 
 4017000   0.61469745   -7.5321415    846.08384   0.01755215  0.016659613           55 
 4018000   0.60536039   -7.5250999    848.00041  0.017587531  0.016654492           61 
 4019000   0.60955476   -7.5398965    846.56808  0.017553456  0.016649364           73 
 4020000   0.60016722   -7.5383811    847.26558  0.017563549  0.016644235           42 
 4021000    0.5929886    -7.544404    848.66675  0.017588219  0.016639111           65 
 4022000   0.60620917   -7.5483353    847.72645  0.017564364  0.016633993           66 
 4023000   0.60979208   -7.5354819    846.76403  0.017540062  0.016628879           64 
 4024000   0.61229092   -7.5424828    847.81266  0.017557419  0.016623757           48 
 4025000   0.60492128   -7.5485806    846.69022  0.017529818  0.016618645           72 
 4026000   0.59891897   -7.5325404      848.007   0.01755272  0.016613535          152 
 4027000   0.60646207   -7.5266285    848.58025  0.017560224  0.016608423           77 
 4028000   0.61099357   -7.5305943    847.83075  0.017540358  0.016603318          118 
 4029000   0.59885522   -7.5356686    846.16999  0.017501654  0.016598206           83 
 4030000   0.61035411   -7.5391079      847.408  0.017522912  0.016593094           83 
 4031000   0.61039231   -7.5240532    847.96612  0.017530103  0.016587986           55 
 4032000   0.59989676   -7.5323999    847.71823  0.017520631  0.016582872           75 
 4033000   0.61345167   -7.5137387    848.27723  0.017527838   0.01657778           37 
 4034000   0.62020121   -7.5402842    847.92025  0.017516118  0.016572688           61 
 4035000   0.62163269   -7.5439824     846.6076  0.017484668  0.016567597           92 
 4036000   0.60197453   -7.5219517    848.49184   0.01751924  0.016562499           44 
 4037000   0.60219549   -7.5414746    847.26169  0.017489507  0.016557404           62 
 4038000   0.61080655   -7.5358616    848.48515  0.017510425  0.016552301           76 
 4039000   0.61010796   -7.5284074    846.94976  0.017474411  0.016547206           67 
 4040000   0.61601772    -7.554746    847.14194   0.01747405  0.016542105           69 
 4041000   0.61751912    -7.544052    847.35999  0.017474222  0.016537009           63 
 4042000   0.60925571   -7.5292785    847.98147  0.017482712  0.016531917           67 
 4043000    0.5991444   -7.5597563     848.4759  0.017488579  0.016526839           43 
 4044000   0.60330058   -7.5379739    846.62673  0.017446149  0.016521757           36 
 4045000   0.61333635   -7.5288053    847.33144  0.017456354  0.016516679           78 
 4046000   0.60069654   -7.5356879    847.43272  0.017454126  0.016511601           89 
 4047000   0.60037224   -7.5467047    847.40459  0.017449234  0.016506513           68 
 4048000   0.60800969   -7.5451326     847.3726  0.017444265  0.016501419           66 
 4049000   0.60671812   -7.5469522    847.06826  0.017433693  0.016496331           75 
 4050000    0.6093434   -7.5366199    846.96204  0.017427202  0.016491243           68 
 4051000    0.6070263   -7.5541487    846.92177  0.017422072  0.016486153           96 
 4052000   0.59875423   -7.5344006    847.40264  0.017427662  0.016481071           70 
 4053000   0.61736422   -7.5396354    847.50999  0.017425569  0.016475987           67 
 4054000   0.60652991   -7.5369318    846.67636  0.017404135  0.016470903           74 
 4055000   0.60095027   -7.5441942    846.42695  0.017394717  0.016465823           72 
 4056000    0.5924018    -7.517713    847.84368  0.017419536  0.016460747           58 
 4057000   0.60512705   -7.5676324    846.78456  0.017393488  0.016455671           54 
 4058000    0.6029268   -7.5572605    846.84396  0.017390421  0.016450593           62 
 4059000   0.60047929   -7.5635231    847.70178  0.017403748  0.016445517           64 
 4060000   0.59807916   -7.5413818    846.77406   0.01738042  0.016440436           69 
 4061000   0.58681717    -7.568097    846.91661  0.017379065   0.01643535           59 
 4062000    0.6018525   -7.5598168    845.90508  0.017354035  0.016430275           52 
 4063000   0.58611685   -7.5565803    846.67383  0.017365531  0.016425201           67 
 4064000   0.59063901   -7.5319987    846.78353  0.017363507  0.016420119           51 
 4065000   0.59517457    -7.570082    847.49282  0.017373777  0.016415041           62 
 4066000   0.60319392   -7.5823814    847.35363  0.017366651  0.016409972           87 
 4067000   0.59381867   -7.5578192    845.49782  0.017324355  0.016404896           56 
 4068000    0.5906003   -7.5583779    847.38479  0.017358751  0.016399813           64 
 4069000    0.6031911   -7.5605131    846.00624  0.017326252  0.016394736          119 
 4070000    0.5837415   -7.5607542     846.3324  0.017328673  0.016389657           60 
 4071000    0.6104966   -7.5637893    846.83276  0.017334659  0.016384569           71 
 4072000   0.59361746   -7.5663521    846.61855  0.017326018  0.016379488           54 
 4073000   0.58602189   -7.5539806    845.96777  0.017308449  0.016374409           40 
 4074000   0.60135705   -7.5483337    847.04718   0.01732628  0.016369326           55 
 4075000   0.59884831   -7.5732761    846.66185  0.017314148  0.016364252           57 
 4076000   0.59656735   -7.5584814    846.73468  0.017311389  0.016359171           41 
 4077000   0.58843813   -7.5706393    846.48815  0.017302104  0.016354093           40 
 4078000   0.60346634   -7.5670697    847.26507  0.017313738  0.016349025           81 
 4079000   0.60151195    -7.558876    847.34098  0.017311044  0.016343958           58 
 4080000   0.59753352    -7.584659    847.05231  0.017300905  0.016338894           51 
 4081000   0.59224158   -7.5691719    847.37824  0.017303321  0.016333834           66 
 4082000   0.61082224   -7.5860181    846.12906   0.01727358  0.016328764           48 
 4083000   0.61358585    -7.574179    845.71767  0.017260953  0.016323702           71 
 4084000    0.6022993   -7.5777892    845.05968  0.017243301  0.016318635           53 
 4085000   0.60078445   -7.5859652    846.69226  0.017272384  0.016313574           43 
 4086000   0.60103662   -7.5640239    846.72392  0.017268802  0.016308508           34 
 4087000   0.59095214     -7.55726    846.29779  0.017255888  0.016303452           57 
 4088000   0.58927073   -7.5763619    846.78527  0.017261604  0.016298389           63 
 4089000   0.59114246   -7.5646079    847.36558   0.01726921  0.016293337           74 
 4090000   0.59922506   -7.5379559    847.50052  0.017267737    0.0162883           43 
 4091000   0.59819513   -7.5499125    846.88363   0.01725095  0.016283253           39 
 4092000   0.60388916    -7.584516    846.74344  0.017243879  0.016278201           75 
 4093000    0.5897666   -7.5743923    846.24257  0.017229468  0.016273148           51 
 4094000   0.59097237   -7.5726485    846.22952  0.017224994  0.016268101           42 
 4095000   0.60899344   -7.5513789    845.86215  0.017213312  0.016263051           50 
 4096000   0.59576204   -7.5697282    845.99957  0.017211905  0.016258003           64 
 4097000   0.61725632   -7.5782083    845.55609  0.017198684   0.01625295           58 
 4098000   0.60902407   -7.5692459    845.99221  0.017203356  0.016247902          117 
 4099000   0.59818819   -7.5568811    846.16036  0.017202577  0.016242865          103 
 4100000   0.60661647   -7.5704134    847.75855  0.017230865   0.01623783           59 
 4101000   0.59530173   -7.5498781    844.95678  0.017169731  0.016232792           65 
 4102000   0.59621741    -7.580103    846.24895  0.017191796  0.016227762          128 
 4103000     0.599651   -7.6104489     846.6945  0.017196655   0.01622272          110 
 4104000   0.60447641   -7.5976442    847.16426  0.017202003  0.016217684          136 
 4105000   0.60580291    -7.570146    847.07395  0.017195979  0.016212649          106 
 4106000    0.5977491   -7.5646455     845.6613  0.017163121   0.01620762          128 
 4107000   0.58084799   -7.5719244    846.91482  0.017184377  0.016202587          135 
 4108000   0.59119694   -7.5568387    846.37763  0.017169296  0.016197562          109 
 4109000   0.59599589   -7.5865761    846.44377  0.017166459  0.016192539          131 
 4110000   0.58729119   -7.5994665    846.66452  0.017166758  0.016187515          142 
 4111000    0.5973482   -7.5747454    846.29734  0.017155139   0.01618249           94 
 4112000   0.58676525   -7.5779588    846.91613  0.017163508  0.016177472          108 
 4113000   0.59995206   -7.5946988    845.48706   0.01713038  0.016172457          134 
 4114000   0.59022099   -7.5652548    847.82871  0.017173649   0.01616744           70 
 4115000   0.59838436   -7.5920668    843.99669  0.017091873  0.016162412          149 
 4116000   0.58616848   -7.5671106    847.29148  0.017154428  0.016157389          142 
 4117000   0.61646757   -7.5761869     846.2676  0.017129536  0.016152374          114 
 4118000   0.58392193   -7.5744969    845.95321  0.017119014  0.016147363          121 
 4119000   0.59707726    -7.588606    844.61035   0.01708769  0.016142349          116 
 4120000    0.5941951   -7.5866279    844.36764  0.017078633  0.016137341          117 
 4121000   0.58790798   -7.5517358    845.11132  0.017089528  0.016132333          150 
 4122000   0.59058189   -7.5908278    844.30418  0.017069064  0.016127313          130 
 4123000    0.5967849   -7.5961804    845.87234  0.017096619  0.016122303          161 
 4124000   0.60586109   -7.6046918    845.66376  0.017088259  0.016117285          134 
 4125000   0.59185669   -7.5916422    845.65068  0.017083852  0.016112264          143 
 4126000   0.59222646   -7.5755533    844.62437  0.017058983  0.016107246           92 
 4127000   0.58703731   -7.5874057    844.44331  0.017051194  0.016102236           96 
 4128000   0.58256058   -7.5967554    845.20774  0.017062495  0.016097217          101 
 4129000   0.60607853   -7.5692189    845.26672  0.017059553  0.016092199          158 
 4130000    0.5849774   -7.5955668     845.0852   0.01705176  0.016087179          157 
 4131000   0.58109632   -7.6143119     844.0613  0.017026977  0.016082166          142 
 4132000   0.60101234    -7.587457    843.24641  0.017006422  0.016077142          170 
 4133000    0.5880168   -7.5895614    845.28939  0.017043499  0.016072128          122 
 4134000   0.59206195   -7.5935877    845.63501  0.017046344  0.016067118          125 
 4135000   0.58399822   -7.5909985    843.87225  0.017006696  0.016062109          173 
 4136000    0.5909274     -7.59904    845.40017  0.017033369  0.016057102          181 
 4137000   0.59200218   -7.6176514    844.21992  0.017005477  0.016052097          206 
 4138000   0.58296649   -7.5827687    846.15769  0.017040392  0.016047094          159 
 4139000   0.57157942   -7.6028151    845.14775  0.017015941  0.016042087          160 
 4140000    0.5840673   -7.5757232    845.88789  0.017026729  0.016037085          122 
 4141000   0.58217923   -7.5930721    845.08646  0.017006489  0.016032089          117 
 4142000   0.59561237   -7.5774224    844.73549  0.016995322  0.016027091           79 
 4143000   0.58967767   -7.5907499    846.04332  0.017017526  0.016022102           80 
 4144000   0.58229053   -7.6045825    843.33049  0.016958866  0.016017103           75 
 4145000   0.57741784    -7.585131    845.13375  0.016991028   0.01601211          155 
 4146000    0.5922516   -7.5903267    846.13816  0.017007119  0.016007121          134 
 4147000   0.57081813   -7.5657986    845.25622  0.016985295  0.016002133          116 
 4148000   0.58589899   -7.5928963    846.13079   0.01699877  0.015997146          121 
 4149000   0.59017061   -7.5742255    845.53281  0.016982663  0.015992165          213 
 4150000   0.57619031    -7.576461    844.31346  0.016954085   0.01598718          202 
 4151000     0.601625   -7.5915077    844.47707  0.016953286  0.015982197          163 
 4152000    0.5925869   -7.6015842    845.08129   0.01696133  0.015977218          140 
 4153000   0.59352055   -7.6014982    845.21188  0.016959866  0.015972237          139 
 4154000   0.59170044   -7.6061032    845.87563  0.016969099  0.015967254          107 
 4155000   0.58422519   -7.6085714    845.18059  0.016951075  0.015962271          169 
 4156000   0.58354385   -7.5861962    845.42004  0.016951797  0.015957281          146 
 4157000    0.6004817   -7.5929438    844.04063  0.016920067  0.015952299          134 
 4158000   0.58416742   -7.6052227    844.81494  0.016931516  0.015947327          107 
 4159000   0.59517768   -7.6070329    844.61997  0.016923539  0.015942349          145 
 4160000   0.57820924   -7.5782891    844.55944  0.016918258  0.015937372          118 
 4161000    0.6015672   -7.6083017    844.64869   0.01691598  0.015932392           96 
 4162000    0.5892507   -7.5894815    843.36033  0.016886119  0.015927417          156 
 4163000   0.57371558   -7.5933852    845.65051  0.016927907  0.015922443          184 
 4164000   0.58539031   -7.6148453    846.38196   0.01693848  0.015917471          127 
 4165000   0.57986133    -7.599128    845.33567  0.016913479  0.015912508          135 
 4166000    0.5773057    -7.603575    843.53774  0.016873455  0.015907545          158 
 4167000   0.58507892   -7.6003847    845.59256  0.016910498  0.015902583          121 
 4168000   0.57558174    -7.601451    846.15366  0.016917659  0.015897616          114 
 4169000     0.585854    -7.618197    846.15251  0.016913579  0.015892653          116 
 4170000   0.59248685   -7.5954253    845.87073  0.016903892  0.015887694          160 
 4171000   0.58792683   -7.6043201    846.26017  0.016907619  0.015882731          115 
 4172000    0.5763686   -7.6008285    845.65303   0.01689144  0.015877766          105 
 4173000   0.59430466   -7.5993886    846.78327  0.016909962  0.015872816          129 
 4174000   0.59624641   -7.6062826    845.64971   0.01688328  0.015867875           98 
 4175000   0.58032932   -7.5887749    843.62706  0.016838863  0.015862931          116 
 4176000    0.5847896   -7.5741092     845.0545  0.016863316  0.015857992          113 
 4177000   0.58685784   -7.5977153    845.39521  0.016866076  0.015853048           90 
 4178000   0.57580612   -7.6041027    845.41313  0.016862397  0.015848102          102 
 4179000   0.58543214   -7.5795483    846.00642  0.016870193  0.015843166           96 
 4180000    0.5790177   -7.6118739    846.59186  0.016877828   0.01583824           84 
 4181000   0.58011841    -7.591598    844.08178  0.016823762  0.015833306          107 
 4182000   0.57248092   -7.5898984    843.61298  0.016810397   0.01582837          106 
 4183000    0.5813558   -7.6039655    844.20705  0.016818214  0.015823433           96 
 4184000   0.58235718   -7.6060972    846.22549  0.016854395  0.015818494           90 
 4185000   0.59067709   -7.6003681    844.66689  0.016819333  0.015813563          130 
 4186000   0.59665736   -7.5998989    845.10824  0.016824101  0.015808636           77 
 4187000   0.58867866   -7.6088961    843.77027  0.016793453  0.015803706           77 
 4188000   0.59074328   -7.5988602    845.60434  0.016825938  0.015798775           80 
 4189000   0.58564414   -7.6184931    845.28212  0.016815511   0.01579385           51 
 4190000   0.58262733   -7.5878316    845.49687  0.016815769  0.015788938           96 
 4191000   0.57509349   -7.5979911    845.55847  0.016812982  0.015784017          116 
 4192000   0.59442477   -7.6019086    845.85545  0.016814875  0.015779096           79 
 4193000   0.59285437   -7.5946639    846.20477  0.016817807  0.015774182           85 
 4194000   0.58264594   -7.5890248    844.96555  0.016789174   0.01576927           77 
 4195000   0.57129485   -7.5832587    843.87596  0.016763527  0.015764362           65 
 4196000   0.57744323   -7.5822563    845.70701  0.016795897  0.015759455           95 
 4197000   0.59037643   -7.6032439    847.40631  0.016825636  0.015754549           52 
 4198000   0.57958133   -7.6015343    846.27211  0.016799113  0.015749653           67 
 4199000   0.59527861   -7.5963341    844.81007  0.016766096  0.015744751           79 
 4200000   0.58818068   -7.6028802    845.17078  0.016769262  0.015739852           96 
 4201000   0.58012122   -7.5883089    844.93521  0.016760597  0.015734955           96 
 4202000   0.58293867   -7.6102709    844.79877  0.016753902  0.015730055           37 
 4203000   0.57853606   -7.5963796    847.20845  0.016797693  0.015725169           89 
 4204000   0.59479775   -7.5743651    847.66582  0.016802764  0.015720287           94 
 4205000   0.56932515    -7.597561    846.91727  0.016783933  0.015715409          103 
 4206000   0.58567708   -7.6053118    845.33716  0.016748636  0.015710521           78 
 4207000   0.58795611   -7.5887828    844.23814  0.016722885  0.015705632          100 
 4208000   0.58585742   -7.5959556    843.99817  0.016714159  0.015700742          108 
 4209000   0.56462511   -7.6043766    844.89899  0.016728023  0.015695849          119 
 4210000   0.57577917   -7.5953819    844.73539  0.016720811  0.015690969           94 
 4211000   0.57879209   -7.5943037    844.59568  0.016714076  0.015686078           93 
 4212000   0.58889697   -7.5948757    845.33585  0.016724752   0.01568119           91 
 4213000   0.57762688   -7.5984041    846.34493  0.016740741  0.015676315          114 
 4214000   0.57906377   -7.6017461    845.24392  0.016714996  0.015671434           98 
 4215000   0.58090245   -7.6181502    846.07698  0.016727501  0.015666551           82 
 4216000   0.58291337   -7.6072438    844.35969  0.016689589  0.015661668           81 
 4217000   0.57479657   -7.6101765    843.94346  0.016677406  0.015656779           89 
 4218000   0.57197559   -7.6051505      846.383  0.016721649  0.015651898           88 
 4219000   0.58796246    -7.607921       845.39  0.016698072  0.015647022           67 
 4220000   0.57871603   -7.6079236    845.25354  0.016691421  0.015642148           72 
 4221000   0.57369698   -7.5922879    844.95862  0.016681644  0.015637275           87 
 4222000   0.58498408   -7.6014751    844.97852  0.016678085  0.015632397           60 
 4223000   0.59133255   -7.6162837      845.157  0.016677658  0.015627521           98 
 4224000   0.55449796   -7.6205996    844.09904  0.016652838  0.015622643          107 
 4225000   0.56724967   -7.6300509    845.25029  0.016671603  0.015617764          138 
 4226000   0.57321723   -7.6231223    843.42097  0.016631586  0.015612891           90 
 4227000   0.57982268   -7.5914374    843.50458  0.016629299  0.015608022          110 
 4228000   0.56828495   -7.5963451    844.61531  0.016647258  0.015603164           91 
 4229000   0.57092288   -7.5829032    845.75874  0.016665854  0.015598301           71 
 4230000   0.58266602   -7.6032141    845.11958  0.016649322  0.015593442           59 
 4231000    0.5942557   -7.6134812    845.08588  0.016644723  0.015588585           72 
 4232000   0.58194296   -7.5997698    844.15556  0.016622471  0.015583727           60 
 4233000   0.57431197   -7.6003075    845.83278  0.016651563  0.015578866           44 
 4234000   0.57561773   -7.5987728    845.07509  0.016632717  0.015574005           54 
 4235000   0.58641612   -7.6168072    844.14804  0.016610548  0.015569141           71 
 4236000   0.57768988   -7.6014089     844.6756  0.016617005  0.015564273           76 
 4237000   0.57814482   -7.5980664    843.85721  0.016596987   0.01555941           96 
 4238000   0.58249315    -7.612684    844.12333  0.016598304   0.01555456           72 
 4239000    0.5751274   -7.5980958    845.06935  0.016612986  0.015549698          108 
 4240000   0.57968291   -7.5928415    844.92483  0.016606227  0.015544849           66 
 4241000   0.57155547   -7.6077871    844.61422  0.016596208      0.01554           46 
 4242000   0.58099969   -7.6032288    844.71417  0.016594259  0.015535161           58 
 4243000   0.57992794   -7.5932257    845.35291  0.016602893  0.015530322           48 
 4244000   0.56908613   -7.5872444    844.97717  0.016591603  0.015525487           44 
 4245000   0.56809278   -7.5877432    845.92444   0.01660629  0.015520653           60 
 4246000   0.57963336   -7.6154377    844.97796  0.016583804  0.015515815           21 
 4247000   0.56199313   -7.6200867    844.68439  0.016574138  0.015510975           56 
 4248000   0.57559772    -7.602056    845.10139  0.016578417  0.015506139           52 
 4249000   0.57472709   -7.5847135    845.74574  0.016587153  0.015501313           60 
 4250000   0.58131299   -7.6134476    844.89252   0.01656652  0.015496483           35 
 4251000   0.57651056    -7.587024    843.39343  0.016533236  0.015491646           69 
 4252000   0.56340898   -7.6031571    843.60784   0.01653355  0.015486815           51 
 4253000   0.56821985   -7.6081333    844.29685  0.016543163  0.015481973           21 
 4254000   0.56937572   -7.6376601     844.1089  0.016535592  0.015477137           31 
 4255000   0.57006353   -7.6265598    844.03877  0.016530332  0.015472302           62 
 4256000   0.57079733   -7.6200968    843.22354  0.016510486   0.01546747           49 
 4257000   0.55774833    -7.603044    843.18326  0.016505819  0.015462639           53 
 4258000    0.5636068   -7.6191997    844.69097   0.01653145   0.01545781           57 
 4259000   0.55850571   -7.6124175    843.70381  0.016508253  0.015452986           56 
 4260000    0.5857834    -7.615681    845.38552  0.016537275  0.015448167           50 
 4261000   0.56155028   -7.6166153    842.98867  0.016486519  0.015443344           63 
 4262000   0.56211585   -7.5989261    845.60809  0.016533867  0.015438521           27 
 4263000    0.5581746   -7.6124009    844.60036  0.016510289  0.015433705           55 
 4264000   0.56894826   -7.6207433    843.33168  0.016481623  0.015428887           56 
 4265000     0.564542   -7.6239004    844.86179  0.016507655  0.015424072           35 
 4266000    0.5668097   -7.6061983    843.49028  0.016476994  0.015419255           64 
 4267000   0.57587338   -7.6047369    843.90453  0.016481223  0.015414435           66 
 4268000   0.55980825   -7.6194898    844.34479  0.016485957  0.015409616           32 
 4269000   0.56797108   -7.6080331    845.21034  0.016498992   0.01540481           66 
 4270000    0.5648878   -7.6064252    844.38992  0.016479116  0.015399996           72 
 4271000   0.56939398   -7.6191351    844.02638  0.016468165  0.015395185           39 
 4272000   0.57427551   -7.6178576    845.15215   0.01648627  0.015390374           65 
 4273000   0.57373469   -7.6444538    843.26656  0.016445639  0.015385564           49 
 4274000   0.56466362   -7.6073438    846.45013  0.016503863  0.015380749           76 
 4275000    0.5631673   -7.6070313    844.03146  0.016452855  0.015375944           41 
 4276000   0.56339419   -7.6401523    844.23172   0.01645291   0.01537113           85 
 4277000   0.58923711   -7.6179925    842.66746  0.016418585  0.015366318           75 
 4278000   0.56285277   -7.6208508    843.04044  0.016422013  0.015361509           33 
 4279000   0.56454804    -7.622016     844.1887  0.016440537  0.015356705           47 
 4280000    0.5714525    -7.605937    845.33092  0.016458935    0.0153519           37 
 4281000   0.55835175   -7.6322104    843.98925  0.016428974    0.0153471           39 
 4282000   0.57359649   -7.6106218    844.59197  0.016436867  0.015342304           41 
 4283000   0.56934342    -7.623932    844.60564  0.016433295  0.015337508           53 
 4284000   0.56560604   -7.6362982    842.57241  0.016389908  0.015332702           46 
 4285000   0.55926361   -7.6293041     843.3926  0.016402034  0.015327903           56 
 4286000   0.56515198   -7.6158055    843.77986  0.016405737  0.015323099           18 
 4287000    0.5624791   -7.6212839    844.00235  0.016406235  0.015318306           53 
 4288000   0.57191753   -7.6241814    844.13636  0.016405013  0.015313506           50 
 4289000   0.56352093   -7.6183837    844.14563  0.016401369  0.015308714           57 
 4290000   0.57459182   -7.6256315    844.60307  0.016406431  0.015303922           33 
 4291000   0.55871713   -7.6406889    844.43597  0.016399362  0.015299129           69 
 4292000   0.57484519   -7.6065108    842.37659  0.016355557  0.015294338           22 
 4293000    0.5735734   -7.6259946    843.75121   0.01637843  0.015289549           38 
 4294000   0.56946762   -7.6295905    843.87809  0.016377078  0.015284761           37 
 4295000   0.55907652   -7.6376733    843.97251  0.016375097   0.01527997           39 
 4296000   0.55819009    -7.615045    842.83347   0.01634919  0.015275186           43 
 4297000   0.56199262   -7.6179136    846.26138  0.016411864  0.015270408           55 
 4298000   0.55434285   -7.6395119    842.90691  0.016343007  0.015265626           21 
 4299000   0.57685934   -7.6415332     844.0903  0.016362144  0.015260842           41 
 4300000   0.56206688   -7.6391062    843.42929  0.016345529  0.015256061           50 
 4301000   0.57508486   -7.6229519    842.89604  0.016331397  0.015251279           31 
 4302000   0.56296842   -7.6310489    845.54843  0.016378979  0.015246509           23 
 4303000    0.5702489    -7.638879    843.94896  0.016344197  0.015241737           57 
 4304000   0.56146326   -7.6244575    843.34873  0.016328778  0.015236961           20 
 4305000    0.5596691   -7.6524919    842.77197  0.016313821  0.015232188           28 
 4306000    0.5709783   -7.6643023    842.53166  0.016305381  0.015227407           59 
 4307000   0.55429021   -7.6373214     842.4304  0.016299636  0.015222631           67 
 4308000   0.56751455   -7.6281986    842.52578  0.016297698   0.01521786           23 
 4309000    0.5644734   -7.6021717    845.13883   0.01634445  0.015213095           35 
 4310000   0.57391418    -7.621579    843.34111  0.016305899  0.015208337           37 
 4311000    0.5635523   -7.6368105    843.30033  0.016301329  0.015203576           48 
 4312000   0.56514277   -7.6314005     844.0326    0.0163117  0.015198813           58 
 4313000   0.56419771   -7.6374182    844.41577  0.016315321  0.015194055           33 
 4314000   0.54670152   -7.6271958    844.78438   0.01631866  0.015189298           36 
 4315000   0.55840091   -7.6364207    843.58508  0.016291717  0.015184535           62 
 4316000   0.56255554   -7.6421845    843.00994  0.016276837  0.015179777           36 
 4317000   0.55851641   -7.6465679    843.37639   0.01628014  0.015175019           39 
 4318000   0.56553748   -7.6447633    842.41902  0.016257894   0.01517026           53 
 4319000   0.54676471   -7.6588152     842.2995  0.016251823  0.015165502           55 
 4320000   0.56728145   -7.6542906    843.64556  0.016274027  0.015160747           38 
 4321000   0.55553481   -7.6391227    841.96201  0.016237792  0.015155999           38 
 4322000   0.56394734   -7.6403853    843.81026  0.016269672  0.015151247           67 
 4323000   0.55342437   -7.6419763    843.20246  0.016254192    0.0151465           88 
 4324000   0.56411967   -7.6591169     842.7729  0.016242154  0.015141752           62 
 4325000   0.55239952   -7.6332033     844.3769  0.016269304  0.015137006           58 
 4326000   0.55367071   -7.6402964    843.09501   0.01624085  0.015132259           74 
 4327000   0.55899692   -7.6272834    843.95841  0.016253725  0.015127518           46 
 4328000   0.55616645   -7.6330518    842.15121  0.016215173  0.015122771           32 
 4329000   0.54807879   -7.6334546    842.06434  0.016209755  0.015118023           52 
 4330000   0.54686626   -7.6387049    843.14602  0.016226829  0.015113278           26 
 4331000   0.53633391    -7.643975    843.00545  0.016220377  0.015108537           48 
 4332000   0.54821545   -7.6483251     842.9775  0.016216095  0.015103797           38 
 4333000   0.57217038     -7.63296    842.87715  0.016210423  0.015099065           58 
 4334000     0.558682   -7.6459057    842.47096  0.016198872  0.015094326           34 
 4335000   0.54969179    -7.653289    843.00621  0.016205425  0.015089587           33 
 4336000   0.54803535   -7.6559718    841.97298   0.01618183  0.015084854           63 
 4337000    0.5599666   -7.6406092    842.86453   0.01619523  0.015080117           25 
 4338000   0.56084421   -7.6415178      842.831  0.016190852  0.015075389           32 
 4339000   0.56199777   -7.6491008    842.68061  0.016184232  0.015070659           60 
 4340000   0.56167719   -7.6399133    842.37608  0.016174656  0.015065929           46 
 4341000    0.5479587   -7.6289517    842.16533  0.016166884  0.015061206           27 
 4342000   0.54891642   -7.6468304    843.98064  0.016198001  0.015056485           54 
 4343000   0.56362143   -7.6530951    840.83067   0.01613383  0.015051764          102 
 4344000   0.54975798   -7.6488141    841.71442  0.016147069  0.015047043           43 
 4345000   0.54419942   -7.6573182    843.03028   0.01616859  0.015042323           71 
 4346000   0.56340501   -7.6491839    841.48197  0.016135181  0.015037604           44 
 4347000   0.56374492   -7.6508919    842.97104  0.016160015  0.015032879           32 
 4348000    0.5572142   -7.6458112     843.3335  0.016163246  0.015028158           33 
 4349000   0.54097205   -7.6582137    843.49795   0.01616268  0.015023435           40 
 4350000   0.55082614   -7.6587453    842.75883  0.016144805  0.015018719           48 
 4351000   0.55593038    -7.642031    843.85429  0.016162075  0.015014007           40 
 4352000   0.55052859   -7.6438132    843.52966  0.016152146  0.015009299          115 
 4353000   0.55515275   -7.6452178    843.71494  0.016151982  0.015004593           80 
 4354000   0.55438795   -7.6507587    843.91397  0.016152082  0.014999886           63 
 4355000   0.55151899   -7.6269377    841.99922  0.016111734  0.014995175           55 
 4356000   0.55649922   -7.6460764    842.89124    0.0161251  0.014990473           37 
 4357000   0.54917152   -7.6417865    842.62669  0.016116339  0.014985769           40 
 4358000   0.56109078      -7.6316    843.92588  0.016137484  0.014981069           29 
 4359000   0.55367343   -7.6609565    843.47289  0.016125122  0.014976373           45 
 4360000    0.5521003   -7.6410458    842.47571  0.016102365  0.014971672           33 
 4361000   0.56411936   -7.6252329    842.10088   0.01609151  0.014966976           24 
 4362000   0.54841249   -7.6179301    844.10579  0.016126123  0.014962286           36 
 4363000   0.55038933   -7.6456476    842.28363  0.016087624  0.014957592           53 
 4364000   0.53976693   -7.6607161    842.78208  0.016093456  0.014952898           53 
 4365000   0.56350506   -7.6513013    841.86038  0.016072172  0.014948206           43 
 4366000   0.55285142   -7.6610369    842.30723   0.01607702  0.014943515           84 
 4367000   0.55764782   -7.6530298    843.88862  0.016103515  0.014938826           53 
 4368000    0.5538322   -7.6596653    842.80791  0.016079211  0.014934142           52 
 4369000   0.54566504    -7.647321     842.6445  0.016072414  0.014929455           25 
 4370000   0.55648967   -7.6514824    843.87264  0.016092156  0.014924774           53 
 4371000   0.53778842   -7.6289181    843.82713  0.016087606  0.014920088           52 
 4372000   0.55730899   -7.6504592     841.7644   0.01604461  0.014915406           45 
 4373000   0.54960915   -7.6415639    841.38158  0.016033646  0.014910726           81 
 4374000   0.54312653   -7.6465203    841.35874  0.016029545  0.014906047           47 
 4375000   0.55318528    -7.642351    841.55349   0.01602959  0.014901369           27 
 4376000    0.5442385   -7.6533149    841.68102  0.016028356  0.014896691           81 
 4377000   0.55918439   -7.6537676    842.43357  0.016039022  0.014892018           27 
 4378000    0.5549326   -7.6709794    842.72909  0.016040983   0.01488735           43 
 4379000   0.54616719   -7.6848973    842.30527  0.016029255  0.014882681           45 
 4380000   0.55207561   -7.6533839    841.90045  0.016017893  0.014878011           38 
 4381000   0.55291441   -7.6643315    841.08056  0.015998641  0.014873339           56 
 4382000   0.54747115   -7.6593744    843.09666  0.016033331  0.014868671           28 
 4383000   0.55480989   -7.6850772    842.02506  0.016009298  0.014864007           32 
 4384000   0.55298513     -7.63607    842.72892  0.016019026   0.01485934           44 
 4385000   0.56028138    -7.661523    843.08368  0.016022115  0.014854683           48 
 4386000   0.55782078   -7.6520034    844.05906  0.016036994  0.014850029           65 
 4387000   0.55244574    -7.662365     843.2301  0.016017592  0.014845375           42 
 4388000   0.55619535   -7.6463593    843.23502  0.016014035  0.014840719           40 
 4389000   0.55248572   -7.6609436    843.71781  0.016019553  0.014836066           36 
 4390000   0.53593384   -7.6349717    843.24603  0.016006948  0.014831416           70 
 4391000   0.55103305   -7.6603794    843.61993  0.016010399  0.014826765           66 
 4392000   0.53971828   -7.6617527    842.30787  0.015981858  0.014822117           42 
 4393000   0.55161139   -7.6431935    843.16445  0.015994469  0.014817469           29 
 4394000   0.55355283   -7.6659253    843.25418  0.015992531  0.014812822           62 
 4395000   0.54679902   -7.6562439     842.7284  0.015978923   0.01480818           65 
 4396000   0.54782013   -7.6430397    842.11764   0.01596371  0.014803538           46 
 4397000   0.54770395   -7.6821421    843.36183   0.01598366  0.014798898           81 
 4398000   0.53942845   -7.6598989    842.81383  0.015969642  0.014794257           50 
 4399000   0.53743189   -7.6821241    842.67859   0.01596345  0.014789623           46 
 4400000   0.54848256   -7.6498473    843.96319  0.015984151  0.014784982           75 
 4401000   0.55099824   -7.6589201    842.29211  0.015948877  0.014780348           54 
 4402000    0.5548825   -7.6690034    843.24251  0.015963246  0.014775715           72 
 4403000   0.55110583   -7.6461338    843.66956  0.015967703  0.014771085           45 
 4404000   0.54886846    -7.666089    842.53874   0.01594268  0.014766454           36 
 4405000   0.54457842   -7.6642609    842.17665  0.015932211  0.014761823           81 
 4406000   0.54222351   -7.6662794    842.41651  0.015933131  0.014757201           60 
 4407000   0.55862611   -7.6530357    843.00142  0.015940576  0.014752582           54 
 4408000    0.5433706   -7.6585014    841.88774  0.015915905   0.01474796           55 
 4409000   0.55569837   -7.6729539    843.17566  0.015936638  0.014743341           38 
 4410000   0.54669474   -7.6549681    843.77351  0.015944322  0.014738728           56 
 4411000   0.55205208   -7.6738396    844.93105  0.015962576  0.014734114           34 
 4412000   0.54648751   -7.6771423    842.75531  0.015917862  0.014729497           63 
 4413000   0.54662997   -7.6616026     842.6344  0.015911972  0.014724884           69 
 4414000   0.53768103    -7.684965    842.16221  0.015899453  0.014720274           40 
 4415000    0.5447769   -7.6769798    842.66348  0.015905313  0.014715659          102 
 4416000   0.53725949   -7.6757711    842.38373  0.015896432  0.014711043           38 
 4417000   0.54446425   -7.6545762    842.36198  0.015892423  0.014706429           56 
 4418000   0.54913797   -7.6804449    844.32143  0.015925785  0.014701818           76 
 4419000   0.53580145   -7.6514013     843.4141  0.015905071  0.014697207           88 
 4420000   0.54022172    -7.670185    842.34968  0.015881404    0.0146926           34 
 4421000   0.53939821    -7.669743    842.36043  0.015878015   0.01468799           93 
 4422000   0.53574462   -7.6670454    840.93938  0.015847644  0.014683384          110 
 4423000   0.54884895   -7.6687396    842.58852  0.015875132  0.014678788          108 
 4424000   0.53981907   -7.6411097    841.73931  0.015855548  0.014674193           36 
 4425000   0.54489441   -7.6784659    842.86642  0.015873191  0.014669605           81 
 4426000   0.53480908   -7.6750854    841.83354  0.015850157  0.014665012           98 
 4427000   0.54648034   -7.6700478     843.2974  0.015874132  0.014660418           44 
 4428000   0.53614974   -7.6748564    842.86174  0.015862348  0.014655828           56 
 4429000   0.54681126    -7.681118    841.22377  0.015827948  0.014651235           44 
 4430000   0.54281412   -7.6680374    842.16691  0.015842116  0.014646644           25 
 4431000   0.53447766   -7.6680243    843.44523  0.015862582  0.014642054           41 
 4432000   0.53420887   -7.6789852    843.62721  0.015862425  0.014637465           76 
 4433000    0.5524031   -7.6685686    842.13238  0.015830746  0.014632881           46 
 4434000   0.54401498   -7.6708171    841.27993  0.015811155  0.014628297           35 
 4435000   0.53970895   -7.6787743    841.92921   0.01581979  0.014623719           50 
 4436000   0.54044077   -7.6865319    841.50851   0.01580832  0.014619127           44 
 4437000   0.52891275   -7.6643966    841.51897  0.015804954  0.014614546           35 
 4438000   0.52398645   -7.6609281    842.67327  0.015823067   0.01460997           60 
 4439000    0.5388579   -7.6670167    842.71469   0.01582028  0.014605396           50 
 4440000    0.5387827   -7.6678045    840.96464  0.015783871   0.01460082           68 
 4441000   0.55501211   -7.6677788    841.20089   0.01578475  0.014596245           53 
 4442000   0.54998246   -7.6721683    842.65249  0.015808429  0.014591674           55 
 4443000   0.54720109   -7.6721796    842.64924   0.01580481    0.0145871           41 
 4444000   0.53608886   -7.6702181    841.66128  0.015782727  0.014582529           35 
 4445000    0.5384677   -7.6770597    843.27598  0.015809448   0.01457796           37 
 4446000   0.54063498    -7.666112    843.13589  0.015803267   0.01457339           75 
 4447000   0.53762763   -7.6694957    843.22309  0.015801347   0.01456883           65 
 4448000   0.54896145   -7.6763218    841.24509  0.015760737  0.014564267           43 
 4449000   0.53799592   -7.6670637    840.97418   0.01575212  0.014559703           52 
 4450000   0.54930397   -7.6674427    841.86447  0.015765252  0.014555136           42 
 4451000   0.53276491   -7.6562139     842.1054  0.015766221  0.014550571           50 
 4452000   0.52946799   -7.6858256    842.25129   0.01576541   0.01454601           50 
 4453000   0.54604967   -7.6809374    842.59229  0.015768252  0.014541453           45 
 4454000   0.53645935   -7.6680894    842.38401  0.015760814  0.014536891           56 
 4455000   0.52837678   -7.6722862    842.22822  0.015754362  0.014532333           74 
 4456000   0.54684337   -7.6797422    840.88277  0.015725665  0.014527777           40 
 4457000   0.54131987   -7.6935641    842.47817  0.015751966  0.014523228           59 
 4458000   0.53964735   -7.6723063    842.99902  0.015758169  0.014518678           61 
 4459000    0.5464767   -7.6903377    842.51841  0.015745653  0.014514135           53 
 4460000    0.5442409   -7.6908106    842.61601  0.015743946  0.014509583           38 
 4461000   0.54493436   -7.6689912    842.26997  0.015733953  0.014505035           72 
 4462000   0.53550349   -7.6829966    840.25909  0.015692871  0.014500489           87 
 4463000   0.53078212   -7.6889526    841.75345  0.015717258  0.014495947           52 
 4464000    0.5327819   -7.6749147    841.30025  0.015705276  0.014491405           33 
 4465000   0.53786675   -7.6957495    841.79035  0.015710906  0.014486863           76 
 4466000   0.53427078   -7.6943312    842.88167  0.015727752  0.014482322           41 
 4467000   0.53253734   -7.6660088    842.79714  0.015722654  0.014477784           34 
 4468000   0.54246871   -7.6953779    841.46113  0.015694217  0.014473246           90 
 4469000   0.53229325    -7.681992    842.42116  0.015708607  0.014468715           45 
 4470000   0.53821588   -7.7023604    842.55851  0.015707653  0.014464179           55 
 4471000   0.53633225   -7.6834233    840.56921  0.015667062  0.014459651           90 
 4472000    0.5306473   -7.6711244    841.24356  0.015676125  0.014455119           46 
 4473000   0.52898775    -7.680624    841.71428   0.01568139  0.014450584           44 
 4474000    0.5334511   -7.6876616    840.66718  0.015658381  0.014446051           69 
 4475000   0.54780201   -7.6731597    842.03493  0.015680353  0.014441523           65 
 4476000   0.54242299   -7.7189602    841.78348  0.015672168  0.014436991           48 
 4477000   0.52740874   -7.6695285    841.77519  0.015668513  0.014432463           72 
 4478000   0.54149577   -7.7035283    842.01506  0.015669478  0.014427939           84 
 4479000   0.52541039   -7.6720401    840.13883  0.015631071  0.014423412           58 
 4480000   0.53804874   -7.6987387    842.50365  0.015671571  0.014418886           48 
 4481000   0.52840826   -7.7070441     841.0946  0.015641869  0.014414361           38 
 4482000   0.54060616   -7.6831773    842.63918  0.015667098  0.014409839           71 
 4483000   0.53394479   -7.6917807    841.76799  0.015647409  0.014405318           56 
 4484000   0.54022545   -7.6920067    841.86455  0.015645713    0.0144008           94 
 4485000   0.53391087   -7.6958186    842.48669  0.015653785  0.014396287           74 
 4486000   0.52533719   -7.6789447    840.42546  0.015612005  0.014391781           81 
 4487000   0.53376782    -7.697464    841.07051  0.015620506  0.014387271          101 
 4488000   0.53415027   -7.6938511    841.64849  0.015627757  0.014382769           83 
 4489000   0.54259489   -7.6824157    842.41303  0.015638469  0.014378263           49 
 4490000   0.53448876   -7.7060971    841.80827  0.015623762  0.014373758           82 
 4491000   0.52851268   -7.6985317    841.17781  0.015608584  0.014369251           67 
 4492000   0.52925562   -7.6837842    842.06923  0.015621646  0.014364747           73 
 4493000   0.54615761    -7.693534    841.60018   0.01560947  0.014360242           57 
 4494000   0.54000067   -7.6879152    840.81885  0.015591508  0.014355742           84 
 4495000   0.53131826   -7.7079963    842.01624  0.015610238  0.014351241          153 
 4496000   0.53346268   -7.6977653     841.4059  0.015595453  0.014346745           74 
 4497000   0.53184786   -7.6827147    842.27312  0.015608056  0.014342247          152 
 4498000   0.53896857   -7.7008187    843.23546  0.015622415  0.014337753           74 
 4499000   0.53891075   -7.6996383    840.81109  0.015574037  0.014333254           93 
 4500000   0.52381506   -7.7036159    841.58793  0.015584962  0.014328762           54 
 4501000    0.5246036   -7.6862495    839.93073  0.015550817  0.014324272          121 
 4502000   0.52747867   -7.6968838    841.21546  0.015571143  0.014319781          136 
 4503000    0.5314959   -7.6802748    840.86079  0.015561122  0.014315298          122 
 4504000   0.53224609   -7.7034312    841.60631  0.015571461  0.014310806           45 
 4505000    0.5282181   -7.6903192    840.48521  0.015547266  0.014306322           77 
 4506000   0.53530243    -7.703172    841.47209  0.015562067  0.014301841           67 
 4507000   0.51929274   -7.6861624    841.39718  0.015557229  0.014297356          121 
 4508000   0.52109538     -7.68693    840.87293  0.015544087  0.014292871           57 
 4509000   0.53912534   -7.7034853    840.60209  0.015535634  0.014288387           97 
 4510000    0.5235236   -7.7041397    841.00595  0.015539652  0.014283907           75 
 4511000   0.53025945    -7.698845    839.69777   0.01551204  0.014279433           79 
 4512000   0.53581658    -7.700563    841.03552   0.01553331  0.014274958           75 
 4513000   0.53976783   -7.6924844    840.73108  0.015524246  0.014270483          101 
 4514000   0.53388118   -7.7109848    841.28815  0.015531091   0.01426601           59 
 4515000   0.52723595   -7.6941839    840.85655  0.015519685  0.014261537          101 
 4516000    0.5284658   -7.7017579    843.45914  0.015564274  0.014257069          178 
 4517000   0.53501302   -7.6932931    840.23169  0.015501286  0.014252604           67 
 4518000   0.52851365   -7.7057142    841.66042  0.015524207  0.014248139          105 
 4519000   0.53396859   -7.7043833    840.72747  0.015503568  0.014243674           77 
 4520000   0.52530268   -7.6903557    840.51972  0.015496308  0.014239211           83 
 4521000   0.53061187     -7.68943    840.37186  0.015490154  0.014234747           49 
 4522000   0.53997924   -7.7128438    841.50697  0.015507647  0.014230288          109 
 4523000   0.52412881   -7.7112727    841.24692  0.015499427  0.014225829           81 
 4524000   0.52190429   -7.6814534      840.697  0.015485872  0.014221377           61 
 4525000   0.52748485   -7.7064553    840.97246  0.015487522  0.014216922           95 
 4526000   0.52526625   -7.6974196    840.77471  0.015480459   0.01421247          186 
 4527000   0.52800585   -7.7057618    841.34876  0.015487607  0.014208018           97 
 4528000    0.5243786   -7.7007772    842.67229  0.015508545   0.01420357           99 
 4529000   0.52564769   -7.7182035    840.11648  0.015458094  0.014199122           67 
 4530000   0.53421058   -7.7023335    840.20102  0.015456237  0.014194675           88 
 4531000   0.52023162   -7.7031784    842.05676  0.015486956  0.014190229          119 
 4532000   0.52553579   -7.7030571    841.77106  0.015478285  0.014185779           88 
 4533000   0.52781774   -7.6934002    841.09074  0.015462364  0.014181335          107 
 4534000    0.5351247   -7.7095945    840.70211  0.015451811  0.014176894          103 
 4535000    0.5191431   -7.6951328    841.86263  0.015469729  0.014172456           65 
 4536000   0.53281975   -7.7061796    842.13571  0.015471335  0.014168021          115 
 4537000   0.51992536   -7.7019663    842.07435  0.015466798  0.014163584           86 
 4538000   0.52154503   -7.7107629     841.4185  0.015451346  0.014159152          106 
 4539000   0.52156415   -7.6971096    840.73423  0.015435379  0.014154723           94 
 4540000   0.52510129   -7.6805943    841.39146  0.015444043  0.014150298           86 
 4541000   0.50949054   -7.7102733    840.93288  0.015432226   0.01414587           95 
 4542000   0.52336741    -7.710878    841.88754  0.015446344  0.014141446          113 
 4543000   0.52060411   -7.7033697    841.03135  0.015427239  0.014137027           78 
 4544000   0.52545297   -7.7137659    840.75157  0.015418713  0.014132604           63 
 4545000   0.52579707    -7.699685    841.56185  0.015430177  0.014128188          195 
 4546000   0.52553889   -7.7086492    840.87346  0.015414164   0.01412377          108 
 4547000   0.51818583    -7.710455    841.56931  0.015423527  0.014119352           96 
 4548000   0.53177431   -7.6766288    839.74874  0.015386777  0.014114933          106 
 4549000   0.53159401   -7.7067135    841.56511  0.015416669  0.014110521           88 
 4550000   0.52809398   -7.7008362     840.6228  0.015396022  0.014106104           89 
 4551000   0.52310691   -7.7162844    840.89528  0.015397628  0.014101692           90 
 4552000   0.51833735   -7.6994939    840.23552  0.015382168  0.014097275           93 
 4553000   0.51924807   -7.7153911    842.29741  0.015416528  0.014092867           94 
 4554000   0.53057004   -7.6956931    839.43197  0.015360708  0.014088453           71 
 4555000   0.52151028   -7.7062781    841.44242  0.015394117  0.014084043           89 
 4556000   0.53973863    -7.711169    839.69141   0.01535871  0.014079633          100 
 4557000   0.53509019   -7.6896685    841.74603  0.015392913  0.014075228          146 
 4558000   0.52865509   -7.7105461    841.95875  0.015393424  0.014070827           79 
 4559000   0.52292955   -7.7107587     841.7908  0.015386978  0.014066424           92 
 4560000   0.51449398   -7.7008826    841.69416  0.015381838  0.014062029           64 
 4561000   0.52614598   -7.7063164    841.48271  0.015374602  0.014057632           88 
 4562000   0.51661481   -7.7013009    839.73928  0.015339385  0.014053233          119 
 4563000   0.51948622   -7.7181059    841.91449  0.015375749  0.014048839           93 
 4564000   0.51507943   -7.6983482    840.15092  0.015340179  0.014044449          154 
 4565000   0.52055942   -7.7128751    840.31777  0.015339864   0.01404006          123 
 4566000   0.52934997   -7.7207627    841.44628  0.015357101  0.014035672           94 
 4567000   0.51148643   -7.6848414    840.55619  0.015337497   0.01403128           76 
 4568000   0.52447169   -7.7077681    840.03329    0.0153246   0.01402689          111 
 4569000   0.52540295   -7.7172436    840.74685  0.015334261  0.014022495          102 
 4570000    0.4982089   -7.7129202    840.61447  0.015328491  0.014018104           84 
 4571000   0.52086719   -7.7116315    840.86634   0.01532973  0.014013712          100 
 4572000   0.51894075   -7.7234428    841.16598  0.015331838  0.014009324           51 
 4573000   0.51061126   -7.7043872    838.84301  0.015286154  0.014004939           72 
 4574000   0.51964163    -7.726906    840.81544  0.015318748  0.014000555           78 
 4575000   0.52988185   -7.7133883    839.32381   0.01528823  0.013996177          124 
 4576000   0.51079431   -7.7035375    839.74696  0.015292595  0.013991796           58 
 4577000   0.51240099    -7.705502    840.77023  0.015307884  0.013987421           79 
 4578000   0.52382483   -7.7190521    840.99506  0.015308633  0.013983045          159 
 4579000   0.52687258   -7.7131837    841.13452  0.015307828  0.013978669           90 
 4580000    0.5156031   -7.7095816    841.43414  0.015309937  0.013974294           71 
 4581000   0.52533086   -7.7028622    839.65053  0.015274149  0.013969921          100 
 4582000   0.52557695   -7.7249174    839.77924  0.015273156  0.013965548          125 
 4583000   0.52360906   -7.7074508    840.81337  0.015288628  0.013961175           95 
 4584000   0.51629856   -7.7280979    840.87967  0.015286498  0.013956806          146 
 4585000   0.51519495   -7.7075452    840.54569  0.015277094   0.01395244           80 
 4586000   0.52133124   -7.7117252    839.80064  0.015260224  0.013948075          104 
 4587000   0.51894604   -7.7162206    840.82309  0.015275472  0.013943711           81 
 4588000   0.51629508    -7.697304    839.25094  0.015243587  0.013939348          104 
 4589000   0.50398654   -7.7257524    839.58051   0.01524625  0.013934986           91 
 4590000   0.51334834   -7.7009453    840.93835  0.015267581  0.013930628           60 
 4591000   0.51252666   -7.6857186    840.45935  0.015255561  0.013926274           76 
 4592000   0.51492919    -7.717224    839.27208  0.015230693  0.013921917           92 
 4593000   0.52898375   -7.7095203    839.84928  0.015237849  0.013917558           71 
 4594000   0.51744227   -7.7289189    841.48775  0.015264253  0.013913206          107 
 4595000   0.51895406   -7.7214475     840.6031  0.015244888  0.013908854           99 
 4596000   0.50651904   -7.7249173    839.15773  0.015215364    0.0139045           61 
 4597000   0.51843903   -7.7366891    840.68637  0.015239765  0.013900146          155 
 4598000   0.52384522   -7.7132009    839.03864  0.015206587    0.0138958           52 
 4599000   0.53514432    -7.712156    840.00038  0.015220707  0.013891457           72 
 4600000   0.52579762   -7.7362292    841.35287    0.0152419  0.013887114           92 
 4601000   0.51017469   -7.7073877    839.88291  0.015211963  0.013882769           52 
 4602000   0.51645151   -7.7313212    841.09335  0.015230576   0.01387843           64 
 4603000   0.52172023    -7.715669    840.43324  0.015215317  0.013874094           72 
 4604000   0.51164268    -7.711188    840.06089  0.015205272  0.013869752           63 
 4605000   0.52177208   -7.7355215    839.53305  0.015192419  0.013865414           96 
 4606000   0.52300747   -7.7263024    840.87665  0.015213429   0.01386108           60 
 4607000   0.51585579   -7.7275276    841.26701  0.015217188  0.013856745           87 
 4608000   0.51984332   -7.7181108    840.38245  0.015197889  0.013852409          144 
 4609000   0.51729068   -7.7077629    839.26741  0.015174431  0.013848071           81 
 4610000   0.51864057   -7.7073459    840.41109  0.015191813  0.013843738           75 
 4611000   0.51581743   -7.7255596    839.84741  0.015178331   0.01383941          111 
 4612000   0.51928095   -7.7069507    840.09652  0.015179541   0.01383508          103 
 4613000   0.51263075   -7.7172523    839.72714  0.015169578  0.013830753           94 
 4614000   0.52050683   -7.7038284    840.65697  0.015183084  0.013826429           88 
 4615000   0.50936561   -7.7367557    839.97514  0.015167482  0.013822102           94 
 4616000   0.52434229   -7.7193511     841.0415  0.015183447  0.013817778           62 
 4617000   0.51449842   -7.7302668     839.4052  0.015150625  0.013813459           67 
 4618000   0.51307422   -7.7094102    839.95709  0.015157303  0.013809142          102 
 4619000   0.52295625   -7.6966231    838.03733  0.015119386  0.013804822          118 
 4620000    0.5044592   -7.7203936    839.75086  0.015147021  0.013800506          132 
 4621000   0.51574098   -7.7113054    840.01086  0.015148432  0.013796187          121 
 4622000    0.5135196   -7.7080278     840.4509  0.015153088  0.013791871          116 
 4623000   0.50324078   -7.7320392    839.76171  0.015137388  0.013787556          109 
 4624000   0.51761741   -7.7173855    840.49746  0.015147373  0.013783246          131 
 4625000     0.510488   -7.7296894     840.8881  0.015151137  0.013778934          110 
 4626000   0.51148946   -7.7056923    839.41389  0.015121305   0.01377463          128 
 4627000   0.51506811   -7.7236076    840.87148  0.015144289  0.013770326           93 
 4628000   0.52378888   -7.7136485    840.08614  0.015126875   0.01376602          112 
 4629000   0.52961796   -7.7248664     840.8364  0.015137114  0.013761718           64 
 4630000   0.51661204   -7.7163578    839.09156   0.01510244  0.013757414           61 
 4631000   0.50740236   -7.7318784    838.30994  0.015085114  0.013753113          139 
 4632000    0.5126253   -7.7128685    839.22394  0.015098301  0.013748811          102 
 4633000   0.52498755   -7.7435156    840.75518  0.015122584  0.013744512          138 
 4634000   0.51122746   -7.7319371    841.07476  0.015125068  0.013740214           96 
 4635000   0.51281043   -7.7203449     840.5722  0.015112769  0.013735915          114 
 4636000   0.51535397   -7.7143845    839.94974   0.01509832   0.01373162          134 
 4637000   0.51055517   -7.7274003    840.55169  0.015105882  0.013727329          131 
 4638000   0.50435758   -7.7197269     839.4495  0.015082821  0.013723036          106 
 4639000   0.51080831   -7.7416314    837.98293  0.015053225  0.013718747           93 
 4640000    0.5072448   -7.7271548    839.42737  0.015075923  0.013714459           89 
 4641000   0.50964787   -7.7177099    840.06749  0.015084168  0.013710168           83 
 4642000   0.51436073   -7.7266286    840.07821  0.015081111  0.013705884          121 
 4643000   0.51658216   -7.7208703    841.25908  0.015099057  0.013701603           72 
 4644000   0.50232763   -7.7349968    839.86572  0.015070803  0.013697314           85 
 4645000   0.49227611    -7.726801    839.72644   0.01506506  0.013693033           76 
 4646000   0.50382786   -7.7180101    840.07445  0.015068059  0.013688747           96 
 4647000    0.5068257   -7.7429306    839.21599  0.015049422  0.013684465          139 
 4648000   0.51415318   -7.7396784    839.77398  0.015056189  0.013680188           74 
 4649000    0.5171906   -7.7329693    840.42335   0.01506459   0.01367591           95 
 4650000   0.51725147    -7.715256    839.21244  0.015039649   0.01367164          127 
 4651000   0.49422009    -7.711427    839.33173  0.015038553   0.01366737           96 
 4652000   0.51851796   -7.7381599      839.886  0.015045249  0.013663099          110 
 4653000   0.50757875   -7.7312153    839.35687  0.015032539  0.013658827           92 
 4654000   0.50555312   -7.7329745    840.18808  0.015044193  0.013654551          108 
 4655000   0.51001577   -7.7041191    839.21657  0.015023569  0.013650281           89 
 4656000   0.50587136   -7.7324648    839.35575  0.015022833  0.013646015           75 
 4657000   0.50568583    -7.730299    839.85133  0.015028476  0.013641752          111 
 4658000   0.50310361   -7.7291841    840.09828  0.015029667  0.013637489           88 
 4659000   0.50589011   -7.7348331    840.49669  0.015033567  0.013633228           77 
 4660000   0.49660881   -7.7191362    838.77353  0.014999527  0.013628965           75 
 4661000   0.51236181   -7.7324169     840.4287  0.015025901  0.013624706          167 
 4662000   0.50206454    -7.731748    839.23609   0.01500136  0.013620448           98 
 4663000   0.50892815   -7.7387972    840.01918  0.015012138   0.01361619           82 
 4664000    0.5036436   -7.7297745    839.33728  0.014996735  0.013611934           86 
 4665000   0.51369925    -7.737334    839.85167  0.015002709  0.013607679           75 
 4666000   0.50747785   -7.7318367    840.14913  0.015004807  0.013603425           55 
 4667000    0.4941236   -7.7436801    839.46681  0.014989408  0.013599172           67 
 4668000   0.49654825   -7.7396162    840.85167   0.01501092  0.013594923           55 
 4669000    0.4975258    -7.742686    839.05771  0.014975686  0.013590673           60 
 4670000   0.52088078   -7.7457353    839.73401  0.014984547  0.013586429           66 
 4671000   0.50731461   -7.7289621    839.05015  0.014969138  0.013582184           66 
 4672000   0.50290739   -7.7363649    837.64767  0.014940919  0.013577939           92 
 4673000    0.5174308   -7.7464723    839.47593  0.014970325  0.013573695           64 
 4674000   0.50856309   -7.7245175    838.22965  0.014944902  0.013569453           94 
 4675000   0.50133673   -7.7363723    840.60338  0.014984017  0.013565213           82 
 4676000   0.51010658   -7.7295701    839.06107  0.014953327  0.013560976          152 
 4677000   0.51242378   -7.7354879    838.69423  0.014943593  0.013556739           60 
 4678000   0.50307692   -7.7136641    838.84358  0.014943059  0.013552501           73 
 4679000   0.50035589   -7.7535499    839.46744  0.014950977  0.013548268           95 
 4680000   0.49219937   -7.7147992    839.04522  0.014940264  0.013544031           98 
 4681000   0.51284823   -7.7447122    840.08801  0.014955636    0.0135398          110 
 4682000   0.50064886   -7.7429662    839.08027  0.014934506  0.013535572           93 
 4683000   0.50663437   -7.7408496    839.98142  0.014947353  0.013531345          150 
 4684000   0.51231413   -7.7494706    838.71787  0.014921681  0.013527118           63 
 4685000    0.5023635   -7.7497344    839.76724  0.014937162  0.013522893          150 
 4686000   0.50425484   -7.7433451    839.68354  0.014932486  0.013518669           84 
 4687000   0.50628059   -7.7342618    839.19158  0.014920553  0.013514454           74 
 4688000   0.51037802   -7.7470446    839.08496  0.014915475  0.013510237           87 
 4689000   0.51031562   -7.7528991    841.16819  0.014949317  0.013506023          191 
 4690000   0.50081281   -7.7416193    839.26494  0.014912312  0.013501808           97 
 4691000   0.51067138   -7.7409562     839.3217  0.014910142  0.013497591           99 
 4692000   0.50695944   -7.7249466    839.56773  0.014911334  0.013493379           80 
 4693000   0.48873011   -7.7509705     840.5816   0.01492616  0.013489167           63 
 4694000   0.48304452   -7.7558381    839.66038  0.014906625  0.013484951          149 
 4695000   0.51061794   -7.7365042     839.2642  0.014896418  0.013480742           79 
 4696000   0.50514818   -7.7215152    838.82028  0.014885368  0.013476535           80 
 4697000   0.50339562   -7.7474533    839.33128  0.014891265  0.013472332           92 
 4698000   0.49197925   -7.7439289    838.36757  0.014871001  0.013468127           97 
 4699000   0.50482098   -7.7354643    839.49431  0.014887819  0.013463924           89 
 4700000   0.49996918   -7.7430867    837.61418  0.014851315  0.013459721          131 
 4701000   0.49928103   -7.7504255    839.35748  0.014879059   0.01345552          139 
 4702000   0.50914364   -7.7537358    839.86769  0.014884937  0.013451318           84 
 4703000   0.50490147   -7.7556811    840.11072  0.014886078  0.013447119          107 
 4704000    0.5011381   -7.7353635    839.92886  0.014879692  0.013442916           91 
 4705000   0.49676436   -7.7242496    837.89932  0.014840583  0.013438716           73 
 4706000   0.49999121   -7.7414389    838.90208  0.014855186  0.013434517           87 
 4707000    0.4965446    -7.737993    838.74577  0.014849263  0.013430326           73 
 4708000      0.49339   -7.7440125    838.77368  0.014846603  0.013426129          109 
 4709000   0.49853421   -7.7559377    840.20853  0.014868842  0.013421936          122 
 4710000   0.50011301   -7.7430804    838.42503   0.01483413  0.013417743           79 
 4711000   0.49358181   -7.7371335    838.81021  0.014837795  0.013413558           93 
 4712000   0.50079963   -7.7659738    838.66533  0.014832083   0.01340937          122 
 4713000   0.49926629   -7.7369272    839.33484  0.014840775   0.01340518           69 
 4714000   0.49741017   -7.7378418    838.02095  0.014814399  0.013400994          144 
 4715000   0.49879485   -7.7384533     838.9136  0.014827034  0.013396811           97 
 4716000   0.49790218   -7.7363212    838.91943  0.014823993   0.01339263          102 
 4717000   0.50599164   -7.7539296     838.6687  0.014816421  0.013388449           88 
 4718000    0.4891122   -7.7547207    839.45632  0.014827192  0.013384271           69 
 4719000   0.50019257   -7.7552261     837.9612  0.014797648  0.013380097           93 
 4720000   0.50361036   -7.7465479    838.98179  0.014812532  0.013375922           91 
 4721000   0.49954872   -7.7552556    839.13849   0.01481216  0.013371746           91 
 4722000   0.50251853   -7.7410375    838.64524  0.014800318  0.013367573          107 
 4723000   0.50576484    -7.748162    838.73202  0.014798716  0.013363399           98 
 4724000   0.50301323   -7.7500833    839.89993  0.014816186  0.013359231           75 
 4725000   0.50494491    -7.751858    838.58534  0.014789865  0.013355066          108 
 4726000   0.49581229   -7.7347145    839.41374  0.014801343  0.013350899           87 
 4727000    0.4907562   -7.7408225    839.00785  0.014791056  0.013346737          113 
 4728000   0.49195856    -7.747661    839.29974  0.014793072  0.013342574           82 
 4729000   0.49006022   -7.7698305    840.75846  0.014815649  0.013338412           97 
 4730000   0.49244792   -7.7535296    838.46549  0.014772119  0.013334254           69 
 4731000   0.47957789    -7.751744    838.35304  0.014767016    0.0133301          108 
 4732000   0.49129391   -7.7342166    840.30109  0.014798202  0.013325949           87 
 4733000   0.50329973   -7.7555611    839.65883  0.014783767  0.013321797           89 
 4734000   0.49674239   -7.7566668    838.90946  0.014767453  0.013317643           78 
 4735000   0.49631911   -7.7497015    837.29163  0.014735861  0.013313495          125 
 4736000   0.50327637   -7.7610106    838.18238  0.014748423  0.013309341          108 
 4737000   0.49956935   -7.7535053    839.32273  0.014765371  0.013305194           97 
 4738000   0.48627385   -7.7690084    838.77142  0.014752558  0.013301042          123 
 4739000   0.48565617   -7.7465188    838.17145  0.014738894  0.013296894           93 
 4740000   0.49650776    -7.761682    837.99822  0.014732739  0.013292747          131 
 4741000   0.48547066   -7.7627927    839.39391  0.014754164  0.013288602          176 
 4742000   0.50668084   -7.7369206    839.23485  0.014748258  0.013284461          120 
 4743000   0.49878191   -7.7659874    839.38853  0.014747848  0.013280324          140 
 4744000    0.4929608   -7.7544924    838.08933  0.014721918  0.013276187          117 
 4745000   0.48559868   -7.7577425    838.99906  0.014734792   0.01327205          160 
 4746000   0.48537691   -7.7517565    838.99919   0.01473169  0.013267915          120 
 4747000   0.48042567   -7.7564706     837.5557  0.014703246  0.013263782           83 
 4748000    0.4981757    -7.747833    837.65824  0.014701949  0.013259649          130 
 4749000    0.4903796   -7.7629845    840.02948  0.014740463  0.013255518          166 
 4750000   0.49223488   -7.7473147    837.94479  0.014700786  0.013251389           96 
 4751000   0.48995005   -7.7660468       837.85  0.014696029  0.013247259           98 
 4752000   0.48163893   -7.7774137    839.40087  0.014720133  0.013243131          129 
 4753000    0.4917898   -7.7482784    839.51381  0.014719016  0.013239006           83 
 4754000   0.47745962   -7.7588765    839.28494  0.014711908  0.013234885           99 
 4755000    0.4971214   -7.7629877    839.22367  0.014707741  0.013230758           82 
 4756000   0.48457749   -7.7509473    838.72185  0.014695855  0.013226634           91 
 4757000   0.48547795    -7.756714    838.85957  0.014695179  0.013222514          147 
 4758000   0.49422604   -7.7522824    838.72724  0.014689772  0.013218394           56 
 4759000   0.48510708   -7.7549504    837.55011  0.014666073  0.013214283          111 
 4760000   0.48288525   -7.7672474    837.87399  0.014668662  0.013210168          100 
 4761000   0.48590497   -7.7708275    839.47612  0.014693624  0.013206055           76 
 4762000   0.48858228   -7.7563888    839.19851   0.01468568  0.013201941          107 
 4763000   0.48576291   -7.7487435     838.6084  0.014672272  0.013197828           95 
 4764000    0.4838239   -7.7309466    838.71833  0.014671115   0.01319372          111 
 4765000   0.47738388   -7.7628996    838.80599   0.01466957  0.013189614           97 
 4766000   0.48527081    -7.774551    838.11447    0.0146544  0.013185509          100 
 4767000   0.49234047    -7.762013    838.65058  0.014660698  0.013181406          117 
 4768000    0.5030978   -7.7693133    838.86672  0.014661401  0.013177301          111 
 4769000   0.50223594   -7.7867866    837.88025  0.014641089  0.013173197          152 
 4770000   0.49131503   -7.7591035    838.27274  0.014644877  0.013169096           88 
 4771000   0.49126183   -7.7719228    837.85833  0.014634569  0.013164994          138 
 4772000   0.48844305   -7.7667701    837.69611  0.014628669  0.013160896           88 
 4773000   0.49386487   -7.7626801    839.13555  0.014650736  0.013156798           98 
 4774000   0.48494604    -7.775931    837.49833  0.014619088  0.013152703           87 
 4775000   0.48606942   -7.7777115    838.00936  0.014624945  0.013148605          107 
 4776000   0.49880428   -7.7582281    839.63031  0.014650166  0.013144515           93 
 4777000   0.48855617   -7.7728645    839.18284  0.014639293  0.013140427          148 
 4778000   0.48800574     -7.75655    839.00517   0.01463313  0.013136336          167 
 4779000   0.49556752     -7.76659    839.06426  0.014631099  0.013132252           72 
 4780000    0.4942549    -7.788279    838.43185  0.014617013  0.013128165          120 
 4781000   0.48049444   -7.7743961    839.92129  0.014639916  0.013124081          145 
 4782000   0.48556078   -7.7698473    838.47108  0.014611583  0.013119995           87 
 4783000   0.48647242   -7.7605179    838.11878   0.01460239  0.013115914          100 
 4784000   0.47836845   -7.7612039    838.04513  0.014598055  0.013111835           73 
 4785000   0.48142132   -7.7654602    837.39513  0.014583684  0.013107755           96 
 4786000   0.48097617   -7.7634605    837.58707  0.014583979  0.013103678           90 
 4787000   0.47934139   -7.7657874    837.43973  0.014578367  0.013099603           91 
 4788000   0.49050649   -7.7827159    838.65166  0.014596416  0.013095528          110 
 4789000   0.48019107    -7.759288    838.80559  0.014596046  0.013091453           58 
 4790000   0.48480504   -7.7782874     837.8434  0.014576259  0.013087381          113 
 4791000   0.47982039   -7.7723443    837.74711  0.014571542  0.013083312           73 
 4792000   0.47703669   -7.7838727      838.993  0.014590168  0.013079242          114 
 4793000   0.48139557   -7.7676805    837.64278  0.014563648  0.013075176           96 
 4794000   0.49460251   -7.7767815     838.2879  0.014571824  0.013071112           80 
 4795000   0.49034125   -7.7905911    838.03121  0.014564324  0.013067048           93 
 4796000   0.48211494   -7.7705639    838.07345  0.014562021  0.013062987          128 
 4797000   0.48736906   -7.7682229    837.63553  0.014551378  0.013058927          150 
 4798000   0.49000266   -7.7543236    837.27736  0.014542124  0.013054867           82 
 4799000   0.49154047    -7.769762    838.08124  0.014553053  0.013050811           98 
 4800000   0.48288739   -7.7660564    838.09277  0.014550222  0.013046754           65 
 4801000   0.48410901   -7.7727487    837.33862  0.014534101  0.013042701           94 
 4802000   0.48664396   -7.7593132    837.01826  0.014525515  0.013038651           72 
 4803000   0.47791407   -7.7562753    838.19263  0.014542866  0.013034598          162 
 4804000   0.47412668   -7.7756081    837.71477   0.01453155   0.01303055          122 
 4805000   0.48751239   -7.7669195    837.15935  0.014518893  0.013026503           74 
 4806000   0.47709632   -7.7799583    838.12658  0.014532643  0.013022457          115 
 4807000    0.4908024   -7.7755731    838.02162    0.0145278  0.013018411          132 
 4808000    0.4800133   -7.7552739    837.97214  0.014523921  0.013014366          119 
 4809000   0.48433273   -7.7734557    839.07205  0.014539961  0.013010323           81 
 4810000    0.4716918   -7.7855314    839.35833  0.014541898  0.013006282           72 
 4811000   0.47923718   -7.7666524    837.31571  0.014503494  0.013002245           84 
 4812000   0.47650739   -7.7892425    837.04782  0.014495841  0.012998205          155 
 4813000    0.4892333   -7.7715277    838.52117  0.014518339  0.012994167          110 
 4814000   0.48004186   -7.7657891    838.24095  0.014510472  0.012990133          110 
 4815000   0.47702572   -7.7552634    837.80435  0.014499902  0.012986099          109 
 4816000   0.49003039   -7.7889376    838.47591  0.014508512  0.012982067           51 
 4817000   0.48425121   -7.7688706    837.26364  0.014484528  0.012978039          143 
 4818000   0.47775357   -7.7683626    838.27742  0.014499056  0.012974012          142 
 4819000   0.48504843   -7.7716539    838.55034  0.014500767  0.012969986          110 
 4820000   0.48284767   -7.7934195    837.96484  0.014487636  0.012965963           98 
 4821000   0.48418661   -7.7894587     840.4134  0.014526955   0.01296194          109 
 4822000   0.47968654   -7.7829056     836.8784  0.014462851  0.012957921          124 
 4823000   0.48713317   -7.8067047    838.75331  0.014492247  0.012953898          118 
 4824000   0.46421776   -7.7525546    837.96008   0.01447554  0.012949879          136 
 4825000   0.47968198   -7.7780642    837.27463  0.014460702  0.012945862           79 
 4826000   0.46952433   -7.7759055    837.89353  0.014468392  0.012941849          176 
 4827000   0.47355215   -7.7798987    838.12733  0.014469431  0.012937836          122 
 4828000   0.47135302   -7.7878606     839.2375  0.014485596  0.012933823          151 
 4829000   0.47605017   -7.7675196    837.70218  0.014456102  0.012929811          122 
 4830000    0.4868322    -7.778751    837.36725   0.01444733  0.012925799          101 
 4831000   0.48098947   -7.7829602    838.43411  0.014462743  0.012921787           62 
 4832000   0.48169677   -7.7861152    837.04082  0.014435721  0.012917776           96 
 4833000   0.47998623   -7.7619375    837.85782  0.014446821  0.012913772           97 
 4834000   0.47069147   -7.7702085    837.37808  0.014435562  0.012909767           58 
 4835000   0.47988663   -7.7786703    837.69915   0.01443811  0.012905765          106 
 4836000   0.47672883   -7.7716767    836.87359  0.014420899  0.012901765          107 
 4837000   0.48249682   -7.7773244    836.03788  0.014403519  0.012897767           56 
 4838000   0.46841108   -7.7893155     838.5772  0.014444281  0.012893767           95 
 4839000   0.48910255   -7.7801449    837.62552  0.014424907  0.012889772          162 
 4840000   0.47118161   -7.7938215    837.44211  0.014418769  0.012885777          123 
 4841000   0.47604925   -7.7840109    837.31265  0.014413562   0.01288178          201 
 4842000   0.48783708   -7.7847441    837.06395  0.014406305  0.012877787          107 
 4843000   0.47669577   -7.7790758    837.32524  0.014407826  0.012873796          107 
 4844000   0.48015925   -7.7671026    838.15167  0.014419069  0.012869808           80 
 4845000   0.47816473   -7.7822773    837.71332  0.014408554  0.012865818          215 
 4846000   0.47016922   -7.7810175    838.56347    0.0144202   0.01286183          180 
 4847000   0.47962048    -7.778299    837.78369  0.014403818  0.012857842           84 
 4848000   0.48606338   -7.7756088    837.00655  0.014387489  0.012853856          176 
 4849000   0.47110254   -7.7892065    838.00773  0.014401728  0.012849872          111 
 4850000   0.47331186   -7.7810361    837.83231  0.014395744  0.012845887          109 
 4851000   0.48681985   -7.8020331    837.78712     0.014392  0.012841905          105 
 4852000   0.46927018   -7.7806043    836.81959  0.014372417  0.012837922          126 
 4853000   0.46902677   -7.7750419    837.67005  0.014384059   0.01283394           85 
 4854000   0.47907031   -7.7631107    837.41528  0.014376722  0.012829965          165 
 4855000   0.47405241    -7.777482    838.30517  0.014389035  0.012825991          136 
 4856000   0.47275239   -7.7823483    837.50021  0.014372258  0.012822019          115 
 4857000   0.46482605    -7.782265    838.01045  0.014378053  0.012818047          190 
 4858000   0.47412484   -7.7819239    836.98243  0.014357459  0.012814076          123 
 4859000   0.47820866   -7.7709978    836.97962  0.014354456  0.012810103           92 
 4860000   0.46849848   -7.7968037     836.2929  0.014339727  0.012806135           76 
 4861000   0.47347678    -7.780007    836.36271  0.014337974  0.012802164           99 
 4862000   0.47836015   -7.7931962    837.05029   0.01434681  0.012798202          120 
 4863000   0.47278509   -7.7898618     838.1422  0.014362571   0.01279424          114 
 4864000   0.47864737   -7.7892025    838.52538  0.014366183  0.012790278          106 
 4865000   0.48311753   -7.7862516    837.68445  0.014348826   0.01278632           82 
 4866000   0.47825861   -7.7835097     837.6173  0.014344727   0.01278236          150 
 4867000   0.47809298   -7.7847638    837.94258  0.014347349  0.012778402          103 
 4868000   0.47674199   -7.7818428    837.86326  0.014343044  0.012774445           92 
 4869000   0.48289805   -7.7760866    837.76383  0.014338396  0.012770488          158 
 4870000   0.46920488   -7.7753489    837.94529  0.014338557   0.01276653          140 
 4871000   0.47701016   -7.7810757    836.92837  0.014318216  0.012762571           97 
 4872000   0.47270391   -7.7888012    837.48503  0.014324799  0.012758618           40 
 4873000   0.47047765   -7.7786222    836.63399  0.014307305  0.012754666           99 
 4874000   0.47251759   -7.7877216    836.55667  0.014303048  0.012750719           78 
 4875000    0.4727173   -7.7837678    838.14489  0.014327263  0.012746769          112 
 4876000   0.47102015    -7.787671    837.82143  0.014318797  0.012742819          110 
 4877000   0.46327774    -7.783213    837.79325  0.014315379  0.012738876           95 
 4878000   0.47938355   -7.7799858    837.33631  0.014304638   0.01273493          106 
 4879000   0.46921835   -7.7952863    838.11803  0.014315058  0.012730988           76 
 4880000    0.4675663   -7.7756839    837.19475  0.014296358  0.012727049           38 
 4881000   0.45790357   -7.7901252    837.94708  0.014306274  0.012723107           71 
 4882000   0.47181381   -7.7828411      837.325  0.014292725  0.012719169           62 
 4883000   0.47078244   -7.7994671    837.90859  0.014299758  0.012715231          105 
 4884000   0.46764217   -7.8000835    837.36063   0.01428748  0.012711293           99 
 4885000   0.48010478   -7.7685061    836.20334  0.014264813  0.012707358          100 
 4886000   0.47998729   -7.7870509    838.54664   0.01430186  0.012703427          100 
 4887000    0.4773051   -7.7862989    836.82662  0.014269603  0.012699497          134 
 4888000   0.46979292   -7.7818759    836.14006  0.014254979  0.012695565          104 
 4889000    0.4752471   -7.7877463    837.53293  0.014275805   0.01269164          105 
 4890000   0.45567679   -7.7896705    838.16869   0.01428372  0.012687714          124 
 4891000   0.47129878   -7.7962815    836.87765  0.014258803   0.01268379          129 
 4892000   0.47665845   -7.8001462    836.69089  0.014252707  0.012679865          121 
 4893000   0.47638769   -7.8068169    835.88884  0.014236134   0.01267594          104 
 4894000   0.46215712   -7.7955323    836.42406  0.014242339  0.012672015          109 
 4895000   0.46808908     -7.80237    835.88206  0.014230202  0.012668093          113 
 4896000   0.47176758   -7.7918613    837.44127  0.014253834  0.012664175          124 
 4897000   0.46849512   -7.7858677    836.96334   0.01424279  0.012660258           81 
 4898000   0.46856607   -7.7844483    837.62954  0.014251217  0.012656346           79 
 4899000   0.45665533   -7.7933264    837.80335  0.014251265  0.012652431           94 
 4900000    0.4803945   -7.7918331    838.05357  0.014252612  0.012648517          129 
 4901000   0.46181106   -7.7825885    836.05557  0.014215731  0.012644606          136 
 4902000    0.4666888   -7.8042856    836.54885  0.014221217  0.012640696          143 
 4903000   0.46779421   -7.8049829    837.12897  0.014228176  0.012636788          120 
 4904000   0.46251386   -7.8078025    837.14555  0.014225557   0.01263288           87 
 4905000   0.46202687   -7.8020944    838.28955  0.014242092  0.012628971           75 
 4906000   0.47324245   -7.7973733    836.13865  0.014202654  0.012625065           63 
 4907000   0.47571559   -7.7894719    836.10255  0.014199147  0.012621163          118 
 4908000   0.46678621    -7.796321    837.17273  0.014214424   0.01261726          146 
 4909000   0.46127433   -7.7813791    837.81121  0.014222367  0.012613357           90 
 4910000   0.47310102    -7.790405    837.29912  0.014210779  0.012609458           70 
 4911000   0.46940012   -7.8038109    837.08161  0.014204195  0.012605559           96 
 4912000   0.47247666    -7.813375    837.32561  0.014205443  0.012601663           76 
 4913000   0.47037968   -7.7866385    836.83831  0.014194286  0.012597767           60 
 4914000   0.47707299   -7.8012293    836.29281  0.014182146  0.012593873          100 
 4915000   0.46623406   -7.8014467      836.495  0.014182689   0.01258998          116 
 4916000   0.46374021   -7.7939266    837.38092  0.014194822  0.012586089          106 
 4917000   0.46977738   -7.8122055     836.6178  0.014179001  0.012582199          122 
 4918000   0.46583782   -7.7982578    837.51476  0.014191317   0.01257831          111 
 4919000   0.46708576   -7.8073152    837.12939  0.014181903  0.012574421           87 
 4920000   0.47031528   -7.7941872    837.32545  0.014182342  0.012570536          128 
 4921000   0.46910881    -7.801877    837.68815  0.014185602  0.012566648          126 
 4922000   0.46731052   -7.8011026    836.49866  0.014162581  0.012562763           86 
 4923000   0.46665551   -7.7993937    836.92434  0.014166909  0.012558885           95 
 4924000   0.45955183   -7.8141881    836.21271  0.014151989  0.012555004           86 
 4925000   0.46607041   -7.8030887    836.47995  0.014153637  0.012551126           67 
 4926000   0.45595075   -7.8100624    835.79557  0.014139186  0.012547249           81 
 4927000    0.4594232    -7.799771     836.4889  0.014148043  0.012543375          114 
 4928000   0.47480634   -7.7999837    836.66881  0.014148214  0.012539503           66 
 4929000   0.46083982   -7.7878498    836.11299  0.014135947  0.012535628           83 
 4930000   0.46395655    -7.807008    837.24237   0.01415217  0.012531754           91 
 4931000   0.46765215   -7.8033929    837.14708  0.014147689  0.012527882          112 
 4932000    0.4615436   -7.8065991    835.59333  0.014118568  0.012524012           63 
 4933000   0.46125653   -7.8120816    836.34393  0.014128386  0.012520145          119 
 4934000     0.459716   -7.8001286    836.69691  0.014131484   0.01251628           71 
 4935000    0.4573398   -7.8072354    836.13968  0.014119211  0.012512417          129 
 4936000   0.45884213   -7.8081604    836.37291  0.014120288  0.012508556           96 
 4937000   0.45606513   -7.8003533    835.77584   0.01410735  0.012504691          105 
 4938000   0.46171525   -7.8001302    837.06188  0.014126196   0.01250083           96 
 4939000   0.45194607   -7.8103183    837.42549  0.014129471   0.01249697          111 
 4940000   0.47664731   -7.8236972    836.20299  0.014105988  0.012493114          107 
 4941000   0.46578782   -7.8152513    836.21343   0.01410331  0.012489258          129 
 4942000   0.45972146   -7.7909338    837.77981  0.014126868  0.012485405          107 
 4943000   0.45910991   -7.8108174    836.52743  0.014102897  0.012481551          140 
 4944000   0.46179027   -7.8091891    836.13783  0.014093477  0.012477699           73 
 4945000   0.46014212   -7.8117748    837.02926   0.01410565  0.012473847          120 
 4946000   0.46201996   -7.7949366    836.06233  0.014086506  0.012469995          105 
 4947000   0.46213556    -7.794136    835.70299  0.014077606  0.012466147           98 
 4948000   0.46893175   -7.8202203    837.10473  0.014098368  0.012462297          106 
 4949000   0.46361775   -7.8023721    835.30364  0.014065192  0.012458451          103 
 4950000   0.46947321    -7.793739    837.10209  0.014092628  0.012454607          186 
 4951000   0.45191094   -7.7991324    836.93981   0.01408705  0.012450769           68 
 4952000   0.45899287   -7.8092662    834.80812  0.014048333  0.012446927           92 
 4953000   0.45442297    -7.817959    836.94084  0.014081379  0.012443087          116 
 4954000   0.46173707   -7.7921123    836.48059  0.014070794  0.012439249           95 
 4955000   0.46054548   -7.8220982    836.45426  0.014067512   0.01243541           93 
 4956000   0.45126337    -7.811776    836.69554  0.014068731  0.012431575           68 
 4957000   0.46006523   -7.8052412    837.39673   0.01407768  0.012427737          191 
 4958000   0.45560075   -7.8006847     835.8328  0.014048555  0.012423903          165 
 4959000   0.45291819   -7.8260772    836.44772  0.014056055  0.012420067          125 
 4960000   0.46208482   -7.8063548    835.61068  0.014039158  0.012416234          183 
 4961000   0.46522449    -7.803591    835.97605  0.014042465  0.012412403          168 
 4962000   0.46982632   -7.8122253    835.35992  0.014029288  0.012408574          174 
 4963000    0.4605424   -7.8237777    836.17845  0.014040205  0.012404746           61 
 4964000   0.45797612   -7.8057343     836.7367  0.014046748  0.012400917          196 
 4965000   0.45771719   -7.8077906    836.77942  0.014044636  0.012397094          103 
 4966000   0.46220553    -7.807884    836.36794  0.014034903  0.012393267          128 
 4967000   0.47103754   -7.8124452    836.09072  0.014027426  0.012389445           99 
 4968000   0.46088263   -7.8187383    837.84116  0.014053965  0.012385622          107 
 4969000    0.4511134   -7.8077303    835.07352  0.014004721  0.012381805           77 
 4970000   0.47034577   -7.8208952    836.85364  0.014031751  0.012377985          123 
 4971000   0.46767876   -7.8088494    836.80152  0.014028055  0.012374168          112 
 4972000   0.45914069   -7.8141681    836.25358  0.014016049  0.012370353          117 
 4973000   0.45023648   -7.8124538    836.86091  0.014023408  0.012366537          103 
 4974000   0.45685237   -7.8120749    836.23601  0.014010119  0.012362725           91 
 4975000   0.45187216   -7.8087625    836.35796  0.014009346  0.012358913           74 
 4976000   0.45525849   -7.8081393    836.09086  0.014002058  0.012355103          190 
 4977000    0.4595719   -7.8319616    835.59788   0.01399099  0.012351293          111 
 4978000   0.45186466   -7.8033496    834.37783  0.013967755  0.012347485          178 
 4979000   0.46096767   -7.8269335    835.31257  0.013980595  0.012343681          102 
 4980000   0.45270305   -7.8016364    836.77138  0.014002198  0.012339874          144 
 4981000   0.45679248   -7.8117844    835.53372  0.013978681   0.01233607           67 
 4982000   0.46404462   -7.8207674     836.7384  0.013996026  0.012332269          172 
 4983000   0.45220257   -7.8207118     834.8111  0.013960986  0.012328467          141 
 4984000   0.45040711   -7.8078002     836.9122  0.013993315  0.012324667          145 
 4985000   0.45290228   -7.8095989    836.56179   0.01398465  0.012320868           96 
 4986000   0.44769327   -7.8087404    835.91822  0.013971089  0.012317072          135 
 4987000   0.45338661   -7.8172152    835.03435  0.013953518  0.012313276          149 
 4988000   0.45374628    -7.807357     836.0724  0.013968063  0.012309482          133 
 4989000   0.45117567   -7.8126582    835.55429  0.013956609  0.012305689          107 
 4990000   0.45856394   -7.8226038    834.56969   0.01393737  0.012301897           67 
 4991000   0.45510052    -7.828942    836.03485   0.01395904   0.01229811          155 
 4992000   0.45737749    -7.817473    837.17015  0.013975196  0.012294319           90 
 4993000   0.46176365   -7.8152543    836.05159  0.013953728  0.012290533           90 
 4994000   0.45154514   -7.8094381    835.20936   0.01393688  0.012286748           91 
 4995000   0.45889991   -7.8184192    834.44339  0.013921311  0.012282965          115 
 4996000   0.45369793   -7.8061292    836.47046  0.013952336  0.012279182           71 
 4997000   0.45305356   -7.8117304    836.05099  0.013942549  0.012275401          131 
 4998000   0.45012892   -7.8001555    837.10379  0.013957313  0.012271621           85 
 4999000   0.46266088   -7.8145483    835.61577  0.013929716  0.012267844          103 
 5000000   0.45745381   -7.8279382    835.21571  0.013920262  0.012264067           88 
 5001000   0.45369881    -7.824152    835.60243  0.013923922  0.012260295          105 
 5002000   0.44930855   -7.8153507    836.26962  0.013932254  0.012256522           89 
 5003000   0.45431051   -7.8247862    837.01671  0.013941913  0.012252749           80 
 5004000   0.44861184   -7.8134951     835.8199  0.013919196  0.012248978          116 
 5005000   0.44978586   -7.8091993    835.21504  0.013906344   0.01224521          107 
 5006000   0.44765936   -7.8176451    835.57613  0.013909577   0.01224144           82 
 5007000   0.45330142    -7.814229    837.26081  0.013934838   0.01223767           77 
 5008000   0.45444763    -7.815364    835.27641  0.013899035  0.012233904           56 
 5009000   0.45016023   -7.8275046      835.284  0.013896387  0.012230139           78 
 5010000   0.45202225   -7.8302724    835.35214  0.013894746  0.012226377          101 
 5011000    0.4524313   -7.8226466     836.4564  0.013910337  0.012222613           72 
 5012000   0.44170605   -7.8278887    837.08015  0.013917933   0.01221885           68 
Loop time of 10902.3 on 48 procs for 5000000 steps with 4000 atoms

Performance: 79249.213 tau/day, 458.618 timesteps/s
99.4% CPU use with 48 MPI tasks x no OpenMP threads

MPI task timing breakdown:
Section |  min time  |  avg time  |  max time  |%varavg| %total
---------------------------------------------------------------
Pair    | 739.09     | 763.3      | 790.92     |  47.0 |  7.00
Neigh   | 69.155     | 70.418     | 72.635     |   7.9 |  0.65
Comm    | 618.92     | 659.72     | 688.86     |  57.5 |  6.05
Output  | 13.351     | 13.355     | 13.429     |   0.3 |  0.12
Modify  | 9233.5     | 9275.5     | 9311.5     |  20.2 | 85.08
Other   |            | 120.1      |            |       |  1.10

Nlocal:        83.3333 ave          92 max          77 min
Histogram: 1 4 10 9 5 5 11 1 1 1
Nghost:        1826.17 ave        1851 max        1807 min
Histogram: 7 3 6 9 5 6 1 4 4 3
Neighs:        11253.5 ave       12947 max       10032 min
Histogram: 3 6 5 8 11 4 6 3 1 1
FullNghs:      22508.2 ave       25553 max       20632 min
Histogram: 3 6 9 10 4 12 2 1 0 1

Total # of neighbors = 1080396
Ave neighs/atom = 270.09900
Neighbor list builds = 269361
Dangerous builds = 0

#clear
#
#next RN
#
#jump SELF
Total wall time: 3:01:45
