
units lj                  # Use reduced LJ style units
atom_style atomic         # Uncharged point particles
atom_modify map hash      # Needed for indexing of clusters etc
                          # Used to be able to find where atoms are in relation to each other.

lattice fcc 1.0 spacing 1 1 1
Lattice spacing in x,y,z = 1.5874011 1.5874011 1.5874011
region box block 0 10 0 10 0 10 units lattice
create_box 2 box
Created orthogonal box = (0.0000000 0.0000000 0.0000000) to (15.874011 15.874011 15.874011)
  3 by 4 by 4 MPI processor grid
create_atoms 1 box
Created 4000 atoms
  using lattice units in orthogonal box = (0.0000000 0.0000000 0.0000000) to (15.874011 15.874011 15.874011)
  create_atoms CPU = 0.003 seconds
set type 1 type/fraction 2 0.95 78393
Setting atom values ...
  3802 settings made for type/fraction
mass 1 1.0
mass 2 1.0
pair_style lj/cut  3.5
pair_modify tail  yes
pair_coeff 1  1  1.0  1.0   # Intearaction between 1 and 1 set with epsilon = 1 and sigma = 1
pair_coeff 1  2  1.5  0.8
pair_coeff 2  2  0.5  0.88

write_data data.0
System init for write_data ...
Neighbor list info ...
  update every 1 steps, delay 10 steps, check yes
  max neighbors/atom: 2000, page size: 100000
  master list distance cutoff = 3.8
  ghost atom cutoff = 3.8
  binsize = 1.9, bins = 9 9 9
  1 neighbor lists, perpetual/occasional/extra = 1 0 0
  (1) pair lj/cut, perpetual
      attributes: half, newton on
      pair build: half/bin/atomonly/newton
      stencil: half/bin/3d
      bin: standard
WARNING: Not all mixed pair coeffs generated from mixing. Use write_data with 'pair ij' option to store all pair coeffs. (../write_data.cpp:312)


#############################
#   M E L T   S Y S T E M   #
#############################

velocity all create 2.4 6229865 mom yes dist gaussian # Assign velocities
                                                    # Temperature 2.4, random number seed, zero linear momentum
                                                                                # Gaussian distribution

timestep 0.002   # simulation timestep
thermo 1000       # output thermodynamic data every 1000 steps bf 100

# Define a fix  in this case with index 1 applied to all
# particles in the simulation. This fix is for simulations
# in the anisotropic NPT ensemble. Note that we use the MTK
# correction.
fix 1 all npt temp 2.4 2.4 0.1 iso 5.68 5.68 0.5 mtk yes tchain 5 pchain 5 # Use NPT ensemble
                                                                         # Set temperature and pressure and damping
                                                                         # Numbers of thermostats in chain and in barostat
run 10000          # run for 10000 steps
Per MPI rank memory allocation (min/avg/max) = 3.642 | 3.644 | 3.648 Mbytes
Step Temp E_pair E_mol TotEng Press Volume 
       0          2.4   -2.9371918            0   0.66190816   -2.1469233         4000 
    1000    2.3742328   -1.8768108            0    1.6836481    5.5011938    4092.5768 
    2000    2.4045007   -1.7967079            0    1.8091414    5.7378508    4150.5641 
    3000    2.3507666   -1.8396694            0    1.6855989    5.4294577    4153.1272 
    4000    2.4274304   -1.8170342            0     1.823201    5.6424781    4147.5804 
    5000    2.4036471   -1.7752988            0    1.8292704    5.7699215    4147.8275 
    6000    2.4091207   -1.8072452            0    1.8055325     5.538712    4167.9293 
    7000    2.4361489   -1.7858037            0    1.8675061    5.8069474    4144.5717 
    8000    2.4287367   -1.8153137            0    1.8268806    5.8322815    4110.5462 
    9000    2.3586939    -1.838156            0    1.6990004    5.5141468    4139.7771 
   10000    2.4326269   -1.8031885            0    1.8448396    5.6269654    4150.4879 
Loop time of 2.43625 on 48 procs for 10000 steps with 4000 atoms

Performance: 709286.770 tau/day, 4104.669 timesteps/s
99.6% CPU use with 48 MPI tasks x no OpenMP threads

MPI task timing breakdown:
Section |  min time  |  avg time  |  max time  |%varavg| %total
---------------------------------------------------------------
Pair    | 1.0691     | 1.1228     | 1.2639     |   3.1 | 46.09
Neigh   | 0.20483    | 0.21362    | 0.24095    |   1.2 |  8.77
Comm    | 0.69217    | 0.83996    | 0.94332    |   4.8 | 34.48
Output  | 0.00024876 | 0.00025597 | 0.0003173  |   0.0 |  0.01
Modify  | 0.20271    | 0.24469    | 0.29201    |   5.5 | 10.04
Other   |            | 0.01488    |            |       |  0.61

Nlocal:        83.3333 ave          92 max          76 min
Histogram: 3 4 6 9 3 6 10 2 4 1
Nghost:        1600.29 ave        1631 max        1567 min
Histogram: 3 1 3 7 7 13 2 7 1 4
Neighs:        9187.98 ave       10428 max        7853 min
Histogram: 1 1 7 8 7 6 6 6 4 2

Total # of neighbors = 441023
Ave neighs/atom = 110.25575
Neighbor list builds = 910
Dangerous builds = 242

# Equilibrate just above the melting temperature to avoid step fn in T

fix 1 all npt temp 1.25 1.25 0.1 iso 5.68 5.68 0.5 mtk yes tchain 5 pchain 5
run 2000
Per MPI rank memory allocation (min/avg/max) = 3.643 | 3.645 | 3.649 Mbytes
Step Temp E_pair E_mol TotEng Press Volume 
   10000    2.4326269   -1.8031885            0    1.8448396    5.6269654    4150.4879 
   11000    1.2282289   -2.7675729            0  -0.92569004    5.6177732    3214.0898 
   12000    1.2623273   -2.7616421            0  -0.86862445    5.4964599    3230.3917 
Loop time of 0.594565 on 48 procs for 2000 steps with 4000 atoms

Performance: 581265.605 tau/day, 3363.806 timesteps/s
99.6% CPU use with 48 MPI tasks x no OpenMP threads

MPI task timing breakdown:
Section |  min time  |  avg time  |  max time  |%varavg| %total
---------------------------------------------------------------
Pair    | 0.26944    | 0.28383    | 0.29985    |   1.5 | 47.74
Neigh   | 0.039048   | 0.040872   | 0.042914   |   0.4 |  6.87
Comm    | 0.19793    | 0.21896    | 0.23916    |   2.0 | 36.83
Output  | 5.1716e-05 | 5.3843e-05 | 6.8184e-05 |   0.0 |  0.01
Modify  | 0.041555   | 0.046017   | 0.049604   |   1.0 |  7.74
Other   |            | 0.00483    |            |       |  0.81

Nlocal:        83.3333 ave          93 max          74 min
Histogram: 1 1 3 10 11 9 8 2 2 1
Nghost:        1896.92 ave        1919 max        1875 min
Histogram: 2 6 7 3 5 6 9 5 1 4
Neighs:        11821.6 ave       13553 max        9937 min
Histogram: 1 1 7 5 10 4 9 7 3 1

Total # of neighbors = 567436
Ave neighs/atom = 141.85900
Neighbor list builds = 143
Dangerous builds = 14

#############################
# L I N E A R  Q U E N C H  #
#############################

# Define solid atoms. This closely follows ten Wolde  Ruiz-Montero and Frenkel  Faraday Discuss  1996  104  93-110
# Compute components of the per-atom q6 vector
compute q6 all orientorder/atom degrees 1 6 components 6 nnn NULL cutoff 1.3 # compute the Q6 parameter.
                                                                             # Use all neighbours within 1.3 unit cell.

# get number of connections
compute coord_number all coord/atom orientorder q6 0.5

# An atom is solid if it has 8 or more connections (of a possible 14)
variable is_solid atom c_coord_number>=8
group solid dynamic all var is_solid    # Must be dynamic to update
dynamic group solid defined

# do clustering
compute cluster solid cluster/atom 1.3 # Create a cluster where all atoms within are solid and max 1.3 units from another member

# define chunks one chunk per cluster
compute clus_chunks solid chunk/atom c_cluster nchunk every compress yes  # Says which atoms are in which chunk

# count the size of each chunk
compute size_chunks solid property/chunk clus_chunks count


# Find the maximum entry in the vector of chunk sizes
variable max_n equal max(c_size_chunks)


# Thermo style which includes this variable
# thermo_style custom step temp pe vol v_max_n

thermo ${N}  # Print the thermo information every 100 steps
thermo 1000  

# Reset the npt fix at a lower temperature (below freezing)
fix 1  all npt temp  ${temp} ${temp}  0.1  iso  5.68  5.68  0.5  mtk yes tchain  5  pchain  5
fix 1  all npt temp  0.45 ${temp}  0.1  iso  5.68  5.68  0.5  mtk yes tchain  5  pchain  5
fix 1  all npt temp  0.45 0.45  0.1  iso  5.68  5.68  0.5  mtk yes tchain  5  pchain  5

dump dmp2 all dcd ${N} traj.dcd
dump dmp2 all dcd 1000 traj.dcd


compute msd all msd com yes
variable twopoint equal c_msd[4]/6/(step*dt+1.0e-6)
fix 9 all vector 10 c_msd[4]
variable fit equal slope(f_9)/6/(10*dt)
thermo_style custom step temp pe c_msd[4] v_twopoint v_fit v_max_n

fix 1 all npt temp 1.25 ${temp} 0.1 iso 5.68 5.68 0.5 mtk yes tchain 5 pchain 5
fix 1 all npt temp 1.25 0.45 0.1 iso 5.68 5.68 0.5 mtk yes tchain 5 pchain 5
run 5000000 # 5000000  # Run for this many steps
Neighbor list info ...
  update every 1 steps, delay 10 steps, check yes
  max neighbors/atom: 2000, page size: 100000
  master list distance cutoff = 3.8
  ghost atom cutoff = 3.8
  binsize = 1.9, bins = 8 8 8
  4 neighbor lists, perpetual/occasional/extra = 1 3 0
  (1) pair lj/cut, perpetual
      attributes: half, newton on
      pair build: half/bin/atomonly/newton
      stencil: half/bin/3d
      bin: standard
  (2) compute orientorder/atom, occasional
      attributes: full, newton on
      pair build: full/bin/atomonly
      stencil: full/bin/3d
      bin: standard
  (3) compute coord/atom, occasional
      attributes: full, newton on
      pair build: full/bin/atomonly
      stencil: full/bin/3d
      bin: standard
  (4) compute cluster/atom, occasional
      attributes: full, newton on
      pair build: full/bin/atomonly
      stencil: full/bin/3d
      bin: standard
Per MPI rank memory allocation (min/avg/max) = 9.815 | 9.821 | 9.825 Mbytes
Step Temp PotEng c_msd[4] v_twopoint v_fit v_max_n 
   12000    1.2623273   -2.7616421 1.0493822e-30 7.2873762e-33 8.3333333e+20            1 
   13000    1.2310663   -2.7579657    1.0820363 0.0069361301  0.091654548            1 
   14000    1.2512814   -2.7207025    2.3113795  0.013758211  0.097956896            1 
   15000    1.2403786   -2.7491071    3.5590049  0.019772249   0.10029095            1 
   16000    1.2386081   -2.7744299    4.7827732  0.024910277   0.10144961            2 
   17000    1.2803628   -2.7403857    6.0528421  0.029670793   0.10227182            2 
   18000    1.2449154   -2.7630398    7.2511422  0.033570102   0.10234098            2 
   19000    1.2544209   -2.7465519    8.5137391   0.03734096   0.10270909            1 
   20000    1.2401979   -2.7468314    9.8542314  0.041059297   0.10348066            2 
   21000    1.2438308    -2.756505    11.019345  0.043727558     0.103834            6 
   22000    1.2411618   -2.7543945     12.26233  0.046448219   0.10386199            2 
   23000    1.2458705   -2.7806818    13.632933  0.049394683   0.10383544            1 
   24000    1.2548928   -2.7399297    14.696352  0.051028998   0.10380497            2 
   25000    1.2600988   -2.7604627    16.023322  0.053411074   0.10374756            1 
   26000    1.2527811   -2.7407522    17.292874  0.055425876    0.1035237            1 
   27000    1.2365414   -2.7784244    18.428522  0.056878153   0.10346779            1 
   28000    1.2079197   -2.7633724     19.71396  0.058672498   0.10348319            1 
   29000    1.2498677   -2.7718949    20.992914  0.060324464   0.10353738            1 
   30000    1.2540494   -2.7632083    22.219598  0.061721103   0.10349087            1 
   31000    1.2560366   -2.7390135    23.320254  0.062688855   0.10340571            1 
   32000    1.2633151    -2.749737     24.78863  0.064553723   0.10340511            2 
   33000    1.2696824   -2.7411437    25.956117  0.065545748   0.10346117            1 
   34000    1.2626211   -2.7566801    27.201716  0.066670872   0.10338263            1 
   35000     1.248382   -2.7460346    28.187903  0.067114055   0.10334683            4 
   36000     1.237959   -2.7425007    29.511658  0.068314022   0.10325403            1 
   37000    1.2491358     -2.74809    30.513674  0.068724489   0.10306337            2 
   38000    1.2502759   -2.7822303    32.042182  0.070267942   0.10291052            1 
   39000    1.2107294   -2.7863534     32.99062  0.070492777    0.1027959            2 
   40000    1.2089245   -2.7283328    34.160848  0.071168431   0.10267669            2 
   41000    1.2493064    -2.788627    35.443734   0.07204011   0.10259223            2 
   42000    1.2120661   -2.7646021    36.893391  0.073201172   0.10260512            2 
   43000    1.2350615   -2.8059602     38.11691   0.07386998   0.10255971            3 
   44000    1.2465396   -2.7532991    38.880537  0.073637381   0.10241543            1 
   45000    1.2499742   -2.7576027    40.125413   0.07430632   0.10227954            1 
   46000    1.2709603   -2.7478832    41.260786  0.074747799   0.10211996            2 
   47000    1.2478006    -2.749649    42.575988   0.07548934   0.10198639            3 
   48000    1.2300932   -2.7598129    43.942979  0.076289894   0.10186741            2 
   49000    1.2753167   -2.8035759    44.799105  0.076188954   0.10178659            2 
   50000    1.2400773   -2.7703573    46.093922  0.076823202   0.10167158            1 
   51000    1.2482492   -2.7284984    47.741781  0.078009445   0.10160819            2 
   52000     1.212812    -2.754445    48.787332  0.078184826    0.1016386            1 
   53000    1.2647251   -2.7603605     50.13139  0.078822939   0.10164416            1 
   54000    1.2781222   -2.7333494    51.439782  0.079382378   0.10164052            2 
   55000    1.2547256   -2.7562264    52.737574  0.079905414   0.10171942            1 
   56000    1.2784688   -2.7267784     53.85451  0.080140639   0.10175602            1 
   57000    1.2563409   -2.7650888    55.325352  0.080885016   0.10177745            1 
   58000    1.2379974   -2.7600614    56.343288  0.080952999   0.10180929            3 
   59000    1.2311916    -2.774872    57.579465  0.081326927   0.10184682            2 
   60000    1.2344245   -2.7650779    59.035909  0.081994318   0.10188906            1 
   61000    1.2503332   -2.7603461    60.163754   0.08219092   0.10195392            1 
   62000    1.2441337   -2.8033813    60.994912  0.081982408     0.101957            1 
   63000    1.2413001   -2.7325432    62.428653  0.082577582   0.10191976            1 
   64000    1.2386282   -2.7791134    63.025286  0.082064173   0.10185759            2 
   65000    1.2547461   -2.7521701    64.080911  0.082155014   0.10175427            2 
   66000    1.2305162   -2.7457454    65.319543  0.082474169   0.10163332            1 
   67000    1.2389322   -2.7448423    66.825359  0.083116118   0.10152222            1 
   68000    1.2316417    -2.748743     68.27661  0.083672316   0.10147013            1 
   69000    1.2320428   -2.7549802    68.891533  0.083202334   0.10141219            2 
   70000    1.2430027   -2.7420528    69.876414  0.083186206   0.10131445            1 
   71000     1.243509   -2.7793273    70.994028  0.083326324   0.10121463            1 
   72000      1.28579   -2.7674475    71.996174  0.083328904   0.10110391            1 
   73000    1.2635498   -2.7511861    73.283773  0.083657274   0.10100074            1 
   74000    1.2555534   -2.7945764     74.64884  0.084064009   0.10089103            3 
   75000    1.2537452   -2.7448074    76.024525  0.084471694   0.10080995            1 
   76000    1.2344672   -2.7749203    76.834275  0.084248107   0.10071531            2 
   77000    1.2258018   -2.7569119    78.097735  0.084521358   0.10062202            2 
   78000    1.2290171   -2.7696719    79.254315  0.084673413   0.10052845            1 
   79000    1.2582477   -2.7372786    80.753625  0.085183148   0.10045494            2 
   80000    1.2425834   -2.7799859    81.799541  0.085207854   0.10040203            1 
   81000     1.269589   -2.7784225    82.672916   0.08505444   0.10031829            2 
   82000    1.2348968   -2.7802408    84.295478  0.085666136   0.10026823            2 
   83000    1.2562517   -2.7547884    85.216656  0.085558891    0.1001989            2 
   84000    1.2686231   -2.7302852    86.936275  0.086246304   0.10016271            1 
   85000    1.2228666   -2.7608639    87.346758  0.085634076   0.10010659            1 
   86000    1.2480758   -2.7511788    88.988237  0.086228911   0.10004513            1 
   87000    1.2418234   -2.7138809    90.070765  0.086274679    0.1000228            1 
   88000      1.24579    -2.770257    91.478452  0.086627322  0.099986102            1 
   89000    1.2414873   -2.7493311    92.444163  0.086558204   0.09996013            1 
   90000    1.2077048    -2.753742    93.701537  0.086760682  0.099923027            1 
   91000    1.2334834   -2.7696652    94.956243  0.086956266  0.099894492            1 
   92000    1.2272749   -2.7587179    95.965802  0.086925545  0.099850793            2 
   93000    1.2200922   -2.7609566    97.009109  0.086925724  0.099805588            1 
   94000    1.2193355   -2.7652356    98.113461  0.086980018  0.099767022            2 
   95000    1.2501617    -2.769264    99.132799  0.086958595   0.09970612            1 
   96000    1.2547337   -2.7867892    100.24132  0.087015033  0.099658858            1 
   97000    1.2458365   -2.7583937    101.40809  0.087120351  0.099607512            6 
   98000    1.2457452   -2.7726371     102.4757  0.087139196  0.099552831            1 
   99000     1.250087   -2.7723888    104.00414  0.087545574  0.099505813            2 
  100000    1.2268972   -2.7858148    105.47872  0.087898934  0.099462847            1 
  101000    1.2201922   -2.7825729    106.34423  0.087742764  0.099416887            2 
  102000    1.2446914   -2.7762152    107.32922  0.087687273   0.09939006            1 
  103000     1.203406   -2.7699768    109.21856  0.088364527  0.099363655            1 
  104000    1.2399431   -2.7874314    109.90038    0.0880612  0.099341106            1 
  105000    1.2547228   -2.7643237    112.25139  0.089088406  0.099327594            2 
  106000     1.226508   -2.7853821    112.63271  0.088547725  0.099323919            2 
  107000    1.2438773   -2.7971374    113.39332  0.088312558  0.099319547            2 
  108000    1.2393364   -2.7761242    115.39487  0.089039251  0.099331721            1 
  109000    1.2240099   -2.7371658    116.62168  0.089160309  0.099348168            1 
  110000    1.2465586   -2.7749358      117.557  0.089058334  0.099368726            1 
  111000    1.2493472   -2.7898899    118.83784    0.0892176  0.099385349            2 
  112000    1.2225262   -2.7484354    120.79037  0.089873787  0.099409404            1 
  113000    1.2061238   -2.7500191    121.80404  0.089825988  0.099442125            1 
  114000    1.2336164   -2.7985462    122.77609  0.089748601  0.099468605            2 
  115000     1.235197   -2.7785665    123.67622  0.089620451  0.099482926            1 
  116000      1.23778   -2.7551319    125.22006  0.089956937  0.099481993            1 
  117000    1.2316079   -2.7775981    125.37793  0.089300523  0.099477826            2 
  118000     1.217382   -2.7847525    126.55871  0.089377617  0.099459626            2 
  119000    1.2420384   -2.7530845    127.92057  0.089580233  0.099435616            1 
  120000    1.2370861   -2.7797266    128.75133  0.089410643  0.099410667            3 
  121000     1.237931   -2.7791472    129.53694  0.089212769  0.099370677            2 
  122000    1.2315118   -2.7795076    130.47833  0.089124539  0.099351322            1 
  123000    1.2487129    -2.754818    132.62715  0.089855791  0.099334544            1 
  124000    1.2588609   -2.7681471    134.21215  0.090196335   0.09934209            1 
  125000    1.2560172   -2.7870962    136.11916  0.090746108   0.09935013            2 
  126000    1.2093902   -2.7640701    136.58911  0.090336709  0.099361116            1 
  127000      1.20662   -2.7620256    138.51434  0.090888677   0.09938348            3 
  128000    1.2348198   -2.7656895    139.60105  0.090886098  0.099404342            1 
  129000    1.2483888   -2.7706621     139.8786  0.090360854  0.099413908            1 
  130000    1.2303052   -2.7752414    141.82635  0.090914329  0.099424251            1 
  131000    1.2487724   -2.7534506    143.72186  0.091426122   0.09944521            3 
  132000    1.2245926   -2.7810944    145.48326   0.09184549  0.099485638            3 
  133000    1.2307973   -2.7834333    146.86719   0.09202205  0.099534578            2 
  134000     1.242311   -2.7674802    147.43459   0.09168818  0.099584106            2 
  135000    1.2462423   -2.7837011    148.30836  0.091548372  0.099622427            1 
  136000    1.2045639   -2.7659053    149.04007  0.091323571  0.099658923            2 
  137000    1.2482775     -2.77173    151.86836   0.09237735   0.09969978            1 
  138000    1.2500058   -2.7466141      153.067   0.09243176  0.099749275            1 
  139000    1.2254199   -2.7536053    154.22153  0.092458949  0.099796268            2 
  140000    1.2107576   -2.7644977    155.90998  0.092803557  0.099849512            1 
  141000    1.2289932   -2.8047474    156.60108  0.092553831  0.099893631            1 
  142000    1.2059983   -2.7801837    157.43748   0.09239289  0.099929559            2 
  143000    1.2177036   -2.7890102      158.073  0.092117132  0.099952931            1 
  144000    1.2234105   -2.7535871    158.88322   0.09194631  0.099961823            1 
  145000    1.2240224   -2.7717446    161.26543  0.092681282  0.099986384            1 
  146000    1.2186312   -2.7739491    161.82693   0.09236697   0.10001276            1 
  147000    1.2174691   -2.7685524    163.84683  0.092883688   0.10004088            2 
  148000    1.2538103   -2.7721359    164.67685  0.092723454   0.10005696            3 
  149000    1.1971585   -2.7864927    165.19947   0.09239344   0.10007026            1 
  150000    1.2088635   -2.8016958    166.21298  0.092340545   0.10007758            1 
  151000    1.2534296   -2.7630117    167.77534  0.092591249   0.10008736            1 
  152000    1.2133613   -2.7884248    168.11521  0.092168426   0.10009099            2 
  153000    1.2296045   -2.7519934    169.53071  0.092336989   0.10009409            2 
  154000    1.2425135   -2.7705131    171.35209   0.09272299   0.10009384            1 
  155000    1.2176451   -2.7671503    172.63702  0.092815602   0.10009058            1 
  156000    1.2462023   -2.7975875    174.20609  0.093058811   0.10010209            2 
  157000     1.243902   -2.7966219    174.72601  0.092742041   0.10011177            3 
  158000     1.204948   -2.7829442    176.49255  0.093086785    0.1001246            2 
  159000    1.2538979    -2.823336    177.56019  0.093060897    0.1001336            3 
  160000    1.1880653   -2.7729381    178.56777  0.093004049   0.10014284            1 
  161000    1.2359022    -2.757317    180.39979  0.093374632   0.10015497            1 
  162000    1.2032879   -2.7552754    181.72121  0.093477986   0.10017422            1 
  163000     1.223187   -2.7990844     182.3169  0.093209049   0.10018516            3 
  164000    1.2502627   -2.7825117    183.92889    0.0934598   0.10019727            1 
  165000    1.2410449   -2.7703989    185.30999  0.093590906   0.10021839            3 
  166000    1.2089741    -2.749268    186.77308  0.093761588   0.10023832            2 
  167000    1.2154055    -2.773012    187.24883  0.093437538   0.10025357            1 
  168000    1.2224607   -2.8186348    188.45864  0.093481467   0.10025943            2 
  169000    1.2436571      -2.8026    188.57005  0.092983259   0.10025608            1 
  170000     1.197985   -2.7840393    189.74563  0.093012564   0.10024864            2 
  171000    1.2113919   -2.7887113    190.56197  0.092866456   0.10023689            1 
  172000    1.2085112   -2.7474689    192.18767   0.09311418   0.10022141            1 
  173000    1.2090211   -2.7675834    192.51974  0.092735904   0.10019832            2 
  174000    1.1871055   -2.7641413     193.8427   0.09283654   0.10017794            4 
  175000    1.2211139     -2.78913    194.37603  0.092560013   0.10014958            3 
  176000    1.2110178    -2.798981    196.57377  0.093074699   0.10011826            3 
  177000    1.2289894   -2.7387618    197.86169  0.093155223   0.10008637            1 
  178000    1.2394709   -2.8160991     197.6615  0.092538156     0.100061            4 
  179000    1.1771984   -2.7547485     199.0914  0.092686873   0.10003409            2 
  180000    1.1903977   -2.7581969    201.04545  0.093076595   0.10000746            1 
  181000    1.2255486   -2.7718227    202.07724  0.093037401  0.099985256            2 
  182000    1.2287678    -2.779699    202.96195  0.092931294  0.099965151            2 
  183000    1.2465466   -2.7901312    204.40552  0.093080837  0.099943565            3 
  184000    1.2225034   -2.7911333    205.89633   0.09325015  0.099918419            2 
  185000    1.2569009   -2.7760721    206.92892  0.093211224  0.099906544            3 
  186000    1.2177619   -2.7931675    208.65242  0.093482267  0.099894775            3 
  187000    1.2285924   -2.7674484    211.37274  0.094194626  0.099895074            1 
  188000    1.2318048   -2.7930739    211.19343  0.093614107  0.099890908            2 
  189000    1.2091729   -2.7832177     211.7967   0.09338479  0.099900633            1 
  190000    1.2530839   -2.7795876    215.33814  0.094446552  0.099917231            3 
  191000     1.213333   -2.7916203    216.22556  0.094339249  0.099938208            2 
  192000    1.2475157   -2.7805255    218.61796  0.094886266  0.099963916            1 
  193000    1.2214766   -2.7723162    219.33512  0.094704281  0.099988121            2 
  194000    1.2306343   -2.7812403    219.42686  0.094255524   0.10000675            1 
  195000    1.2016134   -2.7858805    222.00621  0.094874446   0.10002712            1 
  196000    1.2117376   -2.7404498     223.3329  0.094954463   0.10004674            2 
  197000    1.1937215   -2.7722729    224.09538  0.094794999   0.10006871            2 
  198000    1.2166317   -2.7888514    224.44925  0.094465171   0.10008658            2 
  199000    1.2378214   -2.7535108    227.09319   0.09509765   0.10010815            3 
  200000    1.1996697   -2.8057984    227.02517  0.094593821   0.10012403            2 
  201000    1.1903397   -2.8081347    227.49539  0.094318154   0.10013569            2 
  202000    1.2232037   -2.8121179    230.27483  0.094997868   0.10014639            2 
  203000    1.2345565   -2.7764787    231.28945  0.094946407   0.10015822            3 
  204000    1.1922142   -2.7927288    231.71773  0.094655937   0.10016939            2 
  205000    1.2065824   -2.7815166    232.65264  0.094574244   0.10018078            1 
  206000    1.2047927    -2.786601     235.2447  0.095163715   0.10019482            1 
  207000    1.2338486   -2.7904345    234.62983  0.094456452   0.10020311            2 
  208000     1.212027   -2.7940806    237.29004  0.095068126   0.10020954            5 
  209000    1.2219469   -2.7596957     238.4176  0.095062839   0.10021841            1 
  210000    1.2251221   -2.8318935    239.39958  0.094999833   0.10022677            1 
  211000    1.2207992   -2.7787511    240.78556  0.095096983     0.100242            2 
  212000    1.2246248   -2.7946328    241.60448  0.094970316   0.10025467            4 
  213000    1.2044032   -2.7828585    243.34438  0.095205156   0.10026833            1 
  214000    1.2090896   -2.7838641     244.4242  0.095180764   0.10028361            4 
  215000    1.2292375   -2.7584106    245.32171  0.095085934   0.10029383            1 
  216000    1.1910069   -2.7712699    246.15254  0.094966257   0.10030242            3 
  217000    1.2074357   -2.7812003    247.81137  0.095165657   0.10031719            1 
  218000    1.2327868   -2.8052201    250.55136  0.095776513   0.10033304            1 
  219000    1.2290012   -2.7967568    250.54447  0.095336556   0.10034673            2 
  220000    1.2320152     -2.77685    252.78733  0.095752777   0.10036642            2 
  221000    1.2203741   -2.7937296    254.95584  0.096137193   0.10039167            1 
  222000    1.2166445   -2.7627502    254.87802  0.095674932   0.10042436            1 
  223000    1.2206399   -2.7981441    257.64214  0.096278828   0.10045072            1 
  224000    1.2229056   -2.7823687    259.23444  0.096441383   0.10047962            1 
  225000    1.2319664   -2.8044009    259.71955  0.096192427   0.10050948            1 
  226000    1.2125669   -2.8337016    260.65786   0.09611278   0.10053331            2 
  227000    1.2105088   -2.7618705    260.16178   0.09550726   0.10055559            1 
  228000    1.2525315   -2.8024457    263.23374  0.096211161   0.10057923            1 
  229000    1.2051529   -2.7867601    264.69753  0.096323699    0.1006026            2 
  230000    1.2434652   -2.7879983    266.09912  0.096412723    0.1006281            3 
  231000    1.2212446   -2.7901722    267.33108  0.096439784   0.10064694            3 
  232000    1.2427928   -2.7991214    267.27469  0.096003838   0.10067566            2 
  233000    1.2284771   -2.7844523    269.72109  0.096466771   0.10069333            2 
  234000    1.1994522   -2.7844494    270.71951  0.096410081   0.10071628            1 
  235000    1.2142639   -2.8127508    270.66876   0.09598183   0.10073181            3 
  236000    1.2181999   -2.7824877    272.79193  0.096324834   0.10073996            2 
  237000    1.2170953    -2.767899     273.8016  0.096273418   0.10075164            1 
  238000    1.2355082   -2.7939003    274.05457  0.095957483   0.10076757            1 
  239000    1.2177773   -2.7982355    276.14989  0.096286573   0.10078569            1 
  240000    1.2229512    -2.826235     276.4075  0.095974827   0.10080508            3 
  241000    1.2085557   -2.7972826    278.79411  0.096401837   0.10082661            1 
  242000    1.2273733   -2.7734744    280.88667   0.09672406   0.10084949            1 
  243000    1.2262776   -2.7668884    282.63538  0.096925713   0.10087402            7 
  244000    1.2340256   -2.7900664    282.55384  0.096500627   0.10089428            2 
  245000    1.2087546   -2.7961899    284.72891  0.096846568   0.10091656            2 
  246000    1.2446243   -2.8318549    284.41659  0.096347082    0.1009323            2 
  247000    1.2534247    -2.808083    284.66247  0.096039968   0.10095015            1 
  248000    1.2115542   -2.7869629    286.95348   0.09642254   0.10096174       -1e+20 
  249000     1.207117   -2.8029474    289.00411  0.096721588    0.1009722            1 
  250000    1.2344655    -2.795148    289.51284  0.096504278   0.10098032            2 
  251000    1.2107534   -2.8078319    290.42435  0.096422426   0.10099514            2 
  252000    1.2254961   -2.7786758    292.87533  0.096850308   0.10101132            2 
  253000    1.2110272   -2.7835531    294.77569  0.097093442    0.1010304            1 
  254000     1.227913   -2.8333903    293.59777  0.096324727   0.10105089            2 
  255000    1.2354779   -2.7685612    298.70671  0.097616572   0.10107405            1 
  256000    1.2318616   -2.7830853     297.1858  0.096740169   0.10109755            1 
  257000    1.2029807   -2.7999197    298.97116  0.096942658   0.10112326            3 
  258000    1.1764008   -2.7875389    300.34009  0.097009073   0.10114167            1 
  259000    1.2235665   -2.7947813    301.84685  0.097119322   0.10116069            3 
  260000    1.1949828    -2.824852    301.38889  0.096599002    0.1011781            2 
  261000    1.2255559   -2.7945886    305.02361  0.097389403   0.10119366            1 
  262000    1.2212522   -2.8151823     305.3918  0.097134797    0.1012105            2 
  263000    1.2097193    -2.794277     305.0343  0.096652186   0.10122477            4 
  264000    1.2147984   -2.7795288    309.31102  0.097636055   0.10124234            2 
  265000    1.2201143   -2.7942939    307.94252   0.09683727   0.10125811            2 
  266000    1.2022293   -2.8003183     309.3585  0.096916823   0.10127144            2 
  267000    1.2300029   -2.7886179    311.48963  0.097218985    0.1012858            4 
  268000    1.2172465   -2.8380926    313.14359  0.097370518   0.10130321            1 
  269000      1.19763   -2.8103795    314.14137   0.09731765   0.10131738            2 
  270000    1.1891747   -2.8102204    314.77162  0.097151734   0.10133244            2 
  271000    1.2062653   -2.8153409    316.14593  0.097215846   0.10134977            2 
  272000    1.2126905   -2.7977494    317.92682  0.097404049   0.10136513            1 
  273000    1.2042106   -2.8471783    317.73012  0.096987216   0.10137981            1 
  274000    1.2128379   -2.8061075    319.14015   0.09706209   0.10138771            1 
  275000    1.2098938   -2.8204032    320.29584  0.097059345   0.10139464            3 
  276000    1.2051932   -2.8006217    321.63329  0.097111501   0.10139868            1 
  277000    1.1923099   -2.7960357    322.00695   0.09687333   0.10140198            3 
  278000    1.2410675   -2.7965805    323.17266  0.096874297   0.10140826            1 
  279000    1.1829169   -2.8155713    324.80243  0.097013868   0.10141212            1 
  280000    1.2000061   -2.8117215    325.57361  0.096896909   0.10141938            1 
  281000    1.2102608    -2.815895    326.69152  0.096883606   0.10142439            3 
  282000    1.2111259    -2.798552    327.47771  0.096772372   0.10142969            2 
  283000    1.1983102    -2.827285    329.60293  0.097056222   0.10143637            2 
  284000     1.216043   -2.8330284    329.28463  0.096621077    0.1014399            1 
  285000    1.2219098   -2.8113493    332.66332  0.097269977   0.10145186            1 
  286000    1.1818834   -2.7853706    335.43458  0.097737349   0.10146637            2 
  287000    1.1894615   -2.7865353    337.60207  0.098026154   0.10148087            2 
  288000    1.2126847   -2.7684054    339.25135  0.098163007   0.10149751            2 
  289000      1.20274   -2.8187459    340.23291  0.098106375   0.10152066            2 
  290000    1.2256422   -2.7880036    342.75255  0.098492112   0.10154565            2 
  291000    1.1964325   -2.8036391    342.25385  0.098010839   0.10156813            2 
  292000    1.2215295   -2.7907742    344.01345  0.098177355   0.10158862            1 
  293000    1.2462065   -2.8207993    344.49586  0.097979481   0.10160995            2 
  294000    1.1776202   -2.8156738    346.00848  0.098074965   0.10162643            1 
  295000    1.2305078   -2.8074704    346.25236  0.097811402   0.10164253            2 
  296000    1.1907332   -2.7862828    346.93363  0.097672757   0.10165741            1 
  297000    1.2034134   -2.8046657    349.37494  0.098028884   0.10167346            1 
  298000    1.2125146   -2.7753992     350.2957   0.09795741   0.10168858            1 
  299000    1.2048827   -2.8231281    350.70094  0.097742737   0.10170263            2 
  300000    1.2158947   -2.8184022    351.56953  0.097658202   0.10171267            1 
  301000    1.2231563   -2.8032214    352.10323  0.097481515   0.10171684            1 
  302000    1.2137117   -2.7681371    353.73267  0.097608353   0.10172284            2 
  303000    1.2118131   -2.8240996    353.95776  0.097348118    0.1017276            1 
  304000    1.2086108   -2.7719467    356.61954  0.097757548   0.10173096            2 
  305000    1.2115487   -2.7866225    357.37562  0.097643613   0.10173241            4 
  306000      1.21084   -2.7754096    359.16327  0.097811348   0.10173438            1 
  307000    1.2012869   -2.8141205    358.81763  0.097398922   0.10173693            1 
  308000     1.178164   -2.8005751    360.92806  0.097653697   0.10173742            1 
  309000    1.1763437   -2.8126562    362.06865  0.097645266   0.10173976            3 
  310000    1.1877146    -2.806592    363.44731  0.097700889   0.10174304            4 
  311000    1.2089772    -2.807528    364.13104  0.097569946   0.10174672            2 
  312000    1.1892651   -2.7865848    366.49328  0.097888161    0.1017505            1 
  313000    1.1729356   -2.8183766    367.24524  0.097775624   0.10175578            3 
  314000    1.2051963   -2.8008456    371.20341  0.098514706   0.10175825            1 
  315000    1.1960262    -2.788781    369.80205  0.097831231   0.10176237            1 
  316000    1.2156658    -2.837921    371.44582  0.097955121   0.10176946            2 
  317000    1.2093154   -2.7997957    372.99825  0.098054219   0.10177325            4 
  318000    1.1991445   -2.7878165    373.11019  0.097775208    0.1017799            3 
  319000     1.193459   -2.8255944    373.37167   0.09753701   0.10178336            2 
  320000    1.2192401    -2.782417    376.71328  0.098102416   0.10178419            1 
  321000     1.212218   -2.8243015    375.86513  0.097576616   0.10178371            2 
  322000    1.1871857   -2.7869348     379.2354  0.098145808   0.10178469            2 
  323000    1.2159021   -2.7574977    379.37396  0.097877699   0.10178325            2 
  324000    1.2007677   -2.8053353    380.02043   0.09774188   0.10178349            1 
  325000    1.1938774    -2.806215    381.29835  0.097768807   0.10178194            2 
  326000     1.206429   -2.7754654    383.63424  0.098066011   0.10178081            3 
  327000    1.1646085   -2.8110956    383.86654  0.097825316   0.10178049            2 
  328000    1.1835075   -2.8183465    382.76434  0.097247037   0.10177889            2 
  329000    1.1927107    -2.829116    384.80728  0.097468915   0.10177702            1 
  330000    1.2211588   -2.8023403    388.06309  0.097995729   0.10177383            4 
  331000    1.2030752   -2.8183202    388.24346   0.09774508   0.10177254            1 
  332000    1.2123571   -2.7951678    388.71395  0.097568762   0.10177194            2 
  333000    1.2039253    -2.817434    389.93829  0.097582156   0.10176939            3 
  334000    1.1934483   -2.8082244    390.80912  0.097507266   0.10176583            1 
  335000    1.2243543   -2.8207636     391.5404  0.097398109   0.10175819            2 
  336000    1.2415925    -2.816609    390.80369  0.096925517   0.10174867            1 
  337000    1.2219398   -2.8216661    394.09329  0.097451357   0.10174117            1 
  338000    1.2202075    -2.804182    395.79447  0.097582462   0.10173217            2 
  339000    1.2203133    -2.781663    398.20122  0.097886239   0.10172212            2 
  340000    1.1970379   -2.7840616     399.4877  0.097913652   0.10171626            1 
  341000    1.1825525   -2.8152117    400.32825  0.097831927   0.10170586            1 
  342000    1.1831229   -2.8138932    397.88994  0.096951739   0.10169151            2 
  343000    1.1726381   -2.8314284    399.71469  0.097112411   0.10167695            2 
  344000    1.2235873   -2.8189411    400.81673  0.097097076   0.10166322            2 
  345000    1.1966617   -2.8229354    401.82984  0.097060348   0.10164914            1 
  346000    1.1776478   -2.8335535    402.27479  0.096886991   0.10163496            1 
  347000    1.2111813   -2.7945019    404.11231  0.097049065   0.10161907            1 
  348000    1.2336047   -2.8071239    404.22934  0.096798213   0.10160074            1 
  349000    1.1842363   -2.8133615    404.90158   0.09668137   0.10157912            2 
  350000    1.2103385   -2.8369826    405.89277  0.096641136   0.10155798            2 
  351000    1.1768015   -2.8126362    407.96867  0.096858658   0.10153969            3 
  352000    1.1943116    -2.840874    406.76744   0.09629911   0.10152047            2 
  353000    1.1819444   -2.8174996    409.86974  0.096758672   0.10150051            1 
  354000    1.1832544    -2.808799    412.05824  0.097000528   0.10148324            1 
  355000    1.1913486   -2.8271182    411.72857  0.096649898   0.10146466            1 
  356000    1.1911797    -2.818248    413.80868  0.096865326   0.10144557            1 
  357000    1.1852703   -2.8018872    414.82483  0.096831193   0.10142928            1 
  358000    1.1670824   -2.8458686    416.84245  0.097030365   0.10141227            2 
  359000     1.177569   -2.8013822    417.34665  0.096877124   0.10139646            1 
  360000    1.1819921   -2.8489012    418.02871  0.096765906   0.10137864            1 
  361000    1.1844365   -2.7948838    419.54204  0.096847192   0.10136064            1 
  362000    1.2171362   -2.8174689    420.97683  0.096909951   0.10134575            1 
  363000    1.1713532   -2.8280679    422.71105  0.097041104   0.10132846            3 
  364000    1.1874795   -2.8316634    424.84733  0.097263583     0.101314            1 
  365000    1.1913155   -2.8095079    423.24369  0.096630979   0.10129727            2 
  366000    1.2100889   -2.8167858    425.44183  0.096867448   0.10128107            1 
  367000    1.1817246   -2.8352204    426.66989  0.096882355   0.10126362            1 
  368000    1.2182089   -2.8364472    426.38437  0.096554431   0.10124526            3 
  369000    1.1805548   -2.8259573    426.83593  0.096394746   0.10122733            1 
  370000    1.1786592   -2.8264006    429.36132  0.096703001   0.10120994            2 
  371000    1.2160126   -2.8216753     430.2435  0.096640498   0.10119084            2 
  372000    1.1934796   -2.8232483     432.5926  0.096906944   0.10117369            2 
  373000    1.1871649   -2.8055327    434.23872  0.097014906   0.10115943            1 
  374000    1.2081072   -2.8394616    436.44565  0.097247248   0.10114658            1 
  375000    1.2074304   -2.8379602    436.46929  0.096993176   0.10113205            2 
  376000    1.1752968   -2.7783486    438.93164  0.097280949   0.10111936            1 
  377000    1.1749783   -2.8005728    438.58079  0.096945356   0.10110473            2 
  378000    1.2030556   -2.8113917    438.73525  0.096722939   0.10108757            2 
  379000    1.1641937   -2.8406088    440.24341  0.096799343   0.10107319            2 
  380000    1.2001717   -2.8595372     441.5384  0.096828597   0.10106042            1 
  381000    1.2052509   -2.8086709    441.78042  0.096627389   0.10104666            1 
  382000    1.1940093   -2.8162748    443.15735  0.096674816    0.1010308            1 
  383000    1.1897817   -2.8369213    444.99845  0.096822986   0.10101413            1 
  384000    1.1752838   -2.8367485     447.1977  0.097048113   0.10099944            1 
  385000    1.2061654   -2.8159948    446.05857  0.096549474   0.10098324            1 
  386000     1.201792   -2.8265563     449.7323  0.097092466   0.10096711            1 
  387000    1.1924427     -2.81977    448.59041  0.096595696    0.1009485            1 
  388000    1.2131747   -2.8178508     450.9496  0.096853436   0.10093251            2 
  389000    1.1728029     -2.81454    450.83648  0.096580222   0.10091438            1 
  390000     1.188291   -2.8118646    453.21267  0.096840314   0.10089641            1 
  391000    1.2004419   -2.8231596    452.04822  0.096344463   0.10087924            1 
  392000     1.182411   -2.8023416    456.30942  0.097004554   0.10086067            2 
  393000    1.1792194   -2.8418521    455.58392  0.096603884   0.10084195            1 
  394000    1.1918442   -2.8083087      456.632  0.096580372   0.10082349            2 
  395000    1.1920114    -2.823609    459.01496  0.096838599   0.10080784            2 
  396000    1.1725583   -2.8086878    459.27231  0.096648214   0.10079193            2 
  397000    1.1584955   -2.8089785    461.01287  0.096770124   0.10077375            2 
  398000    1.1920643   -2.8249124    463.74893  0.097099859   0.10075879            1 
  399000    1.1791574   -2.8236398    465.35218  0.097191349   0.10074567            3 
  400000    1.1888228   -2.8268014    466.57156  0.097202408   0.10073473            2 
  401000    1.1987385    -2.836629    468.46716   0.09735394   0.10072518            2 
  402000    1.2182478   -2.8434504    465.37515  0.096470803   0.10071444            2 
  403000    1.1717552   -2.8159508    467.98016   0.09677009   0.10070339            1 
  404000    1.2265129   -2.8508286    470.15092  0.096978324   0.10069376            3 
  405000    1.1616708   -2.8474302    468.95584  0.096492971   0.10068294            2 
  406000    1.1568653   -2.8361414    472.83432   0.09705138   0.10067187            1 
  407000     1.205361   -2.8312165    474.76919  0.097209089   0.10066392            1 
  408000    1.1883831   -2.8130904    477.34259  0.097496444   0.10065644            1 
  409000    1.2035004   -2.8297215    476.86175  0.097160096   0.10064702            1 
  410000    1.1591581   -2.8104041    479.17217  0.097392718   0.10063812            2 
  411000    1.1900943   -2.8283003     477.7423  0.096865835   0.10062748            1 
  412000    1.1676315   -2.7880605    480.40645  0.097169589   0.10061518            1 
  413000    1.2133767    -2.830118     481.9297  0.097241667   0.10060465            1 
  414000    1.1684625   -2.8145295    483.33218  0.097289085    0.1005935            2 
  415000    1.1748046   -2.8064645    482.58659  0.096904938   0.10058457            1 
  416000    1.1821796   -2.8120225    487.20061  0.097596275   0.10057401            2 
  417000     1.198996   -2.8297145    485.00626  0.096923713   0.10056211            1 
  418000     1.195301   -2.8360906    487.22587  0.097134344   0.10055097            1 
  419000    1.1989366    -2.817296    488.57552  0.097170947   0.10053852            3 
  420000    1.1869422   -2.8232944    488.76997  0.096978168   0.10052867            4 
  421000    1.2063998   -2.8427263    489.33455  0.096859571   0.10051961            4 
  422000    1.1796411   -2.8361602     492.7816  0.097310742   0.10050998            1 
  423000    1.1940421    -2.851554    492.51893  0.097028946   0.10049935            3 
  424000     1.192901   -2.8183018    493.63724  0.097019897   0.10048626            2 
  425000    1.2217006   -2.8225931    493.13764  0.096693654   0.10047349            2 
  426000     1.185957   -2.8204901    496.17216  0.097060282   0.10046074            1 
  427000    1.1880082   -2.8343076    496.13674  0.096826062    0.1004487            1 
  428000    1.2369694   -2.8049804    497.15189  0.096797486   0.10043543            1 
  429000    1.2124525   -2.8564425    500.15464  0.097155135   0.10042371            1 
  430000    1.1871653   -2.8201562    501.38071  0.097166805   0.10041342            2 
  431000    1.1760405   -2.8215471    503.09046  0.097271936    0.1004062            1 
  432000    1.1653714   -2.8331941    503.07097  0.097043011   0.10039656            1 
  433000    1.1862595   -2.7949864    505.27074  0.097242251   0.10038511            2 
  434000    1.1705847   -2.8419943     507.3787  0.097422945   0.10037516            4 
  435000    1.1593015   -2.8539723    505.79683  0.096895944   0.10036562            1 
  436000    1.1928962   -2.8010874      508.459   0.09718253   0.10035636            3 
  437000    1.1830644   -2.8086737    508.37541  0.096944206   0.10034825            1 
  438000    1.1675454   -2.8513691    511.21293  0.097262733   0.10034075            2 
  439000    1.1743803   -2.8651203     511.8472  0.097161579   0.10033178            2 
  440000    1.1895837   -2.8167457    512.16118  0.097000224   0.10032169            1 
  441000    1.1772458   -2.8333797    513.67583  0.097066484   0.10031199            2 
  442000    1.1924403   -2.8254163    514.06012  0.096919329   0.10030125            1 
  443000    1.1894103   -2.8421088    513.34138  0.096565345   0.10028997            3 
  444000    1.1794984   -2.8453157    515.60554  0.096772811   0.10027817            1 
  445000    1.1871126   -2.8540968    515.92973  0.096616055   0.10026628            3 
  446000    1.1754417   -2.8390926    516.25247  0.096459729   0.10025359            1 
  447000    1.2061561   -2.8617754    519.96929  0.096936855   0.10024192            2 
  448000    1.1778943   -2.8318638    522.66528  0.097221964   0.10023004            2 
  449000    1.1783226   -2.8161803    521.64938  0.096816885   0.10021842            1 
  450000    1.1767523   -2.8312143     524.0334  0.097043223   0.10020541            2 
  451000    1.1713936   -2.8346499    522.10339  0.096471432   0.10018988            2 
  452000     1.170192   -2.8422266    524.59055  0.096716546   0.10017438            1 
  453000    1.1915269   -2.8089587    526.99574  0.096945501    0.1001611            2 
  454000    1.1782605   -2.8197204    526.33126  0.096609997   0.10014589            2 
  455000    1.1858118   -2.8060718    528.42882  0.096781835   0.10013326            1 
  456000    1.1858917   -2.8798386    528.33174  0.096551853   0.10011908            2 
  457000    1.1739398   -2.8443384    528.80304  0.096426521   0.10010265            2 
  458000    1.1713532   -2.7950631    531.14196  0.096641551   0.10008838            1 
  459000    1.1678679   -2.8564774    531.09251  0.096422024   0.10007358            1 
  460000    1.1783802   -2.8467803    532.23259  0.096418947   0.10005705            3 
  461000    1.1627628   -2.8372028    534.92605  0.096696683   0.10004048            3 
  462000    1.1653126   -2.8156278    532.91189  0.096124078    0.1000235            3 
  463000    1.1682129   -2.8311434      535.812  0.096438445    0.1000041            7 
  464000    1.1897221   -2.8212013    532.46082  0.095628739  0.099983918            3 
  465000    1.1476589   -2.8500922    535.60334  0.095986262  0.099963644            5 
  466000    1.1759449   -2.8208227    537.80396  0.096173813  0.099944917            2 
  467000    1.1791508   -2.8459823    538.98423  0.096178485  0.099927693            1 
  468000    1.1622828   -2.8160937     542.5826   0.09661371  0.099911483            1 
  469000    1.1637695   -2.8572787    543.79998  0.096624019  0.099895827            2 
  470000    1.1658234   -2.8053574      544.073  0.096466843  0.099879803            4 
  471000     1.178407   -2.8527383    543.71276  0.096198294  0.099864376            3 
  472000    1.1737419   -2.8217869    549.02805  0.096932918  0.099847805            1 
  473000    1.1820991     -2.84277    547.09825  0.096387993  0.099833575            1 
  474000    1.1651986   -2.8587454    548.66334  0.096459799  0.099818631            2 
  475000     1.172094   -2.8573948    549.60908  0.096422646  0.099802764            1 
  476000    1.1841712   -2.8691362    549.04327  0.096121021  0.099787553            1 
  477000      1.15833   -2.8165845    551.79987  0.096401096  0.099773414            2 
  478000    1.1628151   -2.8143425    553.19816  0.096443194  0.099758084            2 
  479000    1.1648965   -2.8455038    553.12457  0.096229049  0.099743632            2 
  480000    1.1642787   -2.8164249     558.6279   0.09698401  0.099729663            2 
  481000    1.1885824   -2.8372788    555.49905  0.096240306  0.099715789            1 
  482000    1.1652442   -2.8416386    557.14168  0.096324633  0.099700803            3 
  483000    1.1849654    -2.828744    557.55898  0.096197201  0.099686451            2 
  484000    1.1901189   -2.8268104    561.04292  0.096598299  0.099671741            1 
  485000    1.1719777   -2.8681744    561.43846  0.096467088  0.099655048            1 
  486000    1.1649027    -2.806806    561.96169  0.096358314  0.099639603            1 
  487000    1.1671202   -2.8366392    564.06064  0.096519617  0.099625054            3 
  488000    1.1680253   -2.8501932    565.54871  0.096575941  0.099607835            2 
  489000    1.1573684   -2.8374924    565.10227  0.096302363  0.099589075            1 
  490000    1.1864074   -2.8350672    565.14891  0.096113759  0.099569798            5 
  491000    1.1705092   -2.8326069    567.19165  0.096264706  0.099551203            1 
  492000     1.171842   -2.8648374    565.89015  0.095848603  0.099531109            2 
  493000    1.1682111   -2.8377828    566.97119  0.095836915  0.099510863            2 
  494000    1.1497442    -2.835065    568.78526   0.09594893   0.09949047            2 
  495000     1.186965    -2.849414    570.31712  0.096012983  0.099470761            2 
  496000    1.1780215    -2.847704    570.33013  0.095821594  0.099451731            2 
  497000    1.1939931   -2.8626558    572.70902  0.096027668  0.099431951            2 
  498000    1.1781051   -2.8244934    571.50102  0.095632701  0.099411522            2 
  499000    1.1716757   -2.8750077    575.47524   0.09610475  0.099390912            2 
  500000    1.1507666   -2.8188146    576.26345  0.096043908  0.099371945            2 
  501000    1.1569227   -2.8526432    574.58403  0.095572858   0.09935331            1 
  502000     1.169827   -2.8277048    577.97105  0.095944729  0.099332378            1 
  503000    1.1880654   -2.8176071    580.85204  0.096231286  0.099313232            1 
  504000    1.1679172   -2.8282206    580.57763  0.095994979   0.09929503            1 
  505000    1.1833374   -2.8002372    583.76877   0.09633148  0.099276106            2 
  506000    1.1597758   -2.8508631    581.79234  0.095815603  0.099257674            1 
  507000    1.1657315   -2.8636808    582.76973  0.095787267  0.099237463            3 
  508000    1.1865694   -2.8639361    583.42715  0.095706554  0.099217872            1 
  509000    1.1745983    -2.859651    583.49679  0.095529926  0.099196693            2 
  510000     1.168072   -2.8372626    584.97863  0.095584743  0.099175734            2 
  511000    1.1734612   -2.8317737    583.58872  0.095171024  0.099155568            3 
  512000    1.1669583   -2.8497523    587.49797  0.095621414  0.099133663            1 
  513000    1.2094822    -2.829628    588.59162  0.095612675  0.099111268            1 
  514000    1.1657034    -2.878655    588.30456  0.095380116  0.099090168            3 
  515000    1.1622909    -2.847858    592.89249  0.095937295  0.099068538            3 
  516000    1.1859343   -2.8240051    594.03363  0.095935664  0.099048972            1 
  517000    1.1842933   -2.8645934     593.2655  0.095626289  0.099030963            2 
  518000    1.1646014   -2.8244403    596.84744  0.096017927  0.099012976            2 
  519000    1.1673964   -2.8216137    596.72428  0.095813147  0.098997331            1 
  520000    1.1520552   -2.8523817    598.58863  0.095927665  0.098980024            1 
  521000     1.169988   -2.8639413    599.95635  0.095962308  0.098964625            1 
  522000    1.1696617   -2.8535498    600.50369  0.095865851  0.098949015            4 
  523000    1.1776135   -2.8258172    604.04459  0.096246748  0.098935571            1 
  524000    1.1704189   -2.8337421    602.25431  0.095778357  0.098920367            2 
  525000     1.180449   -2.8214841    606.96661  0.096343906  0.098906783            1 
  526000    1.1413229   -2.8747581    606.85868  0.096143644  0.098891608            1 
  527000    1.1565632   -2.8509283    604.82159  0.095639087  0.098874761            1 
  528000    1.1659196   -2.8383309    606.66029  0.095748152  0.098858476            2 
  529000    1.1429892   -2.8587854    609.02245  0.095939264  0.098839537            1 
  530000    1.1630928   -2.8108001    605.58612  0.095217943   0.09882189            1 
  531000     1.182006   -2.8459714    607.33061    0.0953124  0.098803179            1 
  532000    1.1763071   -2.8573551    609.56745  0.095483623  0.098783041            1 
  533000    1.1187892    -2.858961    613.43504  0.095909168  0.098762393            4 
  534000    1.1489022   -2.8738094    611.82684  0.095478595  0.098742005            1 
  535000    1.1464392   -2.8268428     613.0082  0.095484144  0.098722473            1 
  536000    1.1652048   -2.8341186    614.48185  0.095535113  0.098702338            2 
  537000    1.1689189   -2.8251568    616.76683  0.095711798  0.098682559            3 
  538000    1.1921638   -2.8360861     616.1734  0.095441977   0.09866166            2 
  539000     1.157337   -2.8308493    618.54061  0.095630892  0.098642256            1 
  540000    1.1988753   -2.8631292    617.63818  0.095314533  0.098623444            2 
  541000    1.1567823    -2.834719    618.37456   0.09525178  0.098604811            2 
  542000    1.1806653   -2.8526188    622.20583  0.095665104  0.098585779            2 
  543000     1.152676   -2.8715406    620.45976  0.095220957  0.098567218            1 
  544000    1.1416082    -2.855251    618.90319  0.094807474  0.098547959            1 
  545000    1.1437102   -2.8350328     624.8582  0.095544067  0.098530051            3 
  546000    1.1535022   -2.8788896    624.18444  0.095266246  0.098512036            2 
  547000    1.1769591   -2.8775672     626.3741   0.09542567  0.098492505            2 
  548000      1.17149   -2.8480867    630.81571  0.095926963  0.098474904            2 
  549000    1.1464612   -2.8745552     628.0341   0.09533001  0.098456358            2 
  550000    1.1609944   -2.8207761    630.24368  0.095491467  0.098439288            1 
  551000    1.1605061   -2.8618954    627.23245  0.094862741   0.09842064            2 
  552000    1.1646718   -2.8264177    631.25809  0.095298625  0.098401999            3 
  553000    1.1783605   -2.8544618    631.11494  0.095104723  0.098383697            1 
  554000    1.1580687   -2.8553189    633.93868  0.095357804  0.098363235            2 
  555000    1.1882033   -2.8333302    637.01648   0.09564812  0.098345836            2 
  556000    1.1606755   -2.8530261     637.9784  0.095620264    0.0983285            2 
  557000    1.1492374   -2.8303376     640.2949  0.095795167  0.098312096            1 
  558000    1.1470626   -2.8453443    638.67202  0.095381126  0.098295097            2 
  559000    1.1598275   -2.8476628    640.94717  0.095549667  0.098278431            2 
  560000    1.1587621   -2.8259734    638.98336  0.095086809  0.098261582            4 
  561000    1.1637579   -2.8622725    640.21158  0.095099759  0.098242176            2 
  562000    1.1684709   -2.8464818     644.3353  0.095542007  0.098221295            3 
  563000    1.1523164   -2.8532336    645.26219    0.0955095  0.098203134            3 
  564000    1.1594395   -2.8502049    645.28139  0.095342995  0.098185545            1 
  565000    1.1614782   -2.8532215    646.01184  0.095281982  0.098167046            5 
  566000    1.1683016   -2.8478942    646.83076  0.095234211  0.098149321            2 
  567000    1.1720385   -2.8451941    644.37331  0.094705072  0.098129743            2 
  568000    1.1887666   -2.8685038    647.36588  0.094977389   0.09810986            2 
  569000    1.1613122   -2.8375865    653.44187  0.095700333  0.098089256            5 
  570000     1.185195   -2.8680601    649.20704   0.09491331  0.098069738            2 
  571000    1.1386308   -2.8438272    650.09138   0.09487615  0.098049946            2 
  572000    1.1558762    -2.869304    652.99751   0.09513367  0.098029707            2 
  573000    1.1832451   -2.8353706    649.93678   0.09452251  0.098009998            1 
  574000    1.1428209   -2.8327019    652.98362  0.094800177  0.097989945            3 
  575000    1.1658818   -2.8514414    655.45018   0.09499278   0.09796933            1 
  576000    1.1434901   -2.8710355    654.44436  0.094682343   0.09794994            1 
  577000    1.1525304   -2.8439407    655.97818  0.094739771  0.097928422            1 
  578000    1.1747925   -2.8717015    656.81841  0.094697002  0.097907692            1 
  579000     1.149667    -2.875069    659.08281  0.094859356  0.097886743            2 
  580000    1.1495783   -2.8657992    658.33145  0.094587851  0.097865631            3 
  581000    1.1564174    -2.849831    661.92985  0.094941171  0.097844541            3 
  582000    1.1558535   -2.8467087    660.68734  0.094600135  0.097824588            2 
  583000    1.1430026   -2.8728137    660.57654  0.094422033  0.097804228            3 
  584000     1.152129    -2.852912    663.70286  0.094706458  0.097784799            5 
  585000    1.1760025   -2.8362462    664.67053  0.094682412  0.097763083            2 
  586000    1.1396405   -2.8663561    667.63521  0.094942436   0.09774243            1 
  587000    1.1516331   -2.8843519    666.14392  0.094568983  0.097721398            2 
  588000    1.1748206   -2.8810232    667.60654  0.094615439  0.097701328            1 
  589000    1.1705951   -2.8346467    670.81581  0.094908859  0.097681783            3 
  590000    1.1615595   -2.8343934     672.4357  0.094976793  0.097662574            2 
  591000    1.1704776   -2.8388453    670.33914  0.094520465  0.097642173            4 
  592000    1.1490215   -2.8715544    670.95759  0.094447858  0.097623111            4 
  593000    1.1465872   -2.8676591     672.8304  0.094551771  0.097603191            1 
  594000     1.131466   -2.8552475    672.71117  0.094375865  0.097583064            2 
  595000    1.1415697   -2.8509358    676.75216  0.094783216  0.097561791            1 
  596000    1.1514721    -2.863812    676.32457  0.094564397  0.097543607            1 
  597000    1.1416752   -2.8876926    679.01791  0.094781953  0.097525258            3 
  598000    1.1565588   -2.8414339    682.95888  0.095172642  0.097508218            4 
  599000    1.1666903   -2.8553802    684.24922  0.095193269  0.097493075            2 
  600000    1.1495007     -2.85018    684.74903  0.095104032  0.097478902            2 
  601000    1.1640708   -2.8774614    689.91234  0.095661722  0.097464521            3 
  602000    1.1694612   -2.8653213    685.81957  0.094936264   0.09745002            2 
  603000    1.1394354   -2.8604932    687.42396  0.095000548  0.097435306            2 
  604000    1.1732275    -2.878201    688.67277  0.095015559  0.097419929            2 
  605000    1.1578907   -2.8770432    690.60976  0.095125312  0.097404478            3 
  606000    1.1700356   -2.8579188    689.43128  0.094806282  0.097390107            1 
  607000     1.164254   -2.8975674    689.40951  0.094647104  0.097374998            3 
  608000    1.1613335   -2.8770266    693.00695  0.094984506  0.097360134            1 
  609000    1.1582854   -2.8763659    696.14239  0.095257579   0.09734395            1 
  610000    1.1558851   -2.8405321    696.54507   0.09515643  0.097330851            4 
  611000    1.1462823   -2.8765479    696.34516  0.094973426  0.097315392            2 
  612000     1.128614   -2.8410886    699.06995  0.095189264  0.097300569            4 
  613000    1.1638672   -2.8284592    698.03434  0.094893194  0.097283669            1 
  614000    1.1625878   -2.8923753    697.79627  0.094706334  0.097266882            3 
  615000    1.1605268   -2.9055885    698.26829  0.094616299  0.097250111            3 
  616000    1.1348043    -2.851581    699.68117  0.094653837  0.097233566            2 
  617000    1.1582561   -2.8483788    698.81045  0.094382827  0.097215435            2 
  618000    1.1644886   -2.8481119    701.84923  0.094639864  0.097198632            1 
  619000     1.153982   -2.8637519    699.46476  0.094165962  0.097180092            4 
  620000    1.1589829   -2.8639531    705.94385  0.094884926  0.097162819            2 
  621000    1.1425662   -2.8513853    706.18304  0.094764229  0.097146139            1 
  622000    1.1785712   -2.8706372    706.75419  0.094688397  0.097129684            1 
  623000    1.1789357   -2.8603493    709.94112  0.094962697  0.097114742            1 
  624000     1.178274   -2.8688298    709.06076  0.094692943  0.097099204            1 
  625000    1.1558977   -2.8727535    710.37901  0.094717201  0.097084632            1 
  626000    1.1359003   -2.8814675    713.76851  0.095017107  0.097067681            1 
  627000    1.1734017   -2.8638455    711.66387  0.094585841  0.097052597            2 
  628000    1.1331395   -2.8655219    712.28811  0.094518061  0.097037086            3 
  629000    1.1439828   -2.8792224    713.27493  0.094498534  0.097020865            2 
  630000    1.1330854   -2.8634995    715.58827  0.094654533  0.097004734            3 
  631000     1.137412   -2.8657362    714.82383   0.09440357  0.096988507            1 
  632000    1.1536817   -2.8623191     719.2466  0.094837368  0.096973596            1 
  633000     1.164412   -2.8577289    716.22664  0.094289974   0.09695844            2 
  634000    1.1612893   -2.8500613    723.00979  0.095032832  0.096945236            4 
  635000    1.1314293    -2.877883    722.97044   0.09487801  0.096929973            2 
  636000    1.1605922   -2.8788106    719.71149   0.09430182  0.096914156            1 
  637000    1.1463621   -2.8635087    723.94545  0.094707672  0.096898597            1 
  638000     1.155636   -2.8391708    723.07952  0.094446123   0.09688381            1 
  639000    1.1565274   -2.8600849     721.1172   0.09404241  0.096868607            3 
  640000    1.1566943   -2.8619504    723.64829  0.094225038  0.096851916            2 
  641000    1.1659282   -2.8401815    727.54951   0.09458522   0.09683645            1 
  642000    1.1588206   -2.8809396    728.62418  0.094577386  0.096821543            2 
  643000    1.1594772   -2.8708499    729.84492  0.094588507  0.096805793            2 
  644000    1.1480197   -2.8630752    730.41325  0.094515172  0.096789736            3 
  645000    1.1530671   -2.8851262    729.69752  0.094276165  0.096774903            5 
  646000    1.1506932   -2.8867523    731.25332  0.094330924  0.096759387            3 
  647000    1.1418495   -2.8764836    733.17013   0.09443201  0.096744132            3 
  648000    1.1613347   -2.8818898    735.13925  0.094539512   0.09672937            1 
  649000    1.1623624   -2.8641109    735.36955  0.094423414  0.096715365            3 
  650000    1.1812903   -2.8508795    735.56321  0.094302975  0.096701611            2 
  651000    1.1401043   -2.9004588    737.61712  0.094421035  0.096686696            1 
  652000    1.1427042   -2.8696107    737.74345  0.094292363  0.096672835            1 
  653000    1.1253476   -2.8685317    741.41034  0.094615919  0.096658364            2 
  654000    1.1636774   -2.8599461    739.84328   0.09427157  0.096645541            1 
  655000    1.1441298   -2.8859315    742.85099  0.094510304  0.096633241            1 
  656000    1.1434897   -2.8727351    745.49442  0.094702035  0.096621551            3 
  657000    1.1333476   -2.8845156    747.14417  0.094767144  0.096609577            1 
  658000    1.1452117   -2.8600661    748.61175  0.094808986  0.096597039            4 
  659000    1.1416984   -2.8768255    749.39596  0.094764285  0.096586784            1 
  660000    1.1366024    -2.899882    752.00854  0.094950573  0.096575839            1 
  661000    1.1652307   -2.8686132    751.48954  0.094741495  0.096565582            1 
  662000    1.1326247    -2.868344    748.77409  0.094256557  0.096553015            2 
  663000    1.1330171   -2.8681735    755.35406  0.094941435  0.096540304            2 
  664000    1.1228968   -2.8867866    754.82284  0.094731782  0.096528294            2 
  665000    1.1350477   -2.8636099    751.29303  0.094146996  0.096514211            1 
  666000    1.1571584   -2.8770174    756.25134  0.094626044  0.096500393            2 
  667000    1.1496145   -2.8874192    755.64502  0.094408423  0.096487896            3 
  668000    1.1455995   -2.8862301    753.08452  0.093947669  0.096473507            2 
  669000    1.1318832     -2.89789    757.77419  0.094391404  0.096458627            1 
  670000     1.137485   -2.8836322    759.67946  0.094487495  0.096444568            1 
  671000    1.1398149   -2.8902405    758.26003  0.094170397  0.096430653            1 
  672000    1.1728924   -2.8599087    758.35919  0.094042559  0.096417288            1 
  673000    1.1546838   -2.9045128    760.18778  0.094129245  0.096403765            1 
  674000    1.1615093   -2.8841788    764.56265  0.094530495  0.096390046            1 
  675000    1.1486898   -2.9111754    762.53728  0.094140405  0.096375833            2 
  676000    1.1776489    -2.866098    762.47687  0.093993697   0.09636152            2 
  677000    1.1392189   -2.8750125    768.57748  0.094605796  0.096349206            1 
  678000    1.1653154   -2.8717639     768.5539   0.09446336  0.096337548            2 
  679000    1.1498689   -2.9021478    770.00905  0.094502829  0.096324394            2 
  680000    1.1537775   -2.8646742    770.39252  0.094410848   0.09631109            3 
  681000    1.1440756   -2.8937615     771.6284  0.094423446  0.096297342            2 
  682000    1.1432537   -2.8839473    768.50068   0.09390282  0.096282467            2 
  683000    1.1387111   -2.8773971     772.5181  0.094255503  0.096268303            2 
  684000    1.1608554   -2.8767625    773.70194  0.094261932  0.096254115            1 
  685000    1.1501835   -2.8354109    775.59142  0.094354187  0.096239012            1 
  686000    1.1388677   -2.8723421     776.6296   0.09434276  0.096224675            1 
  687000    1.1289842   -2.9099889     774.8687  0.093991837  0.096210926            1 
  688000    1.1568763   -2.8383853    780.05183  0.094483021  0.096197903            1 
  689000    1.1380365   -2.8775206    776.35986  0.093899354  0.096183891            3 
  690000    1.1181048   -2.8937114    777.87542  0.093946307   0.09616944            1 
  691000    1.1482025   -2.8690918    781.56328  0.094255099  0.096155614            2 
  692000    1.1521667   -2.8743211    780.21691  0.093956757  0.096140097            1 
  693000    1.1304056   -2.8701526    780.78751  0.093889792  0.096125342            1 
  694000    1.1430744   -2.8681951    785.15005  0.094278344  0.096111787            3 
  695000    1.1397814   -2.8951853    780.09434  0.093536491  0.096096688            2 
  696000     1.142243   -2.8618993    785.14018  0.094006248  0.096081514            1 
  697000    1.1449391   -2.8830145     786.6168  0.094047919  0.096065806            1 
  698000    1.1416264   -2.8451496    787.05505  0.093965503  0.096050467            2 
  699000    1.1378157    -2.887141    788.53256   0.09400722  0.096036433            3 
  700000    1.1192931   -2.9143649    785.79708  0.093547272  0.096022171            2 
  701000    1.1265024   -2.9036655    790.75246  0.094002908  0.096007186            2 
  702000     1.127772   -2.8668649    790.97426  0.093895329  0.095993958            4 
  703000    1.1301953   -2.8874186    797.39018  0.094522306  0.095980417            1 
  704000    1.1443266   -2.8903723     791.6123  0.093704107  0.095967671            2 
  705000    1.1386948   -2.8866096    798.10269  0.094338379  0.095953546            1 
  706000    1.1157037   -2.8910069    798.03483  0.094196745  0.095940535            2 
  707000    1.1443555   -2.9022271    796.56917  0.093890755   0.09592656            2 
  708000    1.1562843   -2.8776827    798.69393   0.09400823  0.095912585            3 
  709000    1.1535234   -2.9007525    800.33339  0.094068335  0.095899974            1 
  710000    1.1392226    -2.905658    801.75103  0.094102234  0.095886771            1 
  711000     1.146291   -2.8747565    799.97059  0.093761204  0.095873664            3 
  712000    1.1386126   -2.8651736    804.41609  0.094149824  0.095859426            2 
  713000    1.1204596   -2.8799137    804.17604   0.09398972   0.09584653            3 
  714000    1.1449584   -2.8709631    803.83106  0.093817818  0.095832877            2 
  715000    1.1384271   -2.9138447    804.66233  0.093783488   0.09581993            3 
  716000    1.1642153   -2.8583909    808.04481  0.094046183  0.095805489            1 
  717000    1.1423053   -2.8860948    807.81589  0.093888411   0.09579192            2 
  718000    1.1423066   -2.8840297     806.3627  0.093588985   0.09577861            1 
  719000    1.1512219   -2.9009111    806.22366  0.093442705  0.095763445            2 
  720000    1.1515508   -2.8841168    811.01912  0.093867954  0.095749815            2 
  721000     1.127877    -2.889679    812.43524  0.093901437  0.095736048            1 
  722000    1.1666819   -2.8912347    815.69526  0.094147653  0.095723371            5 
  723000    1.1337707   -2.8808966    816.05942  0.094059408  0.095710933            3 
  724000    1.1602584   -2.9015542     815.5721    0.0938734  0.095698349            5 
  725000    1.1515394   -2.8957319    816.40261  0.093839381  0.095685736            5 
  726000    1.1609926   -2.8723837    822.25868   0.09438231  0.095674191            2 
  727000    1.1229608   -2.8655804    823.94616  0.094445915  0.095662655            2 
  728000    1.1288481   -2.8812908    817.81947  0.093614866   0.09565178            1 
  729000    1.1363304   -2.8753866    822.35595  0.094005024  0.095639915            3 
  730000    1.1498672   -2.8738538    823.35678    0.0939905  0.095628974            2 
  731000    1.1297764   -2.8775927    821.45493  0.093645113  0.095616334            3 
  732000    1.1214505   -2.8973099    821.55584   0.09352867  0.095603956            3 
  733000     1.151386   -2.8711983    825.88027  0.093892709  0.095592394            1 
  734000    1.1384397   -2.8831098    824.77879  0.093639736  0.095581486            2 
  735000     1.124553   -2.8862654    828.79496  0.093967682  0.095569343            1 
  736000     1.136944    -2.886057    827.26976  0.093667319  0.095557245            2 
  737000    1.1461464   -2.8924914    828.91478   0.09372623  0.095546012            4 
  738000    1.1328741   -2.8661919    833.12294  0.094074407  0.095533391            4 
  739000    1.1309682   -2.8685854    831.31003  0.093742674  0.095521694            6 
  740000     1.139896   -2.8944285    833.22912  0.093832108  0.095508519            2 
  741000    1.1427352   -2.9015133    833.05363  0.093685744  0.095495277            1 
  742000    1.1450221   -2.8909367     832.8018    0.0935312  0.095482597            4 
  743000    1.1306809   -2.8803159      839.943  0.094206258  0.095470399            2 
  744000    1.1195374    -2.901527    838.22465   0.09388717  0.095457529            2 
  745000    1.1122018   -2.8628502    837.64826  0.093696674  0.095446155            1 
  746000      1.12222   -2.9049772    837.53139  0.093558019  0.095435087            2 
  747000    1.1240672   -2.9088044    836.34045  0.093299916   0.09542243            2 
  748000     1.127858   -2.8622458    838.24865  0.093387773  0.095409868            1 
  749000    1.1165769   -2.8995609    841.04356   0.09357405  0.095397217            3 
  750000    1.1458823   -2.8920965    842.43812  0.093604236   0.09538366            1 
  751000     1.119739   -2.8863333     840.3383  0.093246593  0.095370765            3 
  752000    1.1274182   -2.8842508    842.69325   0.09338356  0.095356283            3 
  753000    1.1371023   -2.8851369    847.84865  0.093830085  0.095343028            1 
  754000    1.1215061   -2.8731544    847.24084  0.093638466   0.09533004            3 
  755000    1.1173085   -2.9010156    847.50782   0.09354391   0.09531778            4 
  756000    1.1160324   -2.8494395    851.68222  0.093880315  0.095304489            2 
  757000    1.1409418     -2.88273    849.87384  0.093557225  0.095291959            3 
  758000    1.1433031   -2.8745325    849.91215  0.093438012  0.095277688            1 
  759000    1.1141319   -2.8782163    854.52351  0.093821202  0.095265354            2 
  760000    1.1355611   -2.8826855    855.27502  0.093780156  0.095253122            2 
  761000    1.1383062   -2.8960058     854.4425  0.093565758  0.095240842            1 
  762000    1.1283451   -2.8689373    859.52036   0.09399829  0.095228787            1 
  763000    1.1079033    -2.882929    862.11403  0.094158369  0.095217785            2 
  764000    1.1429312   -2.8738942    862.67601  0.094096423  0.095206434            2 
  765000    1.1481429   -2.8997739    857.16747  0.093373363  0.095194366            1 
  766000    1.1394138   -2.8856289    861.17489  0.093687433  0.095183021            4 
  767000    1.1587996   -2.8654793    861.85025  0.093638662  0.095170889            2 
  768000    1.1018228   -2.9327122    859.48676  0.093260282   0.09515812            3 
  769000    1.1007211   -2.8898283     862.3659  0.093451007  0.095145976            1 
  770000    1.1495476   -2.8945289    865.67787  0.093688081   0.09513361            1 
  771000    1.1237479   -2.8856289    862.86281  0.093262301  0.095121829            2 
  772000    1.1196883   -2.8684398    869.04158  0.093808461  0.095110304            1 
  773000    1.1015168   -2.9079108     871.5672  0.093959379  0.095098679            1 
  774000    1.1156328   -2.8967007    871.22953  0.093801629  0.095087719            1 
  775000    1.1249634   -2.8393946     871.1555  0.093672634  0.095076898            2 
  776000    1.1334561   -2.8641011    872.78901  0.093727342  0.095064939            1 
  777000     1.131676   -2.8838733    867.91656  0.093084144  0.095053507            2 
  778000    1.1175171   -2.9328527    872.25895  0.093429622  0.095041907            2 
  779000    1.1309629   -2.8960332     873.2644  0.093417244  0.095030219            2 
  780000    1.1093693   -2.9096444    874.36497  0.093415061  0.095018007            5 
  781000    1.1184656   -2.8915521     875.9602  0.093465664  0.095005596            2 
  782000    1.1277132   -2.8562306    877.85094  0.093547628  0.094994073            4 
  783000    1.1146425   -2.8844657    876.78399  0.093314601   0.09498278            1 
  784000    1.1335449    -2.886062     881.1001  0.093654347  0.094970929            1 
  785000    1.1106173   -2.8809126    878.71761  0.093282125  0.094958201            2 
  786000    1.1131156    -2.911133     881.3315  0.093440575   0.09494656            1 
  787000    1.1251669   -2.8714842     881.3907  0.093328113  0.094934535            3 
  788000    1.1271648   -2.8946171     884.4998  0.093538473  0.094922203            1 
  789000    1.1008444   -2.8942183    885.31175  0.093505677    0.0949094            2 
  790000    1.1285498   -2.9059548     882.8894  0.093131793  0.094896919            3 
  791000    1.1134041   -2.9126251     887.6515   0.09351575  0.094884475            2 
  792000    1.1351057   -2.9097648    888.81695  0.093520302   0.09487318            2 
  793000    1.1133448   -2.9123516    885.00307  0.093001583  0.094860105            3 
  794000    1.1187296   -2.8938308    887.43497   0.09313969  0.094848115            2 
  795000    1.1123279   -2.9331709    889.52435  0.093241546  0.094834807            1 
  796000    1.1219703   -2.8960922     891.4481  0.093325806  0.094821711            3 
  797000    1.1193932   -2.9074529    889.19208  0.092972823  0.094808075            2 
  798000    1.1368649   -2.9193793    889.67837  0.092907098  0.094795291            3 
  799000    1.1228733   -2.8955445    892.51215  0.093086374  0.094782596            2 
  800000    1.1144362   -2.9156656    892.57082  0.092976127  0.094768914            3 
  801000     1.133814   -2.9113164    899.09361  0.093538661   0.09475554            2 
  802000    1.1302976   -2.8876213    898.06954  0.093315621  0.094742056            4 
  803000    1.1284858   -2.8938615    898.47781  0.093241782  0.094728257            1 
  804000    1.1106905   -2.9140665    898.31461  0.093108894  0.094714709            1 
  805000    1.1460037   -2.8844573    898.34255  0.092996123  0.094700541            2 
  806000    1.1088171   -2.9176531    901.12897  0.093168835  0.094687344            2 
  807000     1.105541   -2.9003354    896.78577  0.092604892  0.094673443            2 
  808000    1.1243345   -2.8972105    902.97261  0.093128364  0.094660106            3 
  809000    1.1266419   -2.8948779    902.33656   0.09294773  0.094646086            3 
  810000    1.1483028   -2.9268602    903.07785  0.092909244  0.094631903            2 
  811000    1.1304084    -2.903567    904.14842  0.092904688  0.094617715            2 
  812000    1.1242234   -2.8942408     903.3478  0.092708108  0.094603154            2 
  813000    1.1372958   -2.8821075     905.4698  0.092811583  0.094589824            3 
  814000    1.1201176   -2.9153724    910.12573  0.093174214  0.094574587            3 
  815000    1.1241415   -2.8629816    911.82401  0.093233539  0.094560498            1 
  816000    1.1088182    -2.915501     913.9152  0.093332843  0.094547187            1 
  817000    1.1077917   -2.8908608    908.43416  0.092659543  0.094532812            6 
  818000    1.1180947   -2.9295052    907.55551  0.092456755  0.094518445            1 
  819000    1.0767417   -2.8849985    910.76897  0.092670835  0.094502908            1 
  820000     1.119844   -2.8928904    913.24648  0.092809602  0.094486789            3 
  821000     1.103883   -2.8930978    911.49099  0.092518371  0.094471697            2 
  822000     1.117471   -2.8982604    912.53466  0.092511624  0.094454965            3 
  823000    1.1208068   -2.9006465    912.19098  0.092364417  0.094438889            1 
  824000    1.1190118    -2.914629    913.29901  0.092364382  0.094422125            1 
  825000    1.1429557   -2.8862374     918.0737  0.092734717  0.094407184            1 
  826000     1.105103   -2.8924585    916.39704  0.092453293  0.094392327            1 
  827000    1.1341441   -2.9229546    912.56619   0.09195548  0.094376241            2 
  828000    1.1291618   -2.8778706    918.15935  0.092407342  0.094359401            4 
  829000    1.1264762    -2.904631     922.6051  0.092742772  0.094344085            4 
  830000    1.1368056   -2.9205132    918.21179  0.092189939   0.09432785            2 
  831000    1.1282009   -2.9179592    921.43653   0.09240238  0.094311365            1 
  832000    1.1098437   -2.9301234    919.76287  0.092123685  0.094294537            2 
  833000    1.1603817   -2.8816539     922.3849    0.0922754  0.094278514            3 
  834000    1.1073477   -2.9186068    925.25781  0.092451819   0.09426255            1 
  835000    1.1130053   -2.8881945    921.26315   0.09194243  0.094246254            1 
  836000    1.1156356    -2.931753    925.70996  0.092275713  0.094230172            3 
  837000    1.1136692   -2.8796643    925.96523  0.092190883  0.094214023            1 
  838000    1.1361828   -2.8922808    927.27715  0.092211331  0.094198097            3 
  839000    1.1192554   -2.9174949    926.24699  0.091999105  0.094182415            3 
  840000    1.1151776   -2.8937981    933.16001  0.092575398  0.094165507            3 
  841000    1.1117431   -2.9156512    928.40459  0.091994113  0.094148552            2 
  842000    1.1010465   -2.8926773    931.85906  0.092226748  0.094131848            4 
  843000    1.1180716   -2.9038556    928.46394  0.091781726  0.094115369            1 
  844000     1.138631   -2.8944325    935.84069  0.092401332  0.094098691            2 
  845000    1.1106935   -2.8957958     935.5907  0.092267327  0.094083268            1 
  846000    1.1171185   -2.9272147    934.98567  0.092098667  0.094066901            2 
  847000    1.0903425   -2.8930829     937.9592  0.092282487  0.094050536            2 
  848000    1.1153873   -2.8995206    938.40698  0.092217667   0.09403471            3 
  849000    1.0860305    -2.893124    936.48335  0.091920234  0.094017633            1 
  850000    1.0976432   -2.9161928    940.56054  0.092211818  0.094001186            5 
  851000    1.0794393   -2.9526207    933.85115   0.09144645  0.093984655            5 
  852000     1.106861   -2.9085231    942.64799  0.092199529  0.093967716            2 
  853000    1.0986475   -2.9272736    939.70318  0.091803749  0.093950608            2 
  854000    1.1387441   -2.9254088    944.03719  0.092119163  0.093934207            2 
  855000     1.128442   -2.8906333    947.20452  0.092320129  0.093919189            1 
  856000    1.1068969    -2.916669    942.82184  0.091785615  0.093902059            2 
  857000    1.1274784   -2.8983923    946.37257  0.092023782  0.093884373            1 
  858000    1.1078431   -2.8978848     946.5549  0.091934236   0.09386718            4 
  859000    1.1117063   -2.9128806    945.61395  0.091735928  0.093849641            3 
  860000    1.1149294   -2.8843844    945.93621  0.091660485  0.093832248            2 
  861000    1.1077796   -2.8857777    950.53582  0.091999208  0.093815667            2 
  862000    1.1029088    -2.919067    947.72036  0.091620298  0.093798321            2 
  863000    1.1045098   -2.9023087     953.7457  0.092095954  0.093781728            1 
  864000    1.1317867   -2.8945711    954.68335  0.092079799  0.093764492            2 
  865000    1.1179883   -2.8904283    954.18721   0.09192555  0.093747616            3 
  866000    1.1352274   -2.9391474    948.72612  0.091293891  0.093730008            6 
  867000    1.0927853   -2.8925284    955.37414  0.091827579  0.093712197            2 
  868000    1.1001023   -2.9348123    950.87226   0.09128958    0.0936945            2 
  869000    1.1013814   -2.9236434    953.71209  0.091456856  0.093676698            2 
  870000    1.0899512   -2.8674768     956.4678  0.091615689  0.093658644            1 
  871000      1.11166   -2.8993613      956.556  0.091518944  0.093640549            2 
  872000    1.1038642   -2.9278588    954.27928  0.091196414  0.093623052            2 
  873000    1.1399165   -2.8983373    957.87551  0.091435234    0.0936044            4 
  874000    1.1042693   -2.9132365      960.629  0.091593154  0.093586868            1 
  875000    1.1003744   -2.9048032    960.81941  0.091506611   0.09357013            2 
  876000    1.1062494   -2.9380654    962.17881   0.09153147   0.09355236            1 
  877000    1.0872562   -2.9170094    966.95849   0.09188127  0.093535424            1 
  878000    1.1083363   -2.9350011    964.73173  0.091565274   0.09351901            2 
  879000    1.1012989   -2.9046723    969.16957  0.091881833  0.093503149            1 
  880000    1.0795656   -2.9042666     970.2859  0.091883135  0.093486875            2 
  881000    1.1098643   -2.9106317    966.56799  0.091427165  0.093469772            5 
  882000    1.0934828   -2.9065351    974.40509  0.092063973  0.093453341            2 
  883000    1.1125722   -2.9251013    974.35458  0.091954943  0.093437358            3 
  884000      1.10382     -2.91091    971.39698  0.091572113  0.093421177            3 
  885000    1.1440623   -2.9452814    973.22427  0.091640703  0.093405893            6 
  886000    1.1039021   -2.9277768     972.4291  0.091462481  0.093389541            3 
  887000    1.1102603   -2.8972488    973.20385  0.091432154  0.093373908            1 
  888000    1.1122876   -2.9117548    974.16099  0.091419012  0.093356654            1 
  889000    1.1286723   -2.9168438    974.31242  0.091330373  0.093340152            1 
  890000    1.1042429   -2.9032312    976.57112  0.091439244  0.093323057            4 
  891000    1.1282502   -2.8982856    977.25219  0.091400317  0.093305833            2 
  892000    1.0923815     -2.92441    976.33263  0.091211942  0.093288687            1 
  893000    1.1068452   -2.8956791    978.14569  0.091278993   0.09327133            2 
  894000    1.0873824   -2.8990291    983.72992   0.09169742  0.093254338            4 
  895000    1.0861155    -2.928042    982.61891  0.091491519   0.09323837            3 
  896000    1.1176616   -2.9243595    984.24556  0.091540696  0.093221764            1 
  897000    1.1325109   -2.8922247    985.16881  0.091524415  0.093205956            1 
  898000    1.1161137   -2.9157149    988.72001  0.091752042  0.093189402            1 
  899000    1.1258382   -2.9334623    983.15087  0.091133748   0.09317339            5 
  900000    1.0968028   -2.9024224    987.27734  0.091414569  0.093157056            1 
  901000    1.1177007   -2.8922944    993.57754  0.091895814  0.093140826            3 
  902000    1.1150805   -2.9158401    987.98352  0.091277117  0.093124983            4 
  903000    1.0982608   -2.9203232    990.64897  0.091422016  0.093108547            3 
  904000    1.1007289   -2.9284498    987.57775  0.091037771  0.093092121            2 
  905000    1.1086868   -2.9041088    991.18464  0.091269304  0.093075331            3 
  906000    1.1100645   -2.9294807     990.9089  0.091143203   0.09305837            3 
  907000    1.0894071    -2.897099    995.43138  0.091458231  0.093041622            2 
  908000    1.1082441   -2.9220773    995.17646   0.09133411  0.093025884            1 
  909000    1.1098674   -2.9129329    995.79403  0.091290248  0.093009931            2 
  910000    1.1087911    -2.911363    993.31589  0.090962993  0.092993088            3 
  911000    1.0999441   -2.9442768     996.5994  0.091163502  0.092975832            2 
  912000    1.1168549    -2.915587    996.41031  0.091046264  0.092957665            2 
  913000     1.101826   -2.9304627     999.9092    0.0912659  0.092940988            2 
  914000    1.1060826   -2.9095278    995.39775  0.090754718  0.092924446            2 
  915000     1.084446   -2.8878068    1000.0439  0.091078679  0.092908384            2 
  916000    1.1049479   -2.9192184    1003.9162  0.091331532  0.092892559            2 
  917000    1.0954307   -2.9240679     1000.733  0.090942654  0.092876769            3 
  918000    1.0858404    -2.935786     1002.394  0.090994368  0.092860046            3 
  919000    1.0979577   -2.9316992    1003.3672  0.090983603  0.092842765            3 
  920000    1.0893131   -2.9057983    1004.3211  0.090971114  0.092825878            2 
  921000    1.1346974   -2.9115217    1006.2019  0.091042516   0.09280946            4 
  922000    1.1137242   -2.9371946    1008.0481  0.091110634  0.092792085            1 
  923000    1.0927805    -2.944521    1005.6162  0.090792366   0.09277494            1 
  924000    1.1036978   -2.9490764    1007.1923  0.090836246  0.092758069            5 
  925000     1.123974   -2.8960477    1012.6283  0.091227779   0.09274107            2 
  926000    1.0882365   -2.9195751    1010.0641  0.090898497  0.092725652            2 
  927000    1.1167494   -2.9445379     1010.887  0.090874416  0.092709392            4 
  928000    1.1201451   -2.9321942    1011.4234  0.090824661  0.092692467            2 
  929000    1.1297904   -2.9120241     1009.962  0.090595805  0.092675816            3 
  930000    1.1105856   -2.9264892    1012.2553   0.09070388  0.092659119            2 
  931000    1.0684882   -2.9387697      1013.38  0.090707122  0.092641232            4 
  932000    1.1307485   -2.9349967    1017.4143  0.090970522  0.092623842            1 
  933000    1.1001539   -2.9098789    1017.9311   0.09091918  0.092607277            3 
  934000    1.0903072   -2.9276183    1017.4642  0.090780173  0.092589571            3 
  935000    1.0973397   -2.8934072    1024.7035    0.0913283  0.092573204            3 
  936000    1.0772722     -2.93507      1023.04  0.091082622  0.092556822            1 
  937000    1.0927014   -2.9373081    1017.6243  0.090503764  0.092540059            1 
  938000    1.0924215    -2.935189    1018.9683  0.090526681  0.092522835            2 
  939000    1.1142767   -2.9411087    1021.0543  0.090615396  0.092505256            3 
  940000    1.0945016   -2.9277924     1019.702   0.09039911  0.092488262            1 
  941000    1.1216438   -2.9504349    1022.1301  0.090518077  0.092470998            2 
  942000    1.1410241   -2.9439773    1024.9965  0.090675553  0.092453142            1 
  943000    1.1348534   -2.9370477    1023.5976  0.090455783  0.092435421            1 
  944000    1.1236142    -2.960655    1026.1672  0.090586794  0.092417311            1 
  945000    1.1190971   -2.9397504    1028.3168  0.090680498   0.09239945            1 
  946000    1.0773742   -2.9329753    1030.7948  0.090802924  0.092382164            3 
  947000    1.1143205   -2.9079765    1027.0587  0.090378277  0.092364217            2 
  948000    1.1017288   -2.9227506     1029.052  0.090458159  0.092347066            3 
  949000    1.0861596   -2.9136089    1029.4956  0.090401793  0.092328776            2 
  950000    1.0945273   -2.9327828     1032.748  0.090591934  0.092312049            1 
  951000    1.1008475   -2.9548906    1034.1689  0.090621177  0.092294874            2 
  952000    1.0807643   -2.9119766    1035.5299  0.090645125  0.092278788            2 
  953000    1.1018003   -2.9051342     1034.248  0.090437919   0.09226161            2 
  954000    1.1078284   -2.9483736    1034.2893  0.090346722  0.092244153            2 
  955000    1.0872164   -2.9536488    1033.3141  0.090167026   0.09222586            3 
  956000    1.1049762   -2.9455395    1038.0517   0.09048568  0.092208119            2 
  957000    1.0836862   -2.9382875    1036.2052  0.090230337  0.092190074            2 
  958000    1.1070491   -2.9187216    1036.3352   0.09014746  0.092172622            6 
  959000    1.1313879   -2.9391383    1037.7743  0.090178511  0.092155402            3 
  960000    1.0975991   -2.9311229    1037.7739  0.090084541  0.092137901            3 
  961000    1.0813767   -2.9344976    1038.2708  0.090033886  0.092120608            3 
  962000    1.0932744   -2.9333472     1040.496  0.090133053  0.092102603            3 
  963000    1.0936821   -2.9294906    1037.6299  0.089791444  0.092085505            3 
  964000    1.0739099   -2.9377378    1041.8987  0.090067314  0.092068176            2 
  965000    1.1134542    -2.934319    1045.1882  0.090258046  0.092051015            2 
  966000    1.1140068    -2.918982    1043.8203  0.090046613  0.092033063            1 
  967000    1.1035707   -2.9085443    1047.4789  0.090268779  0.092015117            4 
  968000    1.0920258   -2.9135184     1047.337  0.090163313  0.091997308            1 
  969000    1.0824007   -2.9579862    1043.9903  0.089782446  0.091978951            3 
  970000     1.110543    -2.911982    1045.5502  0.089823902  0.091960635            1 
  971000    1.0856823   -2.9412574    1046.9369  0.089850399  0.091942727            1 
  972000    1.0860592    -2.926554    1047.1867  0.089779385  0.091924906            1 
  973000      1.09225    -2.922869    1045.0506  0.089504159  0.091906686            1 
  974000    1.0996981   -2.9116113    1049.9886  0.089834751  0.091888638            3 
  975000    1.0940862   -2.9180309    1050.0376    0.0897468  0.091869727            3 
  976000    1.0776522   -2.9404604    1053.1419  0.089919902  0.091850732            3 
  977000      1.11153   -2.9337734    1054.9468  0.089981813  0.091831978            1 
  978000    1.1173501     -2.92723    1056.3015  0.090005241  0.091814304            3 
  979000    1.0903238   -2.9374315    1058.8881   0.09013348  0.091797085            3 
  980000    1.0924711   -2.9306142      1051.42  0.089406463  0.091778881            2 
  981000     1.100471   -2.9511772    1056.1122  0.089713913  0.091761093            1 
  982000    1.0810784   -2.9231917    1063.1166  0.090216953  0.091743056            4 
  983000    1.1140891   -2.9272808    1058.7712  0.089756797   0.09172596            1 
  984000    1.0893282   -2.9377478    1056.9072   0.08950772  0.091708429            2 
  985000    1.1080235   -2.9423342    1064.8953  0.090092665  0.091691412            1 
  986000     1.084284   -2.9473673    1064.5532  0.089972378  0.091674306            1 
  987000    1.0670727   -2.9103233    1064.7222  0.089895495  0.091657027            2 
  988000    1.0889374   -2.9452113    1062.2754   0.08959813  0.091639355            2 
  989000    1.0972976   -2.9366822     1068.081  0.089996716  0.091622034            2 
  990000    1.0853483   -2.9468859    1066.1429  0.089742664  0.091603944            2 
  991000    1.0662861    -2.922363    1067.4925  0.089765602  0.091586247            3 
  992000    1.0977562   -2.9297426    1069.8312  0.089871573  0.091568785            3 
  993000    1.0856979   -2.9441056     1071.789  0.089945368  0.091551477            4 
  994000    1.0890763   -2.9349203     1070.024  0.089706909  0.091534986            2 
  995000    1.0876048    -2.905925    1075.5477  0.090079368  0.091517976            2 
  996000    1.1022458   -2.9418535    1075.2904  0.089967399  0.091501824            2 
  997000    1.0658774   -2.9244259    1076.0361  0.089939491  0.091485435            3 
  998000    1.1007965   -2.9015482    1077.0555  0.089934495  0.091469065            3 
  999000    1.0856871   -2.9518182    1074.5613  0.089636409  0.091452651            2 
 1000000    1.0815478   -2.9113358    1078.7821  0.089898507  0.091436108            3 
 1001000    1.0859302    -2.926603    1080.4711  0.089949313  0.091420963            3 
 1002000    1.0648461   -2.9490749    1082.7227  0.090046801  0.091404205            3 
 1003000    1.1004303    -2.924112    1081.6941  0.089871559  0.091387888            3 
 1004000     1.088962    -2.966537    1078.4926  0.089516316  0.091371266            1 
 1005000    1.0931686   -2.9274541    1078.8765   0.08945908  0.091354763            2 
 1006000    1.0766068   -2.9425171    1084.9934  0.089876857  0.091338936            1 
 1007000    1.0756832   -2.9190399    1079.7857  0.089356646  0.091322238            2 
 1008000    1.0962641   -2.9412212    1089.3305  0.090057082  0.091306504            3 
 1009000    1.0758169   -2.9452762    1084.6453  0.089580882  0.091289734            2 
 1010000    1.0948101   -2.9433424    1091.5985  0.090065884  0.091272834            1 
 1011000    1.1026202    -2.922171    1084.7387  0.089411363  0.091255644            4 
 1012000    1.1009265   -2.9296474    1089.4495  0.089710926  0.091238702            5 
 1013000    1.0583154    -2.946433    1088.5556  0.089548828  0.091222054            2 
 1014000    1.0827213   -2.9433308    1090.8996  0.089653158  0.091205711            2 
 1015000    1.0597489   -2.9528319    1089.9264  0.089484928  0.091188417            1 
 1016000    1.0863765   -2.9492874    1090.2415  0.089422694  0.091171263            2 
 1017000    1.0905611   -2.9413824    1095.1831  0.089739687  0.091154352            4 
 1018000    1.0982751   -2.9260147    1098.4208  0.089916569  0.091138662            2 
 1019000    1.0814512    -2.949032    1099.4753  0.089914568   0.09112284            3 
 1020000    1.0940933   -2.9299822    1105.2919  0.090301627  0.091106775            1 
 1021000    1.1023083   -2.9597431     1094.186  0.089306723  0.091090356            1 
 1022000    1.0949645   -2.9411426    1100.4052  0.089726455   0.09107382            5 
 1023000    1.0624373     -2.92031    1096.0972  0.089287813  0.091057923            2 
 1024000    1.0802924   -2.9258202    1100.0649  0.089523512  0.091041475            2 
 1025000    1.0821461   -2.9542682    1097.0196  0.089188588  0.091024251            4 
 1026000    1.0998869   -2.9421208    1101.8982  0.089497904  0.091008015            2 
 1027000    1.0962567   -2.9538762    1105.3168  0.089688156   0.09099106            2 
 1028000    1.0851037   -2.9278916    1103.0369  0.089416092   0.09097466            2 
 1029000    1.0772992   -2.9569826    1106.1618  0.089582266  0.090957835            3 
 1030000    1.0507842   -2.9406779    1107.1632  0.089576308  0.090941341            2 
 1031000    1.0830682   -2.9403386    1105.1182  0.089324137  0.090924121            2 
 1032000    1.0822602    -2.932161    1108.7064  0.089527323  0.090907111            3 
 1033000    1.0878948   -2.9192022    1108.3243  0.089409837  0.090890164            2 
 1034000    1.0939465   -2.9766485    1107.1414  0.089228028  0.090874127            2 
 1035000    1.0967121   -2.9443421    1110.3036  0.089396426  0.090857598            3 
 1036000    1.0823396   -2.9044748    1113.1307  0.089537543   0.09084121            3 
 1037000    1.0808496   -2.9432807    1112.0927  0.089367781  0.090825282            2 
 1038000    1.0654053   -2.9614981    1109.6852  0.089088405  0.090809557            2 
 1039000    1.0804597   -2.9495202     1111.744  0.089167789  0.090793428            3 
 1040000    1.0996164   -2.9347677    1116.7037  0.089479465  0.090777883            2 
 1041000    1.0764644   -2.9122774     1115.406  0.089289625  0.090762413            3 
 1042000    1.0781114   -2.9394421    1116.0007  0.089251497  0.090745831            2 
 1043000    1.0546912   -2.9615826    1112.8672  0.088915568  0.090728893            2 
 1044000    1.1112628   -2.9559271    1117.3045  0.089184583  0.090711293            3 
 1045000    1.0611032   -2.9027024    1119.0503  0.089238458   0.09069412            1 
 1046000    1.0957237   -2.9266901    1119.4459  0.089184667  0.090677337            3 
 1047000    1.0963964   -2.9550649    1116.9426  0.088900239   0.09066011            2 
 1048000    1.0619901   -2.9576765    1118.4946  0.088938817   0.09064301            2 
 1049000    1.0956282   -2.9355553    1115.0433  0.088579861  0.090625931            2 
 1050000    1.0660997   -2.9459761    1119.0664  0.088814792  0.090609488            1 
 1051000    1.0851726   -2.9651423    1119.6949  0.088780123  0.090593332            3 
 1052000    1.0710726   -2.9656379    1121.1563  0.088811492  0.090576643            1 
 1053000    1.0798102   -2.9438303    1124.6735  0.089005503  0.090560179            2 
 1054000    1.0936603   -2.9361374    1123.3961   0.08882006  0.090543461            1 
 1055000    1.0811212   -2.9680373    1123.8734  0.088773571  0.090526586            3 
 1056000    1.0820003   -2.9346403    1126.4121  0.088889843  0.090509104            2 
 1057000    1.0920716   -2.9348306    1126.1241   0.08878304  0.090491333            2 
 1058000    1.0932401    -2.961192    1124.1139  0.088540795  0.090473758            2 
 1059000    1.0831272   -2.9487675    1126.2429  0.088624716  0.090455494            3 
 1060000    1.0964441   -2.9261129    1128.6261  0.088728469  0.090437217            2 
 1061000    1.0860463   -2.9195402    1134.4411  0.089101566  0.090419381            2 
 1062000    1.0755239   -2.9725737    1128.6717  0.088564946  0.090401218            3 
 1063000    1.0649311   -2.9653348    1129.3111  0.088531756  0.090382877            2 
 1064000    1.0798784   -2.9213834    1136.0476  0.088976159  0.090364274            1 
 1065000    1.0914587   -2.9343015    1139.4825  0.089161387  0.090346437            1 
 1066000    1.0804056   -2.9397128    1135.3002    0.0887508  0.090328382            3 
 1067000    1.0787215   -2.9261636    1134.4258  0.088599328   0.09031042            3 
 1068000    1.0852181   -2.9521777    1136.2436  0.088658212  0.090292552            2 
 1069000    1.0774986   -2.9445188    1137.6584  0.088685559  0.090275508            2 
 1070000      1.10224   -2.9324366    1143.3482  0.089045809  0.090258557            2 
 1071000    1.0921974   -2.9604108    1137.3994  0.088499799  0.090241789            2 
 1072000    1.0817735   -2.9702273     1138.684  0.088517104  0.090224411            4 
 1073000    1.0750935   -2.9441686    1143.0915  0.088776907  0.090207758            3 
 1074000    1.0681128    -2.935334    1135.3846   0.08809626  0.090190989            4 
 1075000     1.080963   -2.9245807    1144.9555  0.088756243  0.090174336            2 
 1076000    1.0853071   -2.9952109    1140.3715  0.088318734  0.090157375            1 
 1077000     1.073699   -2.9348224    1148.5103   0.08886647  0.090140188            1 
 1078000    1.0697247   -2.9257722    1152.2775  0.089075257  0.090123374            4 
 1079000    1.0868032   -2.9648353    1142.6384  0.088248253  0.090106466            1 
 1080000    1.0598278   -2.9455108    1146.7774  0.088485912  0.090089281            2 
 1081000     1.077412   -2.9607611    1151.1106  0.088738095  0.090072529            3 
 1082000     1.075552   -2.9755207     1146.232  0.088280342  0.090055559            4 
 1083000    1.0541284   -2.9319612    1150.5564  0.088531577  0.090039382            3 
 1084000    1.0891055   -2.9612024    1152.3045  0.088584291  0.090023633            3 
 1085000    1.0747458   -2.9656807    1152.1489    0.0884907  0.090007585            2 
 1086000    1.0578388   -2.9542375    1151.4791  0.088357819  0.089991117            3 
 1087000    1.0648261   -2.9585388    1155.5531  0.088588861  0.089973903            2 
 1088000    1.0625726   -2.9561863    1154.5817  0.088433034  0.089957044            3 
 1089000    1.0666671   -2.9462685    1152.4152  0.088186039  0.089941073            1 
 1090000    1.0586274   -2.9747795    1158.1493  0.088543526  0.089924854            2 
 1091000    1.0637934   -2.9713902    1160.7172  0.088658508  0.089908318            4 
 1092000     1.082218   -2.9523527    1160.3954  0.088552762  0.089892134            2 
 1093000    1.0895773    -2.975858    1156.8952  0.088204877  0.089876433            2 
 1094000    1.0906793   -2.9765722    1164.1721  0.088678559  0.089859968            2 
 1095000    1.0663631   -2.9472707    1160.4344  0.088313121  0.089844123            2 
 1096000    1.0879592   -2.9427426     1162.285  0.088373254    0.0898279            2 
 1097000    1.0826726   -2.9486636    1165.0221  0.088500613  0.089812314            1 
 1098000    1.0754887   -2.9413409    1166.7025  0.088547551  0.089796015            1 
 1099000    1.0757905   -2.9523307    1166.1356  0.088423991   0.08978013       -1e+20 
 1100000    1.0950136   -2.9657702    1165.3988  0.088287785   0.08976381            2 
 1101000     1.065135   -2.9576965     1169.734  0.088535723  0.089747059            1 
 1102000    1.0553643   -2.9341375    1171.9829  0.088625448  0.089730755            3 
 1103000    1.0770081   -2.9449457    1167.6233  0.088215718  0.089714728            1 
 1104000    1.0747419   -2.9638884     1169.342   0.08826555  0.089698742            2 
 1105000    1.0881964   -2.9687004    1171.9884  0.088385251  0.089682493            2 
 1106000    1.0904801   -2.9285618    1169.9938  0.088155051  0.089666582            1 
 1107000    1.0585828    -2.969963     1172.186  0.088240437  0.089651192            3 
 1108000    1.0863003   -3.0076338    1172.3544  0.088173468  0.089635539            4 
 1109000    1.0784207   -2.9556559    1173.9643  0.088214933  0.089619343            2 
 1110000    1.0760243   -2.9650497    1177.4013  0.088393492  0.089604098            2 
 1111000    1.0616809   -2.9500789    1180.0392  0.088511789  0.089588677            3 
 1112000    1.0828851   -2.9712442    1178.7593   0.08833628  0.089572912            2 
 1113000    1.0635691   -2.9602101    1179.1306  0.088284715   0.08955595            3 
 1114000    1.0713247   -2.9944048    1176.2675  0.087991286  0.089539925            1 
 1115000    1.0677618   -2.9666584    1178.8513  0.088105476  0.089524174           10 
 1116000    1.0783641   -2.9324856    1184.9881  0.088484776  0.089508667            2 
 1117000    1.0616457   -2.9621238    1176.9728  0.087807579  0.089492544            2 
 1118000    1.0719836   -2.9611189    1180.3148  0.087978143  0.089475741            3 
 1119000    1.0759833    -2.941137    1182.7843  0.088083429  0.089460424            1 
 1120000    1.0569901   -2.9656029    1181.8333  0.087934023  0.089444632            2 
 1121000    1.0685806   -2.9458308      1187.54  0.088279809  0.089429078            1 
 1122000    1.0790727   -2.9711792     1191.095  0.088465164  0.089413717            1 
 1123000    1.0562311   -2.9798983    1185.1806  0.087947506  0.089398133            1 
 1124000    1.0757778   -2.9607359    1190.9567  0.088297505  0.089382773            3 
 1125000    1.0879021   -2.9442133    1194.8586  0.088508041   0.08936772            1 
 1126000    1.0969852   -2.9371181    1189.8288  0.088057192  0.089352659            1 
 1127000    1.0849956   -2.9472192    1192.9797  0.088212043  0.089337015            3 
 1128000    1.0590169   -2.9917641    1190.4859  0.087949609  0.089320884            2 
 1129000    1.0743475   -2.9690905     1187.675  0.087664233  0.089304952            2 
 1130000    1.0820374   -2.9607007     1196.827  0.088261578  0.089288669            4 
 1131000    1.0958327   -2.9685487    1195.7159  0.088101672  0.089272522            1 
 1132000     1.063855   -2.9889356     1189.491  0.087565595  0.089256443            2 
 1133000     1.097106   -2.9472236    1196.0196  0.087968489  0.089240278            4 
 1134000    1.0798371   -2.9587085    1194.8003  0.087801316  0.089224551            1 
 1135000    1.0684964    -2.966398    1198.1036   0.08796649  0.089208663            3 
 1136000    1.0558937   -2.9587006    1203.1531  0.088259472  0.089192548            2 
 1137000    1.0929932   -2.9624059     1199.435  0.087909336  0.089176943            1 
 1138000    1.0660299   -2.9640879    1197.4778  0.087688766  0.089161045            2 
 1139000    1.0820141   -2.9433062    1197.2577  0.087595673  0.089145138            4 
 1140000    1.0482675   -2.9615637    1200.2678  0.087738874  0.089129256            3 
 1141000    1.0787318   -2.9695752    1198.5816  0.087538828  0.089113289            2 
 1142000    1.0658471   -2.9645071     1205.173  0.087943155  0.089097014            3 
 1143000    1.0557235   -2.9564166    1200.4734  0.087523581  0.089081126            3 
 1144000      1.05238   -2.9562748    1201.6883  0.087535569  0.089064692            2 
 1145000    1.0626179   -2.9373698    1200.8476   0.08739793  0.089048118            3 
 1146000    1.0627177   -2.9447068    1205.8229   0.08768346   0.08903202            3 
 1147000    1.0538987   -2.9537744    1208.9319  0.087832892  0.089016039            2 
 1148000    1.0696477   -2.9833847    1207.3174  0.087639181    0.0890004            1 
 1149000    1.0591432   -2.9650452    1208.3007  0.087634225  0.088984727            1 
 1150000    1.0526676   -3.0017185    1210.6069   0.08772514  0.088969123            5 
 1151000    1.0581411   -2.9750439    1211.4179  0.087707641  0.088953325            1 
 1152000    1.0522093   -2.9850895    1210.9203  0.087595507  0.088938342            2 
 1153000    1.0560079   -2.9911058    1209.7337  0.087433772  0.088922329            2 
 1154000     1.052541   -2.9516998    1217.5337  0.087921269  0.088907202            3 
 1155000    1.0647552   -2.9545465    1214.6583  0.087637686  0.088891437            4 
 1156000    1.0708818   -2.9717287    1215.2773  0.087606499  0.088875457            2 
 1157000    1.0724477   -2.9676879    1215.0127  0.087511717  0.088859698            3 
 1158000    1.0509904    -2.941171    1221.3102  0.087889333  0.088843967            1 
 1159000    1.0907192   -2.9587517    1222.1994  0.087877436  0.088828053            1 
 1160000    1.0681306   -2.9450927    1220.3125   0.08766613  0.088812337            1 
 1161000    1.0764391   -2.9819364    1220.8227   0.08762724  0.088796788            2 
 1162000    1.0780406   -2.9834055    1219.6185  0.087465466  0.088780395            3 
 1163000    1.0555173   -2.9852656     1221.811  0.087547363  0.088764623            3 
 1164000    1.0662223   -2.9711222    1222.3486  0.087510641  0.088749174            3 
 1165000    1.0550634   -2.9733567    1219.9061  0.087260807  0.088733733            3 
 1166000    1.0970034   -2.9628866    1224.5434  0.087517392  0.088718842            4 
 1167000    1.0659902   -2.9695447    1226.8573   0.08760763  0.088703351            2 
 1168000    1.0580392   -2.9894372    1229.3851  0.087712979  0.088687591            5 
 1169000    1.0782826   -2.9802957     1224.685  0.087302896  0.088671634            2 
 1170000    1.0664873   -2.9457236    1229.4299  0.087566232  0.088655793            3 
 1171000      1.06978   -2.9755861    1223.4033  0.087062576  0.088639784            2 
 1172000    1.0552742   -2.9550882    1232.6637  0.087646739  0.088624367            4 
 1173000    1.0720512   -2.9703737    1231.8759  0.087516046  0.088608406            3 
 1174000    1.0576781   -2.9861958    1228.6287  0.087211012  0.088593044            5 
 1175000    1.0603207   -2.9789645     1228.963  0.087160498  0.088577102            3 
 1176000    1.0479264   -2.9561612    1241.5327  0.087977091  0.088562275            3 
 1177000    1.0848762   -2.9853311    1237.2121  0.087596439  0.088546631            3 
 1178000     1.059712   -2.9848519    1232.5458  0.087191977   0.08853091            2 
 1179000    1.0612986   -2.9687001    1233.7918  0.087206089  0.088515766            3 
 1180000    1.0552433   -2.9628589    1238.8403  0.087488721  0.088499966            3 
 1181000    1.0604722   -2.9833594    1239.5456  0.087464406  0.088483816            2 
 1182000     1.084182   -2.9709018    1237.7513  0.087263912  0.088468233            2 
 1183000    1.0678032   -2.9642158     1235.684  0.087044521  0.088452768            3 
 1184000    1.0559972   -3.0020481    1239.5446  0.087242719  0.088437052            3 
 1185000    1.0301889   -2.9722763    1236.5416  0.086957917  0.088420274            1 
 1186000    1.0598161   -2.9720562    1245.8749  0.087540398  0.088404427            3 
 1187000    1.0731863    -2.947645    1242.6795  0.087242316   0.08838828            2 
 1188000    1.0499113   -2.9796619    1237.8001  0.086826608  0.088371911            3 
 1189000    1.0531096   -2.9460521      1244.48  0.087221755  0.088356026            1 
 1190000    1.0566851   -2.9809199    1242.1774  0.086987214    0.0883398            2 
 1191000    1.0668841   -2.9455713    1245.3131   0.08713358  0.088323844            2 
 1192000    1.0321525   -2.9784569    1245.6335  0.087082881  0.088307985            1 
 1193000    1.0707017   -3.0041958    1246.1391    0.0870452  0.088291386            3 
 1194000    1.0423727   -3.0032503    1245.1774   0.08690518  0.088275507            2 
 1195000    1.0636101   -2.9702973    1246.4231  0.086919323  0.088259518            2 
 1196000    1.0453783    -2.980253    1251.3778  0.087191874  0.088244071            1 
 1197000    1.0708488   -2.9782297    1250.8756  0.087084071  0.088228398            2 
 1198000    1.0487302   -2.9834858    1251.2715  0.087038919  0.088212796            2 
 1199000    1.0619627    -2.988023    1258.2641  0.087452329  0.088197459            2 
 1200000    1.0547578   -2.9875145    1255.9852  0.087221195  0.088182033            3 
 1201000    1.0737932   -2.9601191    1260.3635  0.087452364   0.08816709            4 
 1202000    1.0354708    -2.964676    1256.6696  0.087123515  0.088152565            1 
 1203000    1.0498055   -2.9602867    1254.2365  0.086882549  0.088138385            3 
 1204000    1.0621019   -2.9730528    1257.9147  0.087064971  0.088123535            3 
 1205000    1.0660714   -2.9884477    1258.1824  0.087011231  0.088108555            4 
 1206000    1.0769502   -2.9556824    1259.4379  0.087025839  0.088093693            2 
 1207000    1.0621702    -2.965224    1261.8001  0.087116824  0.088078512            2 
 1208000    1.0552916   -2.9884399     1262.066  0.087063051  0.088063099            2 
 1209000    1.0626218   -2.9764687    1267.1069  0.087338497  0.088048155            2 
 1210000    1.0812796   -2.9738332    1262.9926  0.086982961    0.0880329            1 
 1211000    1.0572559   -2.9887242    1262.3691  0.086868227  0.088018533            3 
 1212000    1.0634741   -2.9705602    1266.8669  0.087105807  0.088003409            3 
 1213000     1.043736   -2.9785178    1262.8427  0.086757533  0.087988441            2 
 1214000     1.044812   -2.9867675    1275.3831   0.08754689  0.087973846            1 
 1215000    1.0352306   -2.9775158    1265.4439  0.086793132  0.087959267            2 
 1216000    1.0623742   -3.0046747    1271.1695  0.087114135  0.087944961            1 
 1217000    1.0516891   -3.0147095    1268.0696  0.086830295  0.087929869            2 
 1218000    1.0667926   -2.9801078    1271.6824  0.087006183   0.08791565            2 
 1219000    1.0581442   -2.9917606    1275.4887  0.087195014  0.087901649            3 
 1220000    1.0403688   -2.9888056    1269.3503  0.086704257  0.087887444            1 
 1221000    1.0459643   -2.9660223    1278.8566  0.087282052  0.087873179            1 
 1222000    1.0728028   -2.9736681    1277.7771   0.08713701  0.087859323            4 
 1223000    1.0390161   -2.9921869    1277.1356  0.087022047  0.087845403            3 
 1224000    1.0708791   -2.9705858     1277.247  0.086958538  0.087831262            2 
 1225000    1.0576372   -3.0133212    1279.0728  0.087011753  0.087816786            3 
 1226000    1.0467018   -2.9630465    1284.2386  0.087291909  0.087802771            3 
 1227000    1.0860038   -2.9813221    1280.3245   0.08695494  0.087788147            4 
 1228000    1.0685698   -2.9884339    1281.1887  0.086942771  0.087774331            4 
 1229000    1.0211146   -2.9788141     1277.582  0.086627478  0.087760177            2 
 1230000    1.0616028   -2.9681408    1284.6604  0.087036611  0.087746201            2 
 1231000     1.036306   -2.9881991    1281.1794  0.086730259  0.087732375            2 
 1232000     1.063239   -3.0140393    1285.3019  0.086938712  0.087718234            2 
 1233000    1.0382434   -2.9780461    1281.1567  0.086588042  0.087704147            2 
 1234000    1.0406028   -2.9752948    1288.6372  0.087023041  0.087689569            2 
 1235000    1.0607662   -2.9968699    1284.0171  0.086640829  0.087674834            2 
 1236000    1.0196137   -2.9832527    1283.7523  0.086552882  0.087660006            2 
 1237000      1.03823   -2.9650365    1285.5095  0.086601285  0.087644888            4 
 1238000    1.0627372   -2.9964179    1291.5785  0.086939857  0.087630654            1 
 1239000    1.0505159   -2.9891195    1290.9275  0.086825902  0.087616711            2 
 1240000    1.0655003   -3.0037834    1285.8357   0.08641369  0.087602256            1 
 1241000    1.0564117   -2.9761839    1289.4842  0.086589053  0.087587404            2 
 1242000    1.0420219   -2.9790602     1296.626  0.086998526  0.087573259            1 
 1243000    1.0746578   -2.9992555    1292.1231   0.08662665  0.087558944            2 
 1244000    1.0339933   -2.9957287    1295.3621  0.086773991  0.087544861            2 
 1245000    1.0508947   -3.0030161    1287.9867   0.08621062  0.087530301            3 
 1246000    1.0439945   -2.9678368    1299.2937  0.086897653  0.087516057            1 
 1247000    1.0542869   -2.9857279    1293.3215  0.086428862  0.087501545            2 
 1248000     1.049177   -3.0030839    1294.9561  0.086468754  0.087487131            2 
 1249000    1.0596135   -2.9861651    1296.6568  0.086512994  0.087472539            2 
 1250000    1.0097245   -2.9706841    1299.3816  0.086625439  0.087457349            7 
 1251000    1.0763019   -2.9632991    1302.8461   0.08678698  0.087442483            1 
 1252000    1.0694606    -2.994063    1296.5618  0.086299377  0.087427681            5 
 1253000    1.0463574   -3.0039005    1296.0415  0.086195897  0.087412897            2 
 1254000    1.0458837   -2.9961447    1302.8664    0.0865807  0.087398435            5 
 1255000    1.0393151   -3.0045133     1300.843  0.086377358  0.087384171            3 
 1256000    1.0742279   -2.9946687    1303.1683  0.086462862  0.087370245            1 
 1257000    1.0314591   -2.9713709    1305.1932  0.086528323  0.087355678            1 
 1258000    1.0296623    -3.021444    1308.5302   0.08668059  0.087341077            2 
 1259000    1.0290308   -3.0020647     1300.433  0.086075788  0.087326444            2 
 1260000    1.0701589   -2.9955383    1306.5896  0.086414657  0.087311759            2 
 1261000    1.0391919   -3.0084305    1306.8727  0.086364838  0.087296737            2 
 1262000    1.0587794   -2.9774956    1309.0254  0.086438553  0.087282308            3 
 1263000    1.0565077   -2.9921408    1307.7559   0.08628635  0.087267503            1 
 1264000    1.0389416   -2.9806927     1312.357  0.086521425  0.087253079            1 
 1265000    1.0926777   -2.9979402    1311.4121  0.086390781  0.087239107            4 
 1266000      1.03134   -3.0098761    1310.6845  0.086274648   0.08722394            5 
 1267000    1.0080759    -2.988983    1306.7223  0.085945956  0.087209131            3 
 1268000    1.0597939   -3.0033888    1309.0438  0.086030742  0.087194547            2 
 1269000    1.0415391   -2.9849078    1311.4129  0.086118522  0.087179124            2 
 1270000    1.0454331   -2.9864904    1313.6898  0.086200117  0.087163638            2 
 1271000    1.0672952   -2.9842246    1312.5717  0.086058992  0.087148417            2 
 1272000     1.038258   -3.0144822    1306.3455  0.085583433  0.087132662            2 
 1273000    1.0410465   -2.9997143    1315.6434  0.086124864  0.087116762            3 
 1274000    1.0467643   -2.9987857     1314.112  0.085957088  0.087101415            2 
 1275000    1.0545562    -2.982966    1317.7218  0.086125608  0.087085689            5 
 1276000    1.0519076    -2.996744    1311.6571  0.085662039  0.087069899            1 
 1277000    1.0500461   -2.9751957    1317.3648  0.085967426  0.087054681            1 
 1278000    1.0465072   -2.9535007     1322.127  0.086210682  0.087039574            2 
 1279000    1.0541843   -2.9843668     1319.293  0.085958629  0.087024155            2 
 1280000    1.0399468     -2.98534     1321.416  0.086029688  0.087007814            3 
 1281000    1.0418692   -2.9696546    1328.6007  0.086429919  0.086992576            1 
 1282000    1.0343377   -2.9640081    1319.2167  0.085752513   0.08697726            1 
 1283000     1.047259   -2.9937248    1325.6046  0.086100584  0.086962277            2 
 1284000    1.0543811   -2.9721869    1319.5108  0.085638031   0.08694748            2 
 1285000    1.0589585   -3.0016085    1329.1645  0.086197436  0.086931664            4 
 1286000    1.0728267   -3.0046581    1327.5125  0.086023361  0.086916488            3 
 1287000     1.051597   -2.9847467    1328.1806  0.085999781  0.086901786            2 
 1288000    1.0246766   -2.9732826    1326.5129  0.085825108   0.08688713            5 
 1289000    1.0441563   -3.0003535    1329.4657  0.085949425  0.086872012            6 
 1290000    1.0253566   -3.0096844    1331.0968  0.085988166  0.086856874            5 
 1291000     1.051934   -2.9941268    1330.9391  0.085911377  0.086842264            1 
 1292000    1.0510051   -3.0396386    1333.6657  0.086020752  0.086827056            3 
 1293000    1.0275997   -2.9906028    1334.3892  0.086000851  0.086811827            2 
 1294000    1.0617628   -3.0048816    1333.8202  0.085897746  0.086797122            2 
 1295000    1.0551637   -2.9662422    1331.3048  0.085669552  0.086782258            2 
 1296000    1.0669788   -2.9809043    1337.3068  0.085989379  0.086767673            2 
 1297000    1.0517048   -3.0050648    1342.1976  0.086237318  0.086753149            4 
 1298000    1.0624202   -2.9878975    1332.3124  0.085536237   0.08673854            2 
 1299000    1.0291405   -2.9935911    1336.3822  0.085731471  0.086724174            2 
 1300000    1.0732387   -2.9859391    1332.8712  0.085440461   0.08670949            2 
 1301000     1.043913    -2.997198    1338.6032  0.085741945  0.086694276            3 
 1302000    1.0550015   -2.9891001    1341.2734  0.085846989  0.086679018            2 
 1303000    1.0314498   -3.0021118    1339.5775  0.085672644   0.08666402            2 
 1304000    1.0364459   -3.0122499    1337.2433  0.085457775  0.086648988            1 
 1305000    1.0350374   -2.9846954    1342.9821  0.085758754  0.086633603            1 
 1306000    1.0327303   -2.9875754    1341.5384  0.085600968  0.086619055            2 
 1307000    1.0595343   -2.9993798    1345.0822  0.085761424  0.086604877            3 
 1308000    1.0523024   -2.9947465    1345.3733  0.085714406   0.08658962            5 
 1309000    1.0557677   -2.9911545    1344.3565  0.085584196  0.086574293            2 
 1310000    1.0590968   -2.9879386    1346.4214  0.085650214  0.086558866            2 
 1311000     1.048065   -3.0036197    1343.8065  0.085418671  0.086543565            2 
 1312000    1.0394218   -2.9886064    1347.4632  0.085585823  0.086528589            1 
 1313000    1.0609354   -2.9914039    1351.2355  0.085760058  0.086513771            2 
 1314000    1.0334772   -3.0163408    1353.0143  0.085807605  0.086498626            1 
 1315000    1.0477786   -2.9916368    1350.6454  0.085592229  0.086483314            1 
 1316000    1.0326334   -3.0329422    1349.5753   0.08545943  0.086468028            2 
 1317000    1.0688241   -2.9832141    1348.0273  0.085296587  0.086452583            2 
 1318000    1.0130479   -2.9845131    1349.3454  0.085315211  0.086437238            3 
 1319000    1.0266662     -2.98839    1350.3095  0.085311443  0.086421241            3 
 1320000    1.0440808    -3.004998     1350.542  0.085261489  0.086405254            3 
 1321000    1.0433044   -2.9945052    1347.9554  0.085033772  0.086389298            2 
 1322000    1.0379719   -3.0302844    1352.8686  0.085279159  0.086373318            3 
 1323000    1.0334523   -2.9798402    1356.4469  0.085440094  0.086358068            2 
 1324000    1.0516287   -2.9793816    1352.2446  0.085111067  0.086343017            2 
 1325000    1.0578348   -2.9919077    1355.3985  0.085245188  0.086327794            1 
 1326000    1.0304621   -3.0044632    1356.5905   0.08525581  0.086312572            1 
 1327000    1.0534638   -2.9962681    1352.3642   0.08492616  0.086297499            2 
 1328000    1.0295097   -3.0027493    1357.7713  0.085201513  0.086282416            2 
 1329000    1.0301579   -2.9909676    1360.8817  0.085332437   0.08626712            3 
 1330000    1.0429884   -3.0138905    1364.7914  0.085513247  0.086251951            2 
 1331000     1.034814   -2.9931686    1360.8929  0.085204916  0.086236586            5 
 1332000    1.0387332   -2.9710873    1364.2487  0.085350892  0.086221307            4 
 1333000    1.0511339   -2.9896489    1366.0498  0.085399465  0.086206087            1 
 1334000    1.0407317   -2.9958174    1370.6598  0.085623427  0.086191004            3 
 1335000    1.0336401   -3.0141615      1360.41  0.084919478  0.086175252            2 
 1336000     1.045267   -3.0154516    1364.0107  0.085080509  0.086159206            2 
 1337000    1.0276278   -3.0036189    1365.6837   0.08512115  0.086143578            3 
 1338000    1.0251393   -3.0099878    1365.3592  0.085037318  0.086128269            3 
 1339000    1.0339061   -3.0044379    1365.9633   0.08501141  0.086112459            1 
 1340000    1.0727081   -2.9990226     1367.803  0.085062378  0.086096355            3 
 1341000    1.0252774   -2.9693415    1371.0085   0.08519814  0.086081264            2 
 1342000    1.0288544   -2.9968883    1369.2774   0.08502716  0.086065571            6 
 1343000    1.0445114   -3.0095954    1370.7143  0.085053008  0.086049968            4 
 1344000    1.0234095   -2.9964056    1368.5046  0.084852718  0.086034525            1 
 1345000      1.04782   -2.9943759    1371.5973  0.084981248  0.086018882            1 
 1346000    1.0588829   -2.9932956    1377.6646  0.085293745  0.086003507            3 
 1347000    1.0164237   -3.0022581     1375.786  0.085114204  0.085988237            2 
 1348000    1.0161403   -3.0112961    1370.5372  0.084726584  0.085972678            3 
 1349000    1.0374279    -2.986121     1376.197  0.085013407  0.085957348            2 
 1350000    1.0137457   -3.0275854    1375.5987  0.084913498  0.085941777            1 
 1351000    1.0265775   -2.9877477    1379.6184  0.085098594  0.085926596            3 
 1352000    1.0237777   -2.9969522    1379.0066  0.084997941  0.085911194            2 
 1353000    1.0328694   -3.0030712    1378.4043  0.084898025  0.085895337            2 
 1354000    1.0304232   -3.0064832    1377.7744  0.084796552  0.085880037            2 
 1355000    1.0175602   -2.9948899    1380.5893  0.084907091   0.08586428            3 
 1356000    1.0170853   -2.9691357    1380.5497  0.084842039  0.085848508            2 
 1357000    1.0245349   -3.0071086    1387.7912  0.085224222  0.085833406            2 
 1358000    1.0345794   -3.0037304    1380.7244  0.084727812  0.085817582            5 
 1359000    1.0387076   -2.9965556    1379.7019  0.084602763  0.085802795            2 
 1360000    1.0264315   -3.0176532    1384.5457  0.084837362  0.085787043            6 
 1361000    1.0587156   -3.0324456    1386.6031  0.084900998  0.085771502            4 
 1362000    1.0228945   -3.0090641    1386.0629  0.084805609   0.08575608            2 
 1363000    1.0140862   -3.0098103    1387.0791   0.08480552  0.085740603            3 
 1364000    1.0493636   -2.9963745    1383.4858  0.084523814  0.085725258            3 
 1365000     1.047114   -3.0178474     1393.644  0.085082049  0.085710483            3 
 1366000    1.0487454   -3.0178766    1386.4291  0.084579616  0.085695538            2 
 1367000    1.0343594   -3.0081602    1387.0243  0.084554033  0.085680753            2 
 1368000    1.0454708   -3.0036711     1388.393  0.084575594  0.085665914            2 
 1369000    1.0261943   -2.9852305     1397.087  0.085043035  0.085651507            2 
 1370000    1.0664119   -3.0225105    1394.6074  0.084830135  0.085637548            3 
 1371000    1.0483274   -3.0513864    1393.8727  0.084723604  0.085623101            3 
 1372000    1.0525101   -3.0183949    1393.5486  0.084642162  0.085608433            2 
 1373000    1.0388862    -3.005911    1405.9301  0.085332004   0.08559385            2 
 1374000    1.0332302   -3.0116462    1395.6425  0.084645957  0.085579679            1 
 1375000     1.034038   -3.0286395    1396.1264  0.084613723   0.08556536            3 
 1376000    1.0426064   -3.0112856    1397.5677  0.084639517  0.085551098            4 
 1377000     1.027149   -3.0020351     1406.574  0.085123094  0.085536773            3 
 1378000     1.012523   -3.0236233     1406.177  0.085037315  0.085522924            3 
 1379000    1.0454441   -3.0208143    1403.1951  0.084795448  0.085508739            3 
 1380000    1.0343385   -3.0324074    1399.3826  0.084503777  0.085494387            2 
 1381000    1.0294425   -3.0139539    1411.2338  0.085157723  0.085480184            1 
 1382000    1.0363706   -3.0425735    1398.3131  0.084316997  0.085465926            3 
 1383000    1.0206717    -3.008015    1402.9054  0.084532744  0.085451295            2 
 1384000    1.0206469    -3.021878    1401.5026  0.084387199  0.085437162            3 
 1385000     1.048722   -3.0025373    1410.4096  0.084862189  0.085422218            2 
 1386000    1.0259487   -3.0079972    1408.0341  0.084658133  0.085407816            2 
 1387000    1.0245005   -3.0130805    1413.1126  0.084902222   0.08539373            5 
 1388000    1.0158939     -3.02374    1406.6606  0.084453689  0.085379232            1 
 1389000    1.0454595   -3.0074359    1410.7347   0.08463731  0.085365191            2 
 1390000    1.0217364   -3.0135608    1417.1006  0.084958069  0.085350993            2 
 1391000    1.0149039   -3.0126897    1416.8927  0.084884535  0.085336623            2 
 1392000    1.0374977   -3.0140855    1413.0922  0.084596037  0.085322245            1 
 1393000    1.0561464   -3.0184979     1416.944  0.084765734  0.085308481            2 
 1394000     1.028355   -3.0136563    1413.9144  0.084523817  0.085294138            4 
 1395000    1.0077993   -3.0390639    1408.3953  0.084133528  0.085279439            6 
 1396000     1.020868   -3.0159727    1418.8284  0.084696061  0.085265098            1 
 1397000    1.0090116   -3.0229094    1415.5629  0.084440638  0.085250128            7 
 1398000    1.0193237   -3.0375224    1421.3043  0.084722476   0.08523605            1 
 1399000    1.0422498   -3.0003137    1416.8693  0.084397745  0.085221706            2 
 1400000    1.0138733   -3.0263368    1420.6448  0.084562193  0.085207207            1 
 1401000    1.0009462   -2.9978113    1420.1566  0.084472792  0.085192816            4 
 1402000    1.0263009   -3.0507207    1416.3775  0.084187914  0.085178546            3 
 1403000    1.0290857   -2.9752196    1423.5966  0.084556702  0.085163939            1 
 1404000    1.0228081   -2.9988768    1427.4065  0.084722609  0.085149385            3 
 1405000    1.0369205   -3.0214234    1427.1452  0.084646811  0.085135223            2 
 1406000    1.0185855   -3.0034593    1429.9325  0.084751808  0.085121249            2 
 1407000    1.0251267   -3.0233431    1423.9032  0.084334472  0.085107357            3 
 1408000    1.0238795   -3.0207231    1430.6373  0.084673134  0.085093687            2 
 1409000    1.0133688   -3.0077092    1430.2693  0.084591279  0.085079869            5 
 1410000    1.0428334   -3.0215649    1425.1453  0.084228445   0.08506591            3 
 1411000    1.0170927   -3.0340152    1433.3794  0.084655053  0.085052106            4 
 1412000    1.0085695   -3.0298595    1431.8961   0.08450756  0.085037582            3 
 1413000    1.0247438   -3.0097332    1425.2063  0.084053216  0.085023423            4 
 1414000    1.0258726   -3.0111545    1431.2803  0.084351737   0.08500901            3 
 1415000    1.0354198   -3.0332113     1429.265  0.084173439  0.084994463            1 
 1416000    1.0166247   -2.9999432     1435.307  0.084469577  0.084980154            1 
 1417000    1.0175077   -3.0308443    1430.9613  0.084154393  0.084965703            3 
 1418000    1.0293227   -3.0243965    1431.4559  0.084124113   0.08495158            2 
 1419000    1.0295943   -3.0042308     1438.441  0.084475041  0.084937596            6 
 1420000    1.0116483   -3.0091475    1436.8123  0.084319971  0.084923439            4 
 1421000     1.035577   -3.0069773    1441.4261  0.084531205  0.084909523            2 
 1422000    1.0260353   -3.0157638    1437.9942  0.084270639  0.084896099            2 
 1423000    1.0325146   -3.0147911    1440.7024  0.084370018  0.084882283            2 
 1424000    1.0074055   -3.0453451    1438.4923  0.084181429   0.08486817            3 
 1425000     1.035137   -3.0493085    1432.8387  0.083791735  0.084853624            2 
 1426000    1.0220516   -3.0194511    1440.2836  0.084168045  0.084838979            2 
 1427000    1.0230907   -2.9897135    1437.3471  0.083937577  0.084824993            4 
 1428000    1.0126731   -3.0348302    1438.6582  0.083955309  0.084810732            3 
 1429000    1.0241015   -3.0202624    1447.7839  0.084428734  0.084796467            2 
 1430000    1.0339574   -3.0198127    1441.3225  0.083993151  0.084782296            2 
 1431000    1.0216358   -3.0170726    1444.2694  0.084106067  0.084767737            3 
 1432000    0.9998025   -3.0186837     1441.957  0.083912765  0.084753132            2 
 1433000    1.0253391   -3.0222683    1443.4669  0.083942015  0.084738232            2 
 1434000    1.0364417   -3.0252047     1440.002  0.083682127  0.084723694            3 
 1435000   0.99631965   -3.0181471    1445.8372   0.08396267  0.084709319            2 
 1436000    1.0332864   -2.9962151    1452.2771  0.084277917  0.084694939            2 
 1437000    1.0133453   -3.0457932    1445.2786  0.083813419  0.084680384            4 
 1438000   0.98317224    -3.021691    1445.6324  0.083775638  0.084665879            2 
 1439000    1.0089298   -3.0082832    1450.9655  0.084026264  0.084651563            3 
 1440000     1.007772   -2.9919662    1458.6488  0.084412545  0.084637303            2 
 1441000    1.0248316   -3.0166806    1458.1245  0.084323644  0.084622844            1 
 1442000    1.0217672   -3.0337987    1445.6359  0.083543452  0.084608552            2 
 1443000    1.0270546    -3.034794    1449.8134  0.083726807  0.084593703            2 
 1444000    1.0218543    -3.018161     1449.701   0.08366234  0.084579014            1 
 1445000    1.0337835   -3.0066028    1448.8294  0.083554178  0.084564429            3 
 1446000    1.0364755   -2.9983778    1450.9458  0.083618359  0.084549837            4 
 1447000    1.0076981   -3.0359714    1452.6831  0.083660627  0.084535465            3 
 1448000    1.0125858   -3.0327909     1458.665  0.083947109  0.084520876            2 
 1449000    1.0003142   -3.0138162    1457.0291  0.083795095  0.084506246            6 
 1450000   0.98722219   -3.0305335     1454.987   0.08361994  0.084491662            6 
 1451000    1.0144137   -2.9877885    1462.5858  0.083998727  0.084477307            1 
 1452000     1.026226   -3.0222235    1457.6916  0.083659986  0.084462458            3 
 1453000    1.0154364   -3.0376536    1457.3429   0.08358241  0.084448153            3 
 1454000    1.0405524   -3.0583206    1456.9667  0.083503364  0.084433371            4 
 1455000   0.99397671   -3.0277989    1461.1445  0.083685252  0.084418539            4 
 1456000     1.044076   -3.0668205    1457.9026  0.083442226  0.084403886            1 
 1457000    1.0179827   -3.0243695    1458.1742  0.083400494  0.084388662            2 
 1458000     1.033756   -3.0270795    1460.3981    0.0834704  0.084373422            1 
 1459000     1.025338   -3.0389742    1459.2771  0.083349163  0.084358306            2 
 1460000    1.0182385   -3.0033446    1465.9196   0.08367121   0.08434328            1 
 1461000   0.99769999    -3.021045    1461.3501  0.083353301    0.0843278            3 
 1462000    1.0122037   -3.0312553    1463.5748  0.083423098  0.084312148            4 
 1463000    1.0062876   -3.0226897    1461.4406  0.083244506   0.08429656            3 
 1464000    1.0134629   -2.9887065    1470.2237  0.083687596  0.084280606            3 
 1465000    1.0201973   -3.0220459    1465.5012  0.083361845  0.084265107            4 
 1466000    1.0161822    -3.033914    1465.7606  0.083319722  0.084249761            3 
 1467000    1.0294995   -3.0321256    1468.5424  0.083420948   0.08423427            1 
 1468000    1.0096285   -3.0270881    1465.1846  0.083173512  0.084218744            4 
 1469000    1.0208267   -3.0564023    1463.3683   0.08301386  0.084202642            1 
 1470000    1.0156948   -3.0470127    1469.3693  0.083297578  0.084186942            4 
 1471000    1.0266487   -3.0236795    1468.8651   0.08321239  0.084171288            3 
 1472000     1.011778   -3.0125802    1469.2998  0.083180467  0.084155485            1 
 1473000    1.0295712   -3.0276547    1469.2144  0.083119165  0.084139747            2 
 1474000    1.0335021   -3.0063182     1468.784  0.083038441  0.084123807            3 
 1475000    1.0106656   -3.0426161    1467.1718  0.082891064  0.084107705            4 
 1476000    1.0288812   -3.0492261    1471.9056  0.083102169   0.08409204            2 
 1477000    1.0168762   -3.0036166    1477.2713  0.083348642  0.084076012            1 
 1478000    1.0202594   -3.0125902    1475.8734  0.083213431  0.084060212            3 
 1479000    1.0008027   -3.0158151    1474.7375  0.083093163  0.084044665            2 
 1480000    1.0291197   -3.0213788    1474.6412  0.083031598  0.084029647            2 
 1481000    1.0260458   -3.0483659    1477.7959  0.083153047  0.084014341            2 
 1482000    1.0350032   -3.0634987    1480.2614  0.083235569   0.08399899            5 
 1483000    1.0013796   -3.0219914     1475.253  0.082898009   0.08398385            3 
 1484000    1.0017252    -3.044647    1481.8433  0.083212224   0.08396854            2 
 1485000      1.02018     -3.02427    1480.8646  0.083101271   0.08395354            2 
 1486000    1.0175419    -3.021191    1483.4469  0.083190158  0.083938201            2 
 1487000    1.0225312   -3.0247618    1479.8364  0.082931876  0.083923145            2 
 1488000    1.0002604   -3.0165934    1484.6932  0.083148141    0.0839086            4 
 1489000     1.004408   -3.0441111    1484.5232  0.083082786  0.083893642            3 
 1490000    1.0241356   -3.0524252    1489.8515  0.083325028  0.083878928            2 
 1491000    1.0372513   -3.0430479    1483.3294  0.082904617   0.08386386            4 
 1492000     1.007764   -3.0579073    1487.7243  0.083094518  0.083848773            3 
 1493000    1.0049726   -3.0569805    1493.4386  0.083357815  0.083833757            2 
 1494000    1.0048653   -3.0635737    1486.0169  0.082888045  0.083818997            3 
 1495000    1.0263822   -3.0454061    1490.3349  0.083073293  0.083804166            3 
 1496000    1.0039934    -3.025309    1489.9348  0.082995479  0.083789428            3 
 1497000    1.0019914    -3.024912    1492.4357  0.083079254  0.083775087            1 
 1498000    1.0093842   -3.0563415    1493.0973  0.083060597  0.083761237            2 
 1499000    1.0182314   -3.0203827    1495.9337  0.083162867  0.083746774            4 
 1500000    1.0222185   -3.0785888     1491.864  0.082881335  0.083732602            3 
 1501000    1.0303403   -3.0533781    1492.7853  0.082877265  0.083718392            3 
 1502000    1.0222943   -3.0418715     1492.208  0.082790057  0.083703914            2 
 1503000    0.9985745   -2.9944028    1499.3776  0.083132489      0.08369            1 
 1504000    1.0259713   -3.0368106    1499.4749  0.083082605  0.083675554            7 
 1505000   0.99835129   -2.9960717     1503.134  0.083230013   0.08366126            4 
 1506000    1.0179461   -3.0626925    1498.4437  0.082915212  0.083647192            3 
 1507000    1.0009299   -3.0360048    1497.7436  0.082821478  0.083633089            3 
 1508000    1.0244976   -3.0167433     1509.577  0.083420481  0.083619312            1 
 1509000    1.0336076   -3.0217758     1508.569  0.083309532  0.083605563            2 
 1510000    1.0051807   -3.0597067    1503.3736  0.082967637  0.083591684            2 
 1511000    1.0169564   -3.0426628    1505.5924  0.083035097  0.083577905            2 
 1512000    1.0297127   -3.0474735    1509.0537   0.08317095  0.083563736            1 
 1513000   0.99850328   -3.0499326    1507.9214  0.083053615  0.083549431            1 
 1514000    1.0136907   -3.0243744    1513.9527  0.083330728  0.083535521            3 
 1515000    1.0326554   -3.0268823    1507.0889  0.082898181  0.083521626            2 
 1516000    1.0086231    -3.051866     1511.762  0.083100371  0.083507564            3 
 1517000    1.0095231   -3.0261962    1509.5762  0.082925521  0.083493712            7 
 1518000   0.99797891   -3.0594434    1509.7072  0.082878083  0.083479309            2 
 1519000    1.0210439   -3.0543183    1511.6253  0.082928753  0.083465727            2 
 1520000    1.0097817   -3.0364463    1511.8795  0.082888128  0.083451987            3 
 1521000   0.99015539   -3.0655629    1512.3584  0.082859871  0.083438464            3 
 1522000    1.0342127   -3.0411788    1517.6266   0.08309388  0.083424885            1 
 1523000     1.005013   -3.0446426    1517.5599  0.083035672  0.083411071            2 
 1524000    1.0307384   -3.0585544    1514.1364  0.082793983  0.083397298            2 
 1525000    1.0025703   -3.0324535    1518.8886  0.082999377  0.083383269            2 
 1526000   0.99801553   -3.0515191    1516.9562  0.082839461  0.083369114            4 
 1527000   0.99608608   -3.0474705      1514.08  0.082628248  0.083354804            4 
 1528000    1.0120089   -3.0539373    1520.2763  0.082912104  0.083340731            1 
 1529000    1.0065546   -3.0129458    1518.0961   0.08273905  0.083326324            5 
 1530000   0.97960726   -3.0503003    1521.4649   0.08286846  0.083312648            1 
 1531000    0.9808454   -3.0162752    1520.4865  0.082761076  0.083298635            4 
 1532000   0.99836685   -3.0456826    1515.1278  0.082415569  0.083284512            2 
 1533000    0.9985409   -3.0339185    1520.7259   0.08266612   0.08327052            3 
 1534000    1.0125766   -3.0463262    1521.3138  0.082644164  0.083256566            2 
 1535000   0.98915832    -3.075935    1516.6938  0.082339509  0.083242369            3 
 1536000    1.0034459   -3.0667851    1520.4842  0.082491545  0.083228071            2 
 1537000   0.99540774   -3.0429801    1519.1939   0.08236792  0.083213904            2 
 1538000   0.99797206   -3.0481341    1524.1895   0.08258504  0.083199764            3 
 1539000      1.00331   -3.0855982    1527.0589  0.082686748  0.083185279            2 
 1540000   0.99863364   -3.0490507    1522.2526  0.082372974  0.083171082            3 
 1541000    0.9941946   -3.0375576    1531.1783  0.082802202   0.08315642            2 
 1542000   0.99260938   -3.0424223    1526.7416  0.082508732  0.083142431            2 
 1543000    1.0205847    -3.043767    1526.5552  0.082445194  0.083127973            3 
 1544000   0.99301454   -3.0444348    1528.0612  0.082473081  0.083113223            2 
 1545000    1.0330655    -3.069297    1536.7392  0.082887765  0.083099132            2 
 1546000    1.0226674   -3.0378425    1531.4907  0.082551243  0.083085405            3 
 1547000    0.9932777   -3.0548966    1530.7576  0.082458394  0.083071062            1 
 1548000   0.99767964   -3.0369696    1536.6939  0.082724694  0.083056712            2 
 1549000   0.99475881   -3.0426209     1541.468  0.082928125  0.083042556            3 
 1550000    1.0091934   -3.0340269     1533.779  0.082461238  0.083028488            2 
 1551000    1.0073495   -3.0615206    1530.0264  0.082206446  0.083013884            3 
 1552000    0.9881623   -3.0625284    1539.8174  0.082679197  0.082999604            2 
 1553000     1.021773   -3.0452376    1533.9758  0.082312504  0.082985055            2 
 1554000   0.97907664   -3.0231754    1534.8224  0.082304932  0.082970266            3 
 1555000   0.99387409   -3.0531888     1534.199  0.082218598  0.082955377            3 
 1556000     1.005341   -3.0478914    1539.6904  0.082459855  0.082940903            1 
 1557000    1.0110931    -3.041948    1539.2683  0.082384304  0.082926178            2 
 1558000    1.0276949   -3.0499063    1538.2955  0.082279391  0.082911529            2 
 1559000    1.0004248   -3.0297561    1539.5855  0.082295567  0.082897131            3 
 1560000    1.0009717   -3.0498831    1537.7752   0.08214611  0.082882587            2 
 1561000    1.0103906   -3.0394039    1539.3392  0.082176982   0.08286803            3 
 1562000    1.0245835   -3.0543826    1538.1691  0.082061943  0.082853335            2 
 1563000    1.0068237   -3.0549344    1535.3548  0.081859396  0.082838744            2 
 1564000    1.0062276   -3.0531654    1542.1073  0.082166844  0.082824391            3 
 1565000   0.97134252   -3.0731427    1547.6912  0.082411674  0.082809696            1 
 1566000    1.0009739   -3.0349932    1549.7538  0.082468807  0.082795563            3 
 1567000    1.0270786   -3.0339879     1547.068  0.082273344   0.08278085            3 
 1568000    1.0190689   -3.0751672    1540.9788  0.081897256   0.08276644            1 
 1569000   0.99969765   -3.0866125    1540.4575  0.081817374  0.082751851            3 
 1570000    1.0150062   -3.0202672    1545.9908  0.082058959  0.082737414            1 
 1571000    1.0149845   -3.0326566    1546.7326  0.082046076  0.082722823            3 
 1572000   0.99330087   -3.0572395    1542.8259  0.081786785  0.082708087            2 
 1573000    1.0031885   -3.0632764    1546.6179  0.081935678  0.082693235            3 
 1574000   0.98420049   -3.0670045     1553.941  0.082271337  0.082678854            3 
 1575000   0.98690472   -3.0538087    1546.3828  0.081819197   0.08266463            2 
 1576000   0.99654829    -3.050758    1553.6228  0.082150104  0.082649927            2 
 1577000    1.0161275   -3.0430331    1553.8154  0.082108193  0.082635385            2 
 1578000    1.0124733   -3.0579465    1545.5227  0.081618226  0.082620546            2 
 1579000   0.98262942   -3.0374351     1549.645  0.081784093  0.082605895            2 
 1580000     1.008401   -3.0322084    1552.0592  0.081859662  0.082590873            1 
 1581000    1.0136626    -3.055406    1545.3975  0.081456755  0.082575637            1 
 1582000    1.0041634   -3.0609472    1551.0757  0.081704368  0.082560779            2 
 1583000    1.0099904   -3.0710754    1548.1396  0.081498191  0.082545983            5 
 1584000     1.003752   -3.0309703    1555.5874  0.081838563  0.082531111            3 
 1585000    1.0149643   -3.0445658    1552.5108  0.081625176    0.0825166            3 
 1586000    1.0057794   -3.0497899    1558.9054  0.081909697  0.082501751            3 
 1587000   0.99752318   -3.0366191    1550.4842  0.081415887  0.082486859            1 
 1588000   0.99167797   -3.0465528    1557.1247  0.081713092  0.082472036            4 
 1589000    1.0034505   -3.0763226    1557.2224  0.081666793   0.08245699            1 
 1590000   0.98495528   -3.0210864    1558.2932  0.081671551  0.082441926            5 
 1591000   0.99617393   -3.0581485    1549.9959  0.081185621  0.082426209            3 
 1592000   0.97156985   -3.0760219     1554.548  0.081372908  0.082410517            4 
 1593000    1.0107514   -3.0594555    1557.4978  0.081476133  0.082394654            2 
 1594000    1.0127512   -3.0530194    1558.5273  0.081478844  0.082379263            1 
 1595000    1.0164511   -3.1000692    1561.6223  0.081589464  0.082363519            3 
 1596000    1.0020555   -3.0733265    1556.5933  0.081275757  0.082347738            4 
 1597000    1.0116367   -3.0537149    1553.5282  0.081064923  0.082331952            3 
 1598000   0.99036286   -3.0731246    1550.7871  0.080871251  0.082315922            2 
 1599000   0.99843318    -3.041001    1565.8203  0.081604141  0.082299884            3 
 1600000    1.0120446   -3.0969745    1559.6046  0.081229405  0.082283857            3 
 1601000   0.99376885   -3.0442946    1560.3462  0.081217268  0.082268014            3 
 1602000    0.9932157   -3.0772173    1565.7928  0.081449896   0.08225194            1 
 1603000   0.98097808   -3.0642727    1568.9851  0.081565041  0.082236561            1 
 1604000     1.006239   -3.0449886    1563.3129  0.081219496  0.082220489            5 
 1605000    0.9914763   -3.0677575    1565.1317  0.081263328  0.082204914            1 
 1606000   0.99884494    -3.054064    1567.4104  0.081330969  0.082189497            2 
 1607000   0.96898644   -3.0310113    1563.4148   0.08107316  0.082173689            5 
 1608000    1.0120886   -3.0804928    1564.1374  0.081060187  0.082157857            2 
 1609000   0.98519209   -3.0754224    1569.4395  0.081284416  0.082142185            3 
 1610000   0.99027328   -3.0766638    1570.9056  0.081309812  0.082126589            3 
 1611000    1.0102039   -3.0803712    1569.4814  0.081185671  0.082110897            2 
 1612000   0.97241984    -3.050537    1573.5114  0.081343641  0.082095202            4 
 1613000   0.98935931    -3.043684    1569.4819  0.081085031  0.082079274            1 
 1614000   0.98172394   -3.0505902    1563.6352  0.080732921  0.082063372            3 
 1615000    1.0033284   -3.1027839    1562.9713  0.080648676  0.082047405            3 
 1616000    1.0013554   -3.0555826    1575.1399  0.081226271  0.082031476            3 
 1617000   0.99888872    -3.070363    1562.2856  0.080513584  0.082015498            4 
 1618000   0.99319884   -3.0659041    1573.1004  0.081020827  0.081999587            2 
 1619000   0.98436021   -3.0720045    1574.6342  0.081049735  0.081983539            4 
 1620000    1.0065563   -3.0603687    1576.4789  0.081094596  0.081967722            4 
 1621000   0.99778305   -3.0484272    1572.8195  0.080856444  0.081951932            2 
 1622000    1.0143667    -3.071214    1584.5137  0.081407404  0.081936512            3 
 1623000     0.999974   -3.0793557     1580.702   0.08116153  0.081920787            4 
 1624000    1.0128216   -3.0727614    1578.1677  0.080981512  0.081905361            5 
 1625000    1.0012132   -3.0778751    1577.6068  0.080902912  0.081890159            3 
 1626000   0.99922065   -3.0467528    1575.3659  0.080738311  0.081874764            1 
 1627000   0.96533039   -3.0909059    1577.1907  0.080782148  0.081859194            3 
 1628000    1.0008636   -3.0231209    1587.7813  0.081274638  0.081843891            1 
 1629000   0.97755581   -3.0259178    1588.0372  0.081237833  0.081829202            2 
 1630000   0.99141482   -3.0808481    1578.7652  0.080713967  0.081813873            1 
 1631000   0.99348274   -3.0585524     1588.769  0.081175607  0.081798525            5 
 1632000   0.99158525   -3.0710441    1591.4559  0.081263066  0.081783312            2 
 1633000   0.97280787   -3.0744553    1588.8023  0.081077889  0.081768037            1 
 1634000    1.0115053    -3.044409    1589.0035  0.081038533  0.081753148            5 
 1635000   0.99569935   -3.0585253    1589.2851  0.081003319  0.081738276            2 
 1636000    1.0052271   -3.0726035    1594.3061  0.081209561  0.081723336            3 
 1637000    1.0114513   -3.0628516    1589.6231  0.080921558   0.08170907            4 
 1638000   0.99090583   -3.0525249    1601.8603  0.081494723  0.081694272            2 
 1639000   0.99032666   -3.0573198    1596.6194  0.081178533  0.081679797            4 
 1640000   0.98646562   -3.0936644    1593.1589  0.080953199  0.081665193            2 
 1641000   0.99865917   -3.0329079    1601.7264  0.081338941  0.081650311            4 
 1642000   0.98060496   -3.0706602     1603.202   0.08136429  0.081635763            6 
 1643000   0.97258131   -3.0842224    1593.5518   0.08082531  0.081621471            2 
 1644000   0.98923228   -3.0412677    1602.9117  0.081250596  0.081607411            2 
 1645000   0.98693079   -3.0494412    1604.9986  0.081306919  0.081593585            2 
 1646000    1.0046145   -3.0540454     1601.281   0.08106931  0.081579993            4 
 1647000   0.98753752   -3.0824017    1600.7246  0.080991933  0.081565882            2 
 1648000   0.98845176   -3.0398859    1607.7405  0.081297559  0.081551511            2 
 1649000   0.99365532    -3.032124    1606.8688  0.081204207  0.081537956            6 
 1650000   0.98528261   -3.0953451    1601.0125  0.080859219  0.081524054            2 
 1651000   0.99627619   -3.0434566    1606.3132   0.08107779  0.081510087            2 
 1652000   0.98554552   -3.0628808    1603.8503  0.080904476  0.081495526            4 
 1653000   0.97857343   -3.0898144    1600.3064  0.080676872   0.08148075            4 
 1654000    1.0082938    -3.084151    1598.9104  0.080557759  0.081466195            1 
 1655000   0.96740302   -3.0626238    1600.1898  0.080573502  0.081451734            3 
 1656000   0.97570154   -3.0695699    1602.1024  0.080621093  0.081437136            2 
 1657000   0.99176397   -3.0813216    1603.3117  0.080633256  0.081422706            3 
 1658000   0.98445361   -3.0679091    1610.9705  0.080969567  0.081408465            2 
 1659000   0.98651771   -3.0618035    1605.9472  0.080668433  0.081393799            3 
 1660000    1.0044713   -3.0611526    1608.9815  0.080772161  0.081379227            5 
 1661000    0.9787788   -3.0865394    1612.5766  0.080903903  0.081364908            3 
 1662000    1.0030915    -3.076108    1612.9621  0.080874554   0.08135049            3 
 1663000   0.99082761   -3.0636989     1610.448   0.08069994  0.081336208            4 
 1664000   0.98381502   -3.0892907    1616.5175  0.080955403  0.081322012            3 
 1665000   0.98870744   -3.1205712     1612.903  0.080725878  0.081307664            5 
 1666000   0.98486916   -3.0485808    1616.9712  0.080880913  0.081293622            3 
 1667000    0.9786181   -3.0997351     1615.385    0.0807531  0.081279419            1 
 1668000   0.98408597   -3.0654131    1619.8982  0.080930167  0.081265047            1 
 1669000   0.99437066   -3.0637724    1622.2189  0.080997551  0.081250714            2 
 1670000    1.0039052   -3.0811622    1618.2571  0.080751354  0.081236401            1 
 1671000   0.97318936   -3.0576813    1622.8811  0.080933628  0.081222599            3 
 1672000   0.97199919   -3.0919052    1622.5721  0.080869824  0.081208779            1 
 1673000   0.98496792   -3.0814742    1623.5933  0.080872349  0.081194872            3 
 1674000   0.99116819   -3.0772834     1622.713  0.080780218  0.081181112            2 
 1675000    0.9972711   -3.0795669    1625.7421  0.080882692  0.081166826            3 
 1676000   0.97938872   -3.0769491    1631.0601   0.08109885  0.081153129            4 
 1677000   0.95153515   -3.0959169     1623.012  0.080650566  0.081139374            3 
 1678000   0.98860361   -3.0717125    1618.7452  0.080390606  0.081125792            3 
 1679000   0.95871349   -3.0668462    1633.9411  0.081096936  0.081112073            5 
 1680000   0.97745822   -3.0756269    1617.5123  0.080233744  0.081098495            2 
 1681000   0.97212493   -3.0801177    1632.9261  0.080950134  0.081084791            2 
 1682000   0.98771235   -3.0607239    1626.8014  0.080598563  0.081071543            5 
 1683000   0.98134411    -3.068252     1632.336  0.080824717  0.081057955            5 
 1684000   0.98581828   -3.0768019     1628.927  0.080608028  0.081044645            2 
 1685000    0.9729863   -3.0811652    1630.7495  0.080650323  0.081031515            3 
 1686000   0.98696678   -3.0660454    1638.8516  0.081002944  0.081017869            2 
 1687000   0.97310576   -3.0818848    1629.7861  0.080507116  0.081004266            5 
 1688000   0.98511895   -3.1033168    1629.9939  0.080469685  0.080990302            4 
 1689000   0.98500396   -3.0388875    1638.6212  0.080847701   0.08097671            3 
 1690000   0.99061557   -3.0780671    1630.9994  0.080424033  0.080962844            2 
 1691000   0.99494254   -3.0612711    1637.0668  0.080675476  0.080949094            3 
 1692000   0.96205295   -3.0709937    1637.5123  0.080649738   0.08093508            2 
 1693000   0.97303853   -3.0559283    1633.5289  0.080406031  0.080921312            2 
 1694000   0.97650709    -3.058762    1632.4178  0.080303906  0.080907418            2 
 1695000   0.96736379   -3.0681542    1636.2268  0.080443797  0.080893157            1 
 1696000   0.98205219   -3.0956103    1639.8144  0.080572642  0.080879474            1 
 1697000   0.98151345   -3.0701819    1635.6576  0.080321037  0.080865526            2 
 1698000   0.97835575   -3.1029981    1641.5273  0.080561801  0.080851399            2 
 1699000   0.98615288   -3.0572035    1646.0122  0.080734365  0.080837475            1 
 1700000   0.97674877   -3.0728897    1640.7043  0.080426682  0.080824065            4 
 1701000   0.97546418   -3.0877425    1634.7132  0.080085891  0.080810179            3 
 1702000   0.98622061   -3.0601539    1646.2397  0.080603195   0.08079624            3 
 1703000   0.96767667   -3.0819703    1637.6342  0.080134771  0.080782288            3 
 1704000   0.97754239   -3.0834272    1644.8627  0.080441253  0.080768589            2 
 1705000   0.98032896   -3.0659672     1643.573  0.080331034  0.080754557            3 
 1706000   0.97747753   -3.0666529    1644.9678   0.08035208  0.080740336            2 
 1707000   0.95786619   -3.1070504    1641.8997  0.080155226  0.080725964            6 
 1708000   0.97269817   -3.0734249      1636.92  0.079865338  0.080711473            2 
 1709000    0.9642918   -3.0737875    1653.9128  0.080647202  0.080697016            7 
 1710000   0.98863823   -3.1099606    1640.4398  0.079943461  0.080682608            4 
 1711000   0.97919674   -3.0811175    1651.6198  0.080441251  0.080668233            3 
 1712000   0.94525779   -3.0920479    1644.2625  0.080036142  0.080653966            2 
 1713000   0.98621878   -3.0971381     1651.243  0.080329002  0.080639582            3 
 1714000   0.99440974   -3.0574917    1647.9668  0.080122851  0.080625175            2 
 1715000   0.98500319   -3.0713789    1651.8631  0.080265455  0.080610647            1 
 1716000   0.96911085   -3.0814814    1648.5166  0.080056168  0.080596031            4 
 1717000   0.97416818   -3.0805778    1644.9154  0.079834758   0.08058114            3 
 1718000   0.96336669   -3.0831624    1652.5675  0.080159466  0.080566059            3 
 1719000   0.95824566   -3.0552418    1650.7466   0.08002456   0.08055121            2 
 1720000   0.97786742   -3.0742273    1652.0356  0.080040484  0.080536517            5 
 1721000   0.97840467   -3.0837179    1644.2087  0.079614988  0.080521913            5 
 1722000   0.97889842   -3.0812743     1650.895  0.079892327  0.080506919            1 
 1723000   0.99557515   -3.0912681    1653.9001  0.079991299  0.080491995            2 
 1724000   0.96715144   -3.0963178    1649.2614  0.079720678  0.080477107            2 
 1725000   0.95205824   -3.1015751    1649.8677  0.079703753  0.080462086            2 
 1726000   0.97459915   -3.0879391    1648.0057  0.079567677   0.08044714            3 
 1727000   0.96190974   -3.0851945    1653.1076  0.079767785  0.080432133            2 
 1728000   0.95729682    -3.067758    1651.3639  0.079637535  0.080417256            3 
 1729000    1.0029151   -3.0716665    1657.6481  0.079894354  0.080402424            1 
 1730000    1.0060213   -3.1009337    1656.8839  0.079811365  0.080387489            2 
 1731000   0.98282157   -3.1015872    1652.3211  0.079545595  0.080372294            2 
 1732000   0.97950845   -3.1079744    1654.4092  0.079600135  0.080357085            1 
 1733000   0.95750804   -3.0873767    1655.4859  0.079605978  0.080341683            1 
 1734000   0.98501557   -3.1435995    1654.1974  0.079498143   0.08032642            3 
 1735000   0.97109638   -3.0668227    1656.3792  0.079557119  0.080311138            3 
 1736000   0.96576236   -3.0917029    1657.7596  0.079577555   0.08029618            5 
 1737000   0.95724713   -3.0969382    1658.8932  0.079586124  0.080281151            4 
 1738000   0.95796101   -3.0903641    1656.6323  0.079431926  0.080266069            2 
 1739000   0.99884231   -3.0969207    1656.7276  0.079390818  0.080250407            4 
 1740000   0.95772582   -3.1113047    1654.7641  0.079251152  0.080234979            4 
 1741000   0.97563589   -3.0548331    1658.5056  0.079384721  0.080219322            2 
 1742000   0.96193338   -3.1101688    1660.5794  0.079438357  0.080204162            2 
 1743000   0.97264046   -3.0757595    1661.8991  0.079455877  0.080188774            4 
 1744000   0.98684733   -3.1137925    1658.4456  0.079245296  0.080173044            2 
 1745000    0.9717445   -3.0525602    1657.3904  0.079149495  0.080157522            5 
 1746000   0.99815506   -3.0868436    1660.4481  0.079250103  0.080142225            4 
 1747000   0.95167927   -3.0892334    1660.3151  0.079198391  0.080126805            1 
 1748000   0.98497678   -3.0757935     1669.738  0.079602308  0.080111756            2 
 1749000   0.99894308     -3.08235    1671.0044  0.079617135  0.080096828            2 
 1750000   0.97774926   -3.1215361    1662.1695  0.079150927  0.080081802            2 
 1751000   0.97372623   -3.0729884    1669.7644  0.079467179  0.080066608            2 
 1752000    1.0082867   -3.0705148    1666.3393  0.079258909  0.080051601            3 
 1753000   0.97875368    -3.089622    1668.2147   0.07930285  0.080036387            2 
 1754000   0.95595738    -3.087953    1662.7912  0.078999961  0.080020995            3 
 1755000   0.97096539    -3.073615    1669.9316  0.079293997   0.08000514            3 
 1756000   0.94367488   -3.1327999    1660.2873  0.078791157  0.079989399            3 
 1757000   0.97537505   -3.0819934      1672.38  0.079319862  0.079973532            3 
 1758000   0.95536178   -3.0886647    1668.6418  0.079097545  0.079957768            3 
 1759000   0.96628975   -3.0796201    1670.7828  0.079154008  0.079942163            1 
 1760000   0.95986148   -3.1220025    1669.0454  0.079026771  0.079926279            3 
 1761000   0.96433627   -3.1000261    1669.3643  0.078996986  0.079910646            3 
 1762000   0.96369014   -3.0733132     1677.337  0.079329218  0.079894908            5 
 1763000   0.98157058   -3.0636419    1677.1848  0.079277026  0.079879425            2 
 1764000   0.99164802   -3.0937011    1669.4457  0.078866483  0.079864021            3 
 1765000   0.96352551   -3.0949219    1680.0223  0.079321167   0.07984901            3 
 1766000   0.98770086   -3.0836164    1680.1305  0.079281356  0.079833734            3 
 1767000   0.95399169   -3.0965613    1675.0658  0.078997635  0.079818665            4 
 1768000   0.97932207   -3.0717496    1677.1164  0.079049603  0.079803657            3 
 1769000   0.96509163   -3.0950645    1681.3093  0.079202438  0.079788663            4 
 1770000   0.99051092     -3.07691    1678.7821  0.079038705  0.079773551            3 
 1771000   0.95780541   -3.0620837    1686.3279  0.079349141  0.079758477            2 
 1772000   0.98221506   -3.1141325    1680.8131  0.079045011  0.079743591            4 
 1773000   0.96645821   -3.1140498    1683.7039  0.079136301  0.079728471            2 
 1774000   0.97135063   -3.0678131    1673.5554  0.078614968   0.07971353            2 
 1775000   0.97720105   -3.0938491    1678.0626   0.07878228  0.079698431            4 
 1776000   0.98130308   -3.0837707    1686.5419  0.079135787   0.07968358            2 
 1777000   0.98477758   -3.0947847    1681.9886  0.078877724  0.079668714            2 
 1778000   0.93665646   -3.0862183    1685.0507  0.078976878  0.079653704            1 
 1779000   0.96903286   -3.0894376    1684.2996  0.078897301  0.079638506            4 
 1780000    0.9824551   -3.1060185    1686.5474  0.078958213  0.079623413            4 
 1781000   0.95786457   -3.0767747    1692.2267  0.079179613  0.079608126            3 
 1782000   0.96974294   -3.0993221    1683.9754  0.078749316  0.079593059            4 
 1783000   0.96358885   -3.0995121    1676.4687  0.078354305  0.079577608            3 
 1784000   0.94809433   -3.1101638    1691.3469  0.079005369  0.079562231            4 
 1785000   0.96250177   -3.0836409    1684.9701  0.078663404   0.07954723            2 
 1786000   0.94920867   -3.1315481    1682.6489  0.078511053  0.079531798            2 
 1787000   0.96636993   -3.0875477    1688.5737   0.07874341   0.07951668            2 
 1788000   0.95689819   -3.0875461    1693.1468   0.07891251  0.079501602            4 
 1789000    0.9580103   -3.1057216    1696.8958  0.079043033  0.079486972            1 
 1790000   0.96392632   -3.0987643    1694.6448   0.07889408  0.079472501            1 
 1791000   0.95286931   -3.0511601    1697.8025  0.078996953   0.07945811            5 
 1792000    0.9771189   -3.1110195    1700.9205  0.079097863  0.079443779            6 
 1793000   0.95066396   -3.0974997    1694.7045   0.07876485  0.079429239            2 
 1794000   0.96615385   -3.0975581    1699.7492  0.078955275  0.079414679            3 
 1795000   0.93797489   -3.0890954    1705.3355  0.079170636  0.079400735            2 
 1796000   0.93868146   -3.0929582    1704.7844  0.079100984  0.079386361            2 
 1797000   0.96044156   -3.1025397     1692.261  0.078476209  0.079372033            2 
 1798000   0.96921134   -3.1220715     1697.427  0.078671996  0.079357489            2 
 1799000   0.96490799   -3.1014642    1699.4042  0.078719854  0.079343258            3 
 1800000   0.94819918   -3.0944846    1706.2807  0.078994479   0.07932883            2 
 1801000   0.97294209   -3.1122854    1701.4646  0.078727772  0.079314415            3 
 1802000   0.94946566   -3.0917919    1710.1681  0.079086576  0.079300488            3 
 1803000   0.93739223   -3.1039379    1700.5143  0.078596518  0.079286205            3 
 1804000   0.96001628   -3.0992711     1703.788  0.078704175   0.07927222            4 
 1805000   0.95937311   -3.1231508    1709.7172  0.078934314  0.079258072            6 
 1806000   0.95559963   -3.0970799    1702.4132  0.078553579  0.079244115            2 
 1807000   0.96540836   -3.1121964    1711.7589  0.078941104  0.079230277            3 
 1808000   0.96471329   -3.0980166    1713.6524  0.078984718  0.079216278            4 
 1809000    0.9781926   -3.0891841    1704.4114  0.078515356  0.079202179            4 
 1810000   0.96940497    -3.124257    1706.1615  0.078552556   0.07918813            3 
 1811000    0.9772678   -3.1375092    1710.6289  0.078714749  0.079174053            1 
 1812000    0.9879967   -3.0957208    1719.5542  0.079081779   0.07916008            4 
 1813000   0.95777857   -3.1091046    1713.2446  0.078748142  0.079146581            3 
 1814000   0.96691645   -3.1028219    1710.6775  0.078586803  0.079132995            3 
 1815000   0.94352109   -3.1005253    1710.7769  0.078548066  0.079119218            3 
 1816000   0.95556878   -3.0965317    1717.7093   0.07882293   0.07910547            2 
 1817000   0.94526966   -3.1075764    1718.9658  0.078837176  0.079091443            3 
 1818000   0.97932893   -3.1015881    1719.1162  0.078800708  0.079077896            2 
 1819000   0.95308828   -3.0916385     1717.459  0.078681465  0.079064539            1 
 1820000   0.97122573   -3.1169319    1719.2609  0.078720736  0.079051015            1 
 1821000   0.95203196   -3.0883701         1725  0.078940142   0.07903744            1 
 1822000   0.95718378   -3.0767797    1721.6172  0.078742097   0.07902412            4 
 1823000   0.95720602   -3.0999709    1725.3652   0.07887023  0.079010792            2 
 1824000   0.96108108   -3.1034692    1719.0745   0.07853959  0.078997185            3 
 1825000   0.95255752   -3.0976544    1722.3773  0.078647367  0.078983559            3 
 1826000   0.95657339   -3.1311485    1720.0938  0.078500084  0.078970048            3 
 1827000   0.93873429   -3.0831806    1729.9403  0.078906236  0.078956213            1 
 1828000   0.96692227   -3.1220388    1722.8002  0.078537573  0.078942312            3 
 1829000   0.97759287   -3.1371734     1717.639  0.078259477  0.078927971            4 
 1830000   0.94239562   -3.1172333    1724.5989  0.078533647   0.07891363            2 
 1831000    0.9611426   -3.1067816    1728.1815  0.078653808   0.07889961            5 
 1832000   0.95498307   -3.0974504    1720.2432  0.078249781  0.078885195            1 
 1833000    0.9485045   -3.1100298    1726.7939  0.078504906  0.078870987            4 
 1834000   0.96486233   -3.0914461    1725.1669  0.078388173  0.078856727            1 
 1835000   0.94826461   -3.1065573    1729.7268  0.078552532  0.078842297            3 
 1836000   0.96624962   -3.1011778     1734.619  0.078731799  0.078827905            2 
 1837000   0.94326438   -3.0975096    1727.3211  0.078357877  0.078813679            2 
 1838000   0.94910436   -3.0887253    1728.4942  0.078368434   0.07879936            3 
 1839000   0.97449228   -3.0847142    1740.4611  0.078868092  0.078785047            2 
 1840000   0.97965577   -3.0940528    1726.3117  0.078184406  0.078771153            2 
 1841000   0.98111128   -3.0973767    1733.3109  0.078458761  0.078757152            3 
 1842000   0.94645427   -3.1034974    1737.7015  0.078614799  0.078743307            3 
 1843000   0.94596005   -3.1004603    1727.8219  0.078125427  0.078728792            4 
 1844000   0.95976064   -3.1191428    1729.7861  0.078171822  0.078714954            4 
 1845000   0.97549097   -3.1156932    1734.6759  0.078350313  0.078700774            4 
 1846000   0.97029116   -3.1033783    1731.5637  0.078167374  0.078686626            1 
 1847000   0.96852985   -3.1176806    1736.5332  0.078349268  0.078672604            4 
 1848000   0.95161464   -3.1153165    1742.8164  0.078590204  0.078658673            3 
 1849000   0.94961247     -3.10399    1739.2905  0.078388792  0.078644982            4 
 1850000   0.97316916   -3.1243946    1734.8372  0.078145818  0.078631027            2 
 1851000   0.95915858   -3.1099582    1745.5844  0.078587447  0.078616978            3 
 1852000   0.94016495   -3.1022148    1739.5849  0.078275058  0.078603334            2 
 1853000   0.95998898   -3.1026881    1746.2631  0.078533147  0.078589701            2 
 1854000   0.96007117   -3.1046892    1741.7994  0.078290156  0.078576435            2 
 1855000    0.9278381   -3.1154691    1745.1941  0.078400453  0.078562934            7 
 1856000   0.96429163   -3.1150882    1743.2008  0.078268713  0.078549344            2 
 1857000   0.95868685   -3.0995179    1746.3708  0.078368823  0.078535811            2 
 1858000    0.9322316   -3.1045301    1745.2879  0.078278074  0.078521921            5 
 1859000   0.94526932    -3.100109    1751.4732  0.078513235   0.07850857           10 
 1860000   0.93786412   -3.1037866    1748.0251  0.078316538  0.078495028            3 
 1861000   0.93871819   -3.0894829    1746.7375  0.078216797  0.078481148            2 
 1862000   0.95449014    -3.092202    1747.9222  0.078227811   0.07846771            5 
 1863000   0.95157541   -3.1322465    1748.4451  0.078209208  0.078454469            2 
 1864000   0.96899296   -3.1257456    1748.3846  0.078164546  0.078440913            4 
 1865000   0.94923497   -3.1221212    1753.1831  0.078337047  0.078427645            1 
 1866000   0.95881633   -3.0922855    1754.8424  0.078369168  0.078414872            2 
 1867000   0.97788454   -3.0921739    1762.7146  0.078678568  0.078401958            3 
 1868000   0.96338311   -3.1356664    1757.0944  0.078385726  0.078388948            3 
 1869000   0.94921031   -3.1211225    1753.3582  0.078177197  0.078375818            1 
 1870000   0.94480529   -3.1403202    1755.9983  0.078253046  0.078362557            2 
 1871000   0.94985485   -3.0772095    1761.7379  0.078466856  0.078349477            3 
 1872000   0.93168438   -3.1056614    1753.0646  0.078038844  0.078336313            2 
 1873000   0.96124187    -3.096343    1756.8278  0.078164609  0.078323008            3 
 1874000   0.95854767   -3.1100166    1761.2219  0.078318298  0.078309736            2 
 1875000   0.95924961   -3.1173929    1757.9947  0.078133099  0.078296539            5 
 1876000   0.93885525   -3.1339282    1757.3761  0.078063972  0.078283335            2 
 1877000   0.94331435   -3.1079716    1757.0229  0.078006702  0.078269923            4 
 1878000   0.95539287    -3.123468    1754.7294  0.077863394  0.078256706            3 
 1879000   0.95532266   -3.0864766    1766.7704  0.078355969  0.078243505            1 
 1880000   0.95010417   -3.1180177    1760.2918  0.078027121  0.078230402            2 
 1881000   0.94437199   -3.1279826     1759.978  0.077971734  0.078217088            3 
 1882000   0.94957825   -3.1170629    1760.6851  0.077961613  0.078203994            4 
 1883000   0.94956968    -3.126729    1767.3071  0.078213272  0.078191037            3 
 1884000   0.94803826   -3.1017508     1772.043  0.078381237  0.078177741            1 
 1885000   0.93126051   -3.1145934    1763.7264  0.077971989  0.078164885            1 
 1886000   0.95084093   -3.1182784    1764.3189  0.077956828   0.07815175            3 
 1887000    0.9512948   -3.1281009    1764.7956  0.077936568  0.078138509            3 
 1888000   0.94189332    -3.135234    1764.3217  0.077874369  0.078125366            5 
 1889000   0.94673547    -3.100337    1767.3944  0.077968697  0.078112191            4 
 1890000   0.93850463   -3.1278729    1769.1127  0.078003205  0.078098881            2 
 1891000   0.94748333   -3.1232559    1770.9893  0.078044653  0.078085548            3 
 1892000   0.95634269   -3.0979626    1772.2602  0.078059383  0.078072325            3 
 1893000   0.94238303   -3.1332046    1768.7951  0.077865605  0.078058836            3 
 1894000   0.92947288   -3.1040142    1765.0275  0.077658725  0.078045292            1 
 1895000    0.9338031   -3.1376982    1769.7086  0.077823599  0.078032103            2 
 1896000   0.96167735   -3.1306523    1770.1906  0.077803735  0.078018655            4 
 1897000   0.93531475   -3.1164328    1768.9063  0.077706303  0.078005294            1 
 1898000   0.96252764   -3.1063722    1771.1207  0.077762588  0.077992141            5 
 1899000   0.95887305   -3.1331979    1776.9556  0.077977691  0.077979022            4 
 1900000   0.95319794   -3.1182857    1774.7857  0.077841477  0.077965964            3 
 1901000   0.94292501   -3.0997023    1778.6478  0.077969832  0.077952541            7 
 1902000   0.94412219   -3.1397784    1773.9851  0.077724548  0.077938984            3 
 1903000   0.93312937   -3.1393972     1772.075  0.077600061  0.077925488            5 
 1904000   0.93868902   -3.1309257    1776.7491  0.077763881  0.077911733            3 
 1905000   0.95978423   -3.1286294    1769.1343  0.077389951  0.077898147            1 
 1906000   0.95067018   -3.1029633    1783.5084  0.077977809   0.07788457            3 
 1907000   0.95858717   -3.1105174    1783.0043  0.077914887  0.077871274            7 
 1908000   0.93073056     -3.15074    1773.9508  0.077478634  0.077857532            4 
 1909000   0.95121339   -3.1285604    1782.5635  0.077814015  0.077843955            4 
 1910000   0.94553942   -3.1104546    1779.6762  0.077647303  0.077830094            2 
 1911000   0.96465134   -3.1297202    1779.9194  0.077617276  0.077816411            4 
 1912000    0.9559975   -3.1356764    1781.9138  0.077663609  0.077802678            2 
 1913000   0.95960095   -3.1287349    1774.3786  0.077294764  0.077788952            4 
 1914000   0.96690389   -3.1426632    1787.7153  0.077835043  0.077775403            4 
 1915000   0.92728922   -3.1266052    1782.8284  0.077581742  0.077762051            2 
 1916000   0.94114615   -3.1174447    1783.5959   0.07757463   0.07774847            2 
 1917000   0.94742896   -3.1262359    1784.8359  0.077588068  0.077734877            3 
 1918000   0.94221106   -3.1257084    1783.9701  0.077509999  0.077721277            3 
 1919000   0.93878888   -3.1055628    1783.5672  0.077452109  0.077707545            6 
 1920000   0.93959739   -3.1055342    1781.4573  0.077320195  0.077693659            3 
 1921000   0.92844139   -3.1187244     1790.369  0.077666537  0.077679707            2 
 1922000   0.91818097   -3.0905505    1784.5426  0.077373508  0.077665684            4 
 1923000   0.94937037   -3.1294886    1779.0494  0.077095223  0.077652143            4 
 1924000   0.94215024   -3.1289074    1787.3323   0.07741391  0.077638106            1 
 1925000   0.94613142   -3.1206923    1787.6635  0.077388032  0.077624214            2 
 1926000   0.92988524   -3.1211017    1784.1896  0.077197544  0.077610264            4 
 1927000   0.95812917   -3.1414103    1786.8086  0.077270741  0.077596467            3 
 1928000   0.94750459    -3.126549    1784.6035  0.077135351  0.077582579            3 
 1929000   0.95942339     -3.12617    1780.8644  0.076933834  0.077568579            3 
 1930000   0.95657552   -3.1019285     1792.302  0.077387824  0.077554478            2 
 1931000   0.94355116   -3.1139652    1794.8871   0.07745931  0.077540489            1 
 1932000    0.9678855   -3.1083992     1784.975  0.076991676  0.077526283            4 
 1933000   0.95377779   -3.1337886    1786.4402   0.07701501  0.077511946            2 
 1934000   0.92598848   -3.1382271    1784.2176  0.076879421  0.077497515            3 
 1935000   0.92792735   -3.1418131    1788.6866  0.077032152  0.077483177            2 
 1936000   0.94007788   -3.1376679    1790.1882  0.077056999   0.07746879           10 
 1937000   0.94469463   -3.1506788     1788.928  0.076963001  0.077454484            3 
 1938000   0.94531619   -3.1470834    1788.8165  0.076918496  0.077440307            2 
 1939000   0.92371808   -3.1239217    1793.2817  0.077070729  0.077425931            2 
 1940000   0.94664252   -3.1064888    1790.3371  0.076904516  0.077412295            4 
 1941000   0.93575195   -3.1375616    1792.7589  0.076968868  0.077398379            2 
 1942000   0.94127687   -3.1170058    1797.0216  0.077112152  0.077384289            3 
 1943000   0.93568978   -3.1162487    1801.4708  0.077263289  0.077370326            3 
 1944000   0.91801796   -3.1421612    1798.6033  0.077100619  0.077356475            2 
 1945000    0.9174581   -3.1392842    1793.0419  0.076822702  0.077342326            4 
 1946000   0.96087903   -3.1323136    1793.8976  0.076819868  0.077328097            5 
 1947000   0.96259188   -3.1288583    1800.7672  0.077074438  0.077313818            2 
 1948000   0.92104637   -3.1244008    1795.4593  0.076807806   0.07729969            4 
 1949000    0.9321202    -3.139204    1797.2617  0.076845464  0.077285256            7 
 1950000   0.94098043   -3.1366241    1800.7093  0.076953389  0.077271147            2 
 1951000   0.93116604   -3.1454236    1799.3468  0.076855747  0.077257038            4 
 1952000   0.94307665   -3.1334579    1799.2181  0.076810882  0.077242605            5 
 1953000   0.92434609   -3.1321656    1796.2788  0.076646134  0.077228218            2 
 1954000   0.94186921   -3.1087555     1799.787  0.076756527  0.077213937            3 
 1955000    0.9300086   -3.1498501    1802.4072  0.076828952  0.077199351            2 
 1956000   0.92623004   -3.1468453    1796.1761  0.076524203  0.077184996            4 
 1957000    0.9456313   -3.1235976    1798.4584  0.076582285  0.077170596            4 
 1958000   0.93833632   -3.1224503    1803.4135  0.076754063  0.077156222            4 
 1959000   0.93219489   -3.1315633    1804.0987   0.07674403  0.077141852            3 
 1960000   0.92595724   -3.1336397    1802.3869  0.076632095  0.077127401            4 
 1961000   0.93190145   -3.1255433    1805.1828  0.076711832  0.077113017            3 
 1962000   0.95590882   -3.1660568    1801.7388  0.076526451  0.077098564            2 
 1963000   0.93828412   -3.1324634     1812.801  0.076957081   0.07708412            5 
 1964000   0.92552513   -3.1092814     1804.222  0.076553886  0.077069731            3 
 1965000   0.93894912   -3.1228349    1803.9048  0.076501474  0.077055545            4 
 1966000   0.93100963   -3.1329322    1802.9713  0.076422995  0.077041286            4 
 1967000   0.94647121   -3.1154716    1805.2935  0.076482523   0.07702721            4 
 1968000   0.92333861   -3.1623864    1810.3071  0.076655959  0.077013078            3 
 1969000   0.94942382   -3.1674462    1803.7559   0.07633976  0.076998544            1 
 1970000   0.94301191   -3.1292271    1803.2178   0.07627825  0.076983763            4 
 1971000   0.94679311   -3.1326574    1809.0886  0.076487766  0.076969734            3 
 1972000   0.95438929   -3.1329203    1814.6545  0.076684184  0.076955521            3 
 1973000   0.92522374   -3.1388102     1817.757  0.076776357  0.076941382            7 
 1974000   0.94290204   -3.0969797    1810.4897  0.076430669  0.076927411            3 
 1975000   0.92161302   -3.1420456    1810.6102  0.076397055  0.076913827            2 
 1976000   0.95933203   -3.1540589    1818.5165  0.076691823  0.076899836            2 
 1977000   0.93532926    -3.130837    1812.1206  0.076383434  0.076885807            3 
 1978000   0.93656633   -3.1486782    1810.7708  0.076287949  0.076871631            4 
 1979000   0.92352792    -3.127405     1814.674  0.076413763  0.076857467            2 
 1980000   0.93233283   -3.1214578    1818.4781  0.076535272  0.076843495            5 
 1981000   0.95057472   -3.1494529    1819.9585  0.076558913  0.076829658            5 
 1982000    0.9474947    -3.141217    1816.5406   0.07637658  0.076815526            3 
 1983000    0.9098811   -3.1475888    1823.0386  0.076611138  0.076800793            4 
 1984000   0.93572001   -3.1744883    1811.7611  0.076098839  0.076786207            2 
 1985000   0.93051122    -3.134308     1819.545  0.076387281  0.076771849            3 
 1986000   0.93402991   -3.1584267    1813.9017  0.076112021  0.076757318            3 
 1987000   0.92980269   -3.1205851    1824.1093  0.076501814  0.076743277            5 
 1988000   0.94579378   -3.1469447    1825.8007  0.076534234  0.076729061            2 
 1989000   0.93274005   -3.1447009    1819.0465  0.076212774  0.076714533            2 
 1990000   0.91669141   -3.1372046    1825.6197  0.076449737  0.076700559            5 
 1991000   0.95362173   -3.1722633    1818.9926  0.076133962  0.076686758            2 
 1992000   0.91523102   -3.1415934    1826.0993  0.076393043  0.076672582            3 
 1993000   0.92406583    -3.148621    1829.7888  0.076508981  0.076658336            3 
 1994000   0.91513807   -3.1267348    1835.5756  0.076712455  0.076644548            3 
 1995000   0.91600072   -3.1301931    1824.3766  0.076206207  0.076630597            5 
 1996000   0.92182916   -3.1494783    1825.8093  0.076227845   0.07661672            5 
 1997000   0.93057107   -3.0996608    1838.1226  0.076703497  0.076603092            3 
 1998000   0.92956142   -3.1545772    1825.7816  0.076150383  0.076589474            2 
 1999000   0.92299672   -3.1419256    1832.2829  0.076383312  0.076575776            3 
 2000000   0.93013046   -3.1377971    1831.7595  0.076323313  0.076562006            2 
 2001000   0.93710619    -3.123108    1838.6677  0.076572867  0.076548149            3 
 2002000   0.93567968   -3.1354538    1831.0443  0.076217294  0.076534107            3 
 2003000   0.92679742   -3.1497276    1830.2372  0.076145667  0.076520263            3 
 2004000    0.9324117   -3.1382145    1837.4294  0.076406743  0.076506543            3 
 2005000    0.9298391   -3.1489529    1829.8002  0.076051544  0.076493104            2 
 2006000   0.93395826   -3.1485397    1838.7859  0.076386919   0.07647932            4 
 2007000   0.94025012   -3.1345257    1840.2387  0.076409178  0.076465832            5 
 2008000   0.93957518   -3.1378707    1834.7567  0.076143621  0.076452344            4 
 2009000   0.91590251   -3.1337772    1837.8858  0.076235515  0.076438968            3 
 2010000   0.92126043   -3.1612579    1826.4945   0.07572531  0.076425243            2 
 2011000   0.91073302   -3.1301302    1843.8221  0.076405688   0.07641148            3 
 2012000   0.92434391   -3.1545979     1834.549  0.075983639   0.07639799            5 
 2013000   0.93590653   -3.1508488    1849.6643  0.076571629  0.076384695            2 
 2014000   0.92517218   -3.1244593    1844.7386  0.076329798  0.076371488            3 
 2015000   0.92186842   -3.1593211    1845.5412  0.076325113  0.076358195            5 
 2016000   0.91718114   -3.1518232    1845.3279  0.076278434  0.076344967            4 
 2017000   0.93781932    -3.174274    1847.7411   0.07634032  0.076331554            2 
 2018000   0.92905056   -3.1535824     1843.963  0.076146474   0.07631841            9 
 2019000   0.95445017   -3.1384923    1847.7512  0.076265113  0.076305323            2 
 2020000   0.95237899   -3.1462249    1847.2995  0.076208726  0.076292393            2 
 2021000   0.93330063   -3.1227385    1853.6112  0.076431273   0.07627931            9 
 2022000   0.91503561   -3.1484069    1846.5503  0.076102469  0.076266396            2 
 2023000   0.90889388    -3.156194    1853.3509  0.076344988  0.076253064            5 
 2024000   0.93974157   -3.1365361    1854.3734  0.076349368  0.076240383            3 
 2025000   0.93606572   -3.1539326    1856.6743   0.07640635  0.076227704            1 
 2026000   0.93017993   -3.1497118    1844.5194  0.075868683   0.07621487            4 
 2027000   0.93436936   -3.1338629    1857.9109  0.076381798   0.07620198            3 
 2028000   0.93590013   -3.1350242    1857.6489  0.076333369  0.076189497            2 
 2029000   0.93395425    -3.120486    1864.6657  0.076583938  0.076176962            2 
 2030000   0.93724379    -3.158555    1857.0747  0.076234592  0.076164044            3 
 2031000   0.91878466   -3.1361296    1855.3864  0.076127785  0.076151025            4 
 2032000    0.9034407    -3.167896    1850.4536  0.075888024  0.076138053            3 
 2033000   0.94218421   -3.1250328    1865.4712  0.076466275  0.076125009            3 
 2034000   0.93140527   -3.1190824     1857.524  0.076103081  0.076112071            2 
 2035000   0.92868793   -3.1576199    1863.8029  0.076322807  0.076099285            4 
 2036000   0.90926844   -3.1640522    1853.9422  0.075881723  0.076086206            5 
 2037000   0.91973113   -3.1426978    1860.7866  0.076124473  0.076072888            4 
 2038000   0.90791783   -3.1132914    1856.0733  0.075894396  0.076060239            2 
 2039000   0.94215462   -3.1697408    1860.4795  0.076037252   0.07604716            2 
 2040000   0.93554808   -3.1433825    1859.6356  0.075965505  0.076034279            3 
 2041000   0.93977295   -3.1424012    1863.7465  0.076096135  0.076021432            3 
 2042000   0.92632921   -3.1635973      1863.21  0.076036973  0.076008768            3 
 2043000   0.93813256   -3.1450475    1859.2414  0.075837879  0.075995776            5 
 2044000   0.92636847   -3.1598431    1863.2562  0.075964456  0.075982789            1 
 2045000   0.92294157    -3.151239    1871.4209  0.076260021  0.075969945            3 
 2046000   0.92603716   -3.1549904    1874.1649  0.076334512  0.075957083            5 
 2047000   0.91363353    -3.162439    1857.6079  0.075623185  0.075944209            1 
 2048000   0.94764328   -3.1214403    1872.5036  0.076192366  0.075931034            3 
 2049000   0.94458915   -3.1273664    1871.3228  0.076107158  0.075918156            3 
 2050000   0.94405577   -3.1543447    1874.8948  0.076215234   0.07590559            4 
 2051000   0.92386893   -3.1590098    1867.6158  0.075882327  0.075893081            2 
 2052000   0.92216125   -3.1325236    1864.8289  0.075732169  0.075880275            2 
 2053000   0.93689799   -3.1755404    1867.7425  0.075813545   0.07586728            3 
 2054000   0.92544614   -3.1675065    1862.9353  0.075581601  0.075854277            2 
 2055000   0.92140183   -3.1607903    1876.3667  0.076089485  0.075841324            2 
 2056000   0.93162019   -3.1610738    1872.6222  0.075900706  0.075828349            4 
 2057000   0.92432844   -3.1551445     1872.653  0.075865052  0.075815246            5 
 2058000   0.91731384   -3.1798566     1872.068  0.075804502  0.075802311            2 
 2059000   0.90659743   -3.1455032     1879.441  0.076066092  0.075789465            4 
 2060000   0.91659286   -3.1605264    1874.4276  0.075826361  0.075776805            5 
 2061000   0.91336991   -3.1651829    1873.8324    0.0757655  0.075764125            2 
 2062000   0.92068896   -3.1669368    1877.0034  0.075856913  0.075751521            4 
 2063000   0.91773901   -3.1633993    1873.0361  0.075659886  0.075738715            1 
 2064000   0.91350262   -3.1534613    1875.4147  0.075719264  0.075725856            4 
 2065000   0.91767862   -3.1601607    1884.8276  0.076062453   0.07571303            4 
 2066000   0.94060393   -3.1750253    1871.4262  0.075485082  0.075700263            3 
 2067000   0.90845128   -3.1626118     1880.496  0.075814222  0.075687421            4 
 2068000   0.94658723   -3.1474272     1880.013  0.075758101  0.075674658            5 
 2069000   0.92871931   -3.1733773    1880.6871  0.075748636  0.075661959            3 
 2070000    0.9111366   -3.1523184    1880.4559  0.075702733  0.075649091            4 
 2071000   0.92040814   -3.1513814    1877.8074   0.07555961  0.075636134            4 
 2072000   0.94489949   -3.1609973    1887.9912  0.075932723  0.075623297            3 
 2073000    0.9200657   -3.1677711    1886.4374  0.075833633  0.075610388            2 
 2074000     0.922226   -3.1674387    1874.7766  0.075328535  0.075597358            5 
 2075000   0.90114187   -3.1865299    1883.4633  0.075641097  0.075583996            3 
 2076000   0.91216015   -3.1521482    1882.2289  0.075555109  0.075570772            2 
 2077000   0.94593405   -3.1589016    1885.5046   0.07565016  0.075557497            1 
 2078000   0.92920449   -3.1557853    1880.8985  0.075429037  0.075544157            2 
 2079000   0.91969918   -3.1620244    1886.8154  0.075629927  0.075530522            3 
 2080000   0.92024542   -3.1720568    1882.1723  0.075407545  0.075517301            3 
 2081000   0.92455531   -3.1508811    1878.7574   0.07523456  0.075504097            3 
 2082000   0.89455564   -3.1827544    1878.0861  0.075171556  0.075490396            3 
 2083000   0.92756654    -3.178072    1879.2761  0.075183073  0.075477184            3 
 2084000   0.92173109   -3.1770632    1877.0782  0.075059108  0.075463787            6 
 2085000   0.93832187   -3.1584014    1885.1528  0.075345833  0.075450384            5 
 2086000   0.91002216   -3.1642651    1885.3883  0.075319124  0.075437222            4 
 2087000   0.92237487   -3.1734954     1892.714  0.075575546  0.075423832            2 
 2088000   0.91446402   -3.1501362     1887.718  0.075339959  0.075410488            1 
 2089000   0.90351642    -3.157608    1886.0601  0.075237758  0.075397241            2 
 2090000   0.93909978   -3.1427336    1896.1467  0.075603935   0.07538382            2 
 2091000   0.92514908   -3.1929802    1890.5289  0.075343889  0.075370722            3 
 2092000   0.91328584   -3.1613006    1887.9248  0.075204143   0.07535734            2 
 2093000    0.9196762   -3.1668485     1889.545   0.07523272  0.075343864            4 
 2094000   0.93215883   -3.1390011    1888.8312  0.075168387  0.075330418            3 
 2095000   0.91698082   -3.1988066    1887.1208  0.075064472  0.075316903            6 
 2096000   0.89362089   -3.1821764    1890.5846  0.075166374  0.075303181            2 
 2097000   0.90395078   -3.1570338    1888.5681  0.075050391  0.075289697            3 
 2098000   0.89727854   -3.1770974    1887.0581  0.074954642  0.075276141            3 
 2099000   0.91125965   -3.1480736    1898.4986  0.075373138  0.075262821            3 
 2100000   0.92337072   -3.1720385    1893.6726  0.075145739  0.075249478            4 
 2101000   0.92124088   -3.1701354    1887.9075  0.074881308   0.07523582            2 
 2102000   0.92184818   -3.1708738    1887.6123   0.07483398  0.075222043            1 
 2103000   0.92957624    -3.180396    1887.7841  0.074805204  0.075208182            5 
 2104000    0.9090299   -3.1653931    1897.7822  0.075165643  0.075194264            5 
 2105000   0.90681123   -3.1642378    1889.7973  0.074813827  0.075180464            4 
 2106000    0.9277767   -3.1501015    1894.9337  0.074981549  0.075166401            2 
 2107000   0.90059015   -3.1647723    1895.7206  0.074977083  0.075152567            3 
 2108000   0.89832084   -3.1492937    1889.2199  0.074684532   0.07513859            7 
 2109000    0.8998614   -3.1893351    1896.4513  0.074934855  0.075124236            6 
 2110000   0.91470862   -3.1824587    1891.7264  0.074712733  0.075110255            3 
 2111000   0.92825964   -3.1709094    1890.2957  0.074620864  0.075096452            5 
 2112000   0.90746455   -3.1651004    1899.2133  0.074937394  0.075082386            2 
 2113000    0.9231537   -3.1545456    1899.7251  0.074922114   0.07506823            3 
 2114000   0.90779669   -3.1657356    1890.4225  0.074519967  0.075054183            2 
 2115000   0.90899696   -3.1870476    1889.7483  0.074458168  0.075039946            3 
 2116000   0.92065953   -3.1708462    1899.0697  0.074790081  0.075025866            4 
 2117000   0.91655004   -3.1756307    1900.6523  0.074817048  0.075011744            4 
 2118000   0.92434226   -3.1541568    1898.4565  0.074695331  0.074997601            4 
 2119000   0.88208729   -3.1472256    1897.9964  0.074641984   0.07498363            2 
 2120000   0.93415985   -3.1627334    1898.9079  0.074642607  0.074969742            3 
 2121000    0.9102087   -3.1908249    1887.8963  0.074174772  0.074955711            2 
 2122000   0.91945403   -3.1810596    1892.2477    0.0743107  0.074941491            5 
 2123000   0.90140893   -3.1772975    1895.9427  0.074420736   0.07492742            2 
 2124000   0.91054058   -3.1596061    1901.2147  0.074592543  0.074913125            1 
 2125000   0.91022171   -3.1809415    1894.9228  0.074310697   0.07489905            5 
 2126000   0.92205752   -3.1833085    1897.4888  0.074376324  0.074884945            1 
 2127000   0.90096374   -3.1623268    1897.5166  0.074342448  0.074870609            5 
 2128000   0.91040709   -3.1754346    1906.6773   0.07466625  0.074856737            2 
 2129000   0.90840055   -3.2052577    1901.8316  0.074441506   0.07484269            2 
 2130000   0.87886749   -3.1881839    1902.0107  0.074413564  0.074828531            4 
 2131000   0.89366088   -3.1664829    1901.2158  0.074347562  0.074814664            7 
 2132000   0.90102142   -3.1560738    1912.1612  0.074740511  0.074800903            2 
 2133000   0.89243213   -3.1617603    1907.4977  0.074523275  0.074787011            2 
 2134000   0.93020315   -3.1880525    1910.9289  0.074622342  0.074772915            3 
 2135000   0.89957837   -3.1577137    1904.2103  0.074325149  0.074758635            2 
 2136000    0.9234495   -3.1963236    1903.8765  0.074277329  0.074744747            3 
 2137000   0.91900643   -3.1999426    1898.8167  0.074045261  0.074730466            2 
 2138000   0.90545751   -3.1661683    1911.8503  0.074518644  0.074716163            4 
 2139000   0.90987757   -3.1711947    1899.9371  0.074019679  0.074701835            5 
 2140000   0.90673628   -3.1857711      1907.18  0.074267134  0.074687786            3 
 2141000   0.91615946   -3.1577647    1903.8152  0.074101479  0.074673589            3 
 2142000   0.89248906   -3.1870387    1907.6092  0.074214488  0.074659217            2 
 2143000   0.92462807    -3.151216     1916.355  0.074519948  0.074644975            3 
 2144000   0.91191574   -3.1661405    1904.7023  0.074032272  0.074630816            4 
 2145000    0.8944749   -3.1762898    1909.1226  0.074169486   0.07461637            4 
 2146000   0.90894744   -3.1689896    1920.5209  0.074577542   0.07460225            7 
 2147000   0.89839219   -3.1514661    1906.7887   0.07400981  0.074587858            2 
 2148000    0.8904549   -3.1901262    1913.5942  0.074239376  0.074573447            2 
 2149000   0.91269453   -3.1668781    1911.3275  0.074116935  0.074558962            4 
 2150000    0.9104536   -3.1845353    1908.4936  0.073972622  0.074544371            4 
 2151000   0.92039297   -3.1546617     1921.037  0.074424181  0.074529999            8 
 2152000   0.91369251   -3.1887544    1913.9938   0.07411686   0.07451579            5 
 2153000   0.90449469   -3.1608415    1917.9113  0.074234066  0.074501459            2 
 2154000   0.90473003   -3.1784494    1912.2133   0.07397916  0.074487245            4 
 2155000    0.9210547   -3.1863246    1911.4545  0.073915486  0.074472755            2 
 2156000   0.92001387   -3.1555049    1921.0107  0.074250568  0.074458603            3 
 2157000    0.9021335   -3.1688941    1917.8358  0.074093485  0.074444375            3 
 2158000   0.90212743   -3.1751316    1908.1507  0.073685152   0.07443013            2 
 2159000   0.91076242   -3.1638879    1915.3298  0.073928121  0.074415891            9 
 2160000   0.90461168   -3.1768983    1912.4209  0.073781671  0.074401668            2 
 2161000   0.90854289   -3.1766391    1919.4973  0.074020409  0.074387119            4 
 2162000   0.90128339   -3.1648415    1922.2743  0.074093212  0.074372634            4 
 2163000   0.89498285   -3.1733798    1915.4493  0.073796014  0.074358075            2 
 2164000   0.91507766   -3.1777221    1913.4063  0.073683237  0.074343547            5 
 2165000   0.91014911   -3.1555929    1918.0756  0.073828929  0.074328999            2 
 2166000   0.90695395   -3.1896106     1916.471  0.073733109  0.074314511            5 
 2167000   0.91724321    -3.171732    1914.1299  0.073609056  0.074300122            3 
 2168000   0.88860547   -3.1535698    1921.1929  0.073846591  0.074285637            2 
 2169000    0.8953615    -3.180818    1926.1823  0.074004239  0.074271495            4 
 2170000   0.91072711   -3.1617372    1925.7481  0.073953459  0.074257044            6 
 2171000   0.91302198    -3.195076    1923.0376  0.073815355  0.074242681            3 
 2172000   0.90608046   -3.2076493    1917.1659  0.073556088  0.074228173            3 
 2173000   0.90451608   -3.1673643    1926.2396   0.07387021  0.074213622            3 
 2174000   0.89592818   -3.1693047    1921.1112   0.07363965  0.074199435            4 
 2175000   0.90564393   -3.1623206    1935.1292  0.074142881  0.074185315            2 
 2176000   0.90396952   -3.1691616     1921.419  0.073583753  0.074171391            5 
 2177000   0.91231312   -3.1968071    1926.8059  0.073756159  0.074157294            4 
 2178000   0.91140844   -3.2017345    1929.6733  0.073832007  0.074143057            6 
 2179000   0.91097421   -3.1757709    1928.3172  0.073746259  0.074128961            1 
 2180000   0.90328224   -3.1452961    1930.2969  0.073788108  0.074114729            5 
 2181000   0.89964799   -3.1796275    1931.7807   0.07381097  0.074100565            3 
 2182000   0.91295406   -3.1767439    1929.6982   0.07369761  0.074086366            4 
 2183000   0.91647246   -3.1908301         1934  0.073828064   0.07407217            1 
 2184000   0.91199472   -3.2211064    1931.6013  0.073702736  0.074058116            1 
 2185000   0.89869046   -3.2051892    1928.9736  0.073568788  0.074044151            3 
 2186000   0.89495082   -3.1827596    1934.8131  0.073757742  0.074030199            4 
 2187000   0.91137471   -3.1936031    1935.9629  0.073767829  0.074016269            2 
 2188000     0.897007   -3.1821308    1931.7835  0.073574934  0.074002299            2 
 2189000   0.89841621   -3.1651676    1932.2167  0.073557815  0.073988395            9 
 2190000    0.9085663   -3.1603956    1945.7321  0.074038512  0.073974526            4 
 2191000   0.89422389   -3.1622989    1936.9428  0.073670425  0.073960607            1 
 2192000   0.89602275   -3.1623674    1943.1695  0.073873536  0.073946548            5 
 2193000    0.8960471   -3.2103182    1946.0106  0.073947813  0.073932647            6 
 2194000   0.89743439   -3.2071937    1936.8263  0.073565263  0.073918666            4 
 2195000   0.90880942   -3.1943454    1944.3223  0.073816338  0.073904673            7 
 2196000   0.91344262   -3.1909308    1934.4495  0.073408072  0.073890528            3 
 2197000   0.89112348   -3.1950673    1936.2828  0.073444196  0.073876202            2 
 2198000   0.90837071   -3.1822138    1932.8724  0.073281482  0.073862058            3 
 2199000     0.910365    -3.200504    1938.5118  0.073461868  0.073848144            5 
 2200000   0.89217453   -3.1789739    1935.7314  0.073323158  0.073833965            3 
 2201000   0.88982392   -3.1902717    1939.0875  0.073416911  0.073819492            2 
 2202000    0.9308336   -3.1753808    1940.0408  0.073419649  0.073805282            3 
 2203000   0.90087876   -3.1977273     1936.068  0.073236042  0.073790918            3 
 2204000   0.89103101   -3.1755041    1939.5991  0.073336324  0.073776535            3 
 2205000    0.8994488   -3.2145344    1940.1916  0.073325456   0.07376222            4 
 2206000   0.88871621   -3.1723556    1944.2384  0.073445091  0.073748116            5 
 2207000   0.92352854   -3.1682634     1945.124  0.073445251  0.073734123            7 
 2208000   0.90026514   -3.1984145    1945.3827  0.073421749  0.073719772            3 
 2209000   0.88714115    -3.178824     1940.457  0.073202693  0.073705654            3 
 2210000   0.88734174   -3.1542369    1944.0611   0.07330547  0.073691353            6 
 2211000   0.89613695   -3.1786518    1944.3168  0.073281952  0.073677241            5 
 2212000   0.89535627   -3.2019697    1940.1032  0.073090085  0.073662906            3 
 2213000   0.91062512   -3.1909967    1949.1053  0.073396042   0.07364859            3 
 2214000   0.88211343   -3.1962372    1939.9442  0.073018076  0.073634058            3 
 2215000   0.89513755   -3.2123496    1938.5578  0.072932951  0.073619576            2 
 2216000   0.89754898   -3.2028269    1942.1776   0.07303616   0.07360502            6 
 2217000   0.89788086   -3.2110151    1937.3888  0.072823216  0.073590253            4 
 2218000   0.90866291   -3.2128354    1942.0684  0.072966201   0.07357539            2 
 2219000   0.87335111   -3.1690156    1942.5121  0.072949979  0.073560542            2 
 2220000   0.91120184   -3.1910018    1948.5213  0.073142693   0.07354563            4 
 2221000   0.89606458   -3.1887606    1942.9742  0.072901629  0.073530748            4 
 2222000   0.90091387   -3.1832556    1946.4323   0.07299851  0.073516039            5 
 2223000   0.88040748   -3.1922055    1947.5184  0.073006387  0.073501473            7 
 2224000   0.91216964   -3.2031235    1941.7568  0.072757674  0.073486735            3 
 2225000   0.89233283   -3.1961371    1945.0142  0.072846972  0.073472082            3 
 2226000    0.8882976   -3.2141934    1946.3832    0.0728655  0.073457375            4 
 2227000   0.90421308   -3.1900688      1950.98   0.07300479  0.073442845            4 
 2228000   0.89514607   -3.1664692    1952.7894    0.0730397  0.073428173            5 
 2229000     0.886674   -3.1997562    1956.4322  0.073143121  0.073413775            5 
 2230000   0.90696071   -3.2138562    1946.2726  0.072730664  0.073399282            3 
 2231000   0.89350263   -3.1995284    1952.1612  0.072918017  0.073384892            4 
 2232000   0.88960101    -3.211526    1952.5325  0.072899211  0.073370239            2 
 2233000   0.89367844   -3.2042057    1951.7602  0.072837743  0.073355554            3 
 2234000   0.90505001   -3.2239101    1951.5579  0.072797593  0.073340949            3 
 2235000   0.90447096   -3.1675933      1952.96    0.0728173   0.07332642            3 
 2236000   0.90670996   -3.2265656    1951.6485  0.072735858  0.073311806            2 
 2237000   0.89128266   -3.1958799    1954.9756  0.072827282  0.073297265            3 
 2238000   0.89121946   -3.1997771    1958.7802  0.072936407  0.073282797            2 
 2239000   0.91936244   -3.2175074    1953.6732  0.072713756  0.073268212            2 
 2240000   0.90026941   -3.2071141    1957.8916  0.072838229  0.073253634            3 
 2241000   0.89522028   -3.2086528    1959.7863  0.072876183  0.073239183            2 
 2242000   0.92629014   -3.2051676    1953.5251  0.072610955  0.073224995            4 
 2243000   0.90084935   -3.1881328    1957.0416  0.072709229  0.073210996            2 
 2244000   0.90874163   -3.2335558    1956.5487  0.072658524  0.073196597            3 
 2245000   0.87384937   -3.1915761    1965.2076  0.072947573  0.073182253            2 
 2246000   0.88587761   -3.1784228    1959.9857  0.072721344  0.073167881            4 
 2247000   0.89194914   -3.2155713    1956.8283  0.072571884  0.073153487            3 
 2248000   0.87300901   -3.2098067    1956.2159    0.0725169  0.073138774            3 
 2249000   0.87675359   -3.2043096    1961.3639  0.072675409  0.073124188            3 
 2250000   0.89751741   -3.2115817    1963.4963  0.072722083  0.073109683            3 
 2251000   0.88715343   -3.2015054    1957.6161   0.07247209  0.073095003            6 
 2252000   0.88749708   -3.1922503    1955.1413   0.07234833  0.073080427            3 
 2253000   0.88385103   -3.1945691    1959.8183  0.072489209  0.073065895            2 
 2254000   0.88799107   -3.1790921    1961.0279  0.072501769  0.073051613            2 
 2255000   0.90490466   -3.2015928    1962.3283  0.072517677  0.073036797            5 
 2256000    0.8786396   -3.2038105    1957.3448  0.072301447  0.073021957            3 
 2257000   0.89425816   -3.1980229     1969.412  0.072714959  0.073007585            2 
 2258000   0.89595042   -3.2022527    1966.0794  0.072559766  0.072992991            3 
 2259000   0.90372751   -3.2010917    1957.1915  0.072199774  0.072978203            5 
 2260000   0.87775755   -3.2123947    1962.5874  0.072366791  0.072963367            2 
 2261000   0.87967325   -3.1924231    1966.6147  0.072483218   0.07294874            2 
 2262000    0.9064636   -3.1992595    1964.8125  0.072384782  0.072934075            6 
 2263000   0.89423359   -3.2348973    1957.9626  0.072100551  0.072919348            2 
 2264000   0.87066514   -3.1913917    1962.7144  0.072243611   0.07290459            5 
 2265000   0.87393451   -3.1854581    1975.0546  0.072665733  0.072889998            5 
 2266000   0.90038579   -3.1940717    1967.7804  0.072366153  0.072875466            6 
 2267000   0.88307352    -3.194164    1966.8973  0.072301768  0.072860811            5 
 2268000   0.90711775   -3.2389506    1966.9255  0.072270924  0.072846117            2 
 2269000    0.8945924   -3.2069156    1967.6479  0.072265604  0.072831589            4 
 2270000   0.89788311   -3.2054671    1970.0621  0.072322396  0.072816992            3 
 2271000   0.89605907   -3.2120201    1967.1257    0.0721828  0.072802421            3 
 2272000   0.90535369   -3.2016376    1965.9122  0.072106523  0.072787758            1 
 2273000   0.89399415   -3.2061943    1966.4962   0.07209621  0.072773054            1 
 2274000   0.89713111   -3.2183636    1968.4825  0.072137296  0.072758347            3 
 2275000   0.90855726   -3.1896424    1977.1507  0.072423103  0.072743627            6 
 2276000   0.89737227   -3.2030072    1974.4916  0.072293921  0.072729202            2 
 2277000   0.88947055   -3.1944856    1974.9394  0.072278561  0.072714634            5 
 2278000   0.88856159    -3.183096    1974.4468  0.072228813  0.072699889            2 
 2279000    0.8755137   -3.2058882    1972.9946  0.072144017  0.072685173            4 
 2280000   0.88540201    -3.227036    1968.7848   0.07195851  0.072670449            3 
 2281000   0.90077375   -3.1801506    1981.4834   0.07239089   0.07265581            3 
 2282000   0.90755188   -3.1818194    1979.1841  0.072275201  0.072641157            3 
 2283000   0.90119586   -3.2040176    1982.7073  0.072372145  0.072626412            4 
 2284000   0.90729551    -3.228741    1970.1961  0.071883979  0.072611592            3 
 2285000   0.89889934   -3.1971346    1971.9042  0.071914815  0.072596604            3 
 2286000   0.89940147   -3.2022061    1979.7255  0.072168471     0.072582            2 
 2287000   0.90238109   -3.1791218    1977.8599  0.072068938  0.072567437            2 
 2288000   0.87241923   -3.1893398    1980.0872  0.072118561  0.072552936            2 
 2289000   0.87915082   -3.2033897    1978.8971  0.072043726  0.072538217            5 
 2290000   0.87469051   -3.2168065    1981.1312  0.072093566  0.072523296            3 
 2291000   0.85998122   -3.2036573    1978.3215  0.071959898   0.07250848            3 
 2292000   0.87884491   -3.1934338    1984.3423  0.072147406  0.072493652            2 
 2293000   0.86489721   -3.2078837    1980.3526  0.071970949   0.07247887            3 
 2294000   0.89729333   -3.2218393    1980.8983  0.071959399  0.072464106            3 
 2295000   0.89632678    -3.221335    1984.6793  0.072065334  0.072449374            3 
 2296000    0.8918445   -3.2116782    1980.3851  0.071878087  0.072434712            3 
 2297000   0.86443246   -3.2132087    1977.2082  0.071731542  0.072419805            3 
 2298000   0.87344136   -3.2069385    1984.2793  0.071956748  0.072405171            4 
 2299000   0.89901015   -3.2147709    1979.6815  0.071758791  0.072390529            4 
 2300000   0.87454384   -3.1842555    1983.2997  0.071858683  0.072375671            3 
 2301000   0.87954984   -3.2091055    1977.7263  0.071625607  0.072360598            5 
 2302000    0.8925831   -3.2048798    1974.6768  0.071484099  0.072345591            2 
 2303000   0.87837003     -3.19917    1977.4756  0.071554336  0.072330601            7 
 2304000   0.87837004   -3.1969809    1986.6094  0.071853638  0.072315875            3 
 2305000   0.87319703   -3.2159552    1986.5463  0.071820183  0.072301396            4 
 2306000   0.89563608   -3.2112408    1986.3413  0.071781632  0.072286705            2 
 2307000   0.88893278   -3.2039411    1986.2674  0.071747847  0.072271893            5 
 2308000   0.89136707   -3.2122284    1984.6388  0.071657957   0.07225731            2 
 2309000   0.89907201   -3.1929819    1986.0165  0.071676646  0.072242583            2 
 2310000   0.88200768   -3.2188376     1987.077  0.071683876   0.07222806            6 
 2311000   0.89286133   -3.2211325    1991.9258  0.071827701  0.072213443            3 
 2312000   0.87934171   -3.2085175    1989.3031    0.0717021  0.072198757            3 
 2313000   0.87119497   -3.2277807    1985.4493  0.071532255  0.072183932            3 
 2314000   0.88193259   -3.2224303    1983.2558  0.071422349  0.072168908            2 
 2315000   0.86599557   -3.2135145    1984.5152  0.071436832  0.072153951            4 
 2316000   0.89021695   -3.2050003    1994.2139   0.07175496  0.072139269            6 
 2317000    0.8854933   -3.2518599    1987.7537  0.071491646  0.072124525            8 
 2318000   0.90156884   -3.2184046    1986.8438  0.071428093  0.072109595            5 
 2319000   0.88699863   -3.2077796    1990.0557   0.07151271  0.072094804            3 
 2320000   0.87027104   -3.1808135    1997.9955  0.071767079  0.072079906            4 
 2321000   0.87825537   -3.2203083    1986.3926  0.071319566  0.072064931            6 
 2322000   0.88267438   -3.2158724    1985.8531  0.071269492  0.072049829            3 
 2323000   0.87011259   -3.2050487    2000.8017  0.071775063  0.072034893            3 
 2324000   0.88469862   -3.2218435    1989.8233   0.07135052  0.072019962            3 
 2325000   0.89223807   -3.2458535    1996.6598  0.071564867  0.072004983            4 
 2326000   0.89180553   -3.2240439    1990.5159  0.071313984  0.071990036            4 
 2327000   0.90437687   -3.2327237    1988.0146  0.071193762   0.07197514            3 
 2328000   0.88114514   -3.1984698    1992.0971  0.071309319  0.071960106            2 
 2329000   0.86664196   -3.2138134     2000.917  0.071594283  0.071944998            3 
 2330000   0.88411062   -3.2112761    1994.0965  0.071319616  0.071930041            4 
 2331000   0.87648538   -3.2436383    1996.3237  0.071368643  0.071915174            5 
 2332000   0.87858235   -3.2291922    1992.3593  0.071196373  0.071900199            2 
 2333000    0.8804407   -3.2123231     1998.683  0.071391736  0.071885047            5 
 2334000   0.88244076   -3.2140648      1993.75   0.07118502  0.071870022            5 
 2335000   0.86310312   -3.2336599    1996.9831  0.071269918   0.07185477            3 
 2336000   0.85880536   -3.2131449    1999.4565  0.071327645   0.07183954            6 
 2337000   0.88184054   -3.1939117    1994.5448  0.071121979  0.071824392            2 
 2338000   0.87606292   -3.1800032    1998.8855  0.071246275  0.071809571            4 
 2339000   0.88056041   -3.2254765    1991.2416  0.070943479  0.071794635            4 
 2340000   0.87009451   -3.2353008    1991.7595  0.070931607  0.071779451            2 
 2341000   0.89195195   -3.2385219    1995.5163   0.07103504  0.071764576            2 
 2342000   0.88607456   -3.2228255    2000.8271  0.071193677  0.071749673            3 
 2343000   0.88154181    -3.231109    1995.9324  0.070989201  0.071734573            3 
 2344000   0.87063221   -3.2452207    1999.7345  0.071094089  0.071719619            4 
 2345000   0.85943721   -3.2247631    2004.7522  0.071242083  0.071704636            4 
 2346000   0.88727241   -3.2187773    2006.0071  0.071256292  0.071689741            3 
 2347000   0.87477158   -3.1969442    1993.0018  0.070764159  0.071674769            3 
 2348000   0.86125317   -3.2131604    1997.6458  0.070898843  0.071659528            4 
 2349000   0.88079745   -3.2097609     2003.296  0.071069106  0.071644354            2 
 2350000   0.87535968   -3.2377592    1999.8515   0.07091672  0.071629343            5 
 2351000   0.87309264   -3.1960724    2011.1522   0.07128712  0.071614514            8 
 2352000   0.86093832   -3.2167533    1999.9213   0.07085889  0.071599753            4 
 2353000    0.8755196   -3.2121178    2006.0681   0.07104647  0.071584868            4 
 2354000   0.88715455    -3.238199    2007.0748  0.071051926  0.071570023            6 
 2355000   0.88299868   -3.2204045    2001.7325  0.070832716  0.071554958            2 
 2356000   0.86034694    -3.238572    2009.3014  0.071070366  0.071539933            3 
 2357000   0.88789245   -3.2520472    2004.2785  0.070862626  0.071525068            5 
 2358000   0.88516314   -3.2272693    2005.1037  0.070861735   0.07151008            2 
 2359000   0.86121621   -3.2149364    2011.0373  0.071041307  0.071495071            2 
 2360000   0.87270907    -3.212576    2010.7635  0.071001535  0.071480198            2 
 2361000   0.86974893   -3.2087925     2000.701    0.0706163  0.071465307            3 
 2362000   0.86473455   -3.2378742    2011.8176  0.070978607  0.071450406            5 
 2363000   0.86303734   -3.2328873    2003.5622  0.070657434  0.071435308            3 
 2364000   0.87770805   -3.1930391    2007.2443  0.070757343  0.071420443            2 
 2365000   0.87051385   -3.2294664    2004.5161  0.070631293  0.071405429            2 
 2366000   0.89264949   -3.2176003    2010.1327  0.070799262  0.071390292            2 
 2367000   0.87520838   -3.2473026    2008.1384   0.07069914  0.071375194            7 
 2368000   0.89512805   -3.2342665    2009.7155  0.070724785   0.07135996            3 
 2369000   0.87775593   -3.2305004     2003.386   0.07047228  0.071344768            2 
 2370000   0.86909514   -3.2384579    2002.8244  0.070422798   0.07132967            3 
 2371000   0.87115455   -3.2179839    2010.6712  0.070668889  0.071314466            5 
 2372000   0.85766883   -3.2299216    2007.8576  0.070540246   0.07129929            2 
 2373000   0.89228949   -3.2182577    2011.1523   0.07062622  0.071284249            3 
 2374000   0.86800576   -3.2345597    2001.6492  0.070262889  0.071269305            3 
 2375000   0.87898143   -3.1927002    2014.0686  0.070669073  0.071254426            2 
 2376000   0.86483587   -3.2097015    2021.6035  0.070903602  0.071239469            4 
 2377000   0.86513681    -3.232653    2014.6932  0.070631509   0.07122492            5 
 2378000    0.8557828   -3.2148769    2023.0638  0.070895144  0.071210078            4 
 2379000   0.89001375   -3.2259107    2022.6591  0.070851167  0.071195262            3 
 2380000   0.85649071   -3.2226704    2014.2737  0.070527792  0.071180424            3 
 2381000   0.87345976   -3.2043773    2021.6709  0.070757065  0.071165753            4 
 2382000   0.87306688   -3.2124894    2018.5291  0.070617446  0.071151097            2 
 2383000    0.8767185    -3.255385    2017.7225  0.070559605  0.071136392            3 
 2384000   0.85997808   -3.2458622    2017.2282  0.070512732   0.07112173            3 
 2385000   0.85940425   -3.2127116    2030.3535  0.070941772   0.07110715            4 
 2386000   0.85830174   -3.2181775    2019.7881  0.070543032  0.071092637            5 
 2387000   0.87670954   -3.2314037    2025.7464  0.070721492  0.071078153            5 
 2388000   0.87128507   -3.2492671     2021.931  0.070558731  0.071063299            4 
 2389000   0.85148651   -3.2438254    2018.5822  0.070412382  0.071048654            4 
 2390000   0.85787715   -3.2169352    2024.1041  0.070575456  0.071034046            4 
 2391000   0.84035087   -3.2494472    2018.9011    0.0703646  0.071019474            2 
 2392000   0.88929189   -3.2102459    2030.5357  0.070740514  0.071004928            3 
 2393000   0.86703503   -3.2339319    2022.6201  0.070435299  0.070990393            4 
 2394000   0.87179265   -3.2157954    2021.0955   0.07035281  0.070975708            8 
 2395000   0.86977692   -3.2367821    2031.7657  0.070694702  0.070961327            4 
 2396000   0.86104087   -3.2103276    2034.3572  0.070755329   0.07094712            2 
 2397000   0.87500905   -3.2462022    2023.8491  0.070360487  0.070932783            2 
 2398000   0.86813282   -3.2531601    2028.9088  0.070506977  0.070918392            6 
 2399000   0.87958252   -3.2072967    2031.1408   0.07055512  0.070903946            4 
 2400000   0.87391218   -3.2337666    2034.3261  0.070636324  0.070889693            6 
 2401000   0.87610951   -3.2227375    2031.9321  0.070523813   0.07087535            6 
 2402000   0.86190289   -3.2434442    2034.1611  0.070571785   0.07086092            3 
 2403000   0.86444188   -3.2166122    2029.1435  0.070368411  0.070846579            3 
 2404000   0.87807855   -3.2019026    2038.7895  0.070673512  0.070832098            4 
 2405000   0.85894273   -3.2177346    2036.6045  0.070568416  0.070817872            2 
 2406000    0.8712303   -3.2098671    2030.9796  0.070344263  0.070803541            3 
 2407000   0.86044078   -3.2384554    2044.7944  0.070793326  0.070789298            6 
 2408000   0.86164202   -3.2375408    2033.5672  0.070375387  0.070775232            3 
 2409000   0.86545485   -3.2662975    2035.9599  0.070428945  0.070761085            7 
 2410000   0.86640121   -3.2510115    2036.7783  0.070428019  0.070747087            6 
 2411000   0.86105467   -3.2291453    2040.7673  0.070536684  0.070732835            2 
 2412000   0.87166955   -3.2397462    2029.9896  0.070135075   0.07071892            4 
 2413000   0.85877569    -3.231489    2041.3677  0.070498953  0.070704859            4 
 2414000   0.84309041   -3.2123299    2045.2519  0.070603837  0.070690949            3 
 2415000   0.87979686   -3.2429159    2039.4358  0.070373904  0.070676909            3 
 2416000   0.87295237   -3.2411202    2039.2551  0.070338546  0.070662839            2 
 2417000   0.86033603   -3.2135412    2046.7313  0.070567208  0.070648857            4 
 2418000   0.86600587   -3.2487044    2040.5308  0.070324333  0.070635042            4 
 2419000   0.85539645   -3.2236768    2041.7519  0.070337326   0.07062103            2 
 2420000   0.85480954   -3.2442198    2041.8067  0.070310148  0.070607184            3 
 2421000   0.84794221   -3.2250751    2030.3348   0.06988623   0.07059309            3 
 2422000   0.86040167   -3.2495491    2047.4334  0.070445685  0.070579132            4 
 2423000   0.88909866   -3.2552557    2047.2136  0.070409053  0.070565109            2 
 2424000   0.85731301   -3.2342773    2044.3445   0.07028137  0.070551252            3 
 2425000   0.85779957   -3.2464922    2047.3145  0.070354451  0.070537246            3 
 2426000   0.86928381   -3.2227878    2061.9796  0.070829199  0.070523514            3 
 2427000   0.87572286   -3.2348975    2056.3155  0.070605532  0.070509852            3 
 2428000   0.86406022   -3.2238951    2048.3614  0.070303452  0.070496087            3 
 2429000   0.86558881   -3.2471997    2051.6922  0.070388782  0.070482342            3 
 2430000   0.84713757   -3.2600156    2049.4232  0.070282001  0.070468637           12 
 2431000   0.88467764   -3.2816319    2051.3282  0.070318395  0.070455032            2 
 2432000   0.84997537   -3.2419627    2058.1029  0.070521618  0.070441432            4 
 2433000   0.86761286   -3.2202327    2055.3829  0.070399467  0.070427995            3 
 2434000   0.85695951   -3.2292545    2054.9899  0.070357092  0.070414274            4 
 2435000   0.84116544   -3.2373638    2054.9001  0.070325122  0.070400648            3 
 2436000   0.86341863   -3.2555134    2058.2562  0.070411064   0.07038716            2 
 2437000   0.86406212   -3.2342592    2060.7696  0.070468118   0.07037361            3 
 2438000   0.88427464   -3.2523419    2057.5336  0.070328602  0.070360113            5 
 2439000   0.87721638   -3.2403811    2057.2935  0.070291565  0.070346684            3 
 2440000   0.85135439   -3.2410776    2059.7629  0.070347095  0.070333213            2 
 2441000   0.85305235   -3.2316571     2061.912  0.070391644  0.070319842            2 
 2442000   0.84854242   -3.2401809      2054.31  0.070103398  0.070306502            6 
 2443000   0.85017393   -3.2585432    2058.3886  0.070213829  0.070292923            4 
 2444000   0.85840128   -3.2144741    2069.2985  0.070557095  0.070279387            2 
 2445000   0.87354855   -3.2367358    2069.1305  0.070522511  0.070265922            7 
 2446000   0.86403766   -3.2609457    2057.2645  0.070089416   0.07025251            3 
 2447000    0.8651485   -3.2415758    2063.2739  0.070265425  0.070238993            5 
 2448000   0.85791511   -3.2455811    2056.5545  0.070007981  0.070225529            3 
 2449000   0.84174292   -3.2366746    2057.3594  0.070006786  0.070212045            5 
 2450000   0.84607016   -3.2508694    2058.5012  0.070017047  0.070198401            2 
 2451000    0.8566707   -3.2010043    2063.0613  0.070143523   0.07018465            3 
 2452000   0.85981163   -3.2620697     2065.337  0.070192258  0.070171007            4 
 2453000   0.86429854   -3.2401152    2060.5032  0.069999429   0.07015735            2 
 2454000    0.8423576    -3.250814    2063.8148  0.070083362  0.070143461            5 
 2455000   0.85524803   -3.2428705    2056.4774  0.069805751   0.07012949            3 
 2456000   0.85653539   -3.2409362    2066.0357  0.070101644   0.07011572            4 
 2457000   0.87000181   -3.2524428    2075.1839   0.07038339  0.070101832            2 
 2458000   0.86852557    -3.257553    2066.5495  0.070062025  0.070087964            3 
 2459000   0.85896705   -3.2424351     2056.215  0.069683306  0.070074191            4 
 2460000   0.85572068   -3.2606831    2061.4188   0.06983126  0.070060314            4 
 2461000   0.84987209   -3.2417665    2061.1478  0.069793708  0.070046295            3 
 2462000   0.86838869   -3.2618593    2063.4801  0.069844304  0.070032447            4 
 2463000    0.8638443   -3.2477785    2067.9899  0.069968531  0.070018566            3 
 2464000   0.86165088   -3.2395254    2073.5836  0.070129315  0.070004475           10 
 2465000   0.88114997    -3.259214    2063.0285  0.069744032  0.069990659            4 
 2466000   0.87211952   -3.2574238    2058.9758  0.069578797  0.069976726            3 
 2467000   0.84761026   -3.2486382    2063.8789  0.069716217  0.069962774            3 
 2468000   0.87637234   -3.2474323    2068.2527  0.069835653  0.069948975            4 
 2469000   0.83351776   -3.2365398    2075.1819  0.070041242  0.069935073            4 
 2470000   0.86506715   -3.2581724     2068.643  0.069792274  0.069921273            5 
 2471000   0.86399626    -3.224757    2072.3723  0.069889799  0.069907378            2 
 2472000    0.8534492   -3.2314762    2075.6318  0.069971408  0.069893522            2 
 2473000   0.84939211   -3.2317953    2065.5286  0.069602663  0.069879767            2 
 2474000   0.88444784   -3.2475496    2080.7512  0.070087283  0.069865854            3 
 2475000   0.85585225    -3.266526    2067.3252  0.069606909  0.069851958            4 
 2476000   0.86145471   -3.2530616    2071.8067  0.069729629  0.069838191            4 
 2477000   0.85959371   -3.2706656    2069.8127  0.069634392  0.069824175            3 
 2478000   0.85718602   -3.2642005    2066.6289  0.069499222  0.069810408            6 
 2479000   0.84385378   -3.2307765    2065.7293  0.069440946  0.069796419            4 
 2480000   0.86120892   -3.2578847    2073.0755  0.069659794  0.069782571            3 
 2481000   0.86524086    -3.232061    2077.8645  0.069792575  0.069768814            4 
 2482000    0.8496482   -3.2512094    2069.6365  0.069488198  0.069755025            5 
 2483000   0.86416295   -3.2832736    2066.1685  0.069343821  0.069741083            3 
 2484000   0.86827156   -3.2566499    2077.7786    0.0697054  0.069727215            2 
 2485000   0.85463437   -3.2717432    2077.5533  0.069669796  0.069713302            6 
 2486000   0.84788076   -3.2509323    2071.1106  0.069425804  0.069699312            8 
 2487000   0.86921292   -3.2197125    2077.6269  0.069616234  0.069685726            3 
 2488000   0.86831258   -3.2504514    2071.5622  0.069385122  0.069671859            3 
 2489000   0.86979708   -3.2683741    2070.5915  0.069324744  0.069658021            5 
 2490000   0.85313339   -3.2837198    2070.2124  0.069284217  0.069644094           14 
 2491000     0.851376   -3.2403793    2079.6597   0.06957245  0.069630177            5 
 2492000   0.85451467   -3.2433332    2081.4852  0.069605576  0.069616424            3 
 2493000   0.85060267   -3.2435272    2073.6873  0.069316997  0.069602722            3 
 2494000   0.85641424   -3.2690144    2078.0231  0.069434079  0.069588971            2 
 2495000   0.84719423   -3.2519423    2084.0819  0.069608612  0.069575257            2 
 2496000   0.85704947   -3.2566456     2078.435  0.069392195  0.069561625            2 
 2497000   0.85290705   -3.2337208    2082.0298  0.069484375  0.069547879            4 
 2498000   0.83683535   -3.2551053    2083.2637  0.069497722  0.069534089            4 
 2499000   0.87065193   -3.2927248    2072.3834  0.069107091  0.069520265            3 
 2500000   0.83216803   -3.2899305    2081.8431   0.06939477  0.069506298            7 
 2501000   0.84487467    -3.263065    2084.1617   0.06944428  0.069492342           10 
 2502000   0.83751531   -3.2601779    2080.1614  0.069283286  0.069478363            5 
 2503000   0.83917393   -3.2660701    2080.3005  0.069260238  0.069464363            2 
 2504000   0.85812017   -3.2583818    2081.7168  0.069279714   0.06945045            2 
 2505000   0.85236509   -3.2494633     2081.262  0.069236927  0.069436487            2 
 2506000   0.85499754    -3.256248    2081.1948  0.069207062  0.069422371            4 
 2507000   0.83911365   -3.2588407    2084.1019  0.069276089  0.069408367            2 
 2508000   0.84165265   -3.2549077    2083.5541  0.069230267  0.069394169            3 
 2509000   0.85154689    -3.280703    2084.4202  0.069231439  0.069380162            3 
 2510000   0.83678874   -3.2610398    2081.3525  0.069102009  0.069365962            5 
 2511000   0.84735583   -3.2380094    2077.6823  0.068952685  0.069351763            3 
 2512000   0.83881189   -3.2676357    2083.3758  0.069114111  0.069337535            3 
 2513000   0.84146282   -3.2643515    2077.2357     0.068883   0.06932314            3 
 2514000   0.84895855   -3.2272167    2086.3453   0.06915756  0.069309068            5 
 2515000   0.85344671   -3.2488543    2079.5829  0.068905994  0.069295033            5 
 2516000   0.83716858   -3.2662236    2087.4681  0.069139774  0.069280859            3 
 2517000   0.85660374   -3.2643578    2085.7357  0.069054951  0.069266533            4 
 2518000   0.83449039   -3.2636188     2082.782  0.068929773   0.06925233            5 
 2519000   0.84525935   -3.2481247    2080.0002   0.06881038  0.069238201            5 
 2520000     0.835442   -3.2715888    2078.6056  0.068736957  0.069224135            3 
 2521000   0.84678723   -3.2622076    2088.8643  0.069048801  0.069210079            3 
 2522000   0.85251048   -3.2607711    2095.2362  0.069231967  0.069195869            3 
 2523000   0.83876583   -3.2372466    2088.3681  0.068977675  0.069181874            3 
 2524000   0.84977166   -3.2883961    2079.4166  0.068654802  0.069167845            5 
 2525000   0.83720456   -3.2468146    2086.9099  0.068874913  0.069153781            5 
 2526000   0.84374702   -3.2651388    2094.1176  0.069085431  0.069139753            7 
 2527000   0.86171772   -3.2607012    2083.6305  0.068712256  0.069125688            4 
 2528000   0.85851819   -3.2718074    2096.8894  0.069122144   0.06911175            3 
 2529000   0.83808195   -3.2644011    2087.4871  0.068784997  0.069097587            3 
 2530000   0.85420799   -3.2550885    2093.2277  0.068946895  0.069083503            4 
 2531000   0.84866938   -3.2661303    2086.9202  0.068711979  0.069069556            4 
 2532000   0.85147176   -3.2498541    2096.4987  0.069000088  0.069055478            4 
 2533000   0.84857917   -3.2890559    2085.1412  0.068599197  0.069041308            5 
 2534000    0.8394552   -3.2509569    2093.6182    0.0688509  0.069027278            4 
 2535000   0.84249342   -3.2597226    2096.0261  0.068902895   0.06901321            6 
 2536000   0.83547055   -3.2350146    2101.0567  0.069041033  0.068999006            6 
 2537000   0.85399114   -3.2777279    2084.0541  0.068455331  0.068984783            4 
 2538000   0.84069966    -3.271568    2093.2572  0.068730537  0.068970554            7 
 2539000   0.84535205   -3.2916298     2089.183  0.068569745  0.068956224            2 
 2540000   0.85164803   -3.2611822    2090.4908  0.068585655  0.068941859            5 
 2541000   0.85484549   -3.2320249    2098.8278  0.068832081  0.068927756            3 
 2542000   0.82817124   -3.2698468    2087.9671   0.06844896  0.068913655            3 
 2543000   0.82257196    -3.270363    2089.1954  0.068462296  0.068899465            4 
 2544000   0.83490032   -3.2546977    2095.4063  0.068638832   0.06888525            3 
 2545000   0.84403606   -3.2595982    2098.5226  0.068713904   0.06887113            8 
 2546000   0.83928629    -3.267036    2092.7108  0.068496687  0.068857102            6 
 2547000   0.83881721   -3.2669582    2096.7874  0.068603174   0.06884299            2 
 2548000    0.8567299   -3.2683984    2098.2069  0.068622673  0.068829063            3 
 2549000   0.86264018   -3.2529586    2098.1364   0.06859345  0.068815118            6 
 2550000   0.83306166   -3.2858468    2099.6478  0.068615943  0.068801122            3 
 2551000   0.83986671   -3.2850404    2096.7102  0.068493082  0.068786947            6 
 2552000   0.83920629   -3.2538793    2097.8767  0.068504334  0.068773023            5 
 2553000   0.84678897   -3.2883493    2101.5142  0.068596235  0.068758925            5 
 2554000   0.84899525   -3.2822023    2102.3647  0.068597124  0.068744926            2 
 2555000   0.84863955   -3.2628485    2102.5975   0.06857787  0.068731187            3 
 2556000   0.84540888   -3.2653755    2101.2027  0.068505564  0.068717075            2 
 2557000   0.82249565   -3.2592896    2102.5781  0.068523597  0.068703148            4 
 2558000   0.86382759   -3.2401652    2105.8086  0.068602053  0.068689292            3 
 2559000   0.84613936   -3.2859823    2095.8106  0.068249662  0.068675438            8 
 2560000   0.84451548   -3.2539239    2107.5913  0.068606488  0.068661799            5 
 2561000   0.82283658   -3.2723922    2103.7891  0.068455977  0.068647932            2 
 2562000   0.84228769   -3.2817037    2103.0274  0.068404483  0.068634152            3 
 2563000   0.83968176   -3.2709348    2102.1429  0.068349035  0.068620449            3 
 2564000   0.83602947   -3.2813521    2110.6009  0.068597275  0.068606752            3 
 2565000   0.85100588   -3.2820421    2115.6869  0.068735768  0.068593085            2 
 2566000   0.83613959   -3.2805041    2117.8699  0.068779874   0.06857947            4 
 2567000     0.852504   -3.2696737    2119.4608  0.068804728  0.068565913            3 
 2568000   0.82219573   -3.2743945    2117.7679  0.068722999  0.068552689            4 
 2569000   0.83536654    -3.281644    2109.7836  0.068437251   0.06853929            2 
 2570000   0.83724721   -3.2698272    2114.7939  0.068573085   0.06852585            6 
 2571000   0.84319563   -3.2657971    2118.8852  0.068679021  0.068512448            2 
 2572000   0.85012273   -3.2861345    2109.8206  0.068358623  0.068498948            4 
 2573000   0.83022805   -3.2517411    2117.0081  0.068564844  0.068485465            5 
 2574000    0.8279864   -3.2795426    2114.7424  0.068464855  0.068472014            3 
 2575000   0.82133047   -3.2816148    2119.2131  0.068582949  0.068458548            3 
 2576000   0.84634826   -3.2601723    2116.2057  0.068459034  0.068445094            3 
 2577000   0.85027818   -3.2652639    2122.6161  0.068639765  0.068431798            2 
 2578000   0.82070106   -3.3045886    2116.9575  0.068430228  0.068418316            4 
 2579000   0.85430383   -3.2789268    2116.8009  0.068398634  0.068404905            1 
 2580000   0.85853708   -3.2578504    2115.6396  0.068334613  0.068391456            5 
 2581000   0.82188982   -3.2745007    2114.7925  0.068280787  0.068378058            5 
 2582000   0.84263137   -3.2742204    2125.7597  0.068608305  0.068364602            5 
 2583000   0.83910466   -3.2701676    2120.0825  0.068398583  0.068351205            7 
 2584000   0.83617123   -3.2699629    2114.2426  0.068183777  0.068337783           10 
 2585000    0.8293036   -3.2800437    2124.3066  0.068481838  0.068324436            2 
 2586000   0.84676294   -3.2665287    2122.8285  0.068407726  0.068311166            6 
 2587000   0.84446226   -3.2873727    2117.3707  0.068205474  0.068297751            3 
 2588000   0.82929385   -3.2748253    2123.1062  0.068363801  0.068284278            3 
 2589000   0.86606974   -3.2797864    2116.4497  0.068123141  0.068270927            4 
 2590000    0.8315346   -3.2740066    2126.3365  0.068414946  0.068257635            3 
 2591000   0.83515382   -3.2732093    2133.3395  0.068613774   0.06824431            3 
 2592000    0.8344363     -3.26283    2130.2822  0.068489011  0.068231066            3 
 2593000   0.82848669    -3.279415    2126.7927  0.068350454  0.068217573            2 
 2594000   0.81038799    -3.273278    2127.8467  0.068357965  0.068204137            4 
 2595000   0.82724004   -3.2904109    2127.2301  0.068311821  0.068190643            5 
 2596000   0.83819968   -3.2755586    2120.3855  0.068065789  0.068177009            5 
 2597000   0.82840385   -3.2711033    2128.6506  0.068304794  0.068163763            6 
 2598000   0.84208011   -3.2649047    2123.0219  0.068097957  0.068150328            3 
 2599000   0.81870491   -3.2642815    2129.4871  0.068279051  0.068136977            2 
 2600000   0.83397749   -3.2473892    2126.2913  0.068150363  0.068123593            6 
 2601000   0.83673277   -3.2668251    2127.0695  0.068149094  0.068110096            7 
 2602000   0.82331885     -3.26532    2123.9528  0.068023084  0.068096656            4 
 2603000   0.83401107   -3.2805406    2120.3835  0.067882684  0.068083057            4 
 2604000    0.8457725   -3.2942494    2122.3241  0.067918719   0.06806925            4 
 2605000   0.83417861   -3.2826903    2128.9884  0.068105835  0.068055578            2 
 2606000   0.83283096   -3.2928184    2118.9306  0.067758077  0.068041867            6 
 2607000   0.82659964   -3.2761398    2129.0368  0.068055132  0.068028179            4 
 2608000   0.82992174   -3.2963755    2124.8535  0.067895369  0.068014744            3 
 2609000   0.83484398   -3.2804619    2125.1821  0.067879842   0.06800123            2 
 2610000   0.82620953   -3.2658728     2134.212  0.068142147  0.067987612            5 
 2611000   0.84995253   -3.2641508    2133.3321  0.068087965  0.067974177            2 
 2612000   0.84126071   -3.2852537    2134.1747   0.06808878  0.067960657            5 
 2613000   0.82781698   -3.2843702    2130.8722  0.067957399  0.067947226            5 
 2614000      0.83614   -3.2874688    2137.0174  0.068127308  0.067933863            5 
 2615000   0.83090026   -3.2671005    2138.4718  0.068147604  0.067920528            6 
 2616000    0.8312344   -3.2809026    2125.1788  0.067698102  0.067907331            7 
 2617000   0.82292999   -3.2947451    2134.2111   0.06795985   0.06789409            3 
 2618000    0.8368719   -3.2654632    2140.0059  0.068118344   0.06788065            4 
 2619000   0.82485649   -3.2666784    2134.4432  0.067915335  0.067867494            5 
 2620000   0.83998019   -3.2955921    2131.9726  0.067810834  0.067854104            6 
 2621000   0.83476575   -3.2906303    2134.6689  0.067870688   0.06784073            5 
 2622000   0.82189795   -3.2555215    2143.3725  0.068121424  0.067827242            4 
 2623000   0.83604237   -3.2824328    2137.2555  0.067901117  0.067813794            3 
 2624000   0.82788505   -3.2669241    2139.9119  0.067959601  0.067800481            4 
 2625000   0.83750649   -3.2847392    2144.5229  0.068080093  0.067787136            4 
 2626000    0.8248098   -3.2882056    2140.6433  0.067931052  0.067773748            3 
 2627000   0.83169992    -3.267452     2138.628  0.067841265  0.067760404            3 
 2628000   0.82190541    -3.292333    2139.5872  0.067845865  0.067747153            5 
 2629000   0.82847995   -3.2898006    2142.1637  0.067901728  0.067733816            3 
 2630000   0.84590097   -3.2926798    2142.7162  0.067893416  0.067720604            3 
 2631000   0.81795735   -3.2886127    2148.9152  0.068063955  0.067707318            3 
 2632000   0.83749477    -3.286542     2137.798  0.067686106  0.067693949            2 
 2633000   0.82992575   -3.2875362    2146.1067  0.067923367  0.067680773            6 
 2634000   0.84758934   -3.3020343    2138.3356  0.067651721  0.067667511            5 
 2635000   0.84026933    -3.298263    2141.5852  0.067728816   0.06765425            2 
 2636000   0.84499486   -3.2908934     2148.347  0.067916887  0.067641021            2 
 2637000   0.81130518   -3.3087554    2144.8001  0.067779046   0.06762785            3 
 2638000   0.82543026   -3.2809493    2146.1343  0.067795498  0.067614513            6 
 2639000   0.84022498   -3.2893156    2146.1659  0.067770806  0.067601391            3 
 2640000   0.82623825    -3.303519     2142.934  0.067643118  0.067588166            2 
 2641000   0.83236135   -3.2750269    2140.7935  0.067549966  0.067574931            6 
 2642000   0.82962805   -3.2824963    2144.4128  0.067638558  0.067561647            3 
 2643000   0.84298206   -3.2914171    2142.2294  0.067544122   0.06754847            8 
 2644000   0.82963887   -3.3035242     2143.525  0.067559412  0.067535132            2 
 2645000   0.82336108   -3.2953288    2152.1098  0.067804341  0.067521822            6 
 2646000   0.82388118   -3.3131873    2140.5603  0.067414975  0.067508418            5 
 2647000   0.81261325   -3.3020924    2153.4082  0.067793986  0.067495139            5 
 2648000   0.82328568   -3.2900601    2150.6481  0.067681524  0.067481777            5 
 2649000   0.83464475   -3.3012716    2145.8781  0.067505917  0.067468437            4 
 2650000   0.83712592   -3.2980356    2145.7544  0.067476552  0.067455094            3 
 2651000   0.82155496   -3.2789207    2146.9305  0.067488071  0.067441906            4 
 2652000   0.83444462   -3.3074845    2143.0204  0.067339756  0.067428549            5 
 2653000   0.81390221   -3.2834771    2152.8081  0.067621815  0.067415316            3 
 2654000   0.81959223   -3.2997852    2149.2306  0.067484004  0.067402003            4 
 2655000   0.84928701   -3.2835695    2149.7196  0.067473937   0.06738887            4 
 2656000   0.84704734   -3.2951264    2156.1249    0.0676495  0.067375572            8 
 2657000   0.82740563   -3.2928233    2147.6471  0.067358145   0.06736242            3 
 2658000   0.83229821    -3.273714    2158.8185  0.067683048   0.06734922            5 
 2659000   0.82992556   -3.2951949    2153.1233  0.067479105   0.06733609            5 
 2660000   0.83604087   -3.2738578    2157.7789   0.06759959  0.067323034            5 
 2661000    0.8204568   -3.3142471    2151.3893  0.067374085  0.067309741            3 
 2662000   0.82487871   -3.2826974    2153.0655  0.067401249  0.067296526            2 
 2663000   0.81588244   -3.2910415    2151.1153  0.067314911  0.067283219            3 
 2664000   0.81924345   -3.2717081    2159.7745  0.067560513   0.06727005            2 
 2665000   0.81922357   -3.2681375    2155.3171  0.067395782  0.067257125            5 
 2666000   0.83924835   -3.3020654    2156.4508   0.06740594  0.067243953            3 
 2667000   0.82462981   -3.3095131    2153.6971  0.067294621  0.067230682            7 
 2668000   0.83145264   -3.3053031    2159.4008  0.067447551  0.067217665            6 
 2669000    0.8329685   -3.2986897     2161.293  0.067481361  0.067204478            3 
 2670000   0.81067138   -3.2903597    2155.4299  0.067273092  0.067191334            5 
 2671000   0.81666337   -3.2789585    2167.7494  0.067632267    0.0671783            3 
 2672000     0.839435   -3.3201123    2156.0088  0.067240794  0.067165314            2 
 2673000   0.82178139   -3.3052182    2157.3035     0.067256   0.06715238            3 
 2674000   0.82379328    -3.271947      2159.77  0.067307717  0.067139429            5 
 2675000   0.82150932   -3.2921413    2160.1428  0.067294169  0.067126451            2 
 2676000   0.81144403   -3.2847059    2163.3603  0.067369217  0.067113464            2 
 2677000   0.79969436   -3.2809702    2166.4219  0.067439356   0.06710042            4 
 2678000   0.82130011   -3.3045168    2159.9996  0.067214326  0.067087366            3 
 2679000   0.80769468   -3.3111168     2166.983  0.067406465  0.067074358            4 
 2680000   0.83316487    -3.288888     2166.805  0.067375777  0.067061255            6 
 2681000   0.82649069   -3.3003168    2160.8941  0.067166917  0.067048144            4 
 2682000   0.81255863    -3.316124    2163.6731  0.067228221  0.067034962            3 
 2683000    0.8260502   -3.3032916    2160.8209  0.067114578  0.067022013           10 
 2684000   0.83835543   -3.3006811    2166.4593  0.067264633   0.06700888            3 
 2685000   0.81850009   -3.2909111    2165.8706  0.067221311  0.066995675            2 
 2686000   0.82267023   -3.3146678    2165.2884   0.06717822  0.066982562            3 
 2687000   0.82279004   -3.2930277    2172.2235  0.067368301  0.066969518            2 
 2688000   0.82256566   -3.3177245    2163.3485  0.067068097  0.066956688            5 
 2689000   0.82014184   -3.3254844    2163.5121  0.067048224  0.066943453            3 
 2690000   0.80296467   -3.2863012    2164.3412  0.067048985  0.066930348            6 
 2691000   0.81971503    -3.292985    2159.5618  0.066876063  0.066917228            4 
 2692000   0.81070788   -3.3068399    2158.4556  0.066816976  0.066903802            3 
 2693000   0.82461156   -3.3123249    2160.5061  0.066855615   0.06689043            5 
 2694000   0.82127518   -3.3151004     2165.854  0.066996227   0.06687703            5 
 2695000   0.81369872   -3.3300016    2163.7145  0.066905211  0.066863545            7 
 2696000   0.80707808   -3.2719008    2165.3424  0.066930713  0.066850308            2 
 2697000   0.81654533   -3.2772224    2165.6401  0.066915095  0.066837015            2 
 2698000   0.81471809   -3.3101824     2170.032  0.067025947  0.066823716            5 
 2699000   0.83177436   -3.3055342    2166.1588  0.066881525   0.06681054            3 
 2700000    0.8311333   -3.3088083    2164.0341  0.066791176  0.066797319            2 
 2701000   0.81264002   -3.3077346     2173.539  0.067059699  0.066784164            3 
 2702000   0.81554243   -3.3038134    2169.0286  0.066895775  0.066770897            3 
 2703000   0.79823648    -3.308431    2165.7867  0.066771077  0.066757704            8 
 2704000   0.81574251   -3.2965109    2169.5718  0.066863036  0.066744495            3 
 2705000    0.8241663   -3.2964114    2173.4659  0.066958283  0.066731463            4 
 2706000   0.82381176   -3.3154549    2172.3662  0.066899674  0.066718176            7 
 2707000   0.80430129   -3.3111453    2172.1499  0.066868301  0.066704793            6 
 2708000   0.81040758   -3.2945218    2173.8823  0.066896921  0.066691487            5 
 2709000   0.81894345    -3.279324    2171.5473  0.066800396  0.066678264            4 
 2710000   0.81416978   -3.2808539    2179.4551  0.067018913  0.066665106            4 
 2711000   0.81077903   -3.3038638    2170.0044  0.066703689  0.066651926            4 
 2712000   0.79915282   -3.3236245     2180.165  0.066991304   0.06663879            5 
 2713000   0.80990705   -3.2929879    2182.5003  0.067038343  0.066625666            2 
 2714000   0.82034775   -3.2873309    2177.3883  0.066856677  0.066612529            3 
 2715000   0.81709256   -3.2987884     2174.175  0.066733424  0.066599442            2 
 2716000   0.82247914   -3.3079826    2184.4752  0.067024888  0.066586475            2 
 2717000   0.81754281      -3.3087     2176.532  0.066756593  0.066573437            3 
 2718000   0.81802848   -3.3008756    2170.7514  0.066554801  0.066560186            3 
 2719000   0.80448826   -3.2895683    2172.7116  0.066590402  0.066546921            7 
 2720000    0.8181568   -3.3063826    2179.3567  0.066769507   0.06653371            6 
 2721000   0.83575529   -3.3217151    2174.0018  0.066580969  0.066520484            5 
 2722000   0.82097651   -3.3191007     2176.666  0.066638072   0.06650723            1 
 2723000   0.81018613   -3.3016722    2178.8707  0.066681072  0.066494138            4 
 2724000   0.82105521   -3.3120696    2170.1488  0.066389771  0.066480913            1 
 2725000   0.80550761   -3.2969453    2183.8772  0.066785236  0.066467776            6 
 2726000   0.82584762   -3.3007284    2178.7383   0.06660364  0.066454771            4 
 2727000    0.8144615   -3.3017581    2184.6129  0.066758735  0.066441539            5 
 2728000   0.80985781   -3.3097742    2181.5494  0.066640683  0.066428272            4 
 2729000   0.81852895   -3.3110512    2180.9927  0.066599264  0.066414997            6 
 2730000   0.80937134   -3.3384977    2176.0062  0.066422655  0.066401897            5 
 2731000   0.81155624   -3.2793837    2187.1609  0.066738705  0.066388877            4 
 2732000    0.8281591   -3.3026026    2179.3475  0.066475947   0.06637594            5 
 2733000   0.81408862   -3.3029294    2190.9132  0.066804281  0.066363077            6 
 2734000   0.82147279   -3.3116612    2181.8498   0.06650359  0.066350134            3 
 2735000   0.83091609   -3.3114508    2188.6186  0.066685513  0.066337339            3 
 2736000   0.80742803   -3.3111578    2187.3551  0.066622659  0.066324412            2 
 2737000   0.81695019    -3.320016    2180.5848  0.066392182  0.066311375           14 
 2738000   0.80942703   -3.3178352    2189.3473  0.066634626  0.066298406            4 
 2739000   0.81117178    -3.325169    2184.1449  0.066452017  0.066285338            3 
 2740000   0.83114446   -3.3251141     2188.067  0.066547049  0.066272366            3 
 2741000   0.81126797   -3.3157097    2190.4989  0.066596707  0.066259561            4 
 2742000   0.82835999   -3.3137903    2188.1905  0.066502263  0.066246619            8 
 2743000   0.80093925   -3.3204257    2188.5526  0.066489019  0.066233607            3 
 2744000   0.81894629   -3.2912639    2188.4029  0.066460244  0.066220567            4 
 2745000   0.82675384   -3.3249142     2184.756  0.066325317  0.066207656            2 
 2746000   0.81139098   -3.3000904    2191.6916  0.066511642  0.066194552            2 
 2747000   0.80687271   -3.3091926    2187.9167  0.066372912  0.066181512            2 
 2748000   0.80451598   -3.2664087    2196.2049  0.066600099  0.066168594            2 
 2749000   0.82459971   -3.3075376    2189.7044  0.066378818  0.066155853            6 
 2750000   0.81325078   -3.3149471    2194.2104  0.066491224  0.066142797            3 
 2751000    0.8155852   -3.3329889    2196.4554   0.06653506  0.066129653            4 
 2752000   0.80727623   -3.3187862    2193.3537  0.066416962  0.066116637            3 
 2753000   0.81941668   -3.3090024    2193.4044  0.066394371  0.066103591            4 
 2754000   0.80557935   -3.3468516    2188.9849  0.066236533  0.066090502            3 
 2755000   0.80073268   -3.3026421    2192.0978  0.066306649   0.06607751            2 
 2756000   0.81529277   -3.3184561    2187.6019  0.066146647  0.066064138            3 
 2757000   0.79745279   -3.3192539    2180.8019  0.065917117  0.066050939            3 
 2758000    0.8144776    -3.313611    2192.9912  0.066261518  0.066037786            4 
 2759000   0.79613085   -3.3101289     2183.728  0.065957715  0.066024878            3 
 2760000   0.81624453   -3.3147965    2193.7754  0.066237179  0.066011764            3 
 2761000   0.81478191   -3.3342021    2186.1231  0.065982226  0.065998536            3 
 2762000   0.81169113   -3.3201819    2192.1831  0.066141175  0.065985228            7 
 2763000   0.78964897   -3.3186776    2192.7946  0.066135679  0.065972142            2 
 2764000   0.80584459   -3.3007552    2189.8249  0.066022218  0.065958977            3 
 2765000   0.81732834    -3.313878    2192.7497   0.06608649  0.065945666            4 
 2766000   0.80186991   -3.3277129    2188.5555  0.065936234  0.065932323            8 
 2767000   0.80406079   -3.3192527    2183.8026  0.065769262  0.065918905            3 
 2768000   0.80685797   -3.3104713    2198.9942  0.066202861  0.065905581            7 
 2769000   0.81902638   -3.3245656    2194.0365   0.06602975  0.065892264            5 
 2770000   0.80459473   -3.3142273     2194.104  0.066007941  0.065879046            3 
 2771000   0.79865125   -3.3316409    2192.7215  0.065942544   0.06586576            4 
 2772000   0.81640959   -3.3210278    2198.2654  0.066085418  0.065852488            3 
 2773000   0.80729634   -3.3354501    2190.3923  0.065824989  0.065839125            4 
 2774000    0.8089574   -3.3032006    2188.6816  0.065749868  0.065825802            6 
 2775000    0.8181236   -3.3087695    2194.6839  0.065906424  0.065812652            3 
 2776000   0.79132469   -3.3153467     2194.573  0.065879353  0.065799373            5 
 2777000   0.82059745   -3.3186265    2194.2775  0.065846763   0.06578608            6 
 2778000   0.81523939   -3.3135928    2198.7894  0.065958405  0.065772899            2 
 2779000   0.80172429   -3.3300589    2194.9624   0.06581991  0.065759585            3 
 2780000    0.7964291   -3.3510896     2192.978  0.065736751  0.065746341            3 
 2781000   0.80181069   -3.3288049    2192.5857  0.065701356  0.065733041            3 
 2782000   0.80894021   -3.3121804    2200.2906  0.065908538  0.065719735            3 
 2783000    0.8054494   -3.3087086    2200.3491  0.065886605  0.065706533            4 
 2784000   0.80851425   -3.3205808    2194.1909  0.065678607  0.065693237            4 
 2785000   0.80197729   -3.2982324    2198.6171  0.065787465  0.065680023            4 
 2786000   0.79359576   -3.3088275    2196.3381  0.065695684  0.065666742            5 
 2787000   0.81534438   -3.3136167    2200.3925  0.065793341  0.065653437            4 
 2788000   0.81522573   -3.3492898    2196.4246  0.065651141  0.065640109            7 
 2789000   0.79281715   -3.3105002    2199.6771  0.065724785  0.065626854            2 
 2790000   0.82306157    -3.350095    2199.0611  0.065682829  0.065613661            4 
 2791000   0.81082375   -3.3225993    2199.8962  0.065684228  0.065600555            5 
 2792000   0.80466189   -3.3208258    2199.6385  0.065653013  0.065587334            3 
 2793000   0.80914967   -3.3143759     2201.774   0.06569322  0.065574142            4 
 2794000   0.80896315   -3.3392097    2199.4714  0.065601031  0.065560809            5 
 2795000    0.8056699   -3.3277412    2202.4454  0.065666232  0.065547643            2 
 2796000   0.79534475   -3.3526275    2196.7739  0.065473709  0.065534318            4 
 2797000   0.82380513   -3.3148998     2204.907  0.065692616  0.065520991            5 
 2798000   0.79488867   -3.3231794    2198.0442  0.065464743   0.06550795            3 
 2799000   0.79643509   -3.3342274    2207.1707  0.065713072  0.065494819            4 
 2800000   0.79189801   -3.3473701    2203.7114  0.065586648  0.065481483            4 
 2801000    0.8167454   -3.3460809    2206.4441  0.065644534  0.065468299            2 
 2802000    0.8176794   -3.2999213    2202.5053  0.065503963  0.065455165            3 
 2803000   0.81811111   -3.3305473    2209.6141  0.065691941   0.06544199            2 
 2804000   0.81920605   -3.3157558    2213.8229  0.065793596  0.065429033            3 
 2805000   0.81855968   -3.3487947    2208.1165   0.06560061  0.065416056            7 
 2806000   0.78392101     -3.33443    2214.6404  0.065770977  0.065402973            4 
 2807000   0.80817184   -3.2985241    2217.0821  0.065820037  0.065390074            4 
 2808000   0.80037876   -3.3285143    2210.9151  0.065613577  0.065377041            4 
 2809000   0.80815864   -3.3283597    2210.2272  0.065569813  0.065364052            7 
 2810000    0.7965377     -3.33134    2210.0653  0.065541677  0.065350873            4 
 2811000   0.79730294    -3.320805    2204.3806  0.065349835  0.065337822            3 
 2812000   0.79399738   -3.3006543    2215.0547  0.065642921  0.065324727            3 
 2813000   0.80255553   -3.2994773    2209.5283  0.065455868  0.065311796            4 
 2814000   0.80267249   -3.3255154    2212.5305  0.065521516  0.065298789            5 
 2815000   0.80676547   -3.3173845     2207.002  0.065334576  0.065285549            2 
 2816000   0.79138524   -3.3283735    2206.6975  0.065302365  0.065272465            3 
 2817000   0.80032419   -3.3296982    2212.1685  0.065441028  0.065259453            3 
 2818000   0.79976842   -3.3372492    2208.1239  0.065298198  0.065246284            5 
 2819000   0.79324609   -3.3155868    2217.7414   0.06555934  0.065233127            5 
 2820000   0.80304165   -3.3217265    2212.4204  0.065378855  0.065220123            7 
 2821000   0.79864509   -3.3475564     2201.942  0.065046142  0.065206868            5 
 2822000   0.79689432   -3.3460496    2213.7014  0.065370345  0.065193665            4 
 2823000   0.79097293   -3.3387223    2219.1505  0.065508045  0.065180507            9 
 2824000   0.80832977   -3.3369557    2211.4179  0.065256667  0.065167377            5 
 2825000   0.82198648   -3.3232694    2216.4117  0.065380876  0.065154277            4 
 2826000   0.78493703   -3.3482255    2211.9162  0.065225178  0.065141122            4 
 2827000   0.80406341   -3.3456702    2212.4413  0.065217583   0.06512804            5 
 2828000   0.79362377   -3.3098004    2217.7515     0.065351  0.065114789            3 
 2829000   0.78704976   -3.3063368    2218.7396  0.065357005  0.065101653            4 
 2830000   0.79412987    -3.334546    2208.0498  0.065019134  0.065088436            5 
 2831000   0.80511558   -3.3372834    2221.3942  0.065388973   0.06507532            2 
 2832000   0.80527423   -3.3241708    2219.7477  0.065317434  0.065062154            7 
 2833000   0.79975587   -3.3348416    2224.4298  0.065432104  0.065048876            6 
 2834000   0.79888528   -3.3339713    2218.1001  0.065222893  0.065035674            4 
 2835000   0.79883644   -3.3534398    2213.4776   0.06506401  0.065022429            4 
 2836000   0.80971389   -3.3320509     2220.164  0.065237541  0.065009324            3 
 2837000   0.81951699   -3.3508199     2216.401  0.065104013  0.064996271            5 
 2838000   0.81622587   -3.3235312     2223.635  0.065293486  0.064983143            6 
 2839000   0.81411093   -3.3231371    2225.8035  0.065334141  0.064970112            3 
 2840000    0.8098849   -3.3261915    2223.8919  0.065255044  0.064957028            4 
 2841000   0.80855072   -3.3295646    2213.3571  0.064923065   0.06494388            7 
 2842000   0.79402081   -3.3454057    2208.7205  0.064764266   0.06493068            7 
 2843000   0.81666251   -3.3239315     2224.433  0.065202045   0.06491753            5 
 2844000   0.78142916   -3.3291985    2225.5398  0.065211552  0.064904374            2 
 2845000   0.79897965   -3.3094849    2227.0533  0.065232962  0.064891194            4 
 2846000   0.79959477   -3.3191168    2220.3773   0.06501456  0.064877963            3 
 2847000   0.80707399   -3.3417718    2217.4427  0.064905828  0.064864719            7 
 2848000   0.78380419   -3.3297101    2222.2856  0.065024743  0.064851437            4 
 2849000   0.78929713   -3.3473433    2216.7655  0.064840455  0.064838011            5 
 2850000   0.82258618   -3.3567787     2220.726  0.064933509  0.064824773            5 
 2851000   0.79388842   -3.3237501    2213.8462  0.064709639  0.064811449            3 
 2852000   0.78153164   -3.3503125    2213.0232  0.064662904  0.064798103            5 
 2853000    0.8072792   -3.3494759    2220.0643  0.064845901  0.064784856            5 
 2854000   0.81016073   -3.3456168    2231.3536  0.065152816  0.064771765            4 
 2855000   0.80428883   -3.3688432    2224.3792  0.064926423  0.064758674            4 
 2856000   0.80555555   -3.3513131    2221.6715  0.064824683  0.064745461            3 
 2857000   0.78819483   -3.3500276    2214.5431  0.064594071  0.064732124            5 
 2858000   0.78654187    -3.325017    2232.6254  0.065098712  0.064718911            3 
 2859000   0.78822978   -3.3455421    2226.6075  0.064900532  0.064705769            1 
 2860000   0.81116246   -3.3434165    2220.9048  0.064711679  0.064692625            2 
 2861000   0.78894173   -3.3555555    2225.9928   0.06483726  0.064679501            2 
 2862000   0.79310306   -3.3228786    2236.4395  0.065118785  0.064666296            5 
 2863000   0.77213082   -3.3113067    2231.4569  0.064951009  0.064653226            2 
 2864000   0.80899689   -3.3415902    2240.2835  0.065185158  0.064640105            5 
 2865000   0.80454134   -3.3021703    2235.1753  0.065013825  0.064627148            2 
 2866000   0.79940144   -3.3498823    2229.0844  0.064814039  0.064613933            5 
 2867000   0.78920976   -3.3378949    2229.8237  0.064812919   0.06460082            2 
 2868000     0.795213   -3.3433675    2228.1466   0.06474159   0.06458765            4 
 2869000   0.79931149   -3.3189786    2227.1914   0.06469128  0.064574522            3 
 2870000    0.7869117   -3.3228368     2226.469  0.064647764    0.0645613            5 
 2871000   0.79232081   -3.3466417    2229.1255  0.064702354  0.064548118            7 
 2872000    0.8053845   -3.3463384    2226.7926  0.064612133  0.064535045            5 
 2873000   0.80080918   -3.3434747    2226.8362   0.06459091  0.064522001            7 
 2874000   0.80255098   -3.3396648    2229.3659  0.064641785  0.064508924            2 
 2875000   0.77937842   -3.3224772    2232.4498  0.064708691  0.064495859            5 
 2876000   0.80008445   -3.3404044    2233.4298  0.064714586  0.064482748            3 
 2877000   0.78462107   -3.3506363     2232.668  0.064670028   0.06446966            3 
 2878000   0.80284344   -3.3156778    2227.2243  0.064489933  0.064456488            4 
 2879000   0.79924925   -3.3264729     2237.656   0.06476948  0.064443447            5 
 2880000   0.79331717    -3.334255    2243.6037  0.064919089  0.064430367            5 
 2881000   0.79652514   -3.3456481    2231.8863  0.064557627    0.0644173            4 
 2882000   0.78045803   -3.3414427    2226.3382  0.064374804  0.064404132            4 
 2883000   0.78888121   -3.3357036    2235.4158  0.064614863  0.064390771            4 
 2884000   0.78845319   -3.3583805    2231.7763  0.064487294  0.064377446            2 
 2885000   0.80193885   -3.3812657    2228.3026  0.064364604    0.0643643            3 
 2886000   0.80401893   -3.3393224    2236.6392   0.06458302  0.064350981            4 
 2887000   0.78996764   -3.3653304    2228.4872  0.064325343  0.064337711            5 
 2888000   0.79515353   -3.3326725    2244.4261  0.064762986  0.064324617            5 
 2889000   0.80037015   -3.3690227    2233.8518  0.064435554  0.064311399            8 
 2890000   0.78157272   -3.3309259    2235.9743  0.064474462  0.064298218            3 
 2891000    0.7968795   -3.3371066    2240.0617  0.064569978  0.064285099            5 
 2892000   0.78365826    -3.353882    2244.1748  0.064666172  0.064272126            4 
 2893000   0.78841835   -3.3249476    2236.5369  0.064423806  0.064259099            4 
 2894000   0.78714482   -3.3272648    2244.6531  0.064635254  0.064246255            7 
 2895000   0.78444578   -3.3721746    2236.9113  0.064390078  0.064233242            2 
 2896000   0.79405097   -3.3518261    2242.1486  0.064518549  0.064220214            4 
 2897000   0.80523302   -3.3624109    2239.3087  0.064414586    0.0642072            3 
 2898000   0.78398507   -3.3749484    2238.0691  0.064356713  0.064194177            3 
 2899000   0.78875238   -3.3502921    2236.2899  0.064283371  0.064181051            3 
 2900000   0.78632218   -3.3433916    2244.2681  0.064490463  0.064167983            4 
 2901000   0.78857868   -3.3295275    2248.6496  0.064594094  0.064155022            4 
 2902000   0.77452702   -3.3580883    2236.1136  0.064211853  0.064141934            2 
 2903000   0.79124516   -3.3548579    2241.6558  0.064348829  0.064129016            6 
 2904000   0.78570247   -3.3879753    2240.6481  0.064297754    0.0641161            5 
 2905000   0.78657989   -3.3707535     2232.249  0.064034683  0.064103249            7 
 2906000   0.78896355   -3.3473805    2246.5686  0.064423278  0.064090446            4 
 2907000   0.78146867   -3.3477404     2239.071  0.064186188  0.064077588            6 
 2908000   0.78831064   -3.3491639    2247.8852    0.0644167  0.064064616            6 
 2909000   0.79286291   -3.3570815    2246.4035  0.064352111  0.064051743            5 
 2910000   0.78200544   -3.3578902    2243.2938  0.064240946  0.064038818            4 
 2911000   0.77639613   -3.3751355    2241.8903  0.064178699  0.064025676            7 
 2912000   0.79768697   -3.3469585    2250.4758  0.064402352  0.064012675            5 
 2913000   0.78703028   -3.3457854     2239.097  0.064054726  0.063999599            7 
 2914000   0.78418815   -3.3734665    2253.0414  0.064431521  0.063986669            6 
 2915000   0.77931151   -3.3477671    2246.9183  0.064234371  0.063973666            3 
 2916000   0.76934479   -3.3784194    2237.9579  0.063956274   0.06396062            3 
 2917000   0.77383612   -3.3820426     2246.932  0.064190721  0.063947504            7 
 2918000   0.78081499   -3.3434379    2242.5838  0.064044546  0.063934371            6 
 2919000    0.7801306   -3.3610031    2246.1626  0.064124775  0.063921324            4 
 2920000   0.77675431   -3.3405891     2246.556  0.064114041  0.063908124            4 
 2921000    0.8053266   -3.3644513     2242.636  0.063980258  0.063894925            3 
 2922000   0.78264246   -3.3524841    2245.5857  0.064042486  0.063881755            5 
 2923000   0.78186674    -3.350582    2250.3721  0.064157034  0.063868632            2 
 2924000   0.78224798    -3.373122    2244.7535  0.063974962  0.063855605            5 
 2925000    0.7706102   -3.3488741    2234.9483   0.06367374  0.063842388            6 
 2926000   0.78288756   -3.3536997    2256.5694  0.064267756  0.063829299            3 
 2927000    0.7736818   -3.3329735    2259.3304  0.064324406   0.06381633            4 
 2928000   0.78239997   -3.3535359    2249.3899  0.064019522  0.063803273            5 
 2929000   0.79129832   -3.3373255    2254.0234  0.064129493  0.063790131            3 
 2930000   0.76407685   -3.3651491    2247.9407  0.063934605  0.063777061            5 
 2931000   0.79701176   -3.3702698    2249.1997  0.063948586  0.063764059            5 
 2932000   0.78750783   -3.3372708    2255.9657   0.06411908  0.063751161            5 
 2933000   0.78022366   -3.3762063    2252.1358  0.063988403  0.063738197            3 
 2934000   0.77184068   -3.3585224    2248.5112  0.063863644  0.063725131           10 
 2935000   0.79179093   -3.3681054    2258.6831  0.064130696   0.06371223            3 
 2936000   0.79790946   -3.3570625    2254.7097  0.063996075  0.063699164            4 
 2937000   0.78533538   -3.3528088    2253.4319  0.063938028  0.063686065            6 
 2938000   0.79209249   -3.3443282    2257.6311  0.064035372  0.063673104            3 
 2939000   0.79373881   -3.3657041     2250.655  0.063815781  0.063660109            9 
 2940000   0.76679113   -3.3558207    2251.7956  0.063826406  0.063647162            4 
 2941000    0.7869677   -3.3611927    2253.6528  0.063857328   0.06363412            6 
 2942000   0.77602278   -3.3464305    2255.0413  0.063874951  0.063620974            7 
 2943000   0.77270279   -3.3736424    2255.0264  0.063852826   0.06360796            5 
 2944000   0.77649287    -3.369525    2250.3926   0.06369997  0.063594725            4 
 2945000   0.76904461   -3.3623818    2260.7872  0.063972474   0.06358163            5 
 2946000   0.77875485   -3.3717165    2254.1725  0.063763649  0.063568618            7 
 2947000   0.79530634   -3.3646188    2253.2238  0.063715184  0.063555626            4 
 2948000   0.80487897   -3.3581634    2251.3847  0.063641586  0.063542644            5 
 2949000   0.77138763   -3.3757058    2256.2841  0.063758452  0.063529535            4 
 2950000   0.79707231   -3.3541157    2261.8877  0.063895134  0.063516583            3 
 2951000   0.77858451   -3.3447124    2255.2538  0.063686146  0.063503588            6 
 2952000   0.77065392   -3.3606523    2252.9267  0.063598881  0.063490639            7 
 2953000   0.80275216   -3.3639536    2267.3672  0.063984851  0.063477715            3 
 2954000   0.78136447   -3.3618295    2260.4381   0.06376772  0.063464732            4 
 2955000   0.78388451   -3.3638224    2261.4246  0.063773961  0.063451604            3 
 2956000   0.77384467   -3.3703951    2259.8764  0.063708739  0.063438631            4 
 2957000   0.77349125   -3.4059158    2258.8801  0.063659117  0.063425597            5 
 2958000   0.78443931   -3.3671581    2252.7592  0.063465156  0.063412691            2 
 2959000   0.77162358   -3.3747888    2257.5681  0.063579139  0.063399736            8 
 2960000   0.79425097   -3.3707872     2261.605  0.063671312   0.06338676            7 
 2961000    0.7609183   -3.3377017    2265.5173  0.063759914  0.063373809            3 
 2962000   0.77919389      -3.3559    2257.3214  0.063507806  0.063360934            3 
 2963000   0.78579055    -3.335105    2265.2858  0.063710368  0.063348083            5 
 2964000   0.77146435   -3.3476009    2265.8891  0.063705832  0.063335254            2 
 2965000   0.78070349   -3.3584239    2263.8395  0.063626741  0.063322357            5 
 2966000   0.76499566   -3.3588687    2267.2124  0.063700056   0.06330936           10 
 2967000   0.77953643   -3.3463127    2270.8176  0.063779845  0.063296209            5 
 2968000   0.78607498   -3.3511595    2259.3994  0.063437765  0.063283348            5 
 2969000   0.76663901   -3.3651301    2267.7891  0.063651878  0.063270415            7 
 2970000   0.78599669   -3.3578389     2262.386  0.063478845  0.063257498            4 
 2971000   0.76228292   -3.3558124    2266.2676  0.063566353  0.063244622            3 
 2972000   0.79173135   -3.3728996    2265.3123  0.063518179  0.063231727            3 
 2973000   0.77304344    -3.354044    2262.3339  0.063413328  0.063218742            4 
 2974000    0.7752776    -3.355695    2266.3062  0.063503311  0.063205821            7 
 2975000   0.76407226    -3.377696    2261.9127  0.063358899  0.063192824            3 
 2976000   0.76812307   -3.3635683    2258.0579  0.063229667  0.063179569            3 
 2977000   0.76821738   -3.3677175    2259.8341  0.063258148  0.063166481            3 
 2978000   0.77299158   -3.3700936    2265.2211  0.063387651  0.063153401            5 
 2979000    0.7728975   -3.3553395    2265.8366  0.063383592  0.063140368            4 
 2980000   0.78524196   -3.3907696    2259.5588  0.063186767  0.063127446           11 
 2981000   0.77386139   -3.3764531    2266.5817  0.063361894  0.063114398            3 
 2982000   0.76564163   -3.3800819    2268.9971  0.063408147  0.063101246            5 
 2983000    0.7694845   -3.3905333    2257.3515  0.063061558  0.063087991            9 
 2984000   0.78433582   -3.3588221    2259.6615  0.063104934  0.063074831            3 
 2985000   0.77294677   -3.3564752    2260.6738  0.063112054  0.063061661            5 
 2986000   0.76108917   -3.3509706     2263.054  0.063157345  0.063048653            4 
 2987000   0.76945065   -3.3971408    2256.8518  0.062963168  0.063035324            4 
 2988000   0.77061443     -3.34235    2269.4606  0.063293747  0.063022099           13 
 2989000   0.76141908    -3.366693    2266.1707   0.06318085   0.06300887            5 
 2990000   0.76778444   -3.3632526    2267.5091  0.063197021  0.062995616           11 
 2991000   0.76594696   -3.3749567    2264.5942  0.063094677  0.062982497            4 
 2992000   0.79492821   -3.3369206    2270.5622   0.06323981  0.062969365            3 
 2993000    0.7635758    -3.377783    2264.3691   0.06304625  0.062956286            4 
 2994000    0.7787108   -3.3794277    2264.3749  0.063025352  0.062943174            9 
 2995000    0.7801775   -3.3842356    2265.9987  0.063049492  0.062930021            3 
 2996000   0.78199252   -3.3787115    2266.4444  0.063040842  0.062916788            4 
 2997000   0.78605027   -3.3973214    2263.0359  0.062925033  0.062903551            9 
 2998000   0.78315813   -3.3974892    2261.3895  0.062858279  0.062890304            6 
 2999000   0.78577642   -3.3913482    2270.6927   0.06309583  0.062877093            5 
 3000000   0.77155431   -3.3890482    2262.3459  0.062842941  0.062864114            6 
 3001000   0.76183814   -3.3495686    2270.8024  0.063056825   0.06285082            4 
 3002000   0.77358445   -3.3774841    2260.3903  0.062746788  0.062837532            4 
 3003000   0.75704968   -3.3916594    2261.9459  0.062769062  0.062824185            7 
 3004000   0.78592566   -3.3744504    2269.2946  0.062952026  0.062810867            3 
 3005000   0.78363316   -3.3423536    2264.2845  0.062792139  0.062797691            4 
 3006000    0.7570385   -3.3824394    2273.5122  0.063027062  0.062784563            4 
 3007000   0.78618792   -3.3598066     2269.919  0.062906523  0.062771478            3 
 3008000   0.76238079   -3.3833338    2261.2031  0.062644147  0.062758281            2 
 3009000   0.77909787   -3.3922777    2274.8479  0.063001216  0.062745037            2 
 3010000   0.75435703   -3.3908267    2263.2843  0.062660142  0.062731789            7 
 3011000   0.78618666    -3.369376    2275.0094  0.062963839  0.062718609            2 
 3012000   0.77734542   -3.3934407    2270.2536  0.062811353  0.062705363            4 
 3013000   0.77033111   -3.3486552    2276.5489  0.062964621  0.062692248           10 
 3014000   0.77815592   -3.3816955    2264.7474  0.062617435  0.062678951            6 
 3015000   0.77201089   -3.4063108    2263.8386  0.062571548  0.062665546            6 
 3016000   0.77742626   -3.3753449    2263.5488  0.062542795  0.062652197            5 
 3017000   0.76357932   -3.3657638    2265.9398  0.062588107  0.062638817            3 
 3018000   0.76579504   -3.4219302    2273.2574  0.062769423  0.062625551            3 
 3019000   0.77286291   -3.3991596    2274.2056  0.062774804  0.062612137            4 
 3020000   0.75543167   -3.3739102    2279.3458  0.062895854   0.06259881            5 
 3021000   0.77113741   -3.3832353    2272.8665  0.062696306  0.062585491            3 
 3022000   0.75633315   -3.3818081    2272.1912  0.062656938   0.06257219            5 
 3023000   0.76768628    -3.377498    2264.7089   0.06242995  0.062558824            5 
 3024000   0.76464463   -3.3672753    2276.3974  0.062731409  0.062545567            3 
 3025000   0.76750059    -3.388296    2278.6327  0.062772251  0.062532263            3 
 3026000   0.77996248   -3.3652516    2269.3957  0.062497128  0.062518822            4 
 3027000   0.77346875   -3.3624447     2274.093  0.062605798  0.062505458            4 
 3028000   0.75014565   -3.4067023    2275.1258  0.062613545  0.062492142            3 
 3029000   0.76604328   -3.3750879      2279.06  0.062701112   0.06247887            8 
 3030000   0.77780957   -3.3790909    2273.6882  0.062532679  0.062465477            7 
 3031000   0.76829733    -3.389157    2273.7099  0.062512644  0.062452078            3 
 3032000   0.75638201   -3.3936746    2266.3282  0.062289144  0.062438681            4 
 3033000   0.75649671   -3.3864628     2276.445   0.06254657  0.062425265            5 
 3034000   0.78446077   -3.3895371    2271.7355  0.062396601  0.062411776            6 
 3035000   0.76871366   -3.4203866    2275.4753  0.062478728  0.062398268            4 
 3036000   0.76185504   -3.4053584     2272.051  0.062364159  0.062384691            6 
 3037000   0.79024069   -3.3921743    2269.5521  0.062275055  0.062371102            5 
 3038000    0.7574557   -3.4005475    2272.9364  0.062347388  0.062357501            9 
 3039000   0.76225064   -3.3929423    2281.5504  0.062563079  0.062344067            3 
 3040000   0.77413647   -3.3815831    2272.8323  0.062303517  0.062330612            7 
 3041000   0.76511786   -3.3963717    2273.9238   0.06231294  0.062317242            3 
 3042000   0.75977203    -3.360703    2275.5449  0.062336865  0.062303898            3 
 3043000   0.77215401   -3.3904937    2278.0166  0.062384066  0.062290425            6 
 3044000     0.768202   -3.3928454    2278.3462  0.062372597  0.062277054            5 
 3045000   0.77611362   -3.3952325    2280.3769  0.062407688  0.062263802            9 
 3046000   0.76196563    -3.384206    2275.3841  0.062250605  0.062250391            5 
 3047000   0.76234897   -3.3899069    2272.2043   0.06214321  0.062237071            3 
 3048000   0.76603766   -3.3910938    2280.4676  0.062348742  0.062223586            4 
 3049000   0.77606738   -3.3941892     2278.088  0.062263257  0.062210226            5 
 3050000   0.75440155    -3.382673    2278.2821  0.062248146  0.062196888            4 
 3051000   0.78025579   -3.3859507    2277.5693  0.062208275  0.062183701            7 
 3052000   0.75462523   -3.3726886     2272.315  0.062044424  0.062170299            8 
 3053000   0.76581441    -3.387857    2274.7762  0.062091282  0.062156784            5 
 3054000   0.77392825   -3.3556129    2285.3279  0.062358872  0.062143374            3 
 3055000   0.77473889    -3.369711    2280.3669  0.062203135  0.062130025            5 
 3056000   0.77238974   -3.3692994    2281.5042  0.062213793  0.062116694            4 
 3057000   0.77067374   -3.3840298    2274.5314  0.062003365  0.062103388            4 
 3058000   0.74993513   -3.3937982    2283.2177  0.062219796  0.062090074            6 
 3059000   0.75964643   -3.3991518      2281.32  0.062147761   0.06207663           15 
 3060000   0.76385026   -3.4061906     2284.566  0.062215848  0.062063289            3 
 3061000   0.77139921   -3.4088759    2284.7454  0.062200407  0.062049921            7 
 3062000    0.7635037   -3.4016477    2285.9415  0.062212647  0.062036635            5 
 3063000   0.76417896   -3.3942548     2283.529  0.062126702  0.062023333            9 
 3064000   0.75719576   -3.3942736    2283.4222  0.062103519   0.06201007            4 
 3065000   0.76859904   -3.3716081    2281.1685  0.062021983  0.061996645            3 
 3066000    0.7563821   -3.3809523    2279.3559  0.061952486  0.061983362            9 
 3067000   0.77798642   -3.4023278    2277.3956  0.061879023  0.061969994            5 
 3068000   0.75881465   -3.3938473    2274.8359  0.061789328  0.061956663            6 
 3069000   0.75609781   -3.3898498    2279.0516  0.061883666  0.061943205            4 
 3070000   0.76119342   -3.3952559    2282.3867  0.061954036  0.061929791            3 
 3071000   0.75841787   -3.4084845    2284.0781   0.06197976   0.06191632           14 
 3072000   0.75041027   -3.4210789    2276.7757  0.061761492  0.061902941            3 
 3073000    0.7648221   -3.4001247    2288.5936  0.062061873  0.061889526            6 
 3074000   0.74628063   -3.3619147    2284.9478  0.061942849  0.061876123            4 
 3075000   0.75642824   -3.4018197    2283.5668  0.061885279   0.06186265            4 
 3076000   0.75958567   -3.3855536    2282.8153    0.0618448   0.06184926            3 
 3077000   0.74553385   -3.3978464    2287.4436  0.061950048  0.061835802            4 
 3078000   0.73053357   -3.3810365     2290.375  0.062009287  0.061822371            6 
 3079000   0.74858725    -3.388983    2276.2268  0.061606225  0.061808936            3 
 3080000   0.76710364   -3.3892258    2282.5033  0.061756042  0.061795325            8 
 3081000   0.75919487   -3.3882699    2289.2694  0.061919004  0.061781779            4 
 3082000   0.75753416   -3.3855528    2286.9562  0.061836367  0.061768366            5 
 3083000    0.7506036   -3.3914434    2279.9994  0.061628268  0.061754871            5 
 3084000   0.75588855   -3.4002101    2290.9375  0.061903844  0.061741424            5 
 3085000   0.77314484   -3.4026832    2281.8658   0.06163873  0.061727839            6 
 3086000   0.76929965   -3.4061172     2286.329  0.061739279  0.061714389            4 
 3087000    0.7648163   -3.4100706    2283.2958  0.061637399  0.061701073            6 
 3088000   0.76028071     -3.40279    2284.2758  0.061643884  0.061687645            3 
 3089000   0.75173991    -3.403984    2287.0814  0.061699617  0.061674271            5 
 3090000   0.77105723   -3.4117707    2289.3076  0.061739687  0.061661021            3 
 3091000   0.75735647   -3.3883165    2286.6167  0.061647168  0.061647632            3 
 3092000   0.74988379   -3.4071308      2292.51  0.061786061  0.061634173            3 
 3093000   0.76100046   -3.3983334    2284.6464  0.061554221  0.061620772            6 
 3094000   0.75622213   -3.4077762    2288.0448  0.061625856  0.061607336            4 
 3095000   0.76326808   -3.4078426    2290.8501  0.061681479  0.061593868            6 
 3096000   0.74226075    -3.389723    2283.4354  0.061461977  0.061580361            4 
 3097000   0.76314738   -3.4147706    2284.6849  0.061475754  0.061566791            4 
 3098000   0.74167256   -3.4100174    2282.3068  0.061391942  0.061553202            8 
 3099000   0.75860939   -3.3790055    2292.8216  0.061654878  0.061539723           11 
 3100000   0.79048381   -3.4058125    2292.0264  0.061613614  0.061526293            6 
 3101000   0.75144027   -3.3590241    2291.0055   0.06156631  0.061512946            5 
 3102000   0.75642236   -3.3862833    2289.3517  0.061502035  0.061499516            5 
 3103000   0.75128567   -3.3867651    2294.4134   0.06161815  0.061486097            9 
 3104000   0.74567014   -3.3755805    2289.6107  0.061469359  0.061472818            4 
 3105000   0.76641509   -3.4048809    2287.3209  0.061388107  0.061459428            5 
 3106000   0.75720472   -3.3929593    2292.4393  0.061505669  0.061446033            3 
 3107000   0.76163786   -3.4063169    2290.2066  0.061425989  0.061432687            3 
 3108000   0.76150708   -3.4079833    2292.3026  0.061462426  0.061419308            2 
 3109000   0.75136016   -3.4099984    2290.3625  0.061390654  0.061405969            2 
 3110000   0.75307611   -3.3934191      2290.71  0.061380224  0.061392663            6 
 3111000   0.76501464   -3.3894478    2289.0986  0.061317331  0.061379249            5 
 3112000   0.77703542    -3.394496    2296.1383  0.061486136  0.061365997            3 
 3113000   0.75451876   -3.3988475    2298.8616  0.061539288  0.061352865            3 
 3114000   0.75324426   -3.3782067    2298.7903  0.061517617  0.061339699            5 
 3115000   0.75190783   -3.3847688    2296.7885  0.061444314  0.061326602            4 
 3116000   0.73792577   -3.3869502    2290.9706  0.061269003   0.06131333            4 
 3117000   0.74727275   -3.3926418    2300.2719  0.061498018  0.061300164            3 
 3118000   0.76191002   -3.3970908     2298.518  0.061431421  0.061286953            4 
 3119000    0.7366465   -3.4028886    2299.3353   0.06143356   0.06127364            6 
 3120000   0.76669992    -3.415418    2289.1022   0.06114055  0.061260432            7 
 3121000   0.76952171   -3.3923912    2304.4792  0.061531539  0.061247213           10 
 3122000   0.74415288   -3.4099334    2295.2924  0.061266613   0.06123386            5 
 3123000    0.7581335   -3.3917197    2290.2486  0.061112408   0.06122053            2 
 3124000   0.75121081   -3.4040149    2299.9691  0.061352142  0.061207299            6 
 3125000    0.7431739   -3.4022594    2306.9104  0.061517611   0.06119396            2 
 3126000   0.75318882    -3.398503    2308.7995  0.061548292  0.061180713            5 
 3127000   0.75048605   -3.4110442    2300.1918  0.061299217  0.061167418            3 
 3128000   0.74377078   -3.4049173    2304.7317  0.061400568  0.061154154            2 
 3129000    0.7491694   -3.3996022     2297.198  0.061180302  0.061140884            6 
 3130000   0.73941674   -3.4130099    2297.6029  0.061171537  0.061127646            3 
 3131000   0.75312419   -3.4029721    2297.6295  0.061152707  0.061114209            4 
 3132000   0.74725881   -3.4191993     2297.596   0.06113229  0.061100914            5 
 3133000     0.743865   -3.4282726    2296.5112  0.061083923   0.06108753            2 
 3134000   0.75423083     -3.40138    2298.1014  0.061106715  0.061074126            5 
 3135000    0.7470399   -3.3951898     2299.412  0.061122064  0.061060607            6 
 3136000   0.74801606   -3.4049837    2296.5788  0.061027286  0.061047224            7 
 3137000   0.76301128   -3.4170347    2299.1651  0.061076536  0.061033673            3 
 3138000   0.74483653   -3.4140724    2297.6143  0.061015888  0.061020091            3 
 3139000   0.73988694   -3.4040825    2296.3961  0.060964109  0.061006522            2 
 3140000   0.76438305   -3.3994819    2300.7043   0.06105903  0.060993111            2 
 3141000   0.74332619   -3.4093238    2299.7164  0.061013382  0.060979666            6 
 3142000   0.76454473   -3.4125204    2297.3557  0.060931351   0.06096615            7 
 3143000   0.74513018   -3.3896237    2290.4926  0.060729997  0.060952557            4 
 3144000   0.75631174   -3.4298863    2299.3155  0.060944537  0.060938982            3 
 3145000   0.74573853   -3.4300248    2302.4324  0.061007748    0.0609255           10 
 3146000    0.7516825   -3.3944886    2306.3053  0.061090945  0.060911871            4 
 3147000   0.74248554   -3.4097161    2294.9939  0.060772001  0.060898335           10 
 3148000   0.75082604   -3.4077927    2299.0346  0.060859662  0.060884797            3 
 3149000   0.73659706   -3.4061113     2302.455  0.060930852  0.060871349            2 
 3150000   0.75252178   -3.4079539    2301.4043  0.060883713  0.060857863            6 
 3151000   0.73537262   -3.4173625    2296.5477  0.060735948  0.060844265            4 
 3152000   0.73879475    -3.385485    2299.2467  0.060788036  0.060830673            4 
 3153000   0.76817184   -3.4004151    2302.7255  0.060860702   0.06081709            3 
 3154000     0.736757   -3.4172979    2288.5754  0.060467538  0.060803517            5 
 3155000   0.75261624    -3.427935    2303.1237  0.060832638   0.06078992            5 
 3156000   0.73376245   -3.4094672    2301.2822  0.060764739   0.06077618            4 
 3157000   0.75809078   -3.4271447    2295.8127  0.060601118  0.060762704            4 
 3158000   0.74419338   -3.4038681    2292.4462  0.060493091  0.060749182            9 
 3159000   0.75311646   -3.3898252    2301.9747  0.060725302  0.060735685           20 
 3160000   0.74966865   -3.3915865    2308.1064  0.060867785  0.060722461            5 
 3161000   0.73718787   -3.4116545     2304.507  0.060753637  0.060709014            5 
 3162000   0.73360667   -3.4183736    2294.8353   0.06047953  0.060695461            5 
 3163000   0.74617326    -3.415854    2300.8783   0.06061962  0.060681927            6 
 3164000   0.74622936   -3.4327097    2305.2901   0.06071666  0.060668268            6 
 3165000   0.74370135   -3.3939328    2307.0687  0.060744304  0.060654574            4 
 3166000   0.75187409   -3.4321436    2290.1465  0.060279703   0.06064101            4 
 3167000    0.7325385   -3.4152925    2296.2723  0.060421857  0.060627381            7 
 3168000   0.75941307   -3.4158112    2300.8709   0.06052375  0.060613715            5 
 3169000   0.74708961   -3.4215966    2299.3748  0.060465309  0.060600058            5 
 3170000   0.74967492    -3.415508    2307.5754  0.060661814  0.060586491            8 
 3171000   0.73854129   -3.4276515    2301.0816  0.060472027  0.060572834            4 
 3172000   0.75501275   -3.4221238    2305.2387  0.060562176  0.060559269            5 
 3173000   0.75413655   -3.4386038    2299.7513  0.060398972  0.060545581           10 
 3174000   0.75825901    -3.428482     2301.185  0.060417585  0.060531897            6 
 3175000   0.72955496   -3.4197949    2302.6136  0.060436051  0.060518338            3 
 3176000   0.74830587   -3.4505706    2295.3054  0.060225268  0.060504692            8 
 3177000   0.73031214   -3.4268415    2306.6223  0.060503155  0.060490921            5 
 3178000   0.74702416   -3.4368539    2308.1484  0.060524133  0.060477241            3 
 3179000   0.73299797   -3.4344059     2298.547  0.060253407  0.060463576            6 
 3180000   0.74105919   -3.4145848     2303.184  0.060355975  0.060449979            5 
 3181000   0.72618406   -3.4392709     2307.132  0.060440426  0.060436386            3 
 3182000   0.74160758   -3.4101666    2297.9295  0.060180429  0.060422827            5 
 3183000    0.7317462   -3.3902369    2307.8014  0.060419976  0.060409208            2 
 3184000   0.74468419   -3.4005339    2305.0517  0.060329034  0.060395675            3 
 3185000   0.75236276   -3.4338841    2304.7075  0.060301086  0.060382092            7 
 3186000   0.74072657   -3.4381976     2300.029  0.060159788  0.060368406            5 
 3187000   0.74463999   -3.4199388    2308.1712  0.060353813  0.060354891            4 
 3188000   0.73815317   -3.4213752    2304.3851  0.060235914  0.060341254            4 
 3189000   0.74132517    -3.427579    2310.5515  0.060378162  0.060327615            5 
 3190000   0.75413075   -3.4237777    2301.4417  0.060121257  0.060314068            5 
 3191000    0.7299755   -3.4083552     2317.715  0.060527394   0.06030052            5 
 3192000   0.75129337   -3.4265854    2302.2576  0.060104887  0.060286954            5 
 3193000   0.75123515   -3.4371987    2305.0419   0.06015873  0.060273269            8 
 3194000   0.75003774   -3.4036928    2305.8808  0.060161782  0.060259703            5 
 3195000   0.72978363   -3.4320776    2305.8607  0.060142429  0.060246182            6 
 3196000   0.74479001   -3.4322769    2306.2797  0.060134535  0.060232367            6 
 3197000   0.73447837   -3.4233532    2307.7184  0.060153228  0.060218584            4 
 3198000   0.74440995   -3.4254476    2306.1269  0.060092946  0.060204758           10 
 3199000   0.72639814   -3.4371381    2304.0882  0.060021052  0.060191017            5 
 3200000   0.73939097    -3.414624    2305.7003  0.060044278  0.060177387            7 
 3201000   0.73623569   -3.4172842    2313.9249  0.060239636  0.060163665            5 
 3202000   0.72780818   -3.4138093    2307.5669  0.060055353  0.060149944            4 
 3203000   0.74693402   -3.4158938    2310.6765  0.060117508  0.060136369            3 
 3204000   0.74042384   -3.4137197    2302.4666   0.05988521  0.060122682            3 
 3205000   0.72493486   -3.4301687    2307.0725  0.059986284  0.060108905            7 
 3206000    0.7423075   -3.4063175    2303.5731  0.059876615  0.060095212            5 
 3207000   0.75893248   -3.4377198     2300.531  0.059778895  0.060081529            6 
 3208000   0.74393336   -3.4400295    2307.9716  0.059953542  0.060067794            5 
 3209000   0.73003713   -3.4183462    2316.9996  0.060169305  0.060054095            4 
 3210000   0.74849562   -3.4143026    2311.9627  0.060019801  0.060040375            4 
 3211000   0.72937377   -3.4350563    2309.8056  0.059945126  0.060026622            6 
 3212000   0.73366217   -3.4554385    2302.6066  0.059739691  0.060012855            3 
 3213000   0.72143442   -3.4285709    2312.4902  0.059977442  0.059999094            7 
 3214000   0.73026834   -3.4492445    2310.3544  0.059903403  0.059985373            6 
 3215000   0.72104511   -3.4280626    2311.6561  0.059918509  0.059971642            5 
 3216000   0.74009361   -3.4194948    2316.9628  0.060037385  0.059958028            6 
 3217000   0.74094655   -3.4284755    2310.1124  0.059841269  0.059944394            6 
 3218000    0.7449807   -3.4087971    2309.7898   0.05981432  0.059930809            5 
 3219000   0.73776238   -3.4421644    2314.6528  0.059921632  0.059917033            5 
 3220000   0.72937267   -3.4422852    2308.0923  0.059733238  0.059903257            5 
 3221000   0.72854857   -3.4188727    2313.9936   0.05986737  0.059889598            5 
 3222000    0.7248873   -3.3982064    2312.4283  0.059808306  0.059875878            3 
 3223000   0.73907365   -3.4501651    2316.6829  0.059899755  0.059862191            3 
 3224000   0.75504788   -3.4182239    2320.3924  0.059977059  0.059848549            6 
 3225000   0.73614354   -3.4004686    2307.8719  0.059634934  0.059834773            5 
 3226000   0.74168561   -3.4006181    2312.9762  0.059748301  0.059820966            5 
 3227000   0.73527144   -3.4283116    2312.0832  0.059706723  0.059807313           12 
 3228000   0.75291287   -3.4368251    2311.3847  0.059670195    0.0597938            6 
 3229000   0.72872927   -3.4189987    2319.9091  0.059871712  0.059780243            5 
 3230000   0.73785796   -3.4449039    2316.2954  0.059759943  0.059766714            4 
 3231000   0.73184941   -3.4419846    2313.2937  0.059664027  0.059753217            5 
 3232000   0.73052741   -3.4326184    2315.9523  0.059714117  0.059739598            4 
 3233000   0.73223973   -3.4529224    2316.7814  0.059717016  0.059726135            5 
 3234000   0.72991113   -3.4454006    2316.3837  0.059688304  0.059712704            8 
 3235000   0.74158231   -3.4492801    2316.3749  0.059669625  0.059699172            5 
 3236000   0.75509153   -3.4366935    2313.9904   0.05958978  0.059685601            4 
 3237000   0.72864003   -3.4391597    2309.3028  0.059450696  0.059672109            7 
 3238000   0.75250035    -3.448414    2316.2093   0.05961008  0.059658568            6 
 3239000   0.73276178   -3.4226483    2320.3125  0.059697245  0.059645064            6 
 3240000   0.75197362   -3.4354085    2322.6723  0.059739513  0.059631635            3 
 3241000   0.73996534   -3.4250759     2320.471  0.059664481  0.059618314            3 
 3242000   0.74167146   -3.4415887    2320.6978  0.059651908  0.059604845            4 
 3243000   0.71627901   -3.4476182    2317.8937  0.059561457  0.059591314            9 
 3244000   0.73030465   -3.4321899    2320.7811  0.059617269  0.059577831            4 
 3245000   0.74210617   -3.4347321    2320.2646  0.059585634  0.059564336            6 
 3246000   0.73866717   -3.4357362     2316.875  0.059480258  0.059550928            4 
 3247000   0.72599538   -3.4462493    2318.8123  0.059511658  0.059537458            4 
 3248000   0.74756736   -3.4298268    2321.4574  0.059561203  0.059524044            3 
 3249000   0.74365959   -3.4457134    2326.8272  0.059680599  0.059510667            4 
 3250000   0.74273867   -3.4354873    2325.0545  0.059616783  0.059497212            5 
 3251000    0.7432125   -3.4495687    2323.2109  0.059551186  0.059483794            7 
 3252000   0.74064438   -3.4614979    2323.1349  0.059530927  0.059470328            4 
 3253000   0.73546994    -3.434576    2328.0186  0.059637734  0.059456822            7 
 3254000    0.7216939   -3.4662058    2327.3953  0.059603445  0.059443329            6 
 3255000   0.74798453   -3.4421733    2320.6852  0.059413343  0.059429683            5 
 3256000   0.72948636   -3.4423723    2321.0786  0.059405165  0.059416035           10 
 3257000   0.75227533   -3.4430049    2315.0869  0.059233623  0.059402453           11 
 3258000   0.72723591   -3.4113961    2324.2632  0.059450154  0.059388863            5 
 3259000   0.73103587   -3.4312871    2318.3811  0.059281504  0.059375329            6 
 3260000   0.71404578   -3.4494456    2320.8638  0.059326784  0.059361668            3 
 3261000   0.74636681   -3.4221224    2325.5798  0.059429108    0.0593481            4 
 3262000   0.73489074   -3.4527665     2315.041  0.059141657  0.059334554            8 
 3263000   0.72395942   -3.4552457    2321.9046  0.059298819   0.05932097           12 
 3264000   0.73445032   -3.4315184    2328.8262  0.059457367  0.059307482            6 
 3265000   0.71607936   -3.4129866    2326.6205  0.059382861  0.059294018            4 
 3266000   0.72685261   -3.4208957    2327.4602  0.059386104  0.059280473            3 
 3267000   0.72481437   -3.4487635    2320.8275  0.059198742  0.059266964            6 
 3268000   0.72022635   -3.4522131     2323.309  0.059243906  0.059253426            6 
 3269000   0.73731392    -3.431728    2336.8914  0.059572025  0.059239888            3 
 3270000   0.72893591   -3.4361998    2325.6316  0.059266861  0.059226304            4 
 3271000   0.74631183   -3.4367139    2323.2569  0.059188243  0.059212762            5 
 3272000   0.74066731   -3.4635547    2319.6881   0.05907926   0.05919918            6 
 3273000   0.72163404   -3.4300088    2323.2443  0.059151754  0.059185685            3 
 3274000   0.73607699   -3.4476887    2318.8152  0.059020952  0.059172089            9 
 3275000   0.74085607   -3.4654614    2321.1926  0.059063425  0.059158446            5 
 3276000   0.70474048   -3.4557211    2324.4288  0.059127716  0.059144778            6 
 3277000   0.70981096   -3.4547451    2316.4427   0.05890659  0.059131284            5 
 3278000   0.72755431   -3.4473032    2322.6164  0.059045565  0.059117665            3 
 3279000   0.73012198    -3.438454     2322.577  0.059026559  0.059103926            3 
 3280000   0.72913096   -3.4565175    2321.3582  0.058977597  0.059090251           10 
 3281000   0.71969873   -3.4419567    2323.8768   0.05902359  0.059076653            6 
 3282000   0.72388034    -3.463205    2322.5113  0.058970935  0.059063045            9 
 3283000   0.73499904   -3.4318524    2325.8549  0.059037844   0.05904952            4 
 3284000   0.72860862   -3.4330596    2323.5931  0.058962473  0.059035893            5 
 3285000   0.72813777   -3.4537427    2327.1059  0.059033634  0.059022291            7 
 3286000   0.72302893   -3.4432137    2322.6649  0.058903046  0.059008585            8 
 3287000   0.72621024   -3.4653426     2320.661  0.058834321  0.058994807            3 
 3288000    0.7231159   -3.4583971    2320.4633  0.058811417   0.05898107            6 
 3289000   0.72754939   -3.4660306     2320.276   0.05878879  0.058967375            6 
 3290000   0.72011882   -3.4305148    2329.4834  0.059004139  0.058953816            4 
 3291000   0.73659532   -3.4370738    2327.9353   0.05894701  0.058940211            5 
 3292000   0.73686964   -3.4519357    2322.6655  0.058795703  0.058926543            5 
 3293000   0.74288691    -3.433598    2334.0873  0.059066892  0.058912948            6 
 3294000   0.71056543   -3.4431443    2325.9401  0.058842849  0.058899344            8 
 3295000   0.72990256   -3.4522477    2334.4242  0.059039559  0.058885633            5 
 3296000   0.73775145   -3.4321903    2330.0075   0.05890998   0.05887201            5 
 3297000   0.73638015   -3.4334211    2335.3712  0.059027682  0.058858483            9 
 3298000   0.72121771   -3.4408184    2330.0205  0.058874583  0.058844848            5 
 3299000   0.71546342   -3.4502544     2324.841  0.058725901  0.058831276            5 
 3300000   0.72464816   -3.4583692    2328.4875   0.05880019  0.058817675            8 
 3301000    0.7241864   -3.4362489    2332.8504  0.058892518  0.058804104           10 
 3302000     0.703321    -3.458637    2329.1857  0.058782195   0.05879051            8 
 3303000   0.72024737   -3.4418137    2332.1657  0.058839583  0.058776975            7 
 3304000   0.71488456   -3.4635764    2324.4028   0.05862598  0.058763342            5 
 3305000   0.72639194    -3.444265      2333.47  0.058836863  0.058749788            7 
 3306000   0.71458316   -3.4567112    2323.0753  0.058557051    0.0587362            8 
 3307000   0.71440545   -3.4454692    2326.3539  0.058621961  0.058722528            8 
 3308000   0.72125771    -3.457891    2331.0812  0.058723327  0.058708967            5 
 3309000   0.70572253   -3.4363105    2334.3538  0.058787996  0.058695421            7 
 3310000   0.71454632   -3.4546093    2328.4781  0.058622308  0.058681934            4 
 3311000   0.71264304   -3.4619425    2333.2045  0.058723561  0.058668319            4 
 3312000   0.73213477   -3.4346632    2323.6941  0.058466539  0.058654732            6 
 3313000   0.72298812   -3.4446599    2331.4621  0.058644282  0.058641079            7 
 3314000   0.73084273   -3.4568343    2331.4578  0.058626479  0.058627521            4 
 3315000   0.71729577   -3.4436716    2331.5661  0.058611517  0.058613894            4 
 3316000   0.72973145    -3.451508     2324.936  0.058427221  0.058600241            4 
 3317000   0.69828941   -3.4745926    2318.7617  0.058254489  0.058586519            6 
 3318000   0.73240183   -3.4454009    2329.0597  0.058495573  0.058572943            3 
 3319000   0.71844431   -3.4550289    2331.4842  0.058538822  0.058559356            4 
 3320000   0.72650502   -3.4479028    2334.2577  0.058590805   0.05854583            6 
 3321000   0.70411517   -3.4626338    2334.6467  0.058582925  0.058532381            2 
 3322000   0.72183175   -3.4676607    2336.4793  0.058611262  0.058518794            7 
 3323000   0.71824942   -3.4515735    2328.9305  0.058404317  0.058505249            5 
 3324000   0.73764126   -3.4639167    2331.2457  0.058444787  0.058491764            4 
 3325000   0.70457275   -3.4491424    2330.1855  0.058400638  0.058478199            5 
 3326000   0.71796275   -3.4380343    2339.7732  0.058623302   0.05846468            4 
 3327000   0.71617556   -3.4644093    2330.3799  0.058370402  0.058451219            4 
 3328000   0.72751189   -3.4498659    2338.7544  0.058562559   0.05843778            3 
 3329000   0.72747857   -3.4682566    2334.9948  0.058450857  0.058424261            3 
 3330000   0.72169099   -3.4778878     2339.484  0.058545647  0.058410804            4 
 3331000   0.71950837   -3.4474739    2332.1262  0.058343995  0.058397267            7 
 3332000   0.71393213   -3.4506369    2333.6397  0.058364338  0.058383716            4 
 3333000   0.71015959   -3.4717403    2337.9497  0.058454588  0.058370097            7 
 3334000   0.72100075   -3.4396025    2342.7531  0.058557117  0.058356628            2 
 3335000   0.70886817   -3.4846254       2325.4  0.058105946  0.058343144            4 
 3336000   0.72943808    -3.479956    2338.3565  0.058412183  0.058329579            7 
 3337000   0.70678389   -3.4630831    2331.0792  0.058212945  0.058316117            9 
 3338000   0.72703502   -3.4569421    2343.2206  0.058498617  0.058302656            7 
 3339000   0.71405277   -3.4604644    2333.2157    0.0582314  0.058289192            6 
 3340000   0.70309178   -3.4533379    2341.4329  0.058418985  0.058275766            3 
 3341000   0.72780803   -3.4610036    2339.6835  0.058357863  0.058262316            3 
 3342000    0.7099185   -3.4356115    2339.7656   0.05834245  0.058248994            6 
 3343000   0.73020454   -3.4502681    2343.1412  0.058409144  0.058235584            4 
 3344000   0.69667909   -3.4685802    2339.7728  0.058307735  0.058222256            4 
 3345000    0.7257468   -3.4657756      2338.93  0.058269307  0.058208783            7 
 3346000   0.71761986   -3.4531018    2340.2716  0.058285306  0.058195414            3 
 3347000   0.71568919   -3.4688504    2330.7461  0.058030726  0.058181915            4 
 3348000   0.72716976   -3.4656315    2341.7802  0.058288038  0.058168466            8 
 3349000   0.70508818   -3.4394945    2344.7227  0.058343853  0.058155111            5 
 3350000   0.70109714   -3.4718421    2342.6738  0.058275467  0.058141681            8 
 3351000   0.72945482    -3.457245    2349.3009   0.05842288  0.058128265            4 
 3352000   0.71898881   -3.4413112    2341.3076  0.058206731  0.058114832            6 
 3353000   0.70637811   -3.4538203     2338.694  0.058124415  0.058101305            3 
 3354000   0.73009144   -3.4405336    2336.5881  0.058054763  0.058087891            2 
 3355000   0.72413874   -3.4677811    2347.6958  0.058313359  0.058074528            5 
 3356000   0.72438417   -3.4356632      2343.18  0.058183851  0.058061175           16 
 3357000   0.71280741   -3.4692521    2336.6652  0.058004796  0.058047779            7 
 3358000   0.71480426   -3.4589118    2339.9192  0.058068276   0.05803431            5 
 3359000   0.70938057   -3.4841633    2332.7256   0.05787252  0.058020913           16 
 3360000   0.72753187   -3.4854152    2342.8392  0.058106131  0.058007347            8 
 3361000   0.71346391   -3.4566334    2342.4569  0.058079364  0.057993801            9 
 3362000   0.70865077   -3.4583091    2338.0387  0.057952576  0.057980299            5 
 3363000    0.7026116   -3.4645441    2335.2136  0.057865339   0.05796694            6 
 3364000   0.71859502   -3.4804797    2342.1141  0.058019078  0.057953547            9 
 3365000   0.71979246   -3.4687132    2336.2015  0.057855412  0.057940038            5 
 3366000   0.69258577   -3.4414884    2345.2052   0.05806113  0.057926556            2 
 3367000   0.71879682    -3.466094    2340.1676  0.057919205  0.057913105            3 
 3368000   0.71948711   -3.4845801     2339.387  0.057882696  0.057899637            5 
 3369000   0.71201975   -3.4592264    2342.4792  0.057942001  0.057886238            4 
 3370000   0.70734326   -3.4634781    2342.0904  0.057915192  0.057872839            4 
 3371000   0.70438749   -3.4763317    2348.0861  0.058046231  0.057859428            6 
 3372000   0.70031301   -3.4703147     2340.661  0.057845517  0.057845982            3 
 3373000     0.719378   -3.4755333    2342.9727   0.05788548  0.057832596            6 
 3374000   0.70261013   -3.4731793    2343.0383  0.057869945  0.057819252            3 
 3375000   0.70257351   -3.4547538    2343.2608  0.057858291  0.057805835            9 
 3376000   0.72192977   -3.4803723    2343.0022  0.057834769  0.057792418            4 
 3377000   0.73968652   -3.4550547     2349.849  0.057986601  0.057779023            5 
 3378000    0.7078856   -3.4881117    2346.9061  0.057896834  0.057765605            5 
 3379000   0.71537714   -3.4684285    2345.9775    0.0578568  0.057752228           21 
 3380000   0.70152594   -3.4669204    2348.5477  0.057903049  0.057738967            4 
 3381000   0.69030973   -3.4666346    2352.0998  0.057973473  0.057725634            6 
 3382000    0.7077868   -3.4761988    2343.6702  0.057748625  0.057712315            3 
 3383000    0.7079251    -3.471073    2350.4142   0.05789768   0.05769902            4 
 3384000   0.68552212   -3.4698428    2341.7077  0.057666167  0.057685737            4 
 3385000   0.70571933   -3.4705178    2346.8055   0.05777463  0.057672445            5 
 3386000   0.71329129   -3.4699031     2350.832  0.057856664  0.057659022            3 
 3387000   0.70757256   -3.4752933    2345.1079  0.057698747  0.057645653            6 
 3388000   0.72177344   -3.4622897    2340.9972  0.057580609   0.05763229            4 
 3389000   0.71639944   -3.4509922    2349.6033  0.057775236  0.057618966            9 
 3390000   0.69304342   -3.4675695    2351.0759  0.057794392  0.057605737            6 
 3391000   0.70785809   -3.4811021    2349.4954  0.057738509  0.057592284            5 
 3392000   0.69276784   -3.4576225    2351.2767   0.05776525  0.057579028            8 
 3393000   0.71351612   -3.4875325     2352.931  0.057788854  0.057565774            3 
 3394000   0.70345909   -3.4856355    2344.0066  0.057552705  0.057552465            4 
 3395000   0.71729861   -3.4601729    2346.1639  0.057588706  0.057539102            3 
 3396000   0.69843198   -3.4487105    2349.8883  0.057663141  0.057525825            6 
 3397000   0.72939151   -3.4706048     2353.212  0.057727702  0.057512548            6 
 3398000   0.69803984   -3.4637688    2345.5935  0.057523874  0.057499355            6 
 3399000   0.72487796   -3.4770583    2351.9384  0.057662508  0.057486132            6 
 3400000   0.72163703   -3.4708799    2352.5039  0.057659408  0.057472898            8 
 3401000   0.72271554   -3.4772016    2355.5091  0.057716092    0.0574597            3 
 3402000   0.71480655   -3.4897392    2349.8851  0.057561365  0.057446485            8 
 3403000   0.70900864    -3.459754    2351.6437  0.057587512  0.057433177            8 
 3404000   0.70745698   -3.4913802    2351.7611   0.05757347  0.057419963            6 
 3405000   0.71845419    -3.501366    2348.3162  0.057472251   0.05740658            9 
 3406000      0.71313   -3.4823891    2354.6816  0.057611117  0.057393321            7 
 3407000   0.71134985   -3.4841432     2349.246  0.057461255  0.057380006            3 
 3408000   0.71272216   -3.4854311    2351.5853  0.057501597  0.057366714            5 
 3409000     0.723618   -3.4900333    2353.4794  0.057531031  0.057353524            7 
 3410000   0.71046162   -3.5004629    2347.3112  0.057363422  0.057340151            6 
 3411000   0.69479633   -3.4790797    2359.2738  0.057638859  0.057326857            5 
 3412000   0.71444724   -3.4739742    2353.8149  0.057488641  0.057313572            8 
 3413000   0.71280434   -3.4578674    2354.8686  0.057497523  0.057300356            3 
 3414000   0.70977426    -3.475421    2355.4257  0.057494281  0.057287117            5 
 3415000   0.70577297   -3.4599925    2357.9215  0.057538349  0.057273886            7 
 3416000   0.69308996   -3.4903913    2348.9236  0.057302002  0.057260635            6 
 3417000   0.70568484   -3.4773126    2361.8321  0.057600042  0.057247396            4 
 3418000   0.71279047   -3.4872533     2355.671  0.057432978  0.057234198            5 
 3419000    0.7066931   -3.4973068    2354.7544  0.057393838  0.057220984            5 
 3420000   0.70004378    -3.466587    2354.3136  0.057366317  0.057207773            4 
 3421000   0.70231893   -3.4693255    2353.4122   0.05732759  0.057194577            3 
 3422000   0.71192647   -3.4739579    2355.4589   0.05736068  0.057181353            6 
 3423000   0.69039369   -3.4926721    2355.7951  0.057352105   0.05716811            5 
 3424000    0.7131323    -3.496808    2351.5857  0.057232907  0.057154809            5 
 3425000   0.70691246   -3.4831112    2360.1695  0.057425049   0.05714149            5 
 3426000   0.70176553   -3.4529867    2353.9293  0.057256502  0.057128219            9 
 3427000   0.69360301   -3.4762813    2353.4195  0.057227398  0.057114934            5 
 3428000   0.68545915   -3.4859873    2354.8536  0.057245565  0.057101679            7 
 3429000   0.71151107   -3.4764876    2362.4048  0.057412385    0.0570884           12 
 3430000   0.69860311   -3.4834483    2359.3739  0.057322009  0.057075178            5 
 3431000   0.69505708   -3.4924517    2355.4053  0.057208912  0.057061961            7 
 3432000   0.70960082   -3.4693186    2357.5336   0.05724392  0.057048829            3 
 3433000   0.70632008   -3.4728672    2356.6882  0.057206725   0.05703573            6 
 3434000   0.70016983   -3.4727885    2360.3887  0.057279865  0.057022573            6 
 3435000   0.69962823   -3.4661986    2364.8117  0.057370493  0.057009349            4 
 3436000   0.70458977   -3.4755172    2359.1534  0.057216565  0.056996133            6 
 3437000   0.70882033   -3.4745885    2357.3369  0.057155875  0.056983028            2 
 3438000   0.69600196   -3.4892304    2360.7133  0.057221091  0.056969944            8 
 3439000   0.69298814   -3.4786401    2357.0926  0.057116716  0.056956878            9 
 3440000   0.68982209   -3.4846655    2359.1933  0.057151001  0.056943754            7 
 3441000     0.708824   -3.4722198    2367.7685  0.057342064  0.056930598            5 
 3442000   0.71421831   -3.4686765    2362.8357  0.057205977  0.056917464           10 
 3443000   0.71662217   -3.4851166    2357.4339  0.057058619  0.056904309            3 
 3444000   0.71207622   -3.4910504    2354.5897  0.056973232  0.056891213            4 
 3445000   0.70956829   -3.4749568    2358.8231  0.057059098  0.056878092            3 
 3446000   0.71500546   -3.4668476    2363.0637   0.05714509  0.056865101           10 
 3447000   0.69310206   -3.4667328    2368.9054  0.057269737  0.056852091            7 
 3448000   0.70507422   -3.4924954    2370.2309  0.057285163  0.056839079           11 
 3449000   0.70973976   -3.5059875    2362.3009  0.057076953    0.0568261           12 
 3450000    0.7038197   -3.4859446    2361.7022  0.057045948  0.056813105            6 
 3451000   0.68474852   -3.4931388    2365.5747  0.057122929   0.05680008            7 
 3452000   0.69883746   -3.5127408    2356.8685  0.056896208  0.056787003            5 
 3453000   0.69079521   -3.5059337      2367.31  0.057131722   0.05677401            3 
 3454000   0.69341306   -3.4785048    2368.8033  0.057151208  0.056760983            6 
 3455000   0.69185127   -3.5094291    2359.4799   0.05690979  0.056747959            4 
 3456000     0.696127   -3.4778222    2374.2815  0.057250228  0.056734953            7 
 3457000   0.69944602   -3.5115376    2362.3248  0.056945443   0.05672201            2 
 3458000   0.70648034   -3.4949591    2366.6803  0.057033938  0.056709015            4 
 3459000   0.69433771   -3.4782154    2367.2308  0.057030713  0.056696017            8 
 3460000   0.68830847   -3.5095711    2360.9288  0.056862448  0.056683082            7 
 3461000   0.69538731    -3.502785    2357.6756  0.056767687   0.05667014            9 
 3462000   0.71461886   -3.4768838    2363.9525  0.056902382   0.05665721            4 
 3463000   0.69908682   -3.5046225    2372.8877  0.057100965  0.056644281            9 
 3464000   0.68999909   -3.4949691    2373.2747   0.05709379  0.056631461           10 
 3465000   0.70285566   -3.5039207    2372.1812  0.057051015  0.056618671           13 
 3466000   0.70293447   -3.4913126    2375.3624   0.05711104  0.056605832            3 
 3467000   0.69901782   -3.4927311    2369.8363  0.056961741  0.056592978            5 
 3468000   0.68773892   -3.4865067    2367.1491  0.056880746   0.05658009            8 
 3469000    0.7078214   -3.4991242    2367.0789  0.056862662  0.056567177            5 
 3470000   0.69641219   -3.5083555    2365.1577  0.056800138  0.056554306            4 
 3471000   0.70682653    -3.481889    2375.2256  0.057025488  0.056541484            4 
 3472000   0.68167481   -3.5118723    2365.2025  0.056768492  0.056528624            4 
 3473000   0.71071841   -3.4930276    2371.0639  0.056892789  0.056515748            2 
 3474000   0.69051991   -3.4664233    2370.9593  0.056873904  0.056502891            5 
 3475000   0.69120505   -3.4936809    2362.1454  0.056646172  0.056489974            5 
 3476000   0.69250299   -3.4852009    2374.1138  0.056916806  0.056477042            6 
 3477000   0.69716133   -3.4794737    2372.3672  0.056858575  0.056464233            6 
 3478000   0.69149769     -3.49959    2367.4563  0.056724563  0.056451342            6 
 3479000   0.69939823   -3.4880261    2373.2553  0.056847161  0.056438443            2 
 3480000   0.68579726   -3.5058563     2375.522  0.056885105  0.056425537            9 
 3481000   0.69085124   -3.5030952    2377.1426  0.056907559  0.056412622            7 
 3482000   0.69442876   -3.4908507    2375.7286  0.056857377  0.056399792            6 
 3483000   0.68503302   -3.4927079    2368.2506  0.056662135  0.056386973            3 
 3484000   0.68947715   -3.5158106    2368.5667  0.056653432   0.05637417           10 
 3485000   0.71003011   -3.5103946     2372.306  0.056726591  0.056361251            8 
 3486000   0.69825128   -3.4941021    2372.0628  0.056704505   0.05634846            6 
 3487000   0.67807453   -3.4862363     2380.068  0.056879553  0.056335636            3 
 3488000   0.71153312    -3.517673    2373.0294  0.056695084  0.056322767            3 
 3489000   0.69302908   -3.4952572     2377.739   0.05679132  0.056309927            6 
 3490000   0.70822174   -3.5182886    2362.0253   0.05639984  0.056297045            4 
 3491000    0.6850752   -3.4791985    2370.0754  0.056575848  0.056284147            5 
 3492000    0.6843645   -3.5056249    2368.6811  0.056526372  0.056271205           11 
 3493000   0.69856207   -3.4968163    2371.9095   0.05658721  0.056258246            7 
 3494000   0.70279041   -3.5231886    2366.5525  0.056443248  0.056245223            5 
 3495000   0.68897954   -3.4951342    2374.4541  0.056615502  0.056232132            4 
 3496000   0.66894735   -3.5017256    2373.2204  0.056569898  0.056219151            8 
 3497000   0.68642567   -3.4945943    2371.3531  0.056509224  0.056206174            4 
 3498000   0.69221046   -3.4964806    2371.7569  0.056502689  0.056193215            4 
 3499000   0.69064658    -3.481509    2377.4794   0.05662283  0.056180295            5 
 3500000   0.69696581   -3.4781085    2379.5532  0.056656029  0.056167348            5 
 3501000   0.68831781   -3.4977843    2378.6759  0.056618963  0.056154474           11 
 3502000   0.69029366   -3.4776399    2380.1605  0.056638123  0.056141657            4 
 3503000   0.69234732   -3.4886671    2376.4581  0.056533879  0.056128787            6 
 3504000    0.6998476    -3.484383    2376.0205  0.056507337  0.056115998            8 
 3505000   0.67975126   -3.5024783    2375.0424   0.05646796  0.056103216            5 
 3506000   0.67981014   -3.5146185    2374.9508  0.056449677   0.05609036            7 
 3507000   0.67839534   -3.5000885    2377.8746  0.056503056  0.056077556            6 
 3508000   0.71287574     -3.49441    2377.6042  0.056480525  0.056064747            5 
 3509000   0.69919457   -3.5202907    2369.2438  0.056265884  0.056051904            3 
 3510000   0.69960442   -3.5068118    2376.7616  0.056428338  0.056039114            3 
 3511000   0.68184178   -3.5360572    2370.5373  0.056264534   0.05602623            3 
 3512000   0.69827696   -3.5136669    2374.4194  0.056340628  0.056013365           16 
 3513000   0.66435355   -3.5149946    2376.8473  0.056382182  0.056000425            5 
 3514000   0.67834792   -3.5132909    2372.3707  0.056259978  0.055987593            4 
 3515000   0.69027917   -3.4958757    2375.1043  0.056308779  0.055974818            4 
 3516000   0.70639482   -3.5078153    2376.2656  0.056320289  0.055961937            2 
 3517000   0.68617775   -3.5044771    2380.4768  0.056404056   0.05594911            8 
 3518000   0.69110534    -3.507798    2374.8746   0.05625532  0.055936239            4 
 3519000   0.69268866   -3.5013081    2375.8745  0.056263013  0.055923477           11 
 3520000   0.67814694   -3.5009241    2385.3051  0.056470291   0.05591058           19 
 3521000   0.69639624   -3.5230299    2371.8865  0.056136667  0.055897731            8 
 3522000   0.69615983   -3.5063904    2376.1019  0.056220469  0.055884904            5 
 3523000   0.69346651   -3.5114967    2371.0068   0.05608399   0.05587202           12 
 3524000   0.67578158   -3.4895298    2377.9563  0.056232414  0.055859224            6 
 3525000   0.68795526   -3.5185984    2375.3936  0.056155877  0.055846478            4 
 3526000   0.68518285   -3.4985557    2378.7928  0.056220287  0.055833547            8 
 3527000   0.68872297    -3.527136    2372.5692    0.0560573  0.055820666            6 
 3528000   0.69396789    -3.524176    2381.6366  0.056255589  0.055807653            4 
 3529000   0.68587333   -3.5089715    2381.1533  0.056228236   0.05579469            4 
 3530000   0.68046636   -3.5120733    2378.1102  0.056140468  0.055781808            7 
 3531000   0.68061347   -3.5120017    2379.9845  0.056168802  0.055768959            8 
 3532000   0.70545589   -3.5182367    2381.5358  0.056189502  0.055756105            3 
 3533000   0.69602077    -3.496188    2375.5711  0.056032906  0.055743308            8 
 3534000   0.68307428   -3.5133774    2377.0577  0.056052105  0.055730467            7 
 3535000   0.69181541   -3.4896976    2381.2126  0.056134196  0.055717624            5 
 3536000   0.69013759   -3.5057012    2381.3603  0.056121802  0.055704833            7 
 3537000   0.67772456   -3.5009565    2376.7122  0.055996423   0.05569205            3 
 3538000    0.7013082   -3.5126563    2383.5513  0.056141683  0.055679277            7 
 3539000   0.68345474   -3.5073978    2386.7866  0.056202002  0.055666522           11 
 3540000   0.68444778    -3.471545    2385.9312  0.056165988  0.055653783            4 
 3541000   0.67432798   -3.5045686    2384.0717  0.056106366  0.055641068            7 
 3542000   0.69121777   -3.4961509    2386.0357  0.056136732  0.055628353            9 
 3543000   0.68042679   -3.5302409    2378.1321  0.055934992   0.05561559            5 
 3544000    0.6888057   -3.5182909    2382.7424  0.056027616  0.055602817            5 
 3545000   0.68670237   -3.5199773    2381.2233  0.055976101  0.055590056            6 
 3546000   0.68973109   -3.5024181    2385.8638  0.056069369  0.055577394            3 
 3547000   0.68485219   -3.5060409    2387.3216  0.056087811  0.055564753            4 
 3548000   0.67896612   -3.5281573    2386.1478  0.056044434  0.055552153            4 
 3549000   0.67530076   -3.5047473     2388.458  0.056082887  0.055539505            6 
 3550000   0.66515224   -3.5082676    2391.8111  0.056145801  0.055526781            3 
 3551000    0.6860447   -3.5280709    2382.4839  0.055911103  0.055514129            4 
 3552000   0.68600811    -3.516657    2392.2193  0.056123763  0.055501381            9 
 3553000   0.68258945   -3.5100853    2388.2393  0.056014619  0.055488713            8 
 3554000   0.70392049   -3.5096236    2390.2146  0.056045175  0.055476024            4 
 3555000   0.68095213   -3.5146215    2388.3428  0.055985532  0.055463435            4 
 3556000   0.68580857   -3.5223577    2380.9601  0.055796779  0.055450778            8 
 3557000   0.69482758    -3.516758    2385.9341  0.055897623  0.055438104            5 
 3558000   0.69254782    -3.512737    2383.7358  0.055830425  0.055425387            4 
 3559000   0.68449472   -3.5206319    2384.4441  0.055831323  0.055412698            5 
 3560000   0.67901917   -3.5152061    2392.4254  0.056002466  0.055400159            7 
 3561000   0.68315424    -3.500866    2389.8336  0.055926089  0.055387478            4 
 3562000    0.6885171   -3.5195617    2389.1136  0.055893544  0.055374828            4 
 3563000   0.69382806   -3.5089625    2388.8625  0.055871983  0.055362202            5 
 3564000   0.68565811   -3.4975445    2393.7705  0.055971064  0.055349643            8 
 3565000   0.68510026   -3.5141978    2394.6043  0.055974856   0.05533698           15 
 3566000   0.68078934   -3.4991941     2383.607  0.055702163  0.055324433            3 
 3567000   0.67712812   -3.4968936    2384.7847  0.055714062  0.055311869            5 
 3568000   0.67741784   -3.5295363    2385.6842  0.055719456  0.055299251           13 
 3569000   0.66613054   -3.5288243    2387.2491  0.055740381  0.055286572            6 
 3570000   0.66751611   -3.5260235    2387.6009   0.05573298   0.05527388            6 
 3571000   0.68246801   -3.5157113     2388.889  0.055747434  0.055261253            4 
 3572000   0.67487321   -3.5076619    2392.0867  0.055806426  0.055248609            6 
 3573000   0.67475219   -3.5199932    2398.6189  0.055943159  0.055236034            4 
 3574000   0.68401745   -3.5376993    2383.7345  0.055580454  0.055223363            5 
 3575000   0.69210957   -3.5489787    2386.9716  0.055640363   0.05521057            5 
 3576000   0.67471797   -3.5308717    2383.3778  0.055541055  0.055197897            5 
 3577000   0.67822464   -3.5411178      2390.82  0.055698909  0.055185173            8 
 3578000   0.67710282   -3.5260235    2390.6805  0.055680094    0.0551725            4 
 3579000   0.66229697   -3.5318224    2390.2944  0.055655547  0.055159792            5 
 3580000   0.67357313   -3.5238476    2390.9369  0.055654955  0.055147085            4 
 3581000   0.68835112    -3.513097    2394.3815  0.055719573  0.055134444            8 
 3582000   0.68426435   -3.5470974    2386.2025  0.055513738  0.055121888            6 
 3583000   0.65563331   -3.5267889    2391.9879  0.055632802  0.055109222            9 
 3584000    0.6888755   -3.5294229    2382.9552  0.055407254  0.055096495            4 
 3585000   0.68903366   -3.5196047    2394.2562  0.055654491  0.055083864            6 
 3586000   0.69020348   -3.5248242    2385.0947   0.05542607    0.0550711            3 
 3587000   0.68465525   -3.5380141    2390.4244   0.05553444   0.05505837           10 
 3588000   0.69479621   -3.5390902    2389.8348  0.055505268  0.055045706            4 
 3589000   0.67632241   -3.5299466     2392.202  0.055544767  0.055033098            6 
 3590000   0.67317026   -3.5312422    2391.6402  0.055516252  0.055020478            5 
 3591000   0.67829686   -3.5082139    2387.6541  0.055408291  0.055007877            8 
 3592000   0.67901163   -3.5208564     2394.134  0.055543199  0.054995289            8 
 3593000   0.66966565   -3.5265885    2391.9187   0.05547636  0.054982688            4 
 3594000   0.68618988   -3.5456647    2390.6212  0.055430838  0.054970046            9 
 3595000   0.67324086   -3.5535394    2394.5022  0.055505383  0.054957418            3 
 3596000   0.68806913   -3.5269739    2389.8203   0.05538145  0.054944822            5 
 3597000   0.66863745   -3.5105832    2393.2587  0.055445713  0.054932287           12 
 3598000   0.67283753   -3.5286442    2389.8247  0.055350766   0.05491972            8 
 3599000   0.65830442   -3.5363661    2395.5964   0.05546903  0.054907119            5 
 3600000   0.68161929    -3.538339    2395.4386  0.055449967  0.054894655            7 
 3601000   0.68369952   -3.5223927    2399.3949  0.055526124  0.054882156            3 
 3602000   0.67905841   -3.5394283    2395.5727  0.055422282  0.054869559            3 
 3603000   0.69137251   -3.5242191     2398.981  0.055485729  0.054856968            9 
 3604000   0.67379775   -3.5397307    2398.4963  0.055459126  0.054844385           11 
 3605000   0.66542571   -3.5371646    2396.2591  0.055392028  0.054831885            3 
 3606000   0.68069024   -3.5219583     2398.986  0.055439685  0.054819292           14 
 3607000   0.67390786   -3.5022564    2396.0952  0.055357527  0.054806687            9 
 3608000   0.67473479   -3.5351387    2394.0153  0.055294144  0.054794103            4 
 3609000   0.67227903   -3.5149378    2396.6484  0.055339624  0.054781485            5 
 3610000   0.67271793   -3.5433603    2400.4072  0.055411062  0.054768889           14 
 3611000   0.67710099    -3.523979    2396.0724  0.055295679  0.054756295           10 
 3612000   0.66765891   -3.5205605    2395.4747   0.05526658  0.054743737            2 
 3613000   0.65729199   -3.5169632    2401.7206  0.055395345  0.054731196           17 
 3614000   0.68669358   -3.5306569    2397.0983  0.055273435  0.054718671            5 
 3615000   0.66375874   -3.5299457    2397.2332  0.055261253  0.054706138            3 
 3616000   0.67305736   -3.5408252    2395.6632   0.05520979   0.05469361            5 
 3617000    0.6765599   -3.5284213    2398.0713  0.055250007  0.054681039            4 
 3618000   0.69187328   -3.5370659    2400.2092  0.055283979  0.054668529            8 
 3619000   0.66632564   -3.5364373    2403.6027  0.055346844     0.054656            5 
 3620000   0.67464478   -3.5480229    2398.1709  0.055206512  0.054643521            8 
 3621000   0.64551929   -3.5221315      2393.85  0.055091826   0.05463104            6 
 3622000   0.65713005   -3.5309685    2396.5578  0.055138915  0.054618445            6 
 3623000   0.68784021    -3.526623    2400.2761   0.05520922  0.054605976            8 
 3624000   0.67126713   -3.5333939    2392.6103  0.055017713  0.054593471            6 
 3625000   0.68136827   -3.5479217    2395.3613  0.055065776  0.054580938            9 
 3626000     0.664402   -3.5243551     2406.955  0.055317038  0.054568522            4 
 3627000   0.66856764    -3.534324    2402.6951  0.055203912  0.054555995            6 
 3628000   0.68947701   -3.5079749    2404.1851  0.055222921  0.054543605            4 
 3629000   0.66433181   -3.5192622    2402.6765  0.055173062  0.054531157            9 
 3630000    0.6741751   -3.5748317    2397.1403  0.055030769  0.054518641            9 
 3631000   0.68464864   -3.5494689    2393.4269  0.054930388  0.054506119            9 
 3632000   0.67673861   -3.5339131     2400.941   0.05508767  0.054493615            6 
 3633000   0.67036094   -3.5139308    2399.2836   0.05503449  0.054481144            9 
 3634000   0.67904227   -3.5496699    2405.7148  0.055166824   0.05446878            7 
 3635000   0.67290254   -3.5245416    2399.2098  0.055002517  0.054456323            4 
 3636000   0.67373129   -3.5514296    2398.1812  0.054963816  0.054443835            4 
 3637000   0.67961624   -3.5455829     2398.907  0.054965334  0.054431319           10 
 3638000   0.66506292   -3.5255503     2397.725  0.054923149  0.054418882           11 
 3639000   0.67631277   -3.5306583    2407.8321  0.055139509  0.054406436            5 
 3640000   0.69485117    -3.561995    2401.1232  0.054970769  0.054393958           14 
 3641000   0.67095625   -3.5216283    2402.6276  0.054990104  0.054381441            6 
 3642000   0.66969559   -3.5451974    2398.9599  0.054891083  0.054369037            4 
 3643000    0.6812494   -3.5550753    2397.7012  0.054847224  0.054356633            4 
 3644000   0.65807551   -3.5260146    2406.1895  0.055026287  0.054344187            3 
 3645000   0.66913598   -3.5355416    2413.8175  0.055185585   0.05433183            9 
 3646000   0.67089404   -3.5624219    2402.5363  0.054912605  0.054319463           13 
 3647000    0.6491603   -3.5383536     2403.293  0.054914839  0.054307005            6 
 3648000   0.68066939   -3.5690027    2402.0351  0.054871049  0.054294605            7 
 3649000   0.63506039   -3.5405966    2395.5554  0.054708035  0.054282245            5 
 3650000   0.65047802   -3.5391967    2407.2489  0.054960022   0.05426984           17 
 3651000   0.66697142   -3.5515974    2409.4486  0.054995175   0.05425749            9 
 3652000   0.66603018   -3.5369327    2410.4133   0.05500213  0.054245187            6 
 3653000   0.67353896   -3.5550074    2407.8952  0.054929628  0.054232796            6 
 3654000   0.67793848   -3.5478621       2407.7  0.054910144  0.054220423            5 
 3655000   0.68186345   -3.5417236    2400.5011  0.054730987  0.054208098            7 
 3656000   0.66711652   -3.5461492    2408.6835  0.054902522  0.054195777            7 
 3657000   0.65142932    -3.543102    2410.6038  0.054931269  0.054183435            4 
 3658000   0.67168959    -3.544612    2411.2736  0.054931511  0.054171073            8 
 3659000   0.67037078   -3.5402738    2404.5147  0.054762564  0.054158732            7 
 3660000   0.66700587    -3.554682     2404.988  0.054758378  0.054146363            8 
 3661000   0.67249314   -3.5484958    2400.2957  0.054636614  0.054133938            4 
 3662000   0.65932268   -3.5291539    2406.0906  0.054753564  0.054121507           16 
 3663000   0.65757289   -3.5432692    2398.5503  0.054567075  0.054109077           10 
 3664000   0.65994568   -3.5544745    2403.8954  0.054673749  0.054096611            5 
 3665000   0.67283149   -3.5376074    2407.5834  0.054742688  0.054084129            5 
 3666000   0.67276375   -3.5549452    2403.1685  0.054627397  0.054071627            4 
 3667000   0.66130053   -3.5483951     2408.263  0.054728276  0.054059065            5 
 3668000   0.67032204   -3.5504945    2406.1839  0.054666119  0.054046576            3 
 3669000    0.6729215   -3.5594278    2400.7852  0.054528601  0.054034134            3 
 3670000   0.66819495   -3.5495531    2410.3682  0.054731339  0.054021673            4 
 3671000   0.65474184   -3.5493378    2404.7019  0.054587804  0.054009326            5 
 3672000    0.6862869   -3.5672987    2398.1073  0.054423276  0.053996846            8 
 3673000   0.67353372   -3.5410879    2403.8029  0.054537682  0.053984474            7 
 3674000   0.65545567   -3.5569775    2405.6874  0.054565583  0.053972138           13 
 3675000   0.66789987   -3.5437122    2404.6169  0.054526461  0.053959799            4 
 3676000   0.68348662   -3.5724821    2399.6671  0.054399417  0.053947322            6 
 3677000   0.65888717   -3.5413978     2409.249  0.054601782  0.053934972            3 
 3678000   0.64787926   -3.5619208    2401.9498  0.054421557  0.053922568           12 
 3679000   0.65650535   -3.5456833    2402.7205  0.054424221  0.053910176            7 
 3680000   0.66587869    -3.545602    2406.1245  0.054486516  0.053897791            7 
 3681000   0.65307338   -3.5616413    2408.5794  0.054527289  0.053885384            7 
 3682000   0.67299202    -3.568025     2409.598  0.054535533  0.053873014           14 
 3683000    0.6543942   -3.5509836    2403.2667   0.05437747  0.053860588            8 
 3684000   0.65012177   -3.5483323    2401.6545  0.054326243  0.053848089            6 
 3685000   0.65141635    -3.556059    2407.4576  0.054442732  0.053835725           11 
 3686000   0.66536587   -3.5492948    2407.6588   0.05443251  0.053823218            5 
 3687000    0.6599837    -3.563629    2410.5216  0.054482452  0.053810838            8 
 3688000   0.67582612   -3.5665225    2404.7526  0.054337324  0.053798421            6 
 3689000   0.64793207   -3.5700242    2408.8401   0.05441493  0.053785953            7 
 3690000   0.65539823   -3.5648226    2405.7451  0.054330287  0.053773407            8 
 3691000   0.66844839   -3.5487389    2399.3319  0.054170773  0.053760895            9 
 3692000   0.65866161   -3.5717207     2404.623  0.054275528  0.053748397           22 
 3693000   0.65526156   -3.5620216     2405.207  0.054274009  0.053735827            7 
 3694000   0.65596261   -3.5571806    2417.1433  0.054528588  0.053723443            8 
 3695000   0.65657659     -3.55323    2402.1897  0.054176584   0.05371101            4 
 3696000   0.65734788   -3.5489093    2401.0248  0.054135661  0.053698522            6 
 3697000   0.66351709   -3.5529785    2407.4116   0.05426498  0.053686098            7 
 3698000   0.65201869   -3.5568737    2410.7934  0.054326514  0.053673694            3 
 3699000   0.65716902   -3.5321814    2411.7022    0.0543323  0.053661361            5 
 3700000   0.65520767   -3.5691686    2406.9937  0.054211569  0.053649039           13 
 3701000   0.66535908   -3.5589006     2401.768  0.054079257  0.053636708            4 
 3702000   0.66269883   -3.5600656    2410.0733  0.054251606  0.053624353            4 
 3703000   0.66100358   -3.5560379    2414.3658  0.054333554   0.05361208            8 
 3704000   0.66468138   -3.5584644    2419.3516  0.054431057  0.053599776           15 
 3705000    0.6597197   -3.5769481    2416.0537  0.054342188  0.053587448            6 
 3706000   0.66540838   -3.5564222    2419.6417  0.054408205  0.053575174            6 
 3707000   0.66362909   -3.5425578    2416.4332  0.054321402  0.053562948            8 
 3708000   0.66397534   -3.5511009    2425.2126  0.054504059  0.053550783           14 
 3709000   0.67068535   -3.5555911    2415.8966  0.054280052  0.053538509            9 
 3710000   0.64756423   -3.5725047    2411.5849  0.054168575  0.053526222            8 
 3711000    0.6485313   -3.5410012    2415.6725  0.054245767  0.053513961           12 
 3712000   0.65882692   -3.5466067    2413.5551  0.054183619  0.053501699            8 
 3713000    0.6556449   -3.5332852    2413.9938  0.054178871   0.05348959            4 
 3714000   0.65365187   -3.5609754    2416.5273   0.05422113  0.053477398            7 
 3715000   0.64719749   -3.5602804    2420.7462   0.05430117  0.053465214            7 
 3716000   0.65016002   -3.5787806    2415.9524  0.054179054  0.053452967            7 
 3717000   0.65628587   -3.5501479    2415.9512  0.054164452  0.053440799            6 
 3718000   0.66151533   -3.5660308    2415.9871  0.054150687  0.053428588           12 
 3719000   0.65030051   -3.5475663    2413.2742  0.054075339  0.053416469            9 
 3720000   0.64676255   -3.5699792    2414.6558  0.054091751  0.053404248           11 
 3721000   0.62990686   -3.5835635    2415.8189  0.054103264  0.053392029            9 
 3722000   0.65888065   -3.5602256     2411.024  0.053981371  0.053379765            6 
 3723000   0.64107718   -3.5727319    2412.9679  0.054010384  0.053367492            4 
 3724000   0.65713837   -3.5725642    2411.9322  0.053972705  0.053355246            6 
 3725000   0.66310028   -3.5657495    2418.8737  0.054113505  0.053343039            7 
 3726000   0.64958586   -3.5777011    2423.2542  0.054196954  0.053330817            7 
 3727000   0.64196643   -3.5653854    2414.4819  0.053986269   0.05331867           13 
 3728000   0.65342485   -3.5572244    2418.4755  0.054061058  0.053306377            4 
 3729000    0.6487985   -3.5577849    2417.6578  0.054028287  0.053294255            4 
 3730000   0.64453457    -3.582941    2414.1965  0.053936473  0.053281992            9 
 3731000   0.65216636   -3.5603738    2413.5897  0.053908462   0.05326969           17 
 3732000   0.65146279   -3.5744693    2423.9938  0.054126335  0.053257477            4 
 3733000   0.67198407   -3.5803731    2412.0599  0.053845429  0.053245392            5 
 3734000   0.65711904   -3.5903612    2418.8828  0.053983279  0.053233178           12 
 3735000   0.65582093   -3.5749018    2419.4025  0.053980422  0.053221092            4 
 3736000   0.65026572   -3.5655584    2418.3316  0.053942086  0.053209075            5 
 3737000    0.6483198   -3.5637873    2425.7983  0.054094155  0.053197062            9 
 3738000   0.63721702   -3.5715688    2426.3052  0.054090985  0.053185003            6 
 3739000    0.6524067   -3.5792506    2423.0563  0.054004108  0.053172904            6 
 3740000   0.65906075   -3.5842301    2430.1495  0.054147715  0.053160862            5 
 3741000   0.65002215   -3.5558083     2419.335  0.053892341  0.053148799            5 
 3742000   0.64524092   -3.5856685    2422.4969  0.053948353  0.053136595            4 
 3743000   0.64610401   -3.5655654    2424.2989   0.05397406  0.053124454            5 
 3744000   0.64815847   -3.5289216    2426.4921  0.054008461  0.053112336            6 
 3745000    0.6626799   -3.5745742    2428.7026  0.054043226  0.053100287            4 
 3746000    0.6555469    -3.571265    2423.0536  0.053903131  0.053088246            7 
 3747000   0.65076609   -3.5714378    2423.9923  0.053909623  0.053076129            5 
 3748000    0.6467701   -3.5690721    2421.4206   0.05383806  0.053064025            8 
 3749000   0.64435372   -3.5746249     2418.266  0.053753578  0.053051909            5 
 3750000   0.64426054   -3.5584198    2421.8046   0.05381788  0.053039792            5 
 3751000   0.64700112   -3.5669109    2423.0684  0.053831609   0.05302774            8 
 3752000   0.65148321   -3.5850896      2425.03   0.05386083  0.053015659            4 
 3753000   0.65285114   -3.5545607    2427.7927  0.053907822  0.053003542            7 
 3754000   0.64052121    -3.576893    2422.1436   0.05376806  0.052991398           10 
 3755000    0.6546554   -3.5679072    2422.0186  0.053750968  0.052979297            5 
 3756000   0.65196086   -3.5839295    2417.2121  0.053630016   0.05296716           13 
 3757000   0.64940454   -3.5982492    2415.6083  0.053580168  0.052954985           11 
 3758000   0.65316145   -3.5382606    2416.5928  0.053587742  0.052942842           18 
 3759000   0.65333679   -3.5598496    2422.8531  0.053712271  0.052930704            7 
 3760000   0.64760249   -3.5755649    2421.4145  0.053666102  0.052918568           10 
 3761000   0.65281951   -3.5613501    2424.3421  0.053716699  0.052906554            4 
 3762000   0.64303678   -3.5672445    2425.4298  0.053726515  0.052894473            4 
 3763000   0.64720187   -3.5594052     2421.282  0.053620383  0.052882455            8 
 3764000   0.65401915   -3.5679471    2425.2347  0.053693647  0.052870409            6 
 3765000   0.65511574   -3.5691095    2421.8933   0.05360543  0.052858349            8 
 3766000   0.64753181   -3.5798919    2430.8579  0.053789562  0.052846292            4 
 3767000   0.64341756    -3.591606    2422.0396  0.053580206  0.052834243            7 
 3768000   0.63585488   -3.5553979    2426.0182  0.053653976  0.052822212            4 
 3769000   0.65055712   -3.5489641    2432.6065  0.053785408  0.052810233            4 
 3770000    0.6432196   -3.5728454    2428.7119  0.053685055   0.05279828           15 
 3771000   0.64235078   -3.5726857    2432.3738  0.053751742  0.052786223           10 
 3772000    0.6563001   -3.5782354    2426.8504  0.053615464  0.052774236            9 
 3773000   0.64984473   -3.5498061    2420.9693  0.053471361  0.052762215           15 
 3774000    0.6523967   -3.5879147    2428.5261  0.053624052  0.052750178            8 
 3775000   0.63838893    -3.581999    2429.6503  0.053634666  0.052738147            5 
 3776000   0.64374521   -3.5904887     2417.004  0.053341366  0.052726118            7 
 3777000   0.66103105   -3.5882357    2430.3064  0.053620741  0.052714028            7 
 3778000   0.65345056   -3.5843689    2428.6714  0.053570482  0.052701961            9 
 3779000   0.63954796   -3.5992599    2427.9177  0.053539686  0.052689882            6 
 3780000   0.65917375   -3.5689842    2425.9191  0.053481461  0.052677821            4 
 3781000   0.65770923   -3.5811232    2430.7574  0.053573953  0.052665755            6 
 3782000   0.64937276    -3.578428    2431.4307  0.053574624  0.052653667           13 
 3783000   0.64792134   -3.6053976    2421.4699  0.053341041  0.052641552            6 
 3784000   0.65494956    -3.554509    2431.1132  0.053539315  0.052629456           18 
 3785000     0.648723   -3.5770798    2428.5758  0.053469304  0.052617422           10 
 3786000    0.6421995   -3.5709898    2428.3576  0.053450378  0.052605296            9 
 3787000   0.64565176   -3.6041347    2423.1418   0.05332149  0.052593168            5 
 3788000   0.65116742   -3.5795177    2423.3293  0.053311539  0.052581068            4 
 3789000    0.6468183   -3.5813252    2424.9609  0.053333354  0.052568967            6 
 3790000    0.6539809   -3.5784421    2426.4169  0.053351294  0.052556919            4 
 3791000   0.64492571   -3.5796466     2425.841  0.053324561  0.052544837            8 
 3792000    0.6306744   -3.5804677    2433.4534   0.05347779  0.052532818           10 
 3793000   0.63920029   -3.5703336    2433.4309  0.053463198  0.052520859            5 
 3794000   0.64757121   -3.5538643    2434.0089    0.0534618  0.052508924            4 
 3795000   0.64369435   -3.5657911     2427.807  0.053311529  0.052496928           12 
 3796000   0.64596781   -3.5896283    2424.0463  0.053214926   0.05248496           26 
 3797000   0.63491915   -3.5611101    2428.2859  0.053293958  0.052472831            7 
 3798000   0.64138521   -3.5734761    2430.9723  0.053338869  0.052460793            6 
 3799000   0.63676502   -3.5642384    2430.8949   0.05332313  0.052448808            4 
 3800000    0.6381263   -3.5717281    2430.8198  0.053307453  0.052436758            8 
 3801000   0.63285874   -3.5830929    2429.9007  0.053273276  0.052424786            6 
 3802000    0.6413905   -3.5648451     2438.529  0.053448381  0.052412889            8 
 3803000   0.64914772   -3.5617515    2433.0765  0.053314851  0.052401003            5 
 3804000   0.65835529   -3.5731699    2436.7574  0.053381471  0.052389075            6 
 3805000    0.6486572   -3.5702921    2435.8228  0.053346972  0.052377105           11 
 3806000   0.62634256   -3.5954136    2437.7068  0.053374207  0.052365179            4 
 3807000    0.6361105   -3.6083737    2430.0296  0.053192137  0.052353255            8 
 3808000   0.61678401   -3.5620295    2431.5234  0.053210859  0.052341299            8 
 3809000   0.65993391   -3.5827101    2431.9255  0.053205685  0.052329307            5 
 3810000   0.62925948   -3.5914617    2427.9852  0.053105538  0.052317345            4 
 3811000   0.65050105   -3.5771121    2430.0398  0.053136529  0.052305357            5 
 3812000   0.63011044   -3.5773329    2428.9213  0.053098139  0.052293336            5 
 3813000   0.62955043   -3.5938825    2426.1439  0.053023514  0.052281349           14 
 3814000   0.65209164   -3.5975052    2427.4105  0.053037286  0.052269307            9 
 3815000   0.64597439    -3.578562    2428.0695  0.053037779  0.052257325            9 
 3816000   0.65058941    -3.575972    2432.5122  0.053120899  0.052245352            8 
 3817000   0.63582559   -3.5812693    2431.3738  0.053082129  0.052233431            9 
 3818000   0.64876489     -3.60042    2433.9833  0.053125181  0.052221537            4 
 3819000   0.63947164    -3.592159    2431.5312  0.053057764  0.052209565            4 
 3820000   0.63095972   -3.5682295    2438.6728  0.053199669  0.052197568            9 
 3821000   0.63319534   -3.5863344    2436.2644   0.05313322  0.052185669           14 
 3822000   0.63001874   -3.5893241    2434.1229  0.053072625  0.052173687           13 
 3823000   0.64365055   -3.5772231     2436.205  0.053104129  0.052161777            5 
 3824000   0.64325129   -3.5986686    2429.6286  0.052946928  0.052149808            5 
 3825000   0.64556212   -3.5785353    2433.3165  0.053013432  0.052137897            5 
 3826000   0.64372087   -3.5912468    2429.4888  0.052916205  0.052125982            7 
 3827000   0.63810092   -3.5765288    2435.0453   0.05302337  0.052114072            6 
 3828000   0.63205932    -3.561189     2438.196  0.053078108  0.052102212            5 
 3829000   0.63140786   -3.5907485    2430.3042  0.052892491  0.052090289            9 
 3830000   0.65585483   -3.6063271    2441.6788   0.05312617  0.052078354            5 
 3831000    0.6338082   -3.6043749    2433.0185  0.052923921  0.052066395           10 
 3832000   0.63277309   -3.6134896    2428.0444   0.05280194  0.052054394            5 
 3833000    0.6421174   -3.5804614    2432.6948   0.05288927  0.052042418            7 
 3834000   0.63642903   -3.5732235    2432.6612  0.052874744  0.052030534            7 
 3835000   0.63055104   -3.5882846    2429.0782  0.052783099  0.052018584            8 
 3836000   0.63394357   -3.5821671    2431.7847  0.052828134  0.052006696            5 
 3837000   0.61615822   -3.5719464    2438.0326  0.052950061  0.051994818            5 
 3838000    0.6406671   -3.5914795    2432.1061  0.052807583  0.051982913            7 
 3839000   0.63717788   -3.5927765    2436.1808  0.052882279  0.051970983            9 
 3840000   0.62866987   -3.5971996    2429.4111  0.052721595  0.051959051            5 
 3841000   0.64683994   -3.5991854    2432.5868  0.052776768   0.05194712            7 
 3842000   0.62754468   -3.5965044    2433.0816  0.052773763  0.051935196            5 
 3843000   0.64465636   -3.5838392    2433.6372  0.052772079  0.051923303            9 
 3844000   0.62837482   -3.5976615    2430.4432  0.052689109  0.051911327            8 
 3845000   0.63990969   -3.6010926    2433.7047  0.052746092  0.051899329            5 
 3846000   0.63065754   -3.5891503    2436.3985  0.052790745  0.051887376            6 
 3847000   0.63052579   -3.5724095    2442.4553  0.052908226  0.051875398            5 
 3848000   0.63537856    -3.581719    2432.3756  0.052676187  0.051863408            5 
 3849000   0.63566256   -3.5974139    2433.0375  0.052676832  0.051851409            7 
 3850000   0.63616378   -3.5939924    2435.4541  0.052715456  0.051839547            7 
 3851000     0.640443   -3.5935096    2433.5003  0.052659488   0.05182755            7 
 3852000   0.63037474   -3.6000207    2440.5925   0.05279925  0.051815648            7 
 3853000    0.6415841   -3.6031181    2434.1099  0.052645339  0.051803759            4 
 3854000   0.62502921   -3.5842384    2431.3885  0.052572835  0.051791824            9 
 3855000    0.6389315   -3.6180908    2441.8486  0.052785313   0.05177992            7 
 3856000   0.64811993   -3.6077298    2437.4928   0.05267749  0.051767982           12 
 3857000   0.63785137   -3.6125542    2444.5959  0.052817299  0.051756135            7 
 3858000    0.6177677   -3.6235394    2434.7596  0.052591145  0.051744253           11 
 3859000   0.62669948   -3.5955477    2437.3558  0.052633579  0.051732314            6 
 3860000   0.62875727   -3.5814577    2433.3881  0.052534286  0.051720346            7 
 3861000   0.63391355   -3.5887016    2444.9153  0.052769475  0.051708538           10 
 3862000   0.63271066    -3.591675     2442.185  0.052696898  0.051696752           17 
 3863000    0.6300244   -3.5882554    2441.3189  0.052664572  0.051684916            4 
 3864000   0.63076229   -3.6154126    2443.1259  0.052689912  0.051673056            7 
 3865000   0.63166664   -3.6021548     2437.587  0.052556856  0.051661148            9 
 3866000   0.63257559    -3.597082    2436.4915  0.052519649  0.051649232            9 
 3867000   0.63843173   -3.6187324    2435.0222  0.052474403  0.051637331            8 
 3868000   0.63733844   -3.5798674    2435.0379  0.052461174  0.051625348            5 
 3869000   0.63219226   -3.6051312    2438.1436  0.052514508   0.05161344            7 
 3870000   0.62521758   -3.6225126    2437.6234  0.052489737  0.051601544           13 
 3871000   0.63254991    -3.604035      2438.85  0.052502583  0.051589593            5 
 3872000   0.63597331   -3.5997371      2433.13  0.052365918  0.051577663            4 
 3873000    0.6289882   -3.6165858    2436.5915  0.052426876  0.051565743            9 
 3874000   0.64319058   -3.6136591    2434.9863  0.052378814  0.051553818            5 
 3875000   0.62412783   -3.5833218    2442.9213  0.052535942  0.051541849            8 
 3876000    0.6187779   -3.5899462    2435.5405  0.052363702   0.05152996           10 
 3877000   0.61959819   -3.6018832    2439.3042  0.052431093  0.051518071            6 
 3878000   0.64430086   -3.5979364    2432.4383  0.052270033  0.051506156            9 
 3879000   0.63169343   -3.5849169    2436.6507  0.052347054  0.051494317            8 
 3880000   0.64678001    -3.589847    2440.1673  0.052409092  0.051482489            8 
 3881000   0.64826602   -3.6011048    2439.9695  0.052391341  0.051470661            7 
 3882000   0.63204472   -3.6017089    2441.1834  0.052403902  0.051458808            6 
 3883000    0.6308298   -3.6036374     2443.545  0.052441089  0.051446992            6 
 3884000   0.63348891   -3.6085707    2433.7898  0.052218284  0.051435136           11 
 3885000   0.62401734   -3.5945275    2444.1032  0.052426067  0.051423298            7 
 3886000   0.63327289    -3.608848     2440.445  0.052334127  0.051411537            5 
 3887000    0.6214977   -3.5784451    2444.1816  0.052400772  0.051399788            5 
 3888000   0.63439121   -3.5748291    2447.6747  0.052462164  0.051388056            3 
 3889000   0.61831868   -3.6007215    2444.2308  0.052374878  0.051376278            9 
 3890000   0.63811894   -3.5892407    2440.6461   0.05228462  0.051364527            4 
 3891000    0.6174305   -3.6193807    2434.9921  0.052150091  0.051352802            7 
 3892000   0.62677424    -3.613425    2437.5818  0.052192142  0.051341068            5 
 3893000   0.64050298   -3.6083256    2440.9505  0.052250846  0.051329338            8 
 3894000   0.62614294   -3.6180796    2446.1377  0.052348436  0.051317595            5 
 3895000   0.64076161    -3.618482    2436.4043   0.05212675  0.051305842           10 
 3896000   0.63307501   -3.5994989    2450.9639  0.052424792  0.051294127            4 
 3897000   0.62582206   -3.6031019    2442.7854  0.052236451  0.051282382            6 
 3898000   0.64476407   -3.5841003    2440.9207  0.052183185  0.051270715            6 
 3899000   0.62722961   -3.6056501    2444.4486  0.052245203  0.051259005           12 
 3900000    0.6309192   -3.5986417    2445.0338  0.052244312  0.051247298            6 
 3901000   0.63223447   -3.5979005    2439.7675   0.05211842  0.051235614           13 
 3902000   0.62743134   -3.5944625    2444.1776  0.052199249  0.051223979            5 
 3903000   0.63143065   -3.6132891    2445.3653  0.052211234  0.051212275           10 
 3904000   0.63726878   -3.6086146    2443.2633   0.05215299  0.051200532            8 
 3905000   0.63856049   -3.6118343    2448.3649  0.052248505  0.051188792            9 
 3906000    0.6250814    -3.620547    2447.6954  0.052220844  0.051177101           13 
 3907000    0.6334086   -3.5976917    2446.6236  0.052184617  0.051165351           14 
 3908000   0.62617482   -3.5911178    2449.7447  0.052237818  0.051153673           12 
 3909000   0.63938869   -3.6182781    2438.9535  0.051994404  0.051141992            7 
 3910000   0.63472996   -3.6101743    2441.9362  0.052044675  0.051130264            6 
 3911000   0.62525175   -3.6094385    2447.8144  0.052156618  0.051118529            9 
 3912000   0.63410956   -3.5997052    2444.6381  0.052075623  0.051106801            9 
 3913000    0.6289222   -3.6159488    2449.2692  0.052160943  0.051095163            8 
 3914000   0.61304354   -3.6184464    2442.2501  0.051998171   0.05108345            5 
 3915000   0.62912994    -3.616658    2448.2821  0.052113284  0.051071697            5 
 3916000   0.63041159   -3.6105557    2441.8246   0.05196256  0.051060007            6 
 3917000   0.63968233   -3.6064201    2448.5449  0.052092267  0.051048233            4 
 3918000   0.62754236   -3.6449512    2452.5481  0.052164115  0.051036476            3 
 3919000   0.61528158   -3.6189754    2436.8833  0.051817712   0.05102474           22 
 3920000    0.6388712   -3.6102716    2444.8668  0.051974209  0.051012995           15 
 3921000   0.62538184   -3.6045879    2446.7629  0.052001253  0.051001252           11 
 3922000   0.61932446   -3.6104292    2447.0896  0.051994934  0.050989607            6 
 3923000   0.63359145   -3.6108767      2454.54  0.052139943  0.050977999            7 
 3924000   0.62222271   -3.6182631    2451.3112  0.052058087    0.0509663           12 
 3925000   0.61958155   -3.6107664    2443.6362  0.051881872  0.050954587            5 
 3926000   0.63431159     -3.62962    2447.2718  0.051945827  0.050942882            9 
 3927000   0.62318324     -3.59808    2447.5505  0.051938514  0.050931202            5 
 3928000   0.62260032   -3.6196152    2443.3587  0.051836362  0.050919443            7 
 3929000   0.62805173   -3.6334334    2437.6442  0.051701964  0.050907719            4 
 3930000   0.62110901   -3.6213083     2450.128   0.05195352  0.050896002           11 
 3931000   0.62441978   -3.6210295    2449.7503  0.051932296  0.050884234            7 
 3932000      0.63458    -3.623573    2450.2897   0.05193052  0.050872487            7 
 3933000   0.62556393   -3.6182718    2442.8439  0.051759553  0.050860736            5 
 3934000   0.62570048   -3.6149424    2439.3031  0.051671393  0.050848948           11 
 3935000   0.61855849   -3.6139937     2445.236  0.051783905  0.050837194            5 
 3936000   0.61344001   -3.6054644     2447.191   0.05181214  0.050825522            6 
 3937000   0.63536839   -3.6230775    2451.1613  0.051883018  0.050813756            5 
 3938000   0.62640764   -3.6278232    2452.9298  0.051907267   0.05080194            7 
 3939000   0.60610104   -3.6106905    2450.1578  0.051835446   0.05079022            5 
 3940000   0.62257994   -3.6199062    2454.3598  0.051911162  0.050778541            7 
 3941000    0.6231153   -3.6467014    2450.2985  0.051812114  0.050766795           10 
 3942000   0.61604369   -3.6058017    2446.7466  0.051723884  0.050755085            6 
 3943000    0.6094439   -3.6204304     2454.067  0.051865478  0.050743421            5 
 3944000   0.62346909   -3.6033344    2456.7199  0.051908383  0.050731755           11 
 3945000   0.63075159   -3.6128028      2443.81  0.051622517  0.050720133            6 
 3946000    0.6128622   -3.6159236    2447.2428   0.05168193  0.050708522            8 
 3947000   0.61483769   -3.6216113    2446.8344  0.051660215  0.050696869           21 
 3948000   0.61613774   -3.6403842    2456.0108  0.051840822  0.050685295            7 
 3949000   0.62062334   -3.6369649    2454.6654  0.051799303  0.050673698           10 
 3950000    0.6201101   -3.6142994    2451.1214  0.051711421  0.050662156           17 
 3951000   0.61237626   -3.6121429    2453.2563  0.051743363   0.05065051            7 
 3952000   0.62616557   -3.6160289    2454.5306   0.05175714  0.050638895            4 
 3953000    0.6281427   -3.6269555    2451.9351  0.051689332  0.050627247            7 
 3954000   0.62162694   -3.6320361    2442.0375   0.05146766  0.050615546            5 
 3955000   0.62391116   -3.6153389    2445.6328    0.0515304  0.050603886            7 
 3956000   0.62065377   -3.6341175     2453.433  0.051681687  0.050592215           17 
 3957000   0.61957167    -3.626568    2451.6018   0.05163006  0.050580582            7 
 3958000   0.62836164   -3.6273692    2450.4497   0.05159276  0.050568929            5 
 3959000   0.62117409   -3.6499007    2448.5172  0.051539051  0.050557319            7 
 3960000    0.6129624   -3.6143917    2453.2231  0.051625065  0.050545679            6 
 3961000   0.61549956   -3.6349599    2455.4206  0.051658264  0.050534001            5 
 3962000   0.60647169   -3.6255642    2456.4926  0.051667772  0.050522304           12 
 3963000   0.62740558    -3.647644    2456.1971  0.051648523  0.050510596            5 
 3964000    0.6135516   -3.6413006    2450.1699  0.051508785   0.05049891            5 
 3965000   0.61963293   -3.6135084    2449.6696   0.05148528  0.050487257            7 
 3966000   0.60938807   -3.6290188    2451.2956  0.051506463  0.050475645            6 
 3967000   0.62015525   -3.6217142     2456.102  0.051594447  0.050464004            7 
 3968000   0.60827185   -3.6195533    2454.6092  0.051550093  0.050452387            9 
 3969000   0.61070763   -3.6161366    2445.5369  0.051346622  0.050440745           13 
 3970000   0.61150851   -3.6237168    2442.2809  0.051265342   0.05042902            9 
 3971000   0.61384141   -3.6138889    2452.8279  0.051473765  0.050417288           10 
 3972000   0.62363816   -3.6274659    2441.9486  0.051232558  0.050405528            9 
 3973000   0.63062863   -3.6141456    2443.7177  0.051256769  0.050393865            6 
 3974000   0.61532451   -3.6317495    2445.7348  0.051286168    0.0503821            5 
 3975000   0.60056977   -3.6315114    2448.5514  0.051332314  0.050370343           14 
 3976000   0.61442035   -3.6339367    2456.4009  0.051483922  0.050358601            8 
 3977000   0.61546887   -3.6462209    2453.7269  0.051414947  0.050346859           21 
 3978000   0.61017116    -3.635948    2454.3024  0.051414078  0.050335156            7 
 3979000    0.6070125   -3.6395971    2449.2795  0.051295959   0.05032348           10 
 3980000   0.61411628   -3.6107014    2454.1803  0.051385684  0.050311758            6 
 3981000   0.62075185    -3.648011    2443.5243  0.051149717  0.050300078           15 
 3982000   0.60957916   -3.6139809    2453.5187  0.051346031  0.050288324            5 
 3983000   0.61134603   -3.6238957    2453.4203  0.051331079  0.050276623            6 
 3984000   0.62048402   -3.6367985    2452.2076  0.051292829  0.050264922            5 
 3985000   0.61297591   -3.6415122    2441.9641  0.051065749  0.050253202            8 
 3986000   0.62606697   -3.6216132    2455.1634  0.051328889  0.050241467            7 
 3987000   0.61055988   -3.6311656    2448.3506  0.051173619  0.050229793           11 
 3988000   0.62415939   -3.6277809    2453.0389  0.051258753  0.050218066           17 
 3989000   0.62214242    -3.597611    2452.9199  0.051243417  0.050206353           14 
 3990000   0.60729143   -3.6140331    2445.3869  0.051073243  0.050194663            6 
 3991000   0.62490257   -3.6500302    2444.0498  0.051032527  0.050182968            7 
 3992000   0.61362675   -3.6483795      2457.19  0.051294047  0.050171212           11 
 3993000   0.61688515   -3.6297454    2453.7005  0.051208375  0.050159557            7 
 3994000   0.61452337   -3.6248534    2453.6283  0.051194048  0.050147929            4 
 3995000   0.60352308   -3.6514512    2453.7882  0.051184568  0.050136225            7 
 3996000   0.61432693   -3.6464472    2448.4836  0.051061136  0.050124584           13 
 3997000   0.61758888   -3.6338714    2453.2137  0.051146978  0.050112927           10 
 3998000   0.61397537   -3.6317924    2457.2899  0.051219149  0.050101309            8 
 3999000   0.62527156   -3.6276256    2460.1691  0.051266339  0.050089702            7 
 4000000   0.62244919   -3.6122267    2457.7284  0.051202675  0.050078086           14 
 4001000   0.60676245   -3.6203048     2455.903  0.051151858  0.050066442            4 
 4002000    0.6059298   -3.6337567    2448.3483  0.050981766  0.050054826            9 
 4003000   0.61683028    -3.628672    2448.7362  0.050977105   0.05004319           17 
 4004000   0.61104018   -3.6301848    2448.5363  0.050960212  0.050031517            7 
 4005000   0.58974517    -3.612143    2454.4236  0.051069987  0.050019811            6 
 4006000   0.60834455   -3.6430332    2451.7333  0.051001275  0.050008133           11 
 4007000   0.61094842   -3.6640685    2455.7268  0.051071601  0.049996444            9 
 4008000   0.60211011   -3.6483378    2449.7514  0.050934618  0.049984718            7 
 4009000   0.61980865   -3.6355041    2456.2177  0.051056326  0.049973092            7 
 4010000   0.59759759   -3.6303686    2455.8316  0.051035569  0.049961502            9 
 4011000   0.60497476   -3.6582399    2450.3003  0.050907926  0.049949869           10 
 4012000   0.61049695   -3.6379108    2455.3763  0.051000671  0.049938217            7 
 4013000   0.61421747   -3.6548016    2447.9707  0.050834179   0.04992654           15 
 4014000   0.61331858   -3.6456317     2446.856  0.050798372  0.049914817            5 
 4015000   0.62320452   -3.6377231    2449.5519  0.050841675  0.049903086           10 
 4016000    0.6121387   -3.6506877    2449.4812  0.050827548  0.049891299            8 
 4017000    0.6043671   -3.6473381    2453.2827  0.050893758  0.049879606            6 
 4018000   0.61878468   -3.6440071    2452.2626  0.050859935  0.049867887            5 
 4019000   0.61639154   -3.6589711    2451.3199  0.050827733  0.049856153           16 
 4020000     0.616065   -3.6523747    2451.2928  0.050814526  0.049844471            7 
 4021000   0.61065442   -3.6481711    2454.4463  0.050867245  0.049832821           19 
 4022000   0.60682539   -3.6359893    2450.6565  0.050776075  0.049821162            6 
 4023000   0.60474108   -3.6250828     2459.913  0.050955195  0.049809513            8 
 4024000   0.61994173    -3.656833    2456.1392  0.050864381  0.049797848            5 
 4025000   0.60389046    -3.634605    2459.6819  0.050925092  0.049786156            5 
 4026000   0.59068678   -3.6506636    2457.6737  0.050870875  0.049774462           14 
 4027000   0.60454104   -3.6596515     2450.853  0.050717096  0.049762712           13 
 4028000   0.61324276   -3.6575073    2448.3701  0.050653139  0.049751044            4 
 4029000   0.60468585   -3.6428994    2449.3543  0.050660923  0.049739311           10 
 4030000   0.60394278   -3.6661758    2447.5148  0.050610315  0.049727614            6 
 4031000    0.6068082   -3.6515086    2455.3534  0.050759806  0.049715945            4 
 4032000   0.61626645   -3.6541044    2455.1567  0.050743153  0.049704279            8 
 4033000   0.58982079   -3.6568548    2453.7686  0.050701888  0.049692589           26 
 4034000   0.60683867   -3.6565635    2460.3865  0.050826031  0.049680952           17 
 4035000   0.59066677    -3.638518    2457.8964  0.050762008  0.049669365           11 
 4036000   0.61308525   -3.6522082    2452.2432  0.050632706  0.049657699            8 
 4037000   0.60436181   -3.6476395    2457.1689  0.050721841  0.049645999           16 
 4038000   0.59390088   -3.6586915     2450.097  0.050563336  0.049634362            8 
 4039000   0.60893358   -3.6536989    2454.9848  0.050651662   0.04962274            8 
 4040000    0.6035889   -3.6321795    2456.6041  0.050672527  0.049611153            5 
 4041000   0.61224445   -3.6310047    2458.1333  0.050691523  0.049599543            6 
 4042000   0.61101777   -3.6337498    2461.1336  0.050740837  0.049588005           14 
 4043000   0.60852965   -3.6285864    2451.8173  0.050536261  0.049576407           14 
 4044000    0.6031471   -3.6531632    2458.6679  0.050664933  0.049564812           16 
 4045000   0.59857954   -3.6534254     2459.238  0.050664153  0.049553277           18 
 4046000   0.61662051   -3.6506696     2454.762   0.05055944  0.049541701           10 
 4047000   0.60503419   -3.6447077    2456.1764  0.050576072  0.049530083           15 
 4048000   0.61072796   -3.6302595    2458.9425  0.050620523  0.049518523           17 
 4049000   0.60769367   -3.6397424    2463.7304  0.050706561  0.049506992            9 
 4050000   0.59719519   -3.6218162    2461.6859  0.050651973  0.049495522            7 
 4051000   0.62316521   -3.6490163    2462.2716  0.050651519   0.04948403            7 
 4052000    0.5997149   -3.6560587    2465.4736  0.050704871  0.049472558            9 
 4053000   0.60023014   -3.6548117    2454.7565  0.050472006  0.049461042            5 
 4054000   0.61163106   -3.6615627    2455.0397  0.050465378  0.049449493           15 
 4055000   0.60141127   -3.6466022    2456.4187  0.050481271  0.049438043           20 
 4056000   0.60049331   -3.6525231    2455.6263  0.050452547  0.049426498            4 
 4057000   0.57489143   -3.6354848    2463.4856  0.050601545  0.049415051            5 
 4058000   0.60004059   -3.6425118    2457.1584  0.050459143  0.049403617           17 
 4059000   0.59255535   -3.6651544    2462.4739   0.05055584  0.049392103            6 
 4060000   0.59348037   -3.6545461    2454.9991  0.050389966    0.0493806            7 
 4061000   0.58959151   -3.6283391     2465.851  0.050600242  0.049369132           13 
 4062000   0.60951547   -3.6512212    2456.0056  0.050385804   0.04935774           12 
 4063000   0.61448671    -3.661875    2458.8575  0.050431896  0.049346244            9 
 4064000   0.60491227   -3.6579181    2460.7565  0.050458425  0.049334711            8 
 4065000   0.59464126   -3.6559295    2455.6346  0.050341013  0.049323135            4 
 4066000   0.60315349   -3.6425369    2455.8131   0.05033229  0.049311601            9 
 4067000   0.60699164   -3.6397976    2460.5608  0.050417195  0.049300123            8 
 4068000   0.59583413    -3.661648    2458.4542  0.050361649  0.049288609            9 
 4069000   0.60730227   -3.6692098    2455.8702  0.050296351  0.049277074            6 
 4070000    0.5988819   -3.6561214      2457.72  0.050321867  0.049265521            4 
 4071000   0.60494937   -3.6410708    2461.9625   0.05039635  0.049253983           24 
 4072000   0.60952176   -3.6575381    2465.3808  0.050453928  0.049242496           12 
 4073000   0.60835117   -3.6355967     2459.346   0.05031807  0.049231051           10 
 4074000   0.59868149   -3.6537425    2456.6989  0.050251573  0.049219482           17 
 4075000    0.5846054   -3.6575089    2456.6544  0.050238331  0.049207897           18 
 4076000   0.59185476   -3.6643133    2458.9268  0.050272465  0.049196402            9 
 4077000   0.59510848   -3.6725937     2455.003  0.050179932  0.049184924           12 
 4078000   0.61838924   -3.6532513    2461.1328  0.050292889  0.049173387            9 
 4079000   0.58593673   -3.6577473    2453.7043  0.050128795  0.049161867            7 
 4080000   0.60153243   -3.6646475    2460.3262  0.050251761  0.049150371            7 
 4081000    0.5917916   -3.6669827    2462.0127  0.050273884  0.049138864           11 
 4082000   0.59598921   -3.6699834    2460.3414  0.050227449  0.049127428            6 
 4083000   0.60472947   -3.6906183    2459.9541  0.050207244  0.049115889            6 
 4084000   0.59507538   -3.6399611    2459.7271  0.050190317   0.04910433           17 
 4085000   0.60125991   -3.6677503    2461.6585  0.050217432  0.049092819            3 
 4086000   0.59093744   -3.6613581    2464.7475  0.050268142  0.049081341           20 
 4087000   0.60499645   -3.6368315    2465.2452   0.05026599  0.049069856           16 
 4088000   0.61079243    -3.644868    2457.9479   0.05010494  0.049058376            7 
 4089000   0.59589782   -3.6514643    2463.8319  0.050212601  0.049046944            8 
 4090000   0.61118141   -3.6578593     2458.988  0.050101631  0.049035425            7 
 4091000   0.59774127   -3.6501233     2457.052  0.050049946  0.049023939           12 
 4092000   0.58668928   -3.6674814     2456.893  0.050034478  0.049012401            6 
 4093000   0.58578689   -3.6413521    2453.4929  0.049953027  0.049000907            8 
 4094000   0.60712504   -3.6531043    2462.3596  0.050121308  0.048989418            6 
 4095000   0.58173568   -3.6646444    2464.1624  0.050145756  0.048977893           13 
 4096000   0.58346733   -3.6566875    2458.5599  0.050019529  0.048966418            5 
 4097000   0.59678053   -3.6677985    2457.9003  0.049993904  0.048954923           11 
 4098000   0.60136662   -3.6723879    2463.7796  0.050101261  0.048943425            7 
 4099000   0.58687152   -3.6423569    2467.0006  0.050154521  0.048931932            5 
 4100000   0.59306716   -3.6649413    2467.0338  0.050142963  0.048920424            6 
 4101000    0.6023962   -3.6913775     2459.014  0.049967772  0.048908926            9 
 4102000   0.59779596   -3.6518838    2462.9525  0.050035603  0.048897485            7 
 4103000    0.5895017   -3.6960102    2465.0775  0.050066566  0.048885986            5 
 4104000   0.59065118   -3.6534896    2462.3687  0.049999365  0.048874484           10 
 4105000   0.58560462   -3.6694066    2457.3102  0.049884494   0.04886303            6 
 4106000   0.59989154   -3.6652806    2456.0762  0.049847301  0.048851591            8 
 4107000   0.58709919   -3.6618554    2459.0663  0.049895834  0.048840075            5 
 4108000   0.59655917   -3.6673753    2461.5232  0.049933527  0.048828583            6 
 4109000   0.58519194   -3.6730419    2463.5956  0.049963405  0.048817053           16 
 4110000    0.5947139   -3.6629662    2461.8686  0.049916233  0.048805577           12 
 4111000   0.59624266   -3.6622711    2457.9609  0.049824878  0.048794081            5 
 4112000   0.58145896   -3.6559632    2463.1689  0.049918306  0.048782593            6 
 4113000   0.59253847   -3.6778264    2458.4161  0.049809872  0.048771079            6 
 4114000   0.58920872   -3.6781699    2457.1895  0.049772919  0.048759554           11 
 4115000   0.59330036   -3.6606616    2464.1789  0.049902368  0.048747996            6 
 4116000   0.59338724   -3.6542753    2459.9261   0.04980414  0.048736532            6 
 4117000    0.5935351   -3.6676399    2465.3085  0.049900989  0.048725069            8 
 4118000   0.58980096   -3.6781788    2459.9682  0.049780803  0.048713637           10 
 4119000    0.6066124   -3.6655747    2467.0212   0.04991141   0.04870218            7 
 4120000   0.60305003   -3.6658302    2459.5207  0.049747587  0.048690709           21 
 4121000   0.60156345   -3.6856331     2464.906  0.049844415  0.048679211            8 
 4122000   0.59236892      -3.6632    2458.2392  0.049697541  0.048667756            6 
 4123000   0.59520824   -3.6784904    2460.6498  0.049734211  0.048656196            7 
 4124000   0.60322145   -3.6730562    2464.2332   0.04979456  0.048644746            8 
 4125000   0.60103453   -3.6817772    2461.4289  0.049725835  0.048633272            5 
 4126000   0.61213247   -3.6737365    2464.9716  0.049785337  0.048621799            8 
 4127000   0.59607604   -3.6737031    2458.2473  0.049637495  0.048610367           11 
 4128000   0.60190212     -3.68185    2461.5609  0.049692363  0.048598923            9 
 4129000   0.59324563   -3.6682552    2459.6423  0.049641605  0.048587474            7 
 4130000   0.61273131    -3.671852    2463.5929  0.049709301   0.04857595            4 
 4131000   0.59046987   -3.6798537    2462.0664  0.049666473  0.048564439           17 
 4132000     0.597683   -3.6882896    2459.1104  0.049594838  0.048552922            8 
 4133000   0.59411324   -3.6775439     2466.869  0.049739274  0.048541504            6 
 4134000   0.59428119   -3.6686814    2465.3656  0.049696936  0.048529952            9 
 4135000    0.5908389   -3.6647845    2469.2956   0.04976412  0.048518512           14 
 4136000   0.58838418   -3.6844878    2467.8238  0.049722434  0.048507063            4 
 4137000   0.59424231   -3.6776011    2463.6148  0.049625631  0.048495555            6 
 4138000   0.58702765   -3.6727454    2460.6851  0.049554637  0.048484124           13 
 4139000   0.60220606   -3.6632204    2468.5126  0.049700263  0.048472794           10 
 4140000   0.58965601   -3.6718457    2462.0198  0.049557564  0.048461404           19 
 4141000    0.5984749   -3.6789573    2464.8548  0.049602648   0.04845001           13 
 4142000    0.5899279   -3.6785214    2470.1893  0.049697998  0.048438619            5 
 4143000   0.58270989   -3.6708844    2468.7017   0.04965608  0.048427195            4 
 4144000   0.58560536   -3.6868801    2467.5807  0.049621555  0.048415786            7 
 4145000   0.58933018   -3.6848622    2469.9289  0.049656793  0.048404367            6 
 4146000   0.58421605   -3.6669201    2465.9449  0.049564739  0.048392991            8 
 4147000   0.58187261   -3.6619551     2468.273  0.049599569  0.048381676            5 
 4148000   0.60422451   -3.6931842    2465.6559  0.049535034  0.048370319            6 
 4149000   0.59266032   -3.6551395    2472.1758   0.04965405  0.048358954           17 
 4150000   0.57387714    -3.669729    2466.3372  0.049524844  0.048347619            7 
 4151000   0.59435439   -3.6644519    2467.0253  0.049526727  0.048336268           15 
 4152000   0.59991571   -3.6916505    2467.0761  0.049515817  0.048324852           19 
 4153000   0.59769973   -3.6767289    2469.2009  0.049546531  0.048313471           11 
 4154000   0.59640748    -3.658283    2469.7874   0.04954637  0.048302148            4 
 4155000   0.59558286   -3.6775514    2472.6065  0.049590984  0.048290835            8 
 4156000   0.59508221   -3.6720821    2466.3358  0.049453316  0.048279492           10 
 4157000   0.58217579   -3.6825659    2466.2015  0.049438728  0.048268162            5 
 4158000   0.60001114   -3.6718897    2469.9378   0.04950172  0.048256821           11 
 4159000   0.58737989   -3.6947434    2473.0084  0.049551342  0.048245503           14 
 4160000     0.586305    -3.696967    2462.9479  0.049337898  0.048234045           15 
 4161000    0.5929079   -3.6784256    2465.1609  0.049370361   0.04822263            8 
 4162000   0.59673237   -3.6773882    2469.5973  0.049447327  0.048211346            8 
 4163000   0.59848496    -3.667143    2464.7387  0.049338191  0.048199966            5 
 4164000   0.58528782   -3.6719827    2466.6536  0.049364665  0.048188576            8 
 4165000   0.57750236   -3.6532844    2460.9303    0.0492383  0.048177239            7 
 4166000   0.57763019   -3.6931302    2461.9186  0.049246252  0.048165831            8 
 4167000   0.59183004   -3.6776621    2461.9711  0.049235483  0.048154444           17 
 4168000   0.58796191   -3.6744479    2470.2743  0.049389682   0.04814308           13 
 4169000   0.58560128   -3.6833151    2465.5058  0.049282517  0.048131686           25 
 4170000   0.59144259   -3.6737415    2464.3804  0.049248209  0.048120265            6 
 4171000   0.58320685   -3.6897013    2458.8454  0.049125817  0.048108882           10 
 4172000   0.58506803   -3.6931149    2461.0943  0.049158962  0.048097431           13 
 4173000   0.59142954   -3.6900924    2463.0564  0.049186366  0.048086061           20 
 4174000   0.58491713   -3.6814517    2465.2258  0.049217893  0.048074601            6 
 4175000   0.58074767   -3.6857991      2463.81  0.049177844  0.048063202            7 
 4176000   0.58234721   -3.6939042    2465.2204  0.049194212  0.048051785            6 
 4177000   0.57101056   -3.6799828    2461.1168  0.049100567   0.04804033            5 
 4178000   0.57718534   -3.6923333    2465.9663   0.04918554  0.048028893            8 
 4179000   0.59496814   -3.6857404    2464.3147  0.049140836  0.048017587           11 
 4180000   0.58553065   -3.6719551    2463.3546   0.04910994  0.048006201            8 
 4181000   0.56449348   -3.6913804    2463.6964  0.049105008  0.047994875           12 
 4182000   0.57961405   -3.6812705    2471.8397  0.049255534  0.047983528            7 
 4183000   0.57716528   -3.7144493    2463.9673  0.049086926  0.047972178           10 
 4184000   0.57614769   -3.6933009    2473.2064   0.04925921  0.047960803            6 
 4185000   0.59144633   -3.6907321    2468.2904  0.049149549  0.047949484            8 
 4186000   0.59156517   -3.6943508    2468.9066  0.049150075  0.047938159            8 
 4187000   0.57974797   -3.6931625    2467.0554  0.049101493  0.047926823           10 
 4188000   0.57637767   -3.6881112    2469.1956  0.049132354  0.047915456            6 
 4189000    0.5764063   -3.6825173    2474.1363  0.049218912  0.047904107           25 
 4190000   0.58374133   -3.6875834    2466.4735  0.049054764  0.047892761           11 
 4191000   0.57626816   -3.6773382    2465.0324  0.049014403  0.047881477            4 
 4192000   0.58025574   -3.6974705    2470.5637  0.049112668  0.047870139            9 
 4193000    0.5959925   -3.6788419    2474.9552  0.049188234  0.047858853           13 
 4194000   0.58761902   -3.6995376    2472.7844  0.049133372  0.047847536            7 
 4195000   0.58553005   -3.6950717    2463.9868  0.048946897  0.047836229            8 
 4196000   0.58535508   -3.6775452    2471.9779  0.049093936  0.047824996            8 
 4197000   0.59353161   -3.7040289    2465.5466  0.048954544   0.04781367            9 
 4198000   0.57674468    -3.705457    2465.4139  0.048940247  0.047802327           12 
 4199000   0.58763862   -3.7017618    2468.1871  0.048983629  0.047791002            8 
 4200000   0.57858927   -3.7097524    2472.1032  0.049049666  0.047779699           12 
 4201000   0.59137781    -3.698893    2467.5796  0.048948259  0.047768378           10 
 4202000   0.57707419   -3.7066667    2463.7668  0.048860994  0.047757034            9 
 4203000   0.58502492   -3.7033375    2464.6731  0.048867339  0.047745701           12 
 4204000   0.60102187   -3.6984141    2462.5338  0.048813309  0.047734356           16 
 4205000   0.58686777   -3.6862107    2468.9504  0.048928863  0.047723005            6 
 4206000   0.57494359   -3.6973564    2471.9176  0.048976019  0.047711741            7 
 4207000   0.56549367   -3.6937817    2471.4621  0.048955355  0.047700428            6 
 4208000   0.57553978   -3.6696909    2473.2524  0.048979175  0.047689203            6 
 4209000   0.57624571   -3.6949062    2473.8643  0.048979652  0.047677993            7 
 4210000   0.58175638    -3.696993    2468.4876  0.048861592  0.047666732           18 
 4211000   0.58161432   -3.7149998    2468.6067  0.048852344  0.047655417            9 
 4212000   0.57659707   -3.6953586    2470.3678  0.048875589  0.047644165           14 
 4213000   0.57221897   -3.6954759    2471.7818  0.048891957  0.047632944           11 
 4214000   0.57872792   -3.6654209    2477.9796  0.049002919  0.047621714           11 
 4215000   0.56855774   -3.7176923     2472.233  0.048877679  0.047610458           13 
 4216000   0.57145015   -3.6979701    2470.9571  0.048840866   0.04759921           12 
 4217000   0.58824577   -3.7040161    2466.0737  0.048732781  0.047587929           21 
 4218000   0.57108781   -3.6986857    2467.3317  0.048746082  0.047576603           12 
 4219000   0.58803389   -3.6770553    2471.5397  0.048817645  0.047565347           25 
 4220000   0.58198937   -3.7153786    2474.9186  0.048872799  0.047554095            7 
 4221000   0.57319865   -3.7037771    2473.6033  0.048835254  0.047542812            5 
 4222000   0.57855187   -3.6785546    2476.2869  0.048876657  0.047531559           15 
 4223000   0.56991267   -3.6935514    2471.8216  0.048776968  0.047520385            8 
 4224000   0.57902307    -3.702476    2472.7252  0.048783246   0.04750918           10 
 4225000     0.577059   -3.6776907    2475.5314  0.048827049  0.047497901           23 
 4226000   0.57004543   -3.7126092    2468.4397  0.048675654  0.047486615           11 
 4227000   0.57255577   -3.6915414    2474.1801  0.048777306  0.047475353            7 
 4228000    0.5837182   -3.6748005    2465.2113  0.048588995  0.047464113           12 
 4229000   0.56730878   -3.6946881    2471.5133  0.048701689  0.047452919            9 
 4230000   0.57174604   -3.7015908    2473.5196    0.0487297  0.047441643           10 
 4231000   0.56043566    -3.690043    2483.0317  0.048905534  0.047430402            9 
 4232000    0.5770292    -3.690446    2472.9909  0.048696261  0.047419178            9 
 4233000   0.57602677   -3.6939545     2469.436  0.048614772   0.04740796           11 
 4234000   0.57464496    -3.683947    2463.1721  0.048480005  0.047396706           22 
 4235000   0.56019789   -3.7159539    2473.1987  0.048665855  0.047385498            5 
 4236000   0.56533945   -3.6987682    2472.9786  0.048650036  0.047374239           10 
 4237000   0.57169443   -3.6899965    2470.4783  0.048589376  0.047363011           19 
 4238000   0.57761266    -3.681403    2474.0104  0.048647365  0.047351832            7 
 4239000   0.57812842   -3.7081874    2471.5059  0.048586654  0.047340671           13 
 4240000   0.57268556   -3.6872286     2473.433   0.04861307   0.04732944           11 
 4241000   0.56849494    -3.684373    2472.1119  0.048575649   0.04731824            7 
 4242000   0.56686723   -3.7064944     2473.996  0.048601211  0.047307021           11 
 4243000   0.58025616   -3.6970816    2484.0487  0.048787193  0.047295814            9 
 4244000   0.57227517   -3.6923613    2480.2611  0.048701325   0.04728463            6 
 4245000    0.5718069    -3.718793    2480.0641  0.048685986  0.047273435            8 
 4246000   0.57041634   -3.7139723    2473.2647  0.048541072  0.047262263            9 
 4247000   0.56375257   -3.7105512    2476.1311  0.048585886  0.047251082           10 
 4248000   0.57032205   -3.7230494    2469.6719  0.048447738  0.047239939           23 
 4249000   0.57375543    -3.723267    2475.9597  0.048559655  0.047228732           14 
 4250000   0.56343267   -3.7006903     2473.501   0.04850002  0.047217516            9 
 4251000   0.56222015   -3.7147799     2478.467   0.04858596  0.047206327           13 
 4252000   0.57448713   -3.6940202     2472.014  0.048448063  0.047195097            9 
 4253000   0.56621134   -3.7086102    2473.2946  0.048461763  0.047183886           12 
 4254000   0.55149188   -3.7055946    2471.2058  0.048409454  0.047172705           15 
 4255000   0.56415051   -3.7296836    2477.8541  0.048528282   0.04716155           15 
 4256000   0.57300395    -3.681396    2480.6463  0.048571552    0.0471504           10 
 4257000   0.57456122   -3.7061709    2477.0975  0.048490673  0.047139352            8 
 4258000   0.56949145   -3.6982767    2476.3628  0.048464906  0.047128244           14 
 4259000   0.58024603     -3.70516    2468.3592  0.048296925  0.047117123           13 
 4260000   0.57265739   -3.7220644    2474.9899  0.048415295  0.047105938            6 
 4261000   0.56056769   -3.7388395    2477.6289  0.048455544  0.047094756            5 
 4262000   0.58004598   -3.7072832    2474.4806  0.048382618  0.047083567           13 
 4263000   0.56073218   -3.7244465    2477.9732  0.048439541   0.04707246            9 
 4264000   0.57370626   -3.7209725    2474.6036  0.048362327  0.047061319            9 
 4265000   0.57212144   -3.7009939     2471.864   0.04829746  0.047050215            9 
 4266000   0.56490658   -3.6982905    2479.8743  0.048442615  0.047039105           21 
 4267000   0.55959237   -3.7206552    2470.4531  0.048247269  0.047027998           17 
 4268000   0.57270942   -3.7080914    2467.8657  0.048185443  0.047016842           22 
 4269000   0.57282827   -3.7101791    2485.0247   0.04850911   0.04700565            3 
 4270000   0.56424589   -3.7311839    2475.5461  0.048312765  0.046994524            5 
 4271000   0.55152529   -3.7056345     2475.904  0.048308436  0.046983407           12 
 4272000    0.5678326   -3.7107119    2474.9395  0.048278315  0.046972341           11 
 4273000    0.5666017   -3.6988931    2477.4708  0.048316381  0.046961262            8 
 4274000   0.57174346    -3.703093    2466.9811  0.048100552  0.046950175            8 
 4275000   0.57348931   -3.7187273    2475.1706   0.04824894  0.046939069           13 
 4276000   0.55984666   -3.7055265    2472.9065  0.048193531  0.046927944           13 
 4277000   0.58934988   -3.7323069    2473.4923  0.048193678  0.046916861           14 
 4278000   0.56917694   -3.7158945    2473.2285  0.048177273  0.046905742           10 
 4279000   0.56693328   -3.7144373    2477.3693  0.048246656   0.04689473           10 
 4280000   0.56413543   -3.7072918    2474.2108  0.048173886  0.046883652           15 
 4281000    0.5542631   -3.7127927    2480.1804  0.048278837   0.04687262           15 
 4282000    0.5696676   -3.7060469    2482.4255  0.048311254  0.046861577            7 
 4283000   0.56750631   -3.7007165    2479.5071  0.048243192  0.046850486            7 
 4284000   0.56113853   -3.7092194    2475.3027  0.048150145  0.046839375           12 
 4285000   0.56184847   -3.7108987     2479.206  0.048214818  0.046828269           10 
 4286000   0.56452794   -3.7306478    2477.9779  0.048179692   0.04681712           10 
 4287000   0.56465996   -3.7392148     2475.028  0.048111112  0.046805955            4 
 4288000   0.57157325   -3.7399107     2472.421  0.048049226  0.046794779           23 
 4289000   0.57576667      -3.7161    2474.3145  0.048074813  0.046783657            8 
 4290000   0.56956196   -3.7233972    2474.6802   0.04807071  0.046772566           12 
 4291000   0.57388398   -3.7130223    2474.5083  0.048056171  0.046761462           10 
 4292000   0.59052136   -3.7253601    2475.3729   0.04806176  0.046750342            4 
 4293000   0.56324292   -3.6931279    2476.8059  0.048078381  0.046739267           14 
 4294000    0.5447432   -3.7294847    2471.4797  0.047963819  0.046728118            7 
 4295000   0.56712831   -3.7126387    2482.7736   0.04817178  0.046716999           20 
 4296000   0.56887125   -3.7286139     2473.711  0.047984772  0.046705902           19 
 4297000   0.56731666   -3.7325887    2483.2325  0.048158261  0.046694794            5 
 4298000    0.5566447   -3.7322976    2477.6023  0.048037892  0.046683628           17 
 4299000   0.56419209   -3.7167436     2476.688  0.048008994  0.046672472           12 
 4300000   0.56710118   -3.7238873     2479.125  0.048045058  0.046661376            6 
 4301000   0.55778336   -3.7237504    2483.5026  0.048118705  0.046650323           14 
 4302000   0.55605172   -3.7302181    2478.8169  0.048016755  0.046639135            8 
 4303000   0.55824682   -3.7352227    2465.0179  0.047738358   0.04662795            8 
 4304000   0.56851209   -3.7279531    2477.2281  0.047963679  0.046616791            6 
 4305000   0.55511425   -3.7423319    2476.0059   0.04792888   0.04660563           11 
 4306000   0.56524819   -3.7291323    2478.6633  0.047969177  0.046594515            7 
 4307000   0.56760779   -3.7319353    2478.9497   0.04796358   0.04658339            7 
 4308000   0.57082808   -3.7069258    2475.8461  0.047892412  0.046572231           11 
 4309000   0.56250161   -3.7184126    2472.4031  0.047814712   0.04656109           22 
 4310000   0.55641824   -3.7141838    2469.4541    0.0477466  0.046549944           35 
 4311000   0.55939036   -3.7376129    2477.4618  0.047890315  0.046538781           18 
 4312000   0.54952057   -3.7411194    2468.4116  0.047704307  0.046527629            8 
 4313000    0.5675659   -3.7403305    2474.8198  0.047817061  0.046516431            8 
 4314000   0.56487125   -3.7234758    2474.7455  0.047804542  0.046505263           12 
 4315000   0.56385432   -3.7290257    2479.6074  0.047887359  0.046494189            4 
 4316000   0.55846908    -3.692658    2477.8983  0.047843263  0.046483123            8 
 4317000   0.56487035   -3.7109598    2475.4158  0.047784259  0.046472033           17 
 4318000   0.56807936   -3.7261128    2470.7211   0.04768259  0.046460991            6 
 4319000   0.56478294   -3.7199792    2476.2187  0.047777625  0.046449893           10 
 4320000   0.55394178   -3.7321583    2474.3036  0.047729623  0.046438792           12 
 4321000   0.57345741   -3.7462774    2469.6347  0.047628533   0.04642767           15 
 4322000   0.55260535   -3.7227523    2476.6986  0.047753713  0.046416587            7 
 4323000    0.5572678     -3.71299    2477.0788  0.047749997  0.046405527            8 
 4324000   0.56427209   -3.7331432    2477.4819  0.047746721  0.046394451            9 
 4325000    0.5569376   -3.7542323    2470.2669  0.047596665  0.046383314           17 
 4326000   0.55634881   -3.7566749    2476.7418   0.04771039  0.046372224           10 
 4327000   0.55638411   -3.7225005    2478.3318  0.047729986  0.046361153            8 
 4328000   0.55204243    -3.730352    2478.6756  0.047725577  0.046350125            9 
 4329000   0.56516957   -3.7382143    2481.8964  0.047776554  0.046339047            9 
 4330000   0.55347445   -3.7344837    2483.4846  0.047796085  0.046327961           10 
 4331000   0.54954049   -3.7335374    2478.5768  0.047690619  0.046316914            7 
 4332000   0.54958415   -3.7160493    2481.1043  0.047728231  0.046305884           16 
 4333000   0.56376313   -3.7301243    2480.2977  0.047701702  0.046294836            6 
 4334000   0.56205558   -3.7346516    2478.1182  0.047648789  0.046283811            8 
 4335000   0.56709339   -3.7328983    2478.6747  0.047648495  0.046272792           23 
 4336000   0.55947262   -3.7381488    2483.8146  0.047736289  0.046261795           10 
 4337000   0.56626999   -3.7524747     2479.109  0.047634867  0.046250789           17 
 4338000   0.55499538   -3.7233675    2478.8542  0.047618991  0.046239803            6 
 4339000   0.56542024   -3.7206532    2482.0553  0.047669495  0.046228865           12 
 4340000   0.55608611   -3.7397194     2483.794  0.047691897  0.046217931            4 
 4341000   0.56050482    -3.738756    2480.7618  0.047622702  0.046206977            5 
 4342000   0.57115519   -3.7306532    2478.7329  0.047572794  0.046196039           15 
 4343000   0.55485243   -3.7502994    2482.0146  0.047624809  0.046185108           18 
 4344000   0.54943496   -3.7270889    2485.6451  0.047683493  0.046174159            6 
 4345000    0.5597977   -3.7431345    2480.0771  0.047565729  0.046163204           11 
 4346000    0.5600859   -3.7451491    2484.0477  0.047630919  0.046152206            5 
 4347000   0.55211557   -3.7375818    2478.7616  0.047518626  0.046141271            9 
 4348000   0.56689942   -3.7454829    2484.8542  0.047624467  0.046130295           10 
 4349000   0.56662408   -3.7359486    2481.9619  0.047558097   0.04611936            8 
 4350000   0.55965978   -3.7437272    2478.8825  0.047488171  0.046108424           24 
 4351000   0.56834191   -3.7250754    2479.5802   0.04749062  0.046097523            7 
 4352000    0.5634842   -3.7436967    2479.2506  0.047473395  0.046086557           13 
 4353000   0.56222881   -3.7378086    2474.8715  0.047378657  0.046075615            9 
 4354000   0.55346922   -3.7324575    2474.6923  0.047364346  0.046064611           10 
 4355000   0.55242668    -3.747665    2482.5067  0.047502998  0.046053622           17 
 4356000   0.55432499    -3.757785    2477.6333  0.047398862   0.04604263           10 
 4357000   0.55634078   -3.7471651    2476.1609  0.047359822  0.046031612           21 
 4358000   0.54934107   -3.7557685    2477.4506  0.047373616  0.046020633           10 
 4359000   0.54677682   -3.7468548    2480.7572  0.047425962  0.046009683           12 
 4360000   0.55229707   -3.7301083    2482.5054  0.047448497    0.0459987            5 
 4361000   0.55719259   -3.7426035    2480.4899  0.047399104  0.045987772            9 
 4362000   0.56187112   -3.7321234    2482.2124  0.047421144  0.045976893           19 
 4363000   0.55835049   -3.7404014     2477.086  0.047312362  0.045966054           21 
 4364000   0.55925632   -3.7652737    2484.5234  0.047443542  0.045955113            8 
 4365000   0.56013646    -3.749632    2479.2637  0.047332259  0.045944191           15 
 4366000   0.55149877   -3.7331501    2476.0555  0.047260182  0.045933231           17 
 4367000   0.55310604   -3.7423569    2480.1712  0.047327899  0.045922331            9 
 4368000   0.54807225   -3.7345861    2485.7504  0.047423503  0.045911404            7 
 4369000   0.56219946   -3.7305686    2486.8503  0.047433628    0.0459005           11 
 4370000   0.54115275   -3.7459754     2475.762  0.047211327  0.045889563            5 
 4371000    0.5508874   -3.7448025    2487.8419  0.047430831  0.045878672            8 
 4372000   0.56718977   -3.7327407    2484.3346  0.047353129  0.045867789           11 
 4373000   0.55894271   -3.7377586    2479.3478   0.04724727  0.045856925            9 
 4374000   0.55123768   -3.7361483    2482.7605  0.047301488   0.04584603           14 
 4375000   0.54756996   -3.7385696    2483.3823   0.04730252  0.045835198            9 
 4376000   0.53613923   -3.7372366    2485.0251  0.047322994  0.045824346           10 
 4377000   0.55124951    -3.734455    2488.4122  0.047376669  0.045813501            9 
 4378000   0.56394454   -3.7420824    2479.6956  0.047199932  0.045802618           13 
 4379000   0.54382969   -3.7549204    2484.3334  0.047277411  0.045791762           25 
 4380000   0.56550726   -3.7505321     2486.034  0.047298972  0.045780917           12 
 4381000    0.5596381    -3.747689    2487.8318  0.047322372  0.045770064           16 
 4382000   0.54447948   -3.7454549    2484.2221  0.047242928  0.045759234            8 
 4383000   0.54356794   -3.7582843    2490.4691  0.047350922  0.045748404            7 
 4384000   0.55267893   -3.7410688    2490.0973  0.047333054  0.045737608            6 
 4385000   0.53922866   -3.7493574    2479.3916  0.047118807  0.045726759           11 
 4386000   0.55055901   -3.7388605    2481.6593  0.047151149  0.045715895           12 
 4387000   0.54139068   -3.7585014    2483.0357  0.047166548  0.045705024           14 
 4388000    0.5405221   -3.7511172    2491.8574  0.047323333  0.045694163            7 
 4389000   0.53633847   -3.7532517    2474.9079  0.046990732  0.045683322           12 
 4390000   0.54717433   -3.7559806    2484.0041  0.047152697  0.045672467            8 
 4391000    0.5422932   -3.7554429     2488.398  0.047225348  0.045661673           11 
 4392000   0.55561422   -3.7616149    2489.4206  0.047233997  0.045650899            8 
 4393000   0.55423442   -3.7542454    2482.0457  0.047083346  0.045640125           10 
 4394000   0.54952158   -3.7598627    2480.5984  0.047045183  0.045629393           15 
 4395000   0.54694157   -3.7575543    2485.2048   0.04712182  0.045618581           20 
 4396000   0.55184704   -3.7424972    2488.2403  0.047168643  0.045607804           10 
 4397000   0.55011474   -3.7665488    2489.5694  0.047183106  0.045597053           12 
 4398000   0.55787004    -3.749624    2491.7572  0.047213833  0.045586363           11 
 4399000   0.55345074   -3.7482821    2484.9356  0.047073873  0.045575649           10 
 4400000   0.55653783   -3.7525792    2488.2361  0.047125683  0.045564906            8 
 4401000   0.54854841   -3.7521136    2490.3886  0.047155734  0.045554151           13 
 4402000   0.54526454   -3.7588909    2484.3879  0.047031423  0.045543365           17 
 4403000   0.55362623   -3.7474699    2492.1194  0.047167072  0.045532605           14 
 4404000   0.54797393   -3.7623213    2489.5852   0.04710841  0.045521875           16 
 4405000   0.54961621    -3.755722    2492.1661   0.04714654  0.045511114           11 
 4406000   0.54495079   -3.7463382    2482.9139  0.046960847  0.045500317            8 
 4407000   0.53737805   -3.7417607    2486.1793  0.047011938  0.045489566            6 
 4408000   0.55085417   -3.7567655    2487.6933  0.047029895  0.045478826           10 
 4409000     0.549413   -3.7487916    2492.8548  0.047116783  0.045468053            7 
 4410000   0.55058736   -3.7652332    2487.5668  0.047006176  0.045457263           14 
 4411000   0.54811587   -3.7752772    2480.5393  0.046862755  0.045446473           19 
 4412000   0.55383148    -3.741812    2489.7538  0.047026175  0.045435712           13 
 4413000   0.54428777   -3.7601692    2484.2843  0.046912234  0.045424922           26 
 4414000   0.54978419   -3.7603116    2485.6405  0.046927211  0.045414108           81 
 4415000   0.54467822   -3.7580333    2489.0292  0.046980543  0.045403315           32 
 4416000   0.54447186   -3.7568544    2482.4711  0.046846149  0.045392561           18 
 4417000    0.5447069   -3.7586257    2490.9835  0.046996141  0.045381809           13 
 4418000   0.53685809   -3.7379297     2487.769  0.046924872  0.045371094           11 
 4419000    0.5401525   -3.7397593    2486.5987  0.046892183   0.04536036           10 
 4420000   0.53804054   -3.7632116    2483.2722  0.046818857  0.045349632           18 
 4421000   0.54962901   -3.7620197    2483.6059  0.046814558  0.045338837            6 
 4422000   0.54663114   -3.7460522    2485.2014  0.046834038  0.045328025           15 
 4423000   0.53432653   -3.7668231    2488.8976  0.046893089  0.045317296           18 
 4424000   0.53835193   -3.7632374    2489.3996  0.046891945  0.045306551           25 
 4425000   0.54203569   -3.7600574    2488.5159  0.046864706  0.045295783           14 
 4426000    0.5472451   -3.7737556    2490.1055  0.046884047  0.045285008           15 
 4427000   0.54961795   -3.7568541    2486.9406   0.04681388  0.045274241           10 
 4428000   0.54776683   -3.7629054    2490.1428  0.046863573   0.04526347            9 
 4429000   0.55974763   -3.7605304    2490.3481  0.046856854  0.045252693            7 
 4430000   0.54967131    -3.766175    2486.6494  0.046776701  0.045241936           11 
 4431000   0.55044283   -3.7624263    2492.0435  0.046867591  0.045231165           16 
 4432000   0.53464555   -3.7340161    2490.6577  0.046830959  0.045220451            9 
 4433000   0.54948575   -3.7539346    2485.3058  0.046719788  0.045209756            6 
 4434000   0.54546737   -3.7583946    2488.9097  0.046776984  0.045199005            6 
 4435000   0.54421178   -3.7450936    2482.8185  0.046651982  0.045188249           17 
 4436000   0.55602128   -3.7555252    2490.3002  0.046782014   0.04517747           12 
 4437000   0.53488147   -3.7534368    2484.6911  0.046666125  0.045166699           18 
 4438000   0.54825024   -3.7662801    2484.2637  0.046647583   0.04515587           21 
 4439000   0.53645495    -3.754862    2490.0534  0.046745765  0.045145031           24 
 4440000   0.54514158   -3.7715206     2489.322  0.046721509  0.045134209           19 
 4441000    0.5337783   -3.7572893    2481.7821  0.046569505  0.045123422           13 
 4442000   0.53808335   -3.7657009    2480.9148  0.046542751  0.045112608           10 
 4443000   0.54907375   -3.7628383    2484.9573  0.046608097  0.045101807           16 
 4444000   0.54146957   -3.7759475    2479.2336   0.04649028  0.045091032            7 
 4445000   0.53109209   -3.7626413    2483.0427  0.046551232  0.045080243           10 
 4446000   0.54528082   -3.7716543    2482.6511  0.046533421  0.045069449            8 
 4447000   0.53757376    -3.759577    2481.5202  0.046501766  0.045058666           14 
 4448000    0.5448653   -3.7683093    2485.1324  0.046558985  0.045047897           16 
 4449000   0.54741803   -3.7800598    2483.1299  0.046511013  0.045037076            8 
 4450000   0.53526874   -3.7672031    2485.6099  0.046547002  0.045026302            8 
 4451000   0.52522318   -3.7577535    2489.2295  0.046604312  0.045015594           16 
 4452000   0.53901464     -3.77409    2490.3102  0.046614072  0.045004835           19 
 4453000   0.54481099   -3.7654865    2487.7538  0.046555764  0.044994092            9 
 4454000   0.54105274   -3.7638325    2492.3926  0.046632103  0.044983358            9 
 4455000   0.54080458   -3.7571542    2488.4496  0.046547878  0.044972653           15 
 4456000   0.53277667   -3.7833603    2484.3962  0.046461628  0.044961931            8 
 4457000   0.52119006   -3.7775217    2494.7886  0.046645512  0.044951257           23 
 4458000   0.53647706   -3.7559942    2491.1165  0.046566407  0.044940609           24 
 4459000   0.53576775   -3.7596119    2481.3549   0.04637353  0.044929942            4 
 4460000   0.53890971   -3.7583672    2491.9548  0.046561189  0.044919267           12 
 4461000    0.5378015   -3.7645257    2487.0366  0.046458878   0.04490853           20 
 4462000   0.53557254   -3.7780923    2492.1912  0.046544733  0.044897813           12 
 4463000   0.53156302     -3.77652    2492.3626  0.046537505  0.044887092           12 
 4464000   0.54422042   -3.7732148    2491.6831  0.046514395  0.044876361           13 
 4465000    0.5485982   -3.7621473    2488.3423  0.046441625  0.044865663           20 
 4466000    0.5458797     -3.77091    2490.4236  0.046470063   0.04485495            8 
 4467000    0.5342025   -3.7671727    2485.4969   0.04636775  0.044844201            8 
 4468000   0.53166826   -3.7576592    2491.4184  0.046467816  0.044833531           14 
 4469000   0.53923846   -3.7714046    2487.2397  0.046379498  0.044822798           29 
 4470000   0.53987485   -3.7639637    2485.8829  0.046343827  0.044812106           11 
 4471000   0.53008465   -3.7680895    2485.4681  0.046325731  0.044801367            9 
 4472000   0.54737804   -3.7649164    2491.1016  0.046420348  0.044790667           11 
 4473000   0.52567362   -3.7707051    2488.3276   0.04635829  0.044780005           12 
 4474000    0.5357906   -3.7777226    2488.8245  0.046357184  0.044769294           17 
 4475000   0.52909577   -3.7799544    2496.0061   0.04648056  0.044758554           15 
 4476000   0.52437583   -3.7859515    2486.1637  0.046286933   0.04474785           10 
 4477000   0.53587549   -3.7696288    2491.2574  0.046371405  0.044737193            9 
 4478000   0.53769442   -3.7717453    2490.6992  0.046350662   0.04472651           14 
 4479000   0.52867813   -3.7519067     2483.497  0.046206315  0.044715786            4 
 4480000   0.53190198   -3.7809682    2485.2597  0.046228788  0.044705084           35 
 4481000   0.54231905   -3.7802468    2490.2145  0.046310616  0.044694343           46 
 4482000   0.53034349   -3.7705667    2485.8986  0.046220039  0.044683658           10 
 4483000   0.53801254   -3.7808877    2488.8441  0.046264483  0.044672951           11 
 4484000   0.54108272   -3.7647874    2485.7812  0.046197241  0.044662245           12 
 4485000    0.5383033   -3.7664691     2484.736  0.046167522  0.044651571           12 
 4486000   0.53049998   -3.7579465    2487.7798  0.046213773  0.044640909           19 
 4487000   0.53793015   -3.7795171    2487.6881   0.04620177  0.044630187           11 
 4488000    0.5395727    -3.757881    2490.1806  0.046237757  0.044619507           20 
 4489000   0.52358543   -3.7584951    2490.1921  0.046227669  0.044608842            8 
 4490000   0.52789986   -3.7950613    2489.1725  0.046198451  0.044598195            6 
 4491000   0.52583723   -3.7809522    2495.0906  0.046297977  0.044587535            7 
 4492000   0.54118598   -3.7782135    2490.0722  0.046194571  0.044576885            6 
 4493000   0.53362222   -3.7576233    2491.0127  0.046201734  0.044566234           10 
 4494000   0.53552935   -3.7979501     2487.215  0.046121032  0.044555573           12 
 4495000   0.53406724   -3.7759307    2489.2286  0.046148102  0.044544912           12 
 4496000    0.5326303   -3.7766247    2491.6208  0.046182178   0.04453425           32 
 4497000   0.53866563   -3.7696259    2491.1729  0.046163607  0.044523602           11 
 4498000   0.51850067   -3.7785591    2484.6794  0.046033041  0.044512921           13 
 4499000    0.5314384   -3.7762247    2496.6036  0.046243676  0.044502269            8 
 4500000   0.54280921   -3.7823361    2489.7638  0.046106736  0.044491628           16 
 4501000   0.53300399   -3.7807674      2490.32  0.046106791  0.044481024            6 
 4502000   0.52935045   -3.7921286     2488.081  0.046055106  0.044470372           19 
 4503000   0.52815806   -3.7877864    2484.1567  0.045972253  0.044459702           11 
 4504000   0.53258046   -3.7787843    2483.7315   0.04595418  0.044449056           10 
 4505000   0.54006361   -3.7816812    2483.2213  0.045934542  0.044438329           11 
 4506000   0.53293021   -3.7706369    2485.9808  0.045975382  0.044427623            8 
 4507000   0.53890121   -3.8122351    2488.8223  0.046017718  0.044416929           18 
 4508000   0.53080675   -3.7678276     2492.636   0.04607801   0.04440626            7 
 4509000    0.5279244   -3.7943731    2487.2172  0.045967642  0.044395644           12 
 4510000   0.52091707   -3.7765712    2486.3565  0.045941546  0.044385025           17 
 4511000   0.52682645   -3.8127584    2482.7727  0.045865158  0.044374352           11 
 4512000   0.53995401   -3.7884643    2487.3393  0.045939333  0.044363696           11 
 4513000   0.53528318   -3.7879645    2485.9365  0.045903251  0.044353066           12 
 4514000   0.54075975   -3.7924494    2485.1299  0.045878191  0.044342439            8 
 4515000   0.52391743   -3.7899805    2485.6356  0.045877365  0.044331829           21 
 4516000   0.53864182   -3.7816521    2495.5128  0.046049469  0.044321211           14 
 4517000   0.52601499   -3.7849545    2495.3875  0.046036961  0.044310625            8 
 4518000   0.52395398   -3.7823176    2495.7732  0.046033886  0.044300011            9 
 4519000    0.5230168   -3.7923762    2487.8091  0.045876836  0.044289383           15 
 4520000   0.54189318   -3.7861309    2489.6887   0.04590134  0.044278757            6 
 4521000   0.52502581   -3.7740642    2479.7547   0.04570808  0.044268147           10 
 4522000    0.5379207    -3.779712    2494.7921  0.045975087  0.044257587           18 
 4523000   0.53121422   -3.7863026     2485.082   0.04578602  0.044247025           10 
 4524000   0.53618137   -3.7939745    2492.0742  0.045904697  0.044236488           19 
 4525000   0.53818733   -3.7999548    2491.3552  0.045881311  0.044225911           16 
 4526000   0.52274099   -3.7842417    2486.6288  0.045784151  0.044215336           11 
 4527000   0.52738996   -3.7924118    2492.6063  0.045884072  0.044204751            8 
 4528000   0.52029971   -3.7894264    2493.7848  0.045895628  0.044194172           23 
 4529000   0.52284279   -3.7858852    2494.0503  0.045890379  0.044183624           15 
 4530000   0.52733389    -3.795311    2493.6212  0.045872355   0.04417302           14 
 4531000   0.52637471   -3.8071434    2492.0243   0.04583286  0.044162444           21 
 4532000   0.52839236   -3.7868032    2494.8905  0.045875451  0.044151867           14 
 4533000   0.51916537   -3.7954035    2486.3635  0.045708573  0.044141282           16 
 4534000   0.52544666   -3.7983969    2487.6067   0.04572134   0.04413068            8 
 4535000   0.52902913   -3.8100114    2490.2946  0.045760651  0.044120044           20 
 4536000   0.53537211    -3.791265    2489.2099  0.045730634  0.044109447           18 
 4537000   0.53188369   -3.7804265    2488.8882  0.045714646  0.044098904           12 
 4538000   0.51718042   -3.7982152     2492.491  0.045770733  0.044088339            9 
 4539000   0.53026935   -3.7841851    2497.0784   0.04584487   0.04407779           15 
 4540000   0.52821447   -3.8015996    2490.2351  0.045709161  0.044067258           17 
 4541000   0.53577625   -3.8019546    2493.6241  0.045761287  0.044056731           10 
 4542000   0.52057655   -3.7920102    2491.2799  0.045708203  0.044046191           41 
 4543000   0.51782816   -3.7966155    2492.4371  0.045719368  0.044035686           15 
 4544000   0.52642048   -3.7939444    2487.5138  0.045619017  0.044025148           22 
 4545000   0.53542143   -3.7994131    2488.9753  0.045635777  0.044014573           22 
 4546000   0.53386546   -3.7944161    2492.1635  0.045684182  0.044004029           13 
 4547000    0.5315075   -3.7916517    2490.5389  0.045644361    0.0439935           38 
 4548000   0.52895823    -3.797267    2492.1572  0.045663977   0.04398299           10 
 4549000   0.52350695   -3.7873766    2489.2614  0.045600891  0.043972486           18 
 4550000   0.52115614   -3.7883225    2491.7594  0.045636619  0.043961999           11 
 4551000   0.51920667   -3.7992112    2488.9121  0.045574455  0.043951483           11 
 4552000   0.52123131   -3.7712561    2490.7109  0.045597372  0.043940947            9 
 4553000   0.51313782   -3.7897128    2490.7091  0.045587326  0.043930388           28 
 4554000   0.52110363   -3.8058891    2488.6337  0.045539337  0.043919883           13 
 4555000     0.530461   -3.8034343    2491.1266  0.045574946  0.043909353           32 
 4556000   0.51923255   -3.7927179    2497.1333  0.045674811  0.043898804           11 
 4557000   0.51968406   -3.7858647    2492.8475  0.045586415  0.043888271           23 
 4558000   0.52005521   -3.8002145     2495.469  0.045624343  0.043877764           19 
 4559000   0.52261553   -3.7941721    2497.1976  0.045645932  0.043867253           17 
 4560000   0.51816566   -3.7871783    2488.1264  0.045470147   0.04385667            8 
 4561000   0.52308389   -3.7818824    2493.3599  0.045555798  0.043846212           15 
 4562000   0.52403444   -3.8044661    2491.8696  0.045518588  0.043835723           16 
 4563000   0.50908909   -3.8123871    2494.6069  0.045558603  0.043825215           20 
 4564000   0.51378511   -3.8200625    2491.4958  0.045491816  0.043814659           23 
 4565000   0.52464251   -3.8092809    2491.7057  0.045485683  0.043804127           11 
 4566000   0.52202879   -3.8145367    2492.8235  0.045496121  0.043793589           15 
 4567000   0.52970384   -3.8084142    2492.9994   0.04548937  0.043783088           15 
 4568000   0.52002818   -3.8026775    2503.8968  0.045678211  0.043772644           16 
 4569000   0.52996904   -3.7861477    2499.4251  0.045586654  0.043762226            8 
 4570000   0.51286453    -3.802447     2492.107  0.045443234   0.04375174           11 
 4571000   0.52639159   -3.7942519    2492.2561  0.045436012   0.04374125            7 
 4572000   0.52145122   -3.8081292    2487.8416   0.04534561  0.043730752           13 
 4573000   0.51787813   -3.7786758    2501.8362  0.045590718  0.043720271           10 
 4574000   0.52015688   -3.8011737    2486.1848  0.045295598  0.043709768           24 
 4575000    0.5270821    -3.807225    2492.5595  0.045401812  0.043699233           16 
 4576000   0.50942962   -3.8046827    2489.3105  0.045332723   0.04368871           10 
 4577000   0.51972964   -3.7838336    2497.2883  0.045468071  0.043678196           19 
 4578000   0.51728545   -3.8065467      2495.62  0.045427771  0.043667718           10 
 4579000   0.52224404   -3.8104874    2490.5257  0.045325139  0.043657218           14 
 4580000   0.52808746   -3.8117633    2492.4077  0.045349485  0.043646724           19 
 4581000   0.52222667   -3.8020877    2488.4786  0.045268111  0.043636232           20 
 4582000   0.51747977   -3.8127089    2490.3646  0.045292533  0.043625748           29 
 4583000   0.51293941   -3.8206456    2492.4477  0.045320528  0.043615289           30 
 4584000   0.52274189   -3.8334506    2488.3456  0.045236067  0.043604805           18 
 4585000   0.51124979   -3.7859592    2490.6876  0.045268768  0.043594321           21 
 4586000   0.52301663   -3.8165015    2497.0295  0.045374137  0.043583832           21 
 4587000   0.51905184   -3.7702203    2494.3408  0.045315398  0.043573338           11 
 4588000   0.52269201   -3.8073421    2489.5676  0.045218824   0.04356287           17 
 4589000   0.51847842    -3.794439     2493.124  0.045273553  0.043552424            8 
 4590000   0.52601091    -3.795403    2487.7397  0.045165934  0.043541912           12 
 4591000   0.52388935   -3.7966695    2491.5741  0.045225697  0.043531441           11 
 4592000   0.51748506   -3.7943037    2489.5781  0.045179626  0.043521005           10 
 4593000   0.51077683   -3.8085422    2490.4382  0.045185394  0.043510532           11 
 4594000   0.52084408   -3.7840556    2495.0104  0.045258496  0.043500059           16 
 4595000   0.51268564   -3.8079083    2487.7535  0.045117039  0.043489582           13 
 4596000   0.52849711   -3.8237774    2486.9411  0.045092492   0.04347908           11 
 4597000   0.51659077   -3.8038963    2493.0876  0.045194105  0.043468607           12 
 4598000   0.50737145   -3.7932213    2493.6166  0.045193864  0.043458118            8 
 4599000   0.51578014   -3.8160228    2494.4743  0.045199577   0.04344767           15 
 4600000   0.51658852   -3.8054873    2489.7151  0.045103534  0.043437192           35 
 4601000   0.51412201   -3.8100305    2483.1799  0.044975367  0.043426646           16 
 4602000   0.51583571   -3.8302198    2489.3632  0.045077561  0.043416111           22 
 4603000   0.51915647   -3.8074959    2496.4514  0.045196093  0.043405575           23 
 4604000   0.50875523   -3.8034944    2497.0242  0.045196644  0.043395107           21 
 4605000   0.50605631   -3.8044478    2490.2142  0.045063594   0.04338464            7 
 4606000   0.50955567   -3.8050361     2491.935  0.045084943  0.043374181            9 
 4607000   0.51978698   -3.8256881     2497.478  0.045175422  0.043363726           16 
 4608000   0.51494381   -3.8106654    2493.9754  0.045102275  0.043353245           20 
 4609000    0.5029471   -3.8121752    2494.7633  0.045106736  0.043342758           19 
 4610000   0.51304353   -3.8225883      2492.67  0.045059111  0.043332277           10 
 4611000   0.51503205   -3.8154128    2492.5107   0.04504646  0.043321793           14 
 4612000   0.51716396    -3.826415    2496.5473  0.045109628  0.043311352           21 
 4613000   0.51589017   -3.7988572    2498.2721  0.045131008  0.043300917           14 
 4614000   0.50937759   -3.8131228    2487.6656  0.044929663  0.043290456            9 
 4615000   0.52661916   -3.8080002    2487.7641  0.044921707   0.04327993           26 
 4616000   0.50952133    -3.826749    2487.7303  0.044911364  0.043269399           14 
 4617000   0.50431915   -3.8055271    2492.0001  0.044978704   0.04325891           20 
 4618000   0.51768504   -3.8027703    2490.1596  0.044935751  0.043248418           17 
 4619000    0.5051007   -3.8172233    2490.3867   0.04493012  0.043237942           16 
 4620000   0.50813253   -3.8221357    2494.9121  0.045002022   0.04322742           14 
 4621000   0.51492468    -3.822117    2489.7016  0.044898319  0.043216928            6 
 4622000   0.51171441   -3.8226162    2488.2147  0.044861796  0.043206461            5 
 4623000   0.50986876   -3.8165896    2486.0256  0.044812632  0.043195949           15 
 4624000   0.51508885   -3.8254611    2486.6396  0.044814006  0.043185459            9 
 4625000   0.51252058     -3.80257    2490.5263  0.044874347  0.043174969           17 
 4626000   0.50954546    -3.810695    2486.0515  0.044784038  0.043164486           25 
 4627000    0.5103789    -3.810176    2488.6792  0.044821684  0.043154038           13 
 4628000   0.51884395    -3.816814    2493.4403  0.044897729  0.043143606           20 
 4629000   0.51276209   -3.8217096    2488.7087   0.04480285  0.043133196           12 
 4630000   0.51070603   -3.7908712    2494.9911  0.044906248  0.043122803           13 
 4631000   0.50358158    -3.787173    2492.2448  0.044847131  0.043112368           20 
 4632000    0.5062203   -3.8036736    2488.2886  0.044766275  0.043101928           13 
 4633000   0.51170973   -3.8151072    2489.1497    0.0447721   0.04309149            9 
 4634000    0.5134983   -3.8165271    2490.9981  0.044795678  0.043081051           20 
 4635000   0.50886856   -3.8166994    2483.5003  0.044651211  0.043070585            7 
 4636000    0.5097157   -3.8061163    2487.0185  0.044704819  0.043060132           11 
 4637000   0.50987018   -3.8062287    2489.1919  0.044734237  0.043049702           10 
 4638000   0.51659276   -3.8280832    2494.2267  0.044815055  0.043039238           24 
 4639000   0.50734589   -3.8229279    2492.3175  0.044771098  0.043028836           13 
 4640000   0.52076959    -3.813107    2493.1492  0.044776386  0.043018413           20 
 4641000   0.51079647   -3.8284718    2492.2308  0.044750249  0.043007975            8 
 4642000   0.52003863   -3.8251888    2483.7811  0.044588918  0.042997543           16 
 4643000   0.50855056   -3.8110911    2488.4513  0.044663136  0.042987106           19 
 4644000   0.50415998   -3.8090292    2488.1657  0.044648394  0.042976668           20 
 4645000   0.50854209   -3.8159525    2493.9025  0.044741703  0.042966287           15 
 4646000   0.50688683   -3.8496398    2493.4157  0.044723341  0.042955851           10 
 4647000   0.50680209   -3.8328856    2492.4098  0.044695678  0.042945433           14 
 4648000   0.49860213   -3.8354171    2490.6244  0.044654052   0.04293502           11 
 4649000   0.50565426   -3.8060292    2485.9617  0.044560868  0.042924588           18 
 4650000   0.50658962   -3.8130941    2489.4133  0.044613141  0.042914193           12 
 4651000   0.50483853   -3.8377793    2487.3166  0.044565982  0.042903752            8 
 4652000   0.50364932   -3.8297028    2486.9261  0.044549407  0.042893326           17 
 4653000   0.50460381   -3.8132711    2486.6229  0.044534403  0.042882861           19 
 4654000   0.50811615   -3.8413212    2483.9399  0.044476793  0.042872407           22 
 4655000   0.50369314   -3.8165487     2491.004  0.044593699  0.042861946           19 
 4656000   0.50619558    -3.842369    2495.7146  0.044668431  0.042851523           22 
 4657000   0.51586093   -3.8162272    2489.6267  0.044549901  0.042841069           18 
 4658000   0.51313947   -3.8269725     2492.327  0.044588647  0.042830664           10 
 4659000   0.51605867   -3.8316471      2486.57  0.044476104  0.042820255           22 
 4660000   0.49810888    -3.813947    2486.9241  0.044472891   0.04280983           19 
 4661000   0.50582035   -3.8190023    2489.8497  0.044515656   0.04279948           17 
 4662000    0.4976477   -3.8276148    2493.4526  0.044570509  0.042789108           20 
 4663000   0.50583106   -3.8396602    2490.1966  0.044502762  0.042778709           35 
 4664000   0.50418338    -3.809384    2488.9718  0.044471338   0.04276832           45 
 4665000   0.51203939    -3.828724    2485.7417  0.044404103  0.042757963           21 
 4666000   0.50101549   -3.8272482    2496.8872  0.044593641  0.042747549           11 
 4667000   0.50649708   -3.8313003    2492.6358  0.044508174  0.042737171           17 
 4668000   0.50071202   -3.8262146    2495.3352  0.044546829  0.042726799           18 
 4669000   0.50173932   -3.8465773    2493.3299  0.044501498  0.042716395            5 
 4670000   0.50332949   -3.8375269    2495.1698    0.0445248  0.042706001           11 
 4671000   0.50320066   -3.8381144    2493.3738  0.044483226  0.042695596           21 
 4672000   0.50605369   -3.8270399    2488.5703  0.044388027  0.042685218           38 
 4673000   0.49275613   -3.8252921    2494.5205  0.044484637  0.042674868           31 
 4674000   0.50943196   -3.8192139    2495.5818  0.044494042  0.042664537           23 
 4675000   0.50373622   -3.8381563    2489.8519  0.044382386  0.042654178           10 
 4676000    0.4931441   -3.8438992    2493.4303  0.044436667  0.042643789           12 
 4677000    0.5149842   -3.8401172    2491.1361   0.04438629  0.042633409           16 
 4678000   0.50120092   -3.8265609    2488.6863   0.04433316  0.042623046           19 
 4679000   0.50323262   -3.8319543    2494.3966  0.044425387  0.042612679           43 
 4680000    0.5001708   -3.8280694    2489.2879  0.044324927  0.042602334           18 
 4681000   0.50401721   -3.8525701    2495.4077  0.044424406  0.042592011           10 
 4682000    0.4933737   -3.8252026    2495.9962  0.044425392  0.042581651           20 
 4683000   0.49493272   -3.8335108    2487.5479  0.044265569  0.042571314           20 
 4684000   0.50981527   -3.8488578    2492.6959  0.044347706  0.042560943            8 
 4685000   0.50630102   -3.8279157    2493.8041  0.044357953  0.042550581           10 
 4686000    0.5115102   -3.8369687      2493.18  0.044337388  0.042540209           15 
 4687000   0.49858112    -3.833962      2497.32  0.044401536  0.042529906           22 
 4688000   0.50617376   -3.8342782    2493.5059  0.044324265  0.042519574           11 
 4689000   0.50464409   -3.8421462    2492.9608  0.044305125  0.042509285            6 
 4690000   0.51147832   -3.8215851    2493.3402   0.04430242  0.042498993           11 
 4691000   0.51010019   -3.8364242    2493.4631  0.044295159  0.042488694           13 
 4692000   0.50264319   -3.8289253    2493.6799  0.044289569  0.042478379           21 
 4693000   0.48554975   -3.8335489    2493.3379   0.04427406   0.04246808           17 
 4694000   0.50554696   -3.8430547     2493.613   0.04426951  0.042457753           26 
 4695000   0.49675856   -3.8219865    2487.9466  0.044159507  0.042447481           14 
 4696000   0.49896324   -3.8066706    2493.4955  0.044248571  0.042437233           19 
 4697000   0.50245041   -3.8315815     2494.772  0.044261798  0.042426951           13 
 4698000   0.49932732   -3.8496704     2488.312  0.044137789  0.042416602           15 
 4699000   0.50425593   -3.8417485    2490.7256    0.0441712  0.042406254           13 
 4700000   0.49724899   -3.8469093    2491.5894  0.044177117  0.042395913            6 
 4701000   0.49422601   -3.8558734    2490.5344  0.044149018  0.042385602           19 
 4702000    0.5019016   -3.8362157    2494.7331  0.044214041  0.042375304           11 
 4703000   0.49700421   -3.8353765    2494.7367  0.044204704  0.042365006           16 
 4704000   0.51170688   -3.8332399    2494.3292  0.044188087  0.042354696           22 
 4705000   0.49598732   -3.8212192     2491.476  0.044128161  0.042344419           14 
 4706000   0.49175847   -3.8367126    2493.3228  0.044151488  0.042334143           16 
 4707000   0.50013603   -3.8371528    2492.4004  0.044125778   0.04232388           18 
 4708000   0.50060705   -3.8253103    2496.1612  0.044182972  0.042313626           18 
 4709000    0.4995653   -3.8341768    2491.6282  0.044093371   0.04230335           17 
 4710000    0.5054359   -3.8427241    2493.4277  0.044115847   0.04229308           20 
 4711000   0.51006145   -3.8516324    2491.1923  0.044066941   0.04228279           19 
 4712000   0.51210125   -3.8442177    2489.6561  0.044030421  0.042272468           12 
 4713000   0.49896643   -3.8320867    2495.1011  0.044117355  0.042262194           28 
 4714000   0.50130183   -3.8442556    2499.3901  0.044183817  0.042251913           14 
 4715000   0.50483368    -3.850156    2490.9723  0.044025668  0.042241607           10 
 4716000   0.50205408   -3.8404947    2498.1548  0.044143249  0.042231306           12 
 4717000    0.5042565   -3.8608117     2494.147  0.044063087  0.042221055           25 
 4718000   0.49758604   -3.8469138    2490.8626  0.043995736  0.042210782           12 
 4719000   0.50526807    -3.852369    2489.1188  0.043955619  0.042200469           25 
 4720000   0.50633231    -3.851273    2490.4023  0.043968968  0.042190176           18 
 4721000   0.50294158    -3.851279    2487.6713  0.043911448  0.042179874           27 
 4722000   0.50321843   -3.8439882    2495.4893  0.044040119  0.042169594           18 
 4723000   0.49027966    -3.850156     2489.087   0.04391783  0.042159308           15 
 4724000   0.49917774   -3.8624845    2488.3588  0.043895689  0.042148981           30 
 4725000   0.49874559   -3.8580462     2490.334  0.043921234  0.042138655           20 
 4726000   0.49705837   -3.8469827    2490.8162  0.043920444   0.04212836           10 
 4727000    0.4895942   -3.8320429    2485.5025  0.043817476   0.04211808           27 
 4728000    0.4952782   -3.8267546    2490.7797  0.043901222  0.042107847           18 
 4729000   0.49844588   -3.8419623    2488.3571  0.043849248  0.042097592           11 
 4730000   0.49185196   -3.8379764    2487.5273  0.043825358  0.042087309           43 
 4731000   0.49259279   -3.8266329    2495.4857  0.043956276  0.042077031            9 
 4732000    0.4859794   -3.8407926    2497.1706  0.043976658  0.042066772           27 
 4733000   0.49833923   -3.8666455    2494.2525  0.043915989  0.042056517            9 
 4734000     0.492169   -3.8357786    2490.7078  0.043844315  0.042046214           11 
 4735000   0.49737171   -3.8549712    2494.7572  0.043906322  0.042035936           29 
 4736000   0.49841029   -3.8384779    2489.6518  0.043807217  0.042025678           27 
 4737000    0.4918969   -3.8412365    2495.8514  0.043907033  0.042015449           19 
 4738000   0.48346623   -3.8370271    2499.2925  0.043958289   0.04200525           15 
 4739000   0.48748379   -3.8422652    2490.4271   0.04379312  0.041995027           11 
 4740000   0.49124757   -3.8369976    2492.0705  0.043812773  0.041984821           13 
 4741000   0.49279068   -3.8521487     2491.727  0.043797494  0.041974566           18 
 4742000   0.49470559   -3.8555874    2489.6361  0.043751514  0.041964302           24 
 4743000   0.50176667   -3.8580375    2495.8728  0.043851866  0.041954008           26 
 4744000   0.48862942   -3.8448974    2494.5381  0.043819176  0.041943711           16 
 4745000   0.49136753   -3.8330913    2495.4675  0.043826264  0.041933447            9 
 4746000   0.48266658   -3.8510738    2486.3868  0.043657585  0.041923208           18 
 4747000   0.48277677   -3.8638132    2491.7212  0.043742034  0.041912922           28 
 4748000   0.49007239   -3.8514751    2490.7568  0.043715895  0.041902646           23 
 4749000   0.49837163   -3.8608326    2486.8324  0.043637826  0.041892371           13 
 4750000   0.49893752   -3.8694878    2487.1491  0.043634194  0.041882081           10 
 4751000    0.4951112   -3.8470904    2488.9635  0.043656835  0.041871775           28 
 4752000    0.4907382   -3.8324577    2490.5446  0.043675375  0.041861507           11 
 4753000   0.50034434   -3.8536966    2484.9912  0.043568819  0.041851224           14 
 4754000   0.49966533   -3.8516207    2487.0765  0.043596209  0.041840959           10 
 4755000   0.49079378   -3.8400264    2490.0044  0.043638352  0.041830753           23 
 4756000   0.48875975   -3.8447251    2496.3907  0.043741077   0.04182053           33 
 4757000   0.48505173   -3.8576672    2493.8758  0.043687825   0.04181034           17 
 4758000   0.49483729   -3.8645919    2492.0526  0.043646711  0.041800108           12 
 4759000    0.4883842   -3.8409835    2493.7629  0.043667488  0.041789868           27 
 4760000     0.482532   -3.8574669    2491.3274  0.043615676  0.041779654           19 
 4761000    0.4942606   -3.8586087    2487.7263  0.043543483  0.041769412           16 
 4762000   0.48759972   -3.8351751    2488.0618  0.043540211  0.041759168            8 
 4763000   0.48413489   -3.8512317    2484.9445  0.043476529  0.041748887           20 
 4764000   0.48854708   -3.8506932    2489.1429  0.043540842  0.041738611           18 
 4765000   0.49057759     -3.86883    2487.5943  0.043504623  0.041728346           39 
 4766000   0.47448718   -3.8383827     2488.644  0.043513848  0.041718073           25 
 4767000   0.49426451   -3.8839259    2487.2248   0.04347991  0.041707799           39 
 4768000   0.49033463   -3.8564808    2486.3917   0.04345623  0.041697531           11 
 4769000   0.49108085   -3.8647043     2482.471  0.043378608  0.041687261           23 
 4770000   0.48795321   -3.8674855     2488.636  0.043477218  0.041676996           19 
 4771000    0.4811497   -3.8639991    2488.7077  0.043469359  0.041666712           13 
 4772000   0.49378306   -3.8563581    2489.5811    0.0434755  0.041656462            7 
 4773000   0.48739105   -3.8582685    2490.2857  0.043478694  0.041646188           14 
 4774000   0.48513957   -3.8456669    2495.1761  0.043554952  0.041635979           24 
 4775000   0.48846789   -3.8643011      2490.04  0.043456196  0.041625705           24 
 4776000   0.49225717    -3.853004    2485.2645  0.043363772   0.04161547           18 
 4777000   0.49262792   -3.8590422    2491.9218  0.043470829  0.041605206           22 
 4778000   0.49005533   -3.8615431    2493.5974  0.043490955  0.041594957           24 
 4779000   0.48413428   -3.8368376    2490.2054  0.043422708  0.041584681           10 
 4780000   0.48909032   -3.8692588    2493.8896  0.043477851  0.041574438           22 
 4781000   0.49314904   -3.8433597    2489.2302  0.043387544    0.0415642           13 
 4782000    0.4862163   -3.8618669     2484.078  0.043288687  0.041553946           18 
 4783000   0.49612495   -3.8572911    2485.4141  0.043302915  0.041543675           16 
 4784000   0.48295961   -3.8530001    2494.7697   0.04345683  0.041533447            9 
 4785000   0.48951493   -3.8739039    2488.4361  0.043337445  0.041523175           17 
 4786000    0.4797754   -3.8670812    2491.1762  0.043376101  0.041512895            9 
 4787000   0.48240424   -3.8580281    2487.1995  0.043297812  0.041502579           42 
 4788000     0.496468   -3.8718395    2485.9902  0.043267721  0.041492289           14 
 4789000   0.49041228   -3.8705727    2484.3923  0.043230881  0.041481977           15 
 4790000   0.48270076   -3.8658509    2487.8725  0.043282403  0.041471705           29 
 4791000   0.48998958   -3.8816642    2491.5716   0.04333771  0.041461385           18 
 4792000   0.49394619   -3.8884981     2485.947  0.043230853  0.041451069           13 
 4793000   0.49679509   -3.8652782    2484.7236  0.043200563  0.041440747           16 
 4794000   0.47959014   -3.8743909     2481.775  0.043140296  0.041430427           21 
 4795000   0.49542464   -3.8692063    2484.5185   0.04317898  0.041420129           22 
 4796000   0.47970917   -3.8631328    2488.5587  0.043240178  0.041409868           15 
 4797000   0.48201187   -3.8587308    2486.1425  0.043189189  0.041399626            8 
 4798000   0.48183041   -3.8639023    2488.0673  0.043213618  0.041389409           11 
 4799000   0.47936617   -3.8565726    2487.2263   0.04319001  0.041379148           17 
 4800000   0.48761448   -3.8814651    2482.9503  0.043106776   0.04136883           12 
 4801000   0.49003287    -3.878644    2482.2196  0.043085115  0.041358512           10 
 4802000    0.4747217   -3.8812453    2486.9792  0.043158739  0.041348201           37 
 4803000   0.47671832   -3.8461633    2485.5539  0.043125025  0.041337925           14 
 4804000   0.48234182   -3.8618746    2483.1639   0.04307459  0.041327646            9 
 4805000   0.49659191   -3.8673297    2479.0722  0.042994661  0.041317347            9 
 4806000   0.47360855   -3.8664703    2482.6036  0.043046948  0.041307065           14 
 4807000   0.48828937   -3.8656156    2480.2096  0.042996491  0.041296766           10 
 4808000   0.48939494    -3.880879    2484.9837  0.043070295  0.041286438           20 
 4809000   0.47610778    -3.875645     2487.309  0.043101632  0.041276179           75 
 4810000   0.48710007   -3.8732981    2488.4864   0.04311307  0.041265905           29 
 4811000   0.48689758   -3.8566505    2484.5928  0.043036666   0.04125566           24 
 4812000    0.4874298   -3.8829549    2481.9721  0.042982337  0.041245393           35 
 4813000    0.4811779   -3.8843141    2483.9815  0.043008199  0.041235113           24 
 4814000   0.46984913   -3.8686902    2482.4914   0.04297347  0.041224804           15 
 4815000    0.4746633   -3.8706047    2482.2288      0.04296  0.041214496           18 
 4816000   0.47803702   -3.8814178     2483.729  0.042977038  0.041204193           14 
 4817000    0.4863392   -3.8819283    2481.0136  0.042921141  0.041193873           23 
 4818000   0.48330595   -3.8761127    2485.0439  0.042981941  0.041183591           16 
 4819000   0.48917577   -3.8526828     2488.607  0.043034637  0.041173332           24 
 4820000   0.47683552   -3.8685764    2488.4778  0.043023474  0.041163106           48 
 4821000   0.48543354   -3.8742538    2481.8628  0.042900208   0.04115285           13 
 4822000   0.47223552   -3.8785131    2490.8368  0.043046399    0.0411426           11 
 4823000   0.48508169   -3.8644825    2486.7634  0.042967093  0.041132364           29 
 4824000   0.47436291   -3.8682933     2486.721  0.042957452  0.041122143           23 
 4825000   0.47546084   -3.8688268    2488.7753   0.04298403  0.041111921           17 
 4826000   0.48092198   -3.8643087    2485.3413  0.042915826  0.041101702           20 
 4827000   0.48244264   -3.8835462    2483.2302  0.042870489  0.041091422           30 
 4828000   0.47091938   -3.8646672    2480.8682   0.04282084  0.041081143            9 
 4829000   0.47112296   -3.8975351    2480.7949  0.042810708  0.041070852           11 
 4830000   0.48286934   -3.8822795    2484.6635   0.04286859  0.041060569           23 
 4831000   0.47460064   -3.8787766    2484.1459  0.042850788  0.041050291           23 
 4832000   0.48982968   -3.8809202    2481.0521  0.042788565   0.04104002           17 
 4833000   0.47679827   -3.8743118    2479.0004  0.042744334  0.041029751           25 
 4834000   0.48360259   -3.8677945    2482.3132  0.042792601  0.041019489           21 
 4835000   0.47740031   -3.8680637    2483.4121  0.042802691  0.041009229           13 
 4836000    0.4789081   -3.8978386    2479.5781  0.042727773  0.040998944           59 
 4837000   0.47836145   -3.8737556    2483.6485  0.042789066  0.040988667           13 
 4838000   0.48741202    -3.868769    2482.2484  0.042756104  0.040978395           10 
 4839000   0.47376703   -3.8877491     2477.585   0.04266696  0.040968126            7 
 4840000   0.47671491   -3.8700827    2482.6421  0.042745216  0.040957862           13 
 4841000   0.47121041   -3.8914497    2478.8715  0.042671478  0.040947601           15 
 4842000    0.4766216   -3.8801328    2483.3572  0.042739866  0.040937327           15 
 4843000   0.47394101   -3.8795742    2484.6798  0.042753799  0.040927047           20 
 4844000   0.46920078   -3.8687524    2482.4894   0.04270729  0.040916765           28 
 4845000   0.47374808   -3.8677415    2479.6394  0.042649457  0.040906474           36 
 4846000   0.47688847   -3.8790912    2475.2788   0.04256567  0.040896203           25 
 4847000     0.489218   -3.8837481     2477.817  0.042600526  0.040885939           14 
 4848000     0.477687   -3.8730444    2474.8384   0.04254054  0.040875644           30 
 4849000   0.46383914    -3.902319    2485.6509  0.042717585   0.04086537           49 
 4850000   0.47105571   -3.8718634    2483.6288  0.042674034   0.04085509           19 
 4851000   0.48132804   -3.8867614    2482.3439  0.042643164  0.040844817           26 
 4852000   0.48701315   -3.8893077    2484.1808  0.042665924  0.040834588           17 
 4853000   0.48425984   -3.8897241    2475.3059  0.042504738  0.040824337            8 
 4854000   0.47284931   -3.8864439    2482.7452  0.042623699  0.040814051           14 
 4855000    0.4738303   -3.8995821    2477.2579  0.042520733  0.040803783           16 
 4856000   0.47558478   -3.8948469    2476.4737  0.042498519  0.040793514           32 
 4857000   0.47197511   -3.8829066    2481.3477  0.042573395   0.04078325           30 
 4858000   0.48113127   -3.8821317    2469.4458  0.042360467  0.040772991           17 
 4859000   0.46973772   -3.8729654    2482.8427   0.04258151  0.040762732           15 
 4860000   0.46845144   -3.8800106    2484.0216  0.042592963  0.040752495           12 
 4861000   0.47604956   -3.8802369    2483.9445  0.042582879  0.040742284           18 
 4862000   0.48530918   -3.8660259    2486.6979  0.042621313  0.040732054            9 
 4863000   0.46784621   -3.8608851    2479.5212  0.042489567  0.040721869           28 
 4864000   0.46806648   -3.9037626     2477.431  0.042445021  0.040711623           16 
 4865000   0.47205388   -3.8833976    2478.0493  0.042446887  0.040701367           18 
 4866000   0.47494849   -3.8770704    2483.0272  0.042523413  0.040691166           32 
 4867000   0.46337017   -3.8960702    2484.2853  0.042536219  0.040680959           25 
 4868000    0.4722069   -3.8837292    2477.6482  0.042413863  0.040670732           38 
 4869000   0.48044585   -3.8859936    2485.1143  0.042532934  0.040660514           23 
 4870000   0.47310749   -3.8853013    2486.2428  0.042543511   0.04065032           30 
 4871000   0.48379614   -3.8813034    2485.8784  0.042528543  0.040640104           20 
 4872000   0.47528783   -3.8777998    2483.1814  0.042473682  0.040629912            9 
 4873000   0.47125775   -3.9087962    2478.9465  0.042392546  0.040619688           37 
 4874000   0.46294425   -3.8768387    2483.2467  0.042457371  0.040609481           34 
 4875000   0.46980819   -3.9016914    2483.5141  0.042453233  0.040599279           40 
 4876000   0.47736094   -3.9007962    2484.5502  0.042462234  0.040589039           34 
 4877000   0.47197169   -3.8795091    2477.4345  0.042331941  0.040578805           15 
 4878000   0.47781941   -3.9052176    2476.2909  0.042303726  0.040568542           22 
 4879000   0.47477048   -3.8921003       2482.4  0.042399399  0.040558273           13 
 4880000   0.45987717   -3.8947526    2481.1469  0.042369312  0.040548052           24 
 4881000   0.47465855   -3.8908318    2474.2346  0.042242617  0.040537833           30 
 4882000   0.46875642   -3.9067764    2473.9259  0.042228696  0.040527583           29 
 4883000    0.4834533   -3.8847281    2473.8094   0.04221806  0.040517338           12 
 4884000   0.46713706    -3.895375    2474.6492  0.042223744  0.040507141           19 
 4885000   0.47000446   -3.8924595    2476.2184   0.04224187  0.040496972           13 
 4886000   0.46826103   -3.8988471    2482.4858  0.042340117  0.040486806           11 
 4887000    0.4574842   -3.8928335    2478.5921  0.042265059  0.040476644           10 
 4888000    0.4588793   -3.9044036    2480.5097  0.042289104  0.040466461           30 
 4889000   0.46100869   -3.9010728    2480.9494  0.042287949  0.040456264           22 
 4890000   0.46699367   -3.9040287    2484.5702  0.042341005  0.040446044           14 
 4891000   0.46387828   -3.9002842    2480.9187  0.042270134  0.040435845           23 
 4892000   0.46757125   -3.8972592     2474.927  0.042159427  0.040425691            8 
 4893000   0.47363155   -3.9095678    2482.0038  0.042271336  0.040415492           13 
 4894000   0.46880321   -3.8910127     2478.732  0.042206988  0.040405307           15 
 4895000   0.46133655   -3.9165455    2478.2604  0.042190337  0.040395115           11 
 4896000   0.46229425   -3.8942921    2477.4557  0.042168024  0.040384914           19 
 4897000   0.46444868   -3.9067249    2482.7094  0.042248816  0.040374723           36 
 4898000   0.46364018   -3.8936824    2482.6095   0.04223849  0.040364528           11 
 4899000   0.46875764   -3.8970847    2482.2453  0.042223673  0.040354373           10 
 4900000   0.47282568   -3.8917149      2483.51  0.042236565   0.04034421           29 
 4901000   0.47756024   -3.9147048    2475.3179  0.042088654  0.040334019           29 
 4902000   0.47320721   -3.8979753    2478.4301  0.042132974  0.040323846           12 
 4903000   0.47277552   -3.9052208    2480.5528  0.042160459  0.040313685           14 
 4904000   0.47746159   -3.8928695    2486.4549  0.042252156  0.040303571           22 
 4905000   0.46610919   -3.9059281    2477.8978  0.042098162   0.04029338           13 
 4906000   0.45994227    -3.896407    2478.9276  0.042107073  0.040283184           26 
 4907000   0.46336762   -3.9044421    2479.5284  0.042108696     0.040273           11 
 4908000    0.4636529   -3.8830458    2479.7637   0.04210411  0.040262867           21 
 4909000   0.45926502    -3.898516    2479.3864  0.042089129   0.04025274            8 
 4910000   0.47778799   -3.9015101    2480.3278  0.042096535  0.040242609            9 
 4911000   0.46591826   -3.8949008    2485.1329  0.042169499  0.040232482           24 
 4912000   0.46322491   -3.8937171    2485.1893  0.042161871  0.040222333           15 
 4913000    0.4631373   -3.8948651    2475.6927  0.041992209  0.040212177           65 
 4914000   0.45822038    -3.893184    2473.1983  0.041941363  0.040202007           51 
 4915000   0.47054834   -3.8815545    2483.1022   0.04210075  0.040191852           51 
 4916000    0.4600212   -3.9130223    2472.6745  0.041915421  0.040181701           17 
 4917000   0.46817803   -3.9000648    2475.2135  0.041949927  0.040171519           20 
 4918000   0.45871081   -3.9077504    2475.6623  0.041949002  0.040161345           26 
 4919000   0.46449459   -3.9037769    2479.2844  0.042001836  0.040151175           43 
 4920000   0.46843269    -3.929827    2478.0483  0.041972363  0.040141018           15 
 4921000   0.46400437   -3.8894955    2478.6716  0.041974388  0.040130867            9 
 4922000   0.46004967   -3.9004783    2477.6911  0.041949261  0.040120687           13 
 4923000   0.46963911   -3.9122001    2471.9786  0.041844042  0.040110461           36 
 4924000   0.46801992   -3.9118767    2480.9759  0.041987813  0.040100268           19 
 4925000   0.47626765   -3.9105854    2476.8673  0.041909768  0.040090094           32 
 4926000   0.45986503   -3.9009639    2477.0242  0.041903915  0.040079896           35 
 4927000   0.46145073   -3.9140238    2479.3857  0.041935351  0.040069734           50 
 4928000   0.47162503   -3.8922709     2473.584  0.041828733  0.040059576           16 
 4929000   0.45486585   -3.9255175     2479.203  0.041915247   0.04004943           18 
 4930000   0.45305454   -3.8965348    2479.7859  0.041916598  0.040039282           19 
 4931000   0.45995866   -3.9116495    2478.7138  0.041889978  0.040029128           25 
 4932000   0.46191404    -3.907514    2472.6699  0.041779365  0.040018969           22 
 4933000   0.46992794   -3.8908291    2480.6588  0.041905852  0.040008843           13 
 4934000   0.47612576    -3.923854    2476.8321  0.041832727  0.039998717           22 
 4935000    0.4659762    -3.906657     2474.798  0.041789902  0.039988559           29 
 4936000    0.4589617   -3.9104424    2474.1729  0.041770882  0.039978409           22 
 4937000   0.45610995   -3.9106814    2480.6543  0.041871823  0.039968281           17 
 4938000   0.46009157    -3.909789    2482.9371  0.041901868  0.039958168           12 
 4939000   0.46254127   -3.9185998    2476.4513  0.041783952  0.039948028           65 
 4940000   0.45934687   -3.9040121    2475.8162  0.041764781  0.039937892           26 
 4941000   0.45743091   -3.9169346    2478.8514  0.041807518  0.039927756           34 
 4942000   0.45966892   -3.9089584     2480.237  0.041822424  0.039917626           24 
 4943000    0.4545887   -3.9134167    2475.3096  0.041730891  0.039907498           21 
 4944000   0.46417525   -3.9149224    2480.3158  0.041806833  0.039897408           23 
 4945000   0.45095871   -3.9117973    2481.0889  0.041811406  0.039887332           11 
 4946000   0.46033788   -3.9089925    2478.0548  0.041751834  0.039877247           43 
 4947000   0.45982894   -3.9214039    2475.3041  0.041697057  0.039867152           32 
 4948000   0.45558978   -3.9322447    2476.4328   0.04170764  0.039857048           12 
 4949000   0.45802396   -3.9202667    2473.3594   0.04164746   0.03984693           16 
 4950000   0.45012608   -3.9263708    2477.0544  0.041701252  0.039836781           12 
 4951000   0.45557451   -3.9003075    2477.6232  0.041702403  0.039826644           10 
 4952000   0.44760667   -3.9145886    2483.1065  0.041786257  0.039816534           30 
 4953000   0.46447282    -3.921746    2478.9637  0.041708118  0.039806425           11 
 4954000   0.47149261   -3.9239586    2475.6646  0.041644204  0.039796329           30 
 4955000   0.45759417   -3.9244356    2472.7322  0.041586482  0.039786207           12 
 4956000   0.45848864   -3.9087972    2482.7885  0.041747184    0.0397761           12 
 4957000    0.4644277   -3.9262217    2476.6809  0.041636085  0.039766004           33 
 4958000   0.44645249   -3.9150504     2477.995  0.041649774   0.03975589           23 
 4959000   0.45982704    -3.920861    2478.7727  0.041654445  0.039745765           21 
 4960000   0.45385177   -3.9048114    2476.7273  0.041611681  0.039735657           24 
 4961000   0.46968475   -3.9190872    2473.8623  0.041555168  0.039725549           25 
 4962000   0.45981229    -3.932248    2473.2722  0.041536884  0.039715433           22 
 4963000   0.46345515   -3.9154052    2472.3303  0.041512698  0.039705302           25 
 4964000    0.4543443   -3.9274688     2478.549  0.041608732  0.039695195           21 
 4965000   0.45679134   -3.9256493     2473.205  0.041510658  0.039685105           16 
 4966000   0.46810974   -3.9224362    2472.6728  0.041493367  0.039675009           20 
 4967000    0.4569325   -3.9193389    2476.9265  0.041556381  0.039664947           28 
 4968000   0.46078599   -3.9132656    2476.0618  0.041533511  0.039654899           29 
 4969000   0.44697658   -3.9258581    2474.3611   0.04149663  0.039644842           29 
 4970000   0.44768386   -3.9089812    2476.1232  0.041517827  0.039634753           81 
 4971000   0.46433053   -3.9187821    2478.6629  0.041552049  0.039624713           55 
 4972000   0.45219199   -3.9059515    2475.2388  0.041486303  0.039614673           29 
 4973000   0.44969873   -3.9248735    2474.6741  0.041468499  0.039604623           38 
 4974000    0.4376004   -3.9238563    2482.0858  0.041584336  0.039594551           27 
 4975000   0.45486732   -3.9104771    2477.9998  0.041507534  0.039584475           49 
 4976000   0.45682113   -3.9274138    2477.7189  0.041494489  0.039574419           35 
 4977000   0.46256325   -3.9104899    2476.2716  0.041461918  0.039564375           38 
 4978000   0.46263024   -3.9276029    2476.9816  0.041465475  0.039554323           41 
 4979000   0.45761675   -3.9430959    2482.7919  0.041554393  0.039544281           36 
 4980000   0.45723173   -3.9169961    2477.7922  0.041462387  0.039534224           26 
 4981000   0.46491419   -3.9234943    2474.6713  0.041401848  0.039524189           61 
 4982000   0.45188586   -3.9262024    2480.1001  0.041484346  0.039514123           63 
 4983000   0.45894487   -3.9298428    2476.9821  0.041423876   0.03950405           95 
 4984000   0.45958371   -3.9287563    2471.7755   0.04132851  0.039493972           92 
 4985000   0.46064789   -3.9222593     2474.295  0.041362336  0.039483871           36 
 4986000   0.46274357   -3.9316036    2473.7857  0.041345529  0.039473805           43 
 4987000   0.46174907   -3.9350787     2475.054  0.041358431  0.039463769           25 
 4988000   0.45079408   -3.9097132    2478.1097  0.041401191  0.039453757           22 
 4989000   0.44382564   -3.9144548    2476.0458  0.041358418  0.039443745           39 
 4990000   0.45009559   -3.9351053    2480.2563  0.041420447  0.039433722           32 
 4991000   0.45249945   -3.9361685    2475.8626  0.041338787  0.039423732           95 
 4992000   0.44889379   -3.9442491    2474.4216  0.041306451  0.039413707          121 
 4993000   0.45117068   -3.9211767    2472.2036  0.041261159  0.039403671           75 
 4994000   0.45523259   -3.9269893    2474.4185  0.041289855  0.039393648           52 
 4995000   0.45189739   -3.9044743    2479.2292  0.041361848  0.039383665           43 
 4996000   0.45848319   -3.9285206    2480.3306  0.041371941  0.039373665           46 
 4997000   0.44174353   -3.9329476    2471.4216  0.041215088  0.039363652           18 
 4998000   0.45655501   -3.9416944    2475.2073  0.041269962  0.039353623           15 
 4999000   0.45494168   -3.9191415    2471.3918  0.041198103   0.03934359           19 
 5000000    0.4448939   -3.9069044     2473.379  0.041222983  0.039333577           12 
 5001000   0.46113309   -3.9214719    2474.0907  0.041226599  0.039323566           40 
 5002000   0.44855616   -3.9163626    2473.8469  0.041214296  0.039313565           18 
 5003000   0.44749192   -3.9476125    2479.2547  0.041296135  0.039303549           41 
 5004000   0.44884308   -3.9264877    2475.6879  0.041228482  0.039293545           29 
 5005000   0.44725881   -3.9205526    2471.3542  0.041148088  0.039283557           42 
 5006000   0.44993379   -3.9350954    2477.4812  0.041241863  0.039273565           59 
 5007000   0.44108168   -3.9220173    2477.0428  0.041226329  0.039263599           29 
 5008000   0.44564754   -3.9385752    2474.3062   0.04117256  0.039253627           10 
 5009000   0.45221621   -3.9348349    2475.1038   0.04117761  0.039243624           47 
 5010000   0.45628621   -3.9306269    2480.8588  0.041265117  0.039233636           45 
 5011000   0.44732484   -3.9330522    2477.1601  0.041195372  0.039223689           29 
 5012000   0.45024436   -3.9372653    2472.2917  0.041106208  0.039213698           13 
Loop time of 12268.3 on 48 procs for 5000000 steps with 4000 atoms

Performance: 70425.303 tau/day, 407.554 timesteps/s
99.4% CPU use with 48 MPI tasks x no OpenMP threads

MPI task timing breakdown:
Section |  min time  |  avg time  |  max time  |%varavg| %total
---------------------------------------------------------------
Pair    | 829.34     | 884.61     | 960.98     | 118.6 |  7.21
Neigh   | 81.84      | 85.657     | 91.494     |  24.5 |  0.70
Comm    | 759.52     | 839.44     | 898.04     | 120.3 |  6.84
Output  | 13.917     | 13.921     | 14.005     |   0.3 |  0.11
Modify  | 10316      | 10336      | 10360      |  11.2 | 84.25
Other   |            | 108.9      |            |       |  0.89

Nlocal:        83.3333 ave          90 max          75 min
Histogram: 1 0 2 4 11 6 14 4 5 1
Nghost:        2210.21 ave        2226 max        2195 min
Histogram: 4 6 3 4 6 7 6 6 3 3
Neighs:        14705.8 ave       16093 max       12753 min
Histogram: 1 1 3 4 8 9 6 6 5 5
FullNghs:      29411.7 ave       31966 max       26448 min
Histogram: 1 1 3 8 4 13 8 5 4 1

Total # of neighbors = 1411760
Ave neighs/atom = 352.94000
Neighbor list builds = 271062
Dangerous builds = 1

#clear
#
#next RN
#
#jump SELF
Total wall time: 3:24:31
