
units lj                  # Use reduced LJ style units
atom_style atomic         # Uncharged point particles
atom_modify map hash      # Needed for indexing of clusters etc
                          # Used to be able to find where atoms are in relation to each other.

lattice fcc 1.0 spacing 1 1 1
Lattice spacing in x,y,z = 1.5874011 1.5874011 1.5874011
region box block 0 10 0 10 0 10 units lattice
create_box 2 box
Created orthogonal box = (0.0000000 0.0000000 0.0000000) to (15.874011 15.874011 15.874011)
  3 by 4 by 4 MPI processor grid
create_atoms 1 box
Created 4000 atoms
  using lattice units in orthogonal box = (0.0000000 0.0000000 0.0000000) to (15.874011 15.874011 15.874011)
  create_atoms CPU = 0.003 seconds
set type 1 type/fraction 2 0.43 78393
Setting atom values ...
  1722 settings made for type/fraction
mass 1 1.0
mass 2 1.0
pair_style lj/cut  3.5
pair_modify tail  yes
pair_coeff 1  1  1.0  1.0   # Intearaction between 1 and 1 set with epsilon = 1 and sigma = 1
pair_coeff 1  2  1.5  0.8
pair_coeff 2  2  0.5  0.88

write_data data.0
System init for write_data ...
Neighbor list info ...
  update every 1 steps, delay 10 steps, check yes
  max neighbors/atom: 2000, page size: 100000
  master list distance cutoff = 3.8
  ghost atom cutoff = 3.8
  binsize = 1.9, bins = 9 9 9
  1 neighbor lists, perpetual/occasional/extra = 1 0 0
  (1) pair lj/cut, perpetual
      attributes: half, newton on
      pair build: half/bin/atomonly/newton
      stencil: half/bin/3d
      bin: standard
WARNING: Not all mixed pair coeffs generated from mixing. Use write_data with 'pair ij' option to store all pair coeffs. (../write_data.cpp:312)


#############################
#   M E L T   S Y S T E M   #
#############################

velocity all create 2.4 6583654 mom yes dist gaussian # Assign velocities
                                                    # Temperature 2.4, random number seed, zero linear momentum
                                                                                # Gaussian distribution

timestep 0.002   # simulation timestep
thermo 1000       # output thermodynamic data every 1000 steps bf 100

# Define a fix  in this case with index 1 applied to all
# particles in the simulation. This fix is for simulations
# in the anisotropic NPT ensemble. Note that we use the MTK
# correction.
fix 1 all npt temp 2.4 2.4 0.1 iso 5.68 5.68 0.5 mtk yes tchain 5 pchain 5 # Use NPT ensemble
                                                                         # Set temperature and pressure and damping
                                                                         # Numbers of thermostats in chain and in barostat
run 10000          # run for 10000 steps
Per MPI rank memory allocation (min/avg/max) = 3.642 | 3.644 | 3.648 Mbytes
Step Temp E_pair E_mol TotEng Press Volume 
       0          2.4   -5.6998203            0   -2.1007203   -4.1891945         4000 
    1000    2.4070733   -4.9917779            0   -1.3820706     5.756942    3839.4714 
    2000    2.3541035    -5.081711            0   -1.5514386    5.5875149    3798.5392 
    3000    2.4270728   -4.9528782            0   -1.3131791    5.7646701    3851.9627 
    4000    2.3678951   -5.0731355            0   -1.5221808    5.7055027    3799.2987 
    5000    2.4520842   -4.9922042            0   -1.3149975    5.5769035    3854.7619 
    6000    2.3380704   -4.9633912            0   -1.4571624      5.78246    3834.2111 
    7000    2.3983747   -4.9892718            0   -1.3926092    5.9230078    3818.3231 
    8000    2.3763869   -5.0371452            0    -1.473456    5.7513876     3820.609 
    9000    2.4033288   -4.9869696            0   -1.3828776    5.5542147    3850.6528 
   10000     2.388198   -4.9771551            0   -1.3957536    5.6183966    3845.8869 
Loop time of 2.55953 on 48 procs for 10000 steps with 4000 atoms

Performance: 675125.227 tau/day, 3906.975 timesteps/s
99.6% CPU use with 48 MPI tasks x no OpenMP threads

MPI task timing breakdown:
Section |  min time  |  avg time  |  max time  |%varavg| %total
---------------------------------------------------------------
Pair    | 1.1428     | 1.2051     | 1.3171     |   3.3 | 47.08
Neigh   | 0.2088     | 0.2169     | 0.23907    |   1.1 |  8.47
Comm    | 0.7857     | 0.87367    | 0.96204    |   4.7 | 34.13
Output  | 0.00024727 | 0.00025234 | 0.00031646 |   0.0 |  0.01
Modify  | 0.19615    | 0.24796    | 0.29126    |   6.1 |  9.69
Other   |            | 0.01563    |            |       |  0.61

Nlocal:        83.3333 ave          92 max          72 min
Histogram: 1 1 6 5 6 7 3 6 8 5
Nghost:        1684.27 ave        1737 max        1648 min
Histogram: 4 4 6 14 4 7 4 3 1 1
Neighs:        9931.77 ave       11633 max        8518 min
Histogram: 3 6 5 9 3 7 7 3 4 1

Total # of neighbors = 476725
Ave neighs/atom = 119.18125
Neighbor list builds = 899
Dangerous builds = 173

# Equilibrate just above the melting temperature to avoid step fn in T

fix 1 all npt temp 1.25 1.25 0.1 iso 5.68 5.68 0.5 mtk yes tchain 5 pchain 5
run 2000
Per MPI rank memory allocation (min/avg/max) = 3.643 | 3.645 | 3.649 Mbytes
Step Temp E_pair E_mol TotEng Press Volume 
   10000     2.388198   -4.9771551            0   -1.3957536    5.6183966    3845.8869 
   11000    1.2482203   -7.0317933            0   -5.1599309    5.7893039    3022.7674 
   12000    1.2678162   -7.1322069            0   -5.2309581    5.2758539    3015.5752 
Loop time of 0.613715 on 48 procs for 2000 steps with 4000 atoms

Performance: 563127.757 tau/day, 3258.841 timesteps/s
99.7% CPU use with 48 MPI tasks x no OpenMP threads

MPI task timing breakdown:
Section |  min time  |  avg time  |  max time  |%varavg| %total
---------------------------------------------------------------
Pair    | 0.27649    | 0.29965    | 0.32153    |   2.3 | 48.83
Neigh   | 0.039807   | 0.042421   | 0.045499   |   0.7 |  6.91
Comm    | 0.19812    | 0.222      | 0.24635    |   2.8 | 36.17
Output  | 5.1634e-05 | 5.2998e-05 | 6.8524e-05 |   0.0 |  0.01
Modify  | 0.038893   | 0.044816   | 0.050221   |   1.6 |  7.30
Other   |            | 0.004771   |            |       |  0.78

Nlocal:        83.3333 ave          92 max          76 min
Histogram: 2 4 6 9 5 7 10 1 2 2
Nghost:        1984.83 ave        2016 max        1958 min
Histogram: 2 6 4 6 10 6 7 3 2 2
Neighs:        12676.9 ave       14440 max       10851 min
Histogram: 3 2 4 4 13 5 7 5 3 2

Total # of neighbors = 608492
Ave neighs/atom = 152.12300
Neighbor list builds = 145
Dangerous builds = 13

#############################
# L I N E A R  Q U E N C H  #
#############################

# Define solid atoms. This closely follows ten Wolde  Ruiz-Montero and Frenkel  Faraday Discuss  1996  104  93-110
# Compute components of the per-atom q6 vector
compute q6 all orientorder/atom degrees 1 6 components 6 nnn NULL cutoff 1.3 # compute the Q6 parameter.
                                                                             # Use all neighbours within 1.3 unit cell.

# get number of connections
compute coord_number all coord/atom orientorder q6 0.5

# An atom is solid if it has 8 or more connections (of a possible 14)
variable is_solid atom c_coord_number>=8
group solid dynamic all var is_solid    # Must be dynamic to update
dynamic group solid defined

# do clustering
compute cluster solid cluster/atom 1.3 # Create a cluster where all atoms within are solid and max 1.3 units from another member

# define chunks one chunk per cluster
compute clus_chunks solid chunk/atom c_cluster nchunk every compress yes  # Says which atoms are in which chunk

# count the size of each chunk
compute size_chunks solid property/chunk clus_chunks count


# Find the maximum entry in the vector of chunk sizes
variable max_n equal max(c_size_chunks)


# Thermo style which includes this variable
# thermo_style custom step temp pe vol v_max_n

thermo ${N}  # Print the thermo information every 100 steps
thermo 1000  

# Reset the npt fix at a lower temperature (below freezing)
fix 1  all npt temp  ${temp} ${temp}  0.1  iso  5.68  5.68  0.5  mtk yes tchain  5  pchain  5
fix 1  all npt temp  0.45 ${temp}  0.1  iso  5.68  5.68  0.5  mtk yes tchain  5  pchain  5
fix 1  all npt temp  0.45 0.45  0.1  iso  5.68  5.68  0.5  mtk yes tchain  5  pchain  5

dump dmp2 all dcd ${N} traj.dcd
dump dmp2 all dcd 1000 traj.dcd


compute msd all msd com yes
variable twopoint equal c_msd[4]/6/(step*dt+1.0e-6)
fix 9 all vector 10 c_msd[4]
variable fit equal slope(f_9)/6/(10*dt)
thermo_style custom step temp pe c_msd[4] v_twopoint v_fit v_max_n

fix 1 all npt temp 1.25 ${temp} 0.1 iso 5.68 5.68 0.5 mtk yes tchain 5 pchain 5
fix 1 all npt temp 1.25 0.45 0.1 iso 5.68 5.68 0.5 mtk yes tchain 5 pchain 5
run 5000000 # 5000000  # Run for this many steps
Neighbor list info ...
  update every 1 steps, delay 10 steps, check yes
  max neighbors/atom: 2000, page size: 100000
  master list distance cutoff = 3.8
  ghost atom cutoff = 3.8
  binsize = 1.9, bins = 8 8 8
  4 neighbor lists, perpetual/occasional/extra = 1 3 0
  (1) pair lj/cut, perpetual
      attributes: half, newton on
      pair build: half/bin/atomonly/newton
      stencil: half/bin/3d
      bin: standard
  (2) compute orientorder/atom, occasional
      attributes: full, newton on
      pair build: full/bin/atomonly
      stencil: full/bin/3d
      bin: standard
  (3) compute coord/atom, occasional
      attributes: full, newton on
      pair build: full/bin/atomonly
      stencil: full/bin/3d
      bin: standard
  (4) compute cluster/atom, occasional
      attributes: full, newton on
      pair build: full/bin/atomonly
      stencil: full/bin/3d
      bin: standard
Per MPI rank memory allocation (min/avg/max) = 9.823 | 9.835 | 9.843 Mbytes
Step Temp PotEng c_msd[4] v_twopoint v_fit v_max_n 
   12000    1.2678162   -7.1322069            0            0 8.3333333e+20            1 
   13000    1.2431166   -7.1516847   0.48023366 0.0030784208  0.039693737            1 
   14000    1.2553128   -7.1517629   0.91699158  0.005458283  0.037797287            2 
   15000    1.2864757   -7.1185773    1.3459914 0.0074777297  0.036832866            2 
   16000    1.2602883   -7.1112919    1.7578374 0.0091554029  0.036340758            1 
   17000      1.24118   -7.1080416    2.1809264  0.010690815  0.035646954            1 
   18000    1.2633074     -7.12795    2.6039792  0.012055459  0.035329569            2 
   19000     1.258262    -7.124708    3.0910388  0.013557188  0.035761257            2 
   20000    1.2666874   -7.1106243    3.4920693  0.014550288   0.03598773            1 
   21000     1.253553   -7.1686504    3.8892304  0.015433454  0.035704352            1 
   22000     1.243977   -7.1225323    4.3013047   0.01629282    0.0355355            2 
   23000    1.2546871   -7.1477075    4.6429534  0.016822295  0.035296886            4 
   24000    1.2714064   -7.1731176    5.0256021  0.017450007  0.035027362            1 
   25000    1.2508602   -7.1333822    5.4177186  0.018059062  0.034661062            2 
   26000    1.2433133   -7.1482161    5.8303455  0.018687004  0.034438101            2 
   27000    1.2548191   -7.1293915    6.2886053  0.019409275  0.034333757            3 
   28000    1.2629403   -7.1298105    6.6741778  0.019863624  0.034266374            1 
   29000    1.2556382   -7.1457936    7.1217125  0.020464691  0.034215368            1 
   30000    1.2309349   -7.1358066     7.528574  0.020912705  0.034230692            2 
   31000    1.2591867   -7.1786188    7.8398833  0.021074955  0.034198143            2 
   32000    1.2709094    -7.102713    8.2961943  0.021604672  0.034134687            2 
   33000     1.274171   -7.1846374    8.7303273  0.022046281  0.034127787            4 
   34000    1.2286808   -7.1691773    9.0382034  0.022152459  0.034084666            1 
   35000    1.2451882   -7.0912605    9.4839167  0.022580754  0.034023311            2 
   36000    1.2290931   -7.1421064    9.8815787  0.022874024  0.033971917            2 
   37000    1.2259541   -7.0833724    10.273546  0.023138616  0.033908011            2 
   38000    1.2416759   -7.0919889    10.634924  0.023322201  0.033847779            2 
   39000    1.2520434   -7.1376088    11.045849  0.023602241  0.033782793            2 
   40000    1.2588456   -7.1088511    11.462719  0.023880664  0.033761756            2 
   41000    1.2240139   -7.1359287    11.861027  0.024107778  0.033704507            1 
   42000    1.2562974    -7.129116    12.280778  0.024366624  0.033682816            2 
   43000    1.2416163   -7.0670997    12.802118  0.024810306  0.033671348            1 
   44000    1.2620212   -7.1267774    13.080129  0.024772971  0.033674065            2 
   45000    1.2416921    -7.115258    13.554749  0.025101387  0.033672955            1 
   46000    1.2470566    -7.164177    13.941725  0.025256748  0.033701918            3 
   47000    1.2652936   -7.1626899    14.395912  0.025524667  0.033720117            1 
   48000    1.2433061   -7.1512393    14.637314  0.025412003  0.033711184            1 
   49000    1.2459059   -7.1671487    15.181069  0.025818145  0.033695573            1 
   50000    1.2438285   -7.1314612    15.444937  0.025741561  0.033671733            2 
   51000    1.2561358   -7.1793911    15.972574  0.026098977  0.033658408            3 
   52000    1.2270361   -7.1454513    16.369449  0.026233092  0.033678857            1 
   53000    1.2169263   -7.1715376     16.77453  0.026375047   0.03369979            2 
   54000    1.2448257    -7.137674    17.250552  0.026621222   0.03370029            1 
   55000     1.204133   -7.1424451    17.558881  0.026604364  0.033710522            1 
   56000    1.2402831   -7.1235875    17.954866  0.026718551   0.03369215            1 
   57000    1.2440142   -7.1020769    18.405003  0.026907899  0.033686565            1 
   58000     1.229528   -7.1316626     18.73646  0.026920201  0.033690666            4 
   59000     1.249894   -7.1642778    19.139997  0.027033895  0.033683823            3 
   60000    1.2140036   -7.1599905    19.477068  0.027051483  0.033672165            1 
   61000    1.2397338   -7.1466471    19.880126  0.027158641  0.033663835            1 
   62000    1.2674902    -7.096432     20.42732  0.027456075  0.033661225            2 
   63000    1.2521125   -7.1656182    20.885632  0.027626497  0.033667299            1 
   64000    1.2551064   -7.1642068     21.13946  0.027525339  0.033677045            3 
   65000    1.2453212    -7.112026    21.695526  0.027814776   0.03367512            2 
   66000      1.23094   -7.1436723    21.965539  0.027734266  0.033676694            1 
   67000    1.2646765   -7.1676346    22.477567  0.027957172  0.033683393            1 
   68000    1.2441024   -7.1052294      23.0139  0.028203309  0.033693282            3 
   69000    1.2335394   -7.1660164    23.230056  0.028055623  0.033707256            2 
   70000    1.2484302   -7.1051835     23.70683  0.028222417  0.033720442            3 
   71000    1.2332852   -7.1180166    24.151307  0.028346605  0.033734229            5 
   72000    1.2633647   -7.1070528    24.388508  0.028227439  0.033739803            3 
   73000    1.2505407   -7.1467947    24.732044  0.028232927  0.033735962            2 
   74000    1.2341639   -7.1889985    25.251719  0.028436621  0.033722617            2 
   75000    1.2367551   -7.1553642    25.673599  0.028526221  0.033717573            1 
   76000    1.2503763   -7.1327008    25.933963  0.028436363  0.033705266            1 
   77000    1.2188798    -7.160286    26.314396  0.028478783  0.033683811            2 
   78000    1.2785534   -7.1425186    26.677517  0.028501621  0.033658027            1 
   79000    1.2323054   -7.1569169    27.259242  0.028754475  0.033648847            3 
   80000    1.2916948   -7.1712409    27.760355  0.028917037  0.033650951            2 
   81000    1.2410628    -7.184731    28.089064  0.028898214  0.033649859            2 
   82000    1.2315915   -7.1087429    28.594577  0.029059529  0.033660982            1 
   83000     1.254967   -7.1742789    28.857881  0.028973776  0.033667804            1 
   84000    1.2425563   -7.2046255    29.101942  0.028870974  0.033666936            1 
   85000    1.2512981   -7.1158398    29.691927  0.029109732  0.033660233            1 
   86000    1.2232538   -7.1547143    29.991553  0.029061582  0.033658212            2 
   87000    1.2624984    -7.109612    30.499717  0.029214288  0.033660369            1 
   88000    1.2447211   -7.1404924    30.864145  0.029227409  0.033656217            3 
   89000    1.2366977    -7.182522     31.17737  0.029192294  0.033653999            1 
   90000     1.210483   -7.1532087      31.3559   0.02903324  0.033638051            2 
   91000    1.2277379   -7.1854603    31.668005  0.029000005  0.033616357            1 
   92000     1.233115   -7.1782642    32.042313  0.029023834  0.033586352            2 
   93000     1.211814   -7.1829017    32.482923  0.029106561  0.033554523            1 
   94000    1.2851132   -7.1794745    32.878584   0.02914768  0.033531163            1 
   95000    1.2475788   -7.2320589    32.872218  0.028835279  0.033502055            2 
   96000    1.2268869   -7.1657123    33.484969  0.029066814  0.033466314            1 
   97000    1.2478529   -7.0889482    34.010975   0.02921905  0.033435696            2 
   98000    1.2169784   -7.1442488    34.425511  0.029273393  0.033407856            3 
   99000    1.2522556    -7.162134    34.668244  0.029182023  0.033377084            2 
  100000    1.2455831   -7.1553281    35.058887  0.029215739  0.033347783            2 
  101000    1.2308714   -7.1848763    35.335767  0.029154923  0.033319526            3 
  102000    1.2447634   -7.1347252    35.958558  0.029377906  0.033296046            1 
  103000    1.2467994   -7.1813574    36.252048  0.029330136  0.033273568            3 
  104000    1.2306044    -7.162871     36.60063  0.029327428  0.033242273            2 
  105000    1.2307468   -7.1133189    36.935478  0.029313871  0.033214282            2 
  106000    1.2191666   -7.1894547    37.329789  0.029347319  0.033186686            1 
  107000    1.2042788   -7.1857029    37.854713  0.029481864  0.033161118            4 
  108000    1.2193521   -7.1917485    38.302016  0.029554024  0.033145658            1 
  109000    1.2320295   -7.1681104    38.779572   0.02964799  0.033130878            1 
  110000    1.2315066   -7.1497618     39.21556  0.029708757  0.033119182            2 
  111000    1.2255933   -7.1566461    39.536011   0.02968169  0.033110016            2 
  112000    1.2354134   -7.1559221    40.004164  0.029765003  0.033102875            1 
  113000    1.2456761   -7.1409506    40.326663  0.029739427  0.033096109            2 
  114000     1.260652   -7.1615637    40.952732  0.029936208  0.033085996            1 
  115000      1.23344   -7.1956704    41.473851  0.030053515  0.033088135            1 
  116000    1.2327231   -7.2449825    41.741461  0.029986682  0.033095471            1 
  117000    1.2294628   -7.1341707    42.356117  0.030168175  0.033100596            1 
  118000    1.2227318   -7.1486991    42.796721  0.030223673  0.033110621            3 
  119000    1.2335893   -7.1925883    42.938457  0.030068947  0.033120111            1 
  120000    1.2301131   -7.1727426    43.559188  0.030249436  0.033130181            3 
  121000    1.2371045    -7.131451    44.112195  0.030380299  0.033143409            1 
  122000     1.230785    -7.147406    44.473603  0.030378144  0.033152901            1 
  123000    1.2248995   -7.1746046    44.785732  0.030342637  0.033160295            1 
  124000    1.2386676   -7.1659305     45.01276  0.030250511  0.033166724            1 
  125000    1.2193735   -7.2191978    45.523309  0.030348873  0.033174663            2 
  126000    1.2315733   -7.1570984    45.761168  0.030265323   0.03318632            2 
  127000    1.2296797   -7.1709607    46.123475  0.030264747  0.033191339            3 
  128000    1.2324625   -7.2222236    46.564775  0.030315609  0.033192774            2 
  129000    1.2256541   -7.1656765    47.170485  0.030471889  0.033198261            2 
  130000     1.264207   -7.1900641     47.56674    0.0304915  0.033208138            1 
  131000    1.1941079   -7.1745415    48.128432  0.030616051  0.033219876            3 
  132000    1.2288208   -7.1700411    48.439661  0.030580594  0.033229739            2 
  133000    1.2440317    -7.175495    49.022028  0.030715556  0.033241739            2 
  134000    1.2411432   -7.1896386    49.274135  0.030643119  0.033252432            2 
  135000    1.2050266   -7.1674269    49.747113  0.030708094  0.033261252            1 
  136000     1.206609   -7.1908403    49.866589  0.030555508  0.033268866            1 
  137000    1.2059802   -7.2480351    50.074611  0.030459009  0.033268891            3 
  138000    1.2217522   -7.1977401    50.584621  0.030546268  0.033264887            1 
  139000    1.2402427   -7.2244988    50.625917  0.030351269  0.033263278            2 
  140000    1.2547753   -7.1812509    51.143335  0.030442461  0.033258092            1 
  141000    1.2252554   -7.1528309    51.466542  0.030417578  0.033249773            2 
  142000    1.2319711   -7.1998171    51.969964  0.030498805  0.033242728            2 
  143000    1.2469728   -7.1917434    52.355051  0.030509936  0.033239283            2 
  144000    1.2253961   -7.1992076    52.905832  0.030616801  0.033238384            2 
  145000    1.2326864   -7.2008032    53.301236  0.030632894    0.0332377            3 
  146000    1.1918445   -7.1683784    53.750506  0.030679512  0.033236854            1 
  147000    1.2558484   -7.1867491    53.928359  0.030571632  0.033233875            4 
  148000    1.2670993   -7.1898456    54.637309   0.03076425   0.03323607            1 
  149000    1.2340323   -7.1435749    55.137457  0.030837504  0.033239455            1 
  150000    1.2274132   -7.2042397    55.230852  0.030683806   0.03323729            2 
  151000    1.2320857   -7.1700814    55.564299  0.030664624   0.03323428            2 
  152000     1.215168   -7.1957211    56.011437  0.030708025   0.03323219            1 
  153000    1.2211907   -7.2529242    56.285178  0.030656415  0.033226822            2 
  154000    1.2313632   -7.2175326     56.61237  0.030634399  0.033219513            1 
  155000    1.2049322   -7.1671563    56.889034  0.030585502  0.033211304            2 
  156000    1.2189196   -7.2148918    57.018728  0.030458722  0.033199862            2 
  157000    1.2330092   -7.1585225     57.33665  0.030433466  0.033186979            1 
  158000    1.2035437   -7.2306933    57.582237  0.030370378  0.033170368            2 
  159000    1.2036112   -7.2370452    58.118913  0.030460646   0.03315338            1 
  160000     1.228247   -7.2057521    58.859769   0.03065613  0.033141735            3 
  161000    1.2404108   -7.2440613    59.214897  0.030649533  0.033133619            1 
  162000    1.2447342   -7.1618468    59.773144  0.030747502  0.033128971            1 
  163000     1.209463   -7.1730851    60.118285  0.030735319  0.033122483            2 
  164000    1.2284984   -7.1882118    60.341907  0.030661538  0.033114273            3 
  165000    1.2305219   -7.1862258    60.624389  0.030618378   0.03310317            1 
  166000    1.2136547   -7.2321706    60.899598  0.030572087  0.033093283            1 
  167000    1.2170736   -7.1693223    61.310994  0.030594308  0.033080597            1 
  168000    1.2332828    -7.176087    61.823807  0.030666571  0.033067083            2 
  169000    1.2231532   -7.2181305    62.112666  0.030627547   0.03305594            2 
  170000    1.1987596   -7.1924666     62.49172  0.030633196  0.033045122            1 
  171000    1.2357716   -7.1802752    62.873702  0.030640206  0.033035351            3 
  172000    1.2499641   -7.1551154    63.396374  0.030715297  0.033024664            1 
  173000     1.218457   -7.2310041    63.505249  0.030590197  0.033012028            2 
  174000    1.2390294     -7.19358    63.670648  0.030493605  0.032995956            3 
  175000    1.2323052     -7.26708    64.184986  0.030564279  0.032982893            1 
  176000    1.2318466   -7.2358869     64.60906  0.030591411  0.032969691            1 
  177000    1.2051551   -7.1884174    65.006747  0.030605813  0.032957369            3 
  178000    1.2268253   -7.1971936    65.069228  0.030463122  0.032942944            1 
  179000    1.2191123   -7.1663256    65.774474  0.030621263  0.032928339            1 
  180000    1.2058413   -7.1782572    65.994777  0.030553137  0.032915348            2 
  181000    1.1835516    -7.186684    66.378694  0.030561093  0.032901365            1 
  182000    1.2351871   -7.2128085    66.784178  0.030578836  0.032884842            4 
  183000    1.2245811   -7.2459032    66.632499  0.030342668  0.032867473            1 
  184000    1.2265574   -7.2223199    67.423275  0.030535903  0.032851459            2 
  185000    1.2209521   -7.1726239    67.818418  0.030548837  0.032837076            1 
  186000    1.2280723    -7.211424    68.167673  0.030541072  0.032823753            1 
  187000    1.2156757   -7.1627263    68.745575  0.030635283  0.032810981            1 
  188000    1.2029792   -7.1440527    69.569663  0.030837616  0.032799216            4 
  189000    1.2018247   -7.2594114    69.633228  0.030702481  0.032788962            3 
  190000    1.2233642   -7.2146974    70.195765  0.030787616  0.032781334            1 
  191000    1.2220718   -7.2042341     70.80364  0.030891641  0.032778591            2 
  192000    1.2368925   -7.1942904    71.401513   0.03099024  0.032776201            1 
  193000    1.2323108   -7.2494635    71.838415  0.031018314  0.032775445            3 
  194000    1.1928268   -7.2203766    72.207139  0.031016812  0.032775446            1 
  195000    1.2111588   -7.1664479    72.534494  0.030997647  0.032775946            2 
  196000    1.2356295   -7.1912636    73.192316  0.031119182  0.032775455            3 
  197000    1.2418372   -7.2298722      73.2263  0.030975592  0.032775301            2 
  198000    1.2255294   -7.1599656    73.780346  0.031052334  0.032774111            3 
  199000    1.2310195   -7.2577023    73.921081  0.030955226  0.032775111            1 
  200000     1.206875   -7.1742026    74.455576  0.031023157  0.032773127            2 
  201000    1.2074691   -7.2130748    74.968868   0.03108162  0.032772753            1 
  202000    1.2057053   -7.1953387    75.143108  0.030999632   0.03276972            1 
  203000    1.2229643   -7.1943719    75.555422  0.031016183  0.032767458            3 
  204000    1.2062082   -7.2217862    75.866995   0.03099142  0.032764607            1 
  205000    1.1912664   -7.2186251    75.856866  0.030836124  0.032760487            3 
  206000    1.2503798   -7.2133733    76.895623  0.031106644  0.032758982            2 
  207000    1.2117284   -7.2054039    77.439226  0.031175212  0.032759629            1 
  208000    1.2111311    -7.206197    77.605247  0.031091846  0.032760141            2 
  209000    1.2376797   -7.1869371    78.276805  0.031210847  0.032760064            4 
  210000    1.2154896    -7.222307    78.518967   0.03115832  0.032759593            1 
  211000    1.2120523   -7.2125852    78.930055  0.031173007  0.032759269            2 
  212000    1.2097293   -7.2314955    79.090207  0.031088918  0.032759153            1 
  213000    1.2464249   -7.1324123     79.95631  0.031281811   0.03275851            2 
  214000    1.2079304   -7.2423783    79.971334  0.031141485  0.032758661            1 
  215000    1.2147455   -7.2356291    80.514182  0.031207047  0.032758097            1 
  216000    1.2291742   -7.2240092    80.563753  0.031081695  0.032758709            1 
  217000    1.2124196   -7.1663199    80.924169   0.03107687  0.032756082            1 
  218000    1.2465067   -7.2657571     81.21765  0.031046502  0.032751577            2 
  219000    1.2480393   -7.2916562    81.171307  0.030887103  0.032744908            2 
  220000    1.2021892   -7.2016249    81.849827  0.031003722  0.032740141            1 
  221000    1.2331963   -7.2310315    82.135739  0.030971244  0.032735473            1 
  222000     1.228932   -7.2246903    82.960091  0.031141175  0.032732922            1 
  223000     1.220887   -7.2089398    83.243346  0.031107379  0.032729975            1 
  224000    1.1911013   -7.1802507    83.605328  0.031103173   0.03272623            2 
  225000    1.2400131   -7.1873073    84.279129  0.031214492  0.032724636            3 
  226000    1.2231706   -7.1593635    84.369972  0.031109872  0.032723392            2 
  227000    1.2104927   -7.2178844    84.550607  0.031039136  0.032720268            2 
  228000    1.2264791   -7.1877996    85.096517  0.031102528  0.032716639            1 
  229000    1.2011798   -7.1496315    85.942915  0.031274714  0.032713814            2 
  230000    1.2056218   -7.1933944    86.265223  0.031255515   0.03271133            2 
  231000    1.2108078   -7.2072674    86.431512  0.031180199  0.032707913            2 
  232000    1.2076194   -7.2175476    86.631167  0.031117517  0.032704558            2 
  233000    1.2174209   -7.2047498    86.837585  0.031057791  0.032701663            4 
  234000    1.2158344   -7.2172578    87.301561  0.031090299  0.032697775            2 
  235000    1.2056198   -7.2189926    87.914873  0.031175487  0.032693892            2 
  236000    1.2312512   -7.2239852    88.081705  0.031102297  0.032688291            1 
  237000    1.2091238   -7.2052294    88.619541  0.031160176  0.032683716            2 
  238000    1.2029647   -7.2329447    88.768116  0.031081273  0.032678543            3 
  239000    1.2081206   -7.2528448    89.022615  0.031039963  0.032672148            2 
  240000    1.2207208   -7.2086227    89.370633   0.03103147  0.032666539            1 
  241000     1.226796   -7.2408148    89.618658  0.030988471  0.032657362            1 
  242000    1.2065351   -7.1938136    89.948239  0.030973911   0.03264798            2 
  243000    1.1981439   -7.2461343    90.301297  0.030967523  0.032639219            2 
  244000    1.2174811   -7.2587844    90.519539  0.030915143  0.032630648            1 
  245000    1.1930269   -7.1983616    91.319748  0.031061139  0.032624156            1 
  246000    1.2297236   -7.1704863    91.604337   0.03103128  0.032617042            2 
  247000    1.2038919   -7.2384901    92.027664  0.031048469   0.03261063            1 
  248000    1.2117706   -7.2476619    92.161048  0.030968094  0.032604177            3 
  249000    1.2089264   -7.2217174     92.76896  0.031047175  0.032598744            1 
  250000    1.2304943   -7.2206137    93.400289   0.03113343  0.032594275            2 
  251000    1.2258425   -7.2057337     94.34186  0.031321999  0.032592582            2 
  252000    1.2108185   -7.1763276    94.646191  0.031298343  0.032592019            1 
  253000    1.2026318   -7.2042452    94.677657  0.031184999  0.032590745            2 
  254000    1.1872777   -7.2232821    95.432403  0.031309843  0.032589261            2 
  255000    1.2002729   -7.2369539    95.620436  0.031248508  0.032587403            3 
  256000    1.1943927   -7.1732154    96.499889  0.031412724  0.032586787            2 
  257000    1.2165034   -7.2237701    96.569091  0.031312935   0.03258424            1 
  258000    1.1980884   -7.2249027     96.82716  0.031274922  0.032583702            2 
  259000    1.2029197    -7.201008    97.353576  0.031323544  0.032584551            2 
  260000    1.2128342    -7.187634    97.786536  0.031341838   0.03258532            2 
  261000    1.2191311   -7.2259012    98.349533  0.031401511  0.032584726            3 
  262000    1.2106412     -7.21401    98.377641  0.031290598  0.032582751            3 
  263000     1.224558   -7.2181412    98.833617  0.031316102  0.032582057            3 
  264000    1.1999402   -7.2613987    98.840792  0.031199745   0.03257916            5 
  265000    1.1996519   -7.2341826    99.426872  0.031266312  0.032575705            2 
  266000    1.2337843    -7.202503    99.625049  0.031210855  0.032573557            4 
  267000    1.2027571   -7.1809957    100.44164  0.031348827  0.032571071            2 
  268000    1.2016561    -7.245602    100.30297  0.031188736  0.032570276            2 
  269000    1.1913661   -7.2127765    100.89255  0.031255437  0.032568174            1 
  270000     1.220468   -7.2224352    101.42664  0.031304518  0.032566682            2 
  271000    1.2111722   -7.1773683    102.02405  0.031372709  0.032565225            1 
  272000    1.1811418   -7.2617968    102.22957  0.031320334  0.032565417            2 
  273000    1.1991759   -7.2575445     103.0176  0.031446153  0.032564654            2 
  274000    1.1965085   -7.2261328    102.90114  0.031295967  0.032564087            3 
  275000    1.2230654   -7.2557116    103.23554  0.031283498  0.032563485            2 
  276000    1.2108591   -7.2436267    103.48895  0.031246662   0.03256202            1 
  277000    1.2030964   -7.2312053    104.09653  0.031316644   0.03256144            5 
  278000    1.1950678    -7.233475    104.69831  0.031384386  0.032560224            1 
  279000    1.2004334   -7.2787178    104.80295   0.03130315  0.032559246            1 
  280000    1.2033773   -7.2264682    105.58468   0.03142401  0.032557782            2 
  281000    1.1782994   -7.2075665    106.22163  0.031501078  0.032558846            1 
  282000    1.2213077   -7.2242572    106.27088  0.031403925  0.032559517            1 
  283000    1.2202795   -7.2618795    106.27183  0.031293237    0.0325589            1 
  284000      1.20131   -7.2170642    106.96803  0.031387332  0.032558913            1 
  285000    1.1902803   -7.2041976    107.57542    0.0314548  0.032557984            3 
  286000    1.2160175   -7.2122982    107.69472  0.031379579   0.03255845            2 
  287000    1.1988103   -7.2374604    108.61675  0.031537966  0.032557585            6 
  288000    1.2161964   -7.2714665     108.9346  0.031520427   0.03255916            2 
  289000    1.2122277   -7.2068143    109.65625  0.031619449  0.032560862            1 
  290000    1.1902866   -7.2300626    109.90096  0.031580735  0.032563325            2 
  291000    1.1991625   -7.2225488    110.69849  0.031700599  0.032566333            3 
  292000    1.2036644   -7.1887973    110.84946  0.031635121   0.03256935            2 
  293000     1.197329   -7.2471985    110.87358  0.031534011  0.032572699            2 
  294000    1.1877461   -7.2006062    111.80326  0.031690265  0.032575646            1 
  295000    1.2327112   -7.2756679    111.62702  0.031533057  0.032577313            2 
  296000    1.2189457   -7.1955086     113.0504  0.031827252  0.032580752            2 
  297000    1.2017916   -7.2250087     112.4584  0.031553985  0.032585713            1 
  298000    1.2179651   -7.3081432    112.72697  0.031523201  0.032589232            1 
  299000    1.2304185   -7.2063024    113.80902  0.031719347  0.032592092            2 
  300000    1.1895832   -7.2271769    113.79312  0.031609199  0.032594667            1 
  301000     1.211647   -7.2075871    114.35463  0.031659643  0.032596571            1 
  302000    1.1910359   -7.2058869    114.52696  0.031602362  0.032598801            2 
  303000    1.2322052   -7.2682011    114.33885  0.031446327  0.032599133            1 
  304000    1.2031807   -7.2598626    115.29645  0.031605387  0.032600855            1 
  305000    1.2031409   -7.2486262    115.70921  0.031614539  0.032602832            1 
  306000    1.1864467    -7.206076    116.50467  0.031727852  0.032605512            1 
  307000    1.2212351   -7.2152918    116.30044  0.031569066  0.032607458            1 
  308000    1.1855871    -7.282726    116.12454  0.031418978  0.032606892            2 
  309000    1.2070087   -7.2704558    116.80849   0.03150175  0.032606191            1 
  310000    1.1792133   -7.2316916    117.58572  0.031609066   0.03260588            2 
  311000    1.1876933   -7.2475842     116.9657  0.031341292  0.032604259            1 
  312000    1.2106731   -7.2398899    117.51273  0.031386946  0.032601576            2 
  313000    1.1918596   -7.2605257    117.67194  0.031329058  0.032598071            2 
  314000    1.1984086   -7.2412667    118.16177   0.03135928  0.032594894            2 
  315000    1.1954822   -7.2621139    118.62322  0.031381804    0.0325909            1 
  316000    1.1921096    -7.259198    118.69249  0.031300763   0.03258547            1 
  317000     1.209172   -7.2341318    119.58748  0.031437298   0.03258126            2 
  318000    1.1751042   -7.2638893    119.22481    0.0312434   0.03257543            5 
  319000     1.206874   -7.2611028    119.78378  0.031291478  0.032569184            2 
  320000    1.2060725   -7.2566427    120.08056  0.031270979  0.032563514            2 
  321000     1.222258   -7.2575531    120.22591  0.031211295  0.032557469            1 
  322000    1.2150017   -7.2689035    120.13469  0.031090759  0.032550263            2 
  323000    1.1914873   -7.2571278    120.82693  0.031173099  0.032542812            2 
  324000    1.1888763   -7.2529122    121.85986  0.031342556  0.032536016            3 
  325000     1.198137   -7.2200235    121.58859  0.031176561   0.03252879            4 
  326000    1.2012961   -7.1941122    122.26462  0.031253738  0.032522184            3 
  327000    1.2065415    -7.260463    122.13895  0.031126134  0.032515178            2 
  328000     1.196859    -7.272057    122.44016  0.031107763  0.032507933            3 
  329000    1.2019211    -7.249544    123.26381  0.031221837  0.032500249            1 
  330000    1.2039227   -7.2394355    123.29087  0.031134058  0.032491386            4 
  331000    1.1990189   -7.2773639    123.00227  0.030967338  0.032481265            2 
  332000    1.2051921   -7.2306913    123.43191  0.030981906  0.032470465            1 
  333000    1.2132319   -7.2166423    123.71482  0.030959664   0.03245856            1 
  334000    1.2087649   -7.2688761    123.57595  0.030832322   0.03244747            2 
  335000    1.1945018   -7.2708393    123.68288  0.030766884  0.032435845            1 
  336000    1.2153663    -7.246207    124.93996  0.030987092  0.032425133            1 
  337000    1.2115291   -7.2572783     124.6437  0.030821884   0.03241357            2 
  338000    1.2174455   -7.2661076    124.95774   0.03080812  0.032401598            2 
  339000    1.1997276   -7.2828576    125.78309   0.03092013  0.032389297            3 
  340000    1.2154389   -7.2654649    125.64999  0.030796566  0.032377416            3 
  341000    1.2223658   -7.2460515    126.00971  0.030794161  0.032365042            1 
  342000    1.2017451   -7.2523067    126.69416  0.030870898  0.032352914            1 
  343000    1.2177823   -7.2116776    127.38385  0.030948456  0.032341512            2 
  344000    1.1818591   -7.2812938    127.02428  0.030771386  0.032329989            1 
  345000    1.1958255   -7.2515343     127.7333  0.030853455  0.032317972            3 
  346000    1.1817765   -7.2900313    127.70902  0.030758434   0.03230646            4 
  347000     1.197953   -7.2799581    127.65335  0.030656424   0.03229275            1 
  348000    1.1926989   -7.2782217    128.52843   0.03077788  0.032279109            2 
  349000    1.1981421   -7.2490902    128.60203  0.030707265  0.032266104            1 
  350000    1.1891259   -7.2608318    128.72666  0.030649206  0.032252424            2 
  351000     1.182086   -7.2725679    129.68261  0.030788844  0.032239226            2 
  352000    1.1952676   -7.2614949    129.80438  0.030730204  0.032226731            4 
  353000    1.2024079   -7.2291623    130.85035  0.030890072  0.032215764            1 
  354000    1.1919405    -7.283384    130.65026   0.03075571  0.032204362            2 
  355000    1.1983867   -7.2170967     130.8392  0.030713426  0.032192077            2 
  356000     1.182683   -7.2233148    131.76274  0.030843337  0.032181167            1 
  357000    1.1862975   -7.3167939    131.32797  0.030655454  0.032169981            1 
  358000    1.1920152   -7.2454492    132.43121  0.030826631  0.032158496            2 
  359000    1.2016789   -7.2512466    132.68354  0.030799336   0.03214717            1 
  360000    1.1859258    -7.319033     132.9875  0.030784144  0.032136789            1 
  361000    1.1893565   -7.2753753    133.69594  0.030862404  0.032126974            5 
  362000    1.1978258   -7.2487602    134.16112  0.030884235  0.032117297            3 
  363000    1.2205432   -7.2833653    134.25701  0.030821169  0.032107173            1 
  364000    1.2038621   -7.2789857    134.76693  0.030853236  0.032097429            1 
  365000    1.1883804   -7.2762588    135.16725  0.030860103  0.032087672            3 
  366000    1.1730439   -7.2914842    135.22465  0.030788855  0.032078529            1 
  367000    1.2263238   -7.2572738     135.7781  0.030830631  0.032070035            1 
  368000    1.1964409   -7.2682912    136.54868   0.03092135  0.032061344            2 
  369000    1.1968295   -7.2656069    136.44178   0.03081341   0.03205211            1 
  370000     1.225021   -7.2899811     136.4172  0.030724595   0.03204337            1 
  371000    1.1946406   -7.3047745    137.06981  0.030788368  0.032034817            1 
  372000     1.189015    -7.283773    137.39546  0.030778552  0.032026285            4 
  373000    1.1671005    -7.272948      138.256  0.030888294  0.032018182            1 
  374000    1.1629113   -7.2729915    138.19815  0.030792813  0.032010314            2 
  375000     1.172792   -7.2736942    138.81389   0.03084753  0.032001155            1 
  376000    1.1743196   -7.2857707    139.42906   0.03090183  0.031993008            1 
  377000    1.2121934   -7.2423834    139.98063  0.030941783  0.031985404            2 
  378000    1.1628011   -7.2600919    139.84275  0.030829531  0.031977446            1 
  379000    1.1897805   -7.2983137     140.0104  0.030785048  0.031968713            1 
  380000    1.2116327   -7.2420729    140.47268  0.030805413  0.031960452            1 
  381000      1.17403   -7.2583901    140.62279  0.030757391  0.031951129            1 
  382000    1.1804657   -7.2929692    140.68358  0.030690136  0.031941745            1 
  383000    1.1914384   -7.3019423    140.97814  0.030674094  0.031932162            2 
  384000    1.1720133   -7.3075677    141.55051  0.030718426  0.031922402            1 
  385000    1.2177034   -7.3083759    141.75241  0.030682341  0.031913252            2 
  386000    1.1792792   -7.3079391     142.2538  0.030711097  0.031903509            5 
  387000     1.204571   -7.3039636    142.56215  0.030698136  0.031894013            1 
  388000    1.1935931   -7.2699644    143.06687   0.03072742   0.03188479            1 
  389000    1.1594895     -7.29842     142.9085  0.030614503  0.031874904            3 
  390000    1.1651149   -7.2609364    143.56644  0.030676589  0.031865027            2 
  391000     1.184556   -7.2685384    143.83592  0.030655566  0.031855392            1 
  392000     1.172252   -7.2783648    144.10884  0.030635382  0.031845041            2 
  393000    1.2018689    -7.284664    144.20778   0.03057841  0.031834142            1 
  394000    1.2026034   -7.3035363    144.36509  0.030534071   0.03182308            1 
  395000    1.2027823   -7.2756844    144.62054  0.030510662  0.031811278            1 
  396000    1.1874984   -7.2561948    144.91642  0.030495879  0.031799789            2 
  397000    1.1848954   -7.3057215    145.43404  0.030527717  0.031788102            3 
  398000    1.2174369   -7.2628734    146.02665  0.030575095  0.031775608            2 
  399000    1.1815985   -7.2639941    146.18654  0.030531859  0.031764232            1 
  400000    1.1670438   -7.2523455    146.72529  0.030567769  0.031753003            2 
  401000    1.1808934   -7.2981536     146.3331  0.030410037  0.031742398            2 
  402000    1.1981465   -7.2913384    147.19156  0.030512347  0.031731456            4 
  403000    1.2240646      -7.2821    147.35449  0.030470326  0.031720911            1 
  404000    1.1686778   -7.2640889    148.23934  0.030577421  0.031709745            2 
  405000    1.1720797   -7.2355536    148.73262   0.03060342  0.031699022            3 
  406000    1.1731041   -7.2878202    148.41768  0.030463399  0.031688331            2 
  407000     1.201681   -7.2921627    148.41494  0.030387988  0.031677754            1 
  408000    1.1870188    -7.281755    148.88916  0.030410368  0.031666513            1 
  409000    1.1823679   -7.2360924    149.37235  0.030434465   0.03165494            3 
  410000    1.1709143   -7.2372835    149.86981  0.030461343  0.031643505            1 
  411000    1.1844806   -7.2626128    149.93438   0.03040032  0.031632641            1 
  412000    1.1840808   -7.2901507    150.32138  0.030404809  0.031621325            2 
  413000    1.1811983   -7.3026867    150.28036  0.030322913  0.031609439            2 
  414000    1.2113657   -7.2974186    150.66901  0.030327901  0.031597956            1 
  415000    1.1892976     -7.25388    151.55384  0.030432498  0.031586974            2 
  416000    1.1939027   -7.2897932    151.63089  0.030374778  0.031575573            1 
  417000    1.1773466   -7.2695572     151.7069  0.030317127   0.03156426            2 
  418000    1.1745683   -7.2909065    152.69085   0.03044076  0.031553654            1 
  419000    1.1995157   -7.2778459    152.90407  0.030410515  0.031543133            2 
  420000    1.1861193    -7.295608    153.08229   0.03037347  0.031531903            1 
  421000    1.1888093   -7.3115635    152.97578  0.030280242  0.031520497            2 
  422000    1.1798756    -7.323496    153.28362  0.030269278   0.03150899            1 
  423000    1.2154516   -7.3141145    154.12289   0.03036306  0.031498107            2 
  424000    1.1845273   -7.3263893    154.86311  0.030436931  0.031487512            2 
  425000    1.1796345   -7.2931823    154.40653   0.03027579  0.031476794            3 
  426000      1.16598   -7.2906842    154.92342  0.030305833  0.031465781            4 
  427000    1.1892939   -7.3257154    154.27713  0.030108729  0.031454059            2 
  428000     1.205734   -7.3258785    155.13112  0.030204657  0.031441813            1 
  429000    1.1657985   -7.2763798    155.56157  0.030217864  0.031428819            1 
  430000    1.1983021   -7.3042975    155.44604  0.030125201  0.031416047            5 
  431000    1.1821684   -7.3044485    155.63999  0.030092805  0.031402927            6 
  432000    1.1631338   -7.2434339    156.48333  0.030185827   0.03138954            4 
  433000     1.215334   -7.2489636    156.26947  0.030074955  0.031376312            2 
  434000    1.1763134   -7.2713998    156.59704  0.030068557  0.031363774            2 
  435000    1.1856175   -7.3262982      156.375  0.029956897  0.031350033            1 
  436000    1.2055185   -7.2604452     157.3296  0.030070642  0.031336531            2 
  437000    1.2049127   -7.2904903    157.61901   0.03005702  0.031322905            3 
  438000    1.1727168   -7.3093769    157.40859  0.029948362  0.031308731            3 
  439000    1.1941331   -7.2627411    157.54997  0.029906979  0.031294532            2 
  440000    1.1619349   -7.2516735    158.95081   0.03010432  0.031280796            3 
  441000    1.1461106   -7.2701974    159.38071  0.030117292  0.031267617            1 
  442000    1.1921357   -7.3111569    158.57011  0.029896325  0.031253941            3 
  443000    1.1885692   -7.3300613     158.7373  0.029860289  0.031239685            2 
  444000    1.2018618   -7.3593962    159.63977   0.02996242  0.031225875            5 
  445000     1.194537   -7.2722089    160.44497  0.030045875  0.031212566            3 
  446000     1.179223   -7.3115519    160.86101  0.030056243  0.031199856            3 
  447000    1.1930666   -7.2751487    160.95227  0.030006016  0.031187449            1 
  448000    1.1828201   -7.3192221    161.11442  0.029969199  0.031175273            3 
  449000    1.1450502   -7.2669314    161.72585  0.030015933  0.031163182            2 
  450000    1.1702324   -7.2854848    161.93313  0.029987617  0.031151441            2 
  451000    1.1777523   -7.3186832    162.34591  0.029997397  0.031139559            2 
  452000    1.1738638   -7.3250364    162.31762  0.029925815  0.031127215            1 
  453000    1.1774257   -7.2795334    162.68705  0.029927714   0.03111503            2 
  454000    1.1751475    -7.275546    163.52002  0.030014688  0.031102737            2 
  455000     1.185708   -7.2919903    163.89177  0.030016807  0.031090861            2 
  456000    1.1876905   -7.2854008    164.24955  0.030016365  0.031079509            1 
  457000    1.2031564   -7.2847997    164.45426  0.029988013  0.031067648            4 
  458000    1.1824869    -7.294368    165.42655  0.030099445  0.031055807            3 
  459000    1.1761098   -7.3044139    163.90161   0.02975701  0.031043247            3 
  460000    1.1412782    -7.308501    164.80787  0.029856498  0.031030225            2 
  461000    1.1780373   -7.2491072       165.91  0.029990962  0.031017449            4 
  462000    1.1734395   -7.3287896    165.67511  0.029883678  0.031005514            3 
  463000     1.193914    -7.284448     166.3878  0.029947408  0.030993827            1 
  464000    1.1754076   -7.3113089    166.28742  0.029864837  0.030982138            2 
  465000    1.1551269   -7.2961267    167.06573  0.029940095  0.030970504            1 
  466000    1.1919421    -7.290261    167.21173  0.029901955  0.030959081            3 
  467000    1.1831272   -7.3016233    167.43979   0.02987862  0.030947567            2 
  468000    1.1848761   -7.3308308    167.28879   0.02978789  0.030935543            2 
  469000    1.1896063   -7.2861857    168.22687  0.029891058  0.030923113            2 
  470000    1.1783237   -7.2786976    168.00492  0.029788106  0.030911045            2 
  471000    1.1795116   -7.2696615    169.29458   0.02995304  0.030899098            1 
  472000    1.1840272   -7.3152368    168.85845  0.029812579  0.030887217            5 
  473000    1.1532949   -7.3277881    169.00206  0.029774852  0.030874988            4 
  474000    1.1935518   -7.3289122    169.59068   0.02981552  0.030862642            3 
  475000    1.1766442   -7.2881337    170.13649  0.029848507  0.030851529            1 
  476000    1.1702158   -7.3381172     169.9953  0.029761082  0.030840831            1 
  477000     1.205088    -7.301211    170.56772  0.029798693  0.030829187            2 
  478000    1.1672358    -7.352514    170.61188  0.029744052  0.030817687            1 
  479000    1.1737783   -7.3286717    171.39895  0.029818885  0.030806063            3 
  480000    1.1616366   -7.3142813    170.62136  0.029621764  0.030793883            2 
  481000      1.14999   -7.3348683    171.23927  0.029667233  0.030781061            1 
  482000    1.2198115   -7.3096259    171.58826   0.02966602  0.030768527            2 
  483000    1.1503297   -7.2581901    172.81216  0.029815763  0.030756473            7 
  484000    1.1925197   -7.3008365    172.46053  0.029693617   0.03074466            3 
  485000    1.2197965   -7.2935663    173.02283  0.029729009  0.030733183            2 
  486000    1.1806452   -7.2912017    173.22603   0.02970268  0.030721504            1 
  487000    1.1648748   -7.3431687    174.18388  0.029805591    0.0307108            1 
  488000    1.1856337   -7.2904296    173.74599  0.029669739   0.03069971            2 
  489000    1.1582064   -7.3414976    173.71134   0.02960316  0.030687868            2 
  490000    1.1577797   -7.2957747    174.53696  0.029683156  0.030675923            2 
  491000    1.1562797   -7.2656696    175.15825  0.029728148  0.030664401            1 
  492000    1.1909442   -7.2947375     174.7857  0.029604624     0.030653            2 
  493000    1.1725364   -7.3251503    175.51743   0.02966826  0.030641914            1 
  494000     1.154227    -7.325701    175.17349  0.029550183  0.030630514            1 
  495000    1.1747309   -7.3293662    176.04958  0.029637977  0.030618225            2 
  496000    1.1526501   -7.2868508    176.12412  0.029590746  0.030605725            4 
  497000    1.1750926   -7.3059253    176.50153  0.029594489  0.030593745            1 
  498000     1.174293   -7.3131739    176.75991  0.029578298   0.03058213            2 
  499000    1.1596693   -7.3613477    176.99446  0.029558193  0.030570469            2 
  500000     1.180172   -7.3090515    177.81951  0.029636585  0.030558627            1 
  501000    1.1629615   -7.3257293    177.47288  0.029519774  0.030547101            2 
  502000    1.1546965   -7.2891588    178.29324  0.029597152  0.030535322            3 
  503000    1.1740775   -7.3259681     177.9514  0.029481677  0.030522835            1 
  504000    1.1602183   -7.2983588    178.75032  0.029555277  0.030510987            1 
  505000    1.1645579   -7.3230303    178.65888  0.029481663  0.030499888            3 
  506000    1.1853274   -7.2968944    179.86384  0.029621844  0.030488548            1 
  507000    1.1789255   -7.3316317     179.4181  0.029490154   0.03047697            2 
  508000    1.1527581   -7.3869515    179.12245  0.029383604  0.030465282            1 
  509000    1.1603892   -7.3403701    179.99301  0.029468404   0.03045362            1 
  510000    1.1686842   -7.3509259    180.40549  0.029478021  0.030442019            2 
  511000    1.1594399   -7.3924077    180.40716  0.029420606  0.030430204            1 
  512000    1.1648215   -7.3285616    180.88669  0.029441193  0.030418214            3 
  513000    1.1648481   -7.3322645    181.01111  0.029404014  0.030406409            1 
  514000    1.1773782   -7.2926819    181.64502  0.029449581   0.03039503            1 
  515000    1.1788362   -7.3010656    181.19918  0.029320256  0.030382402            2 
  516000    1.1741434   -7.3072855    181.83776  0.029366564  0.030370141            1 
  517000    1.1627689   -7.3129915    182.20499  0.029368954  0.030357654            1 
  518000    1.1578077   -7.3219092    181.66692  0.029225695    0.0303447            3 
  519000    1.2014182     -7.28412    182.96374  0.029377608  0.030331456            1 
  520000    1.1587599   -7.3121405    182.55758  0.029256023  0.030318295            1 
  521000    1.1604114   -7.2940619    182.74022  0.029229082   0.03030497            2 
  522000    1.1736807   -7.3076818    183.18525  0.029244133  0.030291419            4 
  523000    1.1756822   -7.3366068    183.45645  0.029231429  0.030277891            3 
  524000    1.1236939    -7.342456     183.8605  0.029239901  0.030265404            1 
  525000    1.1498726   -7.3580851    183.54953  0.029134847  0.030252247            2 
  526000    1.1455843   -7.3065342    185.30128  0.029356984  0.030239286            2 
  527000    1.1531957       -7.306    184.75284  0.029214555  0.030226864            1 
  528000    1.1413078   -7.3318779    184.70748  0.029152064  0.030213791            1 
  529000    1.1840381   -7.3249318    185.29497  0.029189504   0.03020082       -1e+20 
  530000    1.1581061   -7.3452601    185.62523  0.029186356  0.030188503            2 
  531000    1.1334329   -7.3217547    186.20168  0.029221858  0.030176273            1 
  532000    1.1787592   -7.3143704       186.64  0.029235589  0.030164341            3 
  533000    1.1684689   -7.3240991    186.76747  0.029200667   0.03015266            1 
  534000    1.1745202    -7.313954    187.42352  0.029248365  0.030141059            2 
  535000    1.1378451   -7.3448307    187.10542  0.029144147  0.030129414            3 
  536000    1.1479599   -7.3527431    186.97612   0.02906967  0.030116998            4 
  537000    1.1712791   -7.3457505    187.12795  0.029039098  0.030104931            3 
  538000    1.1788235   -7.3503075    187.45491  0.029035767  0.030092064            1 
  539000    1.1610088   -7.3464838    189.05267  0.029228923  0.030079814            1 
  540000    1.1737901   -7.3039347     189.2041  0.029198163  0.030068211            1 
  541000    1.1468689   -7.3224577    189.61607  0.029207651  0.030057021            1 
  542000    1.1801534   -7.3499265    189.43439  0.029125828  0.030045796            3 
  543000     1.155947   -7.3322554    190.34729  0.029212292  0.030034686            4 
  544000    1.1536444    -7.325568    190.41758  0.029169359  0.030023296            2 
  545000    1.1403395    -7.388937    190.37359  0.029109112  0.030011988            1 
  546000    1.1615854   -7.3361868    191.38165  0.029209654  0.030000651            2 
  547000      1.15926   -7.3452159    190.73489  0.029057723  0.029989427            2 
  548000    1.1615356   -7.3468252    191.70972  0.029152937  0.029978855            1 
  549000    1.1831393   -7.3580611     191.3555  0.029046069  0.029967667            1 
  550000    1.1593158   -7.3483554    191.61978    0.0290333  0.029956134            1 
  551000    1.1488915   -7.3080989    192.59254  0.029127729  0.029944874            1 
  552000    1.1587437   -7.3821195    192.06286  0.028994998  0.029933815            3 
  553000    1.1509002   -7.3256851    192.53848  0.029014238  0.029922458            1 
  554000    1.1828555   -7.3257734     193.0071  0.029032355  0.029911441            2 
  555000    1.1694636   -7.3425606    193.56826  0.029064304  0.029900074            1 
  556000    1.1740954   -7.3107761    193.88777  0.029059917  0.029888641            6 
  557000    1.1772425   -7.3321131    193.77327  0.028990615  0.029877152       -1e+20 
  558000     1.165357   -7.2952338    194.78595  0.029089897  0.029865743            2 
  559000    1.1451623   -7.3916284    194.56534   0.02900497  0.029854589            2 
  560000    1.1381013   -7.3975093    194.14012  0.028889899  0.029842663            2 
  561000     1.162194   -7.3645881    195.61671   0.02905774  0.029830912            1 
  562000    1.1577548   -7.3322094    195.59024  0.029002111  0.029819064            1 
  563000     1.151427   -7.3219161    195.62086   0.02895513  0.029807007            1 
  564000    1.1413547   -7.3467979     195.8324  0.028935047  0.029795236            2 
  565000    1.1794478   -7.3232214    196.34156  0.028958932   0.02978355            1 
  566000    1.1633362   -7.3207887      196.717  0.028963044  0.029771902            2 
  567000    1.1559514   -7.3708039    195.60161  0.028748032  0.029759385            2 
  568000    1.1668393   -7.3189838     196.9325  0.028892679  0.029747685            1 
  569000    1.1749318   -7.3133146    197.13896  0.028872138  0.029735974            2 
  570000    1.1634244   -7.3210264    198.06994  0.028957593  0.029724608            1 
  571000    1.1931303   -7.3119756    198.39052  0.028953666  0.029713799            1 
  572000    1.1595654   -7.3325062    198.06278    0.0288553  0.029702761            2 
  573000    1.1579592   -7.3368354    199.03597  0.028946476  0.029691628            2 
  574000    1.1566449   -7.3847068    198.48929   0.02881668  0.029680859            2 
  575000    1.1823785   -7.3537158    200.08118  0.028997272  0.029669865            1 
  576000    1.1800452   -7.3363723    199.20283  0.028819854  0.029659244            2 
  577000    1.1707408   -7.3464624    200.56186  0.028966184  0.029648582            3 
  578000    1.1730861   -7.3449729    200.43391  0.028897622  0.029638008            1 
  579000    1.1750079   -7.3420408    200.50565  0.028858038  0.029627537            3 
  580000    1.1783871   -7.3484973    201.00889  0.028880587  0.029616894            3 
  581000    1.1650896   -7.3759549    201.76813  0.028939778  0.029606983            1 
  582000    1.1470857   -7.3143565    202.33701  0.028971508  0.029596803            1 
  583000    1.1403664   -7.3245905    202.60844  0.028960612  0.029586736            3 
  584000    1.1622744   -7.3378188     202.3862  0.028879309  0.029576566            2 
  585000    1.1536204   -7.3175388    202.99409  0.028916536  0.029566299            1 
  586000    1.1573504    -7.359822    202.96025  0.028862379  0.029555939            4 
  587000    1.1520125   -7.3408868    203.35968  0.028869915  0.029545524            2 
  588000    1.1901583   -7.3526812    203.89076  0.028896082  0.029535429            2 
  589000    1.1719083   -7.3549409    203.88287  0.028845907  0.029525069            1 
  590000    1.1595313   -7.3278352    205.16302  0.028977827  0.029514695            3 
  591000     1.128247   -7.3773485     204.0178  0.028767315  0.029504394            1 
  592000     1.156833   -7.3600374    204.28064  0.028755721  0.029493892            1 
  593000    1.1616001   -7.3649423    204.34111  0.028715727  0.029483298            2 
  594000    1.1616454   -7.3333743    205.43085  0.028820265  0.029473085            1 
  595000    1.1671333   -7.3472445    205.62012  0.028798336  0.029463096            3 
  596000    1.1610257    -7.363941    206.57148  0.028883037  0.029453524            1 
  597000    1.1636822   -7.3632764    206.68649  0.028850711  0.029443838            3 
  598000    1.1609416   -7.3783183    206.26482  0.028743704  0.029434111            1 
  599000    1.1663472   -7.3435603    206.69879  0.028756091  0.029424034            1 
  600000    1.1486242   -7.3458113     207.2483  0.028784486  0.029413934            1 
  601000    1.1563006   -7.3307138    207.52919  0.028775539    0.0294042            5 
  602000    1.1470542   -7.3436731    208.10174  0.028806996   0.02939453            1 
  603000    1.1534747   -7.3642063    207.85863  0.028725626  0.029384979            2 
  604000    1.1641242   -7.4154734    208.13428  0.028716098  0.029375614            1 
  605000    1.1400638   -7.3686353    208.56362  0.028727771  0.029366499            3 
  606000    1.1591098   -7.3695912    208.60384  0.028685896  0.029356913            2 
  607000    1.1491521   -7.4290094    208.36777  0.028606228  0.029346734            1 
  608000    1.1608073   -7.3178992    209.09251  0.028658513  0.029336862            2 
  609000    1.1682716   -7.3648134    209.47583  0.028663907  0.029326815            1 
  610000     1.164507   -7.3559245    210.40038  0.028743221  0.029316966            1 
  611000    1.1367217   -7.3649083    210.97818  0.028774983  0.029307402            1 
  612000    1.1292094   -7.3071816    211.56493  0.028807861  0.029298105            2 
  613000    1.1646767   -7.3839855    211.22511   0.02871467  0.029288462            1 
  614000    1.1675009   -7.3677422    211.13924  0.028656249  0.029278739            2 
  615000    1.1422163   -7.3832389    211.44801  0.028651492  0.029268871            1 
  616000    1.1662112   -7.3601295    211.65566  0.028633071  0.029259307            1 
  617000    1.1589514    -7.347684    212.31446  0.028675643  0.029249656            4 
  618000    1.1402724   -7.3487025    212.36458     0.028636  0.029239977            6 
  619000    1.1583849   -7.3438769    213.08304  0.028686462  0.029230444            1 
  620000    1.1357129   -7.3762747    213.54526   0.02870232  0.029220898            2 
  621000    1.1892725   -7.3700496    213.13872  0.028601546   0.02921118            1 
  622000    1.1525912   -7.3507867    213.71075  0.028632201  0.029201823            3 
  623000    1.1349178   -7.3453734    213.93037  0.028615619  0.029192231            2 
  624000    1.1523374   -7.3888589    213.88176  0.028563269  0.029182464            3 
  625000    1.1600063   -7.3730552    214.01733  0.028535644   0.02917254            2 
  626000    1.1577416   -7.3655918    215.01526  0.028622904  0.029162778            1 
  627000    1.1584198   -7.3613134    215.06824  0.028584296   0.02915314            1 
  628000     1.148415   -7.4321754    215.06483  0.028538327   0.02914359            2 
  629000    1.1316439    -7.390003    215.44918  0.028543876   0.02913418            2 
  630000    1.1697056   -7.4026062    216.00223  0.028571723  0.029124841            2 
  631000    1.1600429   -7.3672284    215.66152  0.028481448  0.029115578            2 
  632000    1.1518374   -7.3800352    217.13445  0.028630597  0.029106876            1 
  633000    1.1298664   -7.3436907    217.36322  0.028615485  0.029097911            1 
  634000    1.1322332    -7.336801     218.1123   0.02866881   0.02908945            1 
  635000    1.1529412   -7.3152274    218.37897  0.028658657  0.029081072            2 
  636000    1.1730463   -7.3874874    218.04098  0.028569311   0.02907256            1 
  637000    1.1715511   -7.3778154    218.40493  0.028572074  0.029063688            2 
  638000     1.163719   -7.3656591    218.26854  0.028509475  0.029055206            2 
  639000    1.1464988   -7.3410357    220.00594  0.028691437  0.029046417            2 
  640000    1.1666045   -7.3512928    219.35462  0.028561799  0.029038059            3 
  641000    1.1131327   -7.4043114    219.52986  0.028540023  0.029028956            3 
  642000    1.1654791    -7.367482    219.80273  0.028530988  0.029020438            1 
  643000     1.140981   -7.3526919    220.74229  0.028608384  0.029011909            1 
  644000    1.1394368   -7.3702437    220.48472  0.028530632   0.02900311            1 
  645000    1.1567263   -7.4132668    220.64871  0.028507585  0.028994267            5 
  646000    1.1409921   -7.4006395    220.90014  0.028495891  0.028985493            1 
  647000    1.1538952   -7.4002559    221.58954  0.028540641  0.028977486            2 
  648000    1.1679201   -7.3935049    221.20964  0.028447742  0.028969304            2 
  649000    1.1647224   -7.3839939    221.72617  0.028470232  0.028961143            2 
  650000    1.1589842   -7.4225228    222.01451  0.028463398  0.028952979            2 
  651000     1.143227   -7.3849779    223.84572  0.028654086  0.028944591            2 
  652000    1.1595361   -7.4124223    223.55614  0.028573126  0.028936847            3 
  653000     1.121406     -7.33743    224.49259  0.028648875  0.028929297            1 
  654000    1.1572242   -7.3645742    223.87801  0.028526759  0.028921777            2 
  655000    1.1207047   -7.3818645    223.79372  0.028472484   0.02891412            2 
  656000    1.1227271   -7.4132867    225.05057  0.028588741  0.028906542            2 
  657000    1.1329937   -7.4139172    225.31168  0.028578346  0.028899329            3 
  658000    1.1232826   -7.4043362    225.27322  0.028530043   0.02889157            1 
  659000    1.1710917    -7.430799    224.71425  0.028416066  0.028883803            1 
  660000    1.1758089   -7.3586382    226.14981  0.028554269  0.028875804            4 
  661000    1.1516192     -7.36601    226.12393  0.028507807   0.02886818            4 
  662000    1.1559779   -7.3793645    226.94268  0.028567809  0.028860625            1 
  663000    1.1689296   -7.3021413    227.18661   0.02855538  0.028853012            1 
  664000     1.129476   -7.3539864    227.35521  0.028533536  0.028845574            1 
  665000    1.1471838   -7.3408765    227.63052  0.028525127  0.028838195            3 
  666000    1.1453501   -7.4284528    227.82413  0.028506523   0.02883061            1 
  667000    1.1371708   -7.4025441    228.18609  0.028509007  0.028822768            2 
  668000    1.1603732   -7.3395894    228.59378  0.028517188  0.028815193            2 
  669000    1.1584107   -7.4076617    228.77201  0.028496763  0.028807556            1 
  670000    1.1613676   -7.4156215    228.65582  0.028439779  0.028799622            1 
  671000    1.1562887   -7.3854767    228.86594  0.028423489  0.028791563            1 
  672000    1.1724131   -7.3839575    228.94465  0.028390954  0.028784089            3 
  673000    1.1533982   -7.3724621    229.53171  0.028421459   0.02877656            3 
  674000    1.1415348   -7.3523685     230.2104  0.028463204  0.028768851            2 
  675000    1.1606413   -7.3626374    229.90673  0.028383547  0.028761156            2 
  676000    1.1259829   -7.4244684    229.89228  0.028339778  0.028753023            4 
  677000    1.1299279   -7.3716058      230.041  0.028316224  0.028744699            1 
  678000    1.1456689   -7.3771602    230.41477    0.0283204  0.028736421            1 
  679000    1.1535112   -7.3585925    231.26664   0.02838324  0.028728003            1 
  680000    1.1725307   -7.3800258    230.54939  0.028253602    0.0287194            1 
  681000    1.1350278   -7.4105526    230.84359  0.028248115  0.028710419            3 
  682000    1.1336308   -7.3732558    231.25227  0.028256631   0.02870177            1 
  683000    1.1562488   -7.4059714    231.13834  0.028201359  0.028693084            3 
  684000     1.149224   -7.3960848    231.85152  0.028247017  0.028684659            6 
  685000     1.150499   -7.4327806    232.25688  0.028255095    0.0286762            2 
  686000    1.1351725   -7.4053618    233.09867  0.028316164  0.028667893            2 
  687000    1.1216359   -7.3963547    233.82562  0.028363127  0.028659957            4 
  688000    1.1501866    -7.439021    233.65131  0.028300788  0.028652002            3 
  689000    1.1507331    -7.414516    234.37996  0.028347842  0.028644211            3 
  690000     1.115569    -7.389086    234.31335  0.028298714  0.028636094            3 
  691000    1.1358579   -7.3386388    235.27456   0.02837368  0.028628447            2 
  692000    1.1441324   -7.4218528    234.33284  0.028219273  0.028620433            2 
  693000    1.1235137   -7.3863936    234.97888  0.028256238  0.028612357            1 
  694000    1.1340549   -7.3785107    235.88807  0.028324696  0.028604604            2 
  695000    1.1337153   -7.3917467    235.44603  0.028230939  0.028596736            2 
  696000    1.1460963   -7.4031014     235.3917  0.028183872  0.028588839            2 
  697000    1.1192103    -7.392806    236.20297  0.028240432  0.028580954            1 
  698000    1.1408356   -7.3943932    236.16538  0.028195485  0.028572711            2 
  699000    1.1402734   -7.4189834    235.88508  0.028121731  0.028564143            1 
  700000    1.1190087   -7.3985519    236.96335  0.028209923  0.028555636            1 
  701000    1.1262621   -7.3784088    237.09676  0.028185539  0.028547401            2 
  702000    1.1247521   -7.4487264    237.16617  0.028153629  0.028538848            1 
  703000    1.1273205   -7.3517691     237.8719  0.028197239  0.028530661            2 
  704000    1.1800717   -7.3991589    237.59567  0.028124487  0.028522328            2 
  705000    1.1597449   -7.3986597    237.84694  0.028114295  0.028514282            2 
  706000    1.1291743    -7.382614    238.50164  0.028151751  0.028505871            3 
  707000    1.1232062   -7.4127312    238.55278   0.02811796  0.028497713            2 
  708000    1.1341344   -7.4017974    239.43962  0.028182629  0.028489956            2 
  709000    1.1412184   -7.4035845    239.51657  0.028151924  0.028482516            2 
  710000     1.132148   -7.4243044    239.57808  0.028119493   0.02847497            1 
  711000    1.1378567   -7.4113714    240.78011  0.028220828  0.028467618            3 
  712000    1.1444153   -7.4075895    240.97275  0.028203739  0.028460615            6 
  713000    1.1442558   -7.4112697    241.20061  0.028190814  0.028453407            6 
  714000    1.1425033    -7.395185    241.52286  0.028188943  0.028446068            2 
  715000    1.1597723    -7.459731    241.31272  0.028125026  0.028439235            1 
  716000     1.137694   -7.4193661    242.44714  0.028217778  0.028432381            2 
  717000    1.1276655   -7.3438368    243.96853  0.028355245  0.028425916            5 
  718000    1.1447365   -7.3761369    243.02735  0.028206517  0.028419572            4 
  719000    1.1056802   -7.3884785    243.73143  0.028248891  0.028413205            2 
  720000    1.1409906   -7.3334831    244.28895  0.028274184  0.028407179            3 
  721000    1.1337734   -7.3704121    244.77255  0.028290863  0.028400778            4 
  722000    1.1527009   -7.3614799    244.62117  0.028234207  0.028394439            2 
  723000    1.1504387   -7.4068738    244.82057  0.028218138  0.028388115            2 
  724000    1.1589028   -7.3716803    245.51622  0.028259233  0.028381716            1 
  725000    1.1513812   -7.4334424    245.39563  0.028206394  0.028375301            2 
  726000    1.1624846   -7.3775495    245.76176  0.028209569  0.028368422            6 
  727000    1.1472505   -7.4073351    245.25331  0.028112484  0.028361793            2 
  728000    1.1355509   -7.4485404    245.95737  0.028154461  0.028354823            3 
  729000    1.1409116   -7.4056079    245.86895  0.028105733  0.028348085            2 
  730000    1.1468597   -7.3882091    247.25333  0.028225266  0.028341456            3 
  731000    1.1340417   -7.4204949    247.02262  0.028160353  0.028334714            4 
  732000     1.145457   -7.3895525    247.51982  0.028178486  0.028327895            1 
  733000    1.1167788   -7.4160002    247.48869  0.028136504  0.028320996            1 
  734000    1.1215983   -7.4064323    247.75755  0.028128696  0.028313977            1 
  735000      1.11302   -7.4053828    248.24706  0.028145925  0.028307216            3 
  736000    1.1337564   -7.4095481    247.65417  0.028040553  0.028300356            5 
  737000    1.1316146   -7.4389846    248.68472  0.028119032  0.028293817            2 
  738000    1.1215534    -7.390243     249.1768  0.028136495  0.028286948            5 
  739000    1.1375811   -7.4210428    248.67114  0.028041401  0.028280178            4 
  740000    1.1233545   -7.3966797    249.38358  0.028083737  0.028273585            1 
  741000    1.1029973   -7.4245632    249.43487  0.028051605  0.028266641            1 
  742000    1.1346364   -7.3856834     249.6967  0.028043205  0.028259665            3 
  743000    1.1553869   -7.4215042    249.71464  0.028007474  0.028252638            2 
  744000     1.124664   -7.3830275    250.47036  0.028054475  0.028245798            3 
  745000     1.144687   -7.3995322    250.17043   0.02798327  0.028238608            1 
  746000    1.1533964   -7.3793333    251.12267  0.028052131   0.02823162            3 
  747000     1.144856   -7.4311248    250.52598  0.027948012  0.028224528            1 
  748000    1.1504418   -7.4326155    251.33225  0.028000473  0.028217886            2 
  749000    1.1331104   -7.4033224     251.4799  0.027979517  0.028210885            2 
  750000    1.1481196   -7.4052646    251.92276  0.027991417  0.028203828            3 
  751000    1.1519964   -7.3872454    252.58456  0.028027581  0.028196813            3 
  752000    1.1288477   -7.4156179    252.13731  0.027940748  0.028189645            3 
  753000    1.1227891   -7.3750244     253.1137  0.028011698  0.028182477            2 
  754000    1.1420388   -7.4194376    253.09141  0.027972083   0.02817537            2 
  755000    1.1306669   -7.4422023    253.38409  0.027967339   0.02816822            4 
  756000     1.112614   -7.4357808    253.08148  0.027896989  0.028160986            2 
  757000    1.1333931   -7.4209763    253.55388   0.02791214  0.028153578            1 
  758000    1.1230797   -7.4188965    253.64396   0.02788522  0.028146571            3 
  759000    1.1378472   -7.3852567    254.02945  0.027890805  0.028139239            1 
  760000    1.1277273   -7.3870303    253.90603  0.027840573  0.028131798            1 
  761000    1.1159324   -7.4465209    254.47197  0.027865963  0.028124397            1 
  762000    1.1358334   -7.4514513    254.17439  0.027796849  0.028116715            2 
  763000    1.1114269   -7.4060759    256.22435  0.027984311  0.028109544            1 
  764000    1.0964122   -7.4126728     255.5155  0.027870364  0.028102702            2 
  765000    1.1063785   -7.4790187    254.82824  0.027759068  0.028095518            1 
  766000    1.1261457   -7.4387972    256.43884  0.027898046  0.028088542            2 
  767000    1.1226296   -7.4024857    256.66204  0.027885924  0.028081639            2 
  768000      1.12082   -7.4731932    256.47808  0.027829653  0.028074973            1 
  769000    1.1349412    -7.394554    257.22236  0.027874118  0.028068509            2 
  770000     1.126504   -7.4142902    257.47356  0.027865103  0.028061722            1 
  771000    1.1333587   -7.4018917    258.71258  0.027962882  0.028055031            2 
  772000    1.1239007   -7.3892822    258.97058   0.02795451  0.028048879            1 
  773000     1.125316   -7.4174084    260.01722  0.028031179  0.028042703            2 
  774000    1.1296828   -7.3844849    260.09059  0.028002863  0.028036651            4 
  775000     1.136846   -7.4062939    259.41521  0.027894109   0.02803053            2 
  776000    1.1481435   -7.4075058    259.83343  0.027903074  0.028024195            1 
  777000    1.1221258     -7.41349    260.80416  0.027971274  0.028018493            1 
  778000    1.1257455   -7.4024722    260.30796  0.027882173  0.028012685            2 
  779000    1.1594198   -7.4372015    260.68673  0.027886899  0.028006764            8 
  780000    1.1430386   -7.4489224    261.08869  0.027894091  0.028000272            2 
  781000    1.1454412   -7.4025088    262.20996  0.027978015  0.027994198            3 
  782000     1.106829   -7.4010957    262.12209  0.027932874  0.027988286            3 
  783000    1.1294843   -7.4296488    261.74496  0.027857063    0.0279819            2 
  784000    1.1525959    -7.417913    261.67266  0.027813846  0.027975544            2 
  785000    1.1085492   -7.4202973    263.23934  0.027944728  0.027969288            1 
  786000     1.141078   -7.4075383    262.14267  0.027792904  0.027963084            2 
  787000    1.1236806    -7.413232    262.81423  0.027828699  0.027956432            6 
  788000     1.121112   -7.4301395    263.37096  0.027852259  0.027950116            1 
  789000    1.1437125   -7.4651758    263.10082  0.027788427  0.027943638            2 
  790000    1.1336653   -7.4460285    263.93861  0.027841626  0.027937527            2 
  791000    1.1286237   -7.4265567    264.87864  0.027905462  0.027931317            2 
  792000    1.1340302   -7.4341774    264.94385  0.027877089  0.027925356            2 
  793000    1.1252958   -7.4629123    264.68315  0.027814539  0.027919321            1 
  794000    1.1401696   -7.4336858    265.68255  0.027884399  0.027913329            2 
  795000    1.1451422   -7.4383775    265.56982  0.027837508  0.027907615            2 
  796000    1.1394403   -7.4324597    265.82587  0.027829341  0.027901719            2 
  797000    1.1169897   -7.4484183    265.62597  0.027773523   0.02789615            1 
  798000    1.1102958   -7.4352281     266.2574  0.027804657  0.027890246            1 
  799000    1.1260486   -7.4391286    267.14595  0.027862531  0.027884243            1 
  800000    1.1081199   -7.4394294    265.45517   0.02765158   0.02787827            1 
  801000    1.1184474   -7.4306952     266.2083  0.027695412  0.027871751            1 
  802000     1.123772   -7.4147446    267.38813  0.027783471  0.027865634            2 
  803000    1.1247753   -7.4306928    267.68307   0.02777948  0.027859364            3 
  804000    1.1136546   -7.4313408    266.55872  0.027628391  0.027853086            2 
  805000    1.1158312    -7.414588    267.69421  0.027711616  0.027846758            1 
  806000    1.1175991   -7.4458739     268.0769  0.027716801  0.027840388            2 
  807000    1.1395671   -7.4813167    267.91729  0.027665974  0.027834249            1 
  808000    1.1222002   -7.4403477    268.60461  0.027702621  0.027827643            2 
  809000    1.1598487   -7.3983926    268.99763  0.027708862   0.02782112            2 
  810000    1.1115944   -7.4639846    268.92235  0.027666908   0.02781473            1 
  811000     1.125226   -7.4307196    269.39979  0.027681853    0.0278083            1 
  812000    1.1369323   -7.4595544    269.99314  0.027708656   0.02780176            3 
  813000    1.1227621   -7.4037652    270.57358  0.027734069  0.027795542            1 
  814000    1.1629573    -7.437276    269.84781  0.027625697  0.027789354            1 
  815000    1.1304651   -7.4163782    271.19367  0.027729414  0.027783145            2 
  816000    1.1233108   -7.4126222    271.02004    0.0276777  0.027776832            2 
  817000    1.1064741   -7.4654579    270.17872  0.027558009  0.027770314            4 
  818000    1.1126104   -7.4675121    270.19687  0.027526168  0.027763512            2 
  819000    1.1435988   -7.4549687    271.83841  0.027659586  0.027756639            2 
  820000    1.1282953   -7.4325089    270.68138  0.027508271  0.027749845            1 
  821000    1.1299059   -7.4861616    270.46494  0.027452796  0.027742629            1 
  822000    1.1310707   -7.4380379    271.32115    0.0275062  0.027735942            2 
  823000    1.1296836   -7.4468272    271.74221  0.027515412  0.027729139            2 
  824000     1.143155   -7.4325364     272.1649  0.027524768  0.027722106            1 
  825000    1.1332744   -7.4036071    272.77022  0.027552547  0.027715006            1 
  826000    1.1213797   -7.4318707    272.30586  0.027472342  0.027708311            5 
  827000    1.1010821   -7.4094255    273.68849  0.027578445  0.027701525            1 
  828000     1.119885    -7.444027    273.52201  0.027528383  0.027694854            2 
  829000    1.1265149   -7.4273674    273.64065  0.027507102  0.027688403            3 
  830000    1.1273174   -7.4518099    273.74557  0.027484495  0.027681393            2 
  831000      1.11089    -7.475948    274.15859  0.027492839  0.027674844            1 
  832000    1.1391278   -7.4600324    274.94072  0.027538133  0.027668301            2 
  833000    1.1182948   -7.4224329    274.21542  0.027432515  0.027661639            2 
  834000     1.123841   -7.4806567     274.1848  0.027396563  0.027654671            1 
  835000    1.1197523   -7.4609104    274.85677  0.027430815  0.027647329            1 
  836000    1.1190535   -7.4272299    275.47409  0.027459538  0.027640222            1 
  837000      1.10996   -7.4612858    274.61278  0.027340978  0.027632956            2 
  838000    1.1127144   -7.4573672    275.62118   0.02740863  0.027625693            1 
  839000    1.1336259   -7.4326408    276.29916  0.027443302  0.027618564            5 
  840000    1.1359137   -7.4714884    276.43847  0.027424451  0.027611601            3 
  841000     1.106635   -7.4581097    276.03828  0.027352188  0.027604732            1 
  842000    1.1203658   -7.4604035    276.56796  0.027372126  0.027597741            2 
  843000    1.1092397     -7.45552    277.52755  0.027434514  0.027590994            1 
  844000    1.1200496    -7.482268    276.89987  0.027340034  0.027584102            3 
  845000    1.1234116   -7.4669472     276.6571  0.027283738  0.027577024            3 
  846000     1.109347   -7.4196935     278.8383  0.027466341  0.027570137            2 
  847000    1.1100513   -7.4337348    278.61575  0.027412017  0.027563315            1 
  848000    1.1198563   -7.4512367    278.35369  0.027353939  0.027556639            2 
  849000    1.1069529   -7.4650076    278.30572  0.027317012  0.027549758            4 
  850000    1.1100731   -7.4538128    279.64015    0.0274157  0.027542971            4 
  851000    1.1307742   -7.4824134    278.35618  0.027257754  0.027536162            1 
  852000    1.1274496   -7.4638566    278.58849  0.027248483  0.027529119            2 
  853000    1.1227178   -7.4546248    280.04351  0.027358686  0.027521957            2 
  854000     1.114856   -7.4766867    279.45883  0.027269597  0.027514883            1 
  855000    1.1310349   -7.4774186    280.05653  0.027295958  0.027507753            2 
  856000    1.1060133   -7.3980033      280.237   0.02728164  0.027500665            4 
  857000    1.1295466   -7.4925405    280.39687  0.027265351  0.027493601            3 
  858000     1.116616    -7.459637    281.62798  0.027353145  0.027486532            1 
  859000     1.114427    -7.471979    281.04043  0.027264302  0.027479704            2 
  860000    1.1317887   -7.4527568    281.26644    0.0272545  0.027472709            2 
  861000      1.11949   -7.4562982    281.71915  0.027266662  0.027465848            3 
  862000    1.1362727   -7.4811129    282.44086  0.027304801  0.027459099            1 
  863000    1.1212198   -7.4106802     283.8567  0.027409879  0.027452489            1 
  864000    1.1294098   -7.4958295    283.12198  0.027307289  0.027445739            2 
  865000    1.1120178   -7.4704214    283.56397  0.027318302  0.027439096            3 
  866000    1.0822463   -7.4659927    283.61725  0.027291883  0.027432494            2 
  867000    1.1289735   -7.4732251    284.18322  0.027314804  0.027426153            1 
  868000    1.1181647   -7.4211819    284.54444  0.027318015  0.027419724            2 
  869000    1.1115121   -7.4205764     285.7435  0.027401563   0.02741381            1 
  870000    1.1114172   -7.4442741    284.46661   0.02724776  0.027407781            1 
  871000    1.1267846   -7.4530401    285.87866  0.027351575  0.027401523            5 
  872000    1.1094994   -7.4241141     286.3137  0.027361783  0.027395289            2 
  873000    1.1225147   -7.4390748    285.74841  0.027276481  0.027388928            2 
  874000     1.126522   -7.4488569    286.28531  0.027296463  0.027382466            1 
  875000    1.1132544   -7.4804628    285.33798  0.027175046   0.02737581            2 
  876000    1.1206091   -7.4556982    286.68248  0.027271926  0.027369175            2 
  877000    1.1191499   -7.4490393    285.94947  0.027171177  0.027362444            1 
  878000    1.1237822   -7.4423958    287.19606  0.027258548  0.027355851            2 
  879000    1.0821095   -7.4861423    287.29451   0.02723687  0.027349403            2 
  880000    1.1096161   -7.4611871    287.88217  0.027261569  0.027342958            1 
  881000    1.1148251   -7.4686296    287.86127  0.027228649  0.027336495            3 
  882000    1.0951646   -7.4340657     289.3341  0.027336933  0.027330298            1 
  883000    1.0869859   -7.4985617    287.14016   0.02709892  0.027323548            4 
  884000    1.1020834   -7.4477967    288.42381  0.027189273  0.027317044            1 
  885000    1.1115195   -7.4596841    288.87753  0.027201274  0.027310423            2 
  886000    1.1287695   -7.4389707    288.72891  0.027156594  0.027303694            2 
  887000    1.1306018   -7.4540714    289.37795  0.027186955    0.0272971            2 
  888000    1.1178368   -7.4862163    289.00553   0.02712139  0.027290368            2 
  889000    1.0995314   -7.4847666    288.76216  0.027068069  0.027283859            2 
  890000    1.1050655   -7.4248838     291.4201  0.027286526  0.027277288            1 
  891000    1.1137077   -7.4972954    290.09588   0.02713205  0.027270905            2 
  892000    1.1102747   -7.4856797    290.68084  0.027156282  0.027264694            3 
  893000    1.1040167   -7.4873913    291.32785  0.027186249  0.027258553            2 
  894000    1.0904191   -7.4884744     291.6885  0.027189457  0.027252438            2 
  895000    1.1127875   -7.4945574    291.27879   0.02712093  0.027246209            1 
  896000    1.1214124   -7.4895435    291.75275  0.027134742  0.027240062            1 
  897000    1.1198068   -7.4522834    292.88113  0.027209321  0.027234285            2 
  898000    1.1251076   -7.4599352    293.07162  0.027196698  0.027228206            1 
  899000    1.0953694   -7.4880369    292.53345   0.02711656  0.027222086            2 
  900000    1.1054098    -7.494994     293.3269  0.027159898  0.027216031            1 
  901000    1.1304826   -7.4570515    293.58003  0.027153166  0.027209887            1 
  902000    1.0965269   -7.4525572    294.68645  0.027225282   0.02720422            4 
  903000    1.1256465   -7.4932513    294.27147  0.027156836  0.027198147            1 
  904000    1.0955181   -7.4827736    294.67777  0.027164249  0.027192265            1 
  905000    1.0938851   -7.5148694    294.81526  0.027146894  0.027186146            1 
  906000    1.1126415    -7.537179    294.72796    0.0271089  0.027179949            1 
  907000    1.1250322   -7.5005893    295.43518  0.027143989   0.02717378            4 
  908000    1.0878818   -7.4609594    295.98179  0.027164261  0.027168045            2 
  909000    1.1064926   -7.4804823    296.31386  0.027164821  0.027162115            2 
  910000    1.0995867    -7.478713    296.42917  0.027145528  0.027156182            2 
  911000    1.1234755   -7.4760978    297.04132  0.027171727  0.027150159            1 
  912000    1.1169965   -7.5028633    296.40189  0.027083506  0.027144305            2 
  913000    1.1140632   -7.5012397    296.31608   0.02704601  0.027138174            3 
  914000    1.0885815   -7.4765887    297.35882   0.02711149  0.027132321            3 
  915000    1.1032157   -7.5004251    297.85502  0.027127051  0.027126622            3 
  916000    1.1154813   -7.5058044     297.6963  0.027082997  0.027120767            4 
  917000    1.1280299   -7.4507259    297.99488  0.027080596  0.027114967            2 
  918000    1.0826829   -7.4911075    298.09038  0.027059766  0.027109133            3 
  919000    1.1163773   -7.4660578    299.25932  0.027136318   0.02710311            3 
  920000    1.0914362   -7.4333264    300.12328   0.02718508  0.027097572            1 
  921000    1.0928033    -7.476297    300.30161  0.027171698  0.027092043            2 
  922000    1.1012636   -7.4848797    299.93758  0.027109325   0.02708666            2 
  923000    1.0824158   -7.4534461    301.18548  0.027192622  0.027081447            2 
  924000    1.1193694   -7.5077892    300.65636  0.027115473  0.027076132            1 
  925000    1.0937385    -7.450718     302.2443  0.027229216  0.027070679            3 
  926000    1.1110856    -7.417514    301.83519  0.027162994  0.027065439            1 
  927000    1.1061994   -7.4958619    302.82275   0.02722247  0.027060161            4 
  928000    1.1079812   -7.4287238    303.47851  0.027252021   0.02705515            1 
  929000    1.1142096   -7.4402325    303.90137  0.027260618  0.027050533            1 
  930000    1.1314252   -7.4596688    304.27605  0.027264879  0.027045938            1 
  931000    1.0912409   -7.5126583    303.59931  0.027175019  0.027041245            2 
  932000    1.1055048   -7.4560803    304.64836   0.02723966  0.027036366            2 
  933000     1.113888     -7.50092    304.60499   0.02720659  0.027031224            2 
  934000    1.1117189   -7.5043235    304.40942  0.027160012  0.027026023            2 
  935000    1.0422922   -7.5178477    303.93414  0.027088604  0.027020882            2 
  936000    1.1031885   -7.5145121    304.31948  0.027093971  0.027015609            2 
  937000    1.0941395   -7.5156157    303.99978  0.027036622  0.027010491            3 
  938000    1.1085035   -7.4943069    305.14782  0.027109792  0.027005089            1 
  939000    1.1020538   -7.5047847    305.55943   0.02711745  0.026999858            3 
  940000    1.1035889   -7.4947669    304.53982  0.026998211  0.026994962            2 
  941000    1.1055009   -7.5238393    305.10929  0.027019951  0.026990141            2 
  942000    1.0930428    -7.482206    306.72345  0.027134063  0.026985165            2 
  943000     1.111278   -7.4957478    307.14492  0.027142535  0.026980045            1 
  944000    1.0834224   -7.5250832    305.98083  0.027011019  0.026974753            2 
  945000    1.1411002   -7.4748905    306.81498  0.027055995  0.026969399            2 
  946000    1.1369205   -7.4721734    307.26044  0.027066635  0.026964325            4 
  947000    1.0953913   -7.4731668    308.17153  0.027118227  0.026959157            5 
  948000    1.0869722   -7.4933728     308.1743  0.027089865  0.026954269            2 
  949000    1.1073699   -7.4950746    307.80087  0.027028528  0.026949136            2 
  950000    1.0904912   -7.5285058     308.4992  0.027061334  0.026943837            1 
  951000    1.1016699   -7.5433387    308.97708  0.027074753  0.026938679            2 
  952000    1.1098181   -7.4717918    309.45151  0.027087842  0.026933889            2 
  953000    1.1078763    -7.518856    309.28141  0.027044545  0.026928894            4 
  954000    1.1026689   -7.4336363    310.55666  0.027127591  0.026924083            1 
  955000    1.1009588    -7.487686    309.86063  0.027038449  0.026919118            2 
  956000    1.1186145   -7.4765663    309.07434  0.026941627  0.026914113            2 
  957000    1.0785666   -7.4760261    309.86532  0.026982351   0.02690901            2 
  958000    1.1140666   -7.5088167    310.43344  0.027003605  0.026903764            4 
  959000    1.0867188   -7.5075381    309.79725  0.026920164  0.026898348            2 
  960000    1.1264718   -7.5408387    309.51752   0.02686784    0.0268928            1 
  961000    1.0747241   -7.5555722    309.58634   0.02684585  0.026886988            2 
  962000    1.1042384   -7.5344775    310.49768  0.026896889  0.026881098            1 
  963000    1.1061054   -7.5322862    310.37725  0.026858536  0.026875316            2 
  964000     1.083455   -7.5315758    310.00391  0.026798402  0.026869551            2 
  965000     1.113241   -7.5155321    311.08531  0.026864016   0.02686383            2 
  966000    1.0734324   -7.4996436    311.29516  0.026854309  0.026858236            1 
  967000    1.0956345   -7.4916737    313.08106  0.026980443  0.026852774            1 
  968000    1.0859655   -7.4781193    312.23617  0.026879836  0.026847387            1 
  969000    1.0847734   -7.4618346    312.85062  0.026904938  0.026841819            7 
  970000    1.0851112   -7.5129549    312.28805   0.02682887  0.026836124            2 
  971000    1.0814902   -7.4988356    312.90409   0.02685411  0.026830627            1 
  972000    1.1119042   -7.4728314    314.41576  0.026956084    0.0268249            2 
  973000    1.1133584   -7.5084098    313.98878  0.026891811  0.026819221            2 
  974000     1.107796   -7.5231837    312.46497  0.026733827  0.026813516            3 
  975000    1.1071453   -7.5640718    312.77035  0.026732509  0.026807854            5 
  976000    1.0648496   -7.5026236     314.4089  0.026845022  0.026802103            1 
  977000    1.0836952   -7.4779221    315.23362   0.02688789   0.02679641            2 
  978000    1.1087634   -7.4565695    314.73118  0.026817585  0.026790877            3 
  979000    1.1085467   -7.5250842    314.03304  0.026730766  0.026785272            2 
  980000    1.1056391   -7.5305544    313.65104  0.026671007  0.026779621            2 
  981000    1.0951776   -7.5189938    314.61538  0.026725737  0.026773796            4 
  982000    1.0785827   -7.5428739    314.34283  0.026675393  0.026767633            4 
  983000    1.1221703   -7.5087394    314.91072  0.026696399    0.0267616            1 
  984000    1.0719758   -7.5521232     315.4344  0.026713618  0.026755327            3 
  985000    1.1025318   -7.4873634    316.65522  0.026789782  0.026749299            5 
  986000    1.0953906   -7.5063224    315.58404  0.026672079  0.026743313            2 
  987000    1.1086032   -7.4863001    317.51087   0.02680774  0.026737555            2 
  988000    1.0992055    -7.482296    316.19317  0.026669465  0.026731775            1 
  989000    1.0924311   -7.5258636    316.32489  0.026653597  0.026725805            2 
  990000      1.11289   -7.5268877    316.20747   0.02661679    0.0267195            3 
  991000    1.0866263   -7.4991325    316.87363  0.026645949  0.026713565            1 
  992000    1.0767315   -7.5288156    316.85269  0.026617329  0.026707413            1 
  993000    1.1063443   -7.5437839    317.16381  0.026616634  0.026701429            2 
  994000    1.0981747   -7.4856464    317.47993  0.026616359  0.026695404            2 
  995000     1.079465   -7.5484938    316.74745  0.026528262   0.02668888            1 
  996000    1.0842663   -7.5486241    315.93626  0.026433757  0.026682313            1 
  997000    1.0968097   -7.5456122    317.07693  0.026502586  0.026675733            1 
  998000    1.0838674   -7.5122583    318.34901  0.026582249  0.026669236            1 
  999000    1.1063736   -7.4900511    318.63893  0.026579824  0.026662553            1 
 1000000    1.0884009    -7.483543    318.51215  0.026542679  0.026656452            2 
 1001000    1.1069559    -7.533697    319.05115  0.026561035  0.026650157            1 
 1002000    1.1112801   -7.5475741    318.06958  0.026452892  0.026643872            1 
 1003000    1.0814797   -7.5084073    319.19515  0.026520036  0.026637485            3 
 1004000    1.0778558   -7.5145418    318.46106  0.026432691  0.026631155            2 
 1005000    1.0999875   -7.4927337    319.71108   0.02651004  0.026624717            1 
 1006000    1.0807739   -7.4858171     320.5204  0.026550729  0.026618253            1 
 1007000    1.0845917   -7.5072364     320.8519  0.026551796  0.026611741            5 
 1008000    1.1007787   -7.4989131    321.50937  0.026579809  0.026605302            1 
 1009000    1.1049689   -7.4529523    320.69032  0.026485821  0.026598958            2 
 1010000     1.113743   -7.5001163    321.24519  0.026505379  0.026592521            4 
 1011000    1.0943428   -7.5287006    320.15438   0.02638925  0.026585952            1 
 1012000    1.0881076   -7.5035922    320.59623  0.026399557   0.02657924            1 
 1013000    1.0949596   -7.5124036    322.25734  0.026510147  0.026572688            3 
 1014000    1.0924678   -7.5176542    322.33899  0.026490712   0.02656617            3 
 1015000    1.0954345   -7.5211972    321.93215  0.026431211   0.02655968            2 
 1016000    1.1120464   -7.5023492    322.35056  0.026439514  0.026552967            2 
 1017000    1.1069019   -7.5043294    322.39155  0.026416875  0.026546344            2 
 1018000    1.0903237   -7.5106705    323.16506  0.026454245  0.026539748            1 
 1019000    1.0999452   -7.5187846    322.60105   0.02638216  0.026533231            2 
 1020000    1.0962309   -7.4933375     322.8388  0.026375719  0.026526683            3 
 1021000    1.0916108   -7.4875752    323.99643  0.026444371  0.026520286            2 
 1022000    1.0765542   -7.5127127    324.12869   0.02642928  0.026514025            1 
 1023000    1.0882727   -7.5196892    323.40869  0.026344794  0.026507632            1 
 1024000    1.0839535   -7.5511504     323.7702  0.026348486  0.026501075            1 
 1025000    1.0979097   -7.5397985    325.20009  0.026439032  0.026494446            1 
 1026000    1.0867226   -7.5062698    324.33389  0.026342908  0.026487725            4 
 1027000    1.0779415   -7.5050101    324.68283  0.026345572  0.026481186            1 
 1028000    1.0956636   -7.4943689    325.39881  0.026377984  0.026474883            3 
 1029000    1.0808652   -7.4852185    324.95239  0.026316196  0.026468514            2 
 1030000    1.0932331   -7.5817287    324.31605  0.026239163  0.026462005            1 
 1031000    1.0646119   -7.5750414    324.76878  0.026250305  0.026455358            1 
 1032000    1.0696603   -7.5432668    325.98724  0.026323259  0.026448526            1 
 1033000     1.065942   -7.5649237    325.08723  0.026225172  0.026441968            2 
 1034000    1.0724439    -7.531893     325.6674  0.026246567  0.026435291            3 
 1035000    1.0822836   -7.5927911    325.93322   0.02624261  0.026428605            2 
 1036000    1.0856674   -7.5344799    327.37447   0.02633321  0.026421979            3 
 1037000    1.0817045   -7.5330738    326.86703  0.026267038    0.0264154            1 
 1038000    1.0976117   -7.5574536    326.44177  0.026207592   0.02640867            1 
 1039000    1.0803809   -7.5710337     326.3648  0.026176195  0.026401724            4 
 1040000    1.0950106   -7.5369205    327.22625  0.026220052   0.02639496            1 
 1041000    1.0891272   -7.5346319    328.11803  0.026266253  0.026388465            4 
 1042000    1.0687014   -7.5260864    328.11723  0.026240981  0.026381782            3 
 1043000    1.0862386   -7.5562167     327.7754  0.026188511   0.02637503            1 
 1044000    1.0951884   -7.5690442     327.8366  0.026168311  0.026368289            2 
 1045000    1.1070598   -7.5491419    328.77045  0.026217739  0.026361488            1 
 1046000    1.0756973   -7.4725651    329.78301  0.026273344  0.026354815            2 
 1047000    1.0959929   -7.5089995    328.55541  0.026150542  0.026348188            2 
 1048000    1.0895837   -7.5652841    329.32086  0.026186455    0.0263415            2 
 1049000    1.0869913   -7.5670187    328.99455   0.02613557  0.026334805            1 
 1050000    1.0863031   -7.5154901    329.82302   0.02617643  0.026328138            3 
 1051000    1.0683895    -7.540158    330.56077   0.02621002  0.026321526            1 
 1052000    1.0806442   -7.5802494    330.32729   0.02616661  0.026315005            1 
 1053000    1.0849681   -7.5032106    331.97755  0.026272361  0.026308578            2 
 1054000    1.0613582   -7.5050652    331.23593  0.026188799  0.026302239            1 
 1055000    1.0682547   -7.5557804    331.24186  0.026164444  0.026295965            1 
 1056000    1.0833718   -7.5132846    331.91155  0.026192515  0.026289522            1 
 1057000    1.0797031   -7.5368476    333.15823  0.026266022  0.026283223            1 
 1058000    1.0968649   -7.5234826     332.6096  0.026197984  0.026277056            4 
 1059000    1.0980401   -7.5277255    332.52635  0.026166694  0.026270865            3 
 1060000    1.0857155   -7.5507288    333.22919  0.026197264  0.026264746            1 
 1061000     1.080012   -7.5439832    333.59515  0.026201316  0.026258597            3 
 1062000    1.0687904   -7.5387623    333.36707  0.026158747  0.026252462            2 
 1063000     1.087768   -7.5622539    333.44317  0.026140104     0.026246            2 
 1064000    1.1009459   -7.5427131    334.01212  0.026160097  0.026239551            2 
 1065000    1.0824022   -7.5868672    333.04701  0.026060016  0.026233051            2 
 1066000    1.0939959   -7.5216329    334.60121  0.026157068  0.026226658            2 
 1067000    1.0936632   -7.5370779    334.29557  0.026108682  0.026220203            1 
 1068000    1.1020474   -7.5634632    334.99328  0.026138677  0.026213778            1 
 1069000    1.0934701   -7.5626904    335.11805  0.026123952  0.026207523            2 
 1070000    1.0849298   -7.5633257    334.78521  0.026073614  0.026201033            1 
 1071000    1.0692548   -7.5386155    335.77828  0.026126539  0.026194657            2 
 1072000    1.0651943    -7.537028     335.8572  0.026108302  0.026188083            2 
 1073000     1.065046   -7.5381089    336.28485  0.026117183  0.026181611            1 
 1074000    1.0895657   -7.5396477    335.97826  0.026069076  0.026175192            1 
 1075000     1.084828   -7.5652754    336.53496  0.026087982  0.026168707            1 
 1076000    1.0964515   -7.5327131     336.1778  0.026036075  0.026162189            2 
 1077000    1.0898512   -7.5372097     337.5944   0.02612151  0.026155681            2 
 1078000    1.0794916   -7.4948877    337.69129  0.026104769   0.02614941            2 
 1079000    1.0682157   -7.5721102    337.27832  0.026048681  0.026142954            1 
 1080000    1.0644341   -7.5291132    336.91485  0.025996516  0.026136402            2 
 1081000     1.073938   -7.5696404     337.3167  0.026003446  0.026129855            1 
 1082000    1.0836021   -7.5421475    337.64723   0.02600487  0.026123439            2 
 1083000    1.0904813   -7.5408771    337.48184  0.025968132  0.026116872            2 
 1084000    1.0655727    -7.529572    338.43518  0.026017465  0.026110299            5 
 1085000    1.0948278   -7.5669604    338.80535  0.026021916  0.026103815            2 
 1086000    1.0916056   -7.5765436    339.86944  0.026079607  0.026097508            4 
 1087000    1.0963585   -7.5283506    339.98083  0.026064154    0.0260912            3 
 1088000    1.0710574   -7.5643211    338.41569  0.025920319  0.026085018            2 
 1089000    1.0670829   -7.5403429    340.01459   0.02601887  0.026078709            1 
 1090000    1.0796453   -7.5456409    338.97725  0.025915692   0.02607253            5 
 1091000    1.0700308   -7.5395514    341.15661  0.026058403  0.026066229            1 
 1092000    1.0860203   -7.5455573    341.27297   0.02604342  0.026059944            1 
 1093000    1.0736233   -7.5291827    341.56776  0.026042068  0.026053939            3 
 1094000     1.081194   -7.5629786     341.2653  0.025995224  0.026047899            4 
 1095000    1.0822103   -7.5434485    341.94737  0.026023392  0.026041884            1 
 1096000    1.0527046   -7.5341455    342.87996  0.026070556  0.026035822            1 
 1097000    1.0807857   -7.5562929    341.58397  0.025948342  0.026029571            3 
 1098000    1.0701122   -7.5470023    342.32472  0.025980929  0.026023472            1 
 1099000    1.0622254   -7.5706288    341.60192  0.025902481  0.026016984            2 
 1100000     1.056689   -7.5799118    341.73009  0.025888643  0.026010528            1 
 1101000    1.0516423   -7.5551185    341.84244  0.025873633  0.026004152            2 
 1102000    1.0763124   -7.5519678    341.79789  0.025846785  0.025997727            2 
 1103000    1.0733286   -7.5715492    342.42522  0.025870748  0.025991388            2 
 1104000    1.0734353   -7.5145398    343.21642  0.025907037  0.025984902            3 
 1105000    1.1001581   -7.5707554     342.7591  0.025849103  0.025978532            5 
 1106000    1.0930349   -7.5815602    343.35816  0.025870868  0.025972113            5 
 1107000    1.0618635   -7.5646402    343.82472  0.025882619  0.025965645            2 
 1108000    1.0655607   -7.5478727    344.49429  0.025909619   0.02595945            1 
 1109000    1.0833003   -7.5667891     345.2175    0.0259406   0.02595343            1 
 1110000     1.092336   -7.5452629    345.55811  0.025942801  0.025947367            2 
 1111000    1.0760599   -7.5551426    345.14899  0.025888763  0.025941464            2 
 1112000    1.0655308   -7.5427114    346.00482  0.025929618   0.02593541            1 
 1113000    1.0801092   -7.5378723    345.74557   0.02588691  0.025929386            1 
 1114000    1.0811709   -7.5913011    346.03815  0.025885559  0.025923425            1 
 1115000    1.0733473   -7.5767505    346.24227  0.025877599  0.025917249            2 
 1116000     1.112211   -7.5602215    346.97779  0.025909333  0.025911286            2 
 1117000    1.0861002   -7.5996873    346.50323  0.025850734  0.025905162            1 
 1118000    1.0706293   -7.5927983    345.91665  0.025783888  0.025898989            1 
 1119000    1.0554191   -7.5849063    346.47418  0.025802366  0.025892885            3 
 1120000    1.0745417    -7.548712    348.53862  0.025932933  0.025886772            2 
 1121000    1.0597527    -7.604501    347.72929  0.025849635  0.025880747            3 
 1122000    1.0844198   -7.5931536    347.80305  0.025832075  0.025874593            2 
 1123000    1.0708727   -7.5377727    348.89207  0.025889884  0.025868441            1 
 1124000      1.07024   -7.5204665    349.22443  0.025891491  0.025862495            2 
 1125000    1.0711313   -7.5388104    350.02389  0.025927696  0.025856681            1 
 1126000    1.0775397   -7.5754401     349.3332  0.025853553  0.025850848            3 
 1127000    1.0764536    -7.554123    349.65047  0.025854072  0.025844989            1 
 1128000    1.0820374   -7.5799192    349.25785  0.025802146  0.025839071            3 
 1129000    1.0648409   -7.5308241    350.81345  0.025894113  0.025833158            1 
 1130000    1.0847124   -7.5423787    350.26526  0.025830772  0.025827148            3 
 1131000    1.0784166   -7.5569665    350.87373  0.025852765  0.025821022            1 
 1132000    1.0773307   -7.5768565    349.96718  0.025763191  0.025815048            3 
 1133000    1.0573665   -7.5098411    351.03992  0.025819352   0.02580908            1 
 1134000    1.0560025   -7.5846515    350.96675  0.025791207  0.025803055            4 
 1135000     1.079714   -7.5518157     351.9168  0.025838238  0.025797086            1 
 1136000    1.0707186   -7.5850986    352.21905  0.025837665  0.025791306            2 
 1137000    1.0511389   -7.5692546    351.95979  0.025795939  0.025785505            2 
 1138000    1.0770008   -7.6032297    351.55477  0.025743612  0.025779513            2 
 1139000    1.0698343   -7.5682449    351.33561  0.025704976  0.025773583            1 
 1140000    1.0558737    -7.646144    351.18175  0.025671181  0.025767493            3 
 1141000    1.0670681   -7.5843643    351.91588  0.025702299  0.025761155            2 
 1142000    1.0868051   -7.5339259    353.30308  0.025781019   0.02575512            4 
 1143000    1.0873808   -7.5650825    353.40175  0.025765657  0.025749272            3 
 1144000    1.0570506   -7.5364475     354.3245  0.025810351  0.025743588            1 
 1145000    1.0703524   -7.5733641    353.35626  0.025717341  0.025737732            3 
 1146000    1.0877422    -7.556258    354.53722  0.025780775  0.025732065            3 
 1147000    1.0542683   -7.5808021    355.22826  0.025808504  0.025726418            4 
 1148000    1.0697378   -7.5673708    354.94086  0.025765161  0.025720692            1 
 1149000    1.0865815   -7.5242574    356.16761   0.02583171  0.025715085            2 
 1150000    1.0367895   -7.5691431    356.26606  0.025816381  0.025709533            5 
 1151000    1.0888486   -7.5862022    355.48881  0.025737678  0.025703872            2 
 1152000    1.0647654    -7.598251     355.7747  0.025736017  0.025698238            2 
 1153000    1.0668645   -7.5224166     357.0525   0.02580605  0.025692602            2 
 1154000    1.0396379   -7.5345102    357.84455  0.025840883  0.025687233            1 
 1155000    1.0626948   -7.5547263    356.76497  0.025740618  0.025681655            2 
 1156000    1.0664094   -7.5559117    356.52235  0.025700862  0.025676002            3 
 1157000    1.0796892   -7.5744274     356.3719  0.025667812   0.02567041            2 
 1158000    1.0443867   -7.5858534    356.96449  0.025688291  0.025664595            2 
 1159000    1.0742564   -7.5478243     357.9568  0.025737475   0.02565878            3 
 1160000    1.0377041   -7.5781847    356.59168  0.025617218  0.025652945            2 
 1161000    1.0521498    -7.549379    358.55231  0.025735882  0.025647084            2 
 1162000    1.0459222   -7.5707831    357.88889  0.025666157  0.025641342            5 
 1163000    1.0372371   -7.5625047    358.65555  0.025699022  0.025635381            4 
 1164000    1.0664751      -7.5437    358.26974  0.025649323  0.025629481            1 
 1165000     1.049861   -7.5226929    358.96293   0.02567689  0.025623787            2 
 1166000    1.0507227   -7.5101389    359.86354  0.025719236  0.025618047            1 
 1167000    1.0504465   -7.5403191    358.72675  0.025616021  0.025612266            3 
 1168000    1.0513158   -7.6073023    358.88819  0.025605607  0.025606583            5 
 1169000    1.0674796   -7.6261508    358.31059  0.025542529  0.025600721            1 
 1170000     1.065028   -7.6135648    358.24429  0.025515975  0.025594894            1 
 1171000    1.0872903   -7.6243817    358.66371  0.025524033  0.025589001            2 
 1172000     1.058534   -7.5701228    360.28683  0.025617664    0.0255832            3 
 1173000    1.0906924   -7.5958458    360.58123   0.02561674  0.025577445            2 
 1174000    1.0686832   -7.5666927    362.01723   0.02569685  0.025571837            1 
 1175000    1.0600281   -7.5902862    361.23904   0.02561979  0.025566174            2 
 1176000    1.0654653   -7.5516882    361.26291  0.025599696  0.025560418            1 
 1177000     1.086279   -7.5672399    360.55271  0.025527663  0.025554787            1 
 1178000    1.0772961   -7.5938222    360.47086  0.025500202  0.025549239            1 
 1179000     1.067047   -7.5462273    362.40111  0.025615006  0.025543564            3 
 1180000    1.0705477   -7.5911955    362.14443  0.025575172   0.02553786            2 
 1181000     1.068744   -7.5974022     360.9429  0.025468734  0.025531945            3 
 1182000    1.0451323   -7.5927067    361.71277  0.025501464  0.025526022            2 
 1183000    1.0376291   -7.5784644     362.6972  0.025549253  0.025519979            1 
 1184000     1.068344   -7.5915031    363.18191   0.02556179  0.025513989            2 
 1185000    1.0410275   -7.5683171    363.20642  0.025541942  0.025508127            2 
 1186000     1.072762    -7.569812    363.84102  0.025564996  0.025502281            2 
 1187000    1.0395443   -7.5721077    363.39633  0.025512239  0.025496378            3 
 1188000    1.0514286   -7.5843238     363.2932   0.02548353  0.025490502            3 
 1189000    1.0551287   -7.5917424    364.88252  0.025573487   0.02548468            2 
 1190000    1.0855865   -7.5485568    364.77836  0.025544703   0.02547887            2 
 1191000    1.0694067   -7.5668239    364.55623  0.025507712  0.025472979            2 
 1192000    1.0513872   -7.5753342    363.80051  0.025433481  0.025467009            3 
 1193000     1.038834   -7.6049753    365.20567  0.025510315  0.025461193            4 
 1194000    1.0679678   -7.5852973    364.95501  0.025471455  0.025455244            2 
 1195000    1.0673165   -7.6404979    364.30417  0.025404754  0.025449411            1 
 1196000    1.0600515   -7.5932209    366.16679  0.025513294  0.025443494            3 
 1197000    1.0652622   -7.5701322    365.96332  0.025477814  0.025437591            2 
 1198000    1.0939349   -7.6378348    365.03181  0.025391751  0.025431677            3 
 1199000    1.0502617   -7.5676419    366.76291  0.025490889   0.02542581            3 
 1200000    1.0510333   -7.5628272    367.40961  0.025514557  0.025420103            3 
 1201000    1.0605006   -7.5420874    368.12251  0.025542778  0.025414472            2 
 1202000    1.0710918   -7.6204367    366.11918  0.025382639  0.025408762            3 
 1203000    1.0536607   -7.5949496    367.68006  0.025469663  0.025403081            3 
 1204000    1.0703244   -7.6024717    368.55038  0.025508747  0.025397489            3 
 1205000    1.0421824   -7.5709132     368.1888  0.025462572  0.025391997            1 
 1206000     1.076275   -7.6498796    366.37726  0.025316284  0.025386246            2 
 1207000    1.0645834   -7.6330947      368.206  0.025421568  0.025380446            1 
 1208000    1.0741662   -7.6534776    366.84906  0.025306916  0.025374699            3 
 1209000    1.0618847   -7.5898179    369.36376  0.025459316  0.025368806            7 
 1210000    1.0464558    -7.614706    367.56597  0.025314461  0.025363108            2 
 1211000    1.0443616   -7.6107097    368.29791  0.025343924  0.025357309            2 
 1212000    1.0847084   -7.6091135     369.6713  0.025417444  0.025351461            1 
 1213000    1.0593382   -7.5944642    368.77277   0.02533476  0.025345525            2 
 1214000    1.0722984   -7.6239298    369.11863  0.025337632  0.025339624            2 
 1215000    1.0818311   -7.5900988    368.88973  0.025301079  0.025333774            1 
 1216000    1.0495003   -7.6159287    369.75437  0.025339526  0.025327855            2 
 1217000    1.0482058   -7.5882366    369.93319   0.02533095  0.025321981            2 
 1218000    1.0774605   -7.6295618    369.62322  0.025288945  0.025316115            1 
 1219000    1.0587486   -7.6115619    371.18351  0.025374864  0.025310241            1 
 1220000    1.0591736   -7.5918418    371.44727  0.025372081  0.025304469            2 
 1221000     1.052392   -7.6366932      369.177  0.025196356  0.025298378            4 
 1222000    1.0509171   -7.6454369    369.81794  0.025219445   0.02529229            2 
 1223000     1.065755   -7.5770836    371.40654  0.025307069  0.025286239            2 
 1224000    1.0579261   -7.5869556    371.39993  0.025285943  0.025280319            2 
 1225000     1.085846   -7.6101495    371.03801  0.025240681  0.025274368            3 
 1226000    1.0646678    -7.601013    371.50318  0.025251712  0.025268291            4 
 1227000    1.0489311   -7.6149597    373.35496  0.025356898  0.025262261            3 
 1228000     1.031146   -7.6181627    371.92736   0.02523937  0.025256275            2 
 1229000    1.0438224   -7.6371619    372.18593  0.025236367   0.02525037            1 
 1230000     1.043069   -7.5914526    372.75236  0.025254225  0.025244474            3 
 1231000    1.0472243   -7.6560253    371.99202  0.025182238  0.025238357            4 
 1232000    1.0600152   -7.6376329    371.87743  0.025154047   0.02523227            1 
 1233000      1.05748   -7.5851854    373.25338  0.025226641  0.025226293            3 
 1234000    1.0661338   -7.6149137    372.67658  0.025167246  0.025220149            2 
 1235000    1.0825327   -7.6031479    373.06809  0.025173286  0.025213984            6 
 1236000     1.075607   -7.6328085    371.87697  0.025072611  0.025207948            3 
 1237000     1.077245    -7.641274    373.96018  0.025192683  0.025201843            1 
 1238000    1.0510536     -7.59559    374.68365  0.025221032  0.025195928            1 
 1239000    1.0444635   -7.5903594    375.52982  0.025257588  0.025190177            2 
 1240000    1.0699841   -7.6194597    374.36241  0.025158764  0.025184162            1 
 1241000    1.0530255   -7.6434501    374.86695  0.025172371  0.025178237            2 
 1242000    1.0683363   -7.6016228    376.33314  0.025250479  0.025172434            2 
 1243000    1.0523021   -7.6157221    375.74726  0.025190886    0.0251667            3 
 1244000    1.0436274   -7.6428647    374.37954  0.025079015   0.02516064            3 
 1245000    1.0373558   -7.6085065    374.39236   0.02505973  0.025154622            1 
 1246000    1.0438458   -7.6268052    375.78237  0.025132582   0.02514861            2 
 1247000    1.0355554   -7.6144661     376.1281  0.025135532  0.025142567            2 
 1248000    1.0475693   -7.6027858    376.62427  0.025148523  0.025136648            1 
 1249000    1.0630823   -7.6063978    376.14746  0.025096575  0.025130705            1 
 1250000    1.0791405    -7.635776    376.25879   0.02508392   0.02512467            4 
 1251000    1.0643225    -7.641513    375.85009  0.025036643   0.02511843            2 
 1252000    1.0135516   -7.7166559    375.12777  0.024968568  0.025112169            3 
 1253000    1.0366703   -7.6311405    375.24264  0.024956281  0.025105828            6 
 1254000     1.050035   -7.6350536     377.7762  0.025104745  0.025099652            2 
 1255000    1.0538322   -7.6404047    378.26436  0.025117155  0.025093603            2 
 1256000    1.0226713   -7.6299989    377.88285  0.025071845  0.025087648            2 
 1257000    1.0524035   -7.5401187    380.09754  0.025198723  0.025081776            2 
 1258000    1.0460608   -7.6221585     379.2097   0.02511988  0.025076049            2 
 1259000    1.0592441   -7.6389461    379.02845  0.025087931  0.025070219            5 
 1260000    1.0567965   -7.6461494    378.57866  0.025038271  0.025064295            1 
 1261000    1.0875489   -7.6389736    379.25014   0.02506279  0.025058286            3 
 1262000    1.0399662   -7.6409413     378.2153  0.024974597  0.025052059            2 
 1263000    1.0541215   -7.6327538    378.56325  0.024977781  0.025045989            2 
 1264000    1.0437299   -7.5732884    380.18624  0.025065021  0.025039948            2 
 1265000     1.044971   -7.6163094    379.01631  0.024968137   0.02503387            5 
 1266000    1.0424529   -7.6214206    379.23654  0.024962911  0.025027688            4 
 1267000    1.0307168   -7.5981345    379.52341  0.024962077  0.025021468            2 
 1268000    1.0481344   -7.6224013    379.45153  0.024937666  0.025015288            1 
 1269000    1.0362333    -7.572833     379.5455  0.024924186  0.025009111            1 
 1270000    1.0204219   -7.6259226    380.24414  0.024950403  0.025002937            5 
 1271000    1.0470255   -7.6125227     380.6087  0.024954675  0.024996735            3 
 1272000    1.0196933   -7.6332948    380.55725  0.024931686  0.024990558            1 
 1273000    1.0388149   -7.6432425    380.16407  0.024886362  0.024984253            2 
 1274000    1.0377592   -7.5709765    382.10767  0.024993961  0.024978129            2 
 1275000     1.056048   -7.5988813    381.59654   0.02494095  0.024972034            1 
 1276000    1.0409972   -7.6607972    380.27123   0.02483485  0.024965803            2 
 1277000    1.0602698   -7.6733542     380.5287  0.024832204  0.024959492            2 
 1278000    1.0632587    -7.646203    380.88195  0.024835808  0.024953191            1 
 1279000     1.039102   -7.6077616    381.83543  0.024878514   0.02494694            1 
 1280000    1.0434785    -7.628332    381.45075  0.024834033  0.024940573            3 
 1281000    1.0802923   -7.6203482    382.02698  0.024852133  0.024934181            4 
 1282000    1.0463936   -7.6792238    381.08257  0.024771358  0.024927794            3 
 1283000    1.0553596   -7.6587035     381.2896  0.024765498  0.024921248            2 
 1284000    1.0350243   -7.5880377    383.73805  0.024905117  0.024914791            3 
 1285000    1.0467031   -7.6253406    382.17063  0.024784087  0.024908392            3 
 1286000    1.0450916   -7.6510146    381.31086  0.024709102  0.024901849            2 
 1287000    1.0782773   -7.6382555    381.82122  0.024722949  0.024895284            2 
 1288000    1.0688596   -7.6353405    382.12423  0.024723358  0.024888833            1 
 1289000    1.0576255   -7.5824099    383.87277  0.024817221  0.024882472            3 
 1290000    1.0502984   -7.6161066    383.36157  0.024764959  0.024876109            3 
 1291000    1.0366966   -7.6340328    384.32337   0.02480786  0.024869828            4 
 1292000    1.0655956   -7.6498546    383.80574  0.024755272  0.024863468            4 
 1293000     1.046647    -7.625991    384.78249  0.024799078  0.024857207            2 
 1294000    1.0540252   -7.6354479    385.11218  0.024801145   0.02485083            3 
 1295000    1.0486014    -7.654603     384.6693  0.024753494  0.024844491            1 
 1296000    1.0494774   -7.6168242    385.54618  0.024790778  0.024838351            1 
 1297000     1.039403   -7.6269424    385.67241  0.024779774  0.024832069            4 
 1298000    1.0077084   -7.6371066    385.67001   0.02476053  0.024825733            1 
 1299000    1.0169864   -7.6456206    385.91197  0.024756991  0.024819421            2 
 1300000    1.0415523   -7.6774519    385.94992  0.024740379  0.024813256            4 
 1301000    1.0258356   -7.6246156     386.7331  0.024771528  0.024807186            3 
 1302000    1.0405856   -7.6386616    386.63597  0.024746286  0.024801115            2 
 1303000    1.0477608   -7.6117216    388.34059  0.024836313  0.024795159            6 
 1304000    1.0493528   -7.6447464    387.56914  0.024767967  0.024789225            4 
 1305000    1.0350473    -7.614599    388.41619  0.024803077  0.024783153            3 
 1306000    1.0399282   -7.6381202    387.79517   0.02474446  0.024777031            4 
 1307000    1.0806674   -7.6475568    387.11691  0.024682282  0.024770699            3 
 1308000    1.0319493   -7.6490486    388.07671  0.024724561  0.024764487            1 
 1309000    1.0556135   -7.6600131     387.6483    0.0246784  0.024758189            2 
 1310000    1.0649357   -7.6910003    387.63529  0.024658733  0.024751789            2 
 1311000    1.0467797   -7.6461992    388.16118  0.024673352  0.024745441            2 
 1312000    1.0206263   -7.6655962    388.17803  0.024655617  0.024739094            2 
 1313000    1.0508652   -7.6465176    387.93601  0.024621478  0.024732716            1 
 1314000    1.0552483   -7.6400797    388.97568  0.024668676  0.024726391            3 
 1315000    1.0579694   -7.6340954    388.56464  0.024623868  0.024719914            3 
 1316000    1.0560284   -7.6334441     388.4523  0.024598043   0.02471344            1 
 1317000    1.0562618   -7.5939797    389.13119  0.024622323  0.024707057            1 
 1318000    1.0685421   -7.6406244    389.06217  0.024599278  0.024700601            3 
 1319000     1.030656    -7.672747    387.91967  0.024508445  0.024693986            3 
 1320000    1.0304457   -7.6378385    388.79505  0.024545142  0.024687371            5 
 1321000    1.0286522    -7.581477    389.79536  0.024589664  0.024680891            3 
 1322000    1.0354519    -7.626283    390.02046  0.024585254   0.02467425            1 
 1323000    1.0279546    -7.651818    389.90922  0.024559664  0.024667588            2 
 1324000    1.0462789    -7.626769    389.59369  0.024521254  0.024660815            2 
 1325000    1.0417008   -7.6581059    389.19948  0.024477955  0.024653929            3 
 1326000     1.032753   -7.6244046    390.66597  0.024551657  0.024647354            1 
 1327000    1.0246299   -7.6563962    390.03472  0.024493514  0.024640707            4 
 1328000     1.041011   -7.6278047    390.97325  0.024533964  0.024634158            3 
 1329000    1.0533519   -7.6345068    390.48852  0.024485109  0.024627655            2 
 1330000    1.0493127   -7.6411191    391.48603    0.0245292  0.024621063            2 
 1331000    1.0221771   -7.6537945    390.12219  0.024425381  0.024614455            1 
 1332000    1.0284037   -7.6712452    389.85619  0.024390403  0.024607798            3 
 1333000    1.0442992   -7.6581495    390.59484  0.024418282  0.024601116            3 
 1334000    1.0467049   -7.6800305    391.72947  0.024470856  0.024594425            4 
 1335000    1.0478826   -7.6699555    390.75731  0.024391842  0.024587745            2 
 1336000    1.0284644   -7.6751267    392.09126   0.02445679  0.024581145            1 
 1337000     1.051733   -7.6456229    392.98489  0.024494196    0.0245745            5 
 1338000    1.0418273   -7.6501293    392.11379  0.024421636  0.024567935            1 
 1339000    1.0505803    -7.680122    391.25138  0.024349725  0.024561193            2 
 1340000    1.0167265   -7.6675273    392.66104  0.024419219   0.02455458            2 
 1341000    1.0468012   -7.6788687    392.66738  0.024401403  0.024547961            2 
 1342000    1.0552431   -7.6717133    392.65208   0.02438227  0.024541337            1 
 1343000    1.0291251   -7.6625748    392.35529  0.024345699  0.024534674            9 
 1344000    1.0369505   -7.6608062    392.79762  0.024355011  0.024527919            1 
 1345000    1.0166936   -7.6480874    393.05556  0.024352885  0.024521237            3 
 1346000    1.0342586    -7.682135    392.97685  0.024329919  0.024514566            5 
 1347000    1.0347266   -7.6454329    393.74777  0.024359551  0.024507893            1 
 1348000    1.0392937   -7.6447998    392.83693  0.024285171   0.02450133            1 
 1349000    1.0238453   -7.6189991    395.14404  0.024409689  0.024494688            5 
 1350000    1.0346337    -7.670509    393.82228  0.024310017  0.024487951            5 
 1351000    1.0510262   -7.6707855    393.68488  0.024283548  0.024481126            2 
 1352000    1.0171826   -7.6882644    394.12281   0.02429258  0.024474413            6 
 1353000    1.0478769   -7.6644612    394.21933   0.02428057  0.024467552            1 
 1354000    1.0265267   -7.6855056    394.81169  0.024299095   0.02446083            2 
 1355000    1.0311819    -7.715804    393.05281  0.024172989  0.024454081            2 
 1356000    1.0587724   -7.6262633    396.01867  0.024337431  0.024447384            2 
 1357000     1.050332   -7.6528889    395.65573  0.024297208  0.024440738            4 
 1358000    1.0539349   -7.6331357    396.06404  0.024304371  0.024434127            1 
 1359000    1.0218983   -7.6512443     395.4469  0.024248645  0.024427386            2 
 1360000      1.04048   -7.6392931     396.4274  0.024290894  0.024420649            3 
 1361000    1.0313797   -7.6462341    396.65966  0.024287268   0.02441389            1 
 1362000    1.0213744   -7.6409126     395.3878  0.024191618  0.024407046            2 
 1363000    1.0618375   -7.6815206     396.8076  0.024260675  0.024400206            2 
 1364000    1.0405913   -7.7012234    395.57502  0.024167584  0.024393332            5 
 1365000    1.0172724   -7.6765801    395.86495  0.024167579  0.024386425            2 
 1366000    1.0181058   -7.6764034    396.94926  0.024216036  0.024379361            4 
 1367000    1.0331803   -7.6774061     395.9414  0.024136882  0.024372276            3 
 1368000    1.0384369   -7.6869196    396.20869  0.024135519  0.024365291            3 
 1369000    1.0364891   -7.6478253     397.0126  0.024166825   0.02435831            3 
 1370000    1.0135426   -7.6831636    396.63017  0.024125923   0.02435144            2 
 1371000    1.0452233   -7.6831087     396.0871  0.024075316  0.024344557            3 
 1372000    1.0234674   -7.6973097    396.89646  0.024106928   0.02433763            1 
 1373000    1.0268101   -7.6757532    398.10917  0.024162975  0.024330676            1 
 1374000    1.0311381   -7.6310575    398.27747  0.024155596  0.024323729            1 
 1375000    1.0331396   -7.6529635    396.95422  0.024057831  0.024316777            2 
 1376000    1.0198104   -7.6891532    399.48947  0.024193888  0.024309946            2 
 1377000    1.0210439   -7.6165692    399.64244  0.024185575  0.024303213            2 
 1378000    1.0393362   -7.6695073    399.49342  0.024159012  0.024296575            2 
 1379000    1.0201816   -7.6732232    398.67617  0.024092106  0.024289853            2 
 1380000    1.0332884    -7.707672    398.80966  0.024082709  0.024283132            2 
 1381000    1.0339972   -7.7338699    398.90485  0.024071014  0.024276269            2 
 1382000    1.0297369   -7.6733443    399.16943  0.024069551  0.024269466            3 
 1383000    1.0163714   -7.6631796    399.92799  0.024097854  0.024262806            1 
 1384000    1.0202224   -7.6905756    399.82464  0.024074219  0.024256048            2 
 1385000    1.0298798    -7.659437    401.26792  0.024143678  0.024249163            2 
 1386000    1.0306843    -7.640338    401.72579  0.024153787  0.024242386            2 
 1387000    1.0393828   -7.7013935    399.45586  0.023999992  0.024235572            2 
 1388000    1.0153463   -7.6391042    401.76875  0.024121563  0.024228833            2 
 1389000    1.0262876   -7.6618014    400.71957  0.024041251  0.024222175            3 
 1390000    1.0342009   -7.7023732      401.016  0.024041727  0.024215449            3 
 1391000    1.0088292   -7.6461204    401.48266    0.0240524   0.02420877            2 
 1392000     1.026431   -7.6653257    403.10952  0.024132514  0.024202056            3 
 1393000    1.0344023   -7.7092267    402.01107  0.024049478  0.024195289            2 
 1394000    1.0222943     -7.67198    401.39389   0.02399533  0.024188453            2 
 1395000    1.0323807   -7.6672922    402.31556  0.024033187  0.024181573            1 
 1396000    1.0385414   -7.7171168    402.09356   0.02400272  0.024174705            3 
 1397000    1.0307653   -7.6838999    401.32072  0.023939437  0.024167836            2 
 1398000    1.0396609   -7.7090404    402.43504  0.023988737   0.02416104            4 
 1399000     1.028865   -7.6935745    402.80719  0.023993757   0.02415423            3 
 1400000    1.0231846   -7.6637642    402.73991  0.023972613  0.024147281            4 
 1401000    1.0182155   -7.6493328    403.55679  0.024004092  0.024140411            3 
 1402000    1.0226522   -7.7159445    402.14671  0.023903157  0.024133493            3 
 1403000    1.0356801   -7.6629134    403.03949  0.023939147  0.024126489            2 
 1404000    1.0096059   -7.6808146    403.22808  0.023933291  0.024119668            2 
 1405000    1.0140497   -7.6502792     404.3225  0.023981169  0.024112854            4 
 1406000    1.0368962   -7.6252725    404.84371  0.023995004  0.024106057            3 
 1407000     1.020222   -7.6640636    404.20286  0.023939994  0.024099309            2 
 1408000    1.0341442    -7.649921    403.87187  0.023903402  0.024092553            1 
 1409000    1.0344819   -7.6961605    403.57326  0.023868775  0.024085652            1 
 1410000    1.0171127   -7.6813296    403.89351  0.023870775  0.024078848            2 
 1411000    1.0255769   -7.6419906    405.78559  0.023965603   0.02407208            2 
 1412000    1.0375823    -7.660818    405.21989  0.023915244  0.024065318            2 
 1413000    1.0085428   -7.6872083    406.08918  0.023949586  0.024058709            3 
 1414000    1.0107805   -7.6782412    405.25386  0.023883419   0.02405198            2 
 1415000    1.0318542   -7.7223022    404.02944  0.023794431  0.024045166            1 
 1416000    1.0202339   -7.7254137    405.36238  0.023856072  0.024038229            2 
 1417000     1.021653   -7.7018065    405.80433  0.023865228  0.024031339            2 
 1418000    1.0127526   -7.6963267     405.3925  0.023824195  0.024024431            2 
 1419000    1.0411022   -7.6930693    405.85324  0.023834463  0.024017435            3 
 1420000    1.0102372   -7.6981135    406.62933  0.023863223  0.024010636            5 
 1421000    1.0618437    -7.686636    406.23171  0.023823112  0.024003777            2 
 1422000    1.0038799   -7.7193724    406.85003  0.023842594  0.023996899            2 
 1423000     1.016237   -7.6929273     407.0937  0.023840109  0.023990071            3 
 1424000    1.0335126   -7.7415437    407.16277  0.023827409  0.023983295            2 
 1425000    1.0394886   -7.6660954    407.95734  0.023857155   0.02397647            2 
 1426000     1.025586   -7.6568927    408.27804  0.023859166  0.023969759            1 
 1427000    1.0244307   -7.6720252    408.13692  0.023834205  0.023963177            1 
 1428000    1.0324729   -7.6899216    407.98916  0.023808891  0.023956508            3 
 1429000    1.0351286   -7.7257638    407.47152  0.023762043  0.023949777            1 
 1430000    1.0325675   -7.6959858    408.22078   0.02378909  0.023942972            2 
 1431000    1.0454756   -7.6882744    408.73951  0.023802673  0.023936211            3 
 1432000     1.031194   -7.7282161    407.54438  0.023716502  0.023929434            2 
 1433000    1.0217127   -7.6994674    408.44061  0.023752071  0.023922765            2 
 1434000    1.0149096   -7.7248241    409.03072    0.0237698  0.023916078            3 
 1435000     1.022287   -7.6920146    409.09115  0.023756745  0.023909531            3 
 1436000    1.0399922   -7.6910884    409.90116  0.023787208  0.023902977            1 
 1437000    1.0410648   -7.6993798    409.60965  0.023753749  0.023896281            2 
 1438000    1.0465387   -7.6968255    411.02167  0.023819058  0.023889676            3 
 1439000    1.0214668   -7.6650944    411.90854  0.023853865  0.023883168            1 
 1440000   0.99582046   -7.6995549    410.45556  0.023753215  0.023876519            3 
 1441000    1.0034348   -7.6995053    410.89038  0.023761877  0.023869946            3 
 1442000    1.0257228   -7.6611142    412.00495   0.02380981  0.023863326            2 
 1443000    1.0237689   -7.6806464    411.04874  0.023738089  0.023856847            4 
 1444000    1.0038323   -7.6854517    411.78853  0.023764343  0.023850395            3 
 1445000    1.0239526   -7.6818302    413.38793  0.023840134  0.023843987            5 
 1446000   0.99966223   -7.6705614    411.16784  0.023695703  0.023837564            5 
 1447000     1.040783   -7.6903377    411.82166  0.023716981  0.023831109            3 
 1448000    1.0467876   -7.6675515     413.2805  0.023784559  0.023824793            3 
 1449000    1.0107866   -7.6819355    411.24288  0.023650959  0.023818256            1 
 1450000     1.003076   -7.7074584     412.2593  0.023693063  0.023811628            2 
 1451000    1.0332315   -7.7364458    412.75167  0.023705012  0.023805046            1 
 1452000   0.99899214   -7.6711356     413.5718  0.023735755  0.023798386            2 
 1453000    1.0355099   -7.7374504    411.81828  0.023618851  0.023791746            2 
 1454000    1.0110012   -7.6642662    413.40886  0.023693768  0.023785106            2 
 1455000    1.0144594   -7.7262551    412.49186  0.023624963  0.023778435            1 
 1456000    1.0145404   -7.7620072    412.16813  0.023590209  0.023771689            4 
 1457000    1.0449387   -7.7476818    411.70714  0.023547652  0.023764857            3 
 1458000    0.9911889   -7.6948188    413.81505   0.02365198  0.023758199            3 
 1459000    1.0022017   -7.6771795    414.85428  0.023695127  0.023751669            4 
 1460000    1.0052974   -7.7256027    413.02335  0.023574392   0.02374506            4 
 1461000    1.0108767   -7.7125619    413.80678  0.023602942  0.023738368            1 
 1462000    1.0127264   -7.7201985    414.48689  0.023625564  0.023731752            2 
 1463000    1.0345619    -7.701395    414.82614  0.023628739  0.023725048            4 
 1464000    1.0409236   -7.6983434     414.4044  0.023588593  0.023718397            4 
 1465000     1.034847   -7.7071132    413.78057  0.023537006   0.02371172            2 
 1466000    1.0137696   -7.7397601    415.23535  0.023603647  0.023705137            3 
 1467000    1.0104306     -7.67334    416.41278  0.023654441  0.023698502            2 
 1468000    1.0152707   -7.7346089    414.66753  0.023539256  0.023691794            3 
 1469000    1.0105343   -7.7180018      415.903  0.023593317  0.023685041            4 
 1470000    1.0201965   -7.7112741    415.41394  0.023549543  0.023678433            1 
 1471000    1.0158222   -7.6877543    416.10598  0.023572739  0.023671879            2 
 1472000    1.0004044   -7.7073305     415.6647  0.023531743  0.023665295            5 
 1473000    1.0056649   -7.7126513    416.26095  0.023549499  0.023658653            1 
 1474000    1.0160791   -7.7051443    415.54042  0.023492787  0.023651971            1 
 1475000    1.0086511   -7.7403094    416.85839  0.023551322  0.023645244            3 
 1476000    1.0251852   -7.7215624    417.83757  0.023590649  0.023638549            2 
 1477000    1.0011534   -7.7415924    416.11397   0.02347743   0.02363193            4 
 1478000    1.0068967   -7.7054879    417.45938  0.023537403  0.023625271            3 
 1479000   0.98443162   -7.7833472    416.75765   0.02348195  0.023618578            2 
 1480000   0.99262404    -7.744213    417.70778  0.023519582  0.023612002            2 
 1481000    1.0280988   -7.7214599    417.09767  0.023469372  0.023605304            3 
 1482000    1.0250107   -7.7080363    417.84193  0.023495385  0.023598726            1 
 1483000    1.0105077   -7.6971837    418.56775  0.023520327  0.023592189            1 
 1484000    1.0248436   -7.6986493    418.53497  0.023502638  0.023585585            1 
 1485000    1.0080707   -7.7210136     418.3796  0.023478092  0.023579055            3 
 1486000    1.0090572   -7.7154829    418.35553  0.023460943  0.023572448            2 
 1487000    1.0290985   -7.7370288    418.76239  0.023467966  0.023565898            2 
 1488000    1.0097863   -7.7153933    418.71544  0.023449565  0.023559276            2 
 1489000   0.99974477   -7.7066085    419.88512  0.023499279   0.02355265            2 
 1490000    1.0110425   -7.7317988    419.50847  0.023462442  0.023546114            3 
 1491000    1.0215077   -7.7123858    420.06331  0.023477717  0.023539583            2 
 1492000    1.0048291   -7.7116486    420.86475  0.023506744  0.023533166            1 
 1493000   0.99812216   -7.7068068    420.51853  0.023471675  0.023526671            7 
 1494000    1.0099889   -7.7058211    420.57006  0.023458839    0.0235202            2 
 1495000    1.0160065   -7.7135852    420.42835  0.023435248  0.023513743            4 
 1496000    1.0071461   -7.7146813    420.31266  0.023413138  0.023507191            2 
 1497000     1.012297   -7.6959645     421.5154  0.023464451  0.023500769            3 
 1498000    1.0196291   -7.6897459     421.3002  0.023436816  0.023494329            5 
 1499000   0.99085822   -7.7099222    421.74944  0.023446155    0.0234878            3 
 1500000   0.99025347     -7.67333    422.18262   0.02345459  0.023481357            2 
 1501000    1.0184103   -7.6929777     421.1332  0.023380702   0.02347484            4 
 1502000    1.0192141   -7.7256629    421.69767  0.023396453  0.023468337            5 
 1503000    1.0002167   -7.6947555    422.11757  0.023404168  0.023461819            2 
 1504000    1.0124219   -7.7633131     420.9811  0.023325637  0.023455239            6 
 1505000    1.0272037   -7.7517418     421.0781  0.023315509  0.023448689            3 
 1506000    1.0189863   -7.7207058    422.05116  0.023353871  0.023442041            1 
 1507000   0.98506055   -7.7081973    422.65108  0.023371548  0.023435544            2 
 1508000    0.9821364   -7.7539274    420.91543  0.023260137   0.02342902            2 
 1509000    1.0260309   -7.7209423    422.34851  0.023323863  0.023422395            1 
 1510000    1.0095908   -7.7496443    421.25811   0.02324824  0.023415629            2 
 1511000   0.98994623   -7.7594902    421.61556  0.023252568  0.023408895            1 
 1512000    1.0116407   -7.7443449    422.12762  0.023265411  0.023402142            2 
 1513000   0.98043174   -7.7389004    423.09629  0.023303387  0.023395361            4 
 1514000    1.0056559   -7.7406014     422.4839  0.023254288   0.02338867            4 
 1515000    1.0068941   -7.7809782    421.56505  0.023188397  0.023381823            2 
 1516000    0.9934562   -7.7258884    421.72964  0.023182148  0.023374983            2 
 1517000    1.0085473   -7.7632592    422.39953  0.023203666  0.023368238            2 
 1518000    1.0272597   -7.7214548    423.41766  0.023244272  0.023361524            3 
 1519000    1.0194054   -7.7231069    422.44174   0.02317543  0.023354783            1 
 1520000     1.019081   -7.7417797    422.31278  0.023153113  0.023347858            2 
 1521000    1.0202406   -7.7286694    423.06202   0.02317894  0.023340857            4 
 1522000    1.0054019   -7.7361248    423.08573   0.02316501  0.023333886            2 
 1523000   0.99487552   -7.7345408    423.00639  0.023145458  0.023326965            2 
 1524000   0.98516362   -7.7644997    423.34046  0.023148538  0.023320102            3 
 1525000   0.99546229   -7.6717144    424.20696  0.023180708  0.023313307            4 
 1526000    1.0100686   -7.7010467    425.20277  0.023219898  0.023306545            4 
 1527000     1.020088   -7.7159008    424.75745  0.023180389  0.023299755            2 
 1528000    1.0048675   -7.7326888    425.63399  0.023213023  0.023292944            1 
 1529000    1.0059787     -7.69755    425.25057  0.023176944  0.023286166            3 
 1530000   0.99397258   -7.6984124    425.85002  0.023194446  0.023279567            1 
 1531000    1.0128331   -7.7309624    424.54071  0.023108029  0.023272771            3 
 1532000    1.0005023   -7.7610535    425.57571  0.023149245  0.023265887            2 
 1533000    1.0029684   -7.7289717    425.49344  0.023129672  0.023259037            1 
 1534000   0.99883046   -7.7114539    426.05551  0.023145128  0.023252239            2 
 1535000   0.99147237   -7.7572085    424.09605  0.023023673  0.023245487            4 
 1536000   0.99904496   -7.7392205    425.12179  0.023064333  0.023238717            7 
 1537000    1.0022444   -7.7755003    425.26125  0.023056889  0.023231859            1 
 1538000    1.0246112   -7.7440261    425.29179  0.023043552  0.023225051            3 
 1539000    0.9985932   -7.7344043    426.42037  0.023089689  0.023218337            2 
 1540000    1.0148375   -7.7434427    427.18115  0.023115863  0.023211591            3 
 1541000    1.0151081   -7.7651965    426.09494  0.023042123  0.023204743            4 
 1542000    1.0115846   -7.7036281    427.80787  0.023119751  0.023198015            3 
 1543000    1.0091373    -7.737409    426.35845  0.023026488  0.023191284            1 
 1544000   0.99689544   -7.7172909    426.93999  0.023042962  0.023184393            3 
 1545000     1.014013   -7.7374757    426.36097  0.022996816  0.023177543            5 
 1546000    1.0244125    -7.786596    425.76535  0.022949836  0.023170745            1 
 1547000    1.0095182   -7.7229293    427.56658  0.023032029  0.023163936            3 
 1548000    1.0196917   -7.7158554    427.77162  0.023028188    0.0231572            1 
 1549000   0.99651638   -7.7304945    428.44833  0.023049727  0.023150376            2 
 1550000    1.0133886   -7.7189357    427.24022  0.022969905  0.023143553            3 
 1551000   0.98848422   -7.7354646    429.22376  0.023061668  0.023136676            1 
 1552000    1.0074391   -7.7172378    429.23874  0.023047613  0.023129999            3 
 1553000    1.0009485   -7.7612066    428.85902  0.023012396  0.023123249            2 
 1554000   0.99666315   -7.7395282     429.6969   0.02304252  0.023116513            3 
 1555000    1.0098606   -7.7435116    428.20285  0.022947634  0.023109725            4 
 1556000    1.0139879    -7.751833    429.55879  0.023005505  0.023103032            3 
 1557000    1.0146286   -7.6974346    429.16871  0.022969852  0.023096419            3 
 1558000    1.0106017   -7.7051977    428.95273  0.022943556   0.02308977            7 
 1559000    1.0383024   -7.7441116    428.51213  0.022905288  0.023083078            3 
 1560000   0.98945301   -7.7421003    430.14968  0.022978081  0.023076381            3 
 1561000    1.0076324   -7.7137621    430.30999  0.022971919  0.023069604            2 
 1562000   0.99527337   -7.7119418    430.71658  0.022978904  0.023062851            3 
 1563000    1.0015799   -7.7326221    429.76349  0.022913387  0.023056157            2 
 1564000   0.99851908   -7.7802002    430.10409  0.022916884  0.023049228            2 
 1565000   0.97434443   -7.7551137    429.42667   0.02286617  0.023042392            2 
 1566000    1.0115933   -7.7296622    430.77448  0.022923291  0.023035508            3 
 1567000    1.0022898   -7.7174377    429.94254  0.022864419  0.023028765            3 
 1568000    1.0050923   -7.7278013    431.21688  0.022917564  0.023022009            2 
 1569000    1.0123989   -7.7731208    429.96825   0.02283664  0.023015212            1 
 1570000   0.97879523   -7.7639708    430.67605  0.022859663  0.023008266            3 
 1571000     1.005723    -7.799031    428.08893  0.022707879  0.023001337            3 
 1572000    1.0079866    -7.751881    431.35978  0.022866825  0.022994196            2 
 1573000   0.99830537   -7.7812038    430.22759  0.022792307  0.022987187            4 
 1574000    1.0087054   -7.7711006    429.71849  0.022750873  0.022980234            1 
 1575000       1.0251   -7.7443593    431.07129  0.022808005  0.022973322            4 
 1576000    1.0005688   -7.7487461    430.64792  0.022771146  0.022966399            2 
 1577000   0.98223004   -7.7188115    431.40301  0.022796608  0.022959406            2 
 1578000   0.98667408   -7.7389149    431.77638  0.022801879  0.022952574            2 
 1579000   0.99511423   -7.7362371    432.89811  0.022846639  0.022945694            4 
 1580000    0.9896388   -7.7534259    432.01143  0.022785413  0.022938735            2 
 1581000   0.99199491   -7.8127849    430.91886  0.022713413  0.022931629            3 
 1582000   0.97964279    -7.795335     431.5827  0.022734024  0.022924545            4 
 1583000    1.0176766   -7.7705161    432.27972  0.022756355  0.022917548            6 
 1584000   0.99336094   -7.7559149    433.23015   0.02279199  0.022910595            1 
 1585000   0.99242812   -7.7500999    431.64718  0.022694384  0.022903639            1 
 1586000    1.0250514   -7.7769433    433.62959  0.022784236  0.022896726            3 
 1587000    1.0134279   -7.7784831    431.97009  0.022682739  0.022889742            3 
 1588000   0.99545593   -7.7300133    433.13274  0.022729468   0.02288275            2 
 1589000    1.0098673   -7.7438792     434.6518  0.022794829    0.0228759            2 
 1590000   0.98852647   -7.7605478    433.51078  0.022720691  0.022868983            2 
 1591000    0.9823738   -7.7606336      433.059  0.022682747  0.022861962            4 
 1592000   0.98008401   -7.7578144    432.07243  0.022616857  0.022855043            3 
 1593000    1.0069728   -7.7586417    434.04138  0.022705659  0.022848155            3 
 1594000   0.97798185    -7.714295    435.57361  0.022771519  0.022841266            3 
 1595000    1.0144884   -7.7534999    434.84633  0.022719244  0.022834543            3 
 1596000   0.98386258   -7.7588244    434.21327  0.022671954  0.022827841            2 
 1597000   0.99947823   -7.7653527    435.23824  0.022711242  0.022821135            1 
 1598000    1.0100655   -7.7564426    435.17498  0.022693731  0.022814478            2 
 1599000   0.98801337   -7.7447809     436.5129  0.022749265  0.022807835            2 
 1600000    0.9997102   -7.7606973    435.55239   0.02268502  0.022801163            2 
 1601000   0.98999697    -7.757331    436.27122  0.022708267  0.022794411            2 
 1602000   0.99849317   -7.7637604    434.92022  0.022623815  0.022787618            2 
 1603000     1.000381   -7.7559752    436.26406  0.022679562  0.022780939            3 
 1604000    1.0030457   -7.7695092    434.72836  0.022585638  0.022774147            1 
 1605000   0.99187638   -7.7718044     436.4317  0.022660005  0.022767408            1 
 1606000    1.0003683   -7.7568777    436.52147  0.022650553  0.022760703            2 
 1607000    1.0043254   -7.8157218    435.91701  0.022605114  0.022753932            5 
 1608000   0.98254124   -7.7448257    436.95001   0.02264459  0.022747171            3 
 1609000    1.0109051   -7.7689971    436.66283  0.022615643  0.022740421            1 
 1610000   0.99099247   -7.7541789    435.39075  0.022535753   0.02273361            5 
 1611000    1.0087245   -7.7599072    436.82602  0.022596007  0.022726763            4 
 1612000   0.98085445     -7.79522    436.40924  0.022560444  0.022719983            1 
 1613000    1.0173405   -7.7777081    437.50025  0.022602823  0.022713187            5 
 1614000    0.9870413      -7.7486    438.48802  0.022639819  0.022706533            4 
 1615000   0.98999164    -7.794129     437.6186  0.022580939  0.022699884            4 
 1616000   0.99356997   -7.7934917    436.60499  0.022514696  0.022693145            4 
 1617000    1.0043789   -7.7702995    438.26593   0.02258637  0.022686426            2 
 1618000   0.99256562   -7.6978657    439.44926  0.022633357  0.022679864            2 
 1619000    0.9789068    -7.770645    439.42221  0.022617985  0.022673301            2 
 1620000    1.0038272   -7.7872016     438.6121  0.022562351  0.022666629            2 
 1621000    1.0012662   -7.7529302    439.27281  0.022582398  0.022659942            3 
 1622000   0.98384093   -7.7944251    439.78781  0.022594935  0.022653318            2 
 1623000   0.96883488   -7.7562014    439.20385  0.022551029  0.022646668            2 
 1624000    1.0017789   -7.7949801    438.92061  0.022522609  0.022639949            3 
 1625000   0.97689135   -7.7885896    439.36272  0.022531422  0.022633158            4 
 1626000   0.98649754   -7.7345471    440.06571  0.022553593  0.022626437            4 
 1627000   0.99444219   -7.7368384     441.4561  0.022610945  0.022619812            1 
 1628000   0.98537977     -7.72842    441.62292  0.022605596  0.022613272            2 
 1629000   0.99911242   -7.7401393    441.03719  0.022561755  0.022606722            2 
 1630000   0.99848461   -7.7721465    440.78329  0.022534933  0.022600148            2 
 1631000   0.98853932    -7.778579    439.68907  0.022465209  0.022593517            2 
 1632000   0.97927219   -7.7778424    440.84517  0.022510476  0.022586832            1 
 1633000    0.9854937   -7.7726056    440.56445  0.022482367  0.022580159            4 
 1634000   0.97897875   -7.7616253    441.08881  0.022495349  0.022573495            2 
 1635000    1.0045349   -7.7637818    441.50663  0.022502886  0.022566906            3 
 1636000    1.0024808   -7.7961746    441.37678  0.022482517  0.022560296            3 
 1637000   0.98839919    -7.797094    441.07002  0.022453167  0.022553569            4 
 1638000   0.97069779   -7.7761182    441.57318  0.022465058  0.022547008            4 
 1639000   0.99247392   -7.7633171    441.85427  0.022465643  0.022540531            5 
 1640000   0.99709662   -7.7844611    442.25418  0.022472265  0.022533981            2 
 1641000   0.98324451   -7.8015538    441.55506  0.022423068  0.022527486            2 
 1642000   0.96649314   -7.7995792    441.53598  0.022408444  0.022520822            3 
 1643000   0.97805645   -7.7765007    442.62711  0.022450148  0.022514217            1 
 1644000   0.98780801   -7.7570336    443.07974  0.022459435   0.02250768            3 
 1645000   0.97297601   -7.7685299     443.3241  0.022458161  0.022501108            4 
 1646000    1.0001706   -7.8086457    442.64036  0.022409901  0.022494531            3 
 1647000   0.99242164   -7.7944467    442.64565  0.022396562  0.022488022            4 
 1648000   0.99411982   -7.7667279    443.23698  0.022412873  0.022481485            2 
 1649000   0.96093664   -7.7709448    443.49813  0.022412479  0.022474906            1 
 1650000   0.99366536   -7.7870259    442.76586  0.022361912  0.022468372            4 
 1651000   0.98150877    -7.768086    443.30315  0.022375487   0.02246184            1 
 1652000   0.97740472   -7.7615678    443.07688  0.022350529  0.022455139            1 
 1653000   0.97490809   -7.8281537    442.46156  0.022305987  0.022448362            2 
 1654000   0.99075375   -7.7942767     442.1036  0.022274466  0.022441503            2 
 1655000    1.0000107   -7.7863808    443.47501  0.022330061  0.022434723            2 
 1656000    1.0026475   -7.7656799    443.02989  0.022294177  0.022427866            1 
 1657000    0.9925565   -7.7767404     443.2823  0.022293417   0.02242107            1 
 1658000    0.9835782   -7.7762673    443.05109   0.02226835  0.022414317            2 
 1659000   0.98237468     -7.75842    443.83298  0.022294202   0.02240763            1 
 1660000   0.99978877   -7.8067165    443.48814  0.022263461  0.022400958            3 
 1661000   0.95715287   -7.7983214     443.6409  0.022257721  0.022394176            4 
 1662000   0.99573447   -7.8643702    442.84751  0.022204548  0.022387362            3 
 1663000   0.98255273   -7.8199345    443.51556  0.022224672  0.022380474            2 
 1664000   0.98182378   -7.7844715     446.0045  0.022335963  0.022373638            1 
 1665000   0.97934524   -7.7655181    445.27772  0.022286172  0.022366836            3 
 1666000   0.98644078   -7.7869457    444.93012  0.022255408  0.022360164            3 
 1667000   0.99441887   -7.8052289    445.60763  0.022275926  0.022353492            1 
 1668000   0.97364425   -7.8051833    445.08155  0.022236289   0.02234685            4 
 1669000   0.97673192   -7.8093974    443.81699  0.022159826  0.022340164            1 
 1670000   0.98722131   -7.7838053    445.71877  0.022241456   0.02233341            4 
 1671000   0.99032148   -7.8042744    445.52804  0.022218633  0.022326611            4 
 1672000   0.98982893   -7.7947547    444.83743  0.022170925  0.022319785            4 
 1673000   0.98278227   -7.7851578    445.27937  0.022179685  0.022313031            1 
 1674000    1.0062046    -7.803494    444.03627  0.022104553  0.022306306            2 
 1675000   0.99001397   -7.8305874    445.15705  0.022147117  0.022299437            1 
 1676000   0.98283157   -7.7472594    447.12789  0.022231896  0.022292668            4 
 1677000    0.9863911   -7.8443105    444.87984  0.022106929  0.022285844            1 
 1678000   0.98878543   -7.7782309      447.065  0.022202275  0.022279025            1 
 1679000   0.97576459   -7.7889397    445.87464   0.02212997  0.022272188            2 
 1680000    1.0000327   -7.8104214    445.55753  0.022101068  0.022265407            5 
 1681000   0.99348724   -7.7824607     447.0066  0.022159756  0.022258661            2 
 1682000   0.98794012   -7.7526496    447.78571  0.022185182  0.022251922            3 
 1683000   0.97829986   -7.7298748    447.83214  0.022174299  0.022245281            2 
 1684000   0.98383226   -7.7946125    448.19392  0.022179034  0.022238593            1 
 1685000   0.98091841   -7.7927908    446.62136  0.022088099  0.022231917            1 
 1686000   0.96506262   -7.7985639    447.31889  0.022109475  0.022225226            3 
 1687000   0.97661555   -7.8177665    448.55114  0.022157239  0.022218565            1 
 1688000   0.98273859   -7.8032563    446.48695  0.022042207  0.022211789            1 
 1689000   0.97259596   -7.7763573    448.17334  0.022112361  0.022204973            2 
 1690000   0.99180095   -7.8007074    447.22864  0.022052694  0.022198235            1 
 1691000   0.98224191    -7.766002    448.45078  0.022099881  0.022191475            2 
 1692000   0.96689102   -7.7394222    449.49139  0.022138071  0.022184779            1 
 1693000    0.9595694   -7.7793505    447.87972  0.022045665  0.022178028            4 
 1694000   0.97273383   -7.7876052     448.5337  0.022064822  0.022171339            4 
 1695000   0.96433946   -7.8022317    448.30603  0.022040611  0.022164643            3 
 1696000   0.96674824   -7.7943593    449.03181  0.022063277  0.022157871            2 
 1697000   0.98525486    -7.830701    447.67508  0.021983652  0.022151066            2 
 1698000   0.96017135   -7.8217222    448.11964  0.021992522  0.022144257            1 
 1699000   0.99338794   -7.8192918    448.03082  0.021975222  0.022137392            2 
 1700000   0.98753031   -7.8293363    446.90449  0.021907083  0.022130563            5 
 1701000   0.98221253    -7.834339    447.82171  0.021939139  0.022123594            1 
 1702000     0.978411   -7.8289242    448.56649  0.021962715  0.022116669            1 
 1703000    1.0079562   -7.8312522    448.55538  0.021949275  0.022109713            3 
 1704000   0.99239153   -7.8250163    449.13181  0.021964584  0.022102789            3 
 1705000   0.98280284   -7.8208863    449.28633  0.021959254  0.022095883            1 
 1706000   0.96039052   -7.8347885    449.23536  0.021943892  0.022089044            4 
 1707000   0.97680838   -7.7929812    449.11704  0.021925261  0.022082164            4 
 1708000   0.97515658   -7.8330875    449.82648  0.021947037  0.022075287            2 
 1709000   0.97514441   -7.8006333    449.60152  0.021923226  0.022068354            2 
 1710000   0.98691218   -7.7978402    450.15888  0.021937567  0.022061499            2 
 1711000   0.97415123   -7.8080132    450.27398  0.021930352  0.022054699            3 
 1712000     0.979283   -7.8301419    449.88374  0.021898546  0.022047944            3 
 1713000    0.9705797   -7.8044011     451.5609  0.021967353  0.022041176            1 
 1714000   0.96154519   -7.8374618    451.16463   0.02193527    0.0220344            8 
 1715000   0.98802569   -7.8362651    450.67202  0.021898543   0.02202765            3 
 1716000   0.98315255   -7.7799943    452.68992  0.021983776  0.022020932            1 
 1717000   0.97172162    -7.795481    453.19294  0.021995386  0.022014302            4 
 1718000   0.98781088   -7.8064663    452.26413   0.02193753  0.022007723            2 
 1719000   0.99739061   -7.7791741    453.25008  0.021972565  0.022001065            2 
 1720000   0.97213578   -7.8252334    451.89304  0.021894043   0.02199442            1 
 1721000    0.9744649   -7.7931483    452.12285  0.021892449  0.021987731            2 
 1722000   0.97497021   -7.8598695    451.34665  0.021842172   0.02198097            3 
 1723000   0.99469643   -7.8443838    451.54131  0.021838911  0.021974245            1 
 1724000   0.96468397   -7.8099866    452.61327  0.021878058  0.021967531            2 
 1725000   0.96473533   -7.7721491    452.18741  0.021844802  0.021960887            5 
 1726000   0.97024283    -7.850349    452.04921  0.021825474  0.021954225            4 
 1727000   0.95718309   -7.8358144    452.78962  0.021848563  0.021947464            2 
 1728000   0.95939745   -7.7938292     452.3244  0.021813484  0.021940706            3 
 1729000   0.97955439   -7.7632781    453.84714   0.02187426  0.021934046            2 
 1730000    0.9543356   -7.7851702    453.84831  0.021861672  0.021927505            2 
 1731000   0.95651867   -7.8035327    452.81588   0.02179934  0.021920849            3 
 1732000   0.98572392    -7.809769    454.11518  0.021849268  0.021914098            3 
 1733000    0.9850262   -7.8226703    453.54615  0.021809297  0.021907431            2 
 1734000   0.97166821   -7.8698744    453.14959  0.021777662  0.021900638            1 
 1735000   0.99378741    -7.820066     454.0844  0.021810009  0.021893848            2 
 1736000   0.99791517    -7.820227    453.50068  0.021769426  0.021887194            3 
 1737000   0.98468969   -7.8762114    453.03437  0.021734521  0.021880419            4 
 1738000   0.95641736    -7.821442     453.2694  0.021733285  0.021873621            2 
 1739000   0.97395579   -7.7921569    453.77105  0.021744827  0.021866913            2 
 1740000   0.97864077   -7.7912562    454.68468  0.021776086  0.021860214            5 
 1741000   0.99111829   -7.7922463    454.86554  0.021772236  0.021853557            1 
 1742000    0.9854132   -7.8249099     452.8726  0.021664399  0.021846898            2 
 1743000   0.97168013   -7.8229348    454.80326  0.021744275  0.021840312            1 
 1744000   0.96708111   -7.8114547    456.37801  0.021807053  0.021833764            3 
 1745000   0.96533376   -7.8154435    455.61369  0.021758056  0.021827199            2 
 1746000   0.99355582   -7.8176884    454.97977  0.021715338  0.021820614            2 
 1747000   0.98476623    -7.833796    455.94678  0.021749036  0.021813997            3 
 1748000   0.97599258   -7.8767294    455.18886   0.02170046  0.021807364            1 
 1749000   0.97908355   -7.8116208    456.44036  0.021747683  0.021800675            2 
 1750000   0.98573197   -7.8228376    455.10028  0.021671442  0.021794068            2 
 1751000   0.97739803    -7.832743    455.95535   0.02169976  0.021787431            2 
 1752000   0.99176977   -7.8100083    456.37378  0.021707277   0.02178078            2 
 1753000   0.96479174   -7.7975922    455.83622  0.021669339  0.021774188            1 
 1754000   0.96626151   -7.8258094    457.69446  0.021745271   0.02176759            2 
 1755000   0.96276686   -7.8012209    456.86205  0.021693355  0.021761042            4 
 1756000   0.94838527   -7.8058883    456.65547  0.021671197  0.021754429            2 
 1757000   0.97059969   -7.8214012    456.82653  0.021666976  0.021747735            2 
 1758000   0.97948533   -7.8117381    457.45189  0.021684295  0.021741057            1 
 1759000   0.98279037   -7.8044512    457.54651   0.02167645  0.021734354            1 
 1760000   0.95136346   -7.8606722     456.5186  0.021615464   0.02172766            5 
 1761000   0.96856474   -7.8438343    456.65095  0.021609453  0.021720937            3 
 1762000   0.95552023   -7.8582211    457.17745  0.021622089  0.021714184            4 
 1763000     1.009537   -7.8510019     457.8058  0.021639525  0.021707461            4 
 1764000    0.9624251   -7.8269755    456.20257   0.02155152  0.021700725            2 
 1765000   0.97786877   -7.8197108    457.46781  0.021599047  0.021694039            3 
 1766000   0.96419539    -7.789039    459.54122  0.021684655  0.021687454            4 
 1767000   0.95903739    -7.806841    459.82657  0.021685841   0.02168093            2 
 1768000    0.9597809   -7.8214698    458.05411  0.021590032  0.021674373            1 
 1769000   0.99150799   -7.7913874    460.13283   0.02167575  0.021667806            1 
 1770000   0.95657659   -7.8148539    457.63487  0.021545898  0.021661221            3 
 1771000   0.98678245   -7.8406578    458.51158  0.021574985  0.021654564            6 
 1772000   0.96229041   -7.8169701    458.47744  0.021561204  0.021647953            2 
 1773000   0.96346087   -7.8348907    459.67612  0.021605383  0.021641363            2 
 1774000   0.95085645   -7.8597977    457.73143  0.021501852  0.021634706            2 
 1775000   0.98868066   -7.8509962    459.02062  0.021550264  0.021628044            5 
 1776000   0.94725672   -7.8294196    458.76371  0.021526075  0.021621413            4 
 1777000   0.98693848   -7.8622334    458.45682  0.021499569  0.021614779            7 
 1778000   0.98552897   -7.8750174    458.31732  0.021480939  0.021608143            6 
 1779000   0.99137251   -7.8481716    459.68013  0.021532702  0.021601515            1 
 1780000   0.97668791   -7.8625444    458.98658  0.021488136  0.021594871            1 
 1781000   0.94837461   -7.8461872    459.47393  0.021498874  0.021588274            2 
 1782000   0.97912729   -7.8849077    459.40678  0.021483669  0.021581638            4 
 1783000   0.94668497   -7.8642068    459.49591  0.021475785  0.021575046            5 
 1784000   0.95465469   -7.8283667    460.22559  0.021497832  0.021568353            2 
 1785000   0.95851647    -7.813233    459.96146  0.021473458  0.021561739            2 
 1786000   0.93640246   -7.8196416    460.39478  0.021481653   0.02155512            1 
 1787000    0.9626308   -7.8262713    461.30696  0.021512169  0.021548514            2 
 1788000   0.95990527   -7.8023525    462.01733  0.021533246  0.021541958            3 
 1789000   0.97392661   -7.8748844    460.34341  0.021443237  0.021535386            4 
 1790000   0.98344751   -7.8348242    460.96209   0.02146006  0.021528842            6 
 1791000   0.96511032     -7.82867    461.72859  0.021483742  0.021522338            1 
 1792000   0.95227922   -7.8728292    461.23248  0.021448683  0.021515754            4 
 1793000   0.96779882    -7.845418    461.57037  0.021452425   0.02150917            1 
 1794000    0.9715962   -7.8506289    462.49351  0.021483348  0.021502774            3 
 1795000   0.94152582   -7.8720729    461.11188  0.021407237  0.021496273            2 
 1796000   0.96963791   -7.8473691    461.17205  0.021398109  0.021489721            3 
 1797000   0.94793783   -7.8236977    463.10061  0.021475636  0.021483128            2 
 1798000     0.955521   -7.8887442    461.81722  0.021404209  0.021476579            2 
 1799000   0.96653494   -7.8425061    462.67796  0.021432182  0.021470041            2 
 1800000   0.97011429   -7.8592364    463.23313  0.021445978  0.021463505            2 
 1801000   0.98456921   -7.8479969    463.09221   0.02142755  0.021456956            2 
 1802000    0.9679989   -7.8396586    463.40361   0.02143006  0.021450371            3 
 1803000   0.95317314   -7.8864473    462.49708  0.021376275   0.02144387            4 
 1804000   0.95773534   -7.8503504    463.29339   0.02140121  0.021437256            5 
 1805000   0.96493977   -7.8614044    462.42484  0.021349254  0.021430674            3 
 1806000   0.97084278   -7.8223881    464.02705  0.021411363  0.021424035            2 
 1807000   0.95952105   -7.8391598    463.90015  0.021393661  0.021417515            4 
 1808000   0.94881941   -7.8208212     463.6191  0.021368874  0.021410968            4 
 1809000   0.95943605    -7.843151    464.06195  0.021377462  0.021404486            3 
 1810000   0.95396431   -7.8615449    463.93456  0.021359787  0.021397996            2 
 1811000   0.94165554   -7.8462997    464.38416   0.02136868  0.021391539            2 
 1812000   0.95353491   -7.9053527    462.94254  0.021290588  0.021384973            2 
 1813000   0.93075619   -7.9182891    463.49058  0.021304035  0.021378399            2 
 1814000   0.97451171   -7.8454624     465.3009  0.021375455  0.021371886            4 
 1815000   0.95526125   -7.8417087    466.62998  0.021424701  0.021365502            3 
 1816000   0.94695344   -7.8415483    465.51541  0.021361757  0.021359194            5 
 1817000   0.97760673   -7.8570794    466.55098  0.021397495  0.021352765            2 
 1818000   0.94539191   -7.8897703    464.33026  0.021283932  0.021346353            3 
 1819000    0.9643425   -7.8703517    465.13178  0.021308951  0.021339861            2 
 1820000   0.96313405   -7.8468974    465.44617  0.021311638  0.021333401            2 
 1821000   0.97205836   -7.8247123    465.18205  0.021287848   0.02132695            8 
 1822000   0.95476897   -7.8606497    465.66558   0.02129828  0.021320501            3 
 1823000   0.94094605    -7.859254    466.20226  0.021311129  0.021314049            2 
 1824000   0.95607902   -7.8670189    465.10485  0.021249308  0.021307664            2 
 1825000   0.98609907    -7.856559    464.92483  0.021229444   0.02130121            2 
 1826000    0.9823461   -7.8167475    466.97843  0.021311538  0.021294801            1 
 1827000   0.95694675   -7.8451561    465.95043  0.021252985  0.021288385            3 
 1828000   0.96145311   -7.8044095    468.03565  0.021336418  0.021281945            2 
 1829000   0.95469415   -7.8829346    465.32575  0.021201282  0.021275516            1 
 1830000   0.95673137   -7.8549699    465.89156  0.021215463  0.021268982            2 
 1831000   0.95550604   -7.8915434    466.02331  0.021209872  0.021262413            2 
 1832000    0.9451284   -7.8640813    467.18825  0.021251285  0.021255896            3 
 1833000   0.94025286    -7.863173    466.99645  0.021230971  0.021249409            1 
 1834000   0.95461417   -7.8954894    466.17221  0.021181943   0.02124291            1 
 1835000    0.9547437   -7.8749061    467.12474  0.021213658  0.021236337            6 
 1836000   0.98061635   -7.8612122    467.17302  0.021204295  0.021229777            2 
 1837000   0.94633136     -7.85334    467.27163  0.021197225  0.021223217            3 
 1838000   0.96131822   -7.8494235    467.50295   0.02119618  0.021216747            3 
 1839000   0.96030628   -7.8512956    467.38124  0.021179139  0.021210259            2 
 1840000   0.94748456   -7.8318261    468.27884  0.021208281  0.021203712            3 
 1841000   0.97828183   -7.8556716    467.17942  0.021146995  0.021197159            2 
 1842000   0.94244495   -7.9051553    466.73557  0.021115435  0.021190614            4 
 1843000    0.9339661   -7.8421587    467.54647  0.021140644  0.021184061            1 
 1844000   0.96675568   -7.8327541     467.1682  0.021112084  0.021177473            2 
 1845000   0.95655534   -7.8729229    467.81364  0.021129794   0.02117093            1 
 1846000   0.96583462    -7.813928    469.15265  0.021178794   0.02116442            2 
 1847000   0.96839043    -7.860355    467.62496  0.021098401  0.021157931            6 
 1848000   0.94963848   -7.8809591    468.01475  0.021104561  0.021151412            7 
 1849000   0.94843691   -7.8987134    467.30663  0.021061233  0.021144841            5 
 1850000   0.98297607   -7.8746495    467.72527  0.021068706   0.02113824            4 
 1851000   0.97295632   -7.8594608    468.57566  0.021095609  0.021131659            4 
 1852000   0.95397487   -7.8893198    467.99758  0.021058206  0.021125035            4 
 1853000   0.93735447   -7.8416602    467.41063  0.021020445  0.021118442            2 
 1854000   0.96452751   -7.8451881    468.52927  0.021059388  0.021111912            3 
 1855000   0.96060912   -7.8386251    467.93259  0.021021231  0.021105344            5 
 1856000   0.98109503   -7.9031053    468.28157  0.021025573   0.02109877            2 
 1857000   0.95382978   -7.9464704    467.94565  0.020999177  0.021092082            3 
 1858000   0.94140643   -7.9185922     468.4162  0.021008979   0.02108542            1 
 1859000   0.95742555   -7.8921204    467.94698  0.020976644  0.021078742            2 
 1860000   0.95114401    -7.831126    468.89514  0.021007847  0.021072111            4 
 1861000   0.93124269   -7.8833987    468.08428  0.020960249   0.02106551            1 
 1862000   0.94473421    -7.853331     469.2845  0.021002708  0.021058913            1 
 1863000   0.97425693   -7.9122387    469.86083  0.021017214   0.02105232            1 
 1864000    0.9734888   -7.8498407    469.65592  0.020996778  0.021045676            2 
 1865000    0.9821515    -7.935186    468.71007  0.020943256  0.021039061            3 
 1866000   0.95606483   -7.8839192    469.50668  0.020967608  0.021032461            3 
 1867000    0.9590293    -7.867386    470.33627  0.020993406  0.021025835            3 
 1868000   0.94942888   -7.8923308    469.96646   0.02096567  0.021019188            3 
 1869000   0.93359976   -7.8390795    470.73206  0.020988588  0.021012617            2 
 1870000   0.96582111   -7.8402666     470.8592   0.02098303   0.02100608            4 
 1871000   0.94134057   -7.8729467    469.26463  0.020900794  0.020999552            2 
 1872000   0.94306944   -7.8676937    470.71675  0.020954271  0.020993005            2 
 1873000   0.93933962   -7.8897625    470.51904  0.020934287  0.020986449            7 
 1874000   0.93680407    -7.854582    472.49668  0.021011058  0.020979901            3 
 1875000   0.97267585   -7.8955235     469.8196  0.020880871  0.020973344            1 
 1876000   0.95476713   -7.8782467    472.39457  0.020984123  0.020966783            1 
 1877000   0.95103333    -7.894904    470.01005  0.020867077  0.020960205            3 
 1878000   0.94018932   -7.9121749    470.90767  0.020895796  0.020953536            2 
 1879000   0.93497558   -7.8919357    469.99683   0.02084428  0.020946838            2 
 1880000   0.93806009   -7.8934992    470.17006  0.020840871  0.020940131            2 
 1881000   0.93999623   -7.8648964    470.89476  0.020861898  0.020933486            2 
 1882000   0.96843492   -7.9060145    471.09823  0.020859822  0.020926915            2 
 1883000   0.93400642   -7.9147748    471.44377  0.020864037  0.020920329            4 
 1884000   0.94432998   -7.9024188    471.41148  0.020851534   0.02091371            1 
 1885000   0.95463294   -7.8762667    472.44789  0.020886291  0.020907135            2 
 1886000   0.95819495    -7.891658    472.60974  0.020882367    0.0209006            2 
 1887000   0.98252603   -7.8775946    472.13093  0.020850156  0.020894098            2 
 1888000   0.94550372   -7.8825034    472.40485  0.020851203  0.020887635            6 
 1889000   0.94314932   -7.8950032    473.75979  0.020899938  0.020881217            2 
 1890000   0.93399288   -7.8855781    473.91434  0.020895694  0.020874737            2 
 1891000   0.95227921   -7.9008223    472.84466  0.020837505  0.020868268            3 
 1892000   0.95857199   -7.9103212    471.97584  0.020788224  0.020861802            2 
 1893000   0.95549306   -7.8784005    474.05664  0.020868843  0.020855336            1 
 1894000   0.95738058   -7.8717535    473.99149  0.020854958  0.020848905            6 
 1895000   0.95907998   -7.8847177    473.99128  0.020843944  0.020842476            2 
 1896000   0.93566007   -7.9191728    472.84388  0.020782519  0.020835963            3 
 1897000   0.93267303   -7.9400397    472.99863  0.020778362  0.020829441            5 
 1898000   0.96127726   -7.8700875    473.79248  0.020802269   0.02082291            4 
 1899000   0.94759831   -7.8749618    473.09388  0.020760658   0.02081641            2 
 1900000   0.95413849   -7.8718283    474.17695  0.020797235  0.020809958            3 
 1901000   0.92958426   -7.8862626     474.4208  0.020796984  0.020803499            1 
 1902000   0.93866813   -7.9555286    473.39564  0.020741134     0.020797            5 
 1903000   0.96890135   -7.9162172    474.02683  0.020757875  0.020790429            2 
 1904000   0.94035124   -7.9310072    474.47498  0.020766587  0.020783872            4 
 1905000   0.94330569   -7.9196297    472.54649  0.020671325  0.020777254            1 
 1906000   0.95915052   -7.8512842    474.75011  0.020756826  0.020770734            5 
 1907000   0.96663448   -7.8715511    474.70565  0.020743998  0.020764276            3 
 1908000   0.93910846   -7.8679889    474.59841  0.020728442  0.020757752            1 
 1909000   0.96000538   -7.9118193     474.5308  0.020714632  0.020751251            6 
 1910000    0.9406685   -7.9195224    474.91064  0.020720359  0.020744745            3 
 1911000   0.95452779    -7.894003     474.7495   0.02070249   0.02073827            4 
 1912000   0.96470567   -7.8992327    474.57837  0.020684204  0.020731782            3 
 1913000   0.94020258   -7.8915894    475.73084  0.020723595  0.020725277            2 
 1914000   0.96099147   -7.8974598    474.70646  0.020668167  0.020718796            2 
 1915000   0.94000614   -7.8873523    475.25054  0.020681051  0.020712246            3 
 1916000   0.96307376   -7.8549578    477.12621  0.020751836  0.020705724            2 
 1917000   0.94305274   -7.8603833    475.74677  0.020681045  0.020699242            1 
 1918000   0.96505778   -7.8727188     475.9251  0.020678011  0.020692742            3 
 1919000    0.9558762   -7.8970553    474.75166  0.020616278  0.020686208            4 
 1920000   0.96098525   -7.8731649    476.70873  0.020690483  0.020679678            1 
 1921000   0.94441861   -7.8692431    477.65244  0.020720651  0.020673234            3 
 1922000   0.92757715   -7.8957216     476.1826  0.020646141  0.020666792            8 
 1923000   0.93251701   -7.9223126    475.20146  0.020592887  0.020660291            1 
 1924000   0.95385501   -7.9120933    476.72338  0.020648102  0.020653844            2 
 1925000   0.94950199   -7.9005646    475.69403  0.020592815  0.020647306            5 
 1926000   0.93329035   -7.9550606    476.19411   0.02060376  0.020640745            2 
 1927000    0.9392384   -7.8982024    477.04555  0.020629889  0.020634255            2 
 1928000   0.94511259   -7.9407633    476.34921  0.020589091  0.020627684            1 
 1929000   0.96500605   -7.9449581    476.17086  0.020570713   0.02062118            2 
 1930000   0.93327579    -7.871676    478.13386  0.020644813  0.020614751            5 
 1931000   0.94291136    -7.915581    478.31717  0.020642032  0.020608359            4 
 1932000   0.92821307    -7.897161    477.06952  0.020577533  0.020601946            4 
 1933000   0.93401889   -7.8945356    477.07475  0.020567113  0.020595568            2 
 1934000   0.94395852   -7.8832555     479.5707  0.020664026  0.020589197            7 
 1935000   0.94453869   -7.9337186    479.34485   0.02064362  0.020582745            1 
 1936000   0.93738003   -7.8817178    478.21032  0.020584122  0.020576339            4 
 1937000   0.96066971   -7.9364126    477.23508  0.020531538  0.020569945            2 
 1938000   0.92180088   -7.9108096    478.65434  0.020581972  0.020563526            4 
 1939000   0.94105928   -7.8901881    478.41332  0.020560999  0.020557149            3 
 1940000   0.94514417   -7.9099106    477.90503  0.020528566  0.020550765            2 
 1941000   0.93456595   -7.8933482    478.75667  0.020554554  0.020544381            6 
 1942000   0.93495514   -7.9334566    478.70055  0.020541561  0.020537962            2 
 1943000   0.93034955   -7.9093787    479.57488  0.020568489  0.020531552            4 
 1944000   0.93321144   -7.9027868    479.72442  0.020564319  0.020525115            3 
 1945000   0.93398211   -7.9333244    478.24301  0.020490275  0.020518667            2 
 1946000   0.94192782   -7.9430048     478.1723  0.020476717  0.020512141            1 
 1947000   0.94753929   -7.9206987    478.41402  0.020476546  0.020505706            2 
 1948000   0.91771486   -7.9320523    478.95826  0.020489316  0.020499203            3 
 1949000   0.95143618    -7.924259     479.0105  0.020481037  0.020492762            4 
 1950000   0.93074128   -7.8976273    479.95225   0.02051078  0.020486309            3 
 1951000   0.94798034   -7.9295886    478.16604  0.020423972  0.020479783            3 
 1952000    0.9230143   -7.9388656    477.89791  0.020402062  0.020473335            3 
 1953000   0.92246506   -7.9559614     478.9762  0.020437626  0.020466853            2 
 1954000   0.94784274   -7.9064132    479.24116  0.020438467   0.02046042            2 
 1955000   0.93037699   -7.9226636    479.61685  0.020444026  0.020453945            3 
 1956000   0.94252957   -7.8960609    480.18071  0.020457597  0.020447529            3 
 1957000   0.93690627   -7.8916205    481.48125  0.020502523  0.020441159            1 
 1958000    0.9289621   -7.9148423    480.98904  0.020471103   0.02043477            3 
 1959000   0.95208985   -7.9487033    478.91298  0.020372341   0.02042832            4 
 1960000   0.94767081   -7.9313806    479.58139  0.020390365  0.020421859            2 
 1961000   0.95058018     -7.93191    480.32168  0.020411426  0.020415385            2 
 1962000   0.94424413   -7.9221825    480.60586  0.020413093  0.020408967            3 
 1963000    0.9331273   -7.9258839     481.8254  0.020454466  0.020402514            2 
 1964000   0.90892147   -7.9238155     480.5613  0.020390415  0.020396082            1 
 1965000   0.93915084    -7.922054    480.64089  0.020383413   0.02038964            3 
 1966000   0.93583707    -7.877871    481.73884  0.020419585  0.020383211            3 
 1967000   0.95977015   -7.9453911    479.96156  0.020333908  0.020376829            2 
 1968000   0.93915684   -7.8947339    481.41724  0.020385215  0.020370319            2 
 1969000   0.94617369   -7.9471106    479.31771  0.020286004  0.020363723            6 
 1970000   0.94502441   -7.9081326    480.71418  0.020334779  0.020357138            4 
 1971000   0.92315714   -7.9231567    480.81407  0.020328685  0.020350577            3 
 1972000   0.94359291   -7.9268203    479.75286  0.020273532  0.020344083            3 
 1973000   0.90867046   -7.9231376     480.9368  0.020313262  0.020337691            4 
 1974000   0.93465677   -7.8907518     482.1192  0.020352888  0.020331258            5 
 1975000   0.92846267   -7.9050791    482.18271  0.020345262  0.020324805            5 
 1976000   0.93404598   -7.9342591    481.71796  0.020315366  0.020318289            3 
 1977000   0.93043207   -7.9209169    482.52212  0.020338987  0.020311772            4 
 1978000   0.93531926   -7.9073858    482.43987  0.020325239  0.020305374            2 
 1979000   0.93841008   -7.9197949    481.42013  0.020272028  0.020298962            1 
 1980000   0.93755689   -7.9452134    481.05085  0.020246248  0.020292511            4 
 1981000    0.9465087   -7.9118272    482.84771  0.020311615  0.020286083            2 
 1982000   0.94905389   -7.8931672    482.51207  0.020287255  0.020279728            2 
 1983000   0.93093159      -7.9216    483.07991  0.020300887  0.020273425            2 
 1984000   0.94232365   -7.8944814    484.15413  0.020335775  0.020267089            8 
 1985000   0.92417846    -7.868157    484.37107  0.020334638  0.020260807            2 
 1986000   0.92596893   -7.9417779    482.63843  0.020251696   0.02025452            5 
 1987000    0.9358143   -7.9340722    482.63402  0.020241319  0.020248165            4 
 1988000   0.92578189    -7.927376    483.89129   0.02028384  0.020241775            4 
 1989000   0.92590542   -7.9446179    483.99743  0.020278089  0.020235411            1 
 1990000   0.91810898   -7.9675207    483.50013  0.020247074  0.020228991            1 
 1991000   0.91854684   -7.9133621    485.22726  0.020309194  0.020222622            3 
 1992000   0.95676917   -7.8979632    485.13855  0.020295287  0.020216326            4 
 1993000   0.92758113   -7.9514148    483.70091  0.020224992  0.020209972            3 
 1994000    0.9188506   -7.9482289     483.9308  0.020224457  0.020203565            3 
 1995000   0.96669265   -7.9203757    483.97096  0.020215996  0.020197189            3 
 1996000   0.93140981   -7.9426524    483.58242  0.020189647  0.020190824            2 
 1997000   0.92000533   -7.8974168    483.21445  0.020164182  0.020184456            3 
 1998000   0.96494228    -7.946945    483.85285  0.020180716  0.020178105            4 
 1999000   0.92389753   -7.9292698    485.73967  0.020249277   0.02017174            4 
 2000000    0.9495135   -7.9394143    485.03269  0.020209695  0.020165451            4 
 2001000   0.94501314   -7.9425674    483.86945  0.020151152  0.020159171            4 
 2002000   0.92707146    -7.932789    484.82018   0.02018066  0.020152813            4 
 2003000   0.95791346   -7.9420636    485.46037   0.02019722  0.020146507            5 
 2004000   0.94235199   -7.9763374    484.37669  0.020142078   0.02014014            3 
 2005000   0.95504083   -7.8994459    486.10627  0.020203918  0.020133813            2 
 2006000   0.92381547    -7.977776    484.37803  0.020122052  0.020127483            2 
 2007000   0.93688699   -7.9406843    485.31566  0.020150958  0.020121161            4 
 2008000   0.93634107   -7.9095862    485.62004  0.020153554    0.0201149            4 
 2009000   0.92878394   -7.9315808    486.53237  0.020181366    0.0201086            5 
 2010000   0.92385167   -7.9805557    484.60437  0.020091392  0.020102224            3 
 2011000   0.91590413    -7.969297    485.64533  0.020124537  0.020095833            3 
 2012000   0.92401277   -7.9282757     485.3393   0.02010186  0.020089485            4 
 2013000   0.94712007   -7.9120862    486.88111  0.020155701  0.020083136            4 
 2014000   0.93344544   -7.9261158     486.3395  0.020123283  0.020076845            4 
 2015000   0.91572397   -7.9493781     485.7543  0.020089094  0.020070498            6 
 2016000   0.92964291   -7.9486688    485.97909  0.020088421  0.020064162            3 
 2017000   0.93071527   -7.9533939    484.87631    0.0200329  0.020057779            3 
 2018000   0.92647095   -7.9463531     486.4645  0.020088557  0.020051399            3 
 2019000   0.94681619   -7.9260496    485.95167  0.020057441  0.020044996            3 
 2020000   0.95094071   -7.9518345    485.26035  0.020018991  0.020038618            2 
 2021000     0.927281   -7.9299318    485.22572  0.020007658  0.020032253            3 
 2022000   0.92603515   -7.9073886    486.17176  0.020036752  0.020025883            2 
 2023000   0.93463668    -7.953397    485.50394  0.019999338  0.020019485            2 
 2024000   0.93343902   -7.9140192    486.86091  0.020045327  0.020013103            2 
 2025000   0.93419376   -7.9599257     486.2188  0.020009004  0.020006731            5 
 2026000   0.93844444   -7.8997185    486.30032  0.020002481  0.020000417            2 
 2027000   0.92261716   -7.8994084    487.30048  0.020033731  0.019994128            4 
 2028000   0.93992101   -7.9509166    487.14709   0.02001755  0.019987854            1 
 2029000   0.90695444   -7.9188726    487.39351  0.020017805  0.019981503            3 
 2030000   0.93730949   -7.9599554    486.07176  0.019953685  0.019975129            2 
 2031000   0.92235103   -7.9471106     486.6291  0.019966728  0.019968696            2 
 2032000   0.92172669   -7.9737558    487.13271  0.019977555  0.019962339            6 
 2033000   0.93270844   -7.9118165    488.59625   0.02002772  0.019956054            4 
 2034000   0.92031129    -7.944921    488.03074  0.019994704  0.019949727            6 
 2035000   0.91212777   -7.9766011    488.39869  0.019999947  0.019943368            6 
 2036000   0.94027467   -7.9610198    487.44958  0.019951276  0.019937108            2 
 2037000   0.91616982   -7.9526463    487.69709  0.019951607  0.019930838            1 
 2038000   0.92704455   -7.9555095    487.53406  0.019935151  0.019924548            2 
 2039000   0.91681974    -7.942413    490.30172  0.020038488  0.019918293            2 
 2040000   0.91915689   -7.9310056    489.31256  0.019988258  0.019912106            2 
 2041000   0.93287888   -7.9586483      490.057   0.02000886  0.019905973            2 
 2042000   0.93841378   -7.9496939    490.42439  0.020014054  0.019899834            2 
 2043000   0.91295284   -8.0062334    488.43623  0.019923161  0.019893684            2 
 2044000   0.94414707   -7.9506326    490.63773  0.020003169   0.01988756            4 
 2045000   0.93452921   -7.9441225    489.57341  0.019950017  0.019881374            2 
 2046000   0.92558696   -7.9708564    490.15556  0.019963977  0.019875181            3 
 2047000   0.93613867   -7.9269049    490.69566  0.019976212  0.019868977            5 
 2048000   0.93236986   -7.9422318    491.01853  0.019979595  0.019862782            2 
 2049000   0.94438791   -7.9499454    490.24428  0.019938355  0.019856651            1 
 2050000   0.91201213   -7.9677715    489.38821   0.01989383  0.019850442            4 
 2051000   0.92326283   -7.9371817    490.29072  0.019920799  0.019844226            7 
 2052000   0.93177522   -7.9721977    491.18185  0.019947281  0.019838061            1 
 2053000   0.92019062   -7.9314056    490.75457  0.019920221  0.019831935            3 
 2054000    0.9254113   -7.9490083    490.91991  0.019917231  0.019825794            5 
 2055000   0.92084712    -7.964373    490.11852  0.019875041  0.019819624            4 
 2056000   0.92417812    -7.941766    490.21544  0.019869303   0.01981341            4 
 2057000   0.91340267   -7.9448446    491.99985  0.019931934  0.019807231            1 
 2058000   0.92815801   -7.9298112    492.33167  0.019935685  0.019801051            2 
 2059000   0.92785092   -7.9228282    490.87875  0.019867199  0.019794941            3 
 2060000   0.90810506   -7.9338241    492.00314   0.01990304  0.019788797            3 
 2061000   0.91698741   -7.9654476    490.21998  0.019821283  0.019782621            1 
 2062000    0.9184157   -7.9265171    492.40469  0.019899963  0.019776479            3 
 2063000   0.92150068   -7.9494935    491.73794  0.019863384  0.019770357            3 
 2064000    0.9207129   -7.9675422     492.2214   0.01987328  0.019764165            2 
 2065000   0.92718183   -7.9823937    491.88792  0.019850199  0.019758026            2 
 2066000   0.92029461   -7.9798848    491.04374   0.01980654   0.01975185            3 
 2067000   0.92170475   -7.9490995    491.22613  0.019804311   0.01974562            2 
 2068000   0.92751449   -7.9625688    491.33339  0.019799057  0.019739462            3 
 2069000    0.9164307   -7.9485701    491.52716  0.019797292  0.019733291            2 
 2070000   0.91748629   -7.9841058    489.97832  0.019725375  0.019727065            5 
 2071000   0.91944951   -7.9885646    491.40264  0.019773163  0.019720891            2 
 2072000     0.942743   -8.0061031    491.04288  0.019749151   0.01971471            2 
 2073000   0.90456832   -7.9146772    493.57322  0.019841342  0.019708536            1 
 2074000    0.9464949   -7.9444653    491.45193  0.019746542  0.019702388            2 
 2075000   0.92640101   -7.9398025    492.29933  0.019771058  0.019696201            3 
 2076000   0.90247553   -7.9975686    492.18701  0.019757025  0.019689925            1 
 2077000    0.8988243   -7.9845752    491.55208  0.019722038  0.019683652            3 
 2078000   0.91687223   -7.9701621    492.14522  0.019736334  0.019677359            4 
 2079000   0.92246525   -7.9467261    492.08453  0.019724408  0.019671117            8 
 2080000    0.9378116   -7.9626185    492.38979  0.019727155  0.019664878            3 
 2081000   0.88453632   -8.0003354    490.78661  0.019653476  0.019658549            2 
 2082000   0.94151013   -7.9780594    493.02721  0.019733718  0.019652222            2 
 2083000   0.92276414   -7.9578065    493.46728   0.01974185  0.019645944           10 
 2084000   0.93775706   -7.9168119    493.61302  0.019738205  0.019639765            3 
 2085000   0.93211179   -7.9495222    493.54387  0.019725974  0.019633579            4 
 2086000   0.92325467   -7.9902381    492.11861   0.01965958    0.0196274            2 
 2087000   0.91703511   -7.9744676    492.21451  0.019653989  0.019621153            2 
 2088000   0.91582365   -8.0393549    491.61616  0.019620696   0.01961482            5 
 2089000   0.91808953   -8.0258687    491.73058  0.019615868  0.019608529            3 
 2090000   0.92699505   -8.0070041    491.52984  0.019598479  0.019602226            3 
 2091000   0.91095625   -7.9712246    493.80623  0.019679827  0.019595999            3 
 2092000   0.93395917   -7.9906348    491.80907  0.019590865  0.019589771            8 
 2093000   0.94986892    -7.951762    494.02271  0.019669641  0.019583582            4 
 2094000   0.91714542    -7.932837    493.90755  0.019655665  0.019577408            3 
 2095000   0.90504052   -7.9581064     494.3263   0.01966294  0.019571278            2 
 2096000   0.91612867   -7.9493417    495.58158  0.019703466  0.019565099            3 
 2097000   0.91772501   -7.9380101    494.67143  0.019657901   0.01955894            3 
 2098000   0.89714729   -7.9807788    494.28544    0.0196332  0.019552768            2 
 2099000   0.89450267   -7.9626037    494.12687  0.019617551  0.019546562            2 
 2100000   0.90133912   -8.0180304    494.69373  0.019630704  0.019540387            2 
 2101000   0.90390945   -7.9806497    495.77375  0.019664198   0.01953421            3 
 2102000   0.91064042   -7.9579846    496.42907  0.019680823  0.019528104            3 
 2103000   0.90615828   -8.0040175     494.0791  0.019578344  0.019521966            5 
 2104000   0.90479881   -7.9499679    495.02073  0.019606334  0.019515742            2 
 2105000   0.91175235   -8.0232231    494.81215  0.019588763   0.01950949            1 
 2106000   0.93731126   -7.9828008    494.98816  0.019586426  0.019503317            2 
 2107000   0.92567333   -7.9587139    496.42879  0.019634108  0.019497134            2 
 2108000   0.90163117   -7.9821918    494.89952  0.019564339  0.019490927            9 
 2109000   0.90367433   -7.9860088    495.16999  0.019565749  0.019484748            2 
 2110000   0.90638024   -8.0290565    494.24214  0.019519832   0.01947855            4 
 2111000   0.91868795   -8.0340739    493.77188  0.019492021  0.019472245            2 
 2112000   0.92773775   -7.9942794    495.50775  0.019551284  0.019465987            4 
 2113000   0.92364619    -8.013759    494.59296  0.019505954  0.019459809            2 
 2114000   0.91785654   -7.9760708    496.93987  0.019589241  0.019453611            3 
 2115000   0.91795971   -7.9837482    496.19572  0.019550659  0.019447431            5 
 2116000   0.90899384   -8.0007901    495.44326  0.019511785  0.019441186            2 
 2117000   0.92640895   -7.9708936    496.80449  0.019556152  0.019434963            8 
 2118000   0.90023934   -7.9430763    497.05139  0.019556633  0.019428816            5 
 2119000   0.90580379   -7.9513798    496.74902  0.019535513  0.019422709            2 
 2120000   0.91922083   -7.9811567    496.61426  0.019521001   0.01941659            2 
 2121000   0.91871737   -7.9544962    496.37583  0.019502429  0.019410413            2 
 2122000   0.89749444   -8.0171846    495.27687  0.019450081  0.019404248            3 
 2123000   0.92060046   -8.0061572    496.28062  0.019480319  0.019398021            3 
 2124000   0.90081203    -7.978795    497.51343  0.019519516  0.019391848            3 
 2125000   0.90669958   -7.9946046    495.68405   0.01943859  0.019385706            2 
 2126000   0.88585151   -7.9883465    498.34764  0.019533852  0.019379536            2 
 2127000   0.90952438   -8.0353611    496.25283  0.019442596  0.019373309            4 
 2128000   0.92009751   -7.9932783    495.24715  0.019394077  0.019367074            2 
 2129000   0.91450655   -8.0173999     496.0168  0.019415093  0.019360785            2 
 2130000   0.90766307   -7.9862948    496.89087  0.019440175  0.019354529            2 
 2131000   0.90233547   -8.0181961     496.9532   0.01943349  0.019348273            4 
 2132000   0.92094901   -7.9627793    497.84925  0.019459398  0.019342108            3 
 2133000    0.9295766   -7.9723003    497.41441  0.019433287  0.019335967            2 
 2134000   0.91068905   -7.9708933    497.76802  0.019437989  0.019329798            3 
 2135000   0.91938176   -7.9852706    497.55854  0.019420708  0.019323606            2 
 2136000   0.90003339   -8.0079773    496.49602  0.019370163  0.019317413            2 
 2137000   0.90993835   -7.9552238    499.22152  0.019467381  0.019311238            2 
 2138000   0.89036538   -8.0341264     496.1149  0.019337188  0.019305068            2 
 2139000   0.90621926   -8.0049418    497.84156  0.019395417  0.019298872            1 
 2140000   0.91017359   -7.9973785    498.21673  0.019400963  0.019292742            3 
 2141000   0.89141594   -8.0278827    497.71266  0.019372282  0.019286533            2 
 2142000   0.89462796   -8.0496349    497.37001  0.019349907  0.019280344            1 
 2143000   0.90738288   -7.9964408    498.43238  0.019382189  0.019274147            2 
 2144000   0.90767804   -8.0052204    498.68132  0.019382825  0.019267979            1 
 2145000   0.90415303     -8.02706    498.50931  0.019367106  0.019261836            2 
 2146000   0.90632008   -7.9879966    498.44291  0.019355503  0.019255669            4 
 2147000   0.90002544   -7.9705158    498.74178  0.019358088  0.019249601            1 
 2148000   0.90959692   -7.9906173    498.13838  0.019325666   0.01924352            5 
 2149000   0.91361328   -7.9888715    498.13858  0.019316681  0.019237426            2 
 2150000   0.91059445   -7.9728768    499.83734   0.01937354  0.019231308            3 
 2151000   0.90926597   -8.0015255    498.95552   0.01933037  0.019225249            5 
 2152000   0.93727307    -8.004399    498.24145  0.019293736  0.019219205            9 
 2153000   0.89316068   -8.0211275    498.39348  0.019290659  0.019213112            5 
 2154000   0.91495789   -7.9989373    499.94756  0.019341828  0.019207017            4 
 2155000   0.91028486   -7.9792754    501.01125  0.019373985  0.019200977            2 
 2156000   0.91640509   -7.9501807    501.15782  0.019370664  0.019194976            3 
 2157000   0.91913979   -7.9856928    501.69726  0.019382524  0.019188963            3 
 2158000   0.92065133   -8.0462438    499.43919  0.019286345  0.019182929            1 
 2159000    0.9032541   -8.0123174    500.72703   0.01932712  0.019176864            7 
 2160000    0.9058088   -8.0074636    499.96465   0.01928876  0.019170814            2 
 2161000   0.91459666    -8.042594    499.16614  0.019249041  0.019164763            3 
 2162000   0.87600129   -7.9814035    500.07667  0.019275234  0.019158753            2 
 2163000   0.89590346   -8.0062695    500.16911  0.019269884  0.019152707            7 
 2164000   0.91093147   -8.0005109    501.33816  0.019305998  0.019146683            2 
 2165000   0.90275518    -8.006052    501.12616  0.019288921  0.019140723            1 
 2166000   0.90044067   -7.9676113     502.0836  0.019316851  0.019134772            2 
 2167000   0.90924582   -7.9986908    502.71929  0.019332383  0.019128832            2 
 2168000   0.91770597   -7.9695278    502.53774  0.019316488  0.019122901            3 
 2169000   0.90559996   -8.0174865    500.84095  0.019242391  0.019116943            6 
 2170000   0.91608633   -8.0209285    501.54562  0.019260585  0.019110952            7 
 2171000   0.91495092   -8.0145843    500.71544  0.019219846  0.019104946            2 
 2172000   0.90120718   -7.9897457    501.05562  0.019224049  0.019098946            2 
 2173000   0.88811044   -7.9845849     501.8643  0.019246215  0.019092976            4 
 2174000   0.91792251   -8.0184743    501.58582  0.019226687  0.019087019            3 
 2175000   0.88777728   -8.0541972     500.3096   0.01916895  0.019080958            4 
 2176000   0.89032714   -8.0337658    501.26891  0.019196879  0.019074933            4 
 2177000   0.88985418   -8.0279852    502.71283  0.019243333  0.019068902            2 
 2178000   0.89835128   -8.0562599    502.59688  0.019230061  0.019062877            5 
 2179000   0.89076501   -8.0045207    502.34917  0.019211763  0.019056843            3 
 2180000    0.9030319   -8.0065168    502.68058  0.019215618   0.01905082            1 
 2181000   0.89847715   -8.0207491    500.54119  0.019125064    0.0190448            6 
 2182000   0.89835898   -8.0339472    501.39814  0.019149028  0.019038763            2 
 2183000   0.89808316   -7.9944678    503.16306  0.019207629  0.019032733            2 
 2184000   0.89603529   -8.0139513    501.28822  0.019127298   0.01902672            2 
 2185000    0.8876553    -8.034859    501.45655  0.019124964  0.019020678            6 
 2186000   0.89932193   -8.0258586    502.37172  0.019151102    0.0190146            5 
 2187000   0.91901162   -8.0473657     501.7333  0.019118019  0.019008588            2 
 2188000   0.90806687   -8.0227308    503.51515  0.019177146   0.01900255            3 
 2189000   0.90343134   -8.0239942    502.95547  0.019147079  0.018996512            2 
 2190000   0.90436162   -8.0207785    503.12294  0.019144708  0.018990452            2 
 2191000   0.92084536   -8.0022375    502.96273  0.019129877  0.018984458            3 
 2192000   0.91105803   -8.0463682     503.3059  0.019134196  0.018978439            3 
 2193000   0.89305189   -8.0486095    501.00752  0.019038134  0.018972443            2 
 2194000   0.91478057   -7.9754773     505.0702  0.019183766  0.018966444            3 
 2195000   0.90592981   -7.9775545    503.21724  0.019104679  0.018960453            1 
 2196000   0.90437372   -7.9910913    504.75578  0.019154363  0.018954496            3 
 2197000   0.90617834   -8.0429358    503.56361  0.019100425  0.018948558            3 
 2198000   0.90253757   -8.0365141    505.05165  0.019148152  0.018942631            2 
 2199000   0.89271936   -7.9829676    505.56599  0.019158936  0.018936794            3 
 2200000   0.90519982   -7.9810895    504.71622  0.019118039  0.018930909            2 
 2201000   0.88645554   -7.9970504    504.44264  0.019098994  0.018925086            2 
 2202000   0.90222874   -7.9901593    506.64043  0.019173495  0.018919188            2 
 2203000   0.89749422   -8.0190472    504.46063  0.019082336  0.018913288            1 
 2204000   0.91325271   -8.0280309     505.4719  0.019111914  0.018907437            5 
 2205000   0.89639096   -8.0111659    504.94988  0.019083518  0.018901579            2 
 2206000   0.91796165   -7.9995597    506.21244  0.019122561  0.018895697            3 
 2207000   0.90688484   -8.0285485     505.3791  0.019082431  0.018889781            4 
 2208000   0.90667335   -8.0222399    504.34992  0.019034946  0.018883868            2 
 2209000   0.87972942   -8.0011817    505.12862  0.019055705  0.018877971            6 
 2210000   0.89418022   -7.9982894    505.94337  0.019077804  0.018872097            3 
 2211000   0.90734514   -8.0287707    503.71064  0.018985023  0.018866226            4 
 2212000   0.88704275   -7.9898495     506.0457   0.01906441  0.018860309            5 
 2213000   0.89898892   -8.0303771    506.00726  0.019054348  0.018854432            3 
 2214000   0.91254539   -8.0026041    505.50102  0.019026687  0.018848507            4 
 2215000   0.88709772   -8.0092538    504.81544  0.018992304  0.018842642            4 
 2216000   0.90253478   -8.0272038    505.80542  0.019020962  0.018836701            1 
 2217000   0.92757497   -8.0491904    504.16431  0.018950696  0.018830753            3 
 2218000   0.89563688   -8.0074617    506.52674  0.019030911  0.018824832            2 
 2219000   0.91191144   -8.0007481    506.65439  0.019027129  0.018818924            2 
 2220000   0.90556021   -7.9801935    506.45617  0.019011118  0.018813022            2 
 2221000   0.90852768   -8.0197612    507.11391  0.019027237  0.018807098            6 
 2222000   0.90025312   -8.0327158    507.16183  0.019020471  0.018801128            5 
 2223000   0.89173153   -8.0126911    508.42482   0.01905926  0.018795185            3 
 2224000   0.90170885   -8.0470966    505.43491  0.018938658   0.01878925            3 
 2225000   0.88511304   -8.0505048    506.21896  0.018959512  0.018783377            5 
 2226000   0.91095066    -8.012383    507.27063  0.018990365  0.018777462            2 
 2227000   0.87838497   -8.0338739     506.7386  0.018961929  0.018771552            2 
 2228000   0.89143687   -8.0361682    505.79457  0.018918109  0.018765642            2 
 2229000   0.88785325   -8.0033672    507.76426  0.018983261  0.018759756            2 
 2230000    0.8755451   -8.0482324    507.74249  0.018973935  0.018753912            3 
 2231000   0.88674822   -8.0286315    506.30278  0.018911653   0.01874802            4 
 2232000   0.88349316   -8.0628873    506.80516  0.018921937    0.0187421            3 
 2233000   0.89408131   -8.0402783    508.07659  0.018960912  0.018736202            1 
 2234000   0.90444275   -8.0378954     506.8195  0.018905532  0.018730282            2 
 2235000   0.91227811   -8.0203649    506.07986  0.018869495  0.018724336            3 
 2236000   0.90131995   -8.0369511    506.94371  0.018893251  0.018718409            4 
 2237000   0.90517638   -8.0526223    506.37005  0.018863435  0.018712459            3 
 2238000   0.88981537   -8.0319301    506.24228  0.018850249  0.018706504            2 
 2239000    0.8788791   -8.0469402    508.29202  0.018918119  0.018700557            1 
 2240000   0.89741295   -8.0397368    507.84007   0.01889286  0.018694637            7 
 2241000   0.91156827   -8.0332807    507.26401  0.018863008  0.018688705            2 
 2242000   0.89250707   -8.0547482    508.48529  0.018899988  0.018682783            7 
 2243000   0.91288217    -8.043313    507.57983  0.018857922  0.018676901            3 
 2244000   0.88579475   -8.0319574    507.96668  0.018863885  0.018671029            6 
 2245000   0.91675885    -8.008022    508.01177  0.018857156  0.018665177            3 
 2246000   0.92196394   -8.0281111    507.83587  0.018842233   0.01865933            5 
 2247000   0.88649468   -8.0313973    508.39457  0.018854568  0.018653468            2 
 2248000   0.91362131   -8.0550508    508.58557  0.018853261  0.018647583           10 
 2249000   0.88852284   -8.0406148    508.26302  0.018832926  0.018641687            4 
 2250000   0.90828443   -8.0781057    507.77859  0.018806614  0.018635835            3 
 2251000   0.88632446   -8.0563847    507.85161  0.018800963  0.018629999            3 
 2252000   0.89669297   -8.0490328    509.03711  0.018836483  0.018624171            4 
 2253000   0.88558425    -8.016259    509.83227  0.018857533  0.018618362            2 
 2254000   0.87850353   -8.0402861    508.34461  0.018794166  0.018612524            2 
 2255000   0.90494412   -8.0413095    508.26926  0.018783047   0.01860672            1 
 2256000   0.88393774   -8.0215815    509.25873  0.018811271  0.018600951            2 
 2257000   0.89283445   -8.0286752    510.21214  0.018838139  0.018595196            3 
 2258000   0.88122221   -8.0405418    510.25085  0.018831224  0.018589427            1 
 2259000    0.9017653     -8.03384    509.66382  0.018801233  0.018583632            3 
 2260000   0.89932042   -8.0062538    510.33131  0.018817526   0.01857784            5 
 2261000   0.87794529   -8.0606278    507.69776  0.018712139  0.018571994            3 
 2262000   0.88090876   -8.0865076    509.49716  0.018770158   0.01856613            4 
 2263000   0.87802416   -8.0667906    509.30773  0.018754888  0.018560243            2 
 2264000   0.88712901   -8.0942968     508.9439  0.018733212  0.018554378            3 
 2265000   0.89718786   -8.0077035     510.1591  0.018769651   0.01854854            6 
 2266000   0.90063824   -8.0553291    510.05871  0.018757675  0.018542684            3 
 2267000   0.89656047   -8.0525374    509.70144  0.018736268  0.018536897            4 
 2268000   0.91442235   -8.0580543    509.43494  0.018718215  0.018531068            2 
 2269000   0.89668643   -8.0475754     508.5194   0.01867634  0.018525244            3 
 2270000   0.89276404    -8.031251    510.62631  0.018745459  0.018519446            3 
 2271000    0.8905926   -8.0422057    511.05679  0.018753001  0.018513686            1 
 2272000   0.88453919   -8.0587954    510.61098  0.018728396  0.018507914            2 
 2273000   0.90925524   -8.0471214    509.86316  0.018692739  0.018502137            3 
 2274000   0.89057961   -8.0494198    510.20657  0.018697104  0.018496377            2 
 2275000   0.88312885   -8.0941738    510.86796  0.018713112  0.018490584            3 
 2276000   0.88713804   -8.0301787    511.80314  0.018739131  0.018484828            2 
 2277000   0.89361953   -8.0283426    511.90417  0.018734599  0.018479066            3 
 2278000   0.88739633    -8.024345    511.37017   0.01870684  0.018473324            2 
 2279000   0.89782722   -8.0790264    509.88296   0.01864425    0.0184675            4 
 2280000   0.88662741   -8.0899513    510.75478  0.018667938  0.018461657            2 
 2281000   0.89191342    -8.078736    511.46955  0.018685867  0.018455837            2 
 2282000   0.88869738   -8.0925599    511.22293  0.018668672  0.018450029            2 
 2283000   0.89417562    -8.041547    511.23502  0.018660937  0.018444283            8 
 2284000   0.88707632   -8.0131654    513.20842  0.018724767  0.018438575            1 
 2285000   0.86725464   -8.0270516    512.10206  0.018676224   0.01843288            2 
 2286000    0.8879429   -8.0541034    511.08972   0.01863115  0.018427158            3 
 2287000   0.86816601   -8.0638429    511.94682  0.018654235  0.018421392            4 
 2288000   0.89178523   -8.0783495    510.77033  0.018603232  0.018415619            7 
 2289000   0.87586691   -8.0618297    513.12488  0.018680824  0.018409896            1 
 2290000   0.88060633    -8.078481    513.12542  0.018672686  0.018404173            6 
 2291000   0.87300274   -8.0617742    512.77434  0.018651766  0.018398475            2 
 2292000   0.88015062    -8.088482    512.58031  0.018636573  0.018392732            2 
 2293000    0.8966972   -8.0839022     511.3957  0.018585394   0.01838695            3 
 2294000   0.88943886   -8.0553778    512.55113  0.018619265   0.01838121            2 
 2295000   0.88959294   -8.0406274    513.09682  0.018630967  0.018375488            2 
 2296000   0.88885208   -8.1137637    511.72172  0.018572943  0.018369762            1 
 2297000   0.87524006   -8.1035678    513.11729  0.018615487  0.018363997            1 
 2298000   0.88301759   -8.0459091    512.63875  0.018590033  0.018358259            2 
 2299000   0.87551872   -8.0708592    513.29605  0.018605773   0.01835249            2 
 2300000    0.8896627   -8.0623602    512.31318  0.018562072  0.018346752            3 
 2301000   0.85905938   -8.0729662    512.81792  0.018572284  0.018340977            5 
 2302000   0.88531797   -8.0897703    511.97195  0.018533592  0.018335205            2 
 2303000   0.88539505   -8.0881164    513.28897    0.0185732  0.018329419            1 
 2304000   0.88746618    -8.088686    513.90092  0.018587273  0.018323649            5 
 2305000   0.88463158   -8.0783706    512.43139  0.018526081  0.018317884            2 
 2306000   0.89455966   -8.1079113    513.02971  0.018539669  0.018312054            3 
 2307000   0.88553944   -8.0709951    513.77955  0.018558718  0.018306262            2 
 2308000    0.8736092   -8.0963634    513.47505  0.018539683  0.018300509            2 
 2309000   0.88598817   -8.0627916    513.77524  0.018542487  0.018294756            4 
 2310000   0.89171755   -8.0870503    513.71532  0.018532299  0.018288949            2 
 2311000   0.87502213   -8.0641334    514.18305  0.018541146  0.018283129            2 
 2312000   0.88605708   -8.0958807    512.43318  0.018470054  0.018277359            5 
 2313000   0.89194346   -8.0803317    513.09529  0.018485923    0.0182716            2 
 2314000    0.8923997    -8.097957    515.05263  0.018548424   0.01826581            2 
 2315000   0.88058489   -8.0694552    513.08649  0.018469636  0.018260065            5 
 2316000   0.87394996   -8.0922368    513.76075  0.018485922  0.018254318            4 
 2317000   0.88791403   -8.0807486    513.56477  0.018470895  0.018248573            2 
 2318000   0.90011262   -8.0547625    514.52312   0.01849738   0.01824283            4 
 2319000   0.87268159   -8.0680363    514.19211  0.018477509  0.018237116            3 
 2320000   0.87812094   -8.0934148    513.55556  0.018446679  0.018231416            2 
 2321000   0.86197954   -8.0748257    513.80627  0.018447733  0.018225744            3 
 2322000   0.87503012   -8.0609829    514.59305  0.018468025  0.018220059            2 
 2323000    0.8782994   -8.0833204    514.91718  0.018471703  0.018214329            2 
 2324000   0.89763982   -8.0964403    514.72025  0.018456693  0.018208625            2 
 2325000   0.87988734   -8.0815231    515.14238  0.018463885  0.018202864            3 
 2326000   0.89073981    -8.054662    513.74187  0.018405771  0.018197142            1 
 2327000   0.88563769   -8.0595891    515.65399  0.018466337  0.018191412            1 
 2328000   0.90259475    -8.040933    515.73873  0.018461438   0.01818571            2 
 2329000   0.89513365   -8.0639169    516.25039  0.018471819   0.01818005            3 
 2330000   0.87058172   -8.0711683    515.15875  0.018424848  0.018174379            2 
 2331000   0.88326647   -8.0624511    515.85662  0.018441893  0.018168699            2 
 2332000   0.90033546   -8.0816353    515.69358  0.018428158  0.018163023            2 
 2333000   0.86960582   -8.0887557    514.41129  0.018374457  0.018157336            1 
 2334000   0.88558865   -8.0666107     515.9322  0.018420887  0.018151597            2 
 2335000   0.87754355   -8.0665734    514.83403  0.018373805  0.018145907            2 
 2336000   0.85056598   -8.0541886    514.90783  0.018368573   0.01814019            3 
 2337000   0.88476133   -8.1037151    515.23764  0.018372473  0.018134452            1 
 2338000   0.87739126   -8.1252455    514.88918  0.018352195  0.018128698            4 
 2339000   0.86540636   -8.0932885    514.86439  0.018343466  0.018122915            3 
 2340000   0.89061587   -8.1127081    514.92689  0.018337852  0.018117137            4 
 2341000   0.88921992   -8.1058155    514.55295  0.018316708  0.018111371            3 
 2342000   0.85696671   -8.1001283    514.50015  0.018307008   0.01810563            2 
 2343000   0.87150659   -8.0629936    514.72431  0.018307167   0.01809984            1 
 2344000   0.88298906   -8.0700153    516.44355  0.018360479  0.018094059            4 
 2345000   0.90055244   -8.1227878    515.02991  0.018302413  0.018088283            2 
 2346000   0.88487774   -8.0965707    515.16871  0.018299542  0.018082497            3 
 2347000   0.85649298   -8.0889518    514.95385  0.018284116  0.018076711            2 
 2348000   0.86638638   -8.0846693    516.39097  0.018327334   0.01807088            1 
 2349000    0.8761585   -8.0885124    515.05819   0.01827225  0.018065095            2 
 2350000   0.87328273    -8.076908    516.54838  0.018317319  0.018059303            4 
 2351000    0.8869325   -8.0991907    516.11043  0.018294003  0.018053532            3 
 2352000   0.87679273   -8.1126578    514.86895  0.018242239   0.01804774            4 
 2353000   0.89913596   -8.1118159    514.79802  0.018231974  0.018041886            2 
 2354000   0.87141744   -8.0928993    514.94173  0.018229316    0.0180361            1 
 2355000   0.86484356   -8.1097913    514.79235   0.01821629  0.018030288            4 
 2356000   0.85679784   -8.0972743    515.68238  0.018240039  0.018024463            4 
 2357000   0.87870138   -8.0984795    515.31366  0.018219264  0.018018628            3 
 2358000   0.86811971     -8.08523    515.43984  0.018215997  0.018012796            3 
 2359000   0.87800843   -8.0894972    515.66873   0.01821636  0.018006958            2 
 2360000   0.87114817   -8.1201818    515.37268  0.018198188  0.018001134            3 
 2361000   0.87169094   -8.0879295    516.40487  0.018226912  0.017995321            4 
 2362000   0.87608297   -8.0725462    516.32617  0.018216419  0.017989557            2 
 2363000   0.88762187   -8.0982307     515.4988  0.018179532  0.017983793            5 
 2364000   0.86325597   -8.0879311    515.89337   0.01818575  0.017978028            2 
 2365000   0.87275231   -8.0863252    515.76753  0.018173627  0.017972235            1 
 2366000   0.87791721   -8.0911594    516.07527  0.018176785   0.01796647            9 
 2367000   0.87654245   -8.0744264    516.68372  0.018190527  0.017960676            3 
 2368000   0.88412456   -8.0948678    515.65175  0.018146529  0.017954873            3 
 2369000   0.85218679   -8.0922653    515.39926  0.018129986   0.01794909            1 
 2370000   0.87889658   -8.1235397     515.8681  0.018138822   0.01794328            1 
 2371000   0.85910199   -8.0477496    516.43668  0.018151156  0.017937525            3 
 2372000   0.87659837   -8.0905558    516.75625   0.01815473  0.017931785            1 
 2373000   0.85396419   -8.0775241    517.40559  0.018169883  0.017926042            3 
 2374000   0.85127809   -8.0991892    516.31654  0.018124001  0.017920305            7 
 2375000   0.88394353   -8.0953779    516.64788  0.018127996  0.017914548            2 
 2376000   0.86860291   -8.0855368    517.53189  0.018151371  0.017908813            7 
 2377000   0.90112266   -8.1192539    517.45454  0.018141023  0.017903019            3 
 2378000   0.87185275   -8.1205021    516.35912  0.018095007  0.017897257            4 
 2379000   0.85711968   -8.1041578    518.50434  0.018162545  0.017891491            2 
 2380000   0.87240711   -8.0557023    518.16485  0.018143027  0.017885742            2 
 2381000    0.8677025   -8.0823889    517.16523  0.018100421  0.017879964            1 
 2382000   0.86637983   -8.0752699    517.67534  0.018110668  0.017874203            3 
 2383000   0.88143917   -8.0890782    517.82721  0.018108379  0.017868442            4 
 2384000   0.87813673   -8.0776743    517.46823  0.018088235  0.017862712            2 
 2385000    0.8673697   -8.0771482    516.97716  0.018063493  0.017856949           11 
 2386000    0.8710884   -8.1301515    515.82265    0.0180156  0.017851146            3 
 2387000   0.87371018   -8.1142831    516.96231  0.018047839  0.017845337            6 
 2388000   0.85072005   -8.1310799    517.03266  0.018042737  0.017839533            3 
 2389000   0.87733995   -8.0881296    517.10588  0.018037738   0.01783378            2 
 2390000   0.85248232   -8.0710515    518.47527  0.018077938  0.017828037            2 
 2391000   0.86311327   -8.0836705    517.74177  0.018044813   0.01782225            2 
 2392000   0.89469443   -8.1282911    516.64897  0.017999197  0.017816433            5 
 2393000   0.87956796   -8.1406508    515.84642  0.017963728  0.017810622            3 
 2394000   0.88092201   -8.1163412    516.87721  0.017992106   0.01780478            4 
 2395000   0.87005904   -8.1108837    517.42192  0.018003546  0.017798904            2 
 2396000   0.86065787   -8.1435104    517.22378  0.017989141  0.017793056            2 
 2397000   0.87962427   -8.1318606    517.52896  0.017992246  0.017787215            2 
 2398000   0.86245765    -8.160062    517.68161  0.017990048  0.017781394            2 
 2399000   0.87396228   -8.1063248    518.85667  0.018023366  0.017775601            3 
 2400000   0.85366322   -8.1246782    518.16899  0.017991979   0.01776979            4 
 2401000   0.86983651   -8.0917538    518.50313  0.017996083  0.017763966            5 
 2402000   0.86938817   -8.0980032    517.56738  0.017956126  0.017758171            2 
 2403000   0.88132402   -8.1254855    517.64893  0.017951482  0.017752381            2 
 2404000   0.86936058   -8.1138193    517.52777  0.017939815  0.017746571            4 
 2405000   0.86714959   -8.1014823    517.96783  0.017947603  0.017740782            2 
 2406000    0.8794221   -8.1122434    518.77712  0.017968174  0.017735039            2 
 2407000   0.85875273   -8.1198949    517.68125  0.017922769  0.017729312            2 
 2408000   0.87635698   -8.1239911    516.78282  0.017884234  0.017723544            5 
 2409000   0.87449849   -8.1623399    517.38063   0.01789749  0.017717721            2 
 2410000   0.85786716   -8.1166673    518.13901  0.017916286  0.017711918            5 
 2411000   0.85418842   -8.1213966    518.51312  0.017921786   0.01770612            2 
 2412000   0.84312653   -8.1350654    516.76165  0.017853844  0.017700322            2 
 2413000   0.86384081   -8.1140632    519.91778  0.017955442  0.017694531            1 
 2414000   0.85821388   -8.1253799    518.05631  0.017883745  0.017688729            5 
 2415000   0.84777037   -8.1080566    518.44647  0.017889802  0.017682921            2 
 2416000   0.86931653   -8.0841404    519.60528  0.017922367  0.017677134            2 
 2417000    0.8777416   -8.1293588     519.4374  0.017909164  0.017671336            4 
 2418000   0.86820365   -8.0937795    520.24943  0.017929743   0.01766555            2 
 2419000    0.8634483   -8.1400263    518.66445   0.01786773   0.01765981            4 
 2420000   0.87674726   -8.1040484    519.13738  0.017876632  0.017654067            5 
 2421000   0.86096129   -8.1200332    519.40244  0.017878371  0.017648337            2 
 2422000   0.86586676   -8.1281493    520.02452  0.017892393  0.017642611            1 
 2423000   0.86330066   -8.1380931    520.59398  0.017904594  0.017636884            2 
 2424000   0.84516669   -8.1125472    520.07347  0.017879314  0.017631161            2 
 2425000   0.87808305   -8.1387211    519.21123   0.01784231  0.017625451            3 
 2426000   0.84169313   -8.0993241    519.70456  0.017851902  0.017619724            2 
 2427000   0.86130515    -8.112389    520.16688   0.01786042  0.017613964            3 
 2428000   0.86145782   -8.1247344    520.99755  0.017881574  0.017608222            7 
 2429000    0.8717111    -8.156408    518.56932  0.017790906  0.017602443            3 
 2430000   0.84793467   -8.1501435    519.99098  0.017832338  0.017596675            5 
 2431000   0.84919117   -8.1159735    520.30721  0.017835843  0.017590914            2 
 2432000   0.84944781   -8.1172319    521.11165  0.017856074  0.017585212            1 
 2433000   0.86636589   -8.0966855    520.62698  0.017832134  0.017579521            2 
 2434000   0.86592905   -8.1234474    521.11418  0.017841488  0.017573846            5 
 2435000   0.85546022   -8.1204478    519.79007  0.017788846  0.017568159            4 
 2436000   0.85712731    -8.121457      520.485  0.017805316  0.017562459            3 
 2437000   0.84717849   -8.0903995    520.78202  0.017808167  0.017556741            2 
 2438000   0.87845277    -8.120556    519.91181  0.017771117  0.017551008            2 
 2439000   0.85470868   -8.1206806    520.02501  0.017767699  0.017545247            1 
 2440000   0.83820673   -8.1174085    519.49748    0.0177424  0.017539515            3 
 2441000    0.8462778   -8.1385169    519.33062  0.017729435  0.017533781            3 
 2442000    0.8591522   -8.1257051    521.21256  0.017786396  0.017528037            2 
 2443000   0.88590133   -8.1071926    521.16744  0.017777577  0.017522317            4 
 2444000   0.86406689   -8.1714496    519.34124  0.017708035  0.017516576           11 
 2445000   0.85536493   -8.1441598    519.14016  0.017693939  0.017510817            2 
 2446000   0.85486897    -8.117558    520.40173  0.017729686  0.017505064            2 
 2447000    0.8702484   -8.1264668    521.20001  0.017749626  0.017499356            5 
 2448000   0.85217055   -8.1331151    519.20316    0.0176744  0.017493624            3 
 2449000   0.85610435   -8.1422476    519.75031  0.017685801  0.017487874            2 
 2450000   0.85728286   -8.1229173    519.69648  0.017676751  0.017482154            4 
 2451000   0.86151969   -8.1318962     521.1915  0.017720369  0.017476466            1 
 2452000   0.84120685   -8.1038836    521.42711   0.01772115  0.017470777            3 
 2453000   0.87591898   -8.1289393    521.10663  0.017703038  0.017465089            1 
 2454000   0.86662365   -8.1369551    521.43146  0.017706855  0.017459406            3 
 2455000   0.86838989   -8.1281005    522.13802  0.017723626  0.017453724            2 
 2456000   0.86363324   -8.1707762     519.5686  0.017629228  0.017448033            3 
 2457000   0.86001782   -8.1043333    521.20244  0.017677467  0.017442338            3 
 2458000   0.85054646   -8.1133708    522.55157  0.017716015  0.017436665            7 
 2459000   0.86060086   -8.1184742    522.90509  0.017720791  0.017431018           11 
 2460000   0.86397226   -8.1290718    521.85578  0.017678041  0.017425343            3 
 2461000   0.84960556   -8.1544223    520.84296  0.017636562  0.017419637            1 
 2462000   0.84111668   -8.1334605     521.6401   0.01765638  0.017413946            5 
 2463000   0.86516548   -8.1354979    523.24497  0.017703511  0.017408248            3 
 2464000   0.85028369   -8.1279156     522.5293  0.017672122  0.017402598            4 
 2465000   0.85391287    -8.141493    522.10273  0.017650532  0.017396955            7 
 2466000   0.86763249   -8.1431321    521.85317  0.017634941  0.017391311            3 
 2467000   0.85776803   -8.1330967    522.21819  0.017640123  0.017385622            3 
 2468000   0.85145525   -8.1636916    521.20396  0.017598729  0.017379941            3 
 2469000   0.85541985   -8.1647818    521.67414  0.017607471  0.017374233            5 
 2470000   0.86378736   -8.1368072    523.34079  0.017656572  0.017368527            4 
 2471000   0.87444478    -8.166964    522.09291  0.017607342  0.017362831            7 
 2472000   0.84733423   -8.1713226    521.76243  0.017589079  0.017357093            2 
 2473000   0.87020142   -8.1882488    521.58815  0.017576093  0.017351343            2 
 2474000   0.86964089   -8.1388967    522.05893  0.017584847   0.01734564            1 
 2475000   0.85344826   -8.1572154    521.51453  0.017559412  0.017339948            3 
 2476000   0.85556917   -8.1550937    521.29513  0.017544936  0.017334236            2 
 2477000   0.85244448   -8.1712271    521.17029  0.017533653  0.017328527            4 
 2478000   0.85750836   -8.1337499    523.18948  0.017594481  0.017322825            1 
 2479000   0.83707005   -8.1280614    523.74837  0.017606171  0.017317147            3 
 2480000   0.85585908   -8.1465913    521.56711  0.017525776  0.017311471            1 
 2481000   0.86161249   -8.1630902    522.22111  0.017540679  0.017305776            1 
 2482000   0.86669644   -8.1294672    521.99785  0.017526116  0.017300057            2 
 2483000   0.86043571   -8.1817886    522.76165  0.017544692  0.017294339            4 
 2484000   0.86102525   -8.1686146    521.95693  0.017510632  0.017288651            2 
 2485000   0.86023954   -8.1671629    523.90732  0.017568991   0.01728298            2 
 2486000   0.85242534   -8.1533797     522.4088  0.017511692  0.017277315            5 
 2487000   0.86081102   -8.1440435    524.54749  0.017576313   0.01727169            3 
 2488000   0.85591497   -8.1451385    524.13368  0.017555388  0.017266059            3 
 2489000   0.85371228   -8.1405021    524.19269  0.017550311  0.017260466            2 
 2490000   0.85181804   -8.1593097    522.84166  0.017498048  0.017254862            3 
 2491000   0.83534685   -8.1810626    522.76553  0.017488476  0.017249217            2 
 2492000   0.84280145   -8.1612861    523.24273  0.017497416  0.017243547            3 
 2493000   0.85297682   -8.1753052    523.60304  0.017502441  0.017237849            3 
 2494000   0.84972227   -8.1698847    522.51018  0.017458907  0.017232158            4 
 2495000   0.85866127   -8.1585061     523.0534  0.017470053  0.017226438            4 
 2496000   0.84512355   -8.1483329    523.94009  0.017492658  0.017220752            7 
 2497000   0.84894046   -8.1642711    522.49944  0.017437573  0.017215056            2 
 2498000    0.8546174   -8.1592122    523.49814  0.017463909   0.01720938            5 
 2499000   0.85421134   -8.1701495    522.90875  0.017437267  0.017203694            2 
 2500000   0.84104308   -8.1418579    521.49677  0.017383226  0.017197989            1 
 2501000   0.86124978   -8.1518435    523.31708  0.017436928  0.017192262            3 
 2502000   0.85401825   -8.1356069    523.88063  0.017448729  0.017186572            4 
 2503000   0.85066648   -8.1618717    523.02018   0.01741311   0.01718089            6 
 2504000   0.87073192   -8.1511317    523.50609  0.017422327  0.017175131            4 
 2505000   0.84729353   -8.1655062    523.25219  0.017406926  0.017169415            2 
 2506000   0.84025881   -8.1458472    523.86321  0.017420298  0.017163696            2 
 2507000   0.83526743   -8.1515685    523.47897  0.017400578  0.017157962            4 
 2508000   0.84571337   -8.1710566    523.21916  0.017385007  0.017152251            4 
 2509000   0.85590393   -8.1433003    523.85736  0.017399275  0.017146568            2 
 2510000   0.86299263   -8.1513063    523.06674  0.017366094  0.017140862            2 
 2511000   0.85513233   -8.1740075    523.37978  0.017369567   0.01713511            3 
 2512000   0.85969556   -8.2020872    523.26616  0.017358883  0.017129335            9 
 2513000   0.84824027   -8.1966369    523.31887  0.017353723  0.017123601            6 
 2514000   0.85245543   -8.1848715    523.50187  0.017352886   0.01711789            3 
 2515000   0.85533568   -8.1665602    523.70298   0.01735265  0.017112174            4 
 2516000   0.85178447   -8.1897834    524.12517  0.017359737  0.017106509            4 
 2517000   0.84159021   -8.1728065    523.91919   0.01734602  0.017100831            1 
 2518000   0.84478629   -8.1603789    524.21601  0.017348955  0.017095163            3 
 2519000   0.84813455    -8.135498    525.16883  0.017373588  0.017089522            5 
 2520000   0.84690653   -8.1337377    523.11073  0.017298635  0.017083874            2 
 2521000   0.86493088   -8.2092794    524.03079  0.017322186  0.017078204            2 
 2522000   0.84743146   -8.1733186    523.91699  0.017311558  0.017072507            2 
 2523000   0.85373841   -8.1645425    524.34467  0.017318822  0.017066831            4 
 2524000   0.85991622   -8.1564385     525.0929  0.017336665  0.017061195            2 
 2525000   0.85440954    -8.171292    524.93322  0.017324529  0.017055592            2 
 2526000   0.84729573   -8.1593009    524.42632  0.017300947   0.01704995            5 
 2527000   0.85889785   -8.1514051    525.05755  0.017314917  0.017044296            1 
 2528000   0.84379612    -8.184196    525.22484  0.017313583  0.017038625            1 
 2529000   0.85088464   -8.1863665    523.16583   0.01723889  0.017032986            5 
 2530000   0.84669674   -8.1412463    525.02639  0.017293359  0.017027308            2 
 2531000   0.83929907   -8.1613861    524.17615  0.017258533  0.017021638            2 
 2532000   0.85149072   -8.1722498    524.27498  0.017254969  0.017015977            2 
 2533000   0.84996387   -8.1633291    524.94406  0.017270169  0.017010327            2 
 2534000   0.84427844   -8.1686311    525.48265  0.017281066  0.017004675            2 
 2535000    0.8395088   -8.2012011    524.07812  0.017228078  0.016999007            3 
 2536000   0.83850493    -8.150121    525.11722  0.017255429  0.016993345            7 
 2537000   0.85537121   -8.1691069    524.12121  0.017215911  0.016987693            2 
 2538000   0.83575536   -8.1678605    525.77795  0.017263526  0.016982034            4 
 2539000   0.84745496   -8.1930544    523.87735  0.017194346  0.016976376            5 
 2540000   0.86683931   -8.1567683     526.0859  0.017260036  0.016970709            2 
 2541000   0.83561504   -8.1696563    525.30819  0.017227738   0.01696504            2 
 2542000   0.84254134   -8.1652718     525.4371  0.017225187   0.01695938            2 
 2543000   0.83939009   -8.1919327    525.36491  0.017216048  0.016953687            2 
 2544000   0.85398704    -8.148497    526.32001  0.017240566  0.016948018            3 
 2545000   0.84826195   -8.2010133    524.57248  0.017176571  0.016942317            7 
 2546000    0.8300132    -8.197122    523.86761  0.017146753  0.016936657            2 
 2547000   0.83458459   -8.1818027    524.77429  0.017169686  0.016930966            3 
 2548000   0.84254046   -8.1930919    525.36378  0.017182227  0.016925289            2 
 2549000   0.84403817   -8.1850523    525.51789  0.017180525  0.016919643            4 
 2550000   0.85123344   -8.1809099    525.62842  0.017177399  0.016913992            2 
 2551000   0.86209302   -8.1666653    525.75225  0.017174711  0.016908328            1 
 2552000     0.840349   -8.1924534     524.4706   0.01712613   0.01690266            3 
 2553000   0.84620894   -8.1957188    525.11698   0.01714052  0.016897003            3 
 2554000   0.83203063   -8.1785279    524.12982  0.017101599  0.016891342            3 
 2555000   0.86865685   -8.1545401    525.64778  0.017144415  0.016885708            4 
 2556000   0.82113079   -8.1536496    526.46519  0.017164358  0.016880105            6 
 2557000   0.84122088   -8.1992005    525.04735  0.017111437  0.016874481            4 
 2558000   0.82450206   -8.1581357    526.03146  0.017136808  0.016868855            7 
 2559000    0.8451808   -8.1567917    526.54523  0.017146842  0.016863237            2 
 2560000   0.84984311   -8.1694643    526.52715  0.017139556  0.016857602            2 
 2561000   0.82589607   -8.1639961    526.95936  0.017146927  0.016851976            2 
 2562000   0.85318666   -8.1647152    525.68497  0.017098783  0.016846366            2 
 2563000   0.85666431    -8.173056    526.84812   0.01712993  0.016840731            4 
 2564000    0.8494766   -8.2073267    525.10054   0.01706645  0.016835087            5 
 2565000   0.82105996   -8.1896944    526.36904  0.017101008  0.016829443            9 
 2566000   0.82056245   -8.1810852    526.79736  0.017108254  0.016823835            2 
 2567000   0.83736043   -8.1701748    526.63914  0.017096453  0.016818248            4 
 2568000   0.84205387   -8.2054773    525.33834  0.017047584  0.016812617            6 
 2569000   0.84730167   -8.1708357    526.22532   0.01706972  0.016806991            3 
 2570000   0.84871075   -8.2381292    524.71126  0.017013984   0.01680136            8 
 2571000   0.85120726   -8.1804277    526.68856  0.017071456  0.016795724            5 
 2572000   0.82676667   -8.2130994    526.23969  0.017050275  0.016790098            5 
 2573000   0.84678533   -8.2134307    526.23792  0.017043591  0.016784479            2 
 2574000    0.8229643   -8.2016414    525.96071  0.017027995  0.016778847            6 
 2575000   0.83861736   -8.2174546    525.69146  0.017012669  0.016773222            3 
 2576000   0.82520003   -8.2115863    527.77159  0.017073356  0.016767619            9 
 2577000   0.82478849   -8.2019698    527.57564  0.017060395   0.01676204            2 
 2578000   0.84809202   -8.1887198    527.01141  0.017035538  0.016756421            4 
 2579000   0.84157169   -8.1969678    526.10728  0.016999718  0.016750823            3 
 2580000   0.82230665   -8.1779934    527.80168  0.017047858  0.016745266            8 
 2581000   0.83718291   -8.1587278    527.66784  0.017036931  0.016739721            4 
 2582000   0.84203067   -8.1555747    527.41842  0.017022283  0.016734165            2 
 2583000   0.83623115   -8.1992428    526.11361  0.016973597  0.016728596            3 
 2584000   0.82935054   -8.1807403    526.83279  0.016990221  0.016723013            4 
 2585000     0.830709   -8.2396126    526.61054  0.016976484  0.016717409            5 
 2586000   0.82889448    -8.201368    527.24454   0.01699035  0.016711809            6 
 2587000   0.85421628   -8.1746019    528.47443    0.0170234  0.016706243           16 
 2588000   0.86088633   -8.1965609    527.58112  0.016988058  0.016700672           10 
 2589000   0.82373231   -8.1865424     528.0725  0.016997312   0.01669513            2 
 2590000   0.83893218   -8.2188725     527.8144  0.016982445  0.016689574            5 
 2591000   0.84576339   -8.1776872    527.86768  0.016977605  0.016684011            4 
 2592000   0.85050517   -8.2164845    527.69152  0.016965391  0.016678462            3 
 2593000   0.82047213   -8.2267911    527.14726  0.016941357  0.016672906            3 
 2594000   0.82828312   -8.1878084    528.96133  0.016993103  0.016667345            2 
 2595000   0.82744318   -8.1682576    528.01819  0.016956268   0.01666178            7 
 2596000   0.84515533   -8.2205701    529.04122  0.016982576  0.016656225            5 
 2597000   0.82339039    -8.192399      527.114  0.016914196  0.016650649            5 
 2598000   0.81664225   -8.2059303    528.42603   0.01694977  0.016645075            4 
 2599000   0.84136124   -8.2297046    526.74139  0.016889233   0.01663948            6 
 2600000   0.83532924   -8.2086829    527.01138   0.01689139  0.016633922            6 
 2601000   0.81848586     -8.23462    528.38974  0.016929057   0.01662836            4 
 2602000   0.83891956   -8.2112112    528.38776  0.016922488  0.016622818            1 
 2603000   0.81712708   -8.1752186    528.70165  0.016926036  0.016617264            4 
 2604000   0.83417173   -8.2187102    528.64895  0.016917849  0.016611712            3 
 2605000   0.84363099   -8.1932887    529.17477  0.016928176  0.016606206            2 
 2606000   0.84351657   -8.1952811    528.87367  0.016912051  0.016600691            2 
 2607000   0.83909421   -8.1627813    529.23509  0.016917117  0.016595178            3 
 2608000   0.83885051   -8.1930592    528.95565  0.016901702  0.016589667            3 
 2609000   0.84545418   -8.2225029    529.14808   0.01690137  0.016584152            2 
 2610000    0.8253254   -8.2107913    528.62358  0.016878148  0.016578635            4 
 2611000   0.84060613   -8.2207436    528.10653  0.016855181  0.016573096            4 
 2612000   0.86073544   -8.2181872    528.37002  0.016857134  0.016567585            4 
 2613000    0.8353731   -8.1694206    529.03232  0.016871805  0.016562096            1 
 2614000   0.83194657   -8.1407015    530.61923  0.016915941  0.016556628            4 
 2615000   0.81656874   -8.1938781    529.64943  0.016878567  0.016551167            4 
 2616000   0.83291716   -8.1958769     529.5667   0.01686948  0.016545657            3 
 2617000   0.84355132   -8.2094525    528.46952  0.016828096  0.016540134            2 
 2618000   0.84875971    -8.190738    529.10497  0.016841895  0.016534618            4 
 2619000    0.8238687   -8.2260273    529.34135  0.016842985  0.016529079            1 
 2620000   0.82222277   -8.1716149    530.21037  0.016864198  0.016523566            4 
 2621000   0.84761714   -8.1924986    529.58499   0.01683788  0.016518084            4 
 2622000   0.81960611   -8.2251555    529.52821  0.016829653  0.016512553            7 
 2623000   0.84259536   -8.1971205    528.44326  0.016788768  0.016507012            2 
 2624000   0.84560564   -8.1874505    529.16046  0.016805147  0.016501498            2 
 2625000   0.79317585   -8.2194976    528.95833  0.016792328  0.016495952            4 
 2626000   0.83087077   -8.2080127    528.72928  0.016778665  0.016490394            1 
 2627000   0.83146978   -8.1908799    529.42519  0.016794353  0.016484873            7 
 2628000   0.84366941   -8.1790319    529.53618  0.016791482  0.016479373            4 
 2629000   0.82002541   -8.2107223    528.83091   0.01676274  0.016473886            3 
 2630000   0.81942622   -8.2005509    528.95319   0.01676024  0.016468396            3 
 2631000   0.83891465   -8.2037687    530.17874  0.016792688   0.01646288            1 
 2632000   0.85279475   -8.2052622    530.84682   0.01680746  0.016457405            3 
 2633000   0.82680177   -8.2284735    529.00196  0.016742688  0.016451928            3 
 2634000   0.82812349   -8.2140791    530.47006  0.016782778  0.016446455            5 
 2635000    0.8508594   -8.2114093    530.64832  0.016782047   0.01644099            8 
 2636000   0.82377189   -8.2374985    528.99936  0.016723551  0.016435473            5 
 2637000   0.83321737   -8.2761847    528.83166  0.016711909  0.016429952            2 
 2638000   0.82985895   -8.2434835    528.86593  0.016706657  0.016424413            7 
 2639000   0.81614463   -8.2335913    529.68629  0.016726231  0.016418882            2 
 2640000   0.83489909   -8.2550627    529.14081  0.016702677  0.016413336            3 
 2641000   0.83372903   -8.2245078    529.35003  0.016702954   0.01640778            2 
 2642000   0.81989923   -8.2493888    529.05652  0.016687374  0.016402243            2 
 2643000   0.82779691   -8.2135649    529.12971  0.016683368  0.016396706            2 
 2644000   0.82198953   -8.2660107    528.43662  0.016655214  0.016391137            4 
 2645000   0.82480892   -8.1971168    529.80038  0.016691883  0.016385582            2 
 2646000   0.82682477   -8.2085003    529.48888  0.016675765  0.016380061            3 
 2647000   0.85502371   -8.2136235    528.18518  0.016628422   0.01637453            6 
 2648000   0.85321166   -8.2339729    529.44921  0.016661921  0.016368995            2 
 2649000   0.80410509   -8.2112348     528.7633  0.016634054  0.016363411            2 
 2650000   0.84740285   -8.2275697    530.11919  0.016670415  0.016357855            4 
 2651000   0.84141211   -8.2457364    531.18531   0.01669764  0.016352308            3 
 2652000   0.82485037   -8.2279495    529.03988  0.016623928   0.01634675            6 
 2653000   0.83549373   -8.2397418    529.13503  0.016620651  0.016341176            5 
 2654000   0.83412233   -8.2372416    529.06744  0.016612266  0.016335597            3 
 2655000    0.8324266   -8.2331644    528.90844  0.016601018  0.016330017            3 
 2656000   0.82609654   -8.2402565    528.84945  0.016592917  0.016324412            4 
 2657000   0.82164313   -8.2593785    529.39912  0.016603912  0.016318818            2 
 2658000   0.81328184    -8.221961    530.59432  0.016635137  0.016313271            4 
 2659000   0.82527831   -8.2547273    529.92399  0.016607872  0.016307723            2 
 2660000   0.82513825   -8.2416371    529.38524  0.016584751  0.016302161            3 
 2661000    0.8404656   -8.2401803    529.27847  0.016575174    0.0162966            6 
 2662000   0.81721227    -8.249861    530.16402   0.01659667  0.016291053            5 
 2663000   0.83912453   -8.2375125    529.95372  0.016583856  0.016285534            2 
 2664000   0.81174959   -8.2128923    530.12339  0.016582939  0.016280021            1 
 2665000   0.83645686   -8.2138079    530.03482  0.016573947  0.016274497            4 
 2666000   0.82942319    -8.228906    529.48705  0.016550608  0.016268953            5 
 2667000   0.80757309   -8.2332103    529.83218  0.016555186  0.016263416            4 
 2668000   0.82068143   -8.2676252     530.4193  0.016567319  0.016257883           17 
 2669000   0.81070025   -8.2256382    530.93295   0.01657715  0.016252338           28 
 2670000   0.82582412   -8.2322021    530.17786  0.016547374  0.016246762            6 
 2671000   0.80428423   -8.2465759    529.70336  0.016526375  0.016241218            2 
 2672000   0.83209857   -8.2538472    530.44882  0.016543439  0.016235675            7 
 2673000    0.8041938   -8.2613227    530.09102  0.016526095  0.016230106            5 
 2674000    0.8293408   -8.2293832    530.31225  0.016526809  0.016224548            4 
 2675000    0.8309832   -8.2508828    528.53259   0.01646519  0.016219013            4 
 2676000   0.83716014   -8.2692953    528.97196  0.016472719   0.01621345            4 
 2677000   0.81876161   -8.2730817    529.84294  0.016493679  0.016207861            7 
 2678000   0.80623409    -8.242572    530.01191  0.016492778  0.016202276            3 
 2679000   0.85385248   -8.2518591    529.12891  0.016459155  0.016196709            4 
 2680000   0.80973447    -8.234791    529.96522  0.016479018  0.016191143            2 
 2681000   0.80280292     -8.20634    530.15915  0.016478899  0.016185618            2 
 2682000   0.83846612   -8.2372706    530.42251  0.016480938  0.016180096            3 
 2683000   0.82872799   -8.2506861    530.13077  0.016465734  0.016174564            6 
 2684000   0.82531635   -8.2645044    528.95449  0.016423078  0.016169021            3 
 2685000   0.81975993   -8.2400506    529.19074  0.016424294  0.016163492            1 
 2686000   0.84163486   -8.2264877    531.00368  0.016474425  0.016157951            2 
 2687000   0.82498434   -8.2223054    530.74991  0.016460424  0.016152424            3 
 2688000   0.81449484   -8.2042011    531.36814  0.016473467  0.016146904            3 
 2689000   0.81735418   -8.2629814    531.14352  0.016460379  0.016141385            4 
 2690000   0.82495707   -8.2788763    530.06465  0.016420838  0.016135835            2 
 2691000   0.82975102   -8.3036031    530.12082  0.016416475  0.016130274            3 
 2692000   0.82284034   -8.2797914    529.90099  0.016403572  0.016124737            4 
 2693000   0.80932238   -8.2524389    529.82346  0.016395082  0.016119212            4 
 2694000   0.80359683   -8.2517275    530.91096  0.016422635  0.016113667            7 
 2695000   0.83148712   -8.2452076    530.78079  0.016412517  0.016108144            5 
 2696000   0.83260854    -8.271361    530.83191  0.016408009  0.016102624            3 
 2697000   0.82673453   -8.2553672     530.7234  0.016398572  0.016097101            6 
 2698000   0.82171343   -8.2411238    531.15422  0.016405801    0.0160916            6 
 2699000   0.81930389   -8.2209234    530.16283  0.016369113  0.016086114            3 
 2700000   0.83232635   -8.2598772    532.51763  0.016435729  0.016080631            2 
 2701000   0.83051957   -8.2403284    532.33684  0.016424067  0.016075146            3 
 2702000   0.82211458   -8.2089807    533.43648  0.016451902  0.016069655            1 
 2703000   0.80599129   -8.2743864    529.94566  0.016338194  0.016064166            2 
 2704000   0.82109653   -8.2691329    530.45723  0.016347918   0.01605866            3 
 2705000   0.81914064   -8.2248429    531.32047  0.016368468  0.016053172            3 
 2706000   0.81101679   -8.2810435    530.64581  0.016341642  0.016047727            5 
 2707000   0.82100999   -8.2387662    530.00008  0.016315727  0.016042268            4 
 2708000    0.8120534   -8.2863023    530.50997  0.016325393  0.016036767            2 
 2709000    0.8160171   -8.2700342    531.60958  0.016353192  0.016031275            8 
 2710000   0.82180353   -8.2556807    531.71362  0.016350357  0.016025775            5 
 2711000   0.81172587   -8.2506033    530.53349   0.01630805  0.016020279            5 
 2712000   0.80472691   -8.2757881     530.8935  0.016313099  0.016014764            1 
 2713000     0.820448   -8.2291575    532.27924  0.016349651  0.016009253            4 
 2714000   0.80827688   -8.2593583    532.14441  0.016339487  0.016003754            5 
 2715000   0.81858862   -8.2388805    532.11624  0.016332604  0.015998242            6 
 2716000   0.82315267   -8.2929267    530.43387  0.016274971  0.015992744            8 
 2717000   0.82049738   -8.2849685    529.88165  0.016252044  0.015987232            4 
 2718000    0.8252453   -8.2402721    531.94956  0.016309466  0.015981729            2 
 2719000    0.8112009   -8.2359537    532.31987  0.016314818  0.015976223            4 
 2720000   0.83090274   -8.2807664    531.45976  0.016282468  0.015970706            3 
 2721000   0.82535107   -8.2630439    531.16631  0.016267497  0.015965194            5 
 2722000   0.80818161   -8.2600655    530.35605  0.016236715  0.015959671            2 
 2723000   0.80273346   -8.2866653     531.0189  0.016251038  0.015954139            3 
 2724000   0.81982149   -8.2785883    530.66735  0.016234317  0.015948625            4 
 2725000   0.83907913   -8.2528317    532.44953   0.01628286  0.015943101            3 
 2726000   0.80185212   -8.2651735    531.56843  0.016249952  0.015937595            2 
 2727000   0.80642453   -8.2697132      530.449  0.016209785  0.015932099            4 
 2728000   0.82315743   -8.2445008    532.03264  0.016252219  0.015926621           11 
 2729000   0.80497838   -8.2726251    531.86476  0.016241137  0.015921122            2 
 2730000   0.81847094   -8.2675486     532.2247  0.016246175  0.015915638            6 
 2731000   0.81365364   -8.2370764    532.63759  0.016252825  0.015910146            2 
 2732000   0.82464385   -8.2398864    531.55326  0.016213801  0.015904674            2 
 2733000   0.79807866   -8.2522787    530.46058  0.016174551   0.01589917            3 
 2734000   0.80907633   -8.2771268    531.89494  0.016212355  0.015893677            3 
 2735000   0.80503427   -8.2921938    531.10066  0.016182226  0.015888161            3 
 2736000   0.81743534   -8.3094706    530.26748  0.016150934  0.015882616            5 
 2737000   0.81420877   -8.2691003    531.67651  0.016187934  0.015877082            2 
 2738000   0.81425244   -8.2887277    531.04286  0.016162736  0.015871553            2 
 2739000    0.8245924   -8.2777973     531.2189  0.016162191  0.015866048            3 
 2740000   0.81157567    -8.304399    530.66383  0.016139411  0.015860532            2 
 2741000   0.81995155   -8.2681121    531.47419   0.01615816  0.015855022            4 
 2742000   0.80661267   -8.2769222    531.89604  0.016165087   0.01584949            4 
 2743000   0.82656608   -8.2715928    532.01164  0.016162706  0.015843985            4 
 2744000   0.79045457   -8.2849927    530.65471  0.016115607  0.015838464            4 
 2745000    0.8283735   -8.3050724     530.5171  0.016105558  0.015832923            3 
 2746000   0.80268304   -8.2998861    531.93037  0.016142582  0.015827407            5 
 2747000   0.81530226     -8.24229    532.26998  0.016147008  0.015821903            2 
 2748000   0.80075301   -8.2844169    530.87851  0.016098936  0.015816351            3 
 2749000   0.83872199   -8.3079283    530.55221  0.016083188  0.015810822            2 
 2750000   0.83185675   -8.2421691    531.59085  0.016108814  0.015805293            4 
 2751000    0.8050895   -8.2713134    532.54233   0.01613178  0.015799772            5 
 2752000   0.81201944   -8.2445131    532.41279  0.016121996  0.015794266            4 
 2753000   0.81707583   -8.2648963    531.23074  0.016080359   0.01578877            1 
 2754000   0.80914348   -8.2559594    532.62386  0.016116675  0.015783281            2 
 2755000   0.81456734   -8.2975656    531.65901   0.01608164  0.015777798            5 
 2756000   0.80566581   -8.2623342    532.13501  0.016090197  0.015772312            6 
 2757000   0.83328926   -8.2648725    532.67678  0.016100737  0.015766821            3 
 2758000   0.80755767   -8.2702024    532.93123  0.016102587   0.01576134            4 
 2759000   0.79834267   -8.2693157    532.78332  0.016092283  0.015755877            1 
 2760000   0.81334404     -8.27378    532.27681   0.01607116  0.015750412            2 
 2761000   0.80439145   -8.2998082    532.13988  0.016061206  0.015744912            5 
 2762000   0.80611447   -8.2856974    532.93641  0.016079424   0.01573942            3 
 2763000   0.80564929   -8.2884986    532.38676  0.016057026  0.015733926            5 
 2764000   0.82011845   -8.3013915    530.96815  0.016008446   0.01572843            2 
 2765000   0.81089738   -8.3116142    531.40967  0.016015963  0.015722933            3 
 2766000   0.81075035   -8.2666045    532.46961  0.016042107  0.015717455            3 
 2767000    0.8136978   -8.2752964    533.08931  0.016054973  0.015711974            8 
 2768000   0.82328979   -8.2837842    532.10034  0.016019399  0.015706487            8 
 2769000   0.80285318   -8.2618141    532.69554  0.016031526  0.015701015            4 
 2770000    0.8190453    -8.285264    532.14287  0.016009112   0.01569554            4 
 2771000   0.79639605   -8.2810201    533.47203  0.016043306  0.015690054            3 
 2772000   0.82750532    -8.243655    532.24203  0.016000542  0.015684605            4 
 2773000   0.79993428   -8.2379608     533.1582  0.016022304  0.015679166            2 
 2774000   0.79988182   -8.2743623    532.04207  0.015982999  0.015673705            3 
 2775000   0.80367865   -8.2880205    531.64204  0.015965226  0.015668232            4 
 2776000   0.80269639   -8.3024368    532.16383  0.015975139   0.01566274            1 
 2777000   0.81705128   -8.2524021     531.8325  0.015959444  0.015657243            2 
 2778000   0.79755412   -8.2534579    532.14046  0.015962937  0.015651763            6 
 2779000   0.79562658   -8.2547436    531.89752  0.015949908  0.015646295            9 
 2780000   0.79139948   -8.2504352    533.29396   0.01598603  0.015640846            2 
 2781000    0.8110034   -8.2522443    533.57783  0.015988788  0.015635391            3 
 2782000   0.81371015   -8.2622687    530.74742  0.015898257  0.015629924            5 
 2783000   0.81989445    -8.298981    531.65899  0.015919841  0.015624439            4 
 2784000   0.79167802   -8.2874648    532.39076  0.015936026  0.015618919            2 
 2785000   0.82374564   -8.2650187     531.3946  0.015900497  0.015613424            4 
 2786000   0.79981163    -8.305954    531.11867  0.015886536  0.015607902            3 
 2787000   0.80776819   -8.2919595    530.74707  0.015869725  0.015602406            1 
 2788000   0.80544571   -8.3079072    531.59004  0.015889229  0.015596924            6 
 2789000   0.81283672   -8.3152573    529.82422   0.01583077  0.015591394            5 
 2790000   0.80785287   -8.3048758    531.46988   0.01587425  0.015585876            6 
 2791000   0.82613933   -8.3135024    532.90503  0.015911412  0.015580363            4 
 2792000   0.81678176   -8.3306169    531.34442  0.015859134  0.015574856            3 
 2793000   0.80852997   -8.2811384    532.25421  0.015880601  0.015569362            3 
 2794000   0.80536027   -8.3009935    532.53102  0.015883173  0.015563851            2 
 2795000   0.79376817   -8.3078527    531.47837  0.015846105  0.015558354            2 
 2796000   0.82662815   -8.2844869    531.33185  0.015836071  0.015552859            6 
 2797000   0.78807662   -8.2797325    530.11801  0.015794244  0.015547369            3 
 2798000   0.80582312   -8.2976698    531.48464  0.015829302  0.015541859            2 
 2799000   0.78727894    -8.272727    531.64033  0.015828282  0.015536354            7 
 2800000   0.81446824   -8.2642775    531.60462  0.015821566   0.01553086            2 
 2801000    0.8148283   -8.2670989    531.65449  0.015817401   0.01552537            1 
 2802000   0.80242517   -8.2940256     531.8393  0.015817252  0.015519855            3 
 2803000   0.79673549   -8.3009398    532.61533  0.015834681  0.015514354            2 
 2804000   0.78608264   -8.2666252    531.53507  0.015796929  0.015508887            4 
 2805000   0.79992774   -8.2935229    533.02395   0.01583553  0.015503432            2 
 2806000   0.79815911   -8.2780282    532.06586  0.015801433  0.015497987            2 
 2807000   0.79841919   -8.2991543    532.10711  0.015797028   0.01549253            6 
 2808000   0.80190405   -8.2749672    533.06127   0.01581972  0.015487103            2 
 2809000   0.80795513   -8.2569669    531.66783  0.015772749  0.015481644            4 
 2810000   0.79358254   -8.2920858    533.33414  0.015816552   0.01547619            2 
 2811000   0.81494518   -8.2812911    532.76648  0.015794097  0.015470742            4 
 2812000   0.80869224   -8.3127959    531.87144  0.015761956  0.015465288            3 
 2813000    0.8059407    -8.285729    532.68658  0.015780501  0.015459828            3 
 2814000   0.79463146   -8.2781612    532.74119   0.01577651  0.015454381            3 
 2815000    0.7937282   -8.2843099    534.72517  0.015829638  0.015448939            2 
 2816000   0.79860499   -8.3133816    533.14319  0.015777202  0.015443503            3 
 2817000   0.80423459   -8.3061124    532.04384   0.01573908  0.015438056           12 
 2818000   0.81179556   -8.2877112    532.92263  0.015759482  0.015432589            3 
 2819000   0.79986349   -8.3039423     532.6239   0.01574506  0.015427128            4 
 2820000   0.80210834   -8.2858855    533.36618  0.015761412  0.015421669            3 
 2821000   0.80396522   -8.2988852    533.38047  0.015756247  0.015416221            4 
 2822000   0.79219769   -8.2990693    533.07032  0.015741505  0.015410775            3 
 2823000   0.79892118   -8.3054276    532.47009   0.01571821  0.015405326            5 
 2824000   0.78941004   -8.2988481    532.51101  0.015713852  0.015399879            5 
 2825000   0.79544078   -8.3186245    532.24093  0.015700322  0.015394408            4 
 2826000   0.78584649    -8.335167    532.32055  0.015697114   0.01538896            3 
 2827000    0.7891643   -8.2972731    534.01022   0.01574137  0.015383518            5 
 2828000   0.80181427   -8.3283421    532.75643  0.015698857  0.015378062            4 
 2829000   0.80055439   -8.3310619    532.53964  0.015686922  0.015372625            6 
 2830000   0.79157324   -8.3134395    533.59644  0.015712498  0.015367197            3 
 2831000   0.81685808   -8.2857019    535.01201  0.015748617  0.015361773            7 
 2832000   0.80908918   -8.3123828    533.85707  0.015709071  0.015356357            2 
 2833000   0.80897114   -8.2908344    534.33019  0.015717443  0.015350945            3 
 2834000   0.80366218   -8.2802447    533.67304  0.015692573  0.015345545            2 
 2835000   0.80911095   -8.3025968     533.4025  0.015679086  0.015340136            2 
 2836000   0.78694473   -8.2984301    534.80296  0.015714709  0.015334723            3 
 2837000   0.81655875    -8.306286    531.91422  0.015624316  0.015329306            3 
 2838000   0.80269291   -8.3035392    533.59914  0.015668286  0.015323895            5 
 2839000    0.8058655   -8.3063466    534.02799  0.015675355  0.015318503            5 
 2840000   0.80177801   -8.2970616    533.50019  0.015654348  0.015313099            6 
 2841000   0.78917145    -8.309819    534.74881  0.015685463  0.015307688            5 
 2842000   0.78104751   -8.3004168    533.28327  0.015636971  0.015302264            3 
 2843000   0.78988515   -8.3137362     532.1732  0.015598933  0.015296841            2 
 2844000   0.79648574   -8.3262452    532.50194  0.015603081  0.015291405            4 
 2845000   0.79779106   -8.3009423    533.15785  0.015616809  0.015285961            3 
 2846000   0.78085128   -8.2818193     533.3467  0.015616851  0.015280546            5 
 2847000   0.78373908   -8.3372975    531.98023  0.015571368  0.015275102            5 
 2848000   0.81120454   -8.3251499    531.87285  0.015562759  0.015269684           15 
 2849000   0.80014779    -8.309991    532.59994  0.015578564  0.015264276            7 
 2850000   0.79259266   -8.3007499    533.64005   0.01560351  0.015258904            6 
 2851000   0.79596373   -8.2818246    534.78224  0.015631423  0.015253545            6 
 2852000   0.77302137   -8.3183722    534.08615  0.015605603  0.015248173            5 
 2853000   0.79809171   -8.3217606    534.86938   0.01562301  0.015242788            8 
 2854000   0.79301494   -8.3214374    535.95952  0.015649367  0.015237419            8 
 2855000   0.79710834   -8.3090319    535.95016  0.015643612  0.015232062            8 
 2856000   0.80137139   -8.3255098    534.06918  0.015583251  0.015226687            3 
 2857000   0.80739796   -8.3338166    533.48157  0.015560657  0.015221315            1 
 2858000   0.80255719   -8.3204414    533.66243  0.015560486   0.01521592            4 
 2859000   0.79974703   -8.3250195    533.97723  0.015564219   0.01521054            3 
 2860000   0.79036028   -8.3047751    532.38473  0.015512376  0.015205176            2 
 2861000   0.79890289   -8.3263305    534.02166  0.015554633  0.015199812            2 
 2862000   0.79486056   -8.3404547    533.84745  0.015544126  0.015194442            3 
 2863000   0.77998498   -8.2984265    534.87531  0.015568614  0.015189069            3 
 2864000   0.79063525   -8.3219047      533.744  0.015530261  0.015183723            8 
 2865000   0.79342126   -8.3218504    533.73808  0.015524668  0.015178348            2 
 2866000   0.79309308   -8.3157357    533.88314  0.015523469  0.015172983            3 
 2867000   0.79489616   -8.3301196     533.6935  0.015512542  0.015167608            3 
 2868000   0.79470104   -8.3041824    533.21936  0.015493357  0.015162237            4 
 2869000   0.78478105   -8.3140271    532.73004  0.015473743  0.015156849           11 
 2870000   0.78324596   -8.3333968    533.79445  0.015499258  0.015151468            3 
 2871000     0.799945    -8.363987    533.45687  0.015484061  0.015146073            3 
 2872000   0.78381691    -8.371855    533.00916  0.015465679   0.01514066            5 
 2873000   0.78186651   -8.3713719    532.14069  0.015435105  0.015135251            3 
 2874000   0.78389736   -8.3625421    532.64587  0.015444383  0.015129845            5 
 2875000   0.80491215   -8.3690072    532.84676  0.015444834  0.015124435            4 
 2876000   0.79437254   -8.3382242    534.01389  0.015473282  0.015119031            4 
 2877000   0.78003381   -8.3255639    533.92224  0.015465248  0.015113647            3 
 2878000   0.79695678   -8.3504313    534.37513  0.015472989  0.015108262            4 
 2879000    0.8056339   -8.3252891    534.40224  0.015468399    0.0151029            2 
 2880000   0.79172911   -8.3241906    533.55981  0.015438652  0.015097535            3 
 2881000   0.77499432   -8.3224847    534.22657  0.015452579  0.015092163            1 
 2882000   0.78378521   -8.3788429    533.63839   0.01543021  0.015086771            4 
 2883000   0.77370531   -8.3730712    533.92652  0.015433186   0.01508139            2 
 2884000   0.80590886   -8.3430634    532.78805  0.015394939  0.015076032            5 
 2885000   0.80191953   -8.3396738    533.90078  0.015421744   0.01507065            4 
 2886000   0.78796812   -8.3311645     534.3828  0.015430319  0.015065283            6 
 2887000    0.7930402   -8.3517626    534.04673  0.015415273  0.015059924            4 
 2888000    0.7859508   -8.3228361    534.03761  0.015409673  0.015054566            5 
 2889000    0.7906843   -8.3437188    534.79324  0.015426135  0.015049205            3 
 2890000   0.79370407   -8.3471442    533.48969  0.015383209  0.015043869            4 
 2891000   0.80530003   -8.3629195    534.54117  0.015408197  0.015038524            5 
 2892000   0.79394704    -8.383148     535.2931  0.015424536  0.015033179            4 
 2893000   0.77795876   -8.3196556     533.9956   0.01538183  0.015027835            4 
 2894000   0.79075365   -8.3350483    534.23907  0.015383525  0.015022487            2 
 2895000   0.82475955   -8.3520196    533.65302  0.015361342  0.015017169            3 
 2896000     0.759622   -8.3162608    536.04152  0.015424767  0.015011857            3 
 2897000   0.78930592   -8.3351724    535.06114  0.015391242  0.015006561            3 
 2898000   0.78090152     -8.33601    534.21159  0.015361502   0.01500127           11 
 2899000   0.78724781   -8.2986804    535.33504  0.015388497  0.014995959            2 
 2900000   0.78786929   -8.3229572    534.86995  0.015369826  0.014990659            2 
 2901000   0.78268335   -8.3663611    534.79777  0.015362455  0.014985378            4 
 2902000   0.79275426   -8.3352345    535.86919  0.015387928  0.014980106            2 
 2903000   0.79125843   -8.3617953    533.33074  0.015309758  0.014974816            4 
 2904000   0.79903758   -8.2990709    535.77924  0.015374749  0.014969555            1 
 2905000   0.78948462   -8.3493055    535.49471  0.015361294  0.014964286            4 
 2906000   0.78358192   -8.3167375     535.5448  0.015357444  0.014959004            2 
 2907000   0.78450668   -8.3449648    534.38206   0.01531883  0.014953727            2 
 2908000   0.77995128    -8.339555    535.49005  0.015345313  0.014948449            4 
 2909000   0.79737941   -8.3424382    536.86032  0.015379292  0.014943168            1 
 2910000   0.80218126   -8.3554428    536.00472  0.015349505  0.014937916            3 
 2911000    0.8011315     -8.35334    535.63866  0.015333753  0.014932677            7 
 2912000   0.78031462   -8.3543017     534.8184  0.015305014  0.014927416            2 
 2913000    0.7763538    -8.352319     534.3011  0.015284961  0.014922143           16 
 2914000   0.78592348    -8.373025    533.55803  0.015258466  0.014916844            9 
 2915000    0.7964935   -8.3667609    535.11277  0.015297678  0.014911563            4 
 2916000   0.79426899   -8.3698747    535.47562  0.015302801  0.014906297            5 
 2917000   0.77052136   -8.3499658     536.4398    0.0153251  0.014901053            6 
 2918000   0.77713929    -8.333955    536.18496   0.01531257  0.014895816            5 
 2919000   0.78039367   -8.3527959    535.66788  0.015292563  0.014890582            4 
 2920000   0.76562045    -8.333962     535.5128    0.0152829  0.014885314            1 
 2921000   0.79582182   -8.3495714    534.33067  0.015243942  0.014880051            4 
 2922000   0.77894938   -8.3583204    535.77485  0.015279912  0.014874796            7 
 2923000   0.76436906   -8.3509525    535.99229  0.015280884  0.014869544            5 
 2924000   0.77032739   -8.3578794    537.15328  0.015308746  0.014864298            4 
 2925000   0.78390164    -8.360387    536.74443  0.015291864  0.014859034            6 
 2926000   0.78678437   -8.3684871    535.10786  0.015240028  0.014853765            2 
 2927000    0.7621724      -8.3838    534.61255  0.015220719  0.014848477            5 
 2928000   0.76768657   -8.3678617    535.92501  0.015252875  0.014843193            5 
 2929000   0.78518473   -8.3519133    535.22492  0.015227749  0.014837909            8 
 2930000    0.7685971   -8.3210148    536.23941  0.015251405  0.014832658            4 
 2931000   0.77134276   -8.3593216    536.32346  0.015248592  0.014827403            7 
 2932000   0.77603831   -8.3641234     536.5358  0.015249426   0.01482214            8 
 2933000   0.79533216   -8.3369424    535.97427  0.015228272  0.014816881            6 
 2934000    0.7849265   -8.3516838    536.02105  0.015224411  0.014811637            3 
 2935000   0.79875759   -8.3645865    535.13113  0.015193956  0.014806397            2 
 2936000   0.79840571    -8.396578    534.57099  0.015172882  0.014801143            5 
 2937000   0.77211171   -8.3692565    536.18101  0.015213398  0.014795864            9 
 2938000   0.77715951   -8.3450824    535.75694  0.015196192  0.014790598            6 
 2939000   0.76851878   -8.3693611    534.96682  0.015168618  0.014785349            5 
 2940000   0.79090192   -8.3730826     534.8716   0.01516076  0.014780122            6 
 2941000   0.79060328   -8.3367611    535.67876  0.015178476  0.014774888            6 
 2942000   0.75183078    -8.377926    535.44749  0.015166765  0.014769617            3 
 2943000   0.78880847   -8.3796047    535.11836  0.015152292  0.014764362            8 
 2944000   0.76171581   -8.3826572    535.91376   0.01516966  0.014759115            5 
 2945000   0.79679315   -8.3589333    535.72236  0.015159093  0.014753864            7 
 2946000   0.80950205   -8.3779337    536.09315  0.015164436  0.014748634            3 
 2947000   0.76968483   -8.3851966    536.32296  0.015165789  0.014743394            9 
 2948000   0.77119633   -8.3698608     535.4362  0.015135578  0.014738153            4 
 2949000   0.78338738   -8.3585936    536.06325  0.015148165  0.014732943            5 
 2950000   0.78985348   -8.3453916    535.14511  0.015117094  0.014727719            4 
 2951000    0.7754489   -8.3460097    536.62532  0.015153771  0.014722511            7 
 2952000     0.764639   -8.3689478    536.24781   0.01513798  0.014717297            4 
 2953000    0.7908033   -8.3471392    535.97226  0.015125078  0.014712078            6 
 2954000    0.7699848   -8.4165538    534.88049  0.015089159  0.014706829            3 
 2955000   0.78047088   -8.3840718    535.11276  0.015090602   0.01470157            5 
 2956000   0.78730037   -8.3844317     535.5294  0.015097243  0.014696331            5 
 2957000   0.77197807    -8.377741    536.23176  0.015111931  0.014691091            3 
 2958000   0.77394873   -8.3798144    535.48904  0.015085898  0.014685854            7 
 2959000   0.78538826   -8.3770119    535.30837  0.015075712   0.01468062            3 
 2960000   0.77360151    -8.370164     537.8898  0.015143294  0.014675423            4 
 2961000   0.76689457   -8.3708326    536.98114  0.015112607  0.014670228            3 
 2962000   0.76715249   -8.3736889    536.10167  0.015082761  0.014665033            4 
 2963000   0.79075319    -8.370891    535.85704  0.015070791  0.014659829            4 
 2964000    0.7937276   -8.3971135    535.57394  0.015057747  0.014654633            9 
 2965000   0.76929802   -8.3840647    536.60668  0.015081694   0.01464944            3 
 2966000    0.7906169   -8.3568198    536.89167  0.015084616   0.01464426            2 
 2967000   0.77946335    -8.355511    537.10499  0.015085524  0.014639083            9 
 2968000   0.78498187   -8.3632256    536.12331  0.015052878  0.014633888            4 
 2969000   0.76225436   -8.3707702    536.74477  0.015065251  0.014628714            3 
 2970000   0.76570966   -8.3845813    534.92997  0.015009258  0.014623539           11 
 2971000    0.7827771   -8.3582822    535.82079  0.015029193  0.014618356            2 
 2972000   0.77802213   -8.3451739    536.35997  0.015039254  0.014613181            3 
 2973000   0.78199112   -8.3435581      537.072  0.015054154     0.014608            8 
 2974000   0.77607871   -8.3384825    537.30483  0.015055616   0.01460284            6 
 2975000   0.78498776   -8.3774715    537.15022  0.015046225  0.014597687            5 
 2976000   0.77903116   -8.3741408    536.65828  0.015027394  0.014592541            2 
 2977000   0.78332827   -8.3488647    537.35717  0.015041909  0.014587389            2 
 2978000   0.77037424   -8.3691065    537.13113  0.015030533  0.014582242            2 
 2979000   0.76548845   -8.3359644    535.85542  0.014989801  0.014577091            2 
 2980000   0.77651186   -8.3381588    537.03268  0.015017692  0.014571949            3 
 2981000   0.75336761   -8.3768563    537.11428  0.015014936  0.014566814            3 
 2982000   0.77867419   -8.3847119    536.31767  0.014987639  0.014561665            5 
 2983000   0.78833927   -8.3566711    538.41466  0.015041196  0.014556523            2 
 2984000   0.76956485   -8.3678619    537.13471  0.015000411  0.014551387            3 
 2985000   0.79067518   -8.3746701    537.64798  0.015009715  0.014546237            2 
 2986000   0.76814588   -8.3688159    537.71612   0.01500659  0.014541086            4 
 2987000   0.77426379    -8.382726    538.04688  0.015010794  0.014535932            2 
 2988000   0.80376895   -8.4127965    535.84584  0.014944384  0.014530751            3 
 2989000   0.77082101   -8.4041234    536.58485  0.014959988  0.014525568            3 
 2990000   0.78263072    -8.362219    535.51017  0.014925033  0.014520394            2 
 2991000   0.78575911   -8.3930877    535.81624   0.01492857  0.014515216            4 
 2992000   0.76075784   -8.3702394    537.13004  0.014960173  0.014510031            7 
 2993000   0.76200764   -8.3704037    536.12124  0.014927087  0.014504857            8 
 2994000   0.76921953    -8.377938    536.64292  0.014936621  0.014499676            4 
 2995000   0.78047106   -8.3687282    535.41132  0.014897366  0.014494497            5 
 2996000   0.77706563   -8.3856914    537.56571  0.014952317   0.01448932            3 
 2997000   0.77893892   -8.3794034    536.81106  0.014926345  0.014484148            5 
 2998000   0.77709397   -8.3391089    537.51419   0.01494091  0.014478993            3 
 2999000   0.76403002   -8.3647621    537.22464  0.014927883  0.014473831            5 
 3000000    0.7551112   -8.3548943    536.97047  0.014915846   0.01446868            5 
 3001000   0.76130235   -8.3884227    536.44895  0.014896394  0.014463524            4 
 3002000   0.78478787   -8.3547497    537.31861  0.014915573  0.014458363            2 
 3003000   0.78587153   -8.3761043    536.89418  0.014898828  0.014453198            4 
 3004000   0.76442861   -8.3920245    537.35016  0.014906518  0.014448044            3 
 3005000   0.75313748   -8.3995514    536.04836  0.014865456  0.014442889            2 
 3006000    0.7699725   -8.3645221     538.8541  0.014938293  0.014437734            2 
 3007000   0.74221143   -8.4030727    535.78549  0.014848284  0.014432576            4 
 3008000   0.76128644     -8.38206     537.4121  0.014888412  0.014427419            4 
 3009000   0.75894883   -8.3948085    537.14689  0.014876119  0.014422273            2 
 3010000   0.78769884   -8.4143862    535.97655  0.014838775   0.01441712            3 
 3011000   0.77072377   -8.3627556    538.54107  0.014904823  0.014411972            3 
 3012000   0.77774613   -8.3835801    537.43444  0.014869257  0.014406849           13 
 3013000   0.75869985   -8.3985381    537.56207  0.014867852  0.014401734            2 
 3014000   0.77851246   -8.3934831    537.63642  0.014864975   0.01439661           11 
 3015000   0.75939349   -8.3648237    538.18751  0.014875277  0.014391468            9 
 3016000   0.77375908   -8.3835493    537.67074  0.014856066  0.014386303            7 
 3017000   0.77582731   -8.3909737    536.64676  0.014822858  0.014381135            5 
 3018000   0.77593172   -8.4047285    535.89477  0.014797183  0.014375983            2 
 3019000   0.75735319   -8.4125097    536.27587  0.014802801  0.014370826            4 
 3020000   0.76226832   -8.4039316    537.44149  0.014830063   0.01436568            6 
 3021000   0.74995455   -8.4164052    537.73771  0.014833325  0.014360535           10 
 3022000   0.78565537   -8.3892927    536.96558  0.014807125  0.014355387            3 
 3023000   0.77857754   -8.3864982    536.45367  0.014788115  0.014350262            3 
 3024000   0.74668736   -8.3931991    536.94556   0.01479678  0.014345144            3 
 3025000   0.75163429   -8.3937137    537.68193  0.014812174  0.014340029            3 
 3026000   0.76462329   -8.3975656    536.46343  0.014773723  0.014334928            5 
 3027000   0.77296361    -8.403004    537.03078  0.014784462  0.014329822            3 
 3028000   0.76493033   -8.4019779    536.57338  0.014766991  0.014324678            2 
 3029000    0.7692761    -8.391897    538.06612  0.014803184  0.014319559            7 
 3030000   0.77616715   -8.4192759    537.80809  0.014791201  0.014314436            5 
 3031000   0.77609388   -8.3986024    537.90389  0.014788955  0.014309318            4 
 3032000   0.78419079   -8.4226681    536.21681  0.014737709  0.014304188            4 
 3033000   0.75168081   -8.4255355    535.80743  0.014721602  0.014299055            1 
 3034000   0.77405679   -8.4183233     537.2339   0.01475593   0.01429392            3 
 3035000   0.78014503    -8.396379    536.86209  0.014740859  0.014288804            3 
 3036000   0.78622362   -8.3978366    536.76815  0.014733425  0.014283684            3 
 3037000   0.76376516   -8.4052756    537.67678  0.014753506  0.014278574            4 
 3038000   0.75436943   -8.4164367    537.30318  0.014738402  0.014273469            2 
 3039000   0.75785209   -8.3989055    537.68269  0.014743959  0.014268377            4 
 3040000   0.76449584   -8.3976548    537.88042  0.014744529  0.014263269            4 
 3041000   0.77143249   -8.4385081    536.43238  0.014699999  0.014258147            1 
 3042000   0.75931973   -8.3851337    537.83274  0.014733529  0.014253047            3 
 3043000    0.7654029   -8.3918471    538.76857  0.014754315  0.014247944            4 
 3044000   0.75789564   -8.4091606    536.72382   0.01469349  0.014242858            4 
 3045000   0.77527807   -8.4192521    536.43591  0.014680786  0.014237763            6 
 3046000   0.76879269   -8.4104479    537.00387  0.014691504  0.014232666            8 
 3047000   0.77459897   -8.3922857    538.05061   0.01471531  0.014227568            3 
 3048000   0.77336861   -8.4134315    537.91471  0.014706767  0.014222481            2 
 3049000   0.76886885   -8.4235045    538.47621   0.01471729  0.014217388            3 
 3050000   0.76979455    -8.423593    537.60461  0.014688651  0.014212288            4 
 3051000   0.76319819     -8.42648    536.64312  0.014657575  0.014207201            4 
 3052000   0.77090818   -8.3969344    538.19689  0.014695197  0.014202123            3 
 3053000   0.76735305   -8.4288345    537.55299  0.014672808  0.014197054            5 
 3054000   0.74896848   -8.4200608     536.4136  0.014636913  0.014191948            4 
 3055000   0.76301887    -8.395543    539.12539  0.014706094   0.01418688            3 
 3056000   0.77604963   -8.4191373    537.35105  0.014652897  0.014181803            7 
 3057000    0.7549236   -8.4081567    535.89175  0.014608324  0.014176726            7 
 3058000   0.75912469   -8.3864219    537.84025  0.014656645  0.014171657            5 
 3059000   0.76977666   -8.4087353     537.3479  0.014638441  0.014166602            8 
 3060000   0.76829937   -8.3774177    538.51391  0.014665411  0.014161557            1 
 3061000   0.75520564   -8.3913942    536.77864  0.014613379  0.014156483            4 
 3062000   0.76716481   -8.4169186     536.8452  0.014610418  0.014151422            2 
 3063000   0.76057288   -8.4128917    537.75037  0.014630275  0.014146352            5 
 3064000   0.76753703   -8.4275166    537.55559  0.014620202  0.014141294            3 
 3065000   0.75882524   -8.3989499    537.96066  0.014626445  0.014136223            4 
 3066000     0.753813   -8.4150307    538.26799  0.014630028  0.014131152            3 
 3067000   0.75586582   -8.4144669    538.04004  0.014619064  0.014126097            2 
 3068000    0.7657731   -8.4338415    537.18442  0.014591059  0.014121035            2 
 3069000   0.77971111   -8.4411647    538.93045  0.014633715  0.014115977            4 
 3070000   0.76595478   -8.4350444    537.14225  0.014580409  0.014110903            2 
 3071000   0.75321106   -8.3943284    536.46531  0.014557292  0.014105846            4 
 3072000    0.7727981   -8.3973992    538.05178  0.014595589  0.014100794            2 
 3073000   0.74271767   -8.4231173    537.59725  0.014578513  0.014095735            1 
 3074000   0.78502241   -8.4121325    538.81032  0.014606656  0.014090671            3 
 3075000   0.76471532   -8.3858806     537.5935   0.01456893   0.01408561            3 
 3076000   0.75772743   -8.4333073    537.28776   0.01455591  0.014080552            2 
 3077000   0.75384454    -8.428684    538.99385  0.014597385  0.014075497            4 
 3078000   0.76552302   -8.4417466    536.96063  0.014537596  0.014070437            4 
 3079000   0.76496539   -8.4222565    538.32196  0.014569718  0.014065379            8 
 3080000   0.76629006   -8.4433012    537.14831  0.014533233  0.014060301            3 
 3081000   0.76430259   -8.4324022    536.46615  0.014510066  0.014055219            4 
 3082000   0.75342035   -8.4442805    536.07247  0.014494713  0.014050127            4 
 3083000   0.77300795   -8.4400449    536.81376  0.014510049  0.014045051            5 
 3084000   0.77780696   -8.4345565    536.94489  0.014508887  0.014039978            5 
 3085000   0.73358937    -8.440996    536.76471  0.014499317  0.014034905            4 
 3086000   0.76333806   -8.4578448    536.41812  0.014485259  0.014029843            3 
 3087000   0.77569185    -8.463179    538.50201  0.014536821  0.014024789            3 
 3088000   0.74212038   -8.4210241    538.16427  0.014522999   0.01401972            2 
 3089000   0.75358278   -8.4316053     537.5346  0.014501311  0.014014661            3 
 3090000   0.77232532    -8.475041    537.65175  0.014499777  0.014009598            4 
 3091000   0.76572648   -8.4264608    536.62686  0.014467455  0.014004533            2 
 3092000   0.76881325    -8.461761    537.32477  0.014481586  0.013999456            5 
 3093000   0.76015605   -8.4339386    537.03281  0.014469038  0.013994399            7 
 3094000   0.77516181   -8.4421845    537.52036  0.014477493  0.013989361            5 
 3095000   0.76317623   -8.4444506    535.94218  0.014430322   0.01398432           10 
 3096000   0.73816971   -8.4467072    536.94812  0.014452738  0.013979259            4 
 3097000    0.7567153   -8.4576879    537.78645  0.014470629  0.013974203            5 
 3098000   0.75147524    -8.411622    539.09871  0.014501256  0.013969173            9 
 3099000   0.74781013   -8.4306913    536.10261  0.014416011  0.013964138            5 
 3100000   0.75977804   -8.4473408    537.30456  0.014443671  0.013959112            2 
 3101000   0.74340226    -8.449959    537.54219  0.014445399  0.013954082            8 
 3102000   0.74473991    -8.475823    536.54677  0.014414001  0.013949031            4 
 3103000   0.75569324   -8.4599164    537.07388  0.014423512  0.013943962            3 
 3104000   0.75023553   -8.4547298    536.08372  0.014392282  0.013938919            3 
 3105000    0.7666676   -8.4465408    537.44578  0.014424202  0.013933893            8 
 3106000   0.74627426   -8.4738247    537.63368    0.0144246   0.01392885            4 
 3107000   0.74484234   -8.4506662    537.19666  0.014408236  0.013923816            4 
 3108000   0.74597791   -8.4608337    538.35377  0.014434625  0.013918787            6 
 3109000   0.74780756   -8.4485354    538.32912  0.014429321  0.013913747            3 
 3110000   0.75352247   -8.4443209    537.02869  0.014389836  0.013908705            6 
 3111000   0.76291421   -8.4500813    537.34766  0.014393755  0.013903659            5 
 3112000   0.73991669   -8.4460126    537.02783  0.014380565  0.013898611            4 
 3113000   0.74970395   -8.4292665     537.6466   0.01439251  0.013893599            5 
 3114000   0.75490091   -8.4286503    538.49706  0.014410647  0.013888596            5 
 3115000   0.75796194   -8.4555723     537.6113  0.014382325  0.013883593            3 
 3116000   0.73103135    -8.431374    538.59947  0.014404136  0.013878582            3 
 3117000   0.75612383   -8.4342937    537.96053  0.014382433  0.013873574           11 
 3118000   0.76971198   -8.4675992    537.63596  0.014369146  0.013868572            3 
 3119000   0.74044622   -8.4372289    538.36274  0.014383957  0.013863576            3 
 3120000   0.73807423   -8.4438486    537.53251  0.014357172  0.013858577            4 
 3121000   0.75395834   -8.4584914    536.12673  0.014315036   0.01385358            4 
 3122000   0.74728871   -8.4519935     538.9481   0.01438576  0.013848582           14 
 3123000   0.76260912   -8.4343977    537.32109  0.014337739  0.013843573            6 
 3124000   0.75636793   -8.4454245    536.87586  0.014321272  0.013838558           14 
 3125000   0.75475406   -8.4506307    538.60213  0.014362723   0.01383356            5 
 3126000   0.76579461   -8.4566769    537.62537   0.01433209  0.013828564            6 
 3127000   0.76123022   -8.4447041    538.56529  0.014352555  0.013823571            3 
 3128000   0.75530742   -8.4545687    538.20249  0.014338301  0.013818562            3 
 3129000    0.7702419   -8.4271358    538.53765  0.014342646  0.013813569            4 
 3130000   0.75655858   -8.4515637    536.89568  0.014294347  0.013808568            4 
 3131000   0.75576739   -8.4756239    538.32189  0.014327741  0.013803582            3 
 3132000   0.75531346   -8.4755069    536.87045  0.014284548  0.013798607            3 
 3133000   0.75248498   -8.4217924    538.83027  0.014332117  0.013793631            3 
 3134000   0.73686802   -8.4247497    537.97656  0.014304844  0.013788685            4 
 3135000   0.75402893   -8.4494046     538.8255  0.014322847   0.01378374            6 
 3136000   0.72428859   -8.4588969    537.97589  0.014295703  0.013778772            3 
 3137000    0.7428057   -8.4340543    537.31294  0.014273535  0.013773815            4 
 3138000    0.7457036   -8.4607699    537.90251  0.014284643  0.013768837            7 
 3139000    0.7529115   -8.4494251    538.00505  0.014282814  0.013763857            3 
 3140000   0.75821539    -8.480772    538.07723  0.014280181  0.013758871            3 
 3141000    0.7407351   -8.4844358    536.94292  0.014245541  0.013753884            5 
 3142000   0.73956874   -8.4479307    538.36767  0.014278794  0.013748894            1 
 3143000   0.76535331   -8.5028953     537.9912   0.01426427   0.01374391            3 
 3144000   0.73933924   -8.4572665    537.95124  0.014258674  0.013738918            4 
 3145000   0.74818728   -8.4633113    537.93429  0.014253691   0.01373394            4 
 3146000   0.73982095    -8.447414    537.92707  0.014248969  0.013728961            5 
 3147000   0.74818204   -8.4611967    537.98814  0.014246058  0.013723985            2 
 3148000   0.75315606   -8.4600791    537.99434  0.014241697     0.013719            5 
 3149000   0.74546454   -8.4455482    537.45473  0.014222894  0.013714016            4 
 3150000   0.74258151   -8.4557803    537.15297  0.014210396  0.013709031            7 
 3151000    0.7456334   -8.4739321    538.00384  0.014228389  0.013704066            4 
 3152000   0.76509009   -8.4711386    537.45349  0.014209325  0.013699094            8 
 3153000   0.74130362   -8.4672579    537.80043  0.014213988  0.013694109            8 
 3154000   0.73167644   -8.4663379    537.07461  0.014190304  0.013689137            3 
 3155000   0.74822919   -8.4719164    537.61529  0.014200087  0.013684154            4 
 3156000   0.75690977   -8.4916457     538.0401  0.014206804  0.013679162            2 
 3157000    0.7511291   -8.4814674    536.85126  0.014170923  0.013674163            4 
 3158000   0.72872417   -8.5105014    537.31194  0.014178593  0.013669158            5 
 3159000   0.74697918   -8.5018189    536.38906  0.014149759  0.013664164            5 
 3160000   0.74108809    -8.508009    537.00359  0.014161487  0.013659151            3 
 3161000   0.74612574     -8.46976    537.08609  0.014159182  0.013654162            6 
 3162000   0.72830654   -8.4763709    536.40166  0.014136666   0.01364918            3 
 3163000   0.73110886   -8.4567846    537.96017  0.014173258  0.013644206            7 
 3164000   0.74827827   -8.4726528    539.05872  0.014197712  0.013639254            3 
 3165000   0.73684782   -8.4675827    537.98342  0.014164914    0.0136343            6 
 3166000    0.7219498   -8.4792099    536.86497     0.014131  0.013629342            7 
 3167000   0.74146433   -8.4789079    536.67067  0.014121426  0.013624394            2 
 3168000   0.74089338   -8.4527869    538.74634  0.014171568  0.013619448            4 
 3169000   0.74407564   -8.4640726    538.58813  0.014162936   0.01361452            8 
 3170000   0.75206581   -8.4553619    538.43365  0.014154407  0.013609584            3 
 3171000    0.7531464   -8.4581924    538.81368  0.014159931  0.013604651            6 
 3172000   0.74759626   -8.4750377    537.38639   0.01411797  0.013599721            6 
 3173000   0.74810714   -8.4848892    537.87964  0.014126475  0.013594817            5 
 3174000   0.75286934   -8.4880044    537.61636  0.014115111  0.013589896            6 
 3175000   0.74746819   -8.4835542    538.92981  0.014145139  0.013584954           12 
 3176000   0.74457272   -8.4968615    538.43381  0.014127671  0.013580022            7 
 3177000   0.74627705   -8.5103864    538.49436  0.014124813  0.013575093            6 
 3178000   0.74161537   -8.5022414    537.24412  0.014087584  0.013570152            6 
 3179000   0.73583192   -8.4682904    537.37881  0.014086684  0.013565218            2 
 3180000   0.75672371   -8.4792575    536.40838  0.014056823  0.013560287           11 
 3181000   0.73739045   -8.4803982     538.0659  0.014095827  0.013555352            3 
 3182000   0.74464769   -8.5114388    537.63642  0.014080149   0.01355042            3 
 3183000   0.76448055   -8.4865251    536.34617  0.014041946   0.01354549            3 
 3184000   0.74474314   -8.5004001     538.4633  0.014092947  0.013540564            3 
 3185000   0.72780368   -8.4455584    538.91384   0.01410031   0.01353565            2 
 3186000   0.74562245   -8.4752085    538.34551  0.014081019  0.013530749            3 
 3187000   0.73498952   -8.4746607      538.576  0.014082627  0.013525849            2 
 3188000   0.73256224   -8.4801931    538.74715  0.014082684  0.013520968            5 
 3189000   0.74510045   -8.4558932    539.37561   0.01409469  0.013516057            2 
 3190000   0.74124419   -8.4814193    538.82306  0.014075838  0.013511152            4 
 3191000   0.73283498   -8.4717246    538.14305  0.014053668  0.013506254            5 
 3192000   0.74432783   -8.4725679    538.73378  0.014064687  0.013501348            3 
 3193000   0.74489829   -8.4716987    537.81571  0.014036322  0.013496449            4 
 3194000    0.7294006   -8.4634293     537.8836  0.014033699  0.013491558            3 
 3195000   0.72313702   -8.5016372    537.85208  0.014028484  0.013486662            3 
 3196000   0.74390413   -8.4802161    538.44787   0.01403963  0.013481773            3 
 3197000   0.73738333   -8.4890988    538.33765  0.014032365  0.013476874            3 
 3198000   0.73822008   -8.4840552    538.61613  0.014035234  0.013471971            3 
 3199000   0.74445336   -8.4608467    538.79945  0.014035622  0.013467079            2 
 3200000   0.74558296   -8.4614455    538.63445  0.014026939  0.013462182            3 
 3201000   0.71316051   -8.5057103    538.02239  0.014006623  0.013457286            4 
 3202000   0.75149736   -8.5250946      537.225  0.013981496   0.01345238            4 
 3203000   0.74055708    -8.484906    537.52242  0.013984869   0.01344748            7 
 3204000   0.73547131   -8.4727187    539.30412  0.014026845  0.013442596            6 
 3205000   0.73132363    -8.491202     538.8469   0.01401058  0.013437713            5 
 3206000   0.73100498   -8.4880965    538.19712   0.01398932  0.013432823            4 
 3207000   0.73249684   -8.4705545    538.51203  0.013993141  0.013427945            4 
 3208000   0.74515089   -8.4524463    538.40352   0.01398596  0.013423073            5 
 3209000   0.75508604   -8.4837044    537.38925  0.013955263  0.013418204            4 
 3210000   0.74392154   -8.4688417    537.94249  0.013965277  0.013413341            5 
 3211000   0.74474663   -8.4538737    538.99902  0.013988348  0.013408484            5 
 3212000    0.7299592   -8.4886961    540.76212  0.014029735  0.013403623            6 
 3213000   0.72259539   -8.4818388    538.44473  0.013965264  0.013398772            2 
 3214000   0.75131392   -8.4680355    539.57806  0.013990304  0.013393925            2 
 3215000   0.72799556   -8.4687069    538.72051  0.013963725  0.013389086            4 
 3216000   0.73286119   -8.4850247    538.93881   0.01396504  0.013384251            2 
 3217000   0.76233346    -8.491033    537.95156  0.013935125  0.013379423           14 
 3218000   0.75114303   -8.4896955    539.28097  0.013965221  0.013374615            2 
 3219000   0.73322975   -8.4579407     539.0602  0.013955167  0.013369816            4 
 3220000   0.74173565   -8.4635982    538.91131   0.01394698     0.013365            3 
 3221000   0.71916112   -8.4875045    539.62674   0.01396116  0.013360173            4 
 3222000   0.73424595   -8.4735871    538.95447  0.013939439  0.013355346            3 
 3223000   0.73882483    -8.484271    538.79207  0.013930915  0.013350522            2 
 3224000    0.7325039   -8.4776399    539.08346  0.013934126  0.013345688            4 
 3225000   0.70939206   -8.4751826    538.89271  0.013924876  0.013340858            3 
 3226000    0.7393095   -8.5002019     538.8542  0.013919565  0.013336025            2 
 3227000   0.74974142   -8.5040147     538.5475  0.013907331  0.013331209            3 
 3228000   0.74233959   -8.4936632     538.6063  0.013904541  0.013326384            3 
 3229000    0.7473312   -8.4783751    539.94849  0.013934874  0.013321567            3 
 3230000    0.7458494   -8.4779438    536.48514  0.013841206  0.013316744            4 
 3231000   0.72464195   -8.5057855    538.16037  0.013880129  0.013311922            6 
 3232000    0.7496028   -8.5063245    538.56662  0.013886309  0.013307094            2 
 3233000   0.72436121   -8.5147393    538.85682  0.013889494  0.013302268            6 
 3234000   0.73296503   -8.4717603    539.24363  0.013895167  0.013297447            4 
 3235000   0.73114263   -8.5203269    538.36007  0.013868111  0.013292612           11 
 3236000   0.72748632   -8.5164679    539.23706   0.01388641  0.013287802            7 
 3237000   0.73946548   -8.4998301    539.44893  0.013887574  0.013282992            5 
 3238000   0.73888904   -8.4926926    539.08071  0.013873809  0.013278187            3 
 3239000   0.75442276   -8.5007834    539.67806  0.013884894  0.013273385            2 
 3240000   0.73757614   -8.5167828    538.48909  0.013850028  0.013268577            2 
 3241000   0.72708613   -8.5269049    538.57231  0.013847894  0.013263773            4 
 3242000   0.72307258   -8.5019611    537.91398  0.013826701   0.01325897            3 
 3243000   0.72264587   -8.5158088    538.48794  0.013837186  0.013254161            9 
 3244000   0.73355854   -8.5169309    538.46753  0.013832397  0.013249337            3 
 3245000   0.73780564   -8.5289298    537.95581  0.013814993   0.01324451            2 
 3246000   0.73394091   -8.4983735     538.0761  0.013813825  0.013239683            7 
 3247000   0.73683424   -8.5183229    538.19176  0.013812539   0.01323486            3 
 3248000   0.73135836   -8.5380607    538.64318  0.013819868  0.013230028            2 
 3249000   0.72469791   -8.5059062    539.12881  0.013828071  0.013225201            6 
 3250000    0.7255123   -8.5308981      538.205  0.013800128  0.013220378            2 
 3251000   0.73206218   -8.4801737    539.69765  0.013834145  0.013215573            2 
 3252000   0.73903511   -8.4959443    538.63376  0.013802628  0.013210777            4 
 3253000   0.73648821   -8.5293478    538.63675  0.013798462  0.013205975            2 
 3254000   0.73298457   -8.5341186    538.20527  0.013783171  0.013201176            4 
 3255000   0.71412984   -8.5178933    538.55619  0.013787921  0.013196371            8 
 3256000   0.75754001    -8.525031     538.0748  0.013771366  0.013191564            4 
 3257000   0.72379725   -8.5050752    538.98954  0.013790542  0.013186762            5 
 3258000   0.72037856   -8.5235287    538.20443  0.013766227  0.013181953            7 
 3259000   0.70937401   -8.4994975    539.05734  0.013783812   0.01317715            4 
 3260000   0.73463887   -8.5143356    539.12306  0.013781264  0.013172369            5 
 3261000   0.72756704   -8.5066173    539.31615  0.013781972  0.013167584            4 
 3262000   0.72613828   -8.5315995    538.15787  0.013748157  0.013162805            1 
 3263000   0.72806605   -8.5356001    538.61003  0.013755492  0.013158014            5 
 3264000   0.71518847   -8.5351153    537.90805  0.013733355  0.013153229            7 
 3265000   0.72663912   -8.5062642    538.38406  0.013741298  0.013148443            5 
 3266000   0.73285626   -8.5373643    538.15043  0.013731129  0.013143663           10 
 3267000   0.72839992   -8.5211889    539.26122   0.01375526  0.013138889            3 
 3268000    0.7189698   -8.5298216    538.24209  0.013725064   0.01313411           10 
 3269000   0.72860546   -8.5282053    538.60464  0.013730107  0.013129343            5 
 3270000    0.7070218   -8.5073736    539.63416  0.013752145  0.013124588            2 
 3271000   0.73863551   -8.5058061    539.33724  0.013740376  0.013119837            4 
 3272000   0.72427408   -8.5011992    539.32837  0.013735951  0.013115097            2 
 3273000   0.73181308   -8.5149799    538.41821   0.01370858   0.01311036            2 
 3274000    0.7345455   -8.4847317    538.58446  0.013708625   0.01310562            5 
 3275000   0.72461145   -8.5089352    539.14516  0.013718706  0.013100892            6 
 3276000    0.7314124   -8.5135489    539.55889  0.013725043  0.013096165            3 
 3277000   0.72127326   -8.5204203    540.01466  0.013732445  0.013091429            4 
 3278000   0.72882184   -8.4783419    539.87812  0.013724784  0.013086683            2 
 3279000    0.7309989   -8.4769881    540.20306  0.013728857  0.013081957            5 
 3280000    0.7296793    -8.510602    539.34267  0.013702812  0.013077217            7 
 3281000   0.73183852   -8.5220812    539.08933  0.013692201  0.013072476            7 
 3282000   0.72721213   -8.5123094    539.70261  0.013703601  0.013067737            8 
 3283000   0.72004787    -8.510473    539.94551  0.013705592  0.013063014            5 
 3284000    0.7206325   -8.5170805    538.29618  0.013659566  0.013058286            3 
 3285000   0.72455332    -8.505778    539.10287  0.013675872  0.013053562            2 
 3286000   0.72471894   -8.5250436    538.15024  0.013647551  0.013048829            2 
 3287000   0.72883969   -8.5664483     537.8741  0.013636399  0.013044102            4 
 3288000   0.73270685   -8.5118344    538.72816  0.013653897  0.013039373            7 
 3289000   0.71849112   -8.5386582    538.38826  0.013641133  0.013034639            3 
 3290000   0.72919012   -8.5298413    539.64028    0.0136687  0.013029901            3 
 3291000   0.73551359   -8.5103846    538.92007   0.01364631  0.013025177            9 
 3292000   0.71276827    -8.529912    538.74452  0.013637721  0.013020446            7 
 3293000   0.71537746    -8.523769    539.25383  0.013646468  0.013015724            3 
 3294000   0.72032312   -8.5300087    538.27737  0.013617622  0.013010996            7 
 3295000   0.72654997   -8.5123742    539.50773  0.013644606   0.01300627            6 
 3296000   0.72225149   -8.5409101    538.86677  0.013624261  0.013001556            6 
 3297000   0.72078803   -8.5138659    540.26239  0.013655404  0.012996844            3 
 3298000   0.70703161   -8.5167581    539.58689  0.013634195  0.012992142            3 
 3299000   0.71946991   -8.4981861    539.34874  0.013624046  0.012987438            5 
 3300000    0.7113153   -8.5192559    539.53258   0.01362456  0.012982751            3 
 3301000   0.72869024   -8.5173857    539.16194  0.013611076  0.012978062            3 
 3302000   0.73911264    -8.526317    540.08629  0.013630282  0.012973365            4 
 3303000   0.72884034   -8.5450296    538.48914   0.01358586  0.012968669            5 
 3304000   0.72974628   -8.5414423    538.65751  0.013585994   0.01296396            3 
 3305000    0.7217898    -8.554448    538.59331  0.013580265  0.012959239            4 
 3306000   0.74715669   -8.5373893     539.7675  0.013605755  0.012954536            3 
 3307000   0.70657942    -8.533033    539.00206  0.013582352   0.01294983            6 
 3308000   0.71373012   -8.5330963    539.73025   0.01359659  0.012945131            3 
 3309000   0.71624101   -8.5200375    540.05813  0.013600739  0.012940449            3 
 3310000   0.69904308   -8.5117344    539.84725  0.013591321  0.012935761            9 
 3311000   0.71911724   -8.5517709    539.17992   0.01357042  0.012931081            7 
 3312000   0.71680004   -8.5186568    539.62158  0.013577435  0.012926396            5 
 3313000   0.71247413   -8.5086183    538.92455  0.013555804  0.012921711            3 
 3314000   0.72745787   -8.5314621    538.93669  0.013552019  0.012917033            5 
 3315000   0.72384941   -8.5279578    540.45434  0.013586082  0.012912349            8 
 3316000   0.72849026   -8.5385521    540.19539  0.013575477  0.012907675            3 
 3317000   0.74515108   -8.5215825    539.52278  0.013554486  0.012903006            4 
 3318000   0.71978322   -8.5475698    539.74708  0.013556035  0.012898337            5 
 3319000   0.72708274   -8.5560883    538.62346  0.013523739   0.01289366            4 
 3320000   0.70356549   -8.5451396    539.06817  0.013530828  0.012888983            3 
 3321000   0.72476658   -8.5308289    538.76745  0.013519207   0.01288433            3 
 3322000   0.70873219    -8.521409    540.29672    0.0135535  0.012879673            2 
 3323000   0.72308131   -8.4993508    539.60767  0.013532141  0.012875024            3 
 3324000   0.71589279    -8.523103    539.28458   0.01351997  0.012870378            5 
 3325000   0.71104281   -8.5040768    539.54868  0.013522523  0.012865719            5 
 3326000   0.72633248   -8.5316383    539.54787  0.013518437   0.01286106            7 
 3327000   0.70846294   -8.5414062     539.8553  0.013522074  0.012856412           10 
 3328000   0.71901667   -8.5449868    540.52507  0.013534782  0.012851766            4 
 3329000   0.71539813   -8.5376923    539.79817   0.01351252  0.012847128            2 
 3330000   0.71322969   -8.5219593    537.95698  0.013462387  0.012842478            2 
 3331000   0.70298975    -8.526851    539.73113   0.01350273  0.012837839            4 
 3332000   0.72213831   -8.5261454    538.78986  0.013475137  0.012833208            4 
 3333000   0.73285844   -8.5069369    540.30197    0.0135089  0.012828592            4 
 3334000   0.71682283   -8.5591762    539.13634  0.013475713  0.012823974            3 
 3335000   0.73158817   -8.5362218    539.70431  0.013485865   0.01281935            3 
 3336000   0.72132741   -8.5187907    540.68609  0.013506347  0.012814733            5 
 3337000    0.7154395   -8.5107808    540.71806  0.013503098  0.012810118            3 
 3338000   0.72715435   -8.5132241    539.50945   0.01346888  0.012805503            2 
 3339000   0.71858358   -8.5126493      539.956  0.013475991  0.012800901            3 
 3340000   0.72412964   -8.5389631    541.13139  0.013501282  0.012796285            5 
 3341000   0.70605766   -8.5468212    539.21134   0.01344935  0.012791665            3 
 3342000   0.72280287   -8.5465735     539.9487  0.013463712  0.012787035            4 
 3343000   0.70790933   -8.5331452    539.56616  0.013450149  0.012782415            4 
 3344000   0.70732865   -8.5528797    538.58171  0.013421594  0.012777781            4 
 3345000   0.71993393   -8.5490241    538.33576  0.013411454  0.012773139            4 
 3346000   0.72174609   -8.5475785    540.42776  0.013459548    0.0127685            3 
 3347000   0.70410039   -8.5463771    539.67166  0.013436701  0.012763868            4 
 3348000   0.71545659    -8.559178    538.98509  0.013415599  0.012759245            8 
 3349000    0.7164555   -8.5546699    539.38722  0.013421599  0.012754609            8 
 3350000   0.71782244    -8.535877    538.98811  0.013407664  0.012749979            4 
 3351000   0.70171076   -8.5338352    539.12457  0.013407057   0.01274535            6 
 3352000   0.71234326   -8.5552061    538.39162  0.013384835  0.012740714            3 
 3353000   0.70550997   -8.5752358    538.44376  0.013382139  0.012736075            5 
 3354000   0.71497778   -8.5526665    538.80316  0.013387079  0.012731443            6 
 3355000   0.70756875   -8.5355438    539.26157  0.013394475  0.012726818            7 
 3356000   0.72776306   -8.5415016    539.40844  0.013394131  0.012722193            5 
 3357000   0.72026294   -8.5642187    539.42624  0.013390583  0.012717572            2 
 3358000   0.73020077   -8.5521787    540.10427  0.013403421  0.012712958            1 
 3359000   0.71117655   -8.5583073    540.35913  0.013405754  0.012708347            7 
 3360000    0.7194325    -8.531084    539.95278  0.013391686  0.012703737            5 
 3361000   0.70720615   -8.5567389    538.77864   0.01335859  0.012699122            3 
 3362000   0.73718166   -8.5378628    540.24211  0.013390891  0.012694512            7 
 3363000   0.70721843   -8.5414536    540.39079  0.013390593  0.012689913            2 
 3364000   0.72400565   -8.5698009     537.6108  0.013317747  0.012685303            1 
 3365000   0.69827902   -8.5442372    539.54216  0.013361619  0.012680698            5 
 3366000   0.70905295   -8.5449833    539.08703  0.013346381  0.012676097            3 
 3367000   0.70295416   -8.5462641    540.23888  0.013370926  0.012671514            4 
 3368000   0.70417119   -8.5776835    538.62841  0.013327108  0.012666915            2 
 3369000   0.74832131   -8.5670549    539.54375  0.013345794  0.012662315            3 
 3370000   0.73683612   -8.5405812     539.3621  0.013337342  0.012657715            7 
 3371000   0.71353314   -8.5509903    539.74136  0.013342761  0.012653128            2 
 3372000   0.70591382   -8.5713137    539.90433  0.013342831  0.012648532            4 
 3373000   0.71874849   -8.5787484    538.96397  0.013315643  0.012643929            6 
 3374000   0.71563245   -8.5586477    539.38947  0.013322206  0.012639323            5 
 3375000   0.70027887   -8.5778067    540.19628   0.01333818  0.012634717            6 
 3376000   0.71857688   -8.5597368    539.65607  0.013320894  0.012630111            3 
 3377000   0.70096286   -8.5705621    539.82955  0.013321231  0.012625497            2 
 3378000    0.7093391   -8.5889233    538.85905  0.013293345  0.012620902            3 
 3379000   0.70551183   -8.5499543    539.56063  0.013306714  0.012616304            4 
 3380000   0.72267363   -8.5651881    539.03601  0.013289842  0.012611703            2 
 3381000   0.72541845    -8.552953    538.55552  0.013274069  0.012607114            8 
 3382000   0.71143438   -8.5677878    538.89654  0.013278547   0.01260251            4 
 3383000   0.72946501   -8.5724003    538.65777   0.01326874  0.012597906            6 
 3384000   0.71650013   -8.5703979    539.68848  0.013290201  0.012593305            5 
 3385000   0.72543949   -8.5927115    537.80745  0.013239967  0.012588698            7 
 3386000   0.70220055   -8.5490309    539.39284  0.013275075  0.012584099            4 
 3387000   0.71410328   -8.5623473    538.56493  0.013250786   0.01257951            5 
 3388000   0.69571473   -8.6034593    539.15265  0.013261331  0.012574912            5 
 3389000   0.70783076   -8.5950215    539.20464  0.013258696  0.012570311            4 
 3390000   0.69203401   -8.5695032    540.03565  0.013275213  0.012565719            3 
 3391000    0.7105937   -8.5649018    539.47647  0.013257556  0.012561131            3 
 3392000   0.71654519   -8.5718817    538.52416  0.013230251  0.012556545            6 
 3393000   0.70694363   -8.5719117    539.08042  0.013240014  0.012551956            6 
 3394000   0.71856108   -8.6009854    537.86341  0.013206232  0.012547367            8 
 3395000   0.70481633   -8.5961717    539.05014  0.013231471  0.012542778            8 
 3396000    0.7110586   -8.5773372    539.14867  0.013229993  0.012538196            7 
 3397000   0.71987203   -8.6051635    539.10042  0.013224915  0.012533624            4 
 3398000   0.69063417   -8.5920799    538.42458  0.013204448  0.012529035            4 
 3399000    0.7184378   -8.6024368    539.22574  0.013220205  0.012524451            5 
 3400000   0.70175053    -8.587883    539.90182  0.013232888  0.012519873            9 
 3401000    0.7110687   -8.5707429    539.53756  0.013220072  0.012515298           14 
 3402000   0.69460894   -8.5884619    539.42677  0.013213472  0.012510719            8 
 3403000   0.70896776   -8.5766121    539.02375   0.01319972  0.012506145            6 
 3404000   0.69133729   -8.5717028    538.55989  0.013184486  0.012501569            3 
 3405000   0.69677052   -8.5636075    538.31069  0.013174515  0.012497011            6 
 3406000   0.70714077   -8.5525663    540.02062  0.013212483  0.012492438            2 
 3407000   0.72168709   -8.5842194    538.72284  0.013176862  0.012487876            3 
 3408000   0.70645378   -8.5790392    538.37632  0.013164523  0.012483311            7 
 3409000   0.70169966   -8.5637566    538.38283   0.01316082  0.012478745            5 
 3410000   0.71054647   -8.5933722    538.87083  0.013168886  0.012474173            2 
 3411000   0.70622206   -8.5770912    538.50986  0.013156207  0.012469607            3 
 3412000   0.71075151   -8.5924083    539.57516  0.013178369  0.012465047            4 
 3413000   0.70993278   -8.5978955    539.03958  0.013161431  0.012460484            2 
 3414000   0.70719319     -8.57465     538.9181  0.013154611  0.012455921            3 
 3415000   0.71869686    -8.593332    538.84524  0.013148981  0.012451371            7 
 3416000   0.69327485   -8.5810361    539.04922  0.013150108  0.012446815            5 
 3417000    0.7218188   -8.5956229    538.75408  0.013139062  0.012442278            3 
 3418000   0.71006268   -8.5638441    538.84808  0.013137509  0.012437729            4 
 3419000   0.71416764   -8.5959319    537.88231  0.013110128  0.012433181            4 
 3420000    0.6973258   -8.6007008    537.80893  0.013104506   0.01242863            3 
 3421000   0.69912613   -8.6098736    539.04533  0.013130793  0.012424071            3 
 3422000   0.70266715   -8.5977169    538.65767  0.013117516  0.012419509            8 
 3423000   0.70075847   -8.6046106    538.33299  0.013105779   0.01241494            5 
 3424000   0.71161441   -8.5730829    538.65702  0.013109838  0.012410394           13 
 3425000   0.69963383   -8.6098004    538.96433  0.013113487  0.012405848            3 
 3426000     0.702231   -8.5801767    538.04337  0.013087259  0.012401296            2 
 3427000   0.68838012   -8.6173107    538.78335  0.013101433  0.012396748            5 
 3428000   0.71826207   -8.6133632    538.84849  0.013099195  0.012392209            2 
 3429000   0.71481336   -8.5682357     538.5429  0.013087948   0.01238768            8 
 3430000   0.69324974    -8.586593    538.12356  0.013073945  0.012383151            2 
 3431000   0.69260809   -8.6007722    538.23918  0.013072942   0.01237861            3 
 3432000   0.71457489   -8.6271338    537.49883  0.013051157   0.01237406            3 
 3433000    0.6967889   -8.6041886     539.5994  0.013098345  0.012369518            6 
 3434000   0.69562456   -8.5928532    539.37329  0.013089043  0.012364983            2 
 3435000   0.71067418   -8.6037208    539.62486  0.013091336  0.012360463            9 
 3436000   0.70110625   -8.6082047    539.02994  0.013073097   0.01235593            3 
 3437000   0.69133904   -8.6073064    539.24654  0.013074545  0.012351409            4 
 3438000   0.70560104     -8.59541    539.51682  0.013077293  0.012346887            3 
 3439000   0.69515283   -8.6021165    538.46777   0.01304807  0.012342359            3 
 3440000   0.69611685   -8.6198012    538.16288  0.013036892  0.012337829            4 
 3441000   0.70088698   -8.6305443    539.08384  0.013055406  0.012333292            2 
 3442000   0.71823338   -8.6145008    538.11612  0.013028184  0.012328766            4 
 3443000   0.70113803   -8.5931557    539.08081  0.013047749  0.012324241            3 
 3444000   0.69525035   -8.5939638    537.37167  0.013002605  0.012319717            2 
 3445000    0.6845548   -8.6123644    537.99796  0.013013981  0.012315185            7 
 3446000   0.69967047   -8.6171988    539.11625  0.013037247  0.012310656            7 
 3447000   0.70065813   -8.6090365    537.92191  0.013004591  0.012306117            3 
 3448000   0.71025993   -8.6243608    537.85374  0.012999172    0.0123016            7 
 3449000   0.69957428   -8.6016147    539.34877  0.013031525  0.012297069            7 
 3450000   0.69910437   -8.6159415    538.24299  0.013001038  0.012292537            9 
 3451000   0.69075631   -8.5974935    538.76203  0.013009805   0.01228802            4 
 3452000   0.70056368   -8.6086999    538.65076   0.01300335  0.012283501            3 
 3453000   0.70305735   -8.6224889    540.11034  0.013034809   0.01227898            4 
 3454000   0.68332871   -8.6023827    538.28925  0.012987098  0.012274464            5 
 3455000    0.7035545   -8.6040993    539.44514  0.013011219  0.012269959            2 
 3456000     0.686041   -8.6260726    539.52391  0.013009354  0.012265464            3 
 3457000   0.69895852   -8.5794042    539.46485  0.013004167  0.012260963            7 
 3458000   0.69721078   -8.6034699    539.38417  0.012998462  0.012256472            3 
 3459000   0.69712669   -8.5977079     539.0244  0.012986037  0.012251971            3 
 3460000   0.70873475   -8.5936421    538.25631  0.012963784  0.012247474            6 
 3461000   0.71125171   -8.6100751    538.39359  0.012963344  0.012242969            5 
 3462000    0.7026607   -8.6147203    537.31966  0.012933749  0.012238463            3 
 3463000   0.69684172   -8.5858714    538.64406  0.012961884  0.012233953            7 
 3464000    0.7001942   -8.6184403    538.09952  0.012945042  0.012229449            4 
 3465000   0.68426588   -8.6189123    537.48132  0.012926439  0.012224939            4 
 3466000   0.68176429    -8.633112    538.16776  0.012939213  0.012220423            3 
 3467000   0.69200409   -8.6248307    538.29675  0.012938582  0.012215911           12 
 3468000   0.69128983   -8.6228803    538.41528  0.012937699    0.0122114            3 
 3469000   0.68729901   -8.6224758    537.85486  0.012920507  0.012206902            3 
 3470000   0.70093199   -8.6267055    537.40234  0.012905916  0.012202403            4 
 3471000   0.70075924   -8.6033574    537.89828  0.012914105  0.012197902            4 
 3472000   0.70831429   -8.6254011    538.37707  0.012921877  0.012193407            4 
 3473000   0.70942376   -8.6149251    537.63775  0.012900416  0.012188913            5 
 3474000   0.69429173    -8.632526    538.48554  0.012917039  0.012184414            3 
 3475000   0.70152071   -8.6256715    537.51193  0.012889974  0.012179915            3 
 3476000   0.68716472   -8.6171554    538.11886  0.012900816   0.01217542            5 
 3477000   0.69587932   -8.6172632    538.67582  0.012910455   0.01217093            3 
 3478000   0.68980014    -8.626101    538.29749  0.012897678  0.012166432            6 
 3479000   0.69755411   -8.6209435    537.86062  0.012883506  0.012161941            6 
 3480000   0.69881676     -8.62681    538.50762  0.012895297  0.012157448            4 
 3481000   0.69025652   -8.6070556    537.10448  0.012858003  0.012152953            4 
 3482000   0.67713321   -8.5928895    538.62716  0.012890752  0.012148463            4 
 3483000    0.6961568   -8.5963988    537.32425  0.012855877  0.012143991            5 
 3484000    0.6905752   -8.6281645    538.42679  0.012878559  0.012139513            4 
 3485000   0.69807245   -8.5860466    539.20957  0.012893581  0.012135039            7 
 3486000   0.69721832   -8.6155229    538.20947  0.012865975  0.012130567            6 
 3487000   0.68435323   -8.6168441    538.90034  0.012878796  0.012126097            4 
 3488000    0.6823807   -8.6217445    537.21568  0.012834855  0.012121627            8 
 3489000   0.68905423   -8.6281915    536.50823  0.012814279  0.012117156            4 
 3490000   0.68939585   -8.6165916    538.20256  0.012851064  0.012112682            2 
 3491000   0.68186747   -8.6273489    538.74549  0.012860343  0.012108215            2 
 3492000   0.69029897    -8.603978    537.46393  0.012826077  0.012103751            4 
 3493000   0.69691769   -8.6276247    536.92345  0.012809511  0.012099281            2 
 3494000    0.6951288    -8.647192    537.61608  0.012822364  0.012094807            5 
 3495000   0.68044835   -8.6409204    536.64044  0.012795433  0.012090341            4 
 3496000   0.68713886   -8.6243878    538.56043  0.012837539  0.012085882            3 
 3497000   0.67763447    -8.616727    537.86684   0.01281734  0.012081417            2 
 3498000   0.67459259   -8.6397283     538.4419  0.012827375  0.012076946            4 
 3499000   0.69206921    -8.617988    537.16787  0.012793366  0.012072478           10 
 3500000   0.69380903   -8.6207447    538.48577   0.01282109  0.012068021            4 
 3501000   0.69306826   -8.6594531    537.09815  0.012784398  0.012063555            4 
 3502000   0.70540034   -8.6274294     538.0896   0.01280434  0.012059086            2 
 3503000   0.69585915   -8.6372048    537.70988  0.012791652  0.012054622            7 
 3504000   0.68918838   -8.6060253    537.24212  0.012776877  0.012050157            4 
 3505000   0.71012596   -8.6464882    536.77853   0.01276221  0.012045693            3 
 3506000   0.69322235   -8.6519318     537.5547  0.012777018  0.012041237            3 
 3507000    0.7008205   -8.6243736    538.14335  0.012787362  0.012036782            7 
 3508000   0.68496236   -8.6268221     537.3356  0.012764529   0.01203234            3 
 3509000   0.69092232   -8.6171267    537.09149  0.012755094  0.012027892            4 
 3510000   0.68836332   -8.6357535    538.31614  0.012780535  0.012023445            5 
 3511000   0.69588547   -8.6080244    538.39539  0.012778776  0.012018999            4 
 3512000   0.68176519   -8.6648658    538.30235   0.01277293  0.012014549            7 
 3513000   0.68387263   -8.6291718    537.70713  0.012755174  0.012010095            2 
 3514000   0.68480996   -8.6582838    537.39837  0.012744222   0.01200565            4 
 3515000   0.67501876   -8.6340155    537.62205    0.0127459  0.012001195            2 
 3516000   0.68091129   -8.6437716    537.33582  0.012735491  0.011996751            5 
 3517000   0.69411786   -8.6089854    537.79149  0.012742666  0.011992308            6 
 3518000   0.69490883   -8.6303168    538.19375  0.012748573  0.011987868            6 
 3519000   0.69230627   -8.5908335    537.46504  0.012727694  0.011983433            3 
 3520000   0.68862199   -8.6221722     538.1036  0.012739195  0.011978996            3 
 3521000    0.6708169   -8.6394435    537.16709  0.012713412  0.011974579            3 
 3522000   0.69076101   -8.6180668     538.2253  0.012734841  0.011970138            3 
 3523000   0.68400818   -8.6450465    535.83548  0.012674697  0.011965706            4 
 3524000   0.69610283   -8.6521752    537.30656  0.012705887  0.011961282            4 
 3525000   0.68423741   -8.6591319    535.99677  0.012671318  0.011956846           11 
 3526000   0.69106787   -8.6624467     536.5999  0.012681979  0.011952407            6 
 3527000   0.70172814   -8.6595888    536.47687  0.012675477  0.011947962            6 
 3528000   0.66366019   -8.6366318    537.61573  0.012698784  0.011943526            9 
 3529000   0.68214654   -8.6292253    537.17723  0.012684831  0.011939093            9 
 3530000   0.69835654   -8.6656569    537.09638  0.012679329  0.011934653            4 
 3531000   0.67530788   -8.6451075    537.28788  0.012680258  0.011930211            9 
 3532000    0.6772807   -8.6521183    536.43249  0.012656486  0.011925777            6 
 3533000   0.67944214   -8.6479175    536.23943   0.01264835  0.011921334            7 
 3534000   0.69196716   -8.6544244    536.73031  0.012656346  0.011916904            5 
 3535000   0.69337874   -8.6800364    536.56345  0.012648832  0.011912474            3 
 3536000   0.68259849   -8.6477375    536.71958  0.012648934  0.011908052            6 
 3537000   0.69374568   -8.6636431    536.73766  0.012645784   0.01190363            4 
 3538000   0.68154147   -8.6342423    536.71139  0.012641591  0.011899213            5 
 3539000   0.69754539   -8.6125048    537.96166  0.012667459  0.011894812            4 
 3540000    0.6718358   -8.6629428    537.09654  0.012643516  0.011890401            7 
 3541000   0.68905756   -8.6395328    537.44574  0.012648163  0.011885984           12 
 3542000   0.69650623   -8.6387564    536.99354  0.012633953  0.011881573            8 
 3543000   0.69809794   -8.6461724    537.99767  0.012654005  0.011877168            6 
 3544000   0.68809653   -8.6330488    538.27789  0.012657023  0.011872777            4 
 3545000   0.67992698   -8.6618426    538.22908  0.012652306  0.011868364            6 
 3546000    0.6898894   -8.6314743    537.94413  0.012642041  0.011863964            7 
 3547000   0.68098072    -8.671419    535.79514  0.012587988  0.011859551            4 
 3548000    0.6870553   -8.6567402    536.99932  0.012612724  0.011855134           10 
 3549000   0.67132186   -8.6710376    537.01667  0.012609577  0.011850716            9 
 3550000   0.67219887   -8.6601573    536.93901  0.012604202  0.011846314           13 
 3551000   0.68139798   -8.6465538    536.56424  0.012591858  0.011841921            8 
 3552000   0.67516692   -8.6901538    536.93285  0.012596961  0.011837523           10 
 3553000   0.69356976   -8.6615739    537.07244  0.012596689  0.011833127           10 
 3554000   0.69088807    -8.672304    537.27528  0.012597901  0.011828733            6 
 3555000   0.68876426   -8.6582215    537.25716  0.012593933  0.011824344            8 
 3556000   0.68815907    -8.653721    537.24065  0.012590004  0.011819954           14 
 3557000   0.67813982   -8.6535196    538.47609  0.012615408  0.011815567            7 
 3558000   0.68799649   -8.6630435    537.59422  0.012591208  0.011811186           12 
 3559000   0.69307441   -8.6338535    536.62092  0.012564881  0.011806815            5 
 3560000   0.69820486   -8.6541356    536.78509  0.012565194  0.011802443            9 
 3561000   0.69032351   -8.6442339    536.33849  0.012551214  0.011798071           10 
 3562000   0.67264289   -8.6559914    538.15949  0.012590293  0.011793701           23 
 3563000    0.6876444   -8.6574002    537.50437  0.012571437  0.011789332            9 
 3564000   0.68081163    -8.643909    537.27447  0.012562534   0.01178496            4 
 3565000   0.67595758   -8.6539663    537.63312  0.012567394  0.011780585           11 
 3566000   0.69382524   -8.6519564    536.87974  0.012546264  0.011776214            7 
 3567000   0.67686049   -8.6792295    536.18868  0.012526602  0.011771835            5 
 3568000    0.6826952   -8.6688869     537.0676  0.012543619   0.01176746            7 
 3569000   0.69014511   -8.6517276    537.09586  0.012540765  0.011763085            7 
 3570000   0.67663538   -8.6704978    537.31521  0.012542372  0.011758724            5 
 3571000   0.66628966   -8.6830182     536.4785  0.012519334  0.011754361            6 
 3572000   0.69304144   -8.6484227    536.59354  0.012518513  0.011749996            9 
 3573000   0.68331476   -8.6354822    536.89347  0.012522005  0.011745633            9 
 3574000   0.66489477   -8.6661173    536.64236  0.012512646  0.011741271            6 
 3575000   0.68316489   -8.6689649    536.60829  0.012508352  0.011736909            5 
 3576000   0.69364235   -8.6417169     537.2412  0.012519603  0.011732552            7 
 3577000   0.66464339   -8.6642116     536.1156   0.01248988  0.011728194            8 
 3578000   0.69356911   -8.6572534    537.20333  0.012511723  0.011723844            9 
 3579000   0.67655677   -8.6719366    537.43636  0.012513653  0.011719486           12 
 3580000   0.68079655   -8.6667125    535.95354  0.012475641  0.011715127            5 
 3581000   0.67263581   -8.6751145    537.14245  0.012499824   0.01171077            6 
 3582000   0.69515361   -8.6561302    537.22304  0.012498209  0.011706421            5 
 3583000   0.67827335   -8.6576515     536.7522  0.012483771  0.011702074           14 
 3584000   0.67567605   -8.6670329    536.35564  0.012471067  0.011697713            9 
 3585000   0.69410019   -8.6666124    536.08578  0.012461315  0.011693364            8 
 3586000   0.68443164   -8.6685561    537.03734  0.012479953  0.011689018            7 
 3587000   0.68533606   -8.6632064     536.2562  0.012458326  0.011684673            5 
 3588000   0.67976354   -8.6732468    537.30559  0.012479227  0.011680331            6 
 3589000   0.68221331   -8.6720123    536.89952  0.012466321  0.011675991            7 
 3590000   0.67258123    -8.671762    536.89148  0.012462662  0.011671649            7 
 3591000   0.67159619   -8.6924403    536.11164  0.012441094  0.011667302            6 
 3592000   0.67714854    -8.677543    537.13758  0.012461432  0.011662967            6 
 3593000     0.677316   -8.6564736    537.03805  0.012455656  0.011658628            6 
 3594000   0.67337157    -8.675947    536.08923   0.01243019  0.011654288            4 
 3595000   0.67693185   -8.6522786    536.49319  0.012436096  0.011649949            9 
 3596000   0.68373838   -8.6455788     536.1808  0.012425399  0.011645609            9 
 3597000   0.67181691   -8.6942526    536.97608  0.012440369   0.01164127           10 
 3598000   0.67660505   -8.6738491    536.84543  0.012433885  0.011636927            6 
 3599000   0.67352625   -8.6637403    536.55491  0.012423703  0.011632592           18 
 3600000   0.66022953   -8.6461699    537.73643  0.012447603  0.011628264           14 
 3601000   0.67977479    -8.656901    536.56725  0.012417089  0.011623942            5 
 3602000   0.68546061   -8.6759191    537.09532  0.012425859  0.011619621            5 
 3603000   0.66431534   -8.6797283    537.50705  0.012431933  0.011615296            4 
 3604000   0.67455479   -8.6602742     536.9135  0.012414759   0.01161098            6 
 3605000   0.67720612   -8.6734363    536.75029  0.012407543  0.011606664            9 
 3606000   0.67238433    -8.677148    537.25059  0.012415664  0.011602353           12 
 3607000   0.67606859   -8.6874495    536.81899   0.01240225  0.011598042            9 
 3608000   0.65955237   -8.6669908    537.15795  0.012406642  0.011593733           12 
 3609000   0.68165742   -8.6729196    536.75725  0.012393952  0.011589426           11 
 3610000   0.66425404   -8.6745334    536.48746   0.01238429  0.011585116           12 
 3611000   0.67075966   -8.6559177    536.66365  0.012384927  0.011580809           15 
 3612000   0.67381556   -8.6818976    535.97175  0.012365535  0.011576503            7 
 3613000   0.66474477   -8.6766443    536.17921  0.012366897  0.011572204           14 
 3614000   0.68526029   -8.6722309    536.27664  0.012365722  0.011567905            9 
 3615000   0.66100476   -8.6543983    536.68283  0.012371665  0.011563609           11 
 3616000   0.67371304   -8.6640688    536.85928   0.01237231   0.01155931           16 
 3617000   0.67869007   -8.6889046    535.36716  0.012334512   0.01155501           11 
 3618000   0.65676956   -8.6703455    536.19265  0.012350116  0.011550717            7 
 3619000   0.67024491   -8.6769122     536.4214  0.012351971   0.01154642           13 
 3620000   0.66718759   -8.6813385    537.44246  0.012372064  0.011542123            4 
 3621000   0.66527054   -8.6688668    536.94529  0.012357205  0.011537823           15 
 3622000   0.67104247   -8.6566327    536.67736  0.012347629  0.011533534           10 
 3623000   0.68865236    -8.677732     535.8467  0.012325115  0.011529246           11 
 3624000   0.67914666   -8.6653659    536.52136  0.012337228  0.011524969            9 
 3625000   0.67071113   -8.6550881    537.45332  0.012355249  0.011520692            9 
 3626000    0.6572901   -8.6556366    536.28213  0.012324925  0.011516416            5 
 3627000   0.67240704   -8.6371575    537.51509  0.012349855  0.011512146           10 
 3628000   0.66248525   -8.6904258    535.96243  0.012310787  0.011507868            6 
 3629000   0.67385327   -8.6671395    536.11512  0.012310901  0.011503593            6 
 3630000   0.66805133   -8.6501989    536.92199  0.012326033  0.011499323            8 
 3631000   0.66086143   -8.6656944    536.54758  0.012314045   0.01149506            8 
 3632000   0.66553712   -8.6791957    537.28309   0.01232753   0.01149079            3 
 3633000   0.67176605    -8.675218     536.8219  0.012313559  0.011486523            3 
 3634000   0.66176318   -8.6743546    535.95309  0.012290247  0.011482263           20 
 3635000   0.67721378   -8.6619919     537.5002  0.012322334  0.011477999           24 
 3636000   0.67296308    -8.668089    536.82012  0.012303358  0.011473737           17 
 3637000   0.67498535   -8.6748633    536.79602  0.012299423  0.011469485           22 
 3638000   0.67031494   -8.6807108    536.49103  0.012289056  0.011465224            7 
 3639000   0.67382046   -8.6720795    536.17142   0.01227836   0.01146096           13 
 3640000     0.673228   -8.6901152     536.7356  0.012287903  0.011456702           12 
 3641000    0.6823167   -8.6709786    536.65722  0.012282734  0.011452449            5 
 3642000   0.66419711   -8.6874921    535.52215   0.01225339  0.011448186            8 
 3643000   0.66876918   -8.6730905    535.85337  0.012257603  0.011443921           15 
 3644000   0.68012714    -8.681751     535.3603  0.012242963   0.01143966           17 
 3645000   0.66411288   -8.6727442    536.15674  0.012257813   0.01143541           18 
 3646000   0.66297189   -8.6885798    536.67747  0.012266353   0.01143116           13 
 3647000   0.67397393   -8.6855426    535.98679  0.012247207  0.011426914           13 
 3648000   0.65292439   -8.7019461    536.34521  0.012252038  0.011422663           11 
 3649000   0.66173587    -8.658059    537.16413  0.012267382  0.011418406           15 
 3650000   0.66867441   -8.6749451    536.61521  0.012251489  0.011414158            4 
 3651000   0.67495747    -8.665114    536.78681   0.01225205  0.011409909            4 
 3652000   0.65031757   -8.6775117    535.39299   0.01221689   0.01140566            4 
 3653000   0.66565519   -8.6738159    536.78756  0.012245359   0.01140141            6 
 3654000   0.66178765   -8.6810572      535.837  0.012220329  0.011397158            3 
 3655000   0.65576795    -8.689744    536.94522  0.012242253  0.011392913            3 
 3656000   0.66626015   -8.6649034    536.06465  0.012218833  0.011388666            4 
 3657000   0.68072326   -8.6857605    536.19178  0.012218389  0.011384426            3 
 3658000   0.66335069    -8.670137    535.66834  0.012203124  0.011380183            6 
 3659000   0.67251474    -8.685812    536.08977  0.012209387  0.011375944            5 
 3660000   0.64852226   -8.6816554    536.25922  0.012209909  0.011371698            5 
 3661000   0.67917481   -8.7048909    535.62688  0.012192181   0.01136746            6 
 3662000     0.651408   -8.7054549    536.26453  0.012203362  0.011363223            7 
 3663000   0.67251899   -8.6711201    536.48101  0.012204955  0.011358982            5 
 3664000   0.66463079   -8.7056025    536.58054  0.012203888  0.011354752            3 
 3665000   0.66595526   -8.6828821    536.45918  0.012197799  0.011350525            4 
 3666000   0.67061959   -8.7017547     536.4864   0.01219509  0.011346288            3 
 3667000   0.66503415   -8.7009224    535.96428  0.012179899  0.011342066            4 
 3668000   0.67020137   -8.6818557    536.65966  0.012192377  0.011337837            7 
 3669000   0.67397168   -8.6720194     534.8097  0.012147036  0.011333608            3 
 3670000   0.66497035   -8.7228588    535.06114  0.012149436  0.011329376            2 
 3671000   0.66009878   -8.6785737    535.70752  0.012160799  0.011325152            6 
 3672000   0.66572046   -8.6796345    535.97093  0.012163465  0.011320928            4 
 3673000   0.68115984    -8.691449    535.02188  0.012138622  0.011316699            5 
 3674000     0.655174   -8.7121563    534.76751  0.012129548  0.011312469            5 
 3675000   0.66819273   -8.6895432     535.9805  0.012153753   0.01130825            5 
 3676000   0.65710356   -8.6964285    535.95615  0.012149895  0.011304036            4 
 3677000   0.67096753   -8.7011846    536.75332  0.012164657   0.01129982            4 
 3678000   0.66266894   -8.6916529    536.46217  0.012154753  0.011295603            4 
 3679000   0.64639154   -8.6815471    535.52385  0.012130195  0.011291394            6 
 3680000   0.66231287   -8.6952284    535.47719  0.012125842  0.011287187            7 
 3681000   0.66784421   -8.6817631    536.28318  0.012140795  0.011282983            6 
 3682000   0.66749082   -8.6882254    536.07623  0.012132813  0.011278776            9 
 3683000    0.6811331   -8.7089474    536.19077  0.012132111  0.011274567            6 
 3684000    0.6582592   -8.7132216    535.57795  0.012114956  0.011270353            6 
 3685000   0.65476494   -8.6981471    535.64037  0.012113079  0.011266134            3 
 3686000    0.6676212   -8.7153688      535.985  0.012117585  0.011261922            4 
 3687000   0.65669933   -8.7120154    535.17057   0.01209589  0.011257708            5 
 3688000   0.66596276   -8.6972832    536.25206  0.012117048  0.011253499            2 
 3689000   0.65936367   -8.7231532    533.98113  0.012062463  0.011249299            4 
 3690000    0.6545055    -8.708259    535.21384  0.012087033  0.011245097            4 
 3691000   0.67033195   -8.7133239     536.5765  0.012114524  0.011240901            4 
 3692000   0.65481794   -8.6960868    536.26104  0.012104122  0.011236712            4 
 3693000   0.65682503   -8.6889319    536.03291  0.012095697  0.011232515            5 
 3694000   0.66866619    -8.703268    535.85989  0.012088519  0.011228319            5 
 3695000   0.67043433   -8.7161588    534.50132  0.012054608  0.011224124            5 
 3696000   0.66297427   -8.6913129    536.05733   0.01208643  0.011219933            4 
 3697000   0.66298885   -8.7124006    535.53318  0.012071346   0.01121575            3 
 3698000   0.65202151   -8.6990886    534.84411  0.012052554  0.011211565            2 
 3699000   0.65508422   -8.6963287    535.80158  0.012070866  0.011207375            2 
 3700000   0.64981032    -8.720396    535.25122  0.012055208  0.011203195            6 
 3701000   0.65571331   -8.7033806    535.76188  0.012063449  0.011199023            3 
 3702000   0.66813068   -8.7144952    535.78083  0.012060617  0.011194842            2 
 3703000   0.66630273   -8.7012087    535.46452  0.012050241  0.011190666            5 
 3704000    0.6678084   -8.7245048    535.50585  0.012047918  0.011186489            3 
 3705000   0.66540672   -8.7011677    534.98033  0.012032846   0.01118231            5 
 3706000   0.66355347   -8.7086421    536.21867  0.012057444  0.011178135            2 
 3707000   0.65786002   -8.7270605    535.02933  0.012027456  0.011173963            2 
 3708000   0.65852952   -8.7194262    534.85938  0.012020392  0.011169797            2 
 3709000   0.67425358   -8.7043582    535.69805  0.012035995  0.011165639            2 
 3710000   0.66406029    -8.698012    536.17003  0.012043352  0.011161482            5 
 3711000   0.64645225   -8.7167261    534.99327  0.012013682  0.011157327            5 
 3712000   0.66783227   -8.7003686    535.65786  0.012025365  0.011153161            3 
 3713000   0.66395335   -8.7253445    535.67411  0.012022491  0.011149007            4 
 3714000   0.64360835   -8.7053574     535.2717  0.012010225  0.011144849            5 
 3715000   0.67678918    -8.717796    535.85455  0.012020066  0.011140699            6 
 3716000    0.6637568   -8.7211069    536.00242  0.012020148  0.011136545            4 
 3717000    0.6443518   -8.7292497    535.04529  0.011995455  0.011132392            5 
 3718000   0.65231814   -8.6803578    535.57631  0.012004131  0.011128245            5 
 3719000   0.66651758   -8.7044904    535.80997  0.012006139  0.011124096            5 
 3720000   0.64087933   -8.7024545    534.92011  0.011982977  0.011119953            5 
 3721000   0.65214378   -8.6915777    536.75392  0.012020826  0.011115809            4 
 3722000   0.64390798   -8.7083511    534.81216  0.011974122  0.011111657            5 
 3723000   0.65122223   -8.7297098    534.95995  0.011974213  0.011107511            5 
 3724000      0.65931    -8.723726    534.66563  0.011964412  0.011103369            3 
 3725000   0.66228025   -8.7177296    535.11493  0.011971251  0.011099229            4 
 3726000   0.66302981   -8.7140576    534.49606  0.011954197  0.011095088            3 
 3727000   0.64508814   -8.7176226    534.69964  0.011955541  0.011090951            3 
 3728000   0.65179691   -8.7178559    535.02663  0.011959644  0.011086819            4 
 3729000   0.66230982   -8.7047693    536.52176  0.011989849  0.011082682            4 
 3730000    0.6713419    -8.723613    536.22203  0.011979938  0.011078552            4 
 3731000   0.65603584   -8.7233469    535.19343  0.011953753  0.011074413            4 
 3732000    0.6566356   -8.7259248    535.02613  0.011946814  0.011070281            5 
 3733000   0.65886065   -8.7159711    535.36168  0.011951105  0.011066155            5 
 3734000   0.65689546   -8.7189786    535.04012  0.011940728  0.011062023            3 
 3735000   0.66016494   -8.7128308    535.56588  0.011949261  0.011057898            4 
 3736000   0.65727424   -8.7274996    534.79288  0.011928821  0.011053783            6 
 3737000   0.65916285   -8.7135289    535.91088  0.011950559  0.011049674            8 
 3738000   0.65066282   -8.6910084    536.12813  0.011952206  0.011045561            3 
 3739000   0.64474741   -8.7158106    534.80907   0.01191961  0.011041452            2 
 3740000   0.63088681   -8.6972177    535.27133  0.011926723  0.011037345            4 
 3741000   0.66574873   -8.7262913    535.13052  0.011920398  0.011033243            6 
 3742000   0.65467724   -8.7152162    535.68752  0.011929617  0.011029139            4 
 3743000   0.65454196   -8.7251428    536.89531   0.01195332  0.011025035            7 
 3744000   0.64827367   -8.7141647    536.79606  0.011947918  0.011020933            9 
 3745000   0.64878036   -8.7258713    534.80233  0.011900363  0.011016829            9 
 3746000   0.63804741   -8.7239953    534.66156  0.011894055  0.011012724            8 
 3747000   0.63163904   -8.7262934    535.98041  0.011920212  0.011008618           10 
 3748000   0.64576302   -8.7171806    535.88793  0.011914975  0.011004516            2 
 3749000   0.67145256   -8.7287895    535.14309  0.011895241  0.011000416            4 
 3750000   0.64014735   -8.6938422     535.3485  0.011896633  0.010996323            7 
 3751000   0.67295377    -8.714188    536.87958  0.011927477  0.010992231            5 
 3752000   0.64889326   -8.7179698    535.17385  0.011886413   0.01098814            7 
 3753000   0.65332875   -8.7084322    536.39246  0.011910304  0.010984048            7 
 3754000   0.65237068   -8.7200371    535.48528  0.011886993  0.010979953            6 
 3755000   0.65170576   -8.7171974    535.42194  0.011882422  0.010975867            7 
 3756000   0.64069715   -8.7099172    536.20575  0.011896649  0.010971775           10 
 3757000   0.64375458   -8.7217202    535.47433  0.011877259  0.010967689            2 
 3758000   0.66416709   -8.7113582    534.83099  0.011859832  0.010963605            4 
 3759000    0.6570948   -8.7206597    535.84702  0.011879201  0.010959526            5 
 3760000   0.65268634   -8.7324899    535.08243  0.011859096  0.010955443            3 
 3761000   0.65666089   -8.6934682    535.44838  0.011864052  0.010951364            2 
 3762000   0.65494975   -8.7336384    535.00513  0.011851079  0.010947282            3 
 3763000   0.65960391    -8.713058     536.0691  0.011871492  0.010943208            4 
 3764000   0.63510386   -8.6982688    535.77616  0.011861853  0.010939138            6 
 3765000     0.650009   -8.7069554    535.31838   0.01184857  0.010935066            5 
 3766000   0.63680975   -8.7314543      535.357  0.011846278  0.010930988            2 
 3767000   0.65463614   -8.7048812    535.10836  0.011837633  0.010926912            3 
 3768000   0.66264186   -8.7002739    536.15804  0.011857706  0.010922831            4 
 3769000   0.65341884   -8.7405056     535.0391   0.01182982  0.010918759            4 
 3770000   0.64929152   -8.7372106    534.12092  0.011806386   0.01091468            3 
 3771000   0.65986523   -8.7060191    534.74135  0.011816966  0.010910609            5 
 3772000   0.65057029   -8.7275289    535.19193  0.011823788  0.010906543            3 
 3773000   0.64646959   -8.7197021    534.88472  0.011813869  0.010902479            5 
 3774000   0.65735519   -8.7315232    534.50897  0.011802441  0.010898408            3 
 3775000   0.65369357   -8.7371794    533.63629  0.011780051  0.010894342            3 
 3776000   0.64380297   -8.7417653    534.89622  0.011804737  0.010890277            4 
 3777000   0.65267787   -8.7504148    534.35977  0.011789775  0.010886214            5 
 3778000   0.63444345   -8.7366692    534.44323  0.011788495  0.010882144            2 
 3779000    0.6593034     -8.72132    534.55526  0.011787846  0.010878076            7 
 3780000   0.65024888   -8.7550211    534.18924  0.011776659  0.010874007            9 
 3781000   0.65090807   -8.7372098    534.43017  0.011778854  0.010869941            7 
 3782000   0.65306599   -8.7263378     534.3757   0.01177454  0.010865881            5 
 3783000   0.63673091    -8.718398    534.68724   0.01177829  0.010861815            9 
 3784000   0.65543728   -8.7422673    534.79321  0.011777511  0.010857756           11 
 3785000   0.64738793   -8.7397441    534.35194  0.011764684  0.010853696            4 
 3786000    0.6479574   -8.7526637    534.71834  0.011769641  0.010849641            3 
 3787000   0.64880347   -8.6964096    534.56419  0.011763141  0.010845594            6 
 3788000   0.64432849   -8.7379355    535.45262  0.011779581  0.010841554            6 
 3789000   0.64314736   -8.7405714     534.3526  0.011752278  0.010837507            5 
 3790000   0.64372675   -8.7515747    534.08158  0.011743219  0.010833465            4 
 3791000   0.65612981   -8.7436225     533.8176  0.011734318  0.010829419            6 
 3792000    0.6549047   -8.7252434    535.22342  0.011762118  0.010825387            5 
 3793000   0.63542599   -8.7396951    534.71737  0.011747899  0.010821351            4 
 3794000    0.6551535   -8.7514905     533.8483  0.011725714  0.010817312            3 
 3795000   0.63101626   -8.7475009    534.99412  0.011747785  0.010813271            3 
 3796000   0.64573987   -8.7574603     534.3209  0.011729911  0.010809228            6 
 3797000    0.6358158   -8.7405618      534.776   0.01173681  0.010805192            3 
 3798000   0.64461648   -8.7587549    534.88135  0.011736031  0.010801152            4 
 3799000    0.6388421   -8.7281421    534.49096  0.011724378  0.010797116            5 
 3800000     0.654469   -8.7395742    534.76678  0.011727342  0.010793088            4 
 3801000   0.63601926    -8.750157    535.38456    0.0117378  0.010789062            5 
 3802000   0.64673985   -8.7356494    534.89945   0.01172408  0.010785041            6 
 3803000   0.61994706   -8.7396123    535.35898  0.011731067  0.010781016            4 
 3804000   0.64568486   -8.7440041    534.92944  0.011718574  0.010776995            6 
 3805000   0.63144527   -8.7686708    533.53338  0.011684918  0.010772972            4 
 3806000   0.64254864   -8.7569582     534.0771  0.011693753  0.010768945            2 
 3807000   0.63297718   -8.7379834    535.04858  0.011711947  0.010764919            4 
 3808000   0.64606773   -8.7263569    535.12147  0.011710466  0.010760898            3 
 3809000   0.65055179   -8.7376911    534.98712  0.011704453  0.010756884            2 
 3810000   0.63124193   -8.7391464    535.22508  0.011706585  0.010752869            3 
 3811000   0.64599981   -8.7401874    535.82192  0.011716564  0.010748855            2 
 3812000   0.64297583   -8.7590816     534.3816  0.011682004  0.010744842            3 
 3813000   0.63394947   -8.7607426    534.35581  0.011678377  0.010740831            5 
 3814000   0.66025433   -8.7420034     534.1857  0.011671598  0.010736821            3 
 3815000   0.63370046   -8.7584138    534.08682  0.011666379   0.01073282            5 
 3816000   0.64677526   -8.7513304    534.12426  0.011664139  0.010728817            2 
 3817000   0.63868715   -8.7428873    535.52898  0.011691751  0.010724817            4 
 3818000   0.64557635   -8.7283763    535.69293  0.011692268  0.010720825            5 
 3819000   0.62602161   -8.7291056     534.2107  0.011656863  0.010716836            5 
 3820000   0.64193803   -8.7392052    535.73684  0.011687104  0.010712849            4 
 3821000   0.64325888   -8.7092366    535.39791  0.011676653  0.010708865            6 
 3822000   0.64488802   -8.7349629    534.79597  0.011660474  0.010704885            2 
 3823000    0.6481553   -8.7106814    533.88914  0.011637657  0.010700907            3 
 3824000   0.64538911   -8.7483062    535.82271   0.01167675  0.010696928            5 
 3825000   0.64450145   -8.7311524    535.01309  0.011656059  0.010692951            3 
 3826000    0.6350412   -8.7420978    534.54182  0.011642748  0.010688973            2 
 3827000   0.64237872   -8.7277112     533.9266  0.011626309  0.010684992            2 
 3828000   0.65148538   -8.7186843    534.77879  0.011641823  0.010681024            2 
 3829000   0.63759012   -8.7399953    536.08946  0.011667308  0.010677055            3 
 3830000   0.64581927    -8.770289    534.76565  0.011635458  0.010673079            2 
 3831000   0.63327452   -8.7371075    534.68931   0.01163076  0.010669102            2 
 3832000   0.63197094    -8.736619    535.15417  0.011637834  0.010665127            4 
 3833000   0.63207188   -8.7686558    533.81004  0.011605575  0.010661161            3 
 3834000   0.62773454   -8.7489252    533.45941  0.011594927  0.010657187            5 
 3835000   0.64202643   -8.7407259    534.74574  0.011619855  0.010653214            3 
 3836000   0.64224863   -8.7487415    534.46329   0.01161069  0.010649247            3 
 3837000   0.65211355   -8.7341375    535.09447  0.011621372  0.010645286            3 
 3838000   0.63880726   -8.7637492    534.96194  0.011615467  0.010641319            5 
 3839000   0.63089333   -8.7559043    534.77228  0.011608324  0.010637352            2 
 3840000   0.63556236   -8.7528334    533.77108  0.011583574  0.010633384            4 
 3841000   0.62930516    -8.722701    534.98535  0.011606902  0.010629421            4 
 3842000   0.65130654   -8.7358426    535.07342  0.011605792  0.010625457            4 
 3843000   0.64368927   -8.7593282    534.42979  0.011588815  0.010621496            3 
 3844000   0.63493047   -8.7415338    534.20346  0.011580894  0.010617533            2 
 3845000   0.63234101   -8.7643033    534.93034  0.011593636  0.010613577            4 
 3846000   0.64102735   -8.7420854    535.40901  0.011600993  0.010609624            3 
 3847000   0.63381789   -8.7444741    534.36738  0.011575413  0.010605675            5 
 3848000    0.6357319   -8.7523636    534.86191  0.011583115  0.010601735            3 
 3849000   0.65065639   -8.7187266    534.65242   0.01157557  0.010597787            3 
 3850000   0.62955987   -8.7324876    535.17007  0.011583768  0.010593845            3 
 3851000   0.62079671   -8.7451401    533.59559  0.011546689  0.010589903            5 
 3852000   0.63215773   -8.7505511    535.24878  0.011579456  0.010585963            2 
 3853000   0.63373456   -8.7481318    534.02001  0.011549875  0.010582025            4 
 3854000   0.63930951    -8.758821    534.56069  0.011558569  0.010578092            6 
 3855000   0.63239682   -8.7412728    533.81071  0.011539358   0.01057416            4 
 3856000   0.62916059   -8.7533304    534.91286  0.011560185  0.010570236            3 
 3857000   0.63320478   -8.7459288    534.82812  0.011555357  0.010566314            2 
 3858000   0.62654549   -8.7569474    534.81476  0.011552073  0.010562393            6 
 3859000   0.62594755   -8.7519286    534.48501  0.011541958  0.010558469            3 
 3860000   0.62971939   -8.7495406     535.5303  0.011561535  0.010554547            4 
 3861000   0.64620181   -8.7462307    535.54046   0.01155876   0.01055062            6 
 3862000   0.64607607   -8.7512746    534.43077  0.011531822  0.010546697            3 
 3863000   0.63624138   -8.7610786    533.94935  0.011518452  0.010542774            6 
 3864000   0.62555471   -8.7549408    534.79966  0.011533809  0.010538847            4 
 3865000   0.64439006    -8.757427    535.29022  0.011541402  0.010534918            6 
 3866000   0.63379505   -8.7601251     534.4193  0.011519643  0.010530998            5 
 3867000   0.63481479   -8.7679906     533.1981  0.011490348  0.010527077            5 
 3868000   0.63194126    -8.766635    534.53241  0.011516124  0.010523158            7 
 3869000    0.6351114   -8.7458796    534.20756  0.011506151  0.010519242            6 
 3870000   0.63624537   -8.7499435      534.043  0.011499634  0.010515328            5 
 3871000    0.6392667   -8.7783252    534.11754  0.011498268  0.010511411            4 
 3872000   0.62729302   -8.7457516    534.54729  0.011504547  0.010507506            4 
 3873000   0.62934247   -8.7498418    533.75288  0.011484484  0.010503602            6 
 3874000    0.6216977   -8.7718487    534.44992  0.011496513  0.010499703            3 
 3875000   0.64106595    -8.747864    533.57437  0.011474718  0.010495793            5 
 3876000   0.62733566   -8.7664388     534.9109  0.011500492  0.010491889            5 
 3877000   0.63921921    -8.773375    535.51021  0.011510408  0.010487996            9 
 3878000   0.63102544   -8.7382417    534.78709  0.011491901  0.010484099            4 
 3879000   0.62543164   -8.7371093    534.97845  0.011493049    0.0104802            5 
 3880000   0.64300424   -8.7530669    535.14656  0.011493698  0.010476314            4 
 3881000   0.63743228   -8.7769026     534.5279  0.011477452  0.010472418            2 
 3882000   0.62780224   -8.7564719    533.87925  0.011460571  0.010468527            4 
 3883000   0.63480916   -8.7742778    534.66667  0.011474519  0.010464642            3 
 3884000   0.62117183   -8.7794318    534.03347  0.011457979  0.010460752            6 
 3885000   0.63203901   -8.7669312    533.69302  0.011447727  0.010456861            4 
 3886000   0.61904034   -8.7906629    533.08407  0.011431722  0.010452971            6 
 3887000   0.63664188   -8.7727709    534.82493  0.011466103  0.010449078            4 
 3888000    0.6282525   -8.7811267    534.04725  0.011446486  0.010445193            4 
 3889000   0.63431284   -8.7758827     533.3158  0.011427869  0.010441299            3 
 3890000   0.62887762   -8.7677315    533.82079   0.01143575  0.010437406            3 
 3891000   0.61927407   -8.7738297    533.32582   0.01142221  0.010433514            2 
 3892000   0.63595215   -8.7406024    534.47555  0.011443892  0.010429628            5 
 3893000   0.62383563   -8.7727273    533.76461  0.011425734  0.010425743            4 
 3894000   0.62947584   -8.7694876    533.14873   0.01140962  0.010421864            4 
 3895000    0.6198054   -8.7607479     533.3969     0.011412  0.010417986            3 
 3896000   0.62800068   -8.7640438    533.51502  0.011411598  0.010414109            3 
 3897000   0.62807553   -8.7739538     534.0024  0.011419092  0.010410235            2 
 3898000   0.60968668   -8.7760344    534.29395  0.011422395   0.01040636            4 
 3899000   0.61534617   -8.7752494    534.05334  0.011414323  0.010402479            4 
 3900000   0.63021639   -8.7883146    534.49884  0.011420915  0.010398603            3 
 3901000   0.61683978   -8.7870602    533.55335   0.01139779  0.010394731            5 
 3902000   0.62161351   -8.7816876    533.69655  0.011397927  0.010390859            1 
 3903000   0.62773901   -8.7661186     533.1699  0.011383763  0.010386991            4 
 3904000   0.63391172   -8.7945969    533.62051  0.011390465   0.01038313            7 
 3905000   0.62895463   -8.7872746    533.93211  0.011394198  0.010379261            3 
 3906000   0.60420947   -8.7945972     533.5843   0.01138386  0.010375391            3 
 3907000   0.61102208   -8.7809203    533.38599  0.011376717  0.010371528            4 
 3908000   0.62198623   -8.7839666    532.43722  0.011353574  0.010367662            4 
 3909000   0.64007921   -8.7725434    533.80855  0.011379904  0.010363798            5 
 3910000    0.6356189   -8.7947532    532.79397   0.01135537  0.010359938            3 
 3911000   0.61894391   -8.7817403    533.54261  0.011368418  0.010356085            4 
 3912000   0.61299906   -8.7620182    532.95471  0.011352989   0.01035223            5 
 3913000    0.6298621   -8.7905762    532.88255  0.011348551   0.01034838            2 
 3914000   0.63313393   -8.7956874    532.99654  0.011348078  0.010344525            5 
 3915000   0.62836683   -8.7910877    533.03489  0.011345996  0.010340669            4 
 3916000   0.62217278   -8.7813419    534.05559  0.011364819   0.01033682            3 
 3917000     0.628389    -8.771123    534.51067    0.0113716  0.010332978            3 
 3918000   0.62008545   -8.7778497     533.4489  0.011346114  0.010329143            5 
 3919000   0.62607595   -8.7927345    533.96878  0.011354274  0.010325306            3 
 3920000   0.63401783   -8.7705065    533.36125  0.011338462  0.010321466            2 
 3921000   0.62339167   -8.7631621    534.47127  0.011359162  0.010317634            3 
 3922000   0.62691002    -8.788768    533.62264  0.011338234    0.0103138            6 
 3923000   0.62489442   -8.7908376    533.00756  0.011322278  0.010309965            5 
 3924000   0.61526331   -8.7832076     534.3416  0.011347723  0.010306134            2 
 3925000   0.61604515   -8.7802012    533.97735  0.011337099  0.010302302            2 
 3926000    0.6271947    -8.769892     533.9768  0.011334199  0.010298474            4 
 3927000    0.6316392   -8.7866078    532.37145  0.011297247  0.010294648            3 
 3928000   0.61756381   -8.7707571    533.18668  0.011311666  0.010290827            3 
 3929000   0.62594832   -8.7942834    533.86639  0.011323203  0.010287001            2 
 3930000   0.61058642   -8.7998539    533.70607  0.011316923  0.010283181            3 
 3931000   0.62620735    -8.774029    533.86007  0.011317308  0.010279362            3 
 3932000   0.63160039   -8.7887304    533.95189  0.011316376  0.010275544            3 
 3933000   0.61122395   -8.7768987    534.07072  0.011316017   0.01027173            2 
 3934000   0.63049919    -8.770538    534.58773  0.011324092  0.010267919            3 
 3935000   0.61622765   -8.7953067    534.46263  0.011318565  0.010264106            2 
 3936000   0.62093002   -8.7816258    533.48285  0.011294945  0.010260297            2 
 3937000   0.62470661   -8.8081339    533.45878  0.011291567  0.010256485            3 
 3938000    0.6138773   -8.7983796    533.65064  0.011292759  0.010252671            3 
 3939000   0.62894044   -8.7960524    533.43941  0.011285424   0.01024886            3 
 3940000    0.6336385   -8.8089085    533.39412  0.011281601  0.010245052            3 
 3941000   0.62800335   -8.7928966    532.92455   0.01126881  0.010241249            6 
 3942000   0.62959135   -8.7842788     534.1868  0.011292635  0.010237444            2 
 3943000   0.61756145   -8.7866603     533.9054  0.011283824  0.010233642            4 
 3944000   0.61809389   -8.7845708    533.01718  0.011262195  0.010229841            2 
 3945000   0.62456794   -8.7771525    534.06338   0.01128144  0.010226036            3 
 3946000   0.63136098   -8.8040983    532.94407  0.011254943  0.010222239            3 
 3947000   0.63231084    -8.779626    534.30646  0.011280856  0.010218438            7 
 3948000    0.6188108   -8.7803443    534.18916  0.011275523  0.010214644            3 
 3949000   0.61072875   -8.7818565    532.95322  0.011246586  0.010210857            3 
 3950000   0.61821441   -8.7875376    534.01028   0.01126604  0.010207072            7 
 3951000    0.6178138   -8.7735533     533.5749  0.011254005  0.010203289            5 
 3952000   0.61974529    -8.790987    533.39116  0.011247283  0.010199504            4 
 3953000    0.6070976   -8.7872891    533.90708  0.011255314  0.010195718            2 
 3954000   0.62704105   -8.8133259    532.97236  0.011232768   0.01019194            4 
 3955000   0.62300224   -8.7895368    533.99507  0.011251476  0.010188163            3 
 3956000    0.6145528   -8.7837983    533.57795  0.011239845  0.010184383            4 
 3957000   0.61807275   -8.7894193    533.44464  0.011234198  0.010180603            3 
 3958000   0.61158853    -8.779017    533.61106  0.011234863  0.010176829            4 
 3959000   0.61066602   -8.8060408    533.50271  0.011229745  0.010173053            3 
 3960000    0.6151852   -8.7799997    533.54651  0.011227831  0.010169278            3 
 3961000   0.60829505   -8.7890057    533.14315   0.01121651  0.010165502            2 
 3962000   0.61048932   -8.8027133    533.22825  0.011215469   0.01016173            5 
 3963000   0.62284263   -8.8048141    534.15912  0.011232213  0.010157962            2 
 3964000    0.6336544   -8.8029303    533.70476  0.011219828  0.010154189            2 
 3965000   0.60676389   -8.7792847    533.42703  0.011211161  0.010150417            4 
 3966000   0.61602876   -8.8105795    534.11496  0.011222789  0.010146652            2 
 3967000   0.61457324   -8.8070614    533.39565  0.011204849  0.010142888            3 
 3968000   0.62352387   -8.7903008    533.83734  0.011211302  0.010139128            4 
 3969000   0.61610814   -8.7871173    532.95186  0.011189885  0.010135367            4 
 3970000   0.62359966   -8.7996536    533.05795  0.011189294  0.010131606            3 
 3971000   0.62529738   -8.7870086    532.90239  0.011183211  0.010127853            2 
 3972000   0.60229943   -8.8003879    533.09903  0.011184521  0.010124099            3 
 3973000   0.61207583   -8.7896959    533.45677   0.01118921  0.010120344            2 
 3974000   0.61326893   -8.8007182    532.97285  0.011176247  0.010116593            2 
 3975000   0.61830834   -8.8038666    533.17758  0.011177727  0.010112844            4 
 3976000   0.62603652   -8.8108529    533.56178  0.011182968  0.010109097            3 
 3977000   0.61482265   -8.7941094    533.33196  0.011175341  0.010105353            3 
 3978000   0.62014898   -8.8073919    532.33763  0.011151702   0.01010161            4 
 3979000   0.60462743   -8.7959845    533.29707  0.011168993  0.010097867            2 
 3980000   0.61245501   -8.8004146    533.49468  0.011170324  0.010094123            4 
 3981000   0.60712034   -8.8176363    533.05845  0.011158387  0.010090382            5 
 3982000   0.62912633   -8.8030425    533.57054  0.011166301  0.010086641            4 
 3983000   0.62937041   -8.7874198    534.10556  0.011174692   0.01008291            3 
 3984000   0.61506507   -8.8044663    533.06321  0.011150084  0.010079178            2 
 3985000   0.61910884   -8.8037785     533.1857  0.011149847  0.010075445            3 
 3986000   0.62211965   -8.7779074    533.64815  0.011156718  0.010071714            5 
 3987000   0.61306863   -8.7828571    533.31894  0.011147039  0.010067984            3 
 3988000   0.61062553   -8.7982646    534.43855  0.011167639  0.010064255            4 
 3989000   0.61897627   -8.8156877    532.64691  0.011127411  0.010060528            3 
 3990000   0.62243851   -8.8027827    533.28363   0.01113792  0.010056801            3 
 3991000    0.6305733   -8.7945951    533.26115   0.01113466  0.010053072            3 
 3992000   0.61263625   -8.8064367    533.30064  0.011132695  0.010049343            2 
 3993000   0.61858726   -8.8023647    533.24798  0.011128808  0.010045618            4 
 3994000   0.60331736   -8.8073671    532.15967  0.011103315  0.010041899            3 
 3995000   0.61690154   -8.8074972    533.06825  0.011119488  0.010038175            3 
 3996000   0.60825524   -8.8077217    533.37546  0.011123112  0.010034456            2 
 3997000   0.62307988    -8.823655    532.49517  0.011101976  0.010030737            4 
 3998000   0.61518709   -8.8039765     534.2498  0.011135772  0.010027024            3 
 3999000   0.62160653   -8.8061175    533.17645   0.01111062  0.010023314            4 
 4000000    0.5984158   -8.8020886    533.85797  0.011122041  0.010019609            4 
 4001000   0.61521202   -8.8037655    533.89372  0.011120006  0.010015902            4 
 4002000   0.62026481   -8.7909793    532.78523  0.011094145  0.010012198            4 
 4003000   0.60765679   -8.8029552    533.70885  0.011110601  0.010008495            7 
 4004000   0.62348969    -8.807651    533.15358   0.01109627  0.010004798            2 
 4005000    0.6307625   -8.7984815    533.25279  0.011095564  0.010001097            5 
 4006000   0.61349938   -8.8158806    533.72599  0.011102638 0.0099974001            2 
 4007000   0.62133634   -8.7943796    532.81962  0.011081017 0.0099936981            3 
 4008000   0.61861429   -8.7849655    533.60618  0.011094606 0.0099899986            2 
 4009000   0.61057783   -8.7946371    532.93123  0.011077809  0.009986299            3 
 4010000   0.60864867   -8.8020271    532.33774  0.011062713 0.0099826061            5 
 4011000   0.60563141   -8.8290815     532.9834  0.011073369 0.0099789077            2 
 4012000   0.60549031   -8.8112072    532.88985  0.011068666 0.0099752168            3 
 4013000   0.62561051   -8.8220333    532.75976  0.011063206 0.0099715269            2 
 4014000   0.61731802   -8.8045829    533.37327  0.011073187 0.0099678387            3 
 4015000   0.61403711   -8.7836997    532.57833   0.01105393 0.0099641525            3 
 4016000    0.6076477   -8.8190209    532.76107  0.011054969 0.0099604634            3 
 4017000   0.61258389    -8.817515    532.27218  0.011042075 0.0099567756            5 
 4018000   0.59174933   -8.8240644    532.68833  0.011047958  0.009953093            3 
 4019000   0.60114816   -8.8211597    532.63419  0.011044086 0.0099494019            2 
 4020000   0.60251253    -8.809905    532.55464   0.01103969  0.009945713            4 
 4021000   0.61560028   -8.8090377    532.75054  0.011041004 0.0099420312            2 
 4022000   0.61362026   -8.8173386    532.77506  0.011038767 0.0099383532            2 
 4023000   0.59815541   -8.8126309    533.26515  0.011046175 0.0099346759            4 
 4024000   0.60210453   -8.8010372    532.95662  0.011037041 0.0099309964            3 
 4025000   0.60491506   -8.8273776    533.58836  0.011047378   0.00992732            2 
 4026000   0.59598946    -8.803062     533.7807  0.011048615 0.0099236448            4 
 4027000   0.59726036   -8.8447653    532.87061  0.011027038 0.0099199686            4 
 4028000   0.60592041   -8.8149646    532.52001  0.011017048 0.0099162964            3 
 4029000   0.59845477   -8.8370748    531.23406  0.010987715 0.0099126249            2 
 4030000   0.60943224   -8.8204799    532.57607  0.011012739 0.0099089561            4 
 4031000   0.60168111   -8.8339092    532.50779  0.011008596 0.0099052863            5 
 4032000   0.60571388   -8.8261696    532.81073  0.011012126 0.0099016208            4 
 4033000   0.61651762   -8.8188015    533.22004  0.011017854 0.0098979594            6 
 4034000    0.6100197   -8.7916178    532.06468  0.010991255 0.0098943011            5 
 4035000   0.61339674   -8.7928226    533.00564  0.011007964 0.0098906405            5 
 4036000    0.6073171   -8.8103099     532.9834  0.011004778 0.0098869823            4 
 4037000   0.59832468   -8.8351341    533.49733  0.011012661  0.009883324            7 
 4038000   0.60468802   -8.8491489    531.68116  0.010972453 0.0098796689           11 
 4039000   0.60597661   -8.8240687    533.94633  0.011016471 0.0098760129           10 
 4040000   0.60018816   -8.8317731     532.9885  0.010993987  0.009872359           15 
 4041000   0.60688734   -8.8000833     532.8384  0.010988171 0.0098687113            6 
 4042000   0.59717991    -8.816907    532.64956  0.010981559 0.0098650605            5 
 4043000    0.6042015   -8.8375629    532.71862  0.010980267 0.0098614161            7 
 4044000     0.606315   -8.8324003    533.32006  0.010989945 0.0098577681            4 
 4045000   0.59761199   -8.8095276    532.51807  0.010970706 0.0098541215            7 
 4046000   0.61008693   -8.8290957    533.53894  0.010989021 0.0098504784            3 
 4047000   0.59442284   -8.8177222    533.35589  0.010982536 0.0098468373            3 
 4048000   0.59292764   -8.8038766    532.54754  0.010963182 0.0098431945            7 
 4049000   0.61451216   -8.8324155    531.35914  0.010936016 0.0098395564            4 
 4050000   0.60494316   -8.8166011    532.64129  0.010959697 0.0098359219            4 
 4051000   0.59618276   -8.8292118     532.7969  0.010960193 0.0098322871            4 
 4052000   0.60196636   -8.8310267    533.28631  0.010967553 0.0098286553            7 
 4053000   0.61055358    -8.815845    532.70027  0.010952798 0.0098250192            4 
 4054000   0.59447879   -8.8519167    531.21875  0.010919642 0.0098213873            9 
 4055000   0.60083818    -8.827901    533.43763  0.010962549 0.0098177573            4 
 4056000   0.61325528   -8.8466089    533.32998  0.010957634 0.0098141366            7 
 4057000   0.60360538   -8.8013204    532.50991  0.010938089 0.0098105101            7 
 4058000   0.60560955   -8.8314972    532.21065  0.010929248 0.0098068845            7 
 4059000   0.61134344   -8.8038344    532.77083  0.010938056 0.0098032661            5 
 4060000   0.60003088   -8.8241888     533.3341  0.010946923 0.0097996511            3 
 4061000   0.60144009   -8.8059978    532.14356  0.010919797 0.0097960367            7 
 4062000   0.60882851   -8.8098834    532.61175  0.010926714  0.009792424            5 
 4063000   0.60661977    -8.832536    532.73543  0.010926561 0.0097888055            6 
 4064000   0.60404036   -8.8105307    533.40832  0.010937671 0.0097851921            3 
 4065000   0.59903834   -8.8315977    533.00594  0.010926731 0.0097815809            7 
 4066000   0.60927113   -8.7999507    533.56896  0.010935583 0.0097779716            4 
 4067000   0.59989959    -8.838749    532.98035  0.010920833 0.0097743611            4 
 4068000   0.60491099   -8.8356567    532.11078  0.010900335 0.0097707483            2 
 4069000   0.60946541   -8.8149823    532.76395  0.010911034 0.0097671449            3 
 4070000   0.59392216   -8.8210979    532.83163  0.010909738 0.0097635339            6 
 4071000   0.60068158     -8.82749    532.38871  0.010897992 0.0097599251            4 
 4072000     0.594141   -8.8201269    532.30674  0.010893638 0.0097563194            7 
 4073000   0.60024667    -8.838613    532.58537  0.010896664 0.0097527127            3 
 4074000   0.60478117   -8.8362405    532.46578  0.010891543 0.0097491136            2 
 4075000    0.6067103   -8.8326893      532.268  0.010884826  0.009745511            6 
 4076000   0.60543386   -8.8463367    531.82291  0.010873056  0.009741912            5 
 4077000   0.60767473   -8.8236209    533.11357   0.01089677 0.0097383202           10 
 4078000   0.59712555   -8.8202021    533.84038   0.01090895 0.0097347308           11 
 4079000   0.59705907   -8.8377976    532.08572  0.010870428 0.0097311406            9 
 4080000   0.59863462   -8.8440994    533.50926  0.010896839 0.0097275516            6 
 4081000   0.61290056   -8.8434436     532.2614  0.010868688 0.0097239643            5 
 4082000    0.5949591   -8.8150743    533.15031  0.010884173 0.0097203823           12 
 4083000   0.58985768   -8.8327468    532.33075   0.01086478  0.009716802           10 
 4084000   0.59665142    -8.815916    532.58134  0.010867233 0.0097132151           11 
 4085000   0.59455344   -8.8162177    531.79976  0.010848628 0.0097096356           11 
 4086000   0.59772574   -8.8147822    532.70836  0.010864504 0.0097060547            6 
 4087000   0.60399145   -8.8256818    532.58495  0.010859329 0.0097024761            8 
 4088000   0.59864306   -8.8378449     532.3395   0.01085167 0.0096988977            6 
 4089000    0.6003487   -8.8265956    533.15295  0.010865594 0.0096953208            4 
 4090000    0.5828797   -8.8506312     532.5089  0.010849815 0.0096917469           14 
 4091000   0.59745267   -8.8331456    533.14261  0.010860071 0.0096881749           10 
 4092000   0.60374604   -8.8373211     532.4965  0.010844259 0.0096846043            8 
 4093000    0.5903746   -8.8268694    532.93914  0.010850622 0.0096810351            5 
 4094000   0.60140732   -8.8136289    532.90736  0.010847325 0.0096774631           17 
 4095000   0.59364439   -8.8148135    532.59415  0.010838302 0.0096738995            6 
 4096000   0.61308215    -8.842647    531.48097  0.010813008 0.0096703326            8 
 4097000   0.60544772   -8.8225527    533.30588  0.010847488 0.0096667681            7 
 4098000   0.58190842   -8.8532391    532.31298   0.01082465 0.0096632098            8 
 4099000   0.59522704   -8.8336379    531.93908  0.010814408 0.0096596534            5 
 4100000   0.61247328   -8.8331523    532.17342  0.010816533 0.0096560995           12 
 4101000   0.60129745   -8.8458628    531.90188  0.010808378  0.009652547           20 
 4102000   0.59374506   -8.8386157     532.7125  0.010822211 0.0096489949           17 
 4103000    0.5894551   -8.8338352    532.36124  0.010812439 0.0096454404           12 
 4104000   0.58708253   -8.8399257    532.62553  0.010815171 0.0096418901           14 
 4105000   0.58716796   -8.8193501    533.44911  0.010829255 0.0096383427           18 
 4106000   0.59799437   -8.8304859    532.51713  0.010807703 0.0096348012           19 
 4107000   0.59063374   -8.8346778    531.89353  0.010792418 0.0096312616           12 
 4108000   0.58107606    -8.853695    531.86988  0.010789311 0.0096277197           10 
 4109000   0.59249053   -8.8308853    532.81036  0.010805759 0.0096241782           18 
 4110000   0.58434412   -8.8405668    532.44224  0.010795666 0.0096206381           17 
 4111000   0.59596484   -8.8485027    532.00461  0.010784169 0.0096170981           17 
 4112000   0.59128959   -8.8483272    532.18774  0.010785257  0.009613561            9 
 4113000   0.59715685   -8.8568599    531.99205   0.01077867 0.0096100182           20 
 4114000   0.58043885   -8.8475555    531.23769   0.01076077 0.0096064773           12 
 4115000   0.58750593   -8.8597477     532.8952  0.010791721 0.0096029435           15 
 4116000   0.60346733   -8.8486864    532.19358  0.010774894 0.0095994127           17 
 4117000   0.59809051   -8.8409927    531.66408  0.010761559 0.0095958875           10 
 4118000   0.59031053   -8.8484356    532.41561  0.010774154  0.009592361           16 
 4119000   0.57972146   -8.8549285    532.82245   0.01077977 0.0095888361            7 
 4120000   0.59510476   -8.8642131    533.17299  0.010784243 0.0095853084           16 
 4121000   0.58588249   -8.8489742    531.85818  0.010755039 0.0095817837            7 
 4122000   0.58315232   -8.8363764    531.55997  0.010746401 0.0095782555           14 
 4123000    0.5942691   -8.8707969     531.2852  0.010738241 0.0095747306           10 
 4124000    0.5941631   -8.8568651    532.61321  0.010762472 0.0095712084           11 
 4125000   0.59943377   -8.8567046    532.43614  0.010756286 0.0095676835           16 
 4126000    0.5795621   -8.8325315    532.53168  0.010755608 0.0095641557           16 
 4127000   0.59407447   -8.8450202    531.69061  0.010736019  0.009560637           20 
 4128000   0.59230018   -8.8349032    532.29198  0.010745558 0.0095571179           18 
 4129000   0.59287768   -8.8561616    532.55901  0.010748345 0.0095536039           13 
 4130000   0.59110312   -8.8386524    532.56141  0.010745791 0.0095500902           16 
 4131000    0.5976455   -8.8292065    532.47505  0.010741448 0.0095465765           15 
 4132000   0.57942202   -8.8424027    531.49302  0.010719043 0.0095430675           11 
 4133000   0.58331092   -8.8526214    531.54594  0.010717516  0.009539556           10 
 4134000   0.61535117   -8.8760479    531.29543  0.010709874 0.0095360508            9 
 4135000   0.60100097   -8.8559735    532.07501  0.010722995 0.0095325439           19 
 4136000   0.58404995   -8.8430148    532.07826  0.010720468 0.0095290382           19 
 4137000   0.60529449   -8.8418006     531.3619  0.010703447 0.0095255373           10 
 4138000   0.58894593    -8.832772    530.66729  0.010686872 0.0095220369           11 
 4139000   0.57749335   -8.8458942    532.50196  0.010721228 0.0095185397            6 
 4140000   0.58879326   -8.8539257    531.92995  0.010707125 0.0095150447            6 
 4141000   0.59019406   -8.8532735    532.14384  0.010708843 0.0095115556           10 
 4142000   0.58238481   -8.8527003    531.69362    0.0106972 0.0095080604           12 
 4143000   0.60389243   -8.8573385    531.82943   0.01069735 0.0095045662            8 
 4144000    0.5832534   -8.8510607    531.57147  0.010689581 0.0095010724           12 
 4145000   0.58501607   -8.8516451     531.7921  0.010691438 0.0094975822            8 
 4146000   0.58507357    -8.869454    531.69265   0.01068686 0.0094940884           11 
 4147000   0.58684971   -8.8561576    533.18167  0.010714205  0.009490599            8 
 4148000   0.57999673   -8.8819388     531.9272  0.010686419 0.0094871069            9 
 4149000   0.60147937   -8.8766514    530.70002  0.010659195 0.0094836185           11 
 4150000   0.60219599   -8.8687427    531.60662  0.010674832 0.0094801287           12 
 4151000   0.58423914   -8.8548648    532.81458   0.01069651 0.0094766453           16 
 4152000   0.57307083   -8.8477204    532.28658  0.010683337 0.0094731606           15 
 4153000   0.58894364   -8.8294445    532.06649  0.010676348 0.0094696776            7 
 4154000   0.58660791    -8.853886    532.30605  0.010678584 0.0094661963           13 
 4155000   0.58761231   -8.8580247    532.31544  0.010676202 0.0094627136           11 
 4156000   0.59061774   -8.8578738    532.09619  0.010669237 0.0094592359            8 
 4157000   0.58667681   -8.8567542    530.94733   0.01064364 0.0094557595           10 
 4158000   0.59977271   -8.8475904    532.10784  0.010664339 0.0094522823            8 
 4159000   0.58919685    -8.855802    531.08028  0.010641185 0.0094488091           12 
 4160000   0.59545762   -8.8574927    531.40052  0.010645042 0.0094453349           14 
 4161000   0.57119899   -8.8581844    531.55132  0.010645504 0.0094418613           10 
 4162000   0.58893907    -8.851444    532.90919  0.010670134 0.0094383933           13 
 4163000    0.5769855   -8.8770665    531.66106  0.010642587 0.0094349239           10 
 4164000   0.58372536    -8.862289    531.60923  0.010638994 0.0094314541            9 
 4165000   0.58663045    -8.862461    532.37199  0.010651701 0.0094279862           14 
 4166000   0.57887373   -8.8700505    531.41012  0.010629903 0.0094245178           14 
 4167000   0.59621403    -8.870044    531.88231  0.010636795 0.0094210508           11 
 4168000    0.6016979   -8.8479327    531.17551  0.010620112 0.0094175886            7 
 4169000   0.58245584   -8.8604062    531.63955   0.01062684 0.0094141233           13 
 4170000   0.57645172   -8.8617117    530.77433  0.010607001 0.0094106596            6 
 4171000    0.5716109    -8.868976    531.02095  0.010609385  0.009407199           12 
 4172000   0.59119407   -8.8567053    531.78141  0.010622032 0.0094037426           17 
 4173000   0.58191533    -8.879711    531.35897  0.010611051 0.0094002891           12 
 4174000   0.58180422    -8.891408    531.70841  0.010615485 0.0093968349           15 
 4175000   0.57637577   -8.8663336    531.37478  0.010606283 0.0093933812           13 
 4176000   0.59014741   -8.8527843    530.71683  0.010590614 0.0093899285           16 
 4177000   0.57877655   -8.8711787    531.02653  0.010594257 0.0093864746           13 
 4178000   0.58193039   -8.8817764    532.27248  0.010616572 0.0093830327            8 
 4179000   0.58370649   -8.8728315    531.35225  0.010595682  0.009379586           11 
 4180000    0.5745908   -8.8960082    531.50396  0.010596171  0.009376142            8 
 4181000   0.58717868    -8.869309     531.6653  0.010596853 0.0093727018           12 
 4182000   0.58368456   -8.8724826    531.01413  0.010581343 0.0093692582            9 
 4183000   0.57655915   -8.8514727     532.5407  0.010609226  0.009365814            5 
 4184000   0.59106852    -8.877955    531.57009  0.010587358  0.009362375           11 
 4185000   0.59090884   -8.8833426    531.03936   0.01057426 0.0093589404            5 
 4186000   0.58608173   -8.8632773    532.36667  0.010598158 0.0093555031           11 
 4187000   0.58305377   -8.8743254     530.7813  0.010564073 0.0093520696           16 
 4188000   0.59725055   -8.8681612    530.83568  0.010562633 0.0093486372           12 
 4189000   0.58706987    -8.853749     530.9752  0.010562887 0.0093452059           10 
 4190000   0.58146736   -8.8716431    532.04063  0.010581556 0.0093417752           15 
 4191000   0.57712677   -8.8704522    531.87217  0.010575681 0.0093383459           16 
 4192000   0.59221438   -8.8575027     532.2752  0.010581171 0.0093349187           14 
 4193000   0.57293133   -8.8815202    531.05058  0.010554308 0.0093314901            7 
 4194000   0.58219672   -8.8817012    530.83046  0.010547418 0.0093280652            8 
 4195000   0.59001821   -8.8556613     531.0051  0.010548373 0.0093246465            5 
 4196000   0.56943284   -8.8559105    531.42301  0.010554159 0.0093212286            6 
 4197000    0.5791785   -8.8580384    531.21426  0.010547499 0.0093178123            9 
 4198000   0.58076396   -8.8904337    532.16504  0.010563861 0.0093143948            8 
 4199000   0.58633143   -8.8675003    531.27489  0.010543679 0.0093109782           12 
 4200000   0.57161188   -8.8787633    531.27258  0.010541123 0.0093075655            9 
 4201000    0.5766114   -8.8753515    531.48414   0.01054281 0.0093041516            9 
 4202000    0.5815046   -8.8885565    531.40561  0.010538744 0.0093007425            9 
 4203000   0.58819122   -8.8736225    531.37388  0.010535607 0.0092973324           10 
 4204000   0.57402753   -8.8934922    531.34334  0.010532496 0.0092939253           17 
 4205000   0.56521919   -8.8882314    530.59096  0.010515081 0.0092905179           13 
 4206000   0.58699095   -8.8895349    530.72133  0.010515163 0.0092871093           13 
 4207000   0.57345272   -8.8782048     530.8631  0.010515472  0.009283704           17 
 4208000   0.56660914   -8.8748657    531.46516  0.010524896 0.0092803047           11 
 4209000   0.57533889   -8.8644086    531.70366  0.010527118  0.009276906            8 
 4210000   0.58013743   -8.8760529    531.77405  0.010526011 0.0092735068           10 
 4211000   0.57874894   -8.8618823    530.89831   0.01050618  0.009270107           11 
 4212000   0.58002346   -8.8794196    530.78408  0.010501426 0.0092667085            3 
 4213000   0.57532583   -8.8850701    531.06187  0.010504428 0.0092633092            4 
 4214000   0.57658012   -8.8944144    531.13525  0.010503386 0.0092599133           10 
 4215000   0.57199949   -8.8965877    530.64182  0.010491139 0.0092565189           11 
 4216000   0.57184989   -8.8991229    530.69641   0.01048973 0.0092531238           12 
 4217000   0.57968852   -8.8522813    531.61466  0.010505388 0.0092497332            3 
 4218000   0.58115125   -8.8711341    530.88452  0.010488472 0.0092463467           17 
 4219000   0.58957011   -8.8738646    531.24354  0.010493078 0.0092429601            6 
 4220000    0.5749852   -8.8769474    532.03298  0.010506181 0.0092395759            4 
 4221000   0.58655709   -8.8772065    531.41231  0.010491438 0.0092361897           12 
 4222000    0.5779402   -8.8811861    531.20406  0.010484843 0.0092328072            3 
 4223000   0.57630953    -8.873866     530.3066   0.01046465 0.0092294283            5 
 4224000   0.57978834   -8.8774432    531.41194  0.010483979 0.0092260457           10 
 4225000   0.58088923   -8.8688347    531.46324   0.01048251 0.0092226638            9 
 4226000   0.58117173   -8.8947249    532.11517  0.010492885 0.0092192933            9 
 4227000   0.57005648   -8.8927403    531.51865  0.010478642 0.0092159185           10 
 4228000    0.5591951   -8.8844521    531.45572  0.010474924  0.009212546           13 
 4229000   0.55717065   -8.8967836    530.79484  0.010459424 0.0092091705            9 
 4230000   0.56836259   -8.8926145    532.68031  0.010494096 0.0092058054           10 
 4231000   0.58208349   -8.8658387    531.46568  0.010467692 0.0092024374            9 
 4232000   0.56706641   -8.8652533    531.36336  0.010463204 0.0091990755            6 
 4233000   0.57559404   -8.8470708     531.5258   0.01046393 0.0091957123           10 
 4234000   0.57579044   -8.8754235    531.63873  0.010463681 0.0091923522            8 
 4235000   0.57876972   -8.8782783    530.58433  0.010440463 0.0091889895            9 
 4236000   0.58039716   -8.8775725    531.43781  0.010454788 0.0091856345            4 
 4237000   0.56776898   -8.8752394    531.31683  0.010449942 0.0091822763            7 
 4238000   0.57077077   -8.8657538    531.50136  0.010451104 0.0091789232           12 
 4239000   0.57704727   -8.8846939    531.35738  0.010445808 0.0091755674            2 
 4240000    0.5866282   -8.8770432    532.16661  0.010459249 0.0091722134            5 
 4241000   0.58204477   -8.8762173    530.77666  0.010429471 0.0091688633            3 
 4242000   0.57790762   -8.8734285    530.96652  0.010430743 0.0091655137            5 
 4243000    0.5813345   -8.8661632    531.70419  0.010442772 0.0091621675            6 
 4244000   0.55623693   -8.8798043    531.90391  0.010444233 0.0091588214            3 
 4245000   0.56425525   -8.8848986    531.83206  0.010440362 0.0091554755            2 
 4246000   0.58143809   -8.8971041    531.69472  0.010435208 0.0091521334           13 
 4247000   0.59532937   -8.8723963    531.96072   0.01043797 0.0091487925            4 
 4248000   0.56888913   -8.8823277    530.65974  0.010409992 0.0091454531            4 
 4249000   0.57715111     -8.88776    531.44795  0.010423001 0.0091421156            3 
 4250000    0.5660529   -8.8674577    531.75347  0.010426539 0.0091387828            6 
 4251000   0.57165163   -8.8850703    531.28392  0.010414881 0.0091354492            2 
 4252000   0.56846718   -8.8941133    531.64328  0.010419475 0.0091321197            4 
 4253000   0.57778045   -8.8797591    531.29551  0.010410211 0.0091287895            4 
 4254000   0.56518011   -8.8669035    531.44612  0.010410714 0.0091254622            3 
 4255000   0.57168983   -8.8742204    531.46391  0.010408616 0.0091221352            2 
 4256000   0.56650565   -8.8898833    531.44227  0.010405746 0.0091188104            1 
 4257000   0.57378086   -8.8855872    531.67295  0.010407817 0.0091154889            7 
 4258000     0.574819   -8.8777391    530.42858   0.01038102 0.0091121627            3 
 4259000   0.56223121   -8.8980947     530.7704   0.01038527 0.0091088382            2 
 4260000     0.563669   -8.8852542    530.14224  0.010370545  0.009105516            4 
 4261000   0.56695215   -8.8944871    530.71251  0.010379264  0.009102194            2 
 4262000   0.57604688    -8.900734    530.75362  0.010377632 0.0090988755            3 
 4263000    0.5756955   -8.8868296    531.15674  0.010383078   0.00909556            1 
 4264000   0.55296186   -8.8765889    531.79382  0.010393094 0.0090922473            4 
 4265000   0.57568305   -8.8905205    531.48108  0.010384546 0.0090889324            4 
 4266000    0.5769807   -8.8906442    531.30347  0.010378642 0.0090856208            3 
 4267000   0.57095962   -8.8977466    530.26302   0.01035589 0.0090823097            3 
 4268000   0.57711301   -8.8934957    530.14885  0.010351235 0.0090790016            4 
 4269000   0.58151851   -8.9070903    531.16725   0.01036869  0.009075693            3 
 4270000   0.56823085   -8.8824828    530.70823  0.010357304 0.0090723829            5 
 4271000   0.57755396     -8.88383    531.87029  0.010377552 0.0090690757            4 
 4272000   0.55450132   -8.9027417    531.07237  0.010359558 0.0090657699            5 
 4273000   0.56445959   -8.8816936    530.86008  0.010352993 0.0090624677            5 
 4274000   0.56434776     -8.88174    530.80896  0.010349574 0.0090591644            4 
 4275000   0.57846437   -8.8659281    530.84073  0.010347773 0.0090558636            3 
 4276000   0.56268019   -8.8860629    531.89143  0.010365829 0.0090525694            3 
 4277000    0.5648333   -8.9023888    531.15674  0.010349091 0.0090492766            2 
 4278000   0.56349969   -8.8984647    531.12316  0.010346018 0.0090459822            5 
 4279000   0.56184953   -8.8871086    530.98599  0.010340928 0.0090426892            8 
 4280000   0.57596043   -8.8692153    531.27034  0.010344049 0.0090394003            4 
 4281000   0.56498038   -8.8906895    530.66678  0.010329884 0.0090361079            4 
 4282000   0.56615545   -8.8861834    530.45186  0.010323289 0.0090328175            3 
 4283000   0.56691422   -8.8770482    530.74636  0.010326608 0.0090295318            3 
 4284000   0.56117382   -8.9034701    530.66003  0.010322519 0.0090262456            3 
 4285000   0.56371911    -8.905406     530.2758  0.010312637 0.0090229566            4 
 4286000   0.56232049   -8.8874093    531.14199  0.010327073 0.0090196723            2 
 4287000   0.55846274   -8.8788392    531.48022  0.010331238 0.0090163909            4 
 4288000   0.56517222   -8.8851454    530.59099  0.010311548 0.0090131115            3 
 4289000    0.5663233   -8.8904542    530.51117  0.010307592 0.0090098323            4 
 4290000   0.57161009   -8.8896336    531.02735  0.010315217 0.0090065578            4 
 4291000    0.5681398   -8.8964315     530.2184  0.010297102 0.0090032817            3 
 4292000    0.5555274   -8.8844054    530.52228  0.010300603 0.0090000055            3 
 4293000   0.56142533   -8.8877918    530.93459  0.010306208 0.0089967319            6 
 4294000   0.56010485   -8.8880491    530.69618  0.010299181 0.0089934564            3 
 4295000   0.56821031    -8.900478    530.37661  0.010290582 0.0089901849            5 
 4296000   0.55929406   -8.9106799    530.64654  0.010293423 0.0089869153            2 
 4297000   0.55846542   -8.9019826    531.32819  0.010304247 0.0089836423            6 
 4298000   0.57162886   -8.9001077    530.79341  0.010291481 0.0089803739            3 
 4299000   0.56866157   -8.9008504    530.59515  0.010285244 0.0089771016            3 
 4300000   0.56261465   -8.8839493    532.17113  0.010313394 0.0089738356            2 
 4301000   0.55384558   -8.8955264    531.37996  0.010295667  0.008970571           12 
 4302000   0.55892939   -8.9024946      530.397  0.010274233 0.0089673098            4 
 4303000     0.561678   -8.8995531    530.83478  0.010280323 0.0089640491            3 
 4304000   0.57731674   -8.9062603    530.02004   0.01026216 0.0089607919            5 
 4305000   0.55995941   -8.8802359    530.85982  0.010276032 0.0089575323            2 
 4306000   0.56585482   -8.8839883    530.91287  0.010274672 0.0089542758            4 
 4307000   0.55951267   -8.9139005    530.83276  0.010270737 0.0089510198            3 
 4308000   0.56744657   -8.9059722    529.60888  0.010244678 0.0089477648            2 
 4309000   0.56866866   -8.9165946    530.62335   0.01026192 0.0089445119            4 
 4310000   0.56050749   -8.9168262    530.47644  0.010256698 0.0089412624            3 
 4311000   0.57008189   -8.9147423    530.82372  0.010261032 0.0089380133            4 
 4312000   0.55756551   -8.8850077    531.27149  0.010267306 0.0089347681            2 
 4313000   0.56694858   -8.8899728    530.55837  0.010251147 0.0089315226            1 
 4314000   0.56002514      -8.8935    530.25312  0.010242874 0.0089282745            2 
 4315000   0.56694426     -8.90671    530.38693  0.010243085 0.0089250271            2 
 4316000   0.55440745   -8.9204869    530.88708  0.010250368 0.0089217822            2 
 4317000   0.56080303   -8.9096159    531.55782  0.010260942 0.0089185426            3 
 4318000   0.55689818   -8.9044687    529.99832  0.010228468 0.0089153014            7 
 4319000   0.56186756   -8.8942543    531.26324  0.010250506 0.0089120646            3 
 4320000   0.56990035   -8.8924493    530.86713  0.010240493 0.0089088292            5 
 4321000   0.56860036   -8.9007213    530.68185  0.010234549 0.0089055943            3 
 4322000   0.55482449   -8.8971551    530.76755  0.010233834 0.0089023667            4 
 4323000   0.54289486   -8.9236491     530.3886  0.010224161 0.0088991338            9 
 4324000   0.55828538   -8.9265399    530.96943  0.010232991 0.0088959044            3 
 4325000   0.55283954   -8.8944332    531.05361  0.010232247  0.008892672            3 
 4326000   0.56740768   -8.9030084    531.46653  0.010237836 0.0088894462            2 
 4327000   0.56542635   -8.9075625     530.1579  0.010210267 0.0088862222            4 
 4328000   0.56987519   -8.9019116     529.8855  0.010202663 0.0088830007            4 
 4329000   0.56396272   -8.9005181    531.22312  0.010226055 0.0088797754            5 
 4330000    0.5588329   -8.9093191     530.4429  0.010208678  0.008876554            2 
 4331000   0.55605652   -8.9070903    530.25445  0.010202695 0.0088733342            3 
 4332000    0.5636798   -8.8957739    529.46385  0.010185131 0.0088701165            5 
 4333000   0.55785514   -8.9044234    530.23503  0.010197612 0.0088668972            6 
 4334000   0.56347582   -8.9018719    530.10443  0.010192748  0.008863683            4 
 4335000   0.56527441   -8.8963333    531.08615  0.010209269 0.0088604727            2 
 4336000   0.55691032   -8.9104676    530.46842  0.010195042 0.0088572664            5 
 4337000   0.55540134   -8.8989829    530.99339  0.010202778 0.0088540553            2 
 4338000   0.55510075   -8.9027131    529.99199  0.010181189 0.0088508489            5 
 4339000    0.5601837   -8.8996211    530.99433  0.010198093 0.0088476462            3 
 4340000   0.54983895   -8.9122143    529.74105  0.010171679 0.0088444395            4 
 4341000   0.55343615    -8.910904    529.92493  0.010172866 0.0088412366            3 
 4342000   0.55207109   -8.8951352    530.76998  0.010186742 0.0088380331            5 
 4343000   0.55694262   -8.9059916      530.908  0.010187044 0.0088348346            3 
 4344000   0.55988657   -8.9135939    530.27121  0.010172483 0.0088316355            3 
 4345000    0.5537674   -8.9038951    529.99242  0.010164795 0.0088284344            3 
 4346000   0.54933307   -8.9065585    529.75096  0.010157826 0.0088252373            3 
 4347000   0.55739887   -8.9266107    530.81721   0.01017593 0.0088220373            5 
 4348000   0.55993645   -8.9255421    530.30754  0.010163821 0.0088188454            4 
 4349000   0.55113639   -8.9128702    530.94669  0.010173731 0.0088156474            4 
 4350000   0.55861387   -8.9238249    530.27465  0.010158518  0.008812455            3 
 4351000   0.56080451   -8.9218325    529.98693  0.010150673 0.0088092647            4 
 4352000   0.55433125   -8.9137207    530.74907  0.010162934 0.0088060779            5 
 4353000    0.5541155   -8.8998095    529.60655  0.010138727 0.0088028901            3 
 4354000   0.56289761   -8.9295358    529.75207  0.010139184 0.0087997024            5 
 4355000   0.55271642   -8.9168695     530.4303  0.010149834 0.0087965184            8 
 4356000   0.55024495   -8.9089528    530.61961  0.010151125 0.0087933348            5 
 4357000   0.56612897   -8.8997009    529.72647  0.010131713 0.0087901531            5 
 4358000   0.55730417   -8.9150365    529.91974  0.010133084 0.0087869726            4 
 4359000   0.54593194   -8.9156421    530.18685  0.010135865 0.0087837917            2 
 4360000   0.55546495    -8.916081    529.81961  0.010126522 0.0087806119            4 
 4361000   0.54809719   -8.9273581     530.7369  0.010141728 0.0087774358            3 
 4362000    0.5543837      -8.9193    530.26682  0.010130422 0.0087742608            3 
 4363000   0.53844005   -8.9243151    530.97283  0.010141585 0.0087710881            5 
 4364000   0.54796364   -8.9324203    530.71837  0.010134402 0.0087679132            6 
 4365000   0.55943534   -8.9143118    530.32027   0.01012448 0.0087647417            3 
 4366000   0.54336417   -8.9232074    529.63991  0.010109175 0.0087615725            4 
 4367000   0.54372428   -8.9168494    530.66147  0.010126354 0.0087584064            4 
 4368000   0.55170056   -8.9218202    530.48966  0.010120758 0.0087552405            2 
 4369000   0.55824223   -8.9282306    530.05401  0.010110132 0.0087520749            4 
 4370000   0.55930455   -8.9352372    530.08176  0.010108348 0.0087489145            4 
 4371000    0.5528465   -8.9178179    529.56911  0.010096262 0.0087457489            3 
 4372000   0.54893374   -8.9217205    530.08736  0.010103831 0.0087425877            6 
 4373000    0.5559692   -8.9304278    529.79874   0.01009602 0.0087394288            4 
 4374000   0.54929968   -8.9115927    529.97465  0.010097063 0.0087362698            2 
 4375000   0.54461859   -8.9159901    530.61569  0.010106966 0.0087331116            2 
 4376000    0.5527438   -8.9288925    530.37407  0.010100055 0.0087299555            5 
 4377000   0.54737317   -8.9092623    530.49482  0.010100046 0.0087268035            3 
 4378000   0.55113674   -8.9092953    530.21525  0.010092418 0.0087236486            4 
 4379000   0.54405784   -8.8998008    530.86456  0.010102469 0.0087204968            4 
 4380000   0.54376908    -8.916921    530.30705  0.010089556 0.0087173463            6 
 4381000   0.55945517   -8.9369706    529.69017  0.010075519 0.0087141968            2 
 4382000   0.55416485   -8.9241486    530.41664  0.010087035 0.0087110477            4 
 4383000   0.55556842   -8.9231711    530.36342  0.010083722 0.0087079025            2 
 4384000   0.54258938   -8.9227289     530.2969  0.010080157 0.0087047603            5 
 4385000   0.54380151     -8.91005    530.00598  0.010072329 0.0087016158            2 
 4386000   0.53918792   -8.9181845    531.22673  0.010093227 0.0086984757            5 
 4387000   0.53945987    -8.938594    529.55087  0.010059093 0.0086953357            4 
 4388000   0.55691768   -8.9125452     529.6886  0.010059416 0.0086921937            5 
 4389000   0.54150268    -8.926373     529.5399  0.010054301 0.0086890534            2 
 4390000   0.54770312   -8.8992522    530.80249  0.010075977 0.0086859189            3 
 4391000   0.54962417    -8.926893    530.02354    0.0100589 0.0086827858            4 
 4392000   0.53642575    -8.934699    529.91237    0.0100545 0.0086796525            4 
 4393000   0.55353876   -8.9292067    530.76526   0.01006839 0.0086765203            2 
 4394000   0.53824428   -8.9491535    529.51911  0.010042465 0.0086733871            3 
 4395000   0.55088907   -8.9274672    530.24419  0.010053928  0.008670258            3 
 4396000   0.55199852   -8.9112883      529.547  0.010038425 0.0086671288            2 
 4397000   0.53846308   -8.9336101    530.71066  0.010058196 0.0086639997            5 
 4398000   0.54807889   -8.9072155    529.86418   0.01003987  0.008660875            4 
 4399000    0.5517547   -8.9323273    529.82209   0.01003679 0.0086577503            4 
 4400000   0.55211241   -8.9390092    531.07585  0.010058255 0.0086546294            6 
 4401000   0.55047841   -8.9310614    528.78751  0.010012639 0.0086515079            4 
 4402000    0.5470316   -8.9438151    529.91923  0.010031789 0.0086483872            5 
 4403000   0.53508668   -8.9137717    529.90784  0.010029295 0.0086452698            6 
 4404000   0.54830333   -8.9459162      529.585  0.010020909 0.0086421511            5 
 4405000    0.5549848   -8.9244995    530.73001  0.010040295 0.0086390348            5 
 4406000   0.55262177   -8.9346241    530.07315  0.010025593 0.0086359211            3 
 4407000    0.5480032   -8.9323493    530.92482  0.010039422 0.0086328086            3 
 4408000    0.5339393   -8.9297666    529.75799  0.010015086 0.0086296952            4 
 4409000   0.54469359   -8.9240035    530.74686  0.010031505 0.0086265834            4 
 4410000   0.55016378   -8.9106081    529.82631  0.010011835 0.0086234722            2 
 4411000   0.54942069   -8.9403797    529.54456  0.010004242 0.0086203647            5 
 4412000   0.55434229   -8.9392255    530.43569  0.010018807 0.0086172573            2 
 4413000   0.55052909   -8.9261167    529.93796  0.010007137 0.0086141521            5 
 4414000   0.54855876   -8.9484401    529.19941 0.0099909268 0.0086110467            3 
 4415000   0.55390228   -8.9201415    530.32209  0.010009854 0.0086079419            4 
 4416000   0.53293939   -8.9396014    528.89799  0.009980714 0.0086048394            3 
 4417000   0.54692772   -8.9212013    529.98907 0.0099990392 0.0086017388            2 
 4418000   0.54508864   -8.9350737    530.11324 0.0099991179 0.0085986401            2 
 4419000    0.5480858   -8.9182115    529.61313 0.0099874241  0.008595542            1 
 4420000   0.54149701   -8.9200641    530.69652   0.01000559  0.008592449            3 
 4421000   0.55454851   -8.9277934    530.12956 0.0099926405 0.0085893535            4 
 4422000   0.54555243   -8.9310187    529.92038 0.0099864386 0.0085862616            5 
 4423000   0.54470502   -8.9385092    530.05813 0.0099867762 0.0085831709            9 
 4424000    0.5521847   -8.9435035    530.40104  0.009990978 0.0085800793            3 
 4425000   0.53672771   -8.9353078    529.96252 0.0099804617 0.0085769909            3 
 4426000   0.53327815   -8.9009375    530.13917 0.0099815329 0.0085739037            6 
 4427000   0.55228756   -8.9466181    529.64813 0.0099700349 0.0085708204            6 
 4428000   0.54951522   -8.9245231    530.72275 0.0099880071 0.0085677385            3 
 4429000   0.54575135   -8.9478216    529.67171 0.0099659762 0.0085646552            4 
 4430000   0.54168084    -8.911399    529.88964 0.0099678263 0.0085615725            4 
 4431000   0.55400103   -8.9243681    529.58615 0.0099598689 0.0085584931            4 
 4432000   0.53725114   -8.9490628    530.36008 0.0099721736 0.0085554113            7 
 4433000   0.53695148    -8.914627    530.79799  0.009978156 0.0085523338            5 
 4434000   0.54958839   -8.9289371    529.66863 0.0099546804 0.0085492593            6 
 4435000   0.53865933   -8.9307989    530.30681 0.0099644272 0.0085461848            2 
 4436000   0.55649425   -8.9258189    529.67954 0.0099503971  0.008543113            4 
 4437000   0.53696477   -8.9242188    529.38548 0.0099426316 0.0085400405            3 
 4438000   0.55550732   -8.9316898    529.57713 0.0099439899 0.0085369689            6 
 4439000   0.55170018   -8.9219257    530.49956 0.0099590665 0.0085339007            5 
 4440000   0.55236888   -8.9503692    529.23582 0.0099331047 0.0085308337            5 
 4441000   0.55636706   -8.9428009    529.57665 0.0099372636 0.0085277677            3 
 4442000    0.5464293    -8.948981    529.58815 0.0099352422 0.0085247039            4 
 4443000   0.53827573   -8.9423848    530.51312 0.0099503549 0.0085216431            4 
 4444000   0.54736082   -8.9409655    530.08593 0.0099401051 0.0085185814           13 
 4445000   0.53264215   -8.9427019    528.80363 0.0099138289  0.008515519            2 
 4446000   0.54842522    -8.948687    529.37488 0.0099223062 0.0085124588            2 
 4447000   0.53528227   -8.9544486    529.02191 0.0099134605 0.0085093983            4 
 4448000   0.53800704   -8.9468551     529.7556 0.0099249775 0.0085063431            1 
 4449000   0.53297536   -8.9472367    529.01022 0.0099087852 0.0085032902            4 
 4450000   0.53490464   -8.9333673    529.23913 0.0099108451 0.0085002363            5 
 4451000    0.5472436   -8.9454584    529.22207  0.009908299 0.0084971839            3 
 4452000    0.5360385   -8.9373361    530.67751 0.0099333167 0.0084941313            4 
 4453000   0.54249511   -8.9316088    530.84163 0.0099341574 0.0084910852            3 
 4454000   0.54330393   -8.9546849    530.40418 0.0099237422   0.00848804            4 
 4455000   0.52986587   -8.9411229    529.81132  0.009910425 0.0084849931            6 
 4456000   0.52656786    -8.969673     529.5613 0.0099035253 0.0084819484            6 
 4457000   0.54159139   -8.9340481    529.49347 0.0099000349 0.0084789075           10 
 4458000   0.54756507   -8.9407049    530.31528 0.0099131763 0.0084758664            2 
 4459000   0.56344699   -8.9262093    530.60069 0.0099162871 0.0084728253            5 
 4460000   0.55286024   -8.9390821    529.09343 0.0098859011 0.0084697901            2 
 4461000    0.5354256   -8.9485193    529.64219 0.0098939361 0.0084667521            1 
 4462000   0.52807629   -8.9448489    530.09088 0.0099000986 0.0084637138            3 
 4463000   0.53644136    -8.952771    529.14157 0.0098801548 0.0084606784            2 
 4464000   0.54705168   -8.9622307    528.73894 0.0098704253 0.0084576453            4 
 4465000   0.55043938   -8.9508615    530.16997  0.009894923 0.0084546116            7 
 4466000   0.53275116    -8.948963     529.9987 0.0098895116 0.0084515822            3 
 4467000   0.54035379   -8.9269637    530.17288  0.009890547 0.0084485489            5 
 4468000   0.53520488   -8.9683716    529.40583 0.0098740269 0.0084455238            5 
 4469000   0.53066845   -8.9339147    529.40852 0.0098718678 0.0084424972            4 
 4470000   0.52711534   -8.9441841    530.24906 0.0098853293 0.0084394721            4 
 4471000   0.52953662   -8.9337014    529.86486 0.0098759573 0.0084364466            4 
 4472000   0.52415298   -8.9568917    530.25369 0.0098809945 0.0084334239            2 
 4473000   0.53963922   -8.9505317    529.50748 0.0098648833 0.0084304006            3 
 4474000   0.53219875   -8.9598494     530.2276 0.0098760915 0.0084273788            2 
 4475000   0.53756207   -8.9572384    529.77082 0.0098653785  0.008424358            5 
 4476000   0.53648332   -8.9485175    529.87851 0.0098651793 0.0084213378            4 
 4477000   0.54091098   -8.9486989    530.37241  0.009872169 0.0084183246            6 
 4478000   0.53579884   -8.9666301    529.24908 0.0098490598 0.0084153083            4 
 4479000   0.52480487   -8.9345635    530.02285 0.0098612572 0.0084122952            4 
 4480000   0.53886709   -8.9546564        529.2   0.00984375 0.0084092815            4 
 4481000   0.54364779   -8.9581908    529.11362 0.0098399469 0.0084062735            5 
 4482000   0.55183656   -8.9473438    529.27346 0.0098407233 0.0084032633            4 
 4483000   0.52906134   -8.9719037    529.29432  0.009838916 0.0084002531            4 
 4484000    0.5426533   -8.9612069    528.86315 0.0098287086 0.0083972465            4 
 4485000   0.53595848    -8.949904    530.00197 0.0098476769 0.0083942368            3 
 4486000   0.53370901    -8.961898    529.14626 0.0098295858 0.0083912292            4 
 4487000   0.54442161   -8.9483701    529.41932 0.0098324664 0.0083882261            3 
 4488000   0.53444778   -8.9768553    529.23432 0.0098268405 0.0083852213            5 
 4489000   0.52919886   -8.9506547    529.55365 0.0098305795  0.008382217            4 
 4490000    0.5373205   -8.9554555    529.24454  0.009822653 0.0083792187            4 
 4491000   0.53509883   -8.9603584    529.08569 0.0098175181 0.0083762225            8 
 4492000   0.53348029   -8.9537721    529.40607 0.0098212761 0.0083732229            2 
 4493000     0.525438    -8.967181    529.50936  0.009821006 0.0083702272            3 
 4494000   0.52558498   -8.9537863    529.47356 0.0098181569 0.0083672336            2 
 4495000   0.52075948   -8.9516853    529.73966 0.0098209059 0.0083642408            5 
 4496000   0.53676483   -8.9563174    529.01166 0.0098052279 0.0083612488            5 
 4497000   0.54571634   -8.9646848    528.77851 0.0097987272  0.008358256            3 
 4498000   0.52776355   -8.9625874    528.91163 0.0097990148 0.0083552638            5 
 4499000   0.52367825   -8.9666338    528.88684 0.0097963778 0.0083522745            8 
 4500000   0.52437408   -8.9565284    528.74235 0.0097915249 0.0083492838            8 
 4501000   0.53754809   -8.9422043    530.03302 0.0098132455 0.0083462998            3 
 4502000   0.53686048   -8.9375419    529.82163 0.0098071529 0.0083433212            5 
 4503000   0.53462321   -8.9572495    529.39867 0.0097971477 0.0083403374            3 
 4504000   0.54190504   -8.9617157    529.32498 0.0097936091 0.0083373567            5 
 4505000   0.53173875   -8.9648055    529.41194 0.0097930437 0.0083343797            5 
 4506000   0.53376409   -8.9722404    529.41385 0.0097909056 0.0083314008            7 
 4507000    0.5307812   -8.9706693    530.15219  0.009802385 0.0083284236            3 
 4508000   0.53917453   -8.9475036    529.46318 0.0097874738 0.0083254489            9 
 4509000   0.52194479   -8.9648471    529.62681 0.0097883273 0.0083224709            3 
 4510000   0.52568785   -8.9743925       528.91 0.0097729121 0.0083194956            3 
 4511000   0.52960855   -8.9604697    528.99817 0.0097723744   0.00831652            4 
 4512000   0.52663711   -8.9700327    528.71047 0.0097648948 0.0083135513            4 
 4513000   0.53404153   -8.9679113    528.74274  0.009763327 0.0083105791            2 
 4514000   0.52688897   -8.9630842    529.22486 0.0097700646 0.0083076124            3 
 4515000   0.52854688   -8.9570612    529.45355 0.0097721216  0.008304644            3 
 4516000   0.52995901   -8.9580494    529.02877 0.0097621194 0.0083016797            9 
 4517000   0.53158364   -8.9507816    528.62265 0.0097524657 0.0082987136            4 
 4518000    0.5308259    -8.934923    529.32792 0.0097633155 0.0082957495            5 
 4519000   0.52590008   -8.9617626    529.28402 0.0097603456 0.0082927875            7 
 4520000   0.53034371    -8.984215    529.02988 0.0097535007 0.0082898253            3 
 4521000   0.52249124   -8.9693469    529.51561 0.0097602966  0.008286868            3 
 4522000   0.52220807   -8.9635985    529.14258 0.0097512639 0.0082839128            3 
 4523000   0.52515653   -8.9723652    529.87159 0.0097625395 0.0082809583            2 
 4524000   0.53892185   -8.9564637    529.29709  0.009749799  0.008278002            5 
 4525000   0.53767501    -8.970272    529.07456 0.0097435463 0.0082750478            5 
 4526000   0.51705031   -8.9745594    528.87189 0.0097376618 0.0082720975            4 
 4527000    0.5283399    -8.967218    529.99511 0.0097561871 0.0082691475            3 
 4528000   0.52296811    -8.969843    528.98715  0.009735482    0.0082662            7 
 4529000   0.52834462   -8.9388025    528.45447 0.0097235311 0.0082632518            2 
 4530000   0.53686314   -8.9912241    529.45406 0.0097397729  0.008260306            5 
 4531000   0.52755774   -8.9662137    529.61802  0.009740639 0.0082573638            3 
 4532000    0.5116437   -8.9509634    529.46625  0.009735699 0.0082544207            4 
 4533000   0.54038399   -8.9643836    528.82764 0.0097218111 0.0082514808            5 
 4534000   0.51258927   -8.9551868    530.57662 0.0097518127 0.0082485385            2 
 4535000   0.51987744   -8.9757426    529.17809 0.0097239635 0.0082456009            5 
 4536000   0.52382588   -8.9678219    528.84538 0.0097157073 0.0082426613            3 
 4537000   0.52320375   -8.9563877    528.95024 0.0097154918 0.0082397213            5 
 4538000   0.52068104   -8.9669151    528.78009 0.0097102264 0.0082367862            7 
 4539000   0.52305828   -8.9612424    529.43338 0.0097200812  0.008233852            4 
 4540000    0.5243489   -8.9711734     529.2524 0.0097146183 0.0082309193            3 
 4541000    0.5239249   -8.9661114    528.93722 0.0097066949 0.0082279886            9 
 4542000   0.52803608   -8.9694197    528.35594 0.0096938929 0.0082250541            3 
 4543000   0.52721641   -8.9657625    529.78379 0.0097179504 0.0082221247            9 
 4544000   0.52381433   -8.9815911    528.26822 0.0096880175 0.0082191969            3 
 4545000   0.53368279   -8.9761571     528.4131 0.0096885423 0.0082162683            3 
 4546000   0.52948936   -8.9588374    530.12779 0.0097178434 0.0082133421           12 
 4547000   0.52587221    -8.978086    529.11193 0.0096970884 0.0082104194            8 
 4548000   0.52480389   -8.9860061    529.18791 0.0096963484 0.0082074982            6 
 4549000   0.52057363   -8.9773754    528.37582 0.0096793402 0.0082045755            7 
 4550000   0.52891077   -8.9776204    527.35688  0.009658551  0.008201653            4 
 4551000   0.52657847   -8.9609272    529.32049 0.0096923844 0.0081987309            4 
 4552000   0.51572887   -8.9735216    529.44618  0.009692556 0.0081958142            3 
 4553000   0.52765195   -8.9761701    528.54001 0.0096738415 0.0081928973            3 
 4554000    0.5178805   -8.9773469     529.0002 0.0096801383 0.0081899853            2 
 4555000   0.52393464   -8.9745984     528.4597 0.0096681248 0.0081870737            5 
 4556000   0.51380063   -8.9744447    528.62936  0.009669106 0.0081841607            4 
 4557000   0.52274398   -8.9631783    529.12544 0.0096760559 0.0081812539            4 
 4558000    0.5211037   -8.9728062    528.79095 0.0096678175 0.0081783455            3 
 4559000    0.5156374   -8.9738628    528.89822 0.0096676578 0.0081754377            4 
 4560000   0.52915132    -8.964422    529.27192  0.009672367 0.0081725305            5 
 4561000   0.51939847   -8.9935466    528.75412 0.0096607857 0.0081696223            4 
 4562000   0.52062681   -8.9808746    529.19795 0.0096667753 0.0081667167            5 
 4563000   0.51597819   -8.9671892    528.21323  0.009646673 0.0081638114            2 
 4564000   0.50729202   -8.9655874    528.84438 0.0096560834 0.0081609098            5 
 4565000   0.53141218     -8.96169    529.42633 0.0096645917 0.0081580111            6 
 4566000   0.52383045   -8.9704252    529.53741 0.0096645023 0.0081551104            9 
 4567000   0.52331983   -8.9662337    528.83932 0.0096496482 0.0081522147            4 
 4568000   0.52555381   -8.9732352    528.27697 0.0096372769 0.0081493192            4 
 4569000   0.52376962   -8.9875424       528.11 0.0096321222 0.0081464223            4 
 4570000   0.52879378   -8.9770761    528.08513 0.0096295611 0.0081435286            5 
 4571000   0.53255757   -8.9777939    529.34972 0.0096505091 0.0081406384            4 
 4572000   0.52803028   -8.9688088    528.86877 0.0096396321 0.0081377503            3 
 4573000   0.52419681   -8.9651503    529.38183 0.0096468735 0.0081348619            4 
 4574000    0.5137776   -8.9762602    529.83894 0.0096530926 0.0081319748            3 
 4575000   0.53372707   -8.9762289    529.02283 0.0096361171 0.0081290891            2 
 4576000   0.51083126    -8.980295    529.16559 0.0096366111 0.0081262063            5 
 4577000   0.52823741   -8.9936914    529.03941 0.0096322084 0.0081233238            3 
 4578000   0.52533938   -8.9726807    528.88348 0.0096272659 0.0081204424            1 
 4579000   0.52070868   -8.9596436    528.81029 0.0096238315 0.0081175625            4 
 4580000   0.52081201   -8.9833273    529.12673 0.0096274878 0.0081146861            3 
 4581000   0.52013016   -8.9654604    528.66962 0.0096170708 0.0081118084            5 
 4582000   0.51838761   -8.9766901    529.32097 0.0096268181 0.0081089328            4 
 4583000   0.51009162   -8.9763799    529.40725 0.0096262865 0.0081060556            4 
 4584000   0.52719941   -8.9715035    529.09401 0.0096184921 0.0081031845            4 
 4585000   0.52789807   -8.9643544    529.13215 0.0096170875 0.0081003111            5 
 4586000    0.5109762   -8.9803238    528.63968 0.0096060415 0.0080974392            3 
 4587000   0.51028807   -8.9738633    529.02836 0.0096110086 0.0080945668            3 
 4588000   0.52215904   -8.9820981    529.77682 0.0096225084 0.0080916992            7 
 4589000   0.52298167   -8.9683306    528.67673 0.0096004346 0.0080888319            5 
 4590000   0.52378632   -8.9697466    529.16947 0.0096072888 0.0080859683            4 
 4591000   0.51245323   -8.9815242    528.50124 0.0095930669 0.0080831061            3 
 4592000   0.51784747   -8.9816081    528.77362 0.0095959207 0.0080802437            3 
 4593000   0.52334715   -8.9769497    527.98141 0.0095794581 0.0080773828            5 
 4594000   0.51922958   -8.9819193    528.93093 0.0095945968 0.0080745232            4 
 4595000   0.51162096   -8.9731711    528.60697 0.0095866335 0.0080716643            7 
 4596000   0.51405936   -8.9884051    528.50082 0.0095826229 0.0080688085            3 
 4597000   0.51852151   -8.9730145    528.70005   0.00958415 0.0080659534            9 
 4598000   0.53037701    -8.944854    529.26669 0.0095923352 0.0080631008            5 
 4599000    0.5115674   -8.9638681    529.13815 0.0095879204  0.008060249            3 
 4600000   0.52313616    -8.991513    529.00062 0.0095833446 0.0080573971            4 
 4601000   0.52166754   -8.9726218    528.90217 0.0095794785 0.0080545462            7 
 4602000   0.51511934   -8.9751731    528.34208 0.0095672548 0.0080516972            3 
 4603000   0.52267356   -8.9928389    528.11933 0.0095611436 0.0080488467            3 
 4604000   0.52480205   -8.9813274    528.67325  0.009569093 0.0080459973            4 
 4605000   0.51500976   -8.9706839    528.33654 0.0095609218 0.0080431529            2 
 4606000   0.52485408   -8.9698519    529.40937 0.0095782561 0.0080403111            6 
 4607000   0.52040259   -8.9829903    528.63025  0.009562084 0.0080374684            9 
 4608000   0.53744867   -8.9828345    528.91733 0.0095652005  0.008034626            5 
 4609000   0.50516888   -8.9872433    528.32134 0.0095523494 0.0080317825            4 
 4610000   0.51245875    -8.980568    529.13266 0.0095649432 0.0080289413            7 
 4611000   0.51326067   -8.9831459    529.19406 0.0095639785 0.0080261013            6 
 4612000   0.52093375   -8.9799287    528.68679  0.009552739 0.0080232642            4 
 4613000    0.5138755   -8.9755429    529.16491 0.0095593055 0.0080204281            3 
 4614000   0.51167022   -8.9850168    528.75626 0.0095498531 0.0080175914            9 
 4615000   0.50950822   -8.9775055    528.04666 0.0095349704 0.0080147591            7 
 4616000   0.51323075   -8.9603652    528.14132 0.0095346137 0.0080119252           10 
 4617000   0.51200991   -8.9888055    529.05378 0.0095490177 0.0080090972            4 
 4618000   0.50424767   -8.9773633    528.71954 0.0095409186 0.0080062665            5 
 4619000   0.50738656   -8.9747038    528.28926 0.0095310901  0.008003437            2 
 4620000   0.51501561   -8.9922369    529.83945 0.0095569886 0.0080006095            6 
 4621000   0.50136978   -8.9933732    528.71446 0.0095346329 0.0079977825            3 
 4622000   0.50638567   -8.9842135    528.69603 0.0095322376 0.0079949559            5 
 4623000   0.50572437    -8.982609    528.86134 0.0095331556 0.0079921344            6 
 4624000   0.51039169    -8.971669    529.29385 0.0095388885 0.0079893107            8 
 4625000   0.51339417   -8.9769188    529.43543 0.0095393772 0.0079864896            5 
 4626000   0.50911893   -8.9602996    529.00691 0.0095295955  0.007983668            4 
 4627000    0.5049213   -8.9876445    528.35464 0.0095157884 0.0079808482           12 
 4628000   0.51016868   -8.9816153    529.18973 0.0095287693  0.007978028           12 
 4629000   0.50127948   -8.9836994    528.25651 0.0095099105 0.0079752095            6 
 4630000   0.50587775    -8.971612     528.2278 0.0095073398 0.0079723946            7 
 4631000     0.505878   -8.9922765    528.38069 0.0095080381 0.0079695775            7 
 4632000   0.50992727   -8.9831203    528.55671  0.009509152 0.0079667648            4 
 4633000   0.50979355   -8.9877799    529.64498 0.0095266741 0.0079639515            4 
 4634000   0.51108538   -8.9881361    528.70468  0.009507709 0.0079611404            4 
 4635000   0.50572699   -8.9795393    528.42194 0.0095005743 0.0079583287            4 
 4636000   0.51264096     -8.98356    528.53824 0.0095006154 0.0079555194           11 
 4637000   0.50680355   -8.9913506    528.86108 0.0095043685 0.0079527151            3 
 4638000   0.50826479   -8.9940683    529.39621 0.0095119343 0.0079499103            4 
 4639000   0.50722017   -8.9921387    528.58121 0.0094952434 0.0079471039            7 
 4640000   0.51205707   -8.9835453     527.9376 0.0094816379 0.0079443024            7 
 4641000   0.51113884   -8.9971934     528.5204 0.0094900595 0.0079415021            3 
 4642000   0.49529535   -8.9874728    528.38035 0.0094855011 0.0079387016            4 
 4643000   0.50298572   -8.9828487    529.01898 0.0094949203  0.007935903            5 
 4644000   0.50382168   -8.9933423    528.76675 0.0094883497 0.0079331034            5 
 4645000   0.52153477   -9.0019867    529.05432 0.0094914661 0.0079303068            3 
 4646000   0.50404238   -8.9816297    527.81023 0.0094671085 0.0079275121            5 
 4647000   0.51294492   -8.9964014    528.68559 0.0094807688 0.0079247205            6 
 4648000    0.5116856   -9.0015946    528.83084 0.0094813331 0.0079219292            3 
 4649000   0.49688076   -9.0031952    527.32914 0.0094523758 0.0079191349            8 
 4650000   0.51350187   -8.9831739     528.5249 0.0094717724 0.0079163457            4 
 4651000   0.52425153   -8.9883195    528.89302 0.0094763316 0.0079135561            5 
 4652000   0.51376954   -8.9907654    528.20353 0.0094619435 0.0079107673            5 
 4653000   0.50614089   -9.0115397    528.86154 0.0094716947 0.0079079814            3 
 4654000   0.50189486   -8.9958499    527.15451 0.0094390939 0.0079051955            1 
 4655000   0.51850829   -8.9867384    528.51669 0.0094614516 0.0079024121            9 
 4656000    0.5115649   -8.9876143    528.88253 0.0094659673 0.0078996273            8 
 4657000   0.49863608   -8.9893843    527.64961 0.0094418726 0.0078968462            5 
 4658000   0.51685281   -8.9861716    528.26453 0.0094508467 0.0078940656            3 
 4659000   0.50759786   -8.9952417    528.16443 0.0094470279 0.0078912835            6 
 4660000   0.51040605   -8.9911324    529.48306 0.0094685813  0.007888502            6 
 4661000    0.5193969   -8.9970832    528.23914 0.0094443099 0.0078857243            4 
 4662000   0.50202923   -9.0019406     528.3597 0.0094444391 0.0078829468            5 
 4663000    0.5056632   -9.0023771    528.66417  0.009447855 0.0078801702            3 
 4664000   0.50610154   -8.9811712    527.91929 0.0094325202 0.0078773946            5 
 4665000   0.49438372   -8.9902199    529.00249 0.0094498481 0.0078746203            4 
 4666000   0.49946528    -8.982067     528.2062 0.0094336012 0.0078718478            3 
 4667000   0.51539317   -8.9910053    528.31281 0.0094334835 0.0078690754            3 
 4668000   0.49970644   -8.9816041    528.08088 0.0094273222 0.0078663062            5 
 4669000   0.50181273   -9.0012497    527.82794 0.0094207885 0.0078635386            3 
 4670000   0.50323647   -9.0069378    528.49189  0.009430619 0.0078607711            3 
 4671000   0.50664574   -8.9996612    527.91607 0.0094183271 0.0078580015            6 
 4672000   0.50061244   -8.9844854    529.11855 0.0094377595 0.0078552379            4 
 4673000   0.51107593   -9.0028603    528.73035 0.0094288171 0.0078524742            5 
 4674000   0.49822024   -9.0100551     528.0599 0.0094148463 0.0078497098            4 
 4675000   0.50262084   -8.9816105    527.54024 0.0094035693 0.0078469491            3 
 4676000   0.48507332   -8.9982662    528.27259 0.0094146099 0.0078441887            4 
 4677000   0.50545303   -8.9950843    527.93262 0.0094065395 0.0078414322            3 
 4678000   0.50042113   -8.9987011    527.78252 0.0094018547 0.0078386772            7 
 4679000   0.48986281   -8.9944651    528.03947 0.0094044217 0.0078359263            6 
 4680000   0.50389196   -8.9982576    527.72561 0.0093968235  0.007833173            4 
 4681000   0.49247781   -9.0093233    528.30752 0.0094051755 0.0078304172            4 
 4682000      0.49879   -8.9929328     528.5501 0.0094074844 0.0078276672            5 
 4683000   0.51446542   -9.0057966    528.20978 0.0093994196 0.0078249168            5 
 4684000    0.4919136   -8.9805257    529.08004 0.0094128956 0.0078221666           14 
 4685000   0.50153589   -8.9853822    528.54206 0.0094013173 0.0078194169            4 
 4686000   0.49720723   -9.0142885    528.85251 0.0094048319 0.0078166699            4 
 4687000   0.49372888   -9.0135186    527.34297 0.0093759863 0.0078139229            3 
 4688000   0.49035188   -8.9833165    527.02362 0.0093683095 0.0078111764            3 
 4689000   0.50176104    -9.001516    528.15112 0.0093863497 0.0078084335            6 
 4690000   0.49145785   -9.0006813    527.73392 0.0093769353 0.0078056876            4 
 4691000   0.49833175   -8.9997202    527.99845 0.0093796357 0.0078029485            4 
 4692000   0.50421815   -8.9856499    528.30388 0.0093830612 0.0078002089            6 
 4693000   0.50401648   -9.0165344     527.1488 0.0093605512 0.0077974698            6 
 4694000   0.50403381    -9.009172    528.41184   0.00938098 0.0077947347            4 
 4695000   0.49804218   -9.0026098    528.52682 0.0093810228 0.0077919959            5 
 4696000   0.50113865   -8.9953941    527.54571 0.0093616147 0.0077892609            6 
 4697000   0.49319864   -9.0123566    527.63001 0.0093611172 0.0077865267            5 
 4698000   0.50440516    -9.006315    527.64111 0.0093593215 0.0077837933           10 
 4699000    0.5045355   -9.0074802    527.85724 0.0093611626 0.0077810604            4 
 4700000   0.49587376   -9.0175997    528.00676 0.0093618219 0.0077783286           18 
 4701000   0.49777699   -8.9969287    527.98642 0.0093594699  0.007775597            9 
 4702000   0.50847628    -8.990622    527.29022 0.0093451407 0.0077728678            8 
 4703000   0.49817027   -9.0056968    528.52112 0.0093649641 0.0077701393            7 
 4704000   0.50004598   -8.9900236    528.23842 0.0093579651 0.0077674116            4 
 4705000   0.50679191   -8.9965627    528.10871 0.0093536789 0.0077646863            5 
 4706000   0.50268034   -8.9904372    526.96147 0.0093313761 0.0077619611            4 
 4707000   0.51661909   -9.0046036    528.39641  0.009354798 0.0077592384            4 
 4708000   0.49997475   -9.0185205    527.81634 0.0093425435 0.0077565175            2 
 4709000   0.49521052   -9.0211005    527.76213 0.0093396002 0.0077537984            9 
 4710000   0.49719185   -9.0146459    527.57644 0.0093343319 0.0077510793            4 
 4711000   0.49786307   -9.0141076    528.04596 0.0093406559 0.0077483611            3 
 4712000   0.50522166   -9.0092537    527.77727 0.0093339217 0.0077456442            4 
 4713000   0.48688384   -9.0015672    528.11011 0.0093378264 0.0077429271            7 
 4714000   0.51413737   -8.9897683     527.9974  0.009333853 0.0077402116            9 
 4715000   0.50005762   -9.0048593    527.95076 0.0093310492 0.0077375009            4 
 4716000   0.50855954   -9.0132499     527.4104 0.0093195222 0.0077347885            6 
 4717000   0.49610406   -8.9930695    527.58419 0.0093206167 0.0077320777            3 
 4718000   0.49322908   -8.9984116     528.6769 0.0093379416 0.0077293684            6 
 4719000   0.49660969   -9.0141156    528.32851 0.0093298106 0.0077266596            6 
 4720000   0.50246495   -9.0085582    527.50955 0.0093133748 0.0077239512            2 
 4721000   0.49649091   -9.0084293    527.95262  0.009319223 0.0077212428            5 
 4722000   0.50491447   -9.0213846    526.87424 0.0092982182 0.0077185401            6 
 4723000   0.49885106   -9.0067035    527.72125 0.0093111943 0.0077158368            4 
 4724000   0.49881846   -9.0181089    527.24421  0.009300808 0.0077131326            6 
 4725000   0.49799737   -9.0160645    527.89926 0.0093103926 0.0077104317           14 
 4726000   0.51213682   -8.9988066    527.58685 0.0093029139 0.0077077323            3 
 4727000   0.49184121   -9.0352617    527.59088 0.0093010168 0.0077050322            2 
 4728000   0.49690665   -9.0046085     528.0851 0.0093077605 0.0077023336            4 
 4729000   0.49482271   -9.0371741    527.63684 0.0092978932 0.0076996378            6 
 4730000   0.50064876   -9.0049853    527.87308 0.0093000894  0.007696943            5 
 4731000   0.50407211   -9.0170062    527.29924 0.0092880159 0.0076942493            3 
 4732000   0.49901786   -9.0244779    528.03785 0.0092990605 0.0076915581            4 
 4733000   0.49313941   -9.0067946    526.85021 0.0092761852 0.0076888676            5 
 4734000   0.50200889   -9.0139805    527.66644 0.0092885939 0.0076861775            3 
 4735000   0.50090521   -9.0207643    527.24522 0.0092792189 0.0076834917            3 
 4736000   0.49424334   -9.0235636    528.35918 0.0092968606 0.0076808046            4 
 4737000   0.50421505   -9.0138554    527.01602  0.009271269 0.0076781185            5 
 4738000   0.49288278   -9.0245697    527.11396 0.0092710349 0.0076754331            5 
 4739000   0.50140765   -9.0097853     528.5233 0.0092938612  0.007672751            7 
 4740000   0.47784595   -9.0129982    527.91987 0.0092812916 0.0076700681            5 
 4741000   0.49290469   -9.0332359    528.12573 0.0092829525 0.0076673868            6 
 4742000    0.4895105   -9.0183195    527.91464 0.0092772852 0.0076647061            4 
 4743000   0.49629319   -9.0193406    528.12355 0.0092789997  0.007662028            5 
 4744000   0.48448688   -9.0135798    527.41816 0.0092646528 0.0076593489            5 
 4745000   0.49555021   -9.0110823    528.05731 0.0092739253 0.0076566728            4 
 4746000   0.49185375   -9.0234458    528.10891 0.0092728773 0.0076539991            5 
 4747000   0.49167548   -9.0173796    527.09561 0.0092531355 0.0076513253            5 
 4748000   0.49518593   -9.0294219    528.07123 0.0092683099 0.0076486531            3 
 4749000   0.47936994   -9.0292318    527.92456 0.0092637847   0.00764598            5 
 4750000    0.4931075   -9.0098101    527.57385 0.0092556815 0.0076433097            3 
 4751000   0.49829909   -9.0160789     528.7703 0.0092747193 0.0076406424            7 
 4752000   0.49210379   -9.0268761    527.68289 0.0092536983 0.0076379747            5 
 4753000   0.48943577   -9.0224326    528.18561 0.0092605655 0.0076353069            3 
 4754000   0.48361211   -9.0185249    528.27765 0.0092602308 0.0076326414            3 
 4755000   0.50035141   -9.0170159    528.21021 0.0092571014 0.0076299773            5 
 4756000   0.48116527   -9.0150715    528.28358 0.0092564407  0.007627312            7 
 4757000   0.48192757   -9.0212645    526.99845 0.0092319817  0.007624649            5 
 4758000   0.48329865   -9.0199741    527.42813 0.0092375671 0.0076219893            8 
 4759000   0.50302373   -9.0279721    527.52699 0.0092373572 0.0076193297            4 
 4760000   0.49589949   -9.0234087    527.86006 0.0092412475  0.007616671            9 
 4761000   0.48131603   -9.0157092    528.13552  0.009244128  0.007614013            5 
 4762000    0.4865126   -9.0250419    527.70449 0.0092346439  0.007611356            2 
 4763000   0.48683896   -9.0243271    526.95646 0.0092196175 0.0076087011            2 
 4764000   0.49982308   -9.0269545    526.88443 0.0092164223 0.0076060468            4 
 4765000   0.49710209   -9.0315937    527.15699 0.0092192549  0.007603395            1 
 4766000   0.49190848   -8.9999194    527.55405  0.009224263 0.0076007424            5 
 4767000   0.48472189   -9.0240971    527.31432 0.0092181372 0.0075980941            4 
 4768000   0.48449661   -9.0382951    527.45298 0.0092186273 0.0075954455            4 
 4769000   0.49235603   -9.0334809    527.33713 0.0092146699 0.0075927992            5 
 4770000   0.48515671   -9.0061585    527.42662 0.0092143015 0.0075901522            3 
 4771000   0.48551221    -9.021084    527.34564 0.0092109558 0.0075875055            4 
 4772000   0.48038679    -9.028262    528.05475 0.0092214087  0.007584862            6 
 4773000   0.49150487   -9.0254144    527.98616 0.0092182792 0.0075822185            6 
 4774000   0.49299395   -9.0333621     528.4316 0.0092241236 0.0075795761            3 
 4775000   0.49516122   -9.0317075    528.02499 0.0092150958 0.0075769354            5 
 4776000   0.48902714   -9.0385375    527.16033 0.0091980794 0.0075742982            4 
 4777000   0.48741531   -9.0331488    527.58751 0.0092036061 0.0075716608            5 
 4778000   0.48708981   -9.0217675    528.18141  0.009212038 0.0075690251            3 
 4779000   0.48437588   -9.0252851    528.39197  0.009213782 0.0075663906            6 
 4780000   0.48156572   -9.0210276    527.46811 0.0091957481 0.0075637567            3 
 4781000   0.47450649   -9.0194819    527.20428 0.0091892262 0.0075611243            6 
 4782000   0.48859026   -9.0231207    527.95668 0.0092004161 0.0075584914            8 
 4783000   0.49531594   -9.0278452    527.02536 0.0091822664 0.0075558598            2 
 4784000   0.47785275   -9.0475262    527.01273  0.009180127 0.0075532301            7 
 4785000   0.48118607   -9.0463976    527.40195  0.009184987 0.0075506011            5 
 4786000    0.4775823   -9.0319896    528.17761 0.0091965735  0.007547973            4 
 4787000   0.48277414   -9.0360551    527.97657 0.0091911526 0.0075453453            6 
 4788000   0.48765217    -9.024811    527.75484 0.0091853738 0.0075427214           10 
 4789000   0.48140077    -9.029753    527.94391 0.0091867458 0.0075400959            7 
 4790000   0.48863613   -9.0437007    527.77661 0.0091819173 0.0075374738            8 
 4791000   0.48349411   -9.0404061    527.34248 0.0091724498 0.0075348547            5 
 4792000   0.47981715   -9.0416695    526.55535 0.0091568474 0.0075322336            4 
 4793000   0.48442149   -9.0339252    527.41741 0.0091699251 0.0075296153            4 
 4794000   0.48396158   -9.0364332    527.49768 0.0091694076 0.0075269963            6 
 4795000   0.47999805    -9.038951    527.58532 0.0091690184 0.0075243795            7 
 4796000   0.48271137   -9.0410306    527.85953 0.0091718711 0.0075217648            9 
 4797000   0.49059306   -9.0439898    526.65632 0.0091490571 0.0075191495            5 
 4798000   0.48233026   -9.0405143    527.53531 0.0091624167  0.007516538            6 
 4799000   0.48903837   -9.0271165    526.55025 0.0091434022 0.0075139268            6 
 4800000   0.47842939   -9.0192851    526.94763 0.0091483964 0.0075113127           12 
 4801000   0.47366622   -9.0404735    527.36842 0.0091537947 0.0075087038            3 
 4802000   0.47334215   -9.0419133    527.49791 0.0091541356 0.0075060942            3 
 4803000   0.48712419   -9.0290107    527.58337 0.0091537124 0.0075034863            6 
 4804000   0.47622607   -9.0433862    528.48278 0.0091674088 0.0075008792            6 
 4805000    0.4832418    -9.032612    526.77059 0.0091358062 0.0074982737            4 
 4806000   0.49967246   -9.0408797    526.85963 0.0091354492 0.0074956699            4 
 4807000   0.47739273   -9.0315463      526.763 0.0091318736 0.0074930674            7 
 4808000   0.47001155   -9.0300621      527.523 0.0091431468 0.0074904664            4 
 4809000   0.48611182   -9.0523595      527.309 0.0091375372 0.0074878667            2 
 4810000   0.48698614   -9.0331783    526.16506 0.0091158187  0.007485267            5 
 4811000   0.48662677   -9.0282857    526.84451 0.0091256931 0.0074826697            4 
 4812000   0.47770651   -9.0428794     526.4903 0.0091176625 0.0074800727            5 
 4813000   0.48359576    -9.050653    527.10562 0.0091264219 0.0074774765            8 
 4814000   0.48443081   -9.0477751    527.11716 0.0091247259 0.0074748826            6 
 4815000    0.4762824   -9.0253324    527.70601  0.009133022 0.0074722906            3 
 4816000   0.48325433   -9.0504976    527.06372 0.0091200117  0.007469698            9 
 4817000   0.48456265   -9.0457816    527.06449 0.0091181318 0.0074671055            9 
 4818000   0.47551087   -9.0272495    527.81238 0.0091291749 0.0074645157            8 
 4819000   0.47894612   -9.0402448    526.83407 0.0091103629 0.0074619288            4 
 4820000   0.48759326    -9.021909    526.47024 0.0091021825 0.0074593417            4 
 4821000   0.47268049   -9.0404904    527.31615 0.0091149165 0.0074567544            4 
 4822000   0.49323528    -9.041133     527.5396 0.0091168879  0.007454171            5 
 4823000   0.48585076   -9.0347741    527.62115 0.0091164067 0.0074515865            8 
 4824000    0.4860007   -9.0271393    527.58003 0.0091138064  0.007449005            4 
 4825000   0.49280555   -9.0254146     525.9878  0.009084418 0.0074464229            6 
 4826000   0.47851048   -9.0374173    527.64939 0.0091112272 0.0074438411            6 
 4827000   0.48968068   -9.0325407    527.24173 0.0091023019  0.007441264            3 
 4828000   0.48086193   -9.0428962    527.43829 0.0091038091 0.0074386849            5 
 4829000   0.48387974   -9.0405998    527.65503 0.0091056642 0.0074361073            5 
 4830000   0.48127113   -9.0465432    527.46499 0.0091005001  0.007433531            4 
 4831000   0.47663678   -9.0460039    527.42867 0.0090979899 0.0074309563            8 
 4832000   0.48770547    -9.039697    526.84481 0.0090860377 0.0074283842            4 
 4833000   0.48423206   -9.0447825    527.83553 0.0091012403 0.0074258134            6 
 4834000   0.47311334   -9.0222146    526.65469  0.009079001 0.0074232422            3 
 4835000   0.48878024   -9.0331751    527.29287 0.0090881226  0.007420672            4 
 4836000   0.48196257   -9.0559144    527.67831 0.0090928851 0.0074181021            5 
 4837000   0.48957387   -9.0395193    527.29578 0.0090844149 0.0074155315            8 
 4838000   0.47091498   -9.0537683    527.03997 0.0090781309 0.0074129626            3 
 4839000   0.48069379   -9.0444117    527.97256 0.0090923152 0.0074103965            4 
 4840000   0.47473772   -9.0517974    527.34181 0.0090795766 0.0074078327            5 
 4841000   0.47557952   -9.0488013    527.41488 0.0090789588  0.007405269            3 
 4842000   0.46683571   -9.0301538    526.68184 0.0090644678 0.0074027063            3 
 4843000   0.45905418   -9.0502599    527.59155 0.0090782495 0.0074001455            6 
 4844000   0.48190593   -9.0474915    527.40863 0.0090732286 0.0073975842            3 
 4845000   0.47306222   -9.0428758     526.4252 0.0090544411 0.0073950234            3 
 4846000   0.47192001   -9.0616257    527.02046 0.0090628089 0.0073924663            3 
 4847000   0.47727897   -9.0441371    527.28865 0.0090655499 0.0073899089            3 
 4848000   0.49380041   -9.0403345    527.35066 0.0090647459 0.0073873538            5 
 4849000   0.47915361    -9.049766    526.40889 0.0090466915 0.0073847991            4 
 4850000   0.47734387   -9.0483824    527.31546 0.0090604032  0.007382244            8 
 4851000   0.47372959    -9.049139     526.2507 0.0090402443 0.0073796915            5 
 4852000   0.46887225   -9.0411541     527.5775 0.0090611689 0.0073771394            3 
 4853000    0.4797957    -9.050103    527.18341 0.0090525346 0.0073745903            7 
 4854000   0.46694437   -9.0568887    526.64259  0.009041385 0.0073720401            3 
 4855000   0.47926452   -9.0496068    527.59591 0.0090558858 0.0073694915           10 
 4856000   0.46227589   -9.0609366    526.20333  0.009030123 0.0073669431            4 
 4857000   0.47137272   -9.0554159    526.87113 0.0090397215 0.0073643933            5 
 4858000   0.47705131   -9.0712578     527.4396 0.0090476121 0.0073618483           10 
 4859000   0.46539762   -9.0360455    528.23779 0.0090594393  0.007359305            2 
 4860000   0.47013048   -9.0532138    527.59975 0.0090466349 0.0073567621            5 
 4861000   0.46769593   -9.0371254     527.4429  0.009042085 0.0073542199            7 
 4862000   0.48036455   -9.0494303    527.32358 0.0090381801 0.0073516797            3 
 4863000    0.4657394   -9.0547871    527.59346 0.0090409462 0.0073491405            3 
 4864000   0.47438013   -9.0531534    527.44402 0.0090365272 0.0073466018            5 
 4865000    0.4752065   -9.0429412    527.59011 0.0090371722 0.0073440649            7 
 4866000   0.46897832   -9.0496239    526.80072 0.0090217961 0.0073415265            5 
 4867000   0.47633833   -9.0581541    527.19091 0.0090266233 0.0073389932           16 
 4868000   0.46202605    -9.050755    526.62086 0.0090150106 0.0073364605           12 
 4869000   0.47448945   -9.0352663    526.14998    0.0090051 0.0073339288            4 
 4870000   0.47990285   -9.0493404    526.19019 0.0090039389 0.0073313967            4 
 4871000   0.47828833   -9.0553738    526.66718 0.0090102507 0.0073288672            7 
 4872000   0.47817852   -9.0550362    527.19299 0.0090173951 0.0073263381            3 
 4873000   0.46961053   -9.0517226      526.482  0.009003386 0.0073238095            7 
 4874000   0.47070631   -9.0437634    527.76312 0.0090234428 0.0073212832            6 
 4875000   0.46459276   -9.0529225    526.86165  0.009006182 0.0073187574            4 
 4876000   0.47450094   -9.0698562    527.65145 0.0090178331 0.0073162342            6 
 4877000   0.45676279   -9.0589359    526.28495 0.0089926346 0.0073137098            6 
 4878000   0.47434725   -9.0424927    527.35806 0.0090091235 0.0073111888            5 
 4879000   0.47343817   -9.0517265    527.67125 0.0090126264 0.0073086683            3 
 4880000   0.47658423   -9.0477817    526.10092 0.0089839638 0.0073061492            4 
 4881000   0.46957228   -9.0336023    526.89712 0.0089957167 0.0073036313            6 
 4882000   0.46417202    -9.058635    527.63898 0.0090065373 0.0073011149            5 
 4883000   0.48370814   -9.0597214    527.06307 0.0089948643  0.007298598            4 
 4884000   0.46445496   -9.0660003    526.79644 0.0089884732 0.0072960814            4 
 4885000   0.46704292   -9.0599876    526.30956 0.0089783275 0.0072935666            6 
 4886000   0.46619523   -9.0633268    526.67548  0.008982731 0.0072910528            4 
 4887000   0.46901664   -9.0647738     526.7988 0.0089829958 0.0072885402            5 
 4888000   0.47466197    -9.063157    526.61958 0.0089781025 0.0072860288            5 
 4889000   0.46527958    -9.056674    526.53231 0.0089747787 0.0072835197            5 
 4890000   0.45509235   -9.0320309    527.26837  0.008985487 0.0072810099            3 
 4891000   0.47499242    -9.061152    526.30617 0.0089672557 0.0072785051            5 
 4892000   0.46431977   -9.0602426    526.55556 0.0089696709 0.0072759992            4 
 4893000   0.46632343    -9.066062     526.6422 0.0089693133 0.0072734926            3 
 4894000   0.46356256   -9.0716319    526.50987 0.0089652273 0.0072709874            5 
 4895000    0.4743266   -9.0632735    526.96169 0.0089710876  0.007268486            6 
 4896000    0.4754507   -9.0440269    527.45926 0.0089777244 0.0072659853            5 
 4897000   0.46106707   -9.0680853     526.1219 0.0089531329  0.007263485            3 
 4898000   0.47120929   -9.0602608    527.05863 0.0089672422 0.0072609855            3 
 4899000    0.4636782   -9.0668542    526.43054 0.0089547278 0.0072584872            6 
 4900000   0.47655592    -9.053902    526.44354 0.0089531214  0.007255989            4 
 4901000   0.46539432   -9.0657778    527.05957 0.0089617692 0.0072534914            4 
 4902000   0.46090501   -9.0556624    527.60325 0.0089691835 0.0072509984            6 
 4903000   0.47032453   -9.0582128    526.49909 0.0089485874 0.0072485062            2 
 4904000   0.46924809    -9.067548    526.57007 0.0089479689 0.0072460125            5 
 4905000   0.47043355   -9.0570588    525.61463 0.0089299121 0.0072435208            4 
 4906000   0.46271354   -9.0626168    526.97083 0.0089511284 0.0072410316            3 
 4907000   0.46560544   -9.0496993    526.93556 0.0089487052 0.0072385412            3 
 4908000   0.47067912   -9.0744021    526.69354 0.0089427727 0.0072360528           13 
 4909000   0.46774266   -9.0701865    526.19302 0.0089324543 0.0072335668            5 
 4910000   0.45839123   -9.0560665    527.36664 0.0089505539 0.0072310797            4 
 4911000   0.47213021   -9.0565134    526.51349 0.0089342546  0.007228592            6 
 4912000   0.46403263   -9.0636088    526.66059 0.0089349313 0.0072261065            4 
 4913000   0.45606908   -9.0676834    525.97584  0.008921498 0.0072236225            7 
 4914000   0.46257964   -9.0567055    526.07843 0.0089214223 0.0072211404            3 
 4915000   0.45975243   -9.0664023     526.5214 0.0089271176 0.0072186599            6 
 4916000   0.47062614   -9.0717372    527.03947 0.0089340837 0.0072161788            4 
 4917000   0.45702306   -9.0496659    526.62325 0.0089252127  0.007213699            5 
 4918000   0.45606846   -9.0724461    525.91941 0.0089114716 0.0072112209            5 
 4919000   0.47194144   -9.0499261    527.24229 0.0089320711 0.0072087429            7 
 4920000   0.46185935   -9.0579916    526.13474 0.0089114963 0.0072062673            6 
 4921000   0.45839681   -9.0520853    526.41604 0.0089144489 0.0072037926            8 
 4922000   0.46679631   -9.0690135     526.3254 0.0089111031 0.0072013192            4 
 4923000   0.46747451   -9.0443333    527.62033 0.0089312128  0.007198846            4 
 4924000   0.45413834   -9.0816116    526.71358 0.0089140533 0.0071963759            4 
 4925000    0.4632692   -9.0681649    526.80274 0.0089137519 0.0071939055            4 
 4926000   0.46223226   -9.0655235    526.75594 0.0089111507 0.0071914367            4 
 4927000   0.47361662   -9.0480139    526.39193 0.0089031854  0.007188967            4 
 4928000   0.46215915   -9.0686846    526.15693 0.0088974047 0.0071865001            6 
 4929000   0.45852888   -9.0751035    526.30816 0.0088981564 0.0071840339            5 
 4930000   0.46727772   -9.0772072    526.87577 0.0089059461 0.0071815676            3 
 4931000    0.4492939   -9.0627231     526.5505 0.0088986429 0.0071791047            7 
 4932000   0.45611304   -9.0736012    526.51665 0.0088962667 0.0071766425            4 
 4933000   0.46020585   -9.0815276    526.92059 0.0089012871 0.0071741794            4 
 4934000    0.4751133   -9.0687435    526.37623  0.008890289 0.0071717198            5 
 4935000   0.45772153   -9.0652228    526.30125 0.0088872213 0.0071692593            4 
 4936000   0.46804026   -9.0731246    526.45325 0.0088879871 0.0071667997            5 
 4937000   0.45739897   -9.0657238    525.95604 0.0088777942 0.0071643439            7 
 4938000   0.46566373   -9.0561192    526.54056 0.0088858606 0.0071618879            8 
 4939000   0.45551565   -9.0764257    526.63868  0.008885717 0.0071594341            5 
 4940000   0.45804678   -9.0744907    526.73092 0.0088854743 0.0071569814            5 
 4941000   0.46658112   -9.0948386    526.40988 0.0088782616 0.0071545288            2 
 4942000   0.45602034    -9.068725    526.45125 0.0088771626 0.0071520771            5 
 4943000   0.46436546   -9.0747161    527.29062 0.0088895175  0.007149625            4 
 4944000   0.46662286   -9.0609087     525.9433 0.0088650097 0.0071471765            7 
 4945000   0.45929475   -9.0631328    525.87638 0.0088620893 0.0071447279            7 
 4946000   0.46191004   -9.0793534    526.16196 0.0088651092   0.00714228            5 
 4947000   0.45729981   -9.0581581    526.51502 0.0088692645 0.0071398327            3 
 4948000   0.44987509   -9.0776442    526.03624 0.0088594085 0.0071373889            7 
 4949000   0.45917823   -9.0743353     526.7773 0.0088700967 0.0071349443            8 
 4950000   0.46869652   -9.0824645    526.46883 0.0088631116 0.0071324999            4 
 4951000   0.45646582   -9.0874109     526.4644 0.0088612469 0.0071300575            4 
 4952000   0.46953797   -9.0738701    526.00998 0.0088518104 0.0071276153            4 
 4953000   0.46274129   -9.0698015    525.85977 0.0088474959 0.0071251739            8 
 4954000   0.46077286   -9.0745453    526.80923 0.0088616813 0.0071227357            4 
 4955000   0.46291513   -9.0633473    525.89638 0.0088445405 0.0071202975            3 
 4956000   0.46495787   -9.0782968     526.5553 0.0088538354  0.007117861            2 
 4957000   0.45801157   -9.0752712     526.5063 0.0088512255  0.007115427            8 
 4958000   0.45648777   -9.0659538    526.32126 0.0088463302 0.0071129928            3 
 4959000   0.45642621   -9.0774056    526.08966 0.0088406544 0.0071105608            3 
 4960000    0.4594045   -9.0784268    526.61463  0.008847692 0.0071081278            4 
 4961000   0.45629663   -9.0688957    526.20123 0.0088389644 0.0071056959            4 
 4962000   0.46210107   -9.0783762    525.67895 0.0088284118 0.0071032651            2 
 4963000   0.45688615   -9.0765429    526.39912 0.0088387252 0.0071008365            9 
 4964000   0.45505843   -9.0677588    526.21009 0.0088337713 0.0070984102            6 
 4965000   0.47732301   -9.0851236     526.9696 0.0088447398  0.007095987            7 
 4966000   0.45167347   -9.0665511    526.57966 0.0088364153  0.007093562            2 
 4967000   0.45485714   -9.0649842    526.23712 0.0088288893  0.007091139            4 
 4968000   0.46430513   -9.0739566    525.48616 0.0088145156 0.0070887156            2 
 4969000   0.45235403   -9.0722421    526.38988 0.0088278976 0.0070862907            5 
 4970000   0.45841674   -9.0736003    526.65488 0.0088305647 0.0070838709            2 
 4971000   0.45755218   -9.0792898    526.06166 0.0088188436 0.0070814508            4 
 4972000   0.45149926   -9.0805709    526.10309 0.0088177644 0.0070790316            4 
 4973000   0.45771478   -9.0799255    526.37704 0.0088205819 0.0070766141            4 
 4974000   0.46477964   -9.0815054    527.02371 0.0088296427 0.0070741987            7 
 4975000   0.45142492   -9.0796255    526.35896  0.008816733  0.007071784            4 
 4976000   0.44341702   -9.0838254     526.2838 0.0088137024 0.0070693686            2 
 4977000   0.45390597   -9.0626436    526.35405 0.0088131078 0.0070669548            3 
 4978000   0.46032538   -9.0742934    525.96732 0.0088048634 0.0070645408           10 
 4979000   0.45892978   -9.0733128    526.18852 0.0088067973  0.007062131            6 
 4980000   0.45893901   -9.0891877    526.41401 0.0088088021 0.0070597215            5 
 4981000   0.45603134   -9.0727634    526.53735 0.0088090971 0.0070573124            6 
 4982000   0.44872812   -9.0872341    526.53096  0.008807222 0.0070549037            6 
 4983000    0.4515912   -9.0578395    526.36388 0.0088026604 0.0070524966            7 
 4984000   0.44781685   -9.0722645    526.40812 0.0088016338 0.0070500911            4 
 4985000   0.44922367   -9.0694433    525.26925 0.0087808299 0.0070476859            4 
 4986000   0.44487984   -9.0955989    526.76071 0.0088039963 0.0070452812            9 
 4987000   0.44826113   -9.0713907    525.87168 0.0087873751 0.0070428777            6 
 4988000   0.45344408   -9.0761085    526.34279 0.0087934843  0.007040477            4 
 4989000   0.45904009    -9.071823    526.55976 0.0087953458 0.0070380763            5 
 4990000    0.4537993   -9.0578752    525.95741 0.0087835239 0.0070356761            4 
 4991000   0.45604778   -9.0792905    527.00121  0.008799192 0.0070332784            5 
 4992000   0.46504343   -9.0728321     526.3861 0.0087871611  0.007030881            4 
 4993000   0.45566121   -9.0796914    526.45971 0.0087866297 0.0070284848            9 
 4994000   0.45070968    -9.073363    526.57695 0.0087868267 0.0070260902            8 
 4995000    0.4602686   -9.0951105    526.27904 0.0087800974 0.0070236969            5 
 4996000   0.45554908    -9.074794     526.2451 0.0087777739 0.0070213035            4 
 4997000   0.44445329   -9.0729466     526.3633 0.0087779884 0.0070189119            2 
 4998000   0.44981762   -9.0636492    526.05914 0.0087711607 0.0070165204            3 
 4999000   0.44926973   -9.0944721    526.46879 0.0087762351 0.0070141295            5 
 5000000   0.44468466   -9.0772452    526.67461 0.0087779101 0.0070117389            5 
 5001000   0.44291935   -9.0724929    526.13314 0.0087671322 0.0070093526            4 
 5002000   0.45232785   -9.0903744    525.81375 0.0087600585 0.0070069662            4 
 5003000   0.46164362    -9.082445    525.58114 0.0087544331 0.0070045792            5 
 5004000   0.45755984   -9.0854045    526.04961 0.0087604851 0.0070021942            5 
 5005000   0.45068651   -9.0785375    525.38901 0.0087477358  0.006999811            8 
 5006000    0.4507307   -9.0869335    526.13454 0.0087583989  0.006997428            4 
 5007000   0.44259079   -9.0838049    526.71881 0.0087663739  0.006995045            7 
 5008000    0.4508494   -9.0810382    525.60385 0.0087460705 0.0069926643            3 
 5009000   0.45333904   -9.0826955    526.07398 0.0087521458 0.0069902831            4 
 5010000   0.44628572   -9.1007344    526.33771 0.0087547856 0.0069879057            7 
 5011000   0.44000807   -9.0870133    525.08741 0.0087322458 0.0069855269            7 
 5012000   0.43906548   -9.0781641     526.5168 0.0087542697 0.0069831507            7 
Loop time of 12622.1 on 48 procs for 5000000 steps with 4000 atoms

Performance: 68451.558 tau/day, 396.132 timesteps/s
99.4% CPU use with 48 MPI tasks x no OpenMP threads

MPI task timing breakdown:
Section |  min time  |  avg time  |  max time  |%varavg| %total
---------------------------------------------------------------
Pair    | 827.11     | 926.79     | 996.89     | 123.8 |  7.34
Neigh   | 82.759     | 86.678     | 90.16      |  22.5 |  0.69
Comm    | 793.87     | 866.2      | 960.65     | 130.4 |  6.86
Output  | 14.046     | 14.051     | 14.127     |   0.3 |  0.11
Modify  | 10590      | 10610      | 10645      |  12.3 | 84.06
Other   |            | 118.6      |            |       |  0.94

Nlocal:        83.3333 ave          92 max          75 min
Histogram: 1 3 2 7 16 6 4 5 3 1
Nghost:        2230.62 ave        2249 max        2208 min
Histogram: 2 2 5 4 7 5 7 9 5 2
Neighs:        14922.2 ave       16669 max       12790 min
Histogram: 1 2 3 5 6 10 12 4 2 3
FullNghs:      29844.7 ave       32994 max       26843 min
Histogram: 1 3 1 11 14 5 5 4 3 1

Total # of neighbors = 1432545
Ave neighs/atom = 358.13625
Neighbor list builds = 266730
Dangerous builds = 0

#clear
#
#next RN
#
#jump SELF
Total wall time: 3:30:25
