
units lj                  # Use reduced LJ style units
atom_style atomic         # Uncharged point particles
atom_modify map hash      # Needed for indexing of clusters etc
                          # Used to be able to find where atoms are in relation to each other.

lattice fcc 1.0 spacing 1 1 1
Lattice spacing in x,y,z = 1.5874011 1.5874011 1.5874011
region box block 0 10 0 10 0 10 units lattice
create_box 2 box
Created orthogonal box = (0.0000000 0.0000000 0.0000000) to (15.874011 15.874011 15.874011)
  3 by 4 by 4 MPI processor grid
create_atoms 1 box
Created 4000 atoms
  using lattice units in orthogonal box = (0.0000000 0.0000000 0.0000000) to (15.874011 15.874011 15.874011)
  create_atoms CPU = 0.002 seconds
set type 1 type/fraction 2 0.4 78393
Setting atom values ...
  1612 settings made for type/fraction
mass 1 1.0
mass 2 1.0
pair_style lj/cut  3.5
pair_modify tail  yes
pair_coeff 1  1  1.0  1.0   # Intearaction between 1 and 1 set with epsilon = 1 and sigma = 1
pair_coeff 1  2  1.5  0.8
pair_coeff 2  2  0.5  0.88

write_data data.0
System init for write_data ...
Neighbor list info ...
  update every 1 steps, delay 10 steps, check yes
  max neighbors/atom: 2000, page size: 100000
  master list distance cutoff = 3.8
  ghost atom cutoff = 3.8
  binsize = 1.9, bins = 9 9 9
  1 neighbor lists, perpetual/occasional/extra = 1 0 0
  (1) pair lj/cut, perpetual
      attributes: half, newton on
      pair build: half/bin/atomonly/newton
      stencil: half/bin/3d
      bin: standard
WARNING: Not all mixed pair coeffs generated from mixing. Use write_data with 'pair ij' option to store all pair coeffs. (../write_data.cpp:312)


#############################
#   M E L T   S Y S T E M   #
#############################

velocity all create 2.4 5833274 mom yes dist gaussian # Assign velocities
                                                    # Temperature 2.4, random number seed, zero linear momentum
                                                                                # Gaussian distribution

timestep 0.002   # simulation timestep
thermo 1000       # output thermodynamic data every 1000 steps bf 100

# Define a fix  in this case with index 1 applied to all
# particles in the simulation. This fix is for simulations
# in the anisotropic NPT ensemble. Note that we use the MTK
# correction.
fix 1 all npt temp 2.4 2.4 0.1 iso 5.68 5.68 0.5 mtk yes tchain 5 pchain 5 # Use NPT ensemble
                                                                         # Set temperature and pressure and damping
                                                                         # Numbers of thermostats in chain and in barostat
run 10000          # run for 10000 steps
Per MPI rank memory allocation (min/avg/max) = 3.642 | 3.644 | 3.648 Mbytes
Step Temp E_pair E_mol TotEng Press Volume 
       0          2.4    -5.861415            0    -2.262315   -4.1716513         4000 
    1000    2.3982321   -5.0197057            0    -1.423257    5.7723764    3888.6962 
    2000     2.370778   -5.0801134            0   -1.5248354    5.7370238    3855.4786 
    3000    2.3708065   -5.0367583            0   -1.4814377    5.7526304    3880.1505 
    4000    2.3724554   -5.0752841            0   -1.5174907    5.3934017    3893.1281 
    5000    2.4557256   -5.0125397            0   -1.3298721     5.816657    3888.9697 
    6000    2.3728145   -4.9675407            0   -1.4092087    5.6248503     3909.673 
    7000    2.3700789   -5.0397568            0   -1.4855273    5.6874955    3886.7712 
    8000    2.3889041   -5.0100653            0   -1.4276049    5.8063639    3891.1054 
    9000     2.426483    -5.005122            0   -1.3663074    5.7408922    3896.2063 
   10000    2.4319564   -5.0136415            0   -1.3666189    6.1177245    3858.8101 
Loop time of 2.57845 on 48 procs for 10000 steps with 4000 atoms

Performance: 670170.121 tau/day, 3878.299 timesteps/s
99.6% CPU use with 48 MPI tasks x no OpenMP threads

MPI task timing breakdown:
Section |  min time  |  avg time  |  max time  |%varavg| %total
---------------------------------------------------------------
Pair    | 1.1026     | 1.1879     | 1.2649     |   3.0 | 46.07
Neigh   | 0.21116    | 0.2178     | 0.23266    |   0.9 |  8.45
Comm    | 0.81251    | 0.88642    | 0.99878    |   4.2 | 34.38
Output  | 0.0002458  | 0.00025086 | 0.00031849 |   0.0 |  0.01
Modify  | 0.21882    | 0.27063    | 0.32589    |   5.4 | 10.50
Other   |            | 0.01541    |            |       |  0.60

Nlocal:        83.3333 ave          94 max          70 min
Histogram: 1 0 3 5 4 20 5 6 2 2
Nghost:        1689.92 ave        1722 max        1660 min
Histogram: 3 4 8 3 7 8 4 2 6 3
Neighs:        9878.92 ave       11465 max        8277 min
Histogram: 1 1 4 7 11 13 4 4 1 2

Total # of neighbors = 474188
Ave neighs/atom = 118.54700
Neighbor list builds = 906
Dangerous builds = 215

# Equilibrate just above the melting temperature to avoid step fn in T

fix 1 all npt temp 1.25 1.25 0.1 iso 5.68 5.68 0.5 mtk yes tchain 5 pchain 5
run 2000
Per MPI rank memory allocation (min/avg/max) = 3.643 | 3.645 | 3.649 Mbytes
Step Temp E_pair E_mol TotEng Press Volume 
   10000    2.4319564   -5.0136415            0   -1.3666189    6.1177245    3858.8101 
   11000    1.2422865   -7.0400108            0   -5.1770468    5.8117504    3077.7674 
   12000    1.2498124   -7.1067015            0   -5.2324515    5.4597456    3073.0599 
Loop time of 0.614814 on 48 procs for 2000 steps with 4000 atoms

Performance: 562121.061 tau/day, 3253.015 timesteps/s
99.6% CPU use with 48 MPI tasks x no OpenMP threads

MPI task timing breakdown:
Section |  min time  |  avg time  |  max time  |%varavg| %total
---------------------------------------------------------------
Pair    | 0.26807    | 0.29623    | 0.32716    |   2.4 | 48.18
Neigh   | 0.038748   | 0.041805   | 0.04572    |   0.7 |  6.80
Comm    | 0.19161    | 0.22796    | 0.26013    |   3.2 | 37.08
Output  | 5.0813e-05 | 5.1871e-05 | 6.6608e-05 |   0.0 |  0.01
Modify  | 0.040705   | 0.04381    | 0.047087   |   0.9 |  7.13
Other   |            | 0.004955   |            |       |  0.81

Nlocal:        83.3333 ave          91 max          77 min
Histogram: 5 1 5 9 8 9 4 3 1 3
Nghost:        1954.23 ave        1971 max        1923 min
Histogram: 1 1 2 2 2 9 10 9 6 6
Neighs:        12437.4 ave       13983 max       11208 min
Histogram: 5 4 5 6 10 7 3 4 0 4

Total # of neighbors = 596997
Ave neighs/atom = 149.24925
Neighbor list builds = 143
Dangerous builds = 11

#############################
# L I N E A R  Q U E N C H  #
#############################

# Define solid atoms. This closely follows ten Wolde  Ruiz-Montero and Frenkel  Faraday Discuss  1996  104  93-110
# Compute components of the per-atom q6 vector
compute q6 all orientorder/atom degrees 1 6 components 6 nnn NULL cutoff 1.3 # compute the Q6 parameter.
                                                                             # Use all neighbours within 1.3 unit cell.

# get number of connections
compute coord_number all coord/atom orientorder q6 0.5

# An atom is solid if it has 8 or more connections (of a possible 14)
variable is_solid atom c_coord_number>=8
group solid dynamic all var is_solid    # Must be dynamic to update
dynamic group solid defined

# do clustering
compute cluster solid cluster/atom 1.3 # Create a cluster where all atoms within are solid and max 1.3 units from another member

# define chunks one chunk per cluster
compute clus_chunks solid chunk/atom c_cluster nchunk every compress yes  # Says which atoms are in which chunk

# count the size of each chunk
compute size_chunks solid property/chunk clus_chunks count


# Find the maximum entry in the vector of chunk sizes
variable max_n equal max(c_size_chunks)


# Thermo style which includes this variable
# thermo_style custom step temp pe vol v_max_n

thermo ${N}  # Print the thermo information every 100 steps
thermo 1000  

# Reset the npt fix at a lower temperature (below freezing)
fix 1  all npt temp  ${temp} ${temp}  0.1  iso  5.68  5.68  0.5  mtk yes tchain  5  pchain  5
fix 1  all npt temp  0.45 ${temp}  0.1  iso  5.68  5.68  0.5  mtk yes tchain  5  pchain  5
fix 1  all npt temp  0.45 0.45  0.1  iso  5.68  5.68  0.5  mtk yes tchain  5  pchain  5

dump dmp2 all dcd ${N} traj.dcd
dump dmp2 all dcd 1000 traj.dcd


compute msd all msd com yes
variable twopoint equal c_msd[4]/6/(step*dt+1.0e-6)
fix 9 all vector 10 c_msd[4]
variable fit equal slope(f_9)/6/(10*dt)
thermo_style custom step temp pe c_msd[4] v_twopoint v_fit v_max_n

fix 1 all npt temp 1.25 ${temp} 0.1 iso 5.68 5.68 0.5 mtk yes tchain 5 pchain 5
fix 1 all npt temp 1.25 0.45 0.1 iso 5.68 5.68 0.5 mtk yes tchain 5 pchain 5
run 5000000 # 5000000  # Run for this many steps
Neighbor list info ...
  update every 1 steps, delay 10 steps, check yes
  max neighbors/atom: 2000, page size: 100000
  master list distance cutoff = 3.8
  ghost atom cutoff = 3.8
  binsize = 1.9, bins = 8 8 8
  4 neighbor lists, perpetual/occasional/extra = 1 3 0
  (1) pair lj/cut, perpetual
      attributes: half, newton on
      pair build: half/bin/atomonly/newton
      stencil: half/bin/3d
      bin: standard
  (2) compute orientorder/atom, occasional
      attributes: full, newton on
      pair build: full/bin/atomonly
      stencil: full/bin/3d
      bin: standard
  (3) compute coord/atom, occasional
      attributes: full, newton on
      pair build: full/bin/atomonly
      stencil: full/bin/3d
      bin: standard
  (4) compute cluster/atom, occasional
      attributes: full, newton on
      pair build: full/bin/atomonly
      stencil: full/bin/3d
      bin: standard
Per MPI rank memory allocation (min/avg/max) = 9.823 | 9.829 | 9.837 Mbytes
Step Temp PotEng c_msd[4] v_twopoint v_fit v_max_n 
   12000    1.2498124   -7.1067015 2.1086252e-30 1.464323e-32 8.3333333e+20            1 
   13000    1.2478396   -7.1064646   0.44635814   0.00286127  0.036356635            3 
   14000      1.25932   -7.0535953   0.89278115 0.0053141733  0.036040731            2 
   15000    1.2385417   -7.1045081    1.3338567 0.0074103145  0.036433748            1 
   16000    1.2514285    -7.101549    1.7866553 0.0093054962  0.036565953            2 
   17000    1.2704709   -7.1361123    2.2072008  0.010819612  0.036644372            2 
   18000    1.2329992   -7.0842761    2.5810201  0.011949167  0.036181552            1 
   19000    1.2447777   -7.0880774    2.9767946  0.013056116  0.035547341            6 
   20000    1.2213975   -7.0498565    3.4248555  0.014270231  0.035195316            3 
   21000    1.2423579   -7.0483208    3.9233023   0.01556866  0.035220458            2 
   22000    1.2363036   -7.1091383    4.3229481  0.016374803  0.035562412            1 
   23000    1.2856727   -7.1201665    4.6470565  0.016837161  0.035467134            1 
   24000    1.2773601   -7.1231376    5.0238839  0.017444041  0.035153268            2 
   25000    1.2393788   -7.1076132    5.5046642   0.01834888  0.034976584            1 
   26000    1.2351197   -7.1084118    5.8901098  0.018878557  0.034946086            2 
   27000    1.2256763   -7.0994341    6.2821457  0.019389338  0.034845334            2 
   28000    1.2453682    -7.077368    6.6999067  0.019940198  0.034727928            2 
   29000    1.2666202   -7.1021004    7.1029625  0.020410811  0.034626909            3 
   30000    1.2387641   -7.1005024    7.5339242  0.020927567    0.0345594            1 
   31000    1.2589297   -7.1369533     7.984535  0.021463804  0.034561944            2 
   32000    1.2293287   -7.0751013    8.4785427  0.022079538  0.034619895            1 
   33000    1.2502442   -7.1078359    8.8792419  0.022422328  0.034710081            4 
   34000     1.251303   -7.1158492    9.2424677  0.022653107  0.034738648            1 
   35000    1.2592416    -7.086156    9.6204605  0.022905858  0.034741302            2 
   36000    1.2502909   -7.0811515    10.009316  0.023169712  0.034697188            2 
   37000    1.2638614   -7.1095423    10.527877  0.023711435  0.034695183            3 
   38000    1.2496622   -7.1382024    10.924132   0.02395643  0.034702079            1 
   39000     1.234108   -7.1207183    11.361516  0.024276743  0.034713988            2 
   40000    1.2130171   -7.0886529     11.79222  0.024567124  0.034768788            2 
   41000    1.2345934   -7.1196868    12.253693   0.02490588  0.034803515            1 
   42000    1.2577808   -7.1153304    12.690767  0.025180092  0.034841039            4 
   43000    1.2546141    -7.115064    13.075653  0.025340413  0.034884989            1 
   44000    1.2507115    -7.107439    13.533601  0.025631819  0.034921205            1 
   45000    1.2530869   -7.1245192    13.950369  0.025834016  0.034963888            1 
   46000    1.2404458   -7.0740713     14.36617   0.02602567  0.034991118            4 
   47000    1.2488634   -7.0416716    14.777095  0.026200523  0.035000769            1 
   48000     1.216072   -7.1369514     15.32757  0.026610365  0.035031862            1 
   49000    1.2315385    -7.121662    15.749871  0.026785494  0.035085832            4 
   50000    1.2728148   -7.1434319    16.051128   0.02675188  0.035124469            2 
   51000    1.2683855   -7.1177334    16.525241  0.027002027  0.035128479            1 
   52000    1.2350217    -7.055565    17.099058  0.027402337  0.035146994            2 
   53000     1.246537   -7.1166162    17.433074  0.027410494  0.035204704            1 
   54000    1.2641759   -7.0750276    18.015815  0.027802183  0.035253959            2 
   55000    1.2453629    -7.100292    18.480443  0.028000671  0.035318143            1 
   56000    1.2542154   -7.1585637    18.812989   0.02799552  0.035372614            1 
   57000    1.1862624   -7.0737045    19.385773  0.028341773  0.035425246            1 
   58000    1.2403629   -7.1255233    19.682592  0.028279586   0.03546608            1 
   59000    1.2351433   -7.1028276    20.127543  0.028428733  0.035495424            2 
   60000    1.2135695   -7.0766381    20.607428  0.028621428   0.03552444            1 
   61000    1.2305266   -7.1404949     20.79541   0.02840903    0.0355336            1 
   62000    1.2364116     -7.11187    21.270065  0.028588797   0.03552862            3 
   63000    1.2309864   -7.1565403    21.580312  0.028545386  0.035511224            1 
   64000    1.2257464   -7.1143376    22.131133  0.028816579  0.035493078            2 
   65000    1.2243255   -7.1053082    22.598052  0.028971861  0.035489528            1 
   66000    1.2531272   -7.1012491    23.118653  0.029190218  0.035500041            2 
   67000    1.2396546    -7.083686    23.506671  0.029237153  0.035512723            2 
   68000    1.2414686   -7.1328215    23.700681  0.029044952  0.035512702            1 
   69000    1.2490457   -7.1171791    24.154513  0.029172117  0.035493593            1 
   70000    1.2330277   -7.1395043    24.637042  0.029329812  0.035490224            1 
   71000    1.2324222   -7.0685993    25.139603  0.029506576  0.035495081            1 
   72000    1.2638238    -7.120966    25.503406  0.029517831  0.035495755            3 
   73000     1.234868    -7.102685    26.180196  0.029886069  0.035502657            1 
   74000    1.2439117   -7.0861381    26.669421  0.030033132   0.03552581            1 
   75000     1.246561   -7.1119473    27.018323  0.030020359  0.035543301            1 
   76000    1.2411842   -7.1426984    27.385808  0.030028298  0.035568035            4 
   77000    1.2255733   -7.1047171    27.860592  0.030152155  0.035586568            3 
   78000    1.2521973   -7.1643435    28.193777  0.030121556  0.035605273            1 
   79000    1.2382445   -7.1035952    28.664714   0.03023704  0.035614244            1 
   80000    1.2722264   -7.1388316    28.900508  0.030104696   0.03560945            2 
   81000     1.257703   -7.1070658    29.348062  0.030193479  0.035603642            1 
   82000    1.2432458   -7.1098542    29.662319  0.030144632  0.035593705            1 
   83000    1.2319913   -7.1298384    29.906444   0.03002655  0.035570093            1 
   84000    1.2475595    -7.175497    30.180336  0.029940809   0.03553471            3 
   85000    1.2617824   -7.1202655    30.944828  0.030338066  0.035510701            1 
   86000    1.2435744   -7.1204646    31.360619  0.030388197  0.035501536            1 
   87000    1.2112025   -7.0760112    31.886289  0.030542422  0.035497538            2 
   88000     1.224594    -7.089847     32.37153  0.030654858  0.035490935            1 
   89000     1.254123   -7.1112458    32.743843  0.030659029  0.035486749            2 
   90000    1.2451536   -7.1337869    33.196207  0.030737228  0.035487356            2 
   91000    1.2282273   -7.1874775     33.44456  0.030626887  0.035487467            3 
   92000     1.243299   -7.1842835    33.720695  0.030544108  0.035475307            1 
   93000    1.2283976   -7.1026849    34.390771  0.030816103  0.035466398            1 
   94000    1.2091702    -7.137724    34.489367   0.03057568  0.035446906            3 
   95000    1.2190935   -7.1024447    34.941286  0.030650251  0.035413852       -1e+20 
   96000    1.2585591   -7.1232387    35.257944  0.030605854  0.035380413            1 
   97000    1.2328035   -7.1015699     35.68227  0.030654871  0.035351215            1 
   98000    1.2561103   -7.1080935    35.838566  0.030474971  0.035311697            3 
   99000    1.2633946   -7.1565124    36.184297  0.030458162  0.035272665            1 
  100000    1.2377473   -7.1235031    36.659212  0.030549343  0.035233513            1 
  101000    1.2038117   -7.1397873    37.046707   0.03056659  0.035190981            3 
  102000    1.2368999   -7.0747746    37.703367  0.030803404  0.035158151            1 
  103000    1.2144973   -7.1219164    38.064494  0.030796516  0.035131449            1 
  104000    1.2344601   -7.1305724    38.496171  0.030846291  0.035107558            1 
  105000    1.2344421    -7.131039    39.068314  0.031006598  0.035092899            2 
  106000    1.2417123   -7.1518211    39.474185  0.031033164  0.035083222            1 
  107000     1.231188   -7.1430662     39.86873  0.031050413  0.035070938            3 
  108000    1.2532172   -7.1254176    40.173075  0.030997743  0.035058628            1 
  109000    1.2284119   -7.1432424    40.365153  0.030860208  0.035038094            1 
  110000    1.2601183   -7.1564176    40.770964  0.030887093  0.035008401            2 
  111000    1.2380874   -7.1329471    41.002816  0.030782895  0.034980573            2 
  112000     1.244179   -7.1368185    41.521803  0.030894199   0.03495321            1 
  113000    1.2223343   -7.0653485    41.913148  0.030909401  0.034927383            2 
  114000     1.235872    -7.121661    42.099121  0.030774211  0.034895109            1 
  115000    1.2443748   -7.1473608     42.68321  0.030929862  0.034862052            2 
  116000     1.235751   -7.0871144    43.204252  0.031037537  0.034829033            1 
  117000    1.2224691   -7.0899247    43.591573  0.031048129  0.034803197            1 
  118000    1.2351956   -7.1164076    44.025602  0.031091527  0.034778397            1 
  119000    1.2448651   -7.1661906    44.397899  0.031090966   0.03475902            2 
  120000    1.2350041   -7.1350456    44.995648  0.031246977  0.034741693            2 
  121000    1.2485361     -7.14061    45.308905   0.03120448  0.034729632            2 
  122000    1.2416908   -7.0980819    45.870866  0.031332559  0.034712305            5 
  123000    1.2041316   -7.1735718    46.097033  0.031231052  0.034696383            5 
  124000    1.2341089   -7.1406447    46.409116  0.031188922  0.034678356            1 
  125000    1.2290476   -7.1475476    46.999163  0.031332775  0.034666011            2 
  126000    1.2252064   -7.1259257    47.275019  0.031266547  0.034649605            1 
  127000     1.245267   -7.1591784    47.411572  0.031109955  0.034628525            1 
  128000    1.2155831    -7.159839     47.61982  0.031002487  0.034604665            1 
  129000    1.2595595   -7.1641345    48.027584  0.031025571  0.034578599            1 
  130000    1.2333646   -7.1443558    48.724787  0.031233837  0.034553157            1 
  131000    1.2291454   -7.2029163    48.816276   0.03105361  0.034527472            1 
  132000    1.2301154   -7.1563846    49.647031  0.031342823  0.034505743            1 
  133000    1.2325445   -7.1526515    49.971352  0.031310371  0.034487382            1 
  134000    1.2183478   -7.1404382    50.329155  0.031299226  0.034473446            2 
  135000    1.2129814   -7.2081484    50.666707  0.031275745  0.034456766            4 
  136000    1.2251333   -7.1534267    51.272385  0.031416902   0.03444293            1 
  137000    1.2145052   -7.0914061    51.916304   0.03157926  0.034432383            1 
  138000     1.225517   -7.0972047    51.894253  0.031337109  0.034420284            3 
  139000    1.2421352   -7.1771276    52.312019  0.031362121  0.034402595            1 
  140000    1.2458435   -7.2195158    52.373212  0.031174531  0.034384797            1 
  141000    1.2501472   -7.1743675    52.999669  0.031323682  0.034364625            3 
  142000     1.245184    -7.187709    53.181118  0.031209576  0.034347945            1 
  143000     1.236275   -7.1863282    53.831605  0.031370399  0.034329045            3 
  144000    1.2508652   -7.1459289    54.241161   0.03138956  0.034314093            4 
  145000    1.2432898    -7.190988      54.5256  0.031336552  0.034297875            1 
  146000    1.2380572   -7.1792775    54.902483  0.031337034  0.034280847            1 
  147000    1.2342351   -7.1730164    55.373218  0.031390713  0.034266251            3 
  148000    1.2415623   -7.1651565     55.88507  0.031466819  0.034254954            1 
  149000    1.2202971    -7.139723     56.15745   0.03140797  0.034239662            3 
  150000    1.2084487   -7.1401424    56.897417  0.031609676  0.034226776            3 
  151000    1.2277902    -7.163208    57.047999  0.031483443   0.03421325            3 
  152000    1.2410287   -7.1844587    57.441904  0.031492272  0.034200723            3 
  153000    1.2339388   -7.1849721    57.668365  0.031409785  0.034187979            2 
  154000    1.2469954    -7.098551    58.407145  0.031605598  0.034176851            1 
  155000    1.2203122   -7.1648014    58.750117  0.031586084  0.034169726            1 
  156000    1.2425353   -7.1574997    59.171224  0.031608559  0.034163137            2 
  157000    1.2678217   -7.1665154    59.459314  0.031560145  0.034153112            1 
  158000    1.2056483   -7.1361199    60.086297  0.031691085  0.034143401            1 
  159000    1.2394955   -7.1447406    60.553435  0.031736601  0.034138536            1 
  160000    1.2242854   -7.1745734    60.755795  0.031643643  0.034130344            1 
  161000    1.2295974    -7.160325    61.271392  0.031713971  0.034120813            1 
  162000    1.2508632   -7.1786673    61.713442  0.031745598  0.034115089            2 
  163000    1.2257763   -7.1622775    62.065159  0.031730654  0.034109161            1 
  164000    1.2107047   -7.1475858    62.224916  0.031618352  0.034099976            2 
  165000    1.2377375   -7.1404266     62.59829  0.031615298  0.034086613            3 
  166000    1.2425841   -7.1370258    62.942489  0.031597635    0.0340734            2 
  167000    1.2080765   -7.1504895     63.78642  0.031829551  0.034062454            1 
  168000     1.238119   -7.1220622    63.765419  0.031629672  0.034052146            1 
  169000    1.2085457   -7.1518932    64.101682  0.031608325  0.034043135            1 
  170000    1.2379336   -7.1246309    64.788943  0.031759286  0.034031814            1 
  171000    1.2262671   -7.1849572     64.77937  0.031568893  0.034019962            1 
  172000    1.2428371   -7.1698569    65.307246  0.031641107  0.034011225            1 
  173000    1.2344943   -7.1616913     65.96759  0.031776296  0.034001577            3 
  174000    1.1880292   -7.1730651    66.157873  0.031684805  0.033993475            2 
  175000    1.2284673   -7.1345868    67.044669  0.031926033  0.033986938            2 
  176000    1.2420213   -7.1293194     67.52221  0.031970743   0.03398372            1 
  177000    1.2282647     -7.17469    67.663783  0.031856772  0.033980129            1 
  178000     1.219767   -7.1850515    68.047291  0.031857346  0.033976554            1 
  179000    1.2379124   -7.1183317     68.61515  0.031943738   0.03397495            1 
  180000    1.2020617   -7.1581217    68.843223  0.031871862  0.033971932            1 
  181000    1.2043941   -7.2077442    69.350353   0.03192926  0.033967273            1 
  182000    1.2247041   -7.1440629    69.745459  0.031934734  0.033964109            3 
  183000    1.2458455   -7.1787291    69.698785  0.031738973  0.033957568            1 
  184000    1.2163568   -7.1604494     70.37469  0.031872595  0.033952077            2 
  185000     1.212608   -7.1802259    70.762112  0.031874825  0.033945387            1 
  186000    1.2121403   -7.1878528    70.979806  0.031800988  0.033937421            1 
  187000    1.2202313   -7.1793423    71.508705  0.031866624  0.033931337            1 
  188000    1.2417043   -7.1416679    71.962103  0.031898095  0.033924216            1 
  189000    1.2168012   -7.1816658    72.223462   0.03184456  0.033916796            1 
  190000    1.2241456   -7.1735639    72.854855  0.031953884  0.033909579            1 
  191000    1.2303179   -7.1534118    73.156844  0.031918344  0.033905432            1 
  192000    1.2409263   -7.1587448    73.604222  0.031946277  0.033900881            2 
  193000    1.2292523   -7.1819746     74.02122  0.031960803  0.033897492            3 
  194000    1.2142821   -7.1498513    74.804044  0.032132321  0.033895575            1 
  195000      1.23722   -7.1536721    75.411398  0.032227093  0.033895943            1 
  196000    1.2151823   -7.1762857    75.757727  0.032209918  0.033898421            1 
  197000    1.2393183   -7.2163324    76.060893  0.032174659  0.033902458            1 
  198000     1.235891    -7.202085    76.490443  0.032192947  0.033903809            1 
  199000    1.2215353   -7.1189737      77.3599  0.032395268  0.033907276            2 
  200000    1.2160772   -7.1444841    77.467945   0.03227831  0.033911884            2 
  201000    1.2309405   -7.2002152    77.760359  0.032238955  0.033917266            1 
  202000      1.21433   -7.1905937    78.442353  0.032360706   0.03392325            2 
  203000    1.2235686    -7.147057    78.918018  0.032396559  0.033930117            1 
  204000    1.2331196   -7.1583232    79.256281  0.032375932  0.033938054            1 
  205000    1.2074343   -7.1757856    79.724367  0.032408279  0.033942617            2 
  206000    1.2131169   -7.1812346    80.043307  0.032379978  0.033945477            1 
  207000    1.2079629   -7.1477853    80.610783  0.032452006  0.033950966            3 
  208000     1.235329   -7.1807886    81.003857  0.032453468  0.033957576            1 
  209000    1.1884598    -7.175487     80.96118  0.032281172  0.033960758            1 
  210000    1.2262773   -7.1750096    81.533765  0.032354669   0.03396135            1 
  211000    1.2441497   -7.1963851    81.570576  0.032215867  0.033960957            2 
  212000    1.2004274   -7.1452438    82.186382  0.032305968  0.033960007            3 
  213000    1.2315739   -7.1641579    82.438543  0.032252951  0.033959453            2 
  214000    1.2030056   -7.1610861    82.621542  0.032173498  0.033957199            2 
  215000     1.202592   -7.1663277    83.308635  0.032290169  0.033955476            3 
  216000    1.2278841   -7.1904396    83.647895  0.032271565  0.033954319            1 
  217000    1.2282967   -7.1557992    84.218543   0.03234199  0.033950733            1 
  218000    1.2346028   -7.1527013    84.452111  0.032282917  0.033948626            1 
  219000    1.2249918   -7.2002124    84.723372  0.032238726   0.03394864            2 
  220000    1.2236623   -7.2221037    84.732775  0.032095748  0.033946342            1 
  221000    1.2105781   -7.1900893    85.081336  0.032081952  0.033942721            2 
  222000    1.2129032   -7.1877106    85.544887  0.032111444  0.033936772            1 
  223000    1.2171997   -7.1605381    86.221829  0.032220414  0.033930728            1 
  224000    1.2442316   -7.1885223    86.063502  0.032017672  0.033921828            4 
  225000    1.2141402   -7.1901006    86.362963  0.031986283  0.033910413            1 
  226000    1.1900139   -7.1464968    86.557781  0.031916586  0.033897515            2 
  227000    1.2218183    -7.170475    87.130493  0.031986231  0.033885486            2 
  228000     1.214057   -7.1867833    87.498138  0.031980313  0.033874178            3 
  229000    1.2009665   -7.1815456    87.901711  0.031987522  0.033864005            1 
  230000    1.1997688   -7.2010211    88.240979  0.031971369  0.033852758            3 
  231000     1.233679   -7.1702169     88.54702  0.031943369  0.033841325            1 
  232000    1.2070446   -7.1763207    88.850179  0.031914576  0.033828692            3 
  233000    1.2056099   -7.1561713    89.417002   0.03198033  0.033815253            2 
  234000    1.1872172   -7.1976447    89.173373  0.031756899  0.033800609            2 
  235000    1.2276578   -7.2281573    89.311006  0.031670569  0.033784967            2 
  236000    1.2053334   -7.1873071    89.903687  0.031745652  0.033770249            2 
  237000     1.210776   -7.1804868    90.125679   0.03168976  0.033754185            1 
  238000     1.229153   -7.2124881    90.543721  0.031702984  0.033736138            3 
  239000    1.2068985   -7.1652587    91.108781  0.031767357     0.033719            1 
  240000    1.2032023   -7.2429733    91.143697  0.031647117  0.033701942            3 
  241000    1.1909949   -7.1771298    91.910548  0.031780964  0.033684795            3 
  242000    1.2196845      -7.1938    91.866099  0.031634331   0.03366817            2 
  243000    1.2019003   -7.1781438     92.38078  0.031680652  0.033649758            3 
  244000    1.2012459   -7.1281324    92.898054  0.031727477  0.033630109            2 
  245000    1.2144581   -7.1830432    92.963564   0.03162026  0.033612723            2 
  246000    1.2306464   -7.2040386    93.251834  0.031589375  0.033594275            1 
  247000    1.1952631    -7.153965    93.765075  0.031634641  0.033577641            1 
  248000    1.2021733   -7.2118609    93.939422  0.031565666  0.033559574            1 
  249000    1.2031292   -7.2041071    94.362088  0.031580351   0.03354008            2 
  250000    1.2085927   -7.2009166    94.437578  0.031479193  0.033521876            3 
  251000    1.1973543    -7.177984    94.966551  0.031529399  0.033503386            2 
  252000    1.2193315   -7.1692411    95.434423  0.031559002  0.033484468            1 
  253000      1.22208   -7.1652462    95.466273  0.031444754  0.033464795            3 
  254000    1.2342765   -7.1871251    96.113176  0.031533194  0.033445557            2 
  255000    1.1981689   -7.1908042    96.499665  0.031535838  0.033428038            1 
  256000    1.1873231   -7.1980513    96.796399  0.031509244  0.033410517            1 
  257000    1.2020682   -7.2332425    96.784073  0.031382643  0.033392748            2 
  258000    1.2205207   -7.1946641     97.29347  0.031425539  0.033374292            1 
  259000    1.2193497   -7.2112383    97.754692  0.031452603  0.033354244            1 
  260000    1.2135225   -7.2252456    97.847316  0.031361319   0.03333408            1 
  261000    1.2465063   -7.2411232    98.004987  0.031291503  0.033314145            2 
  262000    1.1964006   -7.2635729    98.218292  0.031239915   0.03329412            2 
  263000    1.2272513   -7.2373534     98.64793  0.031257265  0.033272494            3 
  264000    1.1769709    -7.223672    99.153351  0.031298406  0.033251391            1 
  265000    1.1906021    -7.203899    99.250081  0.031210717  0.033229205            1 
  266000    1.2181299   -7.1601772    100.10971  0.031362691  0.033209227            2 
  267000     1.224149   -7.1777838    100.30168  0.031305145  0.033190968            3 
  268000    1.2072424   -7.2152248    100.34341  0.031201309  0.033171645            1 
  269000    1.2093442   -7.1861876    100.89194  0.031255249   0.03315255            2 
  270000    1.1820246   -7.2237414    101.34223  0.031278465  0.033132697            2 
  271000    1.2336961   -7.2165091    101.79544   0.03130241  0.033113945            1 
  272000    1.2291557   -7.1808067    102.61786  0.031439297  0.033097333            1 
  273000    1.1906552   -7.2325862    102.88611  0.031406016  0.033082427            2 
  274000    1.1903495   -7.1971117    103.07368  0.031348443  0.033066601            1 
  275000    1.1996807   -7.1987091    103.56167  0.031382324  0.033051063            4 
  276000    1.2024299   -7.1800094    104.27077  0.031482719  0.033035657            1 
  277000    1.2331367   -7.1857248    104.67397  0.031490365  0.033021524            3 
  278000    1.1977551   -7.1785486    105.03336   0.03148482  0.033007592            1 
  279000    1.1986228   -7.1875122    105.02058  0.031368153  0.032993759            1 
  280000    1.2012999   -7.2021505    105.62093  0.031434801   0.03297947            3 
  281000    1.2148453   -7.1994045    106.06911  0.031455845  0.032965419            1 
  282000    1.2038219   -7.2135849    106.10156  0.031353889  0.032951865            1 
  283000    1.2242139   -7.2210255    106.72488  0.031426642  0.032937947            1 
  284000    1.1994483   -7.1831742    106.91627  0.031372144  0.032926268            1 
  285000    1.2061728   -7.2579888     107.2935  0.031372368  0.032914365            2 
  286000    1.1869305   -7.1869621    108.17014  0.031518106  0.032902621            2 
  287000    1.1781097   -7.2127773     108.2671  0.031436439  0.032890745            2 
  288000    1.1755648   -7.1827018    109.34085  0.031637976  0.032880446            1 
  289000    1.2106769   -7.2590517      109.179  0.031481835  0.032868857            2 
  290000    1.1953024   -7.1994878    109.83494  0.031561763  0.032857944            2 
  291000    1.2197357   -7.2079115     110.3491  0.031600544  0.032848756            3 
  292000    1.2336957    -7.227366    111.08314  0.031701808  0.032842806            3 
  293000    1.1897688   -7.1885534     111.3972  0.031682934  0.032836565            1 
  294000    1.1982293   -7.1704354    112.15452   0.03178983  0.032830557            1 
  295000    1.2099445   -7.2033798    112.44862  0.031765145   0.03282685            1 
  296000    1.1751066   -7.2190908    112.72299  0.031735077   0.03282202            3 
  297000    1.1962497   -7.2234324    113.04329  0.031718095  0.032817169            2 
  298000    1.2180703   -7.1997895    114.15137  0.031921524  0.032811944            2 
  299000    1.1957041   -7.2077398    114.20783  0.031830498  0.032806691            1 
  300000    1.2341253   -7.2059489     114.5965  0.031832362  0.032801631            1 
  301000    1.1878938   -7.1980234    114.95447   0.03182571  0.032797329            2 
  302000    1.1819134   -7.2100275    115.28225  0.031810775  0.032793515            2 
  303000    1.1892262   -7.2265507     115.2934  0.031708857  0.032788605            1 
  304000    1.1957608   -7.1919346    116.06459  0.031815952  0.032784236            1 
  305000    1.2282064   -7.2027165    116.14816   0.03173447  0.032778934            1 
  306000    1.2049484   -7.2410342     116.6238  0.031760295  0.032775005       -1e+20 
  307000    1.2152231   -7.1771059    117.15168  0.031800131   0.03277193            1 
  308000    1.1756316   -7.2832199    116.91522  0.031632906  0.032768156            2 
  309000    1.2340734   -7.2073479    118.16412  0.031867347  0.032762818            1 
  310000     1.193957   -7.2095878    117.95534  0.031708425  0.032758351            2 
  311000    1.2271463   -7.1898864     118.6608    0.0317955  0.032753801            1 
  312000    1.1813392   -7.2220913    118.60285  0.031678113  0.032748647            2 
  313000    1.1952767   -7.2180484    119.17996  0.031730553  0.032741858            3 
  314000    1.1992299   -7.1916098    119.61604  0.031745233  0.032736892            1 
  315000    1.2011316   -7.1916234    119.81185  0.031696257   0.03273186            2 
  316000    1.2339965   -7.2257543    120.27587  0.031718319  0.032725768            3 
  317000    1.2051321   -7.2000959    120.59477  0.031702096  0.032718831            2 
  318000     1.162659   -7.2337105    120.99005  0.031705987  0.032712712            3 
  319000    1.1805692   -7.2260957    121.28478  0.031683589  0.032707129            1 
  320000    1.2054269   -7.2501385    121.69997    0.0316927  0.032700676            1 
  321000    1.2096524   -7.2329283    122.36313  0.031766129  0.032694563            1 
  322000    1.2085055   -7.2197473    122.69535  0.031753454  0.032689463            2 
  323000    1.1814607   -7.2166312    123.01972  0.031738833  0.032684662            1 
  324000    1.1958363   -7.2002939    123.72396  0.031822006  0.032680688            1 
  325000    1.1955123   -7.2023781    123.86494  0.031760242  0.032676024            1 
  326000    1.2005698   -7.2503869    124.06855  0.031714865  0.032671825            2 
  327000    1.1906021   -7.2118531    124.51333  0.031731226  0.032667875            2 
  328000    1.1784345    -7.261918    124.96879  0.031750201  0.032664335            1 
  329000    1.2060777   -7.2008594    125.74814  0.031851099  0.032661208            1 
  330000    1.2260083    -7.231181    126.46681  0.031936063    0.0326587            1 
  331000    1.2037377   -7.2246524    126.17239  0.031765455  0.032655885            2 
  332000    1.2251543   -7.2602562    127.25487  0.031941483  0.032654183            2 
  333000    1.1731172   -7.2503463    127.30986  0.031859323  0.032651054            2 
  334000    1.2015634   -7.2353806     127.9342   0.03191971  0.032648765            1 
  335000    1.2051083   -7.1832373    128.37924  0.031935135  0.032646525            2 
  336000     1.223427   -7.1913454    129.31823  0.032072973   0.03264528       -1e+20 
  337000     1.191106   -7.2658216    128.28495  0.031722292  0.032643635            3 
  338000    1.1883664   -7.2047172    129.72194  0.031982727  0.032641644            3 
  339000     1.183224   -7.2253236    129.87548  0.031926126  0.032640741            1 
  340000    1.2415879   -7.2347941    130.05313  0.031875767  0.032640349            3 
  341000    1.2035288   -7.2083184    130.54056  0.031901407  0.032639708            1 
  342000    1.1755258   -7.2989163    130.73672  0.031855927  0.032638885            1 
  343000    1.1924168   -7.1818151    131.87304  0.032039124  0.032638528            2 
  344000    1.1826216    -7.209186    131.78104  0.031923702  0.032638687            1 
  345000    1.2029432   -7.2287911    132.30704  0.031958222  0.032638236            1 
  346000    1.1828412   -7.2606258    132.47306  0.031905844  0.032637617            2 
  347000    1.1857965    -7.190581    133.20434  0.031989514   0.03263769            2 
  348000    1.1825082   -7.1971479    133.93896  0.032073505  0.032638743            3 
  349000    1.2146541   -7.2374564    134.39258  0.032089918  0.032639944            1 
  350000    1.1981809   -7.2515033    134.25034  0.031964367  0.032640575            2 
  351000    1.1822818   -7.2434359    134.70055  0.031980187  0.032640727            3 
  352000    1.2085264   -7.2074432    135.48522    0.0320751  0.032640246            1 
  353000    1.1981284   -7.2230169    135.45856  0.031977941    0.0326411            1 
  354000    1.1643729   -7.2789994    135.89842  0.031991153  0.032640989            2 
  355000    1.1757128   -7.1602919    136.37989  0.032014058  0.032640802            2 
  356000    1.1988788   -7.2444552    136.15937  0.031872511  0.032639928            1 
  357000    1.1701995   -7.1913647    136.62335  0.031891539  0.032637955            1 
  358000    1.2041657   -7.2723341    136.96088  0.031881024  0.032635544            1 
  359000    1.1980799    -7.224836    137.39463  0.031892905  0.032633152            1 
  360000    1.2055625   -7.2693323    137.12901  0.031742826  0.032630539            2 
  361000    1.2035037   -7.2187398    138.03321  0.031863622  0.032627626            2 
  362000    1.1981322   -7.1986257    138.67452  0.031923233    0.0326254            1 
  363000    1.1852379    -7.284173    138.83218  0.031871482  0.032623721            4 
  364000    1.2038521   -7.2486209    139.44688  0.031924651  0.032621942            1 
  365000    1.1688056   -7.1667557    140.27712  0.032026739  0.032621925            3 
  366000    1.2002989   -7.2558482     140.5066  0.031991485  0.032621012            2 
  367000    1.1703306   -7.2533336    140.29969  0.031857332  0.032619968            2 
  368000     1.209701   -7.2490384    140.73928  0.031870308  0.032618297            2 
  369000    1.1877287   -7.2433188    140.59682  0.031751766  0.032615736            1 
  370000    1.1784096   -7.2246387    141.89774   0.03195895  0.032613655            1 
  371000    1.1720913   -7.2410884     141.5913  0.031803975  0.032611765            3 
  372000    1.2008565   -7.2077227    142.77943   0.03198464  0.032609793            1 
  373000    1.1817719    -7.212896    142.04603  0.031735037  0.032607246            2 
  374000    1.2042498   -7.1984692    142.55118  0.031762741  0.032603868            2 
  375000    1.1687751   -7.2061712    143.20236  0.031822747  0.032600662            3 
  376000    1.2101349   -7.2027626    143.68441  0.031844949  0.032597389            1 
  377000    1.2062447    -7.235649    144.14653  0.031862628  0.032594558            1 
  378000    1.1943135   -7.2694716    144.16754  0.031782968  0.032591496            3 
  379000    1.1937515   -7.2292637    144.76412  0.031830281  0.032588406            3 
  380000    1.1654665   -7.2481309    144.86791  0.031769278  0.032585118            1 
  381000    1.1922161   -7.2692539    145.29477  0.031779259  0.032582823            1 
  382000    1.1987863   -7.1929478    146.79949  0.032024321  0.032581079            1 
  383000    1.1723624    -7.215627    146.96305  0.031976295  0.032580696            1 
  384000    1.1852478   -7.2172732    147.53603  0.032017369  0.032580609            1 
  385000    1.1612731    -7.224684    148.17177  0.032071812  0.032580201            2 
  386000    1.1811076   -7.2279656    148.06802  0.031966325  0.032579909            2 
  387000    1.2126882   -7.2208524    148.36981  0.031948711  0.032579332            2 
  388000     1.187642   -7.2324647    148.77165  0.031952674  0.032577089            4 
  389000    1.1989696   -7.2495934    148.57096   0.03182754  0.032575215            2 
  390000    1.1845394   -7.2650073    148.49902  0.031730561  0.032572834            1 
  391000    1.2113148   -7.2419973    149.39222  0.031839773  0.032569997            1 
  392000    1.1646286   -7.2289952    149.76096  0.031836939  0.032567974            1 
  393000     1.198792   -7.2287347    150.48294   0.03190902  0.032565412            1 
  394000    1.1685916   -7.1707244    151.25321   0.03199095  0.032562536            1 
  395000    1.2015761   -7.1993471    151.37911   0.03193652  0.032559672            1 
  396000    1.1931197   -7.2228197    150.99184  0.031774377  0.032556237            2 
  397000    1.1690065   -7.2347162    151.45435  0.031791426  0.032551865            1 
  398000    1.2049926   -7.2601621    151.19906  0.031658095  0.032547256            1 
  399000    1.2015555   -7.2720756    151.13725  0.031565842  0.032541707            1 
  400000    1.1996989   -7.2147594    152.37483  0.031744756  0.032537741            1 
  401000    1.1963044   -7.1911781     153.5406  0.031907856  0.032534242            1 
  402000    1.1791933   -7.2736719    153.34655  0.031788257    0.0325299            1 
  403000    1.2087961   -7.2568315    153.89986  0.031823793  0.032525677            1 
  404000    1.2026007   -7.2474695    154.19564  0.031806032  0.032521419            2 
  405000    1.1810043   -7.2314593    154.77152  0.031845993  0.032517575            2 
  406000    1.1895085   -7.2208825    154.54968  0.031722019  0.032514754            2 
  407000    1.1877379   -7.2035456    155.79691   0.03189945   0.03251154            2 
  408000    1.1768661   -7.2732053    155.43253   0.03174684  0.032508052            1 
  409000    1.1825795   -7.2787236    156.00656  0.031786177  0.032504821            3 
  410000     1.201686    -7.248896    156.82133  0.031874253  0.032502304            2 
  411000    1.1775077   -7.2645221    156.91044   0.03181477  0.032500205            1 
  412000    1.2154873   -7.2561103     158.1184  0.031981876  0.032498402            1 
  413000    1.2035939   -7.2081795    158.54669  0.031990858  0.032498161            2 
  414000    1.1723222   -7.2324633     158.3916  0.031882368   0.03249723            4 
  415000    1.1930803   -7.2264738     159.2787  0.031983676  0.032496033            1 
  416000    1.1412405   -7.2609916    159.56321  0.031963785  0.032494549            1 
  417000    1.1664573   -7.2275405    159.93143  0.031960718  0.032493571            1 
  418000    1.1863052   -7.2730222     160.5416  0.032005902  0.032492622            1 
  419000    1.1663387   -7.2734805    161.01753   0.03202417  0.032492879            1 
  420000     1.162964   -7.2569619    161.39773  0.032023359  0.032492552            2 
  421000    1.1945573   -7.2477018    161.85534  0.032037874  0.032493025            1 
  422000    1.1717054   -7.2371241     162.1832  0.032026698  0.032493338            1 
  423000    1.1805272   -7.2743912    162.34061  0.031981995  0.032493439            3 
  424000    1.2072345   -7.2691403      162.329  0.031904284  0.032493183            2 
  425000    1.1908732   -7.2219356    162.71656  0.031905208  0.032491531            2 
  426000    1.1769768   -7.2344372    162.33937  0.031756527  0.032489374            3 
  427000    1.1941138   -7.2344767    163.36957  0.031883209   0.03248718            1 
  428000    1.1659937   -7.2582453    163.13975  0.031763969  0.032484091            1 
  429000    1.1622472   -7.2273915    163.73956  0.031806441  0.032481218            3 
  430000    1.1775586   -7.2382216     164.0726  0.031797016  0.032478364            1 
  431000    1.1631534   -7.2444368     165.0862  0.031919219  0.032476509            3 
  432000    1.1894081   -7.2987033    164.45999  0.031724535  0.032473678            1 
  433000    1.1713597   -7.2564249    165.58521  0.031867824  0.032472237            2 
  434000    1.1799819   -7.2620266    165.78006  0.031831808  0.032469598            1 
  435000    1.1822766   -7.2285797    165.44253  0.031693971  0.032466234            3 
  436000    1.1787134   -7.2501724    166.53924  0.031830894  0.032462357            2 
  437000    1.1826996   -7.2584161    166.04999  0.031664758  0.032458895            4 
  438000    1.1596363   -7.2784816    167.05615  0.031783894  0.032455324            1 
  439000    1.1589079     -7.22412    167.46848  0.031789765   0.03245186            1 
  440000    1.1751354   -7.2540461    167.06133  0.031640403  0.032448019            2 
  441000    1.1889879   -7.2526241    167.87489  0.031722389  0.032444095            1 
  442000    1.1617695    -7.272873    168.08448  0.031690135  0.032440154            2 
  443000    1.2020554   -7.2432535    168.92835  0.031777342  0.032435517            1 
  444000    1.1698574    -7.243801    169.07409  0.031733126   0.03243179            2 
  445000    1.1883652   -7.2334954    169.84497  0.031806174  0.032428701            3 
  446000    1.1725579   -7.2227012    170.65812  0.031886793  0.032425787            2 
  447000    1.1791655   -7.2204365    170.73635  0.031830042  0.032423633            2 
  448000    1.1758731   -7.2478678    171.77057  0.031951371  0.032421188            1 
  449000    1.2054683   -7.2548853    171.59098  0.031846879  0.032419116            2 
  450000    1.1410392   -7.2798836    172.56792  0.031957023  0.032417567            1 
  451000    1.1712577   -7.2440138    173.00453  0.031966839  0.032416339            2 
  452000    1.1798214   -7.2929304    172.20666  0.031749015  0.032414914            3 
  453000    1.1751538    -7.256618    173.05057  0.031834174  0.032412668            2 
  454000    1.1732686   -7.2553765    173.56573  0.031858613  0.032409655            1 
  455000    1.1868388   -7.3029075     172.9319   0.03167251   0.03240689            1 
  456000    1.1865713   -7.1955695    174.04385   0.03180626  0.032403968            1 
  457000    1.1605145   -7.2668021    174.10861   0.03174847  0.032400444            1 
  458000    1.1628688   -7.2244691    173.96829  0.031653618  0.032396487            3 
  459000    1.1857181   -7.2948402    174.18197  0.031623451   0.03239195            1 
  460000    1.1636279   -7.2594858    175.08378  0.031718077  0.032387922            1 
  461000    1.1707357   -7.2620317    174.97113  0.031628909  0.032382678            1 
  462000     1.164439   -7.2714463    175.87616  0.031723695  0.032377855            3 
  463000    1.1832129   -7.2471754    175.51741  0.031590607  0.032373506            3 
  464000    1.1957061   -7.2693494    176.17203  0.031640091  0.032369129            3 
  465000     1.160235    -7.290005    176.95068  0.031711591  0.032365495            1 
  466000    1.1769278   -7.2973745    176.80041  0.031616668  0.032361726            1 
  467000    1.1760075   -7.2927103    177.52993  0.031679145  0.032358422            1 
  468000    1.1891389   -7.2568508    178.16723  0.031724934  0.032354489            1 
  469000    1.1574253   -7.2550979    178.58822  0.031732093  0.032351141            2 
  470000    1.2020877   -7.2728695    179.39333  0.031807327  0.032347811            1 
  471000    1.1604774   -7.2478838    179.45768  0.031751182  0.032344516            3 
  472000    1.1871764   -7.2664206     179.8935  0.031760858   0.03234215            2 
  473000    1.1639155   -7.2569594    180.35574  0.031775148   0.03233943            1 
  474000     1.161596    -7.282496    180.70599  0.031769688  0.032336805            3 
  475000    1.1695525    -7.304688    180.55481  0.031676283   0.03233455            2 
  476000    1.1658817     -7.29202    181.15172  0.031714237    0.0323321            2 
  477000    1.1645949   -7.3190584     181.8354  0.031767191  0.032329644            2 
  478000    1.1748175   -7.2689115    182.21413  0.031766759  0.032327293            2 
  479000    1.1780398   -7.2492321    183.26911  0.031883979  0.032325407            1 
  480000    1.1864581   -7.2610824    183.32697  0.031827599  0.032323135            2 
  481000    1.1709489   -7.3062562    183.00707  0.031706007  0.032320638            2 
  482000    1.1731639   -7.2412261    184.41448  0.031883555  0.032318103            1 
  483000    1.1549848    -7.285422    184.38825  0.031813018  0.032316599            1 
  484000    1.1422715   -7.2192372    185.17212  0.031882252  0.032315088            4 
  485000    1.1675533   -7.2478985    184.61674  0.031721089  0.032312929            2 
  486000    1.1864923    -7.234627    185.95199  0.031884772  0.032311059            4 
  487000    1.1898177   -7.3045026    185.75125  0.031784951  0.032308636            2 
  488000    1.1743687   -7.2522844    185.88674  0.031742955  0.032306804            4 
  489000    1.1402163   -7.2824525    186.40961  0.031767145  0.032305128            2 
  490000    1.1530605   -7.2895193    186.69701  0.031751193  0.032303162            1 
  491000    1.1724644   -7.2749443     186.2552  0.031611541  0.032300374            3 
  492000    1.1466369   -7.3125471    187.12241  0.031694176  0.032296831            1 
  493000    1.1939358   -7.2922479    187.81775  0.031747422  0.032293042            3 
  494000    1.1760525    -7.291646    187.39145  0.031611243  0.032289933            2 
  495000    1.1676009   -7.2471928    187.91462  0.031635458  0.032286753            1 
  496000     1.142003   -7.2538676    188.81906  0.031723632  0.032283303            1 
  497000    1.1916151   -7.2599567    189.82388  0.031828284  0.032280638            2 
  498000    1.1694051   -7.2945619    188.84047   0.03159981  0.032277391            1 
  499000     1.164185   -7.2946762    188.90302   0.03154693  0.032274701            6 
  500000    1.1622336   -7.3129924    190.15001  0.031691668  0.032271595            2 
  501000    1.1649412   -7.2846651    190.34197  0.031660341  0.032268469            1 
  502000    1.1887731   -7.3137826    190.25073  0.031582127  0.032264818            1 
  503000    1.1839371   -7.3038833    191.17694  0.031672787  0.032261978            3 
  504000    1.1698172   -7.2876954    191.10619  0.031598245  0.032258947            1 
  505000    1.1374242   -7.2901141    192.03561  0.031689045    0.0322555            2 
  506000     1.165541    -7.303128    192.29394  0.031668962  0.032252587            2 
  507000    1.1527288   -7.2808731    193.46807  0.031799486  0.032249907            1 
  508000    1.1674448   -7.3366311    192.55282  0.031586749  0.032247076            2 
  509000     1.159548    -7.310322    192.89139  0.031580123   0.03224437            2 
  510000    1.1698752   -7.2502544    194.70813  0.031815054  0.032241771            1 
  511000    1.1680935   -7.3083875    193.51738  0.031558608  0.032239071            3 
  512000    1.1685029   -7.2936027    195.31442  0.031789457  0.032236402            2 
  513000     1.160395   -7.3002318    194.63379  0.031616925  0.032234166            1 
  514000     1.190786     -7.29852    195.70234  0.031728655  0.032231924            2 
  515000     1.169557   -7.3017715    195.60463  0.031651235  0.032229373            2 
  516000    1.1896064   -7.2797809    196.20728  0.031687222  0.032226697            2 
  517000    1.1750317    -7.283996    197.00917  0.031755186  0.032224635            3 
  518000    1.2086413   -7.3162214    196.92311  0.031680037  0.032222238            2 
  519000     1.178593   -7.2811674    198.07875  0.031804552  0.032219825            3 
  520000    1.1469346   -7.3052439    196.95507  0.031563312  0.032217166            2 
  521000    1.1455132    -7.263591    198.10024  0.031685899  0.032214989            1 
  522000    1.1875891   -7.2986465     198.4833  0.031686351  0.032212666            1 
  523000    1.1685982   -7.2798732    197.99473  0.031547917  0.032209781            1 
  524000    1.1639254   -7.3087514    198.79132  0.031614395  0.032206544            3 
  525000    1.1852944   -7.3160439    198.65568  0.031532648  0.032202944            3 
  526000    1.1598159    -7.262975    199.95014  0.031677779  0.032199182            1 
  527000    1.1801389   -7.3328331    199.95567  0.031618543  0.032195368            1 
  528000    1.1479541   -7.2682394    201.07085  0.031734667  0.032191567            2 
  529000    1.1519252   -7.2747584    200.33666   0.03155902  0.032187923            3 
  530000    1.1942607   -7.2560705    201.08419  0.031617011  0.032183987            1 
  531000    1.1762164   -7.2643378    201.24069  0.031582028  0.032180303            2 
  532000    1.1741065   -7.3019484    200.77183  0.031449221  0.032176421            1 
  533000    1.1521082   -7.3308804    201.31759  0.031475546  0.032171748            1 
  534000    1.1479242   -7.2972903    201.59685  0.031460183  0.032167338            3 
  535000    1.1860493   -7.3708368    201.74762  0.031424863  0.032162434            1 
  536000    1.1660783   -7.2967389     201.9574   0.03139885   0.03215733            2 
  537000    1.1752664   -7.2788272    202.73531  0.031461098  0.032152343            1 
  538000    1.1765683   -7.3042209    202.42237  0.031354146  0.032146906            3 
  539000    1.1803034   -7.2641336    203.54261  0.031469172  0.032141915            1 
  540000    1.1467382   -7.3112561    203.53109  0.031409119  0.032137348            3 
  541000    1.1783074   -7.3259751    203.80642  0.031393472  0.032131648            6 
  542000    1.1775507   -7.2766799    204.55743  0.031451019  0.032126869            1 
  543000    1.1738413   -7.2904507    204.51788  0.031387029  0.032121086            1 
  544000    1.1811958    -7.280985    205.24094  0.031440095  0.032115282            1 
  545000    1.1600865   -7.2844168     205.0738  0.031356849   0.03210932            2 
  546000    1.1657105   -7.3151781    205.28662  0.031331902  0.032103569            3 
  547000    1.1766359   -7.3261624    204.81768  0.031203182  0.032097758            2 
  548000    1.1771589    -7.282255     205.9854  0.031323814  0.032091948            3 
  549000      1.17552   -7.2981973    206.53051  0.031349501  0.032086328            1 
  550000      1.15401   -7.2862527    206.70229  0.031318528  0.032079925            2 
  551000    1.1802642   -7.2842128    206.25167  0.031193538  0.032073589            1 
  552000    1.1696524   -7.2901192    206.72762   0.03120888  0.032066458            2 
  553000    1.1715274   -7.2756374    207.84111  0.031320239  0.032059141            2 
  554000    1.1661496   -7.2979189    208.03439  0.031292779  0.032052299            2 
  555000    1.1506409   -7.3057108    207.64692  0.031178216  0.032045231            1 
  556000    1.1682281    -7.268423    207.87733  0.031156674  0.032037939            2 
  557000    1.1828819   -7.3280723    207.42927  0.031033703  0.032030287            1 
  558000    1.1576353   -7.2953709    207.75272  0.031026391  0.032022464            1 
  559000    1.1762133   -7.3515048    207.62311  0.030951567  0.032014641            3 
  560000    1.1499148   -7.3486305    208.09312  0.030966238  0.032006017            3 
  561000    1.1532807   -7.2966009    208.74306  0.031007585  0.031996943            2 
  562000    1.1570774   -7.3164599    208.95283  0.030983516  0.031988296            1 
  563000    1.1699227   -7.3081868    209.89041  0.031067259  0.031979727            1 
  564000    1.1657722   -7.3046738    209.89712  0.031013168  0.031970985            1 
  565000    1.1622763   -7.2917898    210.57502  0.031058263  0.031962798            4 
  566000    1.1464933   -7.3216851    210.61983  0.031009986   0.03195477            1 
  567000    1.1790496   -7.2846255    211.19063  0.031039188  0.031946685            3 
  568000    1.1725244    -7.252882    211.50317  0.031030395  0.031939047            3 
  569000    1.1637402   -7.3218637    211.74122  0.031010724  0.031931392            4 
  570000    1.1611188   -7.2737963    212.43161  0.031057253  0.031923601            2 
  571000    1.1640879   -7.2617763    213.41204  0.031145949  0.031916277            2 
  572000    1.1142514   -7.2852773    212.75644  0.030995985   0.03190891            1 
  573000    1.1622473    -7.267679    213.26908  0.031016445   0.03190127            1 
  574000    1.1631385   -7.3089786    213.89778  0.031053685  0.031893393            1 
  575000     1.153016    -7.334098    213.22744  0.030902527  0.031885116            2 
  576000    1.1499167   -7.2972935     214.2672  0.030999305  0.031877355            3 
  577000    1.1581981   -7.2977741     215.2553  0.031088287  0.031870419            1 
  578000    1.1706465   -7.2591533    215.65774  0.031092523  0.031863764            2 
  579000    1.1739548   -7.3017824    216.02884  0.031092233  0.031856523            1 
  580000    1.1445993   -7.3162203    215.41711  0.030950734  0.031848871            3 
  581000    1.1476197   -7.2992012    216.11138  0.030997043   0.03184153            2 
  582000    1.1524712    -7.315833    217.11493  0.031087475  0.031834339            2 
  583000    1.1344929   -7.3253045    216.58117  0.030957858  0.031826573            1 
  584000    1.1599077   -7.3387409    216.30323  0.030865187  0.031818673            3 
  585000    1.1789878   -7.2537191    218.24872  0.031089561  0.031811005            2 
  586000    1.1547638   -7.2961611    217.44483  0.030922189  0.031804018            2 
  587000    1.1418181   -7.3421366    218.35373  0.030998542  0.031796542            1 
  588000     1.149201   -7.3156164    218.22721  0.030927893  0.031788863            2 
  589000    1.1572461   -7.2605083    219.16715  0.031008368  0.031781215            1 
  590000    1.1625414   -7.3551289    219.29302   0.03097359  0.031773613            2 
  591000     1.159381   -7.3651278    219.40993  0.030937666  0.031765856            2 
  592000    1.1703821    -7.297853    220.58696  0.031051092  0.031757912            2 
  593000    1.1503185   -7.2984623    220.17237  0.030940467  0.031751005            1 
  594000     1.151102   -7.3244389    219.79488  0.030835421  0.031742906            1 
  595000    1.1627669   -7.3597279    220.75955  0.030918704  0.031735515            3 
  596000    1.1445102   -7.3446363    221.09962  0.030914377  0.031727756            1 
  597000    1.1662291   -7.3519058    221.29129  0.030889348  0.031719638            2 
  598000    1.1476584   -7.3128696    221.41483  0.030854909  0.031712085            1 
  599000    1.1534725   -7.3450897    222.10189  0.030898983  0.031704835            1 
  600000    1.1556436   -7.3466975    222.70902  0.030931808  0.031697372            2 
  601000      1.16823    -7.326754    222.02269  0.030785176  0.031689382            2 
  602000    1.1691199   -7.3381663    222.74652  0.030834236   0.03168121            1 
  603000     1.164932   -7.3240394    222.52094  0.030751927  0.031673106            3 
  604000    1.1651396   -7.3372266     223.0966  0.030780436  0.031664823            2 
  605000    1.1442414   -7.3068657    223.79807   0.03082618  0.031656797            2 
  606000    1.1392377   -7.3290951     224.3264  0.030847965  0.031648655            1 
  607000    1.1639342   -7.3282138    224.57664  0.030831499  0.031641389            2 
  608000    1.1533847   -7.2666481    226.31045  0.031018428  0.031634684            1 
  609000    1.1575535   -7.2887642    225.43539  0.030847754  0.031627931            2 
  610000    1.1399875   -7.2956356    225.99512   0.03087365   0.03162104            1 
  611000    1.1640926   -7.3362873    225.54822  0.030762169  0.031613921            4 
  612000    1.1858667   -7.3289625    226.62693  0.030858787  0.031606804            2 
  613000    1.1637341   -7.3631917    226.32666  0.030767627  0.031599353            2 
  614000    1.1434028   -7.2855596    228.08674  0.030956397  0.031592497            1 
  615000    1.1528221   -7.3072227    228.56604  0.030971008  0.031585867            3 
  616000    1.1549943   -7.2837904    228.46497  0.030907058  0.031579412            1 
  617000    1.1659196   -7.3240226    228.06512  0.030802961  0.031572491            1 
  618000    1.1594095   -7.3386933    228.78555  0.030850264  0.031565236            3 
  619000    1.1584648   -7.3092398    229.57602  0.030906842  0.031558476            1 
  620000     1.157801   -7.3381793    229.57613  0.030857007  0.031551522            2 
  621000    1.1599035   -7.3861488    229.39872   0.03078351  0.031544161            1 
  622000    1.1614107   -7.3332167    229.68006  0.030771712   0.03153724            4 
  623000    1.1656544   -7.2806278    230.96696  0.030894457   0.03153015            1 
  624000     1.131471   -7.3488825    230.74641  0.030815493  0.031523567            1 
  625000    1.1471825   -7.3078216    230.67215  0.030756286  0.031516902            1 
  626000    1.1555918   -7.3449808    230.89354  0.030736627  0.031509959            3 
  627000     1.118921   -7.3246735    231.45408  0.030762105  0.031503059            1 
  628000    1.1652058   -7.3119176    232.25906  0.030819939  0.031495993            2 
  629000    1.1616058    -7.292646    232.88949  0.030854463  0.031489795            2 
  630000    1.1467758   -7.3082227    232.81807  0.030796042  0.031483449            1 
  631000     1.169537   -7.3329835    233.22686  0.030801223  0.031476686            1 
  632000    1.1419628   -7.3197216    233.12706  0.030739328  0.031469731            2 
  633000      1.17375   -7.3520565      232.934   0.03066535  0.031462902            2 
  634000    1.1533468   -7.3230593    233.97958  0.030754414  0.031456033            3 
  635000    1.1723623    -7.283814    235.34894  0.030885688  0.031449506            1 
  636000    1.1769677   -7.2990548    234.66691   0.03074776  0.031442786            1 
  637000    1.1319898   -7.3011524     235.3668  0.030791052  0.031435732            1 
  638000    1.1644961   -7.3147521    235.90545  0.030813147  0.031428862            1 
  639000    1.1424818   -7.3257093    235.29655  0.030685517  0.031422657            2 
  640000    1.1587612   -7.3237652    236.74255  0.030825852  0.031416109            1 
  641000    1.1249011   -7.3459237    236.66391  0.030767538  0.031409718            2 
  642000    1.1362967   -7.3334833    236.94769  0.030756449  0.031403212            2 
  643000    1.1619541   -7.3249714    237.94975  0.030838485  0.031396622            2 
  644000    1.1489849   -7.3123441    237.83243  0.030775418  0.031390231            2 
  645000    1.1220156   -7.3203899    238.27163  0.030784449  0.031383891            1 
  646000    1.1680405    -7.342897    237.85877  0.030683536  0.031377482            1 
  647000    1.1487805   -7.2888257    239.52565  0.030850805  0.031371322            1 
  648000    1.1227297   -7.3282055     238.7186  0.030699409  0.031365115            1 
  649000    1.1336343   -7.3535596     238.9855  0.030686377  0.031358552            3 
  650000    1.1377413   -7.3394755    239.56941  0.030714027  0.031352593            2 
  651000    1.1336722   -7.3451908     240.3741  0.030769854   0.03134653            2 
  652000    1.1203548   -7.3603207    240.91008  0.030791165  0.031340756            2 
  653000    1.1571972   -7.3560182    241.17123  0.030777339   0.03133488            2 
  654000    1.1634506   -7.3319855    241.38249  0.030757198  0.031328679            3 
  655000    1.1413146   -7.3556169    241.14632  0.030680193  0.031322883            1 
  656000    1.1236704   -7.3302627    241.96077  0.030736887  0.031317255            3 
  657000    1.1539855   -7.3287476    242.92057  0.030811843  0.031311589            1 
  658000    1.1464815   -7.2914907    242.70315  0.030737481   0.03130593            2 
  659000    1.1732425   -7.3397125    243.12451  0.030744122  0.031300303            1 
  660000    1.1394157   -7.3077384    243.41864  0.030734677   0.03129502            3 
  661000    1.1442605   -7.3555823    243.77582  0.030733209  0.031288904            1 
  662000    1.1467088   -7.3661306    243.55484  0.030658968  0.031282885            1 
  663000    1.1764492   -7.3918902    243.30544  0.030581378  0.031276619            4 
  664000    1.1359355   -7.3704204    244.14116  0.030640206  0.031270208            2 
  665000    1.1369269   -7.3369185    245.05113  0.030708162  0.031263868            2 
  666000     1.140906    -7.395978    244.41036  0.030581877  0.031257746            2 
  667000    1.1167859   -7.3608353    245.20068  0.030634768  0.031251416            1 
  668000    1.1432012   -7.3499065    245.66553  0.030646898    0.0312455            2 
  669000    1.1383429   -7.3866278    245.81792   0.03062007  0.031239035            2 
  670000    1.1474432   -7.3737319    246.13471   0.03061377  0.031232672            4 
  671000     1.151669   -7.3172619     247.2605   0.03070796  0.031226769            3 
  672000    1.1360572   -7.3326723    247.70713  0.030717649   0.03122069            1 
  673000    1.1412135   -7.3829862    247.02646  0.030587724  0.031214464            2 
  674000    1.1374839   -7.3535648     247.6214    0.0306159  0.031207911            2 
  675000    1.1319071   -7.3358897    247.23526  0.030522872  0.031201467            1 
  676000    1.1499105   -7.3263013    248.67813  0.030655588  0.031194858            1 
  677000    1.1569207   -7.3465204    248.14212  0.030544328  0.031187901            1 
  678000    1.1593608   -7.3446047    248.30789  0.030519652  0.031181462            1 
  679000    1.1337783   -7.3207696    249.21673  0.030586245  0.031175098            1 
  680000    1.1341457   -7.3435999    249.80664  0.030613558  0.031168645            3 
  681000    1.1441842   -7.3626022    249.50523  0.030531722  0.031162157            1 
  682000    1.1512197     -7.37559    249.89416  0.030534478   0.03115569            3 
  683000    1.1374771   -7.3648705    249.17748  0.030402328  0.031148937            2 
  684000    1.1239894   -7.3348118    251.63297  0.030657038  0.031142508            2 
  685000    1.1282579   -7.3745162    250.86959  0.030519414  0.031136137            4 
  686000    1.1313719    -7.363076    251.35594  0.030534006  0.031129923            3 
  687000    1.1333443   -7.3474987     251.8081  0.030544408  0.031123568            1 
  688000    1.1383832    -7.368275    252.19736   0.03054716  0.031117559            1 
  689000    1.1561539   -7.3643601     252.1098  0.030492235  0.031111668            2 
  690000    1.1683232   -7.3486964    253.47573   0.03061301  0.031105742            2 
  691000    1.1422576   -7.3901042    253.00365  0.030511777  0.031099765            4 
  692000     1.146472   -7.3315859    253.91977  0.030578006  0.031093647            4 
  693000    1.1486863   -7.3582001    254.26999  0.030575996  0.031088203            1 
  694000    1.1572254   -7.3188935    254.94968  0.030613554  0.031082368            3 
  695000    1.1621467   -7.3703305     254.8881  0.030562123  0.031076793            2 
  696000     1.150588   -7.3439175    254.69407   0.03049498  0.031070958            1 
  697000     1.138748   -7.3616836    254.87672  0.030473066  0.031065028            2 
  698000    1.1591486   -7.3744507    254.66908  0.030404618  0.031058666            2 
  699000    1.1371306   -7.3593288    255.61855  0.030474315  0.031052436            2 
  700000    1.1230018   -7.3069567    255.83008  0.030455962  0.031046416            1 
  701000    1.1406523     -7.37265    256.58979  0.030502828  0.031040121            1 
  702000    1.1301011   -7.3315127    256.87378  0.030493089  0.031033783            1 
  703000    1.1513112   -7.3536375    257.90607   0.03057208  0.031027595            2 
  704000    1.1310448   -7.3531727     257.4682  0.030476823  0.031021402            2 
  705000    1.1530146     -7.38007    257.15212  0.030396232  0.031015331            2 
  706000    1.1427866   -7.3507794     258.3148  0.030490416  0.031009561            3 
  707000    1.1238348   -7.3337162    258.94558  0.030521639   0.03100358            4 
  708000    1.1143943   -7.3348571    259.26155  0.030515719  0.030997861            1 
  709000    1.1204749   -7.3965916    258.56745  0.030391096   0.03099172            4 
  710000    1.1604476   -7.3758099    258.72945  0.030367307  0.030985284            1 
  711000    1.1350505    -7.314872    259.80095  0.030450181  0.030979558            4 
  712000    1.1389279   -7.3834171    259.17117  0.030333704   0.03097368            3 
  713000     1.131568   -7.4020696    259.82008  0.030367004  0.030967515            2 
  714000     1.136297   -7.3935867    260.45855   0.03039899  0.030961744            2 
  715000    1.1327543   -7.3839094    261.41009  0.030467377  0.030956304            1 
  716000    1.1496038   -7.3643919    262.03413  0.030497455  0.030950987            2 
  717000    1.1471036   -7.3719155    262.64143  0.030525503  0.030945791            2 
  718000    1.1447575   -7.3505716    263.73104  0.030609452  0.030941327            2 
  719000    1.1233337   -7.3561584    263.39919  0.030528417  0.030936784            2 
  720000    1.1432197   -7.3717407    263.63178  0.030512938  0.030932475            2 
  721000    1.1358209    -7.354994    264.15005  0.030530519  0.030927967            2 
  722000    1.1517931   -7.3618062    264.38875  0.030515783  0.030923096            2 
  723000    1.1331525   -7.3748135    264.78525  0.030519277  0.030917991            2 
  724000    1.1383327   -7.3339313    265.31779   0.03053842  0.030913361            2 
  725000    1.1447055   -7.3752548    264.59235  0.030412914  0.030908252            3 
  726000    1.1436934   -7.3837477    265.08245  0.030427279   0.03090293            3 
  727000    1.1656987   -7.3569561    266.22072  0.030515901  0.030897467            1 
  728000    1.1244357   -7.3868182     265.5308  0.030395009  0.030891967            2 
  729000    1.1508559   -7.4207292    265.61787  0.030363268  0.030886736            2 
  730000    1.1249545   -7.3235519    267.25073  0.030508074  0.030881743            1 
  731000    1.1514837   -7.3403601    267.30363   0.03047237  0.030876854            2 
  732000    1.1150483   -7.4239155    266.60141  0.030350797  0.030871653            3 
  733000    1.1415121   -7.4017193    266.71372   0.03032216  0.030865701            2 
  734000    1.1204677   -7.3943703    267.82255  0.030406739  0.030860077            2 
  735000    1.1417106   -7.3539619    268.73551  0.030468879  0.030854725            4 
  736000    1.1306695   -7.4029324    268.37659  0.030386842  0.030849566            1 
  737000    1.1363007   -7.3991224    268.59155  0.030369917  0.030844121            2 
  738000    1.1326149   -7.3770671    269.20294  0.030397802  0.030838392            2 
  739000    1.1486384   -7.4021314    268.25249  0.030249491  0.030832566            5 
  740000    1.1320437   -7.3637837    269.73159  0.030375179  0.030826645            1 
  741000    1.1442334   -7.4107443     268.8786  0.030238259   0.03082091            1 
  742000    1.1390151   -7.3463723     269.8413  0.030305626  0.030815046            1 
  743000    1.1394263   -7.3412463    270.85363   0.03037838  0.030809454            3 
  744000    1.1003133   -7.3859166    270.37744  0.030284212  0.030803644            3 
  745000    1.1357637   -7.3799568    270.87479  0.030299193   0.03079793            2 
  746000    1.1233185   -7.3979262    271.57351   0.03033663  0.030792145            1 
  747000    1.1301272   -7.3638824     271.4466  0.030281861   0.03078628            4 
  748000    1.1397546   -7.3894335     271.2998  0.030225022   0.03077994            1 
  749000    1.1265595    -7.403018    271.48283  0.030205032  0.030773692            1 
  750000    1.1733589   -7.3738289    272.61966  0.030291073  0.030767307           11 
  751000    1.1458178   -7.3729311    271.49449  0.030125887  0.030760764            4 
  752000    1.1240713   -7.4166469    271.52202  0.030088876  0.030753657            1 
  753000    1.1170982   -7.3835687     272.0027  0.030102114  0.030746765            3 
  754000    1.1293304    -7.383901    273.11897  0.030185562  0.030739969            1 
  755000    1.1313149   -7.3721943    273.27144  0.030162411   0.03073286            1 
  756000    1.1427934    -7.347729    272.30164  0.030015612  0.030726084            2 
  757000    1.1162042   -7.3780045    273.42654  0.030099795  0.030719129            1 
  758000     1.133499   -7.4017129    273.38178  0.030055164  0.030712302            1 
  759000    1.1328598   -7.3802375    273.68244  0.030048577   0.03070496            2 
  760000     1.124326   -7.3842197    274.45362  0.030093599  0.030697561            2 
  761000    1.1335498    -7.435377    273.94822   0.02999871  0.030690454            4 
  762000     1.126752   -7.3851739    275.03733  0.030078448  0.030683161            2 
  763000    1.1386691   -7.3779595    275.55149  0.030095183  0.030676165            2 
  764000    1.1668879   -7.3685405     275.5693  0.030057733  0.030669328            2 
  765000    1.1292702    -7.371263    275.86928   0.03005112  0.030662358            2 
  766000    1.1286002   -7.3835967    276.59932   0.03009131  0.030655315            1 
  767000    1.1475675   -7.3703394    276.95614  0.030090845  0.030648905            1 
  768000    1.1078513   -7.4208602    276.88774  0.030044243  0.030642104            1 
  769000    1.1317334   -7.4031122    277.44123  0.030065152   0.03063539            6 
  770000    1.0934829   -7.4039508    277.00795  0.029979215  0.030628447            2 
  771000    1.1241524   -7.3858954    276.91586  0.029930378  0.030621005            2 
  772000    1.1318248     -7.39003    276.66459  0.029864485  0.030613403            1 
  773000    1.1174514   -7.4001425     277.4528  0.029910824  0.030605954            1 
  774000    1.1432906   -7.3816336    277.64175  0.029892523  0.030598476            3 
  775000    1.1251447   -7.3771498    278.03249  0.029895966  0.030590887            3 
  776000    1.1282823   -7.3900183    279.26321  0.029989606  0.030583114            1 
  777000    1.1167342   -7.3544712    280.30522  0.030062765  0.030575992            3 
  778000    1.1111876   -7.3925772    278.53842  0.029834878  0.030568516            2 
  779000     1.139467    -7.398991    279.77818  0.029929202  0.030560947            3 
  780000    1.1371573   -7.3930243    279.62318  0.029874271  0.030553152            2 
  781000    1.1253443    -7.386884    280.29781  0.029908004  0.030545791            2 
  782000    1.1237803    -7.416306    280.63647  0.029905847  0.030538261            2 
  783000    1.1546397   -7.3705294    281.83404  0.029995109  0.030530949            1 
  784000    1.0924744   -7.4168241    280.85672  0.029852968  0.030523718            5 
  785000    1.1084556   -7.3690208    281.54335   0.02988783  0.030516155            1 
  786000    1.1288664   -7.3918081    282.12855  0.029911848   0.03050855            2 
  787000    1.1141948   -7.3471707     282.1204  0.029872978   0.03050112            1 
  788000    1.1474627   -7.3924887    281.90137  0.029811905  0.030493792            2 
  789000    1.1202105   -7.3531811    283.00994  0.029891207  0.030486742            1 
  790000    1.1277247   -7.3813184    283.03474  0.029855985  0.030479383            2 
  791000    1.1393607   -7.3997171    283.15465  0.029830873  0.030472105            2 
  792000    1.1266832   -7.3523879    283.86638  0.029868096  0.030464921            4 
  793000    1.1021466   -7.4104045    283.41499  0.029782996   0.03045765            1 
  794000    1.0960433   -7.4307843    283.64598  0.029769729  0.030450209            4 
  795000    1.1514008   -7.3847206     284.5907  0.029831311  0.030442913            2 
  796000    1.1167241   -7.4374381     284.5336  0.029787856  0.030435785            1 
  797000    1.1327303   -7.4225168    285.27584  0.029828088  0.030428552            4 
  798000    1.1182364   -7.3889076    285.65207  0.029829999  0.030421346            1 
  799000    1.1108138   -7.4389963    285.49286  0.029776059  0.030414256            2 
  800000    1.1342661   -7.3527889    286.23301  0.029815938  0.030407572            2 
  801000    1.1193881   -7.4301762    285.51299  0.029703807  0.030400546            1 
  802000    1.1259904   -7.3709059    286.72533   0.02979274  0.030393571            2 
  803000    1.1463746   -7.3530161    287.46572  0.029832474  0.030386421            1 
  804000    1.1271828   -7.3917408    287.57813   0.02980702  0.030379262            1 
  805000    1.0993924   -7.3909132    288.29381   0.02984408  0.030372289            1 
  806000    1.1209724   -7.3758417    287.81239  0.029757277  0.030365364            1 
  807000    1.1147536   -7.3679093    288.68254  0.029810258  0.030358752            1 
  808000    1.1107164   -7.4538474    287.25707  0.029626347  0.030351761            3 
  809000    1.1236369   -7.4038678    289.01869  0.029771188  0.030344651            1 
  810000    1.1098633   -7.3633585    290.00965  0.029836384  0.030337939            1 
  811000    1.1242981   -7.4052217     289.4943   0.02974664  0.030331375            1 
  812000    1.1171368   -7.4135695    289.70321  0.029731446  0.030324544            2 
  813000    1.1330475    -7.366826    290.65772  0.029792714  0.030318031            3 
  814000    1.1386981   -7.4298813    291.47115  0.029839389  0.030311271            2 
  815000    1.1339192   -7.4059436    291.45774  0.029801404  0.030305019            2 
  816000    1.1069228   -7.3864945    290.58445  0.029675699  0.030298196            2 
  817000    1.1146793    -7.412632    291.21575  0.029703769  0.030291206            1 
  818000    1.1171872   -7.3888607    292.34077  0.029782067  0.030284492            2 
  819000    1.1153723   -7.4306673    291.93175  0.029704085    0.0302773            2 
  820000    1.1048756   -7.4263414    292.53746  0.029729417  0.030270658            1 
  821000    1.1335675    -7.465683    292.95942  0.029736036   0.03026412            1 
  822000    1.1174522   -7.3901259    294.37632  0.029843504  0.030257547            1 
  823000    1.1173389   -7.3777168    293.91298  0.029760326  0.030250988            1 
  824000    1.1232942    -7.434421    293.32841   0.02966509  0.030244423            3 
  825000     1.106769   -7.4461111    293.71733  0.029668417  0.030237782            2 
  826000    1.1190199   -7.3683984    295.34466  0.029796677  0.030231141            2 
  827000      1.10884   -7.4052623    294.76202  0.029701937  0.030224717            1 
  828000    1.1159087   -7.4263193    295.19633  0.029709776  0.030218162            1 
  829000    1.1374624    -7.408975    296.34922   0.02978983  0.030211799            2 
  830000    1.0880709   -7.4058319    295.40821  0.029659459  0.030205415            3 
  831000    1.1465124   -7.4035057    296.74871  0.029758193   0.03019904            1 
  832000    1.1018909   -7.3996454    296.34723  0.029682215  0.030192662            1 
  833000    1.0977239    -7.440225     295.6335   0.02957518  0.030185904            2 
  834000    1.1256882   -7.3464023    298.09761  0.029785932  0.030179323            1 
  835000    1.1224006   -7.3851817    297.46147  0.029686774   0.03017283            1 
  836000    1.0995877   -7.3942013    296.48801  0.029554227  0.030165732            3 
  837000    1.1077656   -7.4245824     296.7157  0.029541587  0.030158451            2 
  838000    1.1277189   -7.4127602    297.43085  0.029577451  0.030150972            2 
  839000    1.1239519   -7.4092096    297.66339  0.029565295  0.030143662            2 
  840000    1.1347841   -7.3808058    298.68069  0.029631021  0.030136527            2 
  841000    1.1098158   -7.4044486    298.48469  0.029576366   0.03012959            1 
  842000    1.1196778   -7.4435572    297.88959  0.029482343  0.030122592            2 
  843000    1.0835146   -7.4319503    297.63271  0.029421976  0.030115334            2 
  844000    1.0992934    -7.407864    299.31548  0.029553266  0.030107921            1 
  845000    1.1159942   -7.4414714    298.47405   0.02943531  0.030100599            2 
  846000    1.1264026   -7.3880609    298.97991  0.029450346  0.030093196            2 
  847000    1.1173204   -7.4655484    299.59766  0.029476354  0.030085734            3 
  848000    1.1108664   -7.3922081    300.84226  0.029563901  0.030078365            2 
  849000    1.1344764   -7.3498856    300.66638  0.029511816  0.030071238            2 
  850000     1.120139   -7.4165753    300.31421   0.02944257  0.030064433            1 
  851000    1.1056106   -7.4387964    301.73717  0.029547314  0.030057305            3 
  852000    1.0756033   -7.3846273    302.14001  0.029552036  0.030050471            1 
  853000    1.1198227   -7.4042695    302.03282  0.029506919  0.030043694            2 
  854000    1.1073403   -7.4499104    301.61434  0.029431532  0.030036569            2 
  855000    1.1277257   -7.4025828    302.80019  0.029512689   0.03002969            1 
  856000    1.1159626   -7.4078232     303.3772  0.029534385  0.030023026            2 
  857000    1.1194765   -7.4432556    302.79519  0.029443328  0.030016001            2 
  858000    1.0987628   -7.3954644    302.86828  0.029416111  0.030008842            2 
  859000    1.1256435    -7.402375    303.19607  0.029413666  0.030001236            1 
  860000    1.1216132   -7.4201616    302.65425  0.029326962   0.02999357            1 
  861000    1.1257005    -7.426562    303.29161  0.029354589  0.029985633            1 
  862000    1.0796692   -7.4401588    302.80723  0.029273708   0.02997775            2 
  863000    1.1054874   -7.4067268    304.09266  0.029363911  0.029969819            2 
  864000    1.1211095   -7.3865027    303.69005  0.029291093  0.029961786            1 
  865000    1.1198323   -7.3833054    304.70412  0.029354924  0.029953648            1 
  866000    1.1603663   -7.3893816    304.79909  0.029330166  0.029945569            2 
  867000    1.0983033   -7.4609915    303.52467  0.029173844  0.029937228            2 
  868000    1.1297084   -7.4321958    303.53801  0.029141514  0.029928802            2 
  869000    1.1232935   -7.3899344    304.70138  0.029219542  0.029920488            2 
  870000    1.0968634   -7.4354651    304.64446  0.029180504  0.029912432            1 
  871000    1.1218077   -7.4318519    305.36419  0.029215862   0.02990405            3 
  872000    1.1104621   -7.4274027    304.59639  0.029108982   0.02989543            2 
  873000    1.1249382   -7.4600255    304.76844  0.029092062  0.029886994            2 
  874000    1.1333581   -7.4467522    304.82983  0.029064629   0.02987838            1 
  875000     1.112643   -7.3881606     305.6518  0.029109695  0.029870082            3 
  876000    1.1151683   -7.3426125    306.38596  0.029146305  0.029861584            2 
  877000    1.1397315   -7.4110497    306.09519  0.029085442  0.029852858            1 
  878000    1.1271821   -7.3892555    307.35457  0.029171846   0.02984394            4 
  879000    1.1086058    -7.419875    306.71786  0.029078295  0.029835192            2 
  880000    1.1164569   -7.4184276    306.01295  0.028978499   0.02982613            1 
  881000     1.111573    -7.456656    306.91173  0.029030622   0.02981714            1 
  882000    1.1018033   -7.4228867    307.93486  0.029094374  0.029808488            2 
  883000    1.1165613   -7.4577911    307.20678  0.028992712  0.029799998            2 
  884000    1.0954652   -7.4431716    307.66175  0.029002805  0.029791183            2 
  885000    1.1019309   -7.4073009    307.74183  0.028977574  0.029782323            2 
  886000    1.1094396     -7.36859     309.0357  0.029066563  0.029773676            2 
  887000    1.0927004   -7.4253278     309.8357  0.029108954  0.029765044            2 
  888000    1.0979034   -7.4220211    309.71231  0.029064594  0.029756351            1 
  889000    1.1254096   -7.4387139    309.24139  0.028987757  0.029747934            3 
  890000    1.1058093   -7.4155516    309.57123   0.02898607  0.029739358            2 
  891000    1.1085599   -7.4305575     309.5891   0.02895521  0.029730743            3 
  892000    1.1164739   -7.4377864    310.44307  0.029002529  0.029721949            1 
  893000    1.1051644   -7.4612842    309.70143  0.028900843  0.029713356            1 
  894000    1.1222241   -7.4251149    310.42105  0.028935594  0.029704258            2 
  895000    1.1064515   -7.4331221    309.85953   0.02885098  0.029695213            2 
  896000    1.1169813   -7.4589487    310.13799  0.028844679  0.029685874            1 
  897000    1.1187545    -7.435905     310.3894  0.028835879  0.029676756            1 
  898000    1.1152444   -7.4455235    310.85961  0.028847403  0.029667612            1 
  899000    1.1042427   -7.4352038    311.39999  0.028865405  0.029658499            2 
  900000    1.1069789   -7.4425887    311.48948  0.028841619  0.029649569            1 
  901000    1.1026529    -7.421477    312.91952  0.028941872  0.029640515            1 
  902000    1.1043956    -7.406081    312.09295  0.028833421  0.029631487            3 
  903000    1.1174186   -7.4775771    312.21679  0.028812919  0.029622527            3 
  904000    1.0969217   -7.4457427     312.1959   0.02877912  0.029613429            2 
  905000    1.1241586   -7.4560379     312.9583  0.028817523  0.029604363            1 
  906000    1.1011435   -7.4512739    313.33314  0.028820193  0.029595563            1 
  907000     1.109033     -7.46924    313.65812  0.028818276  0.029586646            2 
  908000    1.1008141   -7.4544902    313.16261  0.028741062  0.029577689            1 
  909000    1.0992684   -7.4526151     313.7674  0.028764888  0.029568868            2 
  910000    1.1204037   -7.4027943    314.68549  0.028817353    0.0295601            1 
  911000    1.0934592   -7.4096107    315.52197  0.028862237  0.029551279            3 
  912000    1.1173106   -7.4443592    314.76264  0.028761206  0.029542585            2 
  913000    1.0978545   -7.4567254    314.62645  0.028717274  0.029533571            1 
  914000    1.1229708   -7.4623088    315.79471  0.028792369  0.029524601            5 
  915000    1.0918804   -7.4089431     316.8405  0.028856147  0.029515731            2 
  916000    1.0904787   -7.4251842    316.42416  0.028786769   0.02950696            4 
  917000    1.0813297   -7.4424529    316.59392  0.028770803  0.029498121            1 
  918000     1.119576   -7.4254639      317.435  0.028815814  0.029489376            2 
  919000    1.1140957   -7.4300128    316.80226  0.028727082  0.029480392            1 
  920000    1.1123963    -7.463703    316.89246  0.028704027  0.029471454            1 
  921000    1.1220129   -7.4370309    317.28582  0.028708453  0.029462445            1 
  922000    1.0855299   -7.4759014    317.18864  0.028668532  0.029453443            1 
  923000    1.1103608   -7.4300363    318.82309  0.028785039  0.029444661            2 
  924000    1.1188122   -7.4128543     318.9876  0.028768723  0.029436113            1 
  925000    1.0991545   -7.5222476    318.92079  0.028731602   0.02942758            2 
  926000    1.1107649   -7.4463152    319.39686  0.028743418  0.029418895            1 
  927000    1.1020138   -7.4679844    318.85455  0.028663659  0.029410485            1 
  928000    1.0916658   -7.4216867    319.93256  0.028729576  0.029402155            3 
  929000    1.0965517   -7.4430002     319.8953  0.028695309  0.029393675            1 
  930000    1.1038836   -7.4440646    319.33039  0.028613834  0.029385105            2 
  931000    1.0970678   -7.4504694    319.50886  0.028599074    0.0293765            2 
  932000     1.081211   -7.4047709     320.9615  0.028698274   0.02936798            1 
  933000    1.1043051   -7.4536465    321.07022  0.028677226  0.029359396            1 
  934000    1.1009513   -7.4376212     321.4691  0.028682111  0.029350339            2 
  935000    1.0961215   -7.5054312    320.08599  0.028528163  0.029341481            1 
  936000    1.0864335   -7.4474019    321.06658  0.028584988  0.029332635            1 
  937000    1.0925292   -7.4239976    321.35349  0.028579997  0.029323846            1 
  938000    1.1099648   -7.4803197    321.71291   0.02858146   0.02931505            1 
  939000    1.0756111   -7.4455479    320.92842    0.0284814  0.029306393            1 
  940000    1.1203475   -7.4650357    322.37841  0.028579646  0.029297641            2 
  941000    1.0850365   -7.4664472     321.9855  0.028514479  0.029288653            1 
  942000    1.1082206   -7.4125869    323.21179  0.028592692   0.02927988            2 
  943000    1.1088492   -7.4728561    321.63959  0.028423435   0.02927105            2 
  944000    1.0756365   -7.4405599    322.71566  0.028488318  0.029262154            1 
  945000    1.1138364   -7.4455453    323.38023  0.028516775  0.029253188            2 
  946000    1.0828291   -7.4185876     323.9026  0.028532646  0.029244499            1 
  947000     1.108187   -7.4705537    322.72954  0.028399291   0.02923562            1 
  948000    1.0915862   -7.4589064    324.22917  0.028501157  0.029226758            1 
  949000      1.08286   -7.4348687    324.78242  0.028519707  0.029217868            1 
  950000    1.1128273   -7.4522777    324.36789  0.028453323  0.029209074            2 
  951000    1.1185476   -7.4308393    324.47295   0.02843261  0.029200352            3 
  952000    1.1009795   -7.4317235    326.02833  0.028538894  0.029191608            3 
  953000    1.0847569   -7.4654727    325.24217  0.028440204  0.029183047            3 
  954000    1.0954236   -7.4659728    325.87757  0.028465896  0.029174368            3 
  955000    1.1335835   -7.4523749     326.4979  0.028490218  0.029165893            1 
  956000    1.0962644   -7.4508416    326.71096  0.028478989  0.029157318            4 
  957000    1.1008131   -7.5224667    326.58642  0.028438385  0.029148688            4 
  958000    1.1024772   -7.4133213    327.79944  0.028514217  0.029140092            1 
  959000    1.1247125   -7.4393673    327.92575   0.02849546  0.029131633            1 
  960000    1.1023116   -7.4365422    328.48231  0.028514089  0.029123284            3 
  961000    1.1009169   -7.4353377    329.20062  0.028546707  0.029115069            1 
  962000    1.0858876   -7.4453651    328.89335  0.028490415  0.029106697            1 
  963000     1.064238   -7.4628239    329.92185  0.028549831  0.029098496            2 
  964000    1.1078314   -7.4542057    329.71235  0.028502105  0.029090259            1 
  965000    1.1164012   -7.4513341    328.57517  0.028374367  0.029081857            4 
  966000     1.099548   -7.4445543    329.98506   0.02846662  0.029073721            1 
  967000    1.1277511   -7.4694248    329.66419  0.028409531  0.029065413            1 
  968000    1.1053914   -7.4823454    330.08293   0.02841623  0.029056823            1 
  969000    1.0829224   -7.4709308     329.9883  0.028378766  0.029048511            2 
  970000    1.1158162    -7.493011    330.20188  0.028367859    0.0290399            4 
  971000    1.1228825   -7.4342034    331.54449   0.02845387   0.02903151            1 
  972000    1.0975333    -7.472472    331.53957  0.028424175  0.029023063            2 
  973000     1.083319   -7.5410366    330.86213  0.028336941  0.029014621            1 
  974000    1.1186724   -7.4830318    331.53472  0.028365394  0.029006208            3 
  975000    1.0859717   -7.4468817    333.01587  0.028462895  0.028997903            3 
  976000    1.1093902   -7.4514869    333.10291  0.028441164  0.028989657            3 
  977000    1.0650423   -7.4837777    332.07731  0.028324574  0.028981409            2 
  978000    1.0894879   -7.4546821    333.21167  0.028392269  0.028973086            3 
  979000    1.0976336   -7.4471415    334.15801  0.028443821  0.028965038            1 
  980000    1.1114198   -7.4447801    334.05227  0.028405805  0.028956681            1 
  981000    1.1119003    -7.492169    333.58276  0.028336966  0.028948234            1 
  982000     1.072753   -7.4805471    333.28281  0.028282656    0.0289397            1 
  983000    1.0920044   -7.4322564     333.8726  0.028303883  0.028931365            3 
  984000    1.0989073   -7.4437824    334.80576  0.028354147  0.028922999            2 
  985000    1.0828671    -7.481301    334.23821  0.028277344   0.02891482            2 
  986000    1.0790052   -7.4453756    334.18945  0.028244544   0.02890667            2 
  987000    1.0854647   -7.4758951    334.87618  0.028273909  0.028898282            2 
  988000    1.0967363   -7.4407375    336.06765  0.028345787   0.02889003            2 
  989000    1.0583761   -7.4674424    335.19239  0.028243377  0.028881501            2 
  990000    1.0779972   -7.4641449    336.50859  0.028325639  0.028873077            3 
  991000    1.0995558   -7.4532935    336.32796  0.028281867  0.028864802            3 
  992000    1.1056808   -7.4617474    335.47054  0.028181329  0.028856575            2 
  993000    1.1000503   -7.4431759    336.77922  0.028262775  0.028848214            1 
  994000    1.1399784   -7.4577246    336.64522  0.028223107  0.028840015            1 
  995000    1.0744239   -7.4778559    336.96442  0.028221476  0.028831796            3 
  996000    1.1169811   -7.4487567     337.5984  0.028246184  0.028823739            3 
  997000    1.0867475   -7.4689116    337.65704  0.028222755  0.028815722            4 
  998000    1.0782583   -7.4380842    338.24968  0.028243961  0.028807629            1 
  999000    1.1138768   -7.4410236    339.08309  0.028285209  0.028799549            1 
 1000000    1.0883446    -7.477127    338.81046  0.028234205  0.028791604            2 
 1001000    1.1016808   -7.4702387     339.6286  0.028274109  0.028783608            3 
 1002000    1.0881899   -7.4748285    339.36161  0.028223687  0.028775657            2 
 1003000    1.1062811   -7.4708619    339.02649  0.028167704   0.02876778            3 
 1004000    1.0885138   -7.5068358    338.61395  0.028105408  0.028759705            1 
 1005000    1.0975143   -7.4479571    341.31707  0.028301581  0.028751881            3 
 1006000    1.1028547   -7.4399932    341.30317  0.028272297  0.028744126            3 
 1007000    1.0903671   -7.4667101    340.93309  0.028213595   0.02873641            1 
 1008000    1.0784961   -7.4642248    340.84147  0.028178032  0.028728619            3 
 1009000     1.100946   -7.4901176    342.85701  0.028316569  0.028720698            2 
 1010000     1.073451   -7.4964678    342.89636  0.028291779  0.028713007            1 
 1011000    1.0954937   -7.4863792    341.84914  0.028177476  0.028705214            1 
 1012000     1.051651   -7.4867653    341.53945  0.028124132  0.028697314            1 
 1013000    1.0418536    -7.459547    342.73912  0.028195057  0.028689408            1 
 1014000    1.0876877   -7.4624689    343.31126  0.028214272  0.028681498            2 
 1015000    1.0987213   -7.4752288    342.71113  0.028137203  0.028673661            1 
 1016000    1.0923927    -7.466963    343.28788  0.028156814  0.028665652            1 
 1017000    1.0862924   -7.5013854    344.00739  0.028188085  0.028657679            2 
 1018000    1.0700167   -7.4978877    342.88332  0.028068379  0.028649919            1 
 1019000    1.0817527   -7.4973987    343.39618  0.028082776  0.028642001            2 
 1020000    1.0847664   -7.4836585    345.58301  0.028233906  0.028634364            1 
 1021000    1.0743678   -7.5045538    344.31521  0.028102776  0.028626638            1 
 1022000     1.082383   -7.5022612    343.63845  0.028020095  0.028618728            1 
 1023000    1.1066305   -7.4987856    344.57523  0.028069015  0.028610916            2 
 1024000    1.1009428   -7.4693844    347.16052  0.028251996  0.028603216            2 
 1025000    1.0784254   -7.5068238    345.29723  0.028072946  0.028595517            3 
 1026000    1.0687602   -7.4621453    346.86842  0.028173199  0.028587682            1 
 1027000    1.0592747   -7.4880852    345.49656  0.028034449  0.028579809            2 
 1028000    1.0978572   -7.4636189    346.32809  0.028074586   0.02857188            2 
 1029000      1.08213   -7.5148876    346.64165  0.028072696  0.028563956            1 
 1030000    1.0971292    -7.499148    345.40122  0.027945083   0.02855593            1 
 1031000    1.0943361   -7.4564551     346.4129  0.027999749  0.028547929            2 
 1032000    1.1039702   -7.4754975    346.84121  0.028007204  0.028540098            2 
 1033000    1.0859074   -7.4826164    346.97287  0.027990712  0.028532116            2 
 1034000    1.0893893   -7.5102133    346.06456  0.027890438  0.028524078            2 
 1035000    1.0842551   -7.4747254    347.93906  0.028014417  0.028516059            2 
 1036000    1.0682022    -7.483974    347.23078  0.027930404  0.028508224            2 
 1037000    1.0780803   -7.4557042    348.13199  0.027975891  0.028500265            2 
 1038000    1.0662646   -7.4793877    348.15218  0.027950561  0.028492319            2 
 1039000    1.1063669    -7.494215    348.42356  0.027945425  0.028484264            1 
 1040000    1.0772602   -7.4864174    349.21882  0.027982277  0.028476075            1 
 1041000    1.0778316   -7.5271872    347.93993   0.02785302  0.028467951            4 
 1042000    1.0729859   -7.4654342      349.822  0.027976807  0.028459749            1 
 1043000    1.0804734   -7.4800483    348.81858  0.027869813  0.028451579            1 
 1044000    1.0783926    -7.475676    349.25864  0.027878244  0.028443604            4 
 1045000    1.0694721   -7.4654218    350.70117    0.0279666  0.028435547            2 
 1046000    1.0838901   -7.4948379    349.22107  0.027821946  0.028427377            1 
 1047000    1.0820614   -7.5066428     350.1726  0.027871108  0.028419204            1 
 1048000    1.0867393   -7.4827401    350.10005  0.027838744   0.02841111            2 
 1049000    1.0800907   -7.4728242    351.23521  0.027902384  0.028402886            1 
 1050000     1.104188     -7.51205    349.73718  0.027756919  0.028394558            1 
 1051000    1.0784678   -7.4543849    351.29317  0.027853883  0.028386437            3 
 1052000    1.0753923   -7.4930602    351.89309  0.027874928  0.028378122            2 
 1053000    1.0956489   -7.4409265    352.19393  0.027872264  0.028369885            2 
 1054000    1.0612832   -7.5152456    350.96176  0.027748399  0.028361755            1 
 1055000     1.083691   -7.4434126    352.49092  0.027842884  0.028353544            3 
 1056000    1.0928716   -7.5110491    352.07107  0.027783386  0.028345321            1 
 1057000    1.0847617   -7.4771564    352.44634  0.027786687  0.028337048            2 
 1058000    1.0833213   -7.4384588    354.14704  0.027894379  0.028329062            3 
 1059000    1.0637809   -7.4743103    354.35077  0.027884071   0.02832109            3 
 1060000    1.1062688   -7.5005139    353.54595  0.027794493  0.028312994            2 
 1061000     1.082661    -7.500999    353.46489   0.02776193  0.028304694            2 
 1062000    1.0765997   -7.4891362    354.12668  0.027787718  0.028296417            1 
 1063000    1.0630733   -7.5061305    354.03976  0.027754763  0.028288097            1 
 1064000    1.0820627   -7.5319117    354.11777  0.027734787  0.028279795            1 
 1065000    1.1022913   -7.4817199    355.47524  0.027814964  0.028271686            3 
 1066000    1.0977431    -7.499497    355.18641  0.027766292  0.028263733            3 
 1067000    1.0908094    -7.464571    354.94553  0.027721457  0.028255658            3 
 1068000    1.0677677   -7.5068524    354.34265  0.027648459  0.028247357            1 
 1069000    1.0721119   -7.4971247    355.96084   0.02774874  0.028239217            3 
 1070000     1.102539   -7.4716582    356.58829  0.027771674  0.028231198            1 
 1071000     1.071635   -7.4754307    356.31079  0.027724151  0.028223339            1 
 1072000    1.0653304   -7.5186629     356.5363  0.027715819  0.028215365            7 
 1073000    1.0794958   -7.4900858    357.21726  0.027742875   0.02820742            1 
 1074000    1.0653055    -7.476318     356.9765  0.027698363  0.028199568            2 
 1075000    1.0889876   -7.4885954    357.10213  0.027682336  0.028191504            2 
 1076000    1.0725636   -7.4865677    357.92676  0.027720474   0.02818346            2 
 1077000    1.0940232   -7.5031779    357.01623  0.027624282  0.028175265            4 
 1078000    1.0696731   -7.5256291     357.7043  0.027651847  0.028167184            3 
 1079000    1.0716116   -7.5187535    356.88758  0.027563143  0.028158981            2 
 1080000    1.0423023   -7.5034861    358.09576  0.027630846  0.028150777            5 
 1081000     1.076136    -7.493346    358.10213  0.027605776  0.028142684            1 
 1082000    1.0721508   -7.4635931     359.5926  0.027695055  0.028134788            2 
 1083000    1.0706128   -7.5090036    359.24884  0.027643032  0.028127039            4 
 1084000    1.0542104   -7.4767378    359.72768  0.027654342  0.028118773            3 
 1085000    1.0700966   -7.5429604    358.54044  0.027537668  0.028110438            1 
 1086000    1.0772413   -7.4542964     359.0237  0.027549394  0.028102104            2 
 1087000     1.065742   -7.5185287    359.09711  0.027529678  0.028093744            1 
 1088000     1.087122   -7.4994021    358.95048  0.027493143  0.028085516            2 
 1089000    1.0759619   -7.5340647    358.14897  0.027406563  0.028077193            1 
 1090000    1.0612307   -7.5025112    359.02425  0.027448337  0.028068875            2 
 1091000    1.0641035   -7.5400964    359.55399  0.027463641  0.028060547            1 
 1092000    1.0829942   -7.5046595    360.37557  0.027501188  0.028052095            1 
 1093000    1.0609796   -7.4884147    361.85236  0.027588621  0.028043664            1 
 1094000    1.0712658   -7.5154403    360.36898   0.02745041   0.02803542            1 
 1095000    1.0675628   -7.5114364     362.1488  0.027560791  0.028027263            1 
 1096000    1.0807027    -7.498871    361.20035   0.02746353  0.028019178            3 
 1097000    1.0821502   -7.5401479    361.78646  0.027483018  0.028011063            2 
 1098000    1.0643501   -7.5213414    361.69922  0.027451368  0.028002832            1 
 1099000    1.0880197   -7.5162905     362.5822  0.027493342  0.027994694            2 
 1100000    1.0829927   -7.5038011    362.97357  0.027497998  0.027986528            1 
 1101000    1.0582972   -7.4806264    363.22055  0.027491716  0.027978287            1 
 1102000    1.0980308   -7.5372602    363.19413  0.027464771  0.027969934            1 
 1103000    1.0843097   -7.4979885    364.06799  0.027505892  0.027961656            2 
 1104000    1.0836193   -7.4430548    362.97972  0.027398832  0.027953526            1 
 1105000    1.0789697   -7.5237435    362.21041  0.027316019  0.027945491            2 
 1106000     1.074918   -7.5729861    364.17506   0.02743935  0.027937334            3 
 1107000     1.074748   -7.5310632    363.75418   0.02738288  0.027929154            1 
 1108000    1.0873703   -7.5316914    364.06104  0.027381245  0.027920858            4 
 1109000    1.0926943   -7.4958021    365.46922   0.02746237  0.027912767            2 
 1110000    1.0665012   -7.4893077      366.412  0.027508409  0.027904933            3 
 1111000    1.0865445   -7.4796319    366.42447  0.027484584  0.027897233            3 
 1112000     1.069519   -7.5385443    365.64555  0.027401495  0.027889363            2 
 1113000     1.072651   -7.5108936    365.88277  0.027394637  0.027881517            1 
 1114000    1.0657908   -7.5047058     367.1317  0.027463473  0.027873744            2 
 1115000    1.0820504     -7.50848    367.15611  0.027440666  0.027865957            4 
 1116000    1.0750339   -7.5304992    366.13568   0.02733988  0.027857797            1 
 1117000     1.060185   -7.4740637     367.4505  0.027413496  0.027849886            1 
 1118000    1.0963212   -7.5447787    366.75225   0.02733693  0.027842017            1 
 1119000    1.0858634   -7.5365002     367.0838  0.027337191  0.027834055            2 
 1120000    1.0632738   -7.5427548    368.22968  0.027398041  0.027826178            1 
 1121000       1.0764   -7.5358002    367.31895  0.027305899  0.027818276            3 
 1122000    1.0896046   -7.5199564    367.81776   0.02731861  0.027810324            1 
 1123000    1.0691156   -7.4880699    368.76873  0.027364851  0.027802467            1 
 1124000    1.0723742   -7.5436067     368.2732  0.027303766  0.027794544            2 
 1125000    1.0566109   -7.4979448    369.01175  0.027334204  0.027786655            2 
 1126000    1.0610261   -7.5020102    368.60728  0.027279994  0.027778932            2 
 1127000    1.0947745   -7.5192523    368.60612  0.027255703  0.027771059            4 
 1128000    1.0779066   -7.4992675    370.60511  0.027379219  0.027763244            2 
 1129000    1.1039959   -7.5346908    369.52294  0.027275091  0.027755312            1 
 1130000    1.0657171   -7.5116658    369.67347  0.027262055  0.027747398            1 
 1131000    1.0611188   -7.5503142    370.32319  0.027285823  0.027739345            1 
 1132000    1.0607729   -7.5326403    370.59285   0.02728157  0.027731252            2 
 1133000    1.0815028   -7.5356729    370.35518  0.027240011  0.027723372            4 
 1134000    1.0610006   -7.5495486    369.74713  0.027171306  0.027715372            1 
 1135000    1.0801925    -7.553652    371.41608  0.027269903  0.027707334            2 
 1136000    1.0556066   -7.5481887    371.13498  0.027225277  0.027699295            5 
 1137000    1.0530572   -7.4995313    371.28807  0.027212552  0.027691401            3 
 1138000    1.0670009   -7.5343771    371.33779  0.027192281  0.027683196            2 
 1139000    1.0539419   -7.4963141    372.97838  0.027288438  0.027675164            1 
 1140000    1.0942459   -7.5171688    372.46803  0.027227195  0.027667143            1 
 1141000     1.074459   -7.5574946    371.93426  0.027164348   0.02765911            1 
 1142000    1.0423156   -7.5425897    371.63125  0.027118451  0.027651016            1 
 1143000    1.0841561   -7.5624033    372.45473  0.027154763  0.027642879            5 
 1144000    1.0707848   -7.4800204    373.60694  0.027214958  0.027634734            1 
 1145000    1.0587519    -7.521286    374.71522   0.02727185  0.027626853            2 
 1146000     1.090563   -7.5574582    372.78856  0.027107952  0.027618745            2 
 1147000    1.0461191   -7.5131137    373.45861     0.027133  0.027610636            1 
 1148000    1.0528438   -7.5317713    373.56249  0.027116906  0.027602645            2 
 1149000    1.0636935   -7.4819788    374.46585  0.027158823  0.027594842            3 
 1150000    1.0959819    -7.519346    374.30383  0.027123466   0.02758694            1 
 1151000    1.0727871    -7.542284     375.6544  0.027197683  0.027579021            3 
 1152000    1.0654866   -7.4923478    376.45053  0.027231664  0.027571231            2 
 1153000    1.0844595   -7.5151526    376.05501   0.02717946  0.027563481            1 
 1154000    1.0671327   -7.5640141    375.30907  0.027102042   0.02755572            1 
 1155000    1.0624917   -7.5025381    376.50086  0.027164564  0.027547987            1 
 1156000    1.0699613   -7.5743421    375.36957  0.027059513   0.02754012            1 
 1157000    1.0550718   -7.5624009    376.89135  0.027145732  0.027532238            3 
 1158000    1.0643296   -7.5874089    376.62191  0.027102901  0.027524564            1 
 1159000    1.0592502   -7.5327632    377.08236  0.027112623  0.027516937            2 
 1160000    1.0759749   -7.5456797    378.01393  0.027156173  0.027509267            1 
 1161000    1.0990283   -7.5343232    377.81022  0.027118161  0.027501638            1 
 1162000    1.0826279   -7.5305553    377.22712  0.027053006  0.027494167            1 
 1163000    1.0631141     -7.57483    376.19505  0.026955793  0.027486344            2 
 1164000    1.0690881   -7.5547032    377.52517  0.027027861  0.027478436            6 
 1165000    1.0627767   -7.5319908     380.1981  0.027195858  0.027470794            2 
 1166000    1.0841007   -7.5315833      380.048  0.027161807  0.027463343            1 
 1167000    1.0879282   -7.5092819    380.73816  0.027187815  0.027455867            1 
 1168000     1.075729   -7.5699931    380.47331  0.027145641  0.027448654            1 
 1169000     1.064385   -7.5344364    381.61685  0.027203938  0.027441318            1 
 1170000    1.0797697   -7.5444444    380.70398  0.027115668  0.027434001            3 
 1171000    1.0594885   -7.5449393    380.97197  0.027111583  0.027426708            2 
 1172000    1.0680164   -7.5694789    381.74781  0.027143616  0.027419403            1 
 1173000    1.0540555   -7.5419167    381.05726  0.027071416  0.027412221            2 
 1174000       1.0498   -7.5246837    382.40876   0.02714429  0.027404912            2 
 1175000    1.0650797    -7.587286    381.90477  0.027085445  0.027397652            2 
 1176000    1.0678232   -7.5856235    381.21551  0.027013571  0.027390482            1 
 1177000    1.0466155   -7.5078626    384.15404  0.027198672  0.027383436            1 
 1178000     1.071258   -7.4960198    383.91177  0.027158444  0.027376531            4 
 1179000     1.073722   -7.4862461    383.16575   0.02708268  0.027369719            3 
 1180000    1.1102391   -7.5239399    384.34468  0.027142986  0.027362882            2 
 1181000    1.0701481   -7.5773043     384.0574  0.027099732  0.027356032            1 
 1182000    1.0795963   -7.5735182    384.13813  0.027082497   0.02734904            2 
 1183000    1.0806714   -7.5712534    383.98845  0.027049059  0.027342025            3 
 1184000    1.0723364   -7.5343364    385.28861  0.027117723  0.027334997            2 
 1185000    1.0483765   -7.5377256    385.24333  0.027091655  0.027328053            2 
 1186000     1.082323   -7.5177293    386.05928  0.027126144  0.027321202            1 
 1187000    1.0663557   -7.5456041    385.38104  0.027055675  0.027314202            6 
 1188000    1.0718422   -7.5389847    387.11955  0.027154851  0.027307255            1 
 1189000    1.0754713   -7.5346811    386.47684  0.027086967  0.027300703            2 
 1190000    1.0750558    -7.557089    386.05296  0.027034521  0.027293895            1 
 1191000    1.0625757   -7.5214942    386.92881  0.027073105  0.027287306            1 
 1192000    1.0501085    -7.538767    387.21825  0.027070627  0.027280652            2 
 1193000    1.0622138   -7.5579828    386.83049   0.02702085  0.027273913            2 
 1194000    1.0732038    -7.530905    387.97706  0.027078243  0.027267089            1 
 1195000    1.0724448   -7.5259041    388.37302  0.027083196  0.027260203            1 
 1196000    1.0705385   -7.5727273    387.82596  0.027022433  0.027253437            2 
 1197000    1.0621629   -7.5394887    388.23646  0.027028436  0.027246748            1 
 1198000    1.0585705   -7.5722333    388.16189  0.027000688  0.027239927            1 
 1199000    1.0629958   -7.5447215    387.12232  0.026905916  0.027233013            2 
 1200000    1.0583874   -7.5209838    389.66934  0.027060371   0.02722603            1 
 1201000     1.064411   -7.4948773    389.36581  0.027016778  0.027219317            2 
 1202000    1.0395866   -7.5969797    388.01737  0.026900816  0.027212343            2 
 1203000    1.0600061   -7.5841613    388.98998  0.026945828  0.027205368            2 
 1204000    1.0384895   -7.5849509    390.15381  0.027004001  0.027198383            1 
 1205000    1.0695348   -7.5941295     388.8193  0.026889301  0.027191273            2 
 1206000    1.0582681   -7.5133039    390.64645  0.026993259  0.027184402            2 
 1207000    1.0589181   -7.5579546    390.49537  0.026960465  0.027177402            2 
 1208000    1.0599452   -7.5574641    390.43557  0.026934021  0.027170279            4 
 1209000    1.0461789   -7.5440428    390.62647  0.026924901  0.027163155            2 
 1210000    1.0316145   -7.5276141    390.77252  0.026912708  0.027156198            1 
 1211000    1.0736066   -7.5172937    391.53178  0.026942732  0.027149369            4 
 1212000    1.0646311   -7.5684416    392.29525  0.026972996  0.027142332            1 
 1213000    1.0694921   -7.5407349    390.84082  0.026850839  0.027135382            2 
 1214000    1.0732474   -7.5434591    391.33714  0.026862791  0.027128343            1 
 1215000    1.0630052   -7.5640865    390.65175  0.026793673  0.027121225            1 
 1216000    1.0564714   -7.5631639     391.7078   0.02684401  0.027114047            2 
 1217000    1.0575057   -7.5921867     389.3464  0.026660258  0.027106645            3 
 1218000    1.0517909   -7.5331513    392.47447  0.026852386  0.027099367            2 
 1219000    1.0451595     -7.55584    393.02788  0.026868189  0.027092081            2 
 1220000    1.0414894   -7.5582358    391.84445  0.026765332  0.027084956            1 
 1221000    1.0510275   -7.5720863    393.29397   0.02684234   0.02707775            1 
 1222000    1.0545055   -7.5602424    394.19306  0.026881687  0.027070546            2 
 1223000     1.067349   -7.6064355    391.87913   0.02670204  0.027063397            3 
 1224000    1.0529897   -7.4980987    394.85494  0.026882825  0.027056472            2 
 1225000    1.0556112   -7.5494049    394.00202  0.026802858  0.027049594            2 
 1226000    1.0635895   -7.5218539    394.69191  0.026827889  0.027042706            2 
 1227000    1.0509634   -7.5652014    395.66777  0.026872302  0.027035671            1 
 1228000    1.0599622   -7.5527545    393.83371  0.026725958  0.027028624            2 
 1229000    1.0417916    -7.601164    394.02866   0.02671743  0.027021369            1 
 1230000    1.0556887   -7.5424586    394.14223  0.026703403  0.027014154            1 
 1231000    1.0529641   -7.5171572    395.11663  0.026747673  0.027007045            2 
 1232000    1.0400004   -7.5563545    394.91453  0.026712292  0.026999833            2 
 1233000    1.0498711   -7.6045503    393.98634  0.026627896  0.026992516            1 
 1234000    1.0446873   -7.5846079    394.60859  0.026648338  0.026985034            4 
 1235000    1.0880232   -7.5656468    396.08712  0.026726526   0.02697776            1 
 1236000    1.0544078   -7.5673707    396.47608  0.026731127  0.026970496            2 
 1237000    1.0418387   -7.5250074    396.84891  0.026734634  0.026963273            1 
 1238000    1.0633592   -7.5517399    396.50718  0.026690036  0.026956286            2 
 1239000    1.0655375    -7.615272    395.77947   0.02661955  0.026948993            2 
 1240000     1.046822   -7.5997882    395.85795  0.026603357  0.026941524            1 
 1241000    1.0526432   -7.5624816    396.82362  0.026646765  0.026934109            4 
 1242000    1.0425374   -7.5854903    396.34822  0.026593413  0.026926767            5 
 1243000    1.0627114   -7.6047327    396.41294  0.026576357  0.026919447            1 
 1244000    1.0501078   -7.5848051    396.67335  0.026572438   0.02691196            2 
 1245000    1.0522861   -7.5650675    398.09688  0.026646378  0.026904438            4 
 1246000    1.0508225   -7.5713338    397.56615  0.026589496  0.026897139            2 
 1247000    1.0863487   -7.5990087    398.40314  0.026624107  0.026889701            1 
 1248000    1.0483558   -7.6000182    396.52516  0.026477374  0.026882283            1 
 1249000    1.0748939   -7.5559625    397.34441  0.026510836  0.026874879            2 
 1250000    1.0537166   -7.5396979    398.83526  0.026589017  0.026867343            2 
 1251000    1.0446921   -7.6393021    396.66134  0.026422951  0.026859653            1 
 1252000    1.0624721    -7.603935    398.30518  0.026511261  0.026851983            2 
 1253000     1.062381   -7.5601754    398.51848  0.026504288  0.026844397            2 
 1254000    1.0419925   -7.5624426    399.68096  0.026560404  0.026836828            4 
 1255000    1.0549605   -7.5591268    399.98606  0.026559499  0.026829269            1 
 1256000    1.0300315   -7.5799241    398.53948  0.026442375   0.02682171            4 
 1257000    1.0616148   -7.5815821    398.71333  0.026432865  0.026814073            2 
 1258000     1.057768   -7.5662278     399.0514  0.026434247  0.026806152            2 
 1259000    1.0376027   -7.5576142    398.92309  0.026404758  0.026798449            2 
 1260000    1.0338706   -7.5787762    399.46228  0.026419463  0.026790768            2 
 1261000    1.0733408   -7.5601272    398.34081    0.0263244  0.026782943            4 
 1262000    1.0824934   -7.6003563    398.36346  0.026305036  0.026775046            2 
 1263000    1.0572207   -7.5807178    399.96043  0.026389577  0.026767294            2 
 1264000    1.0394642   -7.5562608    400.12967  0.026379857   0.02675943            2 
 1265000    1.0549589   -7.5776148     399.8667   0.02634168  0.026751633            2 
 1266000     1.048221    -7.603483    400.31058  0.026350091  0.026743726            2 
 1267000    1.0356539   -7.6301693    400.53483  0.026344043   0.02673594            1 
 1268000     1.041741   -7.6003464    400.74163  0.026336858  0.026728199            2 
 1269000    1.0557728   -7.5793209    401.74892  0.026382251  0.026720372            5 
 1270000    1.0639175   -7.5688677    401.81544  0.026365842  0.026712621            2 
 1271000    1.0460875   -7.5940925    400.93822  0.026287583  0.026704672            4 
 1272000    1.0419433   -7.5803487    400.19492  0.026218221  0.026696739            1 
 1273000    1.0625326   -7.5606703    402.38526   0.02634101  0.026688871            3 
 1274000    1.0247665   -7.5947643    400.78184  0.026215452  0.026681003       -1e+20 
 1275000    1.0423079   -7.5414759    402.45841  0.026304471  0.026673119            2 
 1276000    1.0544074    -7.567397    401.93938   0.02624996  0.026665292            1 
 1277000    1.0548424   -7.5516507     402.4141  0.026260383   0.02665737            2 
 1278000    1.0335376    -7.604991    400.73804  0.026130545  0.026649254            1 
 1279000    1.0514535   -7.5762149    401.70864  0.026173354  0.026641219            3 
 1280000    1.0372629   -7.5676209    402.20406   0.02618516  0.026633065            2 
 1281000    1.0586531   -7.5628911    401.84857  0.026141593  0.026624677            4 
 1282000    1.0357346   -7.5481257    403.17822  0.026207632  0.026616445            2 
 1283000    1.0594904   -7.5795491    403.09528  0.026181819  0.026608299            3 
 1284000    1.0460451   -7.5812724    401.99828  0.026090231  0.026600135            2 
 1285000    1.0371459   -7.5383902    403.70991  0.026180928  0.026591967            5 
 1286000    1.0472237   -7.5989046    402.38551  0.026074748  0.026583955            3 
 1287000     1.049659   -7.5955151     402.7256  0.026076509  0.026575705            1 
 1288000    1.0387109   -7.5826716    403.95493    0.0261358  0.026567466            2 
 1289000    1.0616543   -7.5902364    404.12081  0.026126249  0.026559269            3 
 1290000      1.03433   -7.5915711    403.31644  0.026054034  0.026551099            3 
 1291000    1.0324408   -7.5791053    404.37738  0.026102335  0.026543053            3 
 1292000    1.0439668   -7.5456898    404.32412  0.026078697  0.026535036            2 
 1293000    1.0099889   -7.5662144    403.89621  0.026030949  0.026527108            3 
 1294000    1.0453175   -7.5864494     405.5631   0.02611818   0.02651906            1 
 1295000    1.0820031   -7.5907831    404.53522  0.026031868  0.026511056            4 
 1296000    1.0471164   -7.6288856    403.99183  0.025976841  0.026502845            3 
 1297000    1.0465311     -7.60054    405.73064  0.026068532  0.026494592            1 
 1298000    1.0647581   -7.6119376    404.25257  0.025953555  0.026486311            2 
 1299000     1.036693   -7.5769365    406.84215  0.026099702   0.02647814            2 
 1300000    1.0399758   -7.5954528    404.88326  0.025954055  0.026469728            1 
 1301000    1.0471717   -7.5691815    405.91484  0.026000182  0.026461533            2 
 1302000    1.0340099   -7.5916291    407.26173  0.026066419  0.026453577            2 
 1303000    1.0629616   -7.5582394      406.762  0.026014454  0.026445524            3 
 1304000    1.0405736   -7.5994399    406.57148  0.025982329  0.026437515            2 
 1305000    1.0292052   -7.5815466    407.40529  0.026015664  0.026429446            1 
 1306000    1.0494114   -7.6131061    406.86474  0.025961252  0.026421352            2 
 1307000    1.0616256   -7.5693209    407.09472  0.025956052  0.026413236            1 
 1308000    1.0280343   -7.6392765    406.25975  0.025883012  0.026404998            4 
 1309000    1.0155355   -7.5977246    407.56479   0.02594632  0.026396806            1 
 1310000    1.0527208   -7.6366432    407.11393  0.025897833  0.026388737            1 
 1311000    1.0547894   -7.6130315    408.12147  0.025942122  0.026380548            1 
 1312000    1.0527541   -7.6079146    409.50774    0.0260104  0.026372644            3 
 1313000    1.0182434   -7.6387291    407.39182  0.025856297  0.026364539            1 
 1314000    1.0401914   -7.5876226    408.37055   0.02589869  0.026356386            1 
 1315000    1.0421701   -7.6030488    408.14823  0.025864907  0.026348187            2 
 1316000    1.0251199   -7.6122983     408.6744  0.025878571  0.026340184            2 
 1317000    1.0302079   -7.5698331    408.97709  0.025878074  0.026332059            1 
 1318000    1.0471619   -7.5848792    409.76454  0.025908228  0.026324087            2 
 1319000     1.051383   -7.5802174    409.18213   0.02585179  0.026316123            3 
 1320000    1.0535153   -7.6175428    410.70064  0.025928071  0.026308011            2 
 1321000    1.0433256   -7.6410871    409.65256  0.025842326    0.0262999            3 
 1322000    1.0441833    -7.607293     409.3157  0.025801544  0.026291685            2 
 1323000    1.0310611   -7.6057049    410.49239   0.02585616  0.026283506            3 
 1324000     1.033877   -7.5940352    410.30435  0.025824796  0.026275214            1 
 1325000    1.0183268   -7.6216701    409.47593  0.025753203  0.026266986            3 
 1326000    1.0442491   -7.5851248    411.44457  0.025857502  0.026258847            2 
 1327000    1.0360438   -7.6138698    411.14072  0.025818935  0.026250721            1 
 1328000    1.0411008    -7.597495    411.09066  0.025796351  0.026242531            3 
 1329000    1.0215782    -7.619708    410.44398  0.025736392  0.026234383            4 
 1330000      1.04707   -7.6022837    411.48624  0.025782346  0.026226366            2 
 1331000    1.0463114   -7.5999453    411.66027  0.025773871  0.026218289            2 
 1332000    1.0260051   -7.5993835    412.56729  0.025811267  0.026210478            2 
 1333000    1.0456071   -7.5820065    414.17609  0.025892479    0.0262026            1 
 1334000    1.0449938   -7.5764111    414.40343  0.025887271  0.026194724            2 
 1335000    1.0325127   -7.6126372    412.91444  0.025774934  0.026186893            4 
 1336000    1.0359606   -7.6019853    413.32601  0.025781313  0.026178914            3 
 1337000    1.0390019   -7.6350833    414.57032  0.025839586  0.026171056            1 
 1338000    1.0216813   -7.6379607    413.34819  0.025744157  0.026163154            2 
 1339000    1.0163999   -7.6220281    413.41328  0.025728982  0.026155244            2 
 1340000    1.0377422   -7.5992381    414.62403  0.025785076  0.026147344            5 
 1341000    1.0463477   -7.5951768    414.22433   0.02574101  0.026139468            3 
 1342000    1.0419401   -7.6026356    415.44548  0.025797657  0.026131716            2 
 1343000    1.0295906   -7.6055545     412.8974   0.02562034  0.026123785            3 
 1344000    1.0322923   -7.6310306    414.50118  0.025700718  0.026115826            2 
 1345000    1.0341237   -7.5608142     415.4379  0.025739647  0.026107935            3 
 1346000    1.0225627   -7.6172846    415.60907  0.025731122  0.026100197            3 
 1347000    1.0508121   -7.6271748    416.18085  0.025747392  0.026092392            1 
 1348000    1.0254377   -7.5578188    416.80799  0.025767062   0.02608474            4 
 1349000    1.0404998   -7.6138887    417.23304  0.025774218  0.026077066            1 
 1350000    1.0389515   -7.5830965     415.7343  0.025662611  0.026069427            2 
 1351000    1.0510414   -7.6042848     417.1056  0.025728201  0.026061643            5 
 1352000    1.0241391    -7.622108    417.67904  0.025744517  0.026053997            2 
 1353000    1.0276103   -7.6117057    418.43746  0.025772201  0.026046221            2 
 1354000    1.0554982   -7.5945749    417.28978  0.025682532  0.026038593            2 
 1355000    1.0565392   -7.6371992    416.91381  0.025640456  0.026030859            1 
 1356000    1.0459009   -7.6148363    416.18813   0.02557695  0.026023132            4 
 1357000     1.044824   -7.6209793    418.32516  0.025689337  0.026015359            2 
 1358000    1.0348884   -7.6193539    419.14293  0.025720602  0.026007749            1 
 1359000    1.0376709   -7.5973375    418.63405  0.025670472  0.026000155            2 
 1360000    1.0267562    -7.644451    419.07989  0.025678915  0.025992561            2 
 1361000    1.0519116    -7.585122      419.257  0.025670892  0.025984893            5 
 1362000    1.0355695   -7.5741162    420.50008  0.025728101  0.025977385            1 
 1363000    1.0218892   -7.6145591    419.50929  0.025648648  0.025969755            2 
 1364000    1.0280434   -7.6094616    419.53597  0.025631474  0.025962028            2 
 1365000    1.0123181   -7.5795036    420.02451  0.025642522  0.025954428            2 
 1366000    1.0561385   -7.5697797    421.07649  0.025687926  0.025946755            4 
 1367000    1.0321452   -7.6380042    420.07132  0.025607859  0.025939156            2 
 1368000    1.0478485   -7.6240464    421.83625  0.025696652  0.025931439            4 
 1369000    1.0349501   -7.6066185    419.74902  0.025550829  0.025923791            2 
 1370000    1.0461221   -7.6233033    420.88006  0.025600977  0.025916188            1 
 1371000    1.0344918   -7.6108803    421.71061  0.025632787  0.025908764            3 
 1372000    1.0334211   -7.5921294    421.76803  0.025617592  0.025901256            1 
 1373000    1.0432398   -7.6584561    420.48619  0.025521133  0.025893688            2 
 1374000    1.0407622   -7.6121464    421.36725  0.025555995  0.025886255            2 
 1375000    1.0020648   -7.6373908     420.8998  0.025509079  0.025878731            2 
 1376000    1.0284659   -7.6151394    422.21034  0.025569909  0.025871385            2 
 1377000    1.0298636   -7.6504764    421.70775  0.025520924  0.025863972            3 
 1378000    1.0212477   -7.6063251    422.55866  0.025553862  0.025856405            2 
 1379000    1.0248932   -7.6634479    422.82915  0.025551677  0.025849011            2 
 1380000    1.0473612   -7.6481634    422.99791  0.025543352  0.025841596            3 
 1381000    1.0407727   -7.6721329    423.34502  0.025545801   0.02583427            2 
 1382000    1.0164533   -7.6389497    424.04246  0.025569371  0.025826908            2 
 1383000    1.0392809   -7.6540502    423.67477  0.025528728  0.025819577            1 
 1384000    1.0518594   -7.6609866     424.8708  0.025582298  0.025812271            3 
 1385000    1.0311652   -7.6199562    425.18184  0.025582541  0.025805082            3 
 1386000    1.0437753   -7.6272959    425.48769  0.025582473  0.025797762            1 
 1387000    1.0389307   -7.6291166    425.57876    0.0255695  0.025790426            3 
 1388000    1.0293849   -7.6340737     425.1663  0.025526315  0.025783026            3 
 1389000    1.0024878   -7.6408611    425.78079  0.025544804  0.025775663            2 
 1390000    1.0322626   -7.5741598    427.26053   0.02561514  0.025768453            1 
 1391000    1.0094778   -7.6540428    425.44873  0.025488182  0.025761166            3 
 1392000    1.0089049   -7.6431283    425.62475  0.025480409  0.025753774            4 
 1393000    1.0415895   -7.5900695      427.769  0.025590392  0.025746598            3 
 1394000    1.0473854   -7.6472416    426.50912  0.025496719  0.025739398            3 
 1395000    1.0259043   -7.6014373    428.12419  0.025574921   0.02573226            1 
 1396000    1.0419219   -7.6113926    428.63779   0.02558726  0.025725081            3 
 1397000     1.032802   -7.5906479    428.24386  0.025545446  0.025717973            3 
 1398000    1.0429297   -7.6314126    427.81255  0.025501464  0.025710832            2 
 1399000     1.070951   -7.6305158     427.6084  0.025471075  0.025703644            2 
 1400000     1.037415   -7.6609571    428.49068  0.025505398  0.025696396            2 
 1401000    1.0143448   -7.6434505    427.46676  0.025426288  0.025689088            3 
 1402000    1.0204202   -7.6156945    427.98225  0.025438793  0.025681803            3 
 1403000     1.035491   -7.6437162     427.7643  0.025407716  0.025674497            3 
 1404000    1.0031332   -7.6473644    427.63792  0.025382117  0.025667242            2 
 1405000      1.04699   -7.6901337    429.44005   0.02547094  0.025660004            3 
 1406000    1.0162284   -7.6217215    429.09473  0.025432357  0.025652828            1 
 1407000    1.0286696   -7.6096547    430.50241  0.025497655  0.025645636            1 
 1408000    1.0282049   -7.6157194    428.26469  0.025347105  0.025638419            2 
 1409000    1.0081112   -7.6414887    429.19629  0.025384214  0.025631161            1 
 1410000    1.0207594   -7.6444025    428.98519  0.025353735   0.02562373            3 
 1411000    1.0272869   -7.6561453    429.51767  0.025367214  0.025616308            3 
 1412000     1.016341   -7.6416664    429.17207  0.025328852  0.025608954            2 
 1413000     1.003918   -7.6662309     430.9222  0.025414143  0.025601652            2 
 1414000    1.0074418   -7.6877387    429.49581  0.025312106  0.025594168            4 
 1415000    1.0194737   -7.6613877    429.97742  0.025322581  0.025586697            2 
 1416000    1.0407883   -7.6623191    430.86463  0.025356911  0.025579248            3 
 1417000     1.029473   -7.6242342    429.78368  0.025275446  0.025571903            3 
 1418000    1.0287731   -7.6462547    431.02955  0.025330838  0.025564575            1 
 1419000    1.0347808    -7.657999    430.17956   0.02526307  0.025557138            1 
 1420000    1.0252907   -7.6217564    432.31594  0.025370654  0.025549846            1 
 1421000    1.0564573   -7.6535633    431.24477  0.025289982  0.025542485            1 
 1422000    1.0335606   -7.6037386    432.64519  0.025354266  0.025535203            2 
 1423000    1.0286093   -7.6310426    432.73421  0.025341661  0.025527842            1 
 1424000    1.0270953   -7.6389575     432.0506   0.02528386  0.025520481            4 
 1425000    1.0359613   -7.6336803    431.71773  0.025246651  0.025513046            1 
 1426000    1.0685011   -7.6397779    432.73213  0.025288226  0.025505584            2 
 1427000    1.0226594   -7.6329331    431.96851  0.025225912  0.025498259            3 
 1428000    1.0445582    -7.651226    432.64008  0.025247437   0.02549097            3 
 1429000   0.99676939   -7.6325666    434.43409  0.025334388   0.02548374            4 
 1430000    1.0241018   -7.6138336    434.91477  0.025344683  0.025476504            2 
 1431000    1.0377183   -7.6525826    433.37194  0.025237126  0.025469317            2 
 1432000     1.015993   -7.6472849    432.51422  0.025169589  0.025462026            1 
 1433000    1.0214845   -7.6174285    435.30175  0.025314128  0.025454749            1 
 1434000    1.0088731   -7.6325151    435.39892  0.025302122  0.025447572            6 
 1435000    1.0214506   -7.6347307    434.81501  0.025250581  0.025440273            2 
 1436000    1.0220522   -7.6588985     434.8166   0.02523309  0.025432894            4 
 1437000    1.0068057   -7.6372014    434.57947  0.025201779  0.025425483            2 
 1438000    1.0247934   -7.6838395     433.0189  0.025093817   0.02541809            2 
 1439000    1.0308957   -7.6711199    434.82771  0.025181127   0.02541078            1 
 1440000   0.99846992    -7.660415    435.03602  0.025175696  0.025403482            1 
 1441000    1.0251778   -7.6387517    435.31595  0.025174413  0.025396319            2 
 1442000    1.0373393   -7.6281403    435.58331  0.025172406  0.025389048            2 
 1443000    1.0404263    -7.692922     435.0891  0.025126421  0.025381781            2 
 1444000    1.0138472   -7.6731683    435.96337  0.025159474  0.025374556            2 
 1445000     1.026337   -7.6581517    435.88788  0.025137709  0.025367317            3 
 1446000    1.0249953   -7.6097081    436.12048   0.02513373  0.025360188            3 
 1447000    1.0283474   -7.6384189    436.29769  0.025126566  0.025352984            3 
 1448000    1.0249205   -7.6520998    436.51337  0.025121626  0.025345585            2 
 1449000    1.0243312   -7.6166785    436.29732  0.025091863  0.025338138            2 
 1450000    1.0008035   -7.6334797    436.86812  0.025107363  0.025330752            1 
 1451000    1.0168789   -7.6622359    438.17544  0.025165141  0.025323393            3 
 1452000    1.0390092   -7.6623846    438.20149  0.025149305   0.02531608            2 
 1453000    1.0199814   -7.6760707    436.49948  0.025034382  0.025308744            5 
 1454000    1.0049913   -7.6372658    437.72068  0.025087155   0.02530124            3 
 1455000    1.0307677   -7.6557476    437.26723  0.025043942  0.025293806            5 
 1456000    1.0307078   -7.6330816    438.27566  0.025084459  0.025286532            3 
 1457000    1.0155639   -7.6663482    437.31732   0.02501243  0.025279128            1 
 1458000    1.0159325   -7.6507672    437.94242  0.025031002  0.025271716            1 
 1459000    1.0144351   -7.6825742    437.26003  0.024974871  0.025264198            3 
 1460000     1.026649   -7.6494935    437.43992  0.024968032  0.025256649            3 
 1461000    1.0276888   -7.6768394    437.70443   0.02496603  0.025249077            3 
 1462000    1.0128113   -7.6404722    439.50262  0.025051449   0.02524157            2 
 1463000    1.0344326   -7.6574831    436.55143  0.024866224  0.025234023            5 
 1464000    1.0093872   -7.6715243    436.93852  0.024871273  0.025226347            1 
 1465000    1.0190148   -7.6619683    439.22359  0.024984277  0.025218856            1 
 1466000    1.0172889   -7.6620728    438.60648  0.024932155  0.025211212            5 
 1467000    1.0106805   -7.6557857    439.03235  0.024939352  0.025203631            1 
 1468000    1.0045997   -7.6317915     438.6535  0.024900857  0.025195938            2 
 1469000    1.0442849   -7.6766258     438.3305  0.024865583  0.025188215            3 
 1470000    1.0105489   -7.6322579    438.73194  0.024871425  0.025180486            4 
 1471000     1.044668    -7.699941    438.17852  0.024823166   0.02517286            1 
 1472000   0.99548642   -7.6618486    439.03223  0.024854632   0.02516517            2 
 1473000    1.0256615   -7.6966831    438.20239  0.024790812  0.025157554            2 
 1474000    1.0248722   -7.6557626    439.65008  0.024855839  0.025149778            1 
 1475000    1.0286239   -7.6594588    439.57999  0.024835027  0.025142052            2 
 1476000    1.0022163   -7.6690441    440.05086  0.024844787  0.025134461            2 
 1477000    1.0307249   -7.6678048    439.80892  0.024814315  0.025126794            6 
 1478000    1.0390587   -7.6688074     440.2009  0.024819627   0.02511928            2 
 1479000    1.0188946   -7.6614305    440.65775  0.024828586  0.025111814            1 
 1480000     1.026211   -7.6529637    440.12535  0.024781833   0.02510432            1 
 1481000    1.0152341   -7.6589113    441.98324   0.02486964    0.0250968            2 
 1482000    1.0185676   -7.7079536    439.86858  0.024733951  0.025089168            3 
 1483000   0.97621497   -7.6217498    442.09641   0.02484246  0.025081591            1 
 1484000    1.0397971   -7.7115973    440.51722  0.024737041  0.025074018            2 
 1485000    1.0354981   -7.6567108    442.25494  0.024817898  0.025066484            1 
 1486000    1.0224542   -7.6623026    443.63798  0.024878756  0.025058975            2 
 1487000    1.0265186   -7.6409474    441.59801  0.024747703   0.02505141            2 
 1488000    1.0180878   -7.7113528    441.19768  0.024708652    0.0250437            3 
 1489000   0.99982873    -7.664255    442.34153  0.024756074  0.025035951            2 
 1490000    1.0075756    -7.663031    441.57355  0.024696507  0.025028272            3 
 1491000    1.0080902   -7.6715689    443.04338  0.024762094  0.025020572            3 
 1492000     1.001679   -7.6648171    442.51696  0.024716095  0.025012866            1 
 1493000   0.99843956   -7.6681241    443.19402  0.024737331  0.025005311            2 
 1494000    1.0114181   -7.6604361    444.06555  0.024769386  0.024997776            1 
 1495000   0.99511251   -7.6776648    443.13617  0.024701013  0.024990124            2 
 1496000    1.0258151   -7.6484908    445.35786  0.024808259  0.024982453            1 
 1497000    1.0090523   -7.6516309    442.80787  0.024649737  0.024974901            2 
 1498000    1.0186637   -7.6987751    443.19313  0.024654713  0.024967266            5 
 1499000    1.0250032   -7.6650757    443.50141  0.024655404  0.024959718            1 
 1500000     1.001588   -7.7227252    443.09042  0.024616134  0.024952179            3 
 1501000    1.0301512   -7.6997954    443.42414  0.024618262   0.02494459            1 
 1502000    1.0180742   -7.6560598    445.51238  0.024717731  0.024937151            2 
 1503000    1.0001791   -7.6409381    445.52784  0.024702142  0.024929691            2 
 1504000    1.0207559   -7.6747568    445.42979  0.024680285  0.024922201            6 
 1505000    1.0228413   -7.6627753     445.4946  0.024667475  0.024914582            5 
 1506000     1.019424   -7.6570243    444.47525  0.024594691  0.024906947            1 
 1507000    1.0048748   -7.6839147    445.49631  0.024634833  0.024899387            2 
 1508000    1.0006662   -7.6714356    446.28294  0.024661966  0.024891905            1 
 1509000    1.0133486   -7.6719793    447.24419  0.024698707  0.024884459            2 
 1510000    1.0135688   -7.6781044    446.13762  0.024621282   0.02487697            4 
 1511000    0.9962766   -7.6815031    445.08364  0.024546859  0.024869302            2 
 1512000    1.0087764   -7.6917083    445.69474  0.024564304  0.024861756            1 
 1513000    1.0199689   -7.6550745    447.03505  0.024621891  0.024854171            1 
 1514000   0.99257986   -7.6946794     447.4641  0.024629244  0.024846644            2 
 1515000    1.0234607   -7.7020055    446.89805  0.024581851   0.02483911            5 
 1516000    1.0150562   -7.6993161    445.92407  0.024512097  0.024831546            2 
 1517000    1.0065731   -7.6768421    448.01643  0.024610878  0.024823963            4 
 1518000    1.0072344   -7.6696384    446.91899   0.02453442  0.024816441            2 
 1519000    1.0312576   -7.6659658    448.34469  0.024596483  0.024808893            2 
 1520000    1.0045581   -7.6791099    448.37892  0.024582178  0.024801378            5 
 1521000    1.0052675   -7.6651458    448.23001  0.024557857  0.024793952            2 
 1522000     1.020651   -7.7077189    447.99033  0.024528599  0.024786471            4 
 1523000    1.0132549   -7.7053187    448.72096  0.024552471   0.02477899            1 
 1524000    1.0104958   -7.6859616    448.69995  0.024535212  0.024771532            2 
 1525000    1.0241478    -7.709757    448.28672  0.024496542  0.024763988            4 
 1526000    1.0110889    -7.730373    447.51735  0.024438475  0.024756497            2 
 1527000    1.0074022   -7.6777509    450.19283   0.02456848  0.024749116            2 
 1528000   0.98946873    -7.683192     449.7925  0.024530568  0.024741721            4 
 1529000    1.0297503   -7.6924494    449.15963  0.024480032  0.024734246            1 
 1530000    1.0229367   -7.6587537    449.99322  0.024509435  0.024726791            1 
 1531000    1.0046874   -7.7291879    448.50828    0.0244126  0.024719221            2 
 1532000    1.0027489   -7.6944115    449.99012  0.024477269  0.024711651            2 
 1533000    1.0105413    -7.677348     450.3934  0.024483225  0.024704225            5 
 1534000    1.0162652     -7.66736    451.17627  0.024509793  0.024696761            4 
 1535000    1.0081485   -7.6449834    449.28373  0.024391082  0.024689373            2 
 1536000    1.0000607    -7.676314    450.73495  0.024453936  0.024681891            1 
 1537000    1.0018718   -7.7063832    449.17427  0.024353409  0.024674347            2 
 1538000   0.99023476   -7.6836696     450.1915  0.024392691  0.024666833            2 
 1539000     1.012394   -7.6965603    451.05774  0.024423746  0.024659339            3 
 1540000    1.0112594   -7.6983021    449.48929  0.024323013  0.024651833            4 
 1541000   0.99446504   -7.6961911    450.12888  0.024341817   0.02464428            4 
 1542000    1.0109386   -7.6711291    451.20919  0.024384414  0.024636699            3 
 1543000    1.0015249   -7.6530922    451.68601  0.024394362  0.024629117            5 
 1544000   0.98376488    -7.681988     451.3828  0.024362198  0.024621494            1 
 1545000     1.003059   -7.6634054    451.57061  0.024356559   0.02461397            3 
 1546000    1.0170838   -7.6664985    451.28125  0.024325208  0.024606316            2 
 1547000   0.99668918   -7.6794138    452.20015  0.024358982  0.024598581            2 
 1548000    1.0050184   -7.7419305     450.1531  0.024233048  0.024590845            1 
 1549000    1.0037834   -7.6715234    452.18993  0.024326981  0.024583194            1 
 1550000    1.0112776   -7.7076239    451.22341  0.024259323  0.024575568            2 
 1551000   0.99099099   -7.7232167    451.83924   0.02427677   0.02456803            3 
 1552000   0.99522174   -7.7330463    452.04533  0.024272194  0.024560388            5 
 1553000    1.0014409   -7.6604508    453.56963  0.024338357  0.024552818            1 
 1554000    1.0227828   -7.7305464    452.20074  0.024249289  0.024545298            3 
 1555000    1.0102735   -7.6838588    453.64888  0.024311301   0.02453774            2 
 1556000    1.0072423   -7.6738984    455.16109  0.024376665   0.02453024            1 
 1557000    1.0014091   -7.6801532    454.00622  0.024299198  0.024522691            2 
 1558000    1.0128612   -7.6956179    453.48981  0.024255981  0.024515234            3 
 1559000    1.0042115   -7.6968879    453.10325  0.024219759  0.024507662            3 
 1560000   0.98528307   -7.6798872    453.61242  0.024231432  0.024500124            1 
 1561000   0.98800926   -7.6553761    454.13473  0.024243793  0.024492644            4 
 1562000    1.0227637   -7.6810089    454.87128  0.024267567  0.024485205            2 
 1563000    1.0004816   -7.6766329    455.80767  0.024301966  0.024477735            1 
 1564000   0.97758817   -7.6860254      455.614  0.024276108   0.02447028            1 
 1565000   0.97119948   -7.6868782     455.3973  0.024249058  0.024462809            4 
 1566000   0.99718186   -7.7226249    453.66462   0.02414137  0.024455221            3 
 1567000    1.0053109   -7.7111538    455.43059  0.024219878  0.024447731            2 
 1568000   0.98793656   -7.6942408    455.52981  0.024209705  0.024440343            2 
 1569000    1.0081086   -7.6770829    456.38859  0.024239887  0.024432962            4 
 1570000   0.98202262   -7.7068569     455.6956  0.024187664  0.024425591            2 
 1571000    1.0045542   -7.6870179    456.75521  0.024228475  0.024418094            4 
 1572000   0.98459141   -7.7180479     456.5334  0.024201304   0.02441072            2 
 1573000   0.97544345   -7.6900638    457.15869  0.024219045   0.02440337            3 
 1574000    1.0148013   -7.7037536    456.73987  0.024181484   0.02439606            1 
 1575000    1.0104932   -7.7148776    456.57781  0.024157556  0.024388643            1 
 1576000    1.0033849   -7.7124587    457.28634  0.024179692  0.024381342            2 
 1577000    0.9932076   -7.6860025    459.83162   0.02429886  0.024373977            4 
 1578000    1.0147127   -7.7222891    457.65112   0.02416831  0.024366705            2 
 1579000    1.0170833   -7.6874205    458.10246  0.024176824  0.024359494            1 
 1580000   0.99325128    -7.704055    458.56065  0.024185688  0.024352288            2 
 1581000    1.0042617    -7.701886    459.09032  0.024198309  0.024345013            3 
 1582000   0.99623137   -7.7014805    458.75719  0.024165465  0.024337829            1 
 1583000    1.0057119   -7.7144428    459.08612  0.024167515  0.024330532            1 
 1584000   0.97142237   -7.6954786    459.32877  0.024165024  0.024323271            2 
 1585000    0.9911857   -7.7033886    459.89724  0.024179666  0.024316031            2 
 1586000    1.0000349   -7.6970772    459.55616  0.024146499  0.024308782            1 
 1587000   0.99275955   -7.6667653     460.8799  0.024200793  0.024301531            2 
 1588000     1.000268   -7.6952408    460.39636  0.024160178  0.024294411            2 
 1589000   0.98713796   -7.7140428    460.16371  0.024132773  0.024287314            1 
 1590000    1.0057492   -7.6971958    462.16514  0.024222492   0.02428018            2 
 1591000    1.0156076   -7.6949417    461.38076  0.024166183  0.024273156            2 
 1592000   0.97252699   -7.6766718    460.73235  0.024117062  0.024265994            1 
 1593000     1.008613   -7.6776009    461.60058  0.024147341  0.024258854            4 
 1594000    1.0000491   -7.7142236    461.60854  0.024132609  0.024251762            1 
 1595000   0.98485991   -7.6909714    462.62839  0.024170762  0.024244733            1 
 1596000    1.0228164   -7.6825161    462.32746  0.024139905   0.02423764            2 
 1597000    1.0002355   -7.7294758    461.12238  0.024061907  0.024230513            1 
 1598000    1.0183136   -7.7186374      460.865  0.024033427  0.024223238            2 
 1599000   0.99798942    -7.670114     461.0259  0.024026782  0.024215964            1 
 1600000   0.99071494   -7.7080818    461.62804  0.024043127   0.02420872            3 
 1601000    1.0234302   -7.7069443    461.30534  0.024011313  0.024201477            1 
 1602000   0.97740932   -7.7658174    461.42723  0.024002665  0.024194185            2 
 1603000   0.97560129    -7.725128    462.64712  0.024051108  0.024186989            1 
 1604000   0.98769163   -7.6921886    462.83733  0.024045996  0.024179878            3 
 1605000   0.99758707   -7.7125108    462.65393  0.024021491  0.024172736            2 
 1606000   0.99091442   -7.7173382    462.88982  0.024018774  0.024165497            2 
 1607000    1.0046432   -7.7382075    461.37728  0.023925393   0.02415824            1 
 1608000   0.99043909   -7.7084939    464.24742  0.024059257   0.02415098            2 
 1609000   0.98032315   -7.6987894    462.20197  0.023938366  0.024143865            3 
 1610000   0.99838663   -7.7096145    464.38033  0.024036249  0.024136737            4 
 1611000    1.0144445   -7.7360356    463.60008  0.023980968  0.024129637            2 
 1612000   0.99131895   -7.6919448    464.78836  0.024027521  0.024122491            2 
 1613000    1.0072176   -7.7417198    463.80332  0.023961734  0.024115339            4 
 1614000   0.99143321   -7.6981745    463.78423  0.023945902  0.024108147            2 
 1615000   0.98753138   -7.7436769    464.01681  0.023943076   0.02410096            2 
 1616000    0.9794584   -7.7469212    463.56423  0.023904921  0.024093762            1 
 1617000   0.99101528   -7.7219327    464.64509   0.02394584  0.024086529            2 
 1618000   0.98710173   -7.7611296    463.08551  0.023850717  0.024079158            1 
 1619000    1.0120111   -7.7479099    463.40528  0.023852444  0.024071879            2 
 1620000    1.0024767   -7.7720575    463.89334  0.023862826  0.024064624            2 
 1621000    1.0062895   -7.7269952    464.03272   0.02385527  0.024057306            2 
 1622000    1.0085193   -7.7008091     465.2499  0.023903098  0.024050085            3 
 1623000   0.99583751   -7.7076895     463.8392  0.023815938  0.024042923            2 
 1624000   0.99648914   -7.7087237    465.21025  0.023871626  0.024035712            2 
 1625000   0.97123626   -7.7289812    464.40975  0.023815885   0.02402837            3 
 1626000    1.0147183   -7.6861215    465.36895  0.023850397  0.024020961            2 
 1627000   0.99082383   -7.6940733    465.21343  0.023827772   0.02401363            2 
 1628000    1.0160373   -7.7687451    463.37626  0.023719096  0.024006182            2 
 1629000   0.98268967    -7.757473    465.29572  0.023802727   0.02399873            2 
 1630000   0.98746598   -7.7452393    465.28725  0.023787692  0.023991358            1 
 1631000   0.97427721   -7.7389874    465.58292  0.023788214  0.023983999            7 
 1632000    1.0019924   -7.7220354    465.58821  0.023773908  0.023976793            2 
 1633000    1.0001734    -7.741468    465.44743  0.023752165  0.023969507            2 
 1634000   0.98140659   -7.7282322     465.4711  0.023738836   0.02396223            4 
 1635000   0.99345891   -7.6972587    465.46001  0.023723752  0.023954832            1 
 1636000   0.98528033   -7.7459223    465.95805  0.023734619  0.023947441            2 
 1637000   0.99275297   -7.7481171    466.36693  0.023740935  0.023939938            3 
 1638000   0.98939635   -7.7364116    466.25338  0.023720664  0.023932457            1 
 1639000   0.98950429   -7.7026621     467.8027  0.023784965  0.023925021            3 
 1640000   0.97981075   -7.7430626    465.53529  0.023655248  0.023917747            1 
 1641000   0.99259381   -7.7360144    467.02095  0.023716278   0.02391049            1 
 1642000   0.98681177   -7.7376013    468.13427  0.023758337  0.023903217            3 
 1643000   0.97109997   -7.7141781    466.90645  0.023681601   0.02389578            2 
 1644000   0.98213205      -7.7654    466.52316  0.023647768  0.023888387            3 
 1645000   0.97999324   -7.7316054    468.08744  0.023712636  0.023880967            1 
 1646000   0.97902613   -7.7361755    466.99187  0.023642764  0.023873651            1 
 1647000   0.99331595   -7.6988505    467.09164  0.023633457   0.02386625            2 
 1648000   0.99051311   -7.7638665    467.65747  0.023647728  0.023858945            5 
 1649000   0.98705364   -7.7365521      468.136   0.02365757  0.023851622            3 
 1650000   0.99018723   -7.7383711    468.47605  0.023660406  0.023844363            3 
 1651000   0.99758869   -7.7465552    468.90284  0.023667617  0.023837095            2 
 1652000   0.98229113   -7.6941186    470.49655  0.023733684  0.023829919            3 
 1653000    1.0075884   -7.7119851    470.68498  0.023728825  0.023822817            1 
 1654000   0.96729471    -7.730445    470.54193  0.023707272  0.023815696            1 
 1655000   0.98744523   -7.7259965    469.76791  0.023653974  0.023808561            3 
 1656000   0.97214483   -7.7653188    469.40905  0.023621631  0.023801288            2 
 1657000   0.98129082   -7.7446136    470.33045  0.023653714  0.023794078            2 
 1658000   0.99111424   -7.7280452    469.45815  0.023595605  0.023786937            3 
 1659000    0.9761226   -7.6977099    471.40724  0.023679287  0.023779783            1 
 1660000   0.97232224   -7.7109771    471.57485  0.023673436  0.023772671            1 
 1661000   0.98569836    -7.704009    471.10208  0.023635465  0.023765501            2 
 1662000   0.99524407    -7.708097    471.22667  0.023627491  0.023758358            3 
 1663000   0.99781551   -7.7113055    471.18221  0.023611055  0.023751224            5 
 1664000    1.0043998    -7.694937    473.08312  0.023692063   0.02374417            1 
 1665000   0.99759726   -7.7518489    471.06794  0.023576974  0.023737055            3 
 1666000   0.99407765   -7.7183902    471.11513  0.023565183  0.023729967            2 
 1667000   0.95267366     -7.70363     472.3083  0.023610693   0.02372282            4 
 1668000   0.97016918   -7.7388557     472.7588  0.023619045  0.023715724            4 
 1669000   0.98704806   -7.7421219    472.05445  0.023569725  0.023708589            1 
 1670000   0.96928887   -7.7549716    472.02764  0.023554273  0.023701377            2 
 1671000   0.98761119   -7.7488111    471.04411  0.023491128  0.023694248            1 
 1672000   0.96253987   -7.7775099     471.9193  0.023520699  0.023687174            3 
 1673000   0.97856172   -7.7587935    472.62261  0.023541672  0.023680038            2 
 1674000   0.97619107   -7.7073459    473.84809  0.023588614  0.023672965            2 
 1675000   0.99469285   -7.7339023    472.88656  0.023526694  0.023665977            1 
 1676000   0.99011584   -7.7530557     473.4516  0.023540752  0.023658966            3 
 1677000   0.97850225   -7.7191156    474.41931  0.023574802     0.023652            2 
 1678000   0.97327022   -7.7503863    474.29747  0.023554701  0.023644939            3 
 1679000   0.98331706   -7.7357729    473.51978  0.023502074  0.023637804            3 
 1680000   0.97661937   -7.7519609    473.73262  0.023498642  0.023630699            1 
 1681000   0.97952906   -7.7552783    473.86117  0.023491035  0.023623576            3 
 1682000   0.99381849   -7.7286604    472.92835  0.023430854  0.023616371            4 
 1683000   0.98784326   -7.7426065    474.85436  0.023512297  0.023609219            5 
 1684000   0.97624362   -7.7331586    474.82524  0.023496894  0.023602158            3 
 1685000   0.96394725   -7.7625438    473.77694  0.023431105  0.023595029            2 
 1686000   0.98511712   -7.7124358     474.3942  0.023447716  0.023587877            2 
 1687000   0.96354971   -7.7414578    474.53584  0.023440814  0.023580787            1 
 1688000   0.97157559   -7.7016478    475.20307  0.023459867  0.023573746            2 
 1689000   0.98228048   -7.7111522    475.47942  0.023459612  0.023566739            5 
 1690000   0.99224122   -7.7543034    476.47874  0.023495007  0.023559645            2 
 1691000   0.96196848   -7.7769371    475.32118  0.023424068   0.02355249            2 
 1692000   0.97923967   -7.7690582    474.87693  0.023388344  0.023545337            2 
 1693000   0.96966963   -7.7532404    476.24442   0.02344184  0.023538139            2 
 1694000   0.97252903   -7.7679058    474.16889    0.0233259  0.023530979            1 
 1695000   0.97730528   -7.7646499    475.70852  0.023387833  0.023523788            1 
 1696000   0.97213491   -7.7503412    475.29525  0.023353737  0.023516658            2 
 1697000   0.98166866   -7.7549354    475.94331  0.023371799  0.023509488            1 
 1698000   0.96611112   -7.7863206    476.94596  0.023407242   0.02350231            1 
 1699000   0.98330989   -7.7682795    475.45657  0.023320412  0.023495163            2 
 1700000    1.0005346    -7.738013    476.10559  0.023338509  0.023488037            2 
 1701000    0.9742705   -7.7245481    477.39786  0.023388098  0.023480943            2 
 1702000   0.98880527    -7.739168    477.10966  0.023360246  0.023473818            1 
 1703000   0.98736619   -7.7375278    476.48926   0.02331617  0.023466724            2 
 1704000   0.97938549   -7.7629819    477.07732  0.023331246  0.023459555            1 
 1705000   0.99167678   -7.7792134    476.22165   0.02327574  0.023452423            1 
 1706000    0.9764302   -7.7797897    475.66502  0.023234907  0.023445288            3 
 1707000   0.99022154   -7.7355462    477.88126  0.023329489  0.023438194            3 
 1708000   0.96843488   -7.7183704    480.34281  0.023435929  0.023431129            1 
 1709000   0.99569678    -7.742899    479.60424  0.023386203  0.023424081            8 
 1710000   0.97683447   -7.7305968    477.92078  0.023290486  0.023416917            1 
 1711000   0.97874744   -7.7174291    479.82839  0.023369783  0.023409807            2 
 1712000   0.97274818   -7.7285334    479.56922  0.023343517  0.023402691            3 
 1713000   0.98528358   -7.7732216    478.25411  0.023265913  0.023395468            5 
 1714000   0.97032572   -7.7703172    478.05163  0.023242495  0.023388245            1 
 1715000   0.97842723   -7.7573207    479.31047   0.02329011  0.023381001            2 
 1716000   0.97690445   -7.7417849    479.11748  0.023267166  0.023373788            2 
 1717000   0.96101331   -7.8250348    476.97131  0.023149452    0.0233665            2 
 1718000   0.98546809   -7.7474923    479.36324     0.023252  0.023359206            2 
 1719000   0.95933624   -7.7821458    477.06061  0.023126848  0.023351975            3 
 1720000   0.99579294   -7.7500367    480.40285  0.023275332   0.02334475            2 
 1721000   0.97579721   -7.7896487    477.82642  0.023137053  0.023337462            3 
 1722000   0.97822631   -7.7666774    478.37637  0.023150231  0.023330164            2 
 1723000   0.97622756   -7.7590912    478.62994  0.023149059  0.023322866            1 
 1724000   0.98526751   -7.7129186    479.33597  0.023169759   0.02331565            2 
 1725000    0.9810265   -7.7577251     478.0105  0.023092295  0.023308445            2 
 1726000   0.97419934   -7.7575382    480.11103  0.023180332  0.023301034            3 
 1727000   0.95087891     -7.77244    477.83797  0.023057227  0.023293636            1 
 1728000   0.96911533   -7.7584458    479.36885  0.023117711  0.023286228            3 
 1729000   0.96643411   -7.7410095    479.28701  0.023100395  0.023278915            2 
 1730000   0.98202684   -7.7413775    479.12364  0.023079173    0.0232716            3 
 1731000   0.97847071   -7.7800678     478.8541  0.023052865  0.023264211            2 
 1732000   0.98871971   -7.7501966    479.50097  0.023070678  0.023256861            3 
 1733000   0.96623411   -7.7607272    479.65291  0.023064672  0.023249454            2 
 1734000   0.97081225   -7.7589221    479.18479  0.023028873  0.023242084            1 
 1735000   0.94772934    -7.785004    479.56785  0.023033999   0.02323466            2 
 1736000   0.96368818   -7.7946072    478.94823  0.022990986  0.023227303            1 
 1737000   0.97743725   -7.7735164    480.48807  0.023051625  0.023220005            3 
 1738000   0.96817041   -7.7626956    480.26816  0.023027817  0.023212663            3 
 1739000   0.97385834   -7.7659842    480.94651  0.023047082  0.023205366            1 
 1740000   0.97240044   -7.7851412    481.24338  0.023048055  0.023198105            2 
 1741000   0.98050984   -7.7668292    480.41249  0.022995046  0.023190816            3 
 1742000   0.96093354   -7.7778502    480.94238  0.023007194  0.023183591            1 
 1743000   0.97900869   -7.8124994    482.14252  0.023051373  0.023176351            1 
 1744000   0.98662589   -7.7370452     482.4708  0.023053842  0.023169219            2 
 1745000   0.95483448   -7.7566957    481.69102  0.023003391  0.023162079            2 
 1746000   0.97462253   -7.7847185    481.81932   0.02299634  0.023154914            1 
 1747000   0.97652876   -7.7509618    483.00316  0.023039647  0.023147716            1 
 1748000   0.96273032   -7.7767595    482.60645  0.023007554  0.023140576            2 
 1749000   0.99414549   -7.8078937    483.09774  0.023017807  0.023133389            1 
 1750000   0.94845601   -7.7592041     483.0869  0.023004138  0.023126219            2 
 1751000   0.98106216   -7.7852221    483.32717  0.023002435  0.023119008            2 
 1752000   0.98279927   -7.7925221    481.92029  0.022922388  0.023111858            1 
 1753000   0.97435735   -7.7471338    484.46803  0.023030425  0.023104654            2 
 1754000   0.97041577   -7.7839342    483.14497  0.022954436  0.023097501            2 
 1755000   0.96120313   -7.7360156    484.90444  0.023024902  0.023090461            8 
 1756000   0.99059474   -7.7860766    484.30222  0.022983211  0.023083377            2 
 1757000    1.0006448   -7.7256155    485.77014  0.023039752  0.023076361            1 
 1758000   0.96391978   -7.7515458    484.97066  0.022988749  0.023069341            2 
 1759000   0.99432332   -7.7653006    483.92481  0.022926133   0.02306224            2 
 1760000   0.94444892   -7.7806136    484.14676  0.022923616  0.023055056            2 
 1761000   0.95134539   -7.7326446    486.03605  0.023000003  0.023047975            3 
 1762000   0.96216653   -7.7612513    484.87452  0.022932015  0.023040867            3 
 1763000   0.96788449   -7.7530479    484.75822   0.02291351  0.023033822            2 
 1764000   0.95446953   -7.8020973    484.52767  0.022889629  0.023026653            4 
 1765000   0.94539056      -7.8235    484.56851  0.022878589  0.023019414            2 
 1766000   0.96632939   -7.7415582    485.31287  0.022900758  0.023012244            2 
 1767000   0.96867831   -7.7577874    485.94827  0.022917764  0.023005138            2 
 1768000   0.96760018   -7.7674082    486.98187  0.022953519  0.022998078            2 
 1769000    0.9861664   -7.7700333     484.8848  0.022841756  0.022991007            2 
 1770000   0.96994369   -7.7516545    485.30679  0.022848719  0.022983766            1 
 1771000   0.98955514   -7.8213631    485.89219  0.022863363  0.022976512            2 
 1772000   0.96627252   -7.7913248    485.30783  0.022822979  0.022969346            1 
 1773000    1.0056458   -7.7919851    484.55245  0.022774603  0.022962133            2 
 1774000    0.9790073   -7.7375899    486.26652  0.022842283  0.022954971            2 
 1775000      1.00045   -7.7800208    485.83922  0.022809353  0.022947758            3 
 1776000   0.94474951   -7.7614326    487.70402   0.02288401  0.022940625            2 
 1777000     0.972752   -7.7767757    486.46859  0.022813196  0.022933406            2 
 1778000   0.97407791   -7.7883756    486.76711  0.022814356  0.022926174            2 
 1779000   0.95678601   -7.7907063    486.09602  0.022770097  0.022918893            3 
 1780000   0.95337786   -7.8154412    485.52796   0.02273071   0.02291168            2 
 1781000   0.96380477   -7.8330693     485.4251  0.022713134   0.02290436            1 
 1782000   0.98565002   -7.7838155    485.94866  0.022724872   0.02289704            2 
 1783000   0.95246202   -7.7646104    487.63724  0.022791047  0.022889777            7 
 1784000   0.97293143   -7.7630413    486.73815  0.022736274  0.022882605            1 
 1785000   0.96581027   -7.8337674    485.88905  0.022683896  0.022875321            5 
 1786000   0.97873939    -7.756848    487.28442  0.022736302  0.022868019            3 
 1787000   0.98004436   -7.7787796     486.0824  0.022667525  0.022860681            1 
 1788000   0.99119654   -7.7856267    486.67903  0.022682654  0.022853309            2 
 1789000    0.9553102   -7.8358287    485.91429  0.022634353   0.02284603            2 
 1790000   0.98903935   -7.7948398    487.00543  0.022672506  0.022838661            2 
 1791000   0.96695309   -7.8148148    486.15556  0.022620303  0.022831339            7 
 1792000   0.96390394   -7.8159171    487.09109  0.022651185  0.022823992            4 
 1793000   0.98293706   -7.7531947    488.45002  0.022701711  0.022816703            2 
 1794000   0.96355331    -7.828175    486.81275  0.022613004    0.0228094            1 
 1795000   0.97926659   -7.7583009    489.42965  0.022721896  0.022802149            1 
 1796000   0.99020037   -7.7729955    487.84517  0.022635726  0.022794913            3 
 1797000   0.98076855   -7.7900133    487.88986  0.022625202  0.022787621            5 
 1798000   0.97381379   -7.8633346    486.87424  0.022565547  0.022780246            1 
 1799000   0.97276118    -7.785508    488.11612   0.02261053  0.022772905            1 
 1800000   0.95276969   -7.8401035    488.11042  0.022597705  0.022765475            5 
 1801000   0.96577555   -7.7908221    488.39756  0.022598443   0.02275811            1 
 1802000   0.95770697   -7.7576021    490.29367  0.022673588  0.022750937            1 
 1803000   0.96978575   -7.7773621    489.89782  0.022642717  0.022743869            6 
 1804000   0.96331565   -7.7500197    489.75334  0.022623491  0.022736732            2 
 1805000   0.94256781   -7.7622369    489.30414  0.022590219  0.022729561            3 
 1806000   0.94462676   -7.8134139    490.03648  0.022611502  0.022722403            2 
 1807000   0.97185216   -7.8342417    488.21022  0.022514767  0.022715166            1 
 1808000   0.96088894   -7.8210035    489.50906   0.02256218  0.022707886            1 
 1809000   0.96193482   -7.8251235    489.42818  0.022545982  0.022700597            6 
 1810000   0.96293274   -7.7971337    491.00854  0.022606286  0.022693374            2 
 1811000   0.96056289   -7.8026949    490.86482   0.02258719  0.022686162            6 
 1812000   0.95989736   -7.7710965    490.59713  0.022562414  0.022678914            2 
 1813000   0.95776314   -7.8035912    490.36131   0.02253913  0.022671672            1 
 1814000   0.97294427   -7.7841671    491.33147  0.022571273  0.022664517            2 
 1815000   0.96382075   -7.8245136    490.04255  0.022499658  0.022657266            2 
 1816000   0.98243567   -7.7862965    490.71644  0.022518192  0.022649995            1 
 1817000   0.95541426   -7.7929715    490.96709  0.022517295  0.022642683            1 
 1818000   0.95550555   -7.7926848    490.88682  0.022501229  0.022635374            3 
 1819000   0.93843131     -7.78897     489.6608  0.022432692   0.02262807            1 
 1820000   0.95119156   -7.8282239    491.45199   0.02250238  0.022620749            1 
 1821000   0.95841785   -7.8421396    489.27017  0.022390178  0.022613376            2 
 1822000   0.95590906   -7.8171467    491.30002  0.022470729  0.022606125            3 
 1823000   0.91169797    -7.779339    492.66669  0.022520876  0.022598825            2 
 1824000    0.9334501   -7.7907159     490.9685  0.022430944  0.022591583            2 
 1825000   0.94603917   -7.8349022    491.37483  0.022437207  0.022584328            3 
 1826000   0.97150607   -7.8256436    491.73023  0.022441138  0.022577037            1 
 1827000   0.95643167   -7.8015282    491.73466  0.022429058  0.022569759            5 
 1828000   0.96108728   -7.8294174    491.63156  0.022412088  0.022562405            2 
 1829000   0.97741408   -7.8346851    490.32523  0.022340315  0.022555062            2 
 1830000   0.94126417   -7.7820876    491.52152  0.022382583  0.022547772            1 
 1831000   0.95940027   -7.7858132      493.349  0.022453532  0.022540553            2 
 1832000   0.95771824   -7.7964445    492.19339  0.022388709  0.022533348            3 
 1833000    0.9684012   -7.8039249    492.88006  0.022407713  0.022526067            4 
 1834000   0.96976485   -7.8202854    493.18945  0.022409553  0.022518848            3 
 1835000   0.95564461   -7.8110096    492.87793  0.022383194  0.022511606            1 
 1836000   0.94651538    -7.810639    492.73562  0.022364543  0.022504294            1 
 1837000   0.94931839   -7.8111169    492.57359  0.022345019  0.022496983            3 
 1838000   0.96726275   -7.8037601    493.13768  0.022358437  0.022489747            4 
 1839000   0.96202174   -7.8327837    492.16051  0.022301999  0.022482491            9 
 1840000   0.92538424   -7.8218027    492.76263  0.022317148  0.022475186            1 
 1841000   0.97391183   -7.8159806    492.45347  0.022291032  0.022467927            2 
 1842000   0.94405002   -7.7757893    494.71136  0.022381079  0.022460746            2 
 1843000   0.94423591   -7.8238906    492.95331  0.022289443  0.022453622            3 
 1844000   0.94021778   -7.8374988    494.10784   0.02232953  0.022446355            1 
 1845000   0.96616792   -7.8229703    493.54023   0.02229179   0.02243911            2 
 1846000   0.94646961   -7.8288395    493.46624  0.022276374  0.022431905            1 
 1847000   0.94795679   -7.8046047    493.58451  0.022269649  0.022424664            1 
 1848000   0.96046804   -7.8199138    493.92587  0.022272992  0.022417389            3 
 1849000    0.9636326    -7.803324    494.75235  0.022298195  0.022410193            2 
 1850000   0.95195748   -7.7799283       495.39  0.022314865  0.022403025            1 
 1851000   0.94511997   -7.8060131     494.3517  0.022256064  0.022395887            3 
 1852000   0.96226721   -7.7956871    494.78193  0.022263406  0.022388687            2 
 1853000   0.95749783   -7.8062667    494.44027  0.022236026  0.022381482            1 
 1854000   0.94388824   -7.8071777    495.05553  0.022251687   0.02237431            5 
 1855000   0.95216877   -7.8122689    494.04011  0.022194075  0.022367073            4 
 1856000    0.9422563   -7.8312755    494.99193  0.022224853  0.022359894            2 
 1857000   0.95287677   -7.8009475    495.14695  0.022219841  0.022352696            2 
 1858000    0.9406177   -7.7999603    495.19298  0.022209947  0.022345587            2 
 1859000   0.94367855   -7.8511737    494.91666  0.022185613  0.022338381            3 
 1860000   0.95219832   -7.8109974    496.17246  0.022229949  0.022331124            2 
 1861000   0.96336889   -7.8493289    496.08442  0.022214062  0.022323848            2 
 1862000   0.95025925   -7.8236805    497.30596  0.022256801  0.022316681            1 
 1863000    0.9614544    -7.839849    496.82901   0.02222352  0.022309529            3 
 1864000    0.9269118   -7.8578881    495.61594  0.022157365  0.022302336            1 
 1865000   0.96230406   -7.8258193     495.6772  0.022148222  0.022295148            2 
 1866000   0.96563831   -7.7977793    498.17622  0.022247956  0.022288102            2 
 1867000   0.95447546   -7.8076537    497.07876  0.022187054  0.022281104            1 
 1868000    0.9707875   -7.8218284       498.28  0.022228765  0.022274046            2 
 1869000   0.96942869   -7.8123644    497.74609  0.022193066  0.022266996            1 
 1870000   0.94421062   -7.8208673    498.60775  0.022219597  0.022259909            2 
 1871000   0.94536606   -7.8705327    496.57047  0.022116981  0.022252802            2 
 1872000   0.94226464   -7.8452417    497.52227  0.022147537  0.022245728            1 
 1873000   0.92233834    -7.852762    496.90342  0.022108178  0.022238603            1 
 1874000   0.96011981   -7.8361945    497.81461    0.0221369  0.022231509            2 
 1875000   0.94566491   -7.8678628    497.34306  0.022104136  0.022224367            1 
 1876000   0.96009847   -7.8524361    497.32971  0.022091761  0.022217215            3 
 1877000   0.96904473   -7.8081311     498.0696  0.022112839  0.022210092            6 
 1878000   0.93523116   -7.7892872    499.70337  0.022173561  0.022202973            3 
 1879000   0.95975413   -7.8207286    498.09589  0.022090469  0.022195903            2 
 1880000   0.95540509   -7.8418255    498.79412  0.022109668  0.022188867            4 
 1881000   0.94918514   -7.8214427    497.56533  0.022043476   0.02218177            2 
 1882000   0.96842039   -7.8022524    500.16457  0.022146855  0.022174689            2 
 1883000   0.94297251   -7.8767681    496.98232  0.021994261  0.022167587            6 
 1884000   0.94766458   -7.8341136    498.61363  0.022054743  0.022160484            2 
 1885000   0.96173236   -7.8078091    499.80191  0.022095575  0.022153324            1 
 1886000   0.92346205   -7.8354669    499.22898  0.022058544  0.022146205            1 
 1887000   0.95038138   -7.8373274    499.62705  0.022064434  0.022139087            2 
 1888000   0.93514524   -7.8791521    498.26793  0.021992758  0.022131985            2 
 1889000   0.96126684   -7.8142287    499.72271  0.022045294  0.022124912            2 
 1890000    0.9612887   -7.8007408    499.68779   0.02203209  0.022117827            4 
 1891000   0.93885145   -7.8087782    500.32674  0.022048596  0.022110741            1 
 1892000   0.94852909    -7.838818     500.1527  0.022029277  0.022103645            2 
 1893000   0.96470284   -7.8200194    499.96439   0.02200935  0.022096652            1 
 1894000   0.96849533   -7.8292969    500.51491  0.022021951  0.022089684            1 
 1895000   0.95560114   -7.8460986    500.62623  0.022015226  0.022082716            3 
 1896000   0.91970911   -7.8278159    501.78138  0.022054385  0.022075814            4 
 1897000   0.93036702   -7.8327467    501.46158  0.022028711  0.022068809            1 
 1898000   0.97344829   -7.8030504    502.92305  0.022081272  0.022061849            9 
 1899000   0.93706802   -7.8391036    501.18524  0.021993384  0.022054909            1 
 1900000   0.95846132   -7.8573879    501.32506  0.021987941  0.022047866            5 
 1901000   0.96058666   -7.8756025    501.46423  0.021982475  0.022040818            2 
 1902000   0.96548816   -7.8451727    501.30726  0.021964041  0.022033847            2 
 1903000   0.95624204   -7.8599111    502.30337  0.021996119   0.02202688            2 
 1904000   0.96917557    -7.829153    502.12763  0.021976875  0.022019967            2 
 1905000   0.92165348   -7.8653545    502.41583  0.021977945  0.022013052            2 
 1906000   0.95617031   -7.8585142    501.62796  0.021931967  0.022006094            2 
 1907000   0.95379079   -7.8571123    502.93073  0.021977396  0.021999054            2 
 1908000   0.94130811   -7.8497327    501.03791  0.021883207   0.02199206            3 
 1909000   0.94371427   -7.8482757    500.49215   0.02184792  0.021985053            3 
 1910000   0.94302078   -7.8250241    502.35612  0.021917806  0.021978011            2 
 1911000   0.93787555   -7.8307052    501.09188  0.021851207  0.021970964            4 
 1912000   0.95174592   -7.8747999    501.83392   0.02187212  0.021963948            3 
 1913000   0.94785394    -7.846236    502.61613  0.021894761  0.021956936            1 
 1914000   0.93633264   -7.8544316    502.57069  0.021881343  0.021949958            2 
 1915000   0.94775017   -7.8356972    504.37767   0.02194855  0.021943054            1 
 1916000   0.94020411   -7.8225668    502.47115  0.021854173  0.021936148            1 
 1917000   0.94082493   -7.8499595    502.71901  0.021853548  0.021929176            2 
 1918000   0.94260968   -7.8297562    503.15133  0.021860937  0.021922264            3 
 1919000    0.9367336    -7.834104    506.21565  0.021982615  0.021915367            4 
 1920000   0.92602625   -7.8727902    502.49445  0.021809655  0.021908468            2 
 1921000   0.95750758   -7.8452859    504.66212  0.021892336  0.021901548            2 
 1922000   0.94597878   -7.8485345     504.8856  0.021890635  0.021894688            2 
 1923000   0.96803907   -7.8024594    506.03752   0.02192917  0.021887838            1 
 1924000   0.94323625   -7.8807299    503.42742  0.021804722  0.021880916            2 
 1925000   0.96168848   -7.8529045    505.83005  0.021897405  0.021874036            9 
 1926000   0.92697217   -7.8226757    505.53123  0.021873106  0.021867203            3 
 1927000   0.96165773   -7.8138451    504.78633  0.021829542  0.021860417            3 
 1928000   0.94756889   -7.8194784    505.90869  0.021866731   0.02185353            1 
 1929000   0.97501827   -7.8430837    505.34495  0.021831042  0.021846665            8 
 1930000    0.9452001    -7.891268    503.68089   0.02174788  0.021839732            2 
 1931000   0.94324473   -7.8565415    504.74582  0.021782575  0.021832841            1 
 1932000   0.92913716   -7.8378838    505.85022  0.021818936  0.021825937            2 
 1933000   0.93494104   -7.8590297    504.94444    0.0217686  0.021819007            3 
 1934000   0.94797416   -7.8558697    505.55907  0.021783827  0.021812124            2 
 1935000   0.94513727   -7.8464415    507.13966   0.02184064  0.021805246            1 
 1936000   0.93990472   -7.8464058    506.15251  0.021786868  0.021798351            2 
 1937000   0.94471677   -7.8540967     506.5361  0.021792123  0.021791457            2 
 1938000   0.93183138   -7.8449937     506.9997  0.021800813  0.021784627            3 
 1939000   0.94295206    -7.864808    507.33312  0.021803899   0.02177778            2 
 1940000   0.96491878   -7.8418328    506.60622  0.021761435  0.021770966            1 
 1941000   0.95217771   -7.8607672    507.80941  0.021801881  0.021764154            2 
 1942000   0.94221749   -7.8539333      505.974  0.021711895  0.021757364            2 
 1943000   0.94144111   -7.8206442    509.62623  0.021857361  0.021750576            2 
 1944000    0.9540051   -7.8615283    507.84177  0.021769623  0.021743787            1 
 1945000   0.93372542   -7.8601348    508.33891   0.02177973   0.02173698            4 
 1946000   0.92441734   -7.8332307    509.07872  0.021800219  0.021730263            3 
 1947000   0.94665153    -7.860836     508.1752  0.021750351  0.021723468            3 
 1948000   0.92879045   -7.8834423    507.47476  0.021709222  0.021716692            2 
 1949000   0.94700063   -7.8680651    508.29664  0.021733224  0.021709899            7 
 1950000   0.92387327   -7.8511835    508.79441  0.021743351  0.021703077            2 
 1951000   0.94690377    -7.888092    508.09496  0.021702331  0.021696296            3 
 1952000   0.92271783   -7.8535927    509.35832  0.021745147  0.021689517            1 
 1953000   0.93142125   -7.8487159     508.4913  0.021697017  0.021682735            1 
 1954000   0.95350871   -7.8285152    509.06662  0.021710449  0.021675988            3 
 1955000   0.93564444   -7.8124895    510.02179  0.021740059  0.021669286            1 
 1956000   0.96575806   -7.8525641    509.66061  0.021713557  0.021662632            1 
 1957000   0.92892574   -7.8616795    509.13342  0.021680013  0.021655934            4 
 1958000   0.94008452   -7.8808589    509.50149  0.021684605  0.021649211            1 
 1959000   0.96246313   -7.8647388    509.47737   0.02167251  0.021642544            3 
 1960000   0.93098253   -7.8613797    510.14231  0.021689724  0.021635874            1 
 1961000   0.94310114   -7.8779664    508.99706  0.021629996  0.021629141            5 
 1962000   0.96209319   -7.9016754    508.01268  0.021577161  0.021622351            2 
 1963000   0.93595251   -7.8603545    510.54268  0.021673573  0.021615572            2 
 1964000   0.93148407   -7.8630956    510.65151  0.021667155  0.021608869            1 
 1965000   0.90842911   -7.8775183    508.91403  0.021582444  0.021602128            3 
 1966000   0.95000031    -7.865367    510.06203  0.021620127  0.021595419            2 
 1967000   0.94835458   -7.8713606    510.08046  0.021609916  0.021588688            1 
 1968000   0.93129794   -7.8527564    510.97485  0.021636808  0.021581984            2 
 1969000   0.93747712   -7.8577086    510.39715  0.021601369   0.02157527            4 
 1970000    0.9424967   -7.8527676    510.79444   0.02160721  0.021568521            8 
 1971000   0.93431436   -7.8206527    511.57078   0.02162907  0.021561874            3 
 1972000   0.93580713   -7.8669729    511.01552  0.021594638  0.021555151            2 
 1973000   0.93987849   -7.8396346    511.74797  0.021614629  0.021548488            3 
 1974000   0.94345458     -7.86768    510.93328  0.021569287  0.021541762            2 
 1975000   0.90792824   -7.8566899    511.49379  0.021582016  0.021534953            4 
 1976000   0.94530118   -7.8574927    510.95242  0.021548263  0.021528119            2 
 1977000   0.93809343   -7.8827649    511.34735  0.021554011  0.021521316            2 
 1978000   0.93934467   -7.8639033     511.5961  0.021553594   0.02151454            2 
 1979000   0.92803041   -7.8759997    512.62067  0.021585846   0.02150779            2 
 1980000   0.92720676   -7.8546934    511.12307  0.021511914   0.02150105            3 
 1981000   0.93647014   -7.8252442    513.31909  0.021593433  0.021494371            2 
 1982000   0.93441678   -7.8427785    513.36093  0.021584297  0.021487705            1 
 1983000   0.93738493   -7.8765227    512.59107   0.02154106  0.021480992            2 
 1984000   0.93190368   -7.8678579    513.08795  0.021551073  0.021474267            3 
 1985000   0.92903529   -7.8738316       513.05  0.021538623  0.021467553            1 
 1986000   0.92307589   -7.8333673     513.3705  0.021541226  0.021460855            2 
 1987000   0.93474185   -7.8761312    513.87511  0.021551548  0.021454205            1 
 1988000   0.93990279   -7.8874235     512.6035  0.021487403  0.021447511            2 
 1989000     0.908395   -7.9069627     511.5662  0.021433141   0.02144078            3 
 1990000   0.92917337   -7.9291519    512.22796  0.021450082  0.021433998            3 
 1991000   0.93356454   -7.9193935    511.78948  0.021420956  0.021427305            5 
 1992000   0.93784299   -7.8773335    513.83647  0.021495836  0.021420552            2 
 1993000   0.93573191   -7.8623826    513.05712  0.021452464  0.021413892            4 
 1994000   0.94924664   -7.8803849    513.87242  0.021475778  0.021407305            4 
 1995000   0.93573423   -7.8884044    513.60186  0.021453712  0.021400673            3 
 1996000   0.90515808   -7.9046382    512.63772   0.02140271  0.021393921            2 
 1997000   0.91798365   -7.8913268    511.44503  0.021342223  0.021387219            5 
 1998000   0.93681941   -7.8814847    513.11589   0.02140123  0.021380541            2 
 1999000   0.93663872   -7.9033911     512.8226  0.021378297  0.021373822            4 
 2000000   0.92860388   -7.9228746    512.48291  0.021353455  0.021367108            2 
 2001000   0.94877577   -7.9165518    513.91991  0.021402628  0.021360255            2 
 2002000   0.92473371   -7.9233704    512.15728  0.021318568  0.021353384            2 
 2003000   0.90660856   -7.9117733     512.5253  0.021323236  0.021346511            1 
 2004000    0.9126168   -7.8885405    513.58034  0.021356468  0.021339698            1 
 2005000   0.94299563   -7.8661617    513.02069  0.021322556  0.021332857            2 
 2006000   0.95048632   -7.9128319    512.90436  0.021307094  0.021326105            4 
 2007000   0.92866341   -7.8841423    513.62017  0.021326199  0.021319312            7 
 2008000   0.91440052   -7.8887174    514.67674  0.021359427  0.021312581            5 
 2009000   0.92646508   -7.8697078    516.64464  0.021430423  0.021305925            2 
 2010000   0.92632614   -7.8381117    516.12069  0.021398039  0.021299298            4 
 2011000   0.94247012   -7.8485129    515.32675  0.021354498   0.02129269            1 
 2012000   0.91223224   -7.8959177    516.19866  0.021379997  0.021286028            4 
 2013000   0.92966622   -7.8822985    515.38494   0.02133569  0.021279282            1 
 2014000   0.91574763   -7.8786382    514.62994  0.021293857  0.021272598            1 
 2015000    0.9424529   -7.8927287     514.9287  0.021295645  0.021265939            1 
 2016000   0.93311449   -7.9021448    515.67879  0.021316088   0.02125924            1 
 2017000   0.91870709   -7.9036171    515.96855  0.021317491  0.021252519            2 
 2018000    0.9383149   -7.9038006    514.20198  0.021233977    0.0212458            1 
 2019000    0.9278603    -7.901059    514.53294   0.02123712  0.021239059            3 
 2020000   0.92521259   -7.9378786    514.60378  0.021229529  0.021232372            2 
 2021000   0.90774774   -7.9120963    515.59952  0.021260083  0.021225643            1 
 2022000   0.94735368   -7.8622813    515.86813  0.021260638   0.02121894            2 
 2023000   0.92854743   -7.8828579    516.27651  0.021266951   0.02121222            4 
 2024000   0.93520044   -7.8882557    515.58404  0.021227933  0.021205525            2 
 2025000   0.92963474   -7.9105259    515.06381  0.021196041  0.021198803            3 
 2026000   0.93026259   -7.8634537    516.49363  0.021244391  0.021192078            1 
 2027000     0.919218   -7.8581297    516.19042  0.021221445  0.021185403            2 
 2028000   0.92959411   -7.8986921     515.1854  0.021169683  0.021178712            1 
 2029000   0.92245516   -7.8900652    516.85104  0.021227659  0.021172027            2 
 2030000   0.91234912   -7.8671049    516.14747   0.02118832  0.021165327            1 
 2031000   0.94065394   -7.8742155    515.83597  0.021165106  0.021158629            3 
 2032000   0.91471937   -7.9057097    515.60587  0.021145254  0.021151902            5 
 2033000   0.92018299   -7.8860731    516.37975  0.021166575  0.021145083            1 
 2034000   0.92816858   -7.9219003    517.13787  0.021187228  0.021138339            3 
 2035000   0.91917967   -7.9139968    516.48981  0.021150279  0.021131545            1 
 2036000   0.92647114   -7.8588672    516.96377   0.02115929  0.021124724            5 
 2037000   0.93037878   -7.9185841    516.31813  0.021122489  0.021117869            2 
 2038000    0.9300585   -7.9265314    516.64658  0.021125555  0.021110952            1 
 2039000   0.94143115   -7.9047623     516.4684  0.021107913  0.021104074            2 
 2040000   0.92557495   -7.9333742    516.15476  0.021084753  0.021097262            2 
 2041000   0.91989293   -7.9020233    516.34617  0.021082238  0.021090505            1 
 2042000   0.92934807   -7.8713901    517.68803  0.021126675  0.021083791            6 
 2043000   0.92416256   -7.8933239    517.96456  0.021127613  0.021077048            3 
 2044000   0.92659567     -7.92281     518.0005  0.021118742  0.021070337            1 
 2045000   0.92442359   -7.8968136    517.45258  0.021086087  0.021063617            1 
 2046000   0.90569299   -7.8795266    519.29456  0.021150805   0.02105688            2 
 2047000   0.91558007   -7.8815218    518.80363  0.021120486  0.021050138            2 
 2048000   0.92390233   -7.9129214    518.43234  0.021095066   0.02104339            4 
 2049000   0.94345541   -7.8893467    518.75473  0.021097882  0.021036694            1 
 2050000   0.91766941   -7.9131938    519.04167  0.021099255  0.021030038            1 
 2051000   0.93538398   -7.8777949    518.97533  0.021086272  0.021023309            1 
 2052000   0.90237978   -7.8816823    518.45708  0.021054949  0.021016665            3 
 2053000   0.90894013   -7.8931482     519.1276  0.021071911  0.021010018            2 
 2054000    0.9308526   -7.8845755    520.54726  0.021119249  0.021003393            2 
 2055000   0.95259384   -7.9209576    518.90408  0.021042339  0.020996763            2 
 2056000   0.91052895   -7.9032796    519.25133  0.021046179  0.020990113            2 
 2057000   0.90727739   -7.9234146    519.48054  0.021045233  0.020983497            3 
 2058000   0.92487431   -7.9261725    520.63198  0.021081632  0.020976833            3 
 2059000   0.91611337   -7.9336577    519.23042  0.021014668  0.020970194            2 
 2060000   0.91543427   -7.8868005    519.65861  0.021021788  0.020963566            2 
 2061000   0.93049393   -7.9030107    520.87298   0.02106069  0.020956984            1 
 2062000   0.94068886   -7.9099223    519.94561  0.021012997  0.020950337            3 
 2063000   0.94571578   -7.9358007    519.15189   0.02097075  0.020943632            2 
 2064000   0.91251118   -7.9067749    520.60325  0.021019188  0.020936962            3 
 2065000   0.91432113   -7.9364793    520.86128  0.021019422  0.020930353            3 
 2066000   0.90107436   -7.9112611    519.73819  0.020963948  0.020923746            3 
 2067000    0.9332247   -7.8843231    521.34537  0.021018601  0.020917163            1 
 2068000     0.921672   -7.8866224    519.74308   0.02094387  0.020910566            1 
 2069000   0.89427035   -7.9036688    521.10594  0.020988639  0.020903945            1 
 2070000   0.91789432   -7.9137551    520.17003  0.020940823  0.020897252            1 
 2071000    0.9290561      -7.9474    518.41287  0.020860006  0.020890536            3 
 2072000   0.93172457   -7.8855732    521.13869  0.020959568  0.020883836            2 
 2073000    0.9171167    -7.927092    520.15423  0.020909882  0.020877136            1 
 2074000   0.91598107    -7.941403    519.25934  0.020863844  0.020870383            2 
 2075000   0.92540862   -7.8771757    521.27607  0.020934782  0.020863661            3 
 2076000   0.93022271   -7.9534163    519.44083  0.020851029  0.020856891            2 
 2077000   0.92056764   -7.9246455    520.53611  0.020884935  0.020850135            1 
 2078000   0.94877331   -7.9220369    520.69363  0.020881201  0.020843351            1 
 2079000   0.91175159   -7.9200151    520.48131  0.020862647  0.020836599            6 
 2080000   0.91286699   -7.9019295    519.50937  0.020813677  0.020829832            2 
 2081000   0.89474597   -7.9052452    520.98575  0.020862796  0.020823002            3 
 2082000   0.90927794   -7.9051975    519.93136  0.020810573  0.020816199            4 
 2083000   0.92187795   -7.9046018    520.60995   0.02082773  0.020809447            2 
 2084000   0.91086917   -7.9067088    522.45211  0.020891399  0.020802701            4 
 2085000   0.93255257   -7.9076545    521.08876  0.020826889  0.020795976            3 
 2086000   0.92429638   -7.9238793    521.19467  0.020821136  0.020789223            2 
 2087000   0.90792448   -7.9141262     521.0573  0.020805674  0.020782478            1 
 2088000   0.93694373   -7.8745434    522.52411  0.020854251  0.020775782            9 
 2089000     0.924993   -7.9140496    522.16572  0.020829971  0.020769047            3 
 2090000   0.90717046   -7.9090054     521.3312   0.02078673  0.020762257            2 
 2091000   0.91345399   -7.9529723     519.8735  0.020718695  0.020755435            2 
 2092000    0.9054692   -7.8998418    522.71665  0.020822046  0.020748647            1 
 2093000   0.91379759   -7.9259589    521.63642  0.020769088    0.0207419            2 
 2094000   0.91984183   -7.9474648    521.18328  0.020741137  0.020735142            2 
 2095000   0.89942676   -7.9275623     522.1175  0.020768397   0.02072835            6 
 2096000   0.90837398   -7.9487048    520.38496  0.020689606   0.02072148            4 
 2097000   0.92770289   -7.9455686    521.29154  0.020715766  0.020714609            2 
 2098000   0.90877619   -7.9394496    520.97395  0.020693277  0.020707791            3 
 2099000   0.92230278   -7.9429864    521.67858  0.020711393  0.020700999            4 
 2100000   0.91281436   -7.9659931    522.64966  0.020740066  0.020694211            5 
 2101000   0.90251011    -7.976764    521.41339  0.020681159  0.020687352            2 
 2102000    0.9125728   -7.9413319    521.67177  0.020681564  0.020680504            2 
 2103000   0.90855511   -7.9312531    521.73847  0.020674373  0.020673695            2 
 2104000   0.91649711   -7.9181964    523.56553  0.020736911  0.020666961            3 
 2105000   0.92301802   -7.8996032    523.92594  0.020741328  0.020660304            2 
 2106000    0.9190127   -7.9304237     521.3763  0.020630591  0.020653588            2 
 2107000   0.90591274   -7.9295001    522.52784  0.020666344  0.020646874            3 
 2108000   0.90191402    -7.927148     522.5361  0.020656867  0.020640184            3 
 2109000   0.91577288    -7.931323    524.14974  0.020710832  0.020633499            3 
 2110000   0.90236843   -7.9372909     525.1399  0.020740122  0.020626845            2 
 2111000   0.91129126   -7.8930871     524.1122  0.020689728  0.020620212            3 
 2112000   0.91410791   -7.9529539    524.85886  0.020709393  0.020613491            2 
 2113000   0.92543233   -7.9540097    523.23777  0.020635659  0.020606781            1 
 2114000    0.9058235   -7.9238607     523.7443  0.020645865  0.020600095            2 
 2115000   0.93175837   -7.9157101    524.10976  0.020650503  0.020593404            2 
 2116000   0.90036489   -7.9195295    524.50444  0.020656287  0.020586737            2 
 2117000   0.91234338    -7.897127     523.7241  0.020615813  0.020580085            5 
 2118000   0.91173283   -7.9412319    523.91978  0.020613778  0.020573432            2 
 2119000    0.9259813   -7.8946988    524.80241  0.020638761  0.020566777            3 
 2120000   0.92024627   -7.9311668    523.46137  0.020576312  0.020560123            2 
 2121000   0.89688919   -7.9399793    524.85917  0.020621529   0.02055343            3 
 2122000   0.92473471   -7.9321797    524.92498  0.020614396   0.02054669            2 
 2123000    0.9159452    -7.953076     523.3955   0.02054465  0.020539968            1 
 2124000   0.90916159   -7.9263532    524.55006  0.020580276  0.020533281            2 
 2125000   0.92029015   -7.9121263    524.74287  0.020578152  0.020526616            2 
 2126000   0.91314746   -7.9403363    525.64987  0.020604024  0.020520003            2 
 2127000   0.92245764   -7.9256384    525.40709  0.020584826  0.020513343            3 
 2128000   0.91130103   -7.9468993    524.75901  0.020549773  0.020506639            2 
 2129000   0.91459736   -7.9617018    524.23102  0.020519454  0.020499895            2 
 2130000   0.90972834   -7.9154315    524.63349  0.020525567  0.020493158            2 
 2131000   0.92373266   -7.9594223    524.33102  0.020504107  0.020486434            3 
 2132000   0.91457798   -7.9403689    524.85326  0.020514902  0.020479697            2 
 2133000   0.91440233   -7.9624041    525.25267  0.020520889  0.020472986            4 
 2134000   0.91837063   -7.9317287    525.33202  0.020514371  0.020466232            3 
 2135000   0.90491892   -7.9576888    525.23623  0.020501024   0.02045943            3 
 2136000   0.92361272   -7.9687454    523.77437  0.020434393  0.020452672            2 
 2137000   0.89353836    -7.943847    526.40521  0.020527422  0.020445953            3 
 2138000   0.91203177   -7.9241768    525.96203  0.020500547  0.020439221            3 
 2139000   0.91883732   -7.9332309    525.87969  0.020487755   0.02043253            1 
 2140000   0.91653437   -7.9574362    525.69264  0.020470897  0.020425834            1 
 2141000   0.91040442   -7.9501256    525.60956  0.020458102  0.020419111            2 
 2142000   0.91848825   -7.9116277    525.76716  0.020454682  0.020412378            3 
 2143000   0.90800637   -7.9220301     525.2402  0.020424646  0.020405641            2 
 2144000   0.90139527   -7.9291744    525.20357  0.020413696  0.020398868            3 
 2145000    0.9046675   -7.9442862    525.91753  0.020431916  0.020392088            5 
 2146000    0.8870697    -7.954713    524.81925  0.020379747  0.020385297            2 
 2147000   0.91775391   -7.9259327    525.95574  0.020414366  0.020378594            3 
 2148000   0.89901847   -7.9380489    525.45158  0.020385304  0.020371862            2 
 2149000   0.89433956   -7.9526432    525.79621  0.020389181  0.020365089            3 
 2150000   0.91521113   -7.9500561    526.40366  0.020403243  0.020358365            2 
 2151000   0.90142769   -7.9632881     527.1826  0.020423935  0.020351632            4 
 2152000   0.90052839    -7.930708    526.69669  0.020395628  0.020344846            2 
 2153000   0.91429138   -7.9147198    525.84056  0.020353017  0.020338097            2 
 2154000   0.90575204   -7.9368422    525.67636  0.020337216  0.020331404            3 
 2155000   0.90986634   -7.9504179    526.77771  0.020370368  0.020324704            1 
 2156000   0.91312689   -7.9570434     527.0155   0.02037011  0.020317957            1 
 2157000   0.90759031   -7.9741747     525.5779  0.020305127   0.02031121            4 
 2158000   0.89642937   -7.9663551    527.93904  0.020386895  0.020304478            1 
 2159000   0.90199039    -7.960337    526.93934  0.020338866  0.020297777            2 
 2160000   0.91354537   -7.9510184    528.51766  0.020390342  0.020291131            3 
 2161000    0.9128318   -7.9594754    527.93203  0.020358323  0.020284463            2 
 2162000    0.9128347   -7.9701731    527.29753   0.02032445  0.020277733            4 
 2163000   0.89949878   -7.9591716    527.45792  0.020321233   0.02027104            3 
 2164000   0.89134195   -7.9623896    527.99293  0.020332445  0.020264367            6 
 2165000   0.89836964   -7.9366776    528.08816  0.020326719  0.020257707            2 
 2166000   0.90553033   -7.9613699    527.91503  0.020310674   0.02025104            1 
 2167000   0.91390643   -7.9308386    529.86027  0.020376106  0.020244431            2 
 2168000   0.90682961   -7.9255066    529.49978  0.020352851  0.020237828            1 
 2169000    0.9217311   -7.9774156    527.41061  0.020263202  0.020231214            2 
 2170000   0.92171651   -7.9530403    528.01081  0.020276913  0.020224556            1 
 2171000   0.90826671   -7.9895889    528.58317  0.020289543   0.02021792            2 
 2172000   0.88541375   -7.9799829    526.83649  0.020213186  0.020211213            1 
 2173000   0.88148453   -7.9716792    528.69392  0.020275116  0.020204552            1 
 2174000   0.88254451   -7.9451259      529.236  0.020286568  0.020197922            2 
 2175000   0.92792522   -7.9440202    528.92223   0.02026522  0.020191313            6 
 2176000   0.89384299   -7.9567085    528.31981  0.020232836  0.020184723            2 
 2177000   0.89185289   -7.9686015    527.91317  0.020207976  0.020178124            3 
 2178000   0.90470094   -7.9856219    528.65384  0.020227037  0.020171499            2 
 2179000   0.93326433   -7.9916555    527.73502  0.020182615  0.020164864            3 
 2180000   0.90627135   -7.9533284    529.31314  0.020233683  0.020158266            1 
 2181000   0.91593791   -7.9682624    530.00624  0.020250888  0.020151647            3 
 2182000   0.91859425   -7.9390367    529.59832  0.020226028  0.020145036            4 
 2183000   0.90018081   -7.9757237    529.17212  0.020200493  0.020138382            5 
 2184000   0.87579832    -7.952426    529.03268  0.020185923  0.020131738            2 
 2185000   0.89974214   -7.9606753    529.37815  0.020189861  0.020125132            2 
 2186000   0.89749984   -7.9363365     531.6645  0.020267784   0.02011852            4 
 2187000   0.89309771   -8.0028046     528.3502  0.020132228  0.020111915            4 
 2188000   0.89221027   -7.9581286    530.43053   0.02020226   0.02010529            2 
 2189000   0.88446393    -7.948614    530.23412  0.020185553  0.020098726            1 
 2190000   0.89658265   -7.9639214    529.04187  0.020130969   0.02009212            2 
 2191000   0.89049464   -7.9729088    530.32674   0.02017065  0.020085517            1 
 2192000   0.89573982   -8.0229428    528.95179  0.020109177   0.02007889            3 
 2193000   0.90010675   -7.9876132    527.83783  0.020057677  0.020072137            2 
 2194000   0.91617516   -7.9676501    529.17406  0.020099288  0.020065391            2 
 2195000   0.91574851   -7.9606941    529.81167  0.020114338  0.020058736            2 
 2196000   0.88052809   -7.9875558    530.50642  0.020131543  0.020052126            2 
 2197000   0.88713734   -7.9743085    530.75388  0.020131766  0.020045463            4 
 2198000   0.88703574   -7.9651074    530.30083   0.02010543  0.020038822            1 
 2199000   0.90839624   -7.9483803    531.06032  0.020125069  0.020032189            2 
 2200000   0.91160877   -7.9384101    529.72683   0.02006541  0.020025551            1 
 2201000     0.913433   -7.9517721    530.27744  0.020077141  0.020018919            2 
 2202000   0.91608933   -7.9736304     530.6127  0.020080711  0.020012279            5 
 2203000   0.88701137   -7.9467985    531.20152  0.020093869  0.020005608            2 
 2204000   0.92976316   -7.9816675    530.19401  0.020046658  0.019998942            3 
 2205000   0.88454559    -7.965125    530.44661  0.020047113  0.019992289            2 
 2206000   0.90411396   -7.9329525    532.28975  0.020107651  0.019985676            5 
 2207000   0.91053146   -7.9597175    530.96774  0.020048623  0.019979074            5 
 2208000   0.91717366   -7.9136999    533.01306  0.020116737  0.019972517            1 
 2209000   0.88663215   -7.9397608     530.9148  0.020028474  0.019966029            4 
 2210000   0.90520684   -7.9512535    531.26981  0.020032798  0.019959507            2 
 2211000   0.91314802    -7.994227    529.89696  0.019971995  0.019952897            3 
 2212000   0.88840161   -7.9803598    531.97612  0.020041294  0.019946272            1 
 2213000   0.90420473    -7.992876    530.11038  0.019961981  0.019939668            4 
 2214000   0.88866182   -7.9802849    530.38974   0.01996348  0.019933006            3 
 2215000   0.90678301   -7.9928451    531.04071  0.019978958  0.019926331            3 
 2216000   0.91752106   -7.9862211    531.46955  0.019986069  0.019919676            2 
 2217000   0.89255809    -7.993924    531.48181  0.019977515  0.019913013            3 
 2218000   0.88994961   -7.9701009    532.02867  0.019989054  0.019906378            3 
 2219000   0.88700953   -7.9939369    530.76545  0.019932607  0.019899778            2 
 2220000   0.89699248   -7.9961112    531.36957  0.019946305  0.019893205            2 
 2221000   0.89223451   -8.0180634    532.28351  0.019971616  0.019886624            3 
 2222000    0.9044617   -7.9729162    532.48581  0.019970215  0.019880101            5 
 2223000   0.90191241   -7.9787133    532.51648  0.019962381  0.019873578            2 
 2224000   0.89640753   -8.0022803     532.1158  0.019938392  0.019867007            2 
 2225000   0.89417373   -7.9858607    533.00863   0.01996287  0.019860427            4 
 2226000   0.90464985   -7.9835595    533.13606  0.019958673  0.019853858            4 
 2227000   0.91397545    -7.992025    531.76568  0.019898431  0.019847278            2 
 2228000   0.90214122   -7.9884508    532.38905  0.019912816  0.019840654            3 
 2229000   0.89275066   -7.9875451     531.8779  0.019884773  0.019834012            4 
 2230000   0.91123257   -7.9849863    533.75162  0.019945875  0.019827466            2 
 2231000   0.88436912   -8.0087607    531.38915  0.019848691  0.019820869            3 
 2232000   0.90774215   -7.9777586    533.38765  0.019914413  0.019814292            1 
 2233000   0.90049136   -8.0065032    532.64914  0.019877935  0.019807677            5 
 2234000   0.88382674   -7.9801564    532.16865  0.019851113  0.019801064            2 
 2235000   0.88938838   -7.9871081    532.42221  0.019851686  0.019794462            2 
 2236000   0.92770391   -7.9911313    532.72603   0.01985413  0.019787865            5 
 2237000     0.898561   -7.9784835    532.96011  0.019853975  0.019781239            1 
 2238000   0.87621232   -7.9960306    532.43717  0.019825632  0.019774606            1 
 2239000   0.87488826   -8.0090175    533.82766   0.01986853  0.019767974            4 
 2240000   0.87316439   -7.9584146    532.76881  0.019820268  0.019761361            1 
 2241000   0.89407864   -7.9340386    533.45126  0.019836801  0.019754811            5 
 2242000   0.88409377   -7.9656743    533.62908  0.019834563  0.019748274            4 
 2243000   0.88176089   -7.9806622    534.85559  0.019871288  0.019741733            2 
 2244000   0.90284591   -7.9913932    535.19285  0.019874957  0.019735157            2 
 2245000   0.88254087    -7.976181    534.23892  0.019830695  0.019728645            3 
 2246000    0.9008092   -8.0021909    533.73291  0.019803091  0.019722093            5 
 2247000   0.86882173   -7.9689452    534.70472  0.019830319  0.019715566            2 
 2248000   0.89049103   -7.9898841    533.19828  0.019765654  0.019709021            2 
 2249000   0.88405072   -7.9658067    535.49045  0.019841798  0.019702501            5 
 2250000   0.88479635   -7.9775046    535.89783  0.019848068   0.01969603            4 
 2251000   0.86776959    -7.978975    535.83544  0.019836941  0.019689586            2 
 2252000   0.89741275   -7.9581377     535.3578  0.019810457  0.019683143            2 
 2253000   0.90549131   -8.0143026    536.19683  0.019832698  0.019676694            3 
 2254000   0.90089847   -7.9720088    537.02761  0.019854614  0.019670266            1 
 2255000   0.88811303   -7.9969465    535.49208  0.019789064  0.019663796            1 
 2256000   0.89342639   -7.9695159    535.79418  0.019791452  0.019657302            3 
 2257000   0.89041562   -7.9900417    535.09271  0.019756783  0.019650843            4 
 2258000   0.89467663    -7.981328    535.70472   0.01977062   0.01964429            2 
 2259000   0.88483245   -7.9956335    532.69475  0.019650832  0.019637741            2 
 2260000   0.90802834   -8.0192238    534.93728  0.019724826  0.019631161            4 
 2261000   0.87903055   -7.9994203    534.59829  0.019703608  0.019624619            3 
 2262000    0.8760457   -8.0037331    535.38855  0.019724011  0.019618084            2 
 2263000   0.89194872   -7.9775205    535.01155  0.019701412  0.019611574            1 
 2264000   0.86330273   -8.0125147    535.99042   0.01972874  0.019605051            2 
 2265000   0.90668291   -7.9708806     537.7551  0.019784956  0.019598586            6 
 2266000   0.89751995   -7.9788382    536.95652  0.019746856  0.019592172            2 
 2267000   0.89582372   -7.9823193     536.8031  0.019732506  0.019585732            4 
 2268000    0.8890184   -7.9476407    538.06586  0.019770203  0.019579335            2 
 2269000   0.87356122   -7.9722025    539.01329  0.019796287  0.019572955            1 
 2270000   0.86754742   -8.0043594    536.78851  0.019705893  0.019566571            3 
 2271000   0.88918386   -7.9802337    537.19363  0.019712081  0.019560193            2 
 2272000   0.87859203   -8.0152505    538.15753  0.019738759  0.019553826            4 
 2273000   0.88354146   -8.0246004    538.40904  0.019739296  0.019547459            2 
 2274000   0.88700403   -7.9846009    538.83969  0.019746397  0.019541171            4 
 2275000   0.87675524   -8.0091466    538.74377  0.019734204  0.019534831            3 
 2276000   0.88726115   -7.9581769    539.86714  0.019766664  0.019528565            6 
 2277000   0.88088523   -7.9735914    538.41804   0.01970495  0.019522319            1 
 2278000   0.87152915    -7.983807     538.3532  0.019693927  0.019516046            4 
 2279000   0.86888217   -8.0190732    537.90382  0.019668854    0.0195097            2 
 2280000   0.87642854   -7.9915369    539.78263  0.019728897  0.019503371            1 
 2281000   0.89809864   -8.0126902    538.41084  0.019670132  0.019497044            1 
 2282000   0.88890463   -7.9670471    538.43929  0.019662551  0.019490687            2 
 2283000   0.89195171   -7.9925033    539.00314   0.01967452  0.019484354            1 
 2284000   0.88865941   -7.9729291    540.07112  0.019704871  0.019478054            2 
 2285000   0.87602066   -7.9957997    538.55167  0.019640834  0.019471807            7 
 2286000   0.90462991   -7.9929913    540.56837  0.019705759  0.019465526            2 
 2287000   0.86378108   -7.9876145    539.11732  0.019644269  0.019459281            6 
 2288000   0.86813079   -7.9792347     539.7426  0.019658457   0.01945304            2 
 2289000   0.87636388   -8.0111197    538.84719   0.01961727  0.019446764            3 
 2290000   0.89847231   -8.0060508    538.96367  0.019612943  0.019440418            1 
 2291000   0.88283961   -8.0115711    537.32525  0.019544786  0.019434111            6 
 2292000   0.87012491   -7.9775903    540.11463  0.019637675  0.019427806            4 
 2293000   0.88626906   -8.0120566    537.93305  0.019549827  0.019421533            2 
 2294000   0.88834879   -7.9684931    542.12486   0.01969358  0.019415265            3 
 2295000   0.87825183   -7.9821055    539.53255   0.01959087  0.019409042            2 
 2296000   0.88472206   -7.9992099    541.28753  0.019646034  0.019402789            2 
 2297000   0.90279432   -7.9846343    542.32352  0.019675066  0.019396578            5 
 2298000   0.91508212   -8.0051979    540.10182  0.019585938  0.019390385            2 
 2299000   0.87183958   -8.0157566    540.73599  0.019600406  0.019384136            1 
 2300000   0.89325965   -8.0183879    540.61488  0.019587496  0.019377865            2 
 2301000   0.87879777   -8.0268676    540.33398   0.01956881  0.019371587            4 
 2302000   0.86883377   -8.0167746    541.02227  0.019585225  0.019365282            3 
 2303000    0.8888639   -8.0436406    540.56867  0.019560308  0.019359052            1 
 2304000    0.9008546   -8.0201088    539.86431  0.019526342  0.019352837            2 
 2305000    0.8895139   -7.9974339    542.23543  0.019603595  0.019346581            3 
 2306000   0.89819098   -8.0163779    541.32538  0.019562207  0.019340343            3 
 2307000   0.89165763   -8.0275064    542.59809    0.0195997  0.019334136            1 
 2308000   0.89147753   -8.0087927    542.89772  0.019602026  0.019327889            2 
 2309000   0.89403621   -8.0146828    541.13895  0.019530062  0.019321721            2 
 2310000   0.88651431   -8.0270153    542.31485  0.019564028  0.019315533            2 
 2311000   0.88568376    -7.957216     542.9522  0.019578545  0.019309383            2 
 2312000   0.89576617   -8.0010983    542.45075  0.019552002  0.019303215            5 
 2313000   0.87815858   -7.9563048    542.42984  0.019542796  0.019297053            1 
 2314000   0.89927624   -7.9758779    541.83049  0.019512766  0.019290888            3 
 2315000   0.89029872   -7.9939972    544.06999  0.019584953  0.019284763            4 
 2316000   0.88250755   -8.0376058    542.26876  0.019511685  0.019278638            3 
 2317000   0.86199129   -7.9733868    542.77707  0.019521546  0.019272452            4 
 2318000   0.88495015   -7.9845363    542.11012  0.019489147   0.01926627            3 
 2319000   0.86539821   -8.0231589    541.60145  0.019462464   0.01926013            2 
 2320000   0.88828637   -8.0178134    544.08149  0.019543157  0.019253975            2 
 2321000   0.87702031   -8.0295329    543.12896  0.019500537  0.019247856            2 
 2322000   0.88505019   -8.0065625    543.10209  0.019491174  0.019241681            3 
 2323000   0.90580648   -8.0149104    543.04966  0.019480903  0.019235532            3 
 2324000   0.88230779   -7.9846633    543.07728  0.019473511  0.019229328            1 
 2325000   0.88534506   -8.0226621    542.03644  0.019427829  0.019223153            2 
 2326000   0.87617393   -8.0068829    543.65913  0.019477613  0.019216965            1 
 2327000   0.90736265   -8.0485368    544.00527  0.019481638    0.0192108            4 
 2328000   0.89324468   -8.0020716     544.7709  0.019500677  0.019204646            1 
 2329000   0.88217491   -8.0186924    543.58631  0.019449918   0.01919852            2 
 2330000   0.86364513   -8.0005555    543.15103  0.019426002  0.019192382            2 
 2331000   0.88019077   -8.0157429    544.11121  0.019451995   0.01918628            5 
 2332000   0.88805006   -8.0459994    543.56842  0.019424257  0.019180136            2 
 2333000   0.88661102   -8.0131421        543.4  0.019409916  0.019174021            2 
 2334000   0.86766038   -7.9962911    542.79548  0.019380016  0.019167944            1 
 2335000    0.8742928   -8.0134368     543.5209  0.019397605  0.019161871            3 
 2336000   0.87357102   -8.0225702    544.43741  0.019421997  0.019155716            1 
 2337000   0.87676144   -7.9961677    544.29475  0.019408599  0.019149603            2 
 2338000   0.89980635   -8.0057559    543.79242  0.019382393  0.019143474            1 
 2339000   0.86248864   -8.0450745    543.42002  0.019360839  0.019137325            2 
 2340000   0.88743265   -8.0351598    543.94777  0.019371359  0.019131187            2 
 2341000   0.86549944   -8.0063367    544.84394  0.019394986  0.019125095            5 
 2342000   0.87219821   -8.0065269    544.99193   0.01939197  0.019118989            3 
 2343000   0.87232881     -8.06373    542.61168  0.019299035  0.019112825            2 
 2344000   0.87841367   -8.0276112    544.10384  0.019343851  0.019106641            1 
 2345000   0.87868302   -8.0263339     543.5037  0.019314275  0.019100482            1 
 2346000   0.87378064   -8.0303141    544.81886  0.019352758  0.019094359            3 
 2347000   0.86808666   -8.0221305    545.98717  0.019385995  0.019088291            1 
 2348000   0.87108427   -8.0447071    545.18864  0.019349398  0.019082198            1 
 2349000   0.86136614    -8.023954    546.56232  0.019389894  0.019076104            2 
 2350000   0.84612969   -8.0427081    544.74756  0.019317289  0.019070026            1 
 2351000   0.88604657    -7.997997    546.20832  0.019360851  0.019063922            3 
 2352000   0.88573497   -8.0314523    546.28609  0.019355375  0.019057868            2 
 2353000   0.89448409   -8.0468722    545.51012  0.019319667  0.019051814            2 
 2354000   0.88237586   -8.0400624    546.06305  0.019331034  0.019045744            3 
 2355000   0.87614027    -8.045909    544.68683  0.019274127  0.019039661            2 
 2356000   0.87888925   -8.0405674    546.44848  0.019328257  0.019033578            5 
 2357000   0.86995819   -8.0694895    544.75529  0.019260193  0.019027471            2 
 2358000   0.87726734   -8.0732013    543.77153  0.019217258  0.019021374            3 
 2359000   0.88070434   -8.0538722    544.93364  0.019250164  0.019015248            3 
 2360000   0.88524607   -8.0470539    547.02355  0.019315803  0.019009148            1 
 2361000   0.87368092   -8.0546854    543.93324  0.019198547  0.019003024            1 
 2362000   0.88723778   -8.0495813    546.94899  0.019296817  0.018996956            2 
 2363000   0.86865495   -8.0384129    547.74552  0.019316741  0.018990866            5 
 2364000    0.8768305   -8.0409097    545.38866  0.019225489  0.018984758            3 
 2365000   0.88952802   -8.0183887     546.1917  0.019245655  0.018978659            2 
 2366000   0.85528377    -8.045915    546.17322   0.01923687  0.018972535            1 
 2367000   0.85395793   -8.0685879    544.66227  0.019175548  0.018966401            2 
 2368000   0.87797219   -8.0725328    544.32314  0.019155516  0.018960242            4 
 2369000   0.87799775   -8.0521945    543.90717  0.019132798  0.018954042            1 
 2370000   0.87138005    -8.049335    545.09702  0.019166562  0.018947872            2 
 2371000     0.873043   -8.0484602    546.09242  0.019193463  0.018941682            6 
 2372000   0.88313194   -8.0728298    546.33179  0.019193781  0.018935524            2 
 2373000   0.86483222   -8.0503044    544.90396  0.019135551  0.018929343            2 
 2374000   0.87720409   -8.0754127    545.43229  0.019146036   0.01892318            5 
 2375000   0.89040252   -8.0427962    546.26276  0.019167114  0.018917049            1 
 2376000   0.86955044   -8.0490266    546.05061  0.019151607  0.018910906            2 
 2377000   0.86944277   -8.0429964    547.23415  0.019185042  0.018904789            3 
 2378000    0.8710717   -8.0236424    547.44018  0.019184195  0.018898696            4 
 2379000   0.87092636   -8.0551906    546.05179  0.019127497  0.018892656            3 
 2380000   0.85755762   -8.0566017    546.23007  0.019125703  0.018886558            2 
 2381000   0.86227188   -8.0549587    546.74727  0.019135772  0.018880488            2 
 2382000   0.87214617   -8.0552894    545.18878  0.019073215   0.01887437            2 
 2383000   0.85959729   -8.0363183    546.84927  0.019123279  0.018868259            4 
 2384000   0.87452965   -8.0626715    546.32434  0.019096908  0.018862176            1 
 2385000   0.86466235   -8.0179753    546.91445  0.019109519   0.01885606            2 
 2386000   0.85450733   -8.0158412    545.79617  0.019062454  0.018849953            2 
 2387000   0.85835812   -8.0580334    546.70963  0.019086358   0.01884385            4 
 2388000   0.84611587   -8.0758518     547.2847  0.019098433  0.018837711            5 
 2389000    0.8822988   -8.0337896    548.28852  0.019125454  0.018831597            2 
 2390000   0.85557252   -8.0482778     547.3283  0.019083972  0.018825505            1 
 2391000   0.86423192    -8.052347    546.88423  0.019060513  0.018819449            5 
 2392000   0.86735589   -8.0620454    549.25423  0.019135111  0.018813357            5 
 2393000   0.86776775   -8.0420869    547.53806  0.019067351  0.018807281            4 
 2394000   0.86429577   -8.0568154    546.62298  0.019027533   0.01880119            4 
 2395000   0.86495358   -8.0630118    548.01732  0.019068104  0.018795115            1 
 2396000   0.86343944   -8.0581306    549.49335  0.019111483   0.01878901            5 
 2397000   0.87163897   -8.0500029     548.5332  0.019070129  0.018782972            2 
 2398000   0.88028745    -8.084404    547.67848  0.019032474  0.018776943            2 
 2399000   0.84253561   -8.0570991    550.16214  0.019110815  0.018770888            2 
 2400000   0.87238303   -8.0504534    548.19411  0.019034518   0.01876486            2 
 2401000   0.87648145   -8.0377315     549.4452  0.019070012  0.018758832            2 
 2402000   0.90151876   -8.0750453    548.12731  0.019016351  0.018752794            2 
 2403000   0.86726005   -8.0420753     548.8653   0.01903403  0.018746725            1 
 2404000   0.87049942   -8.0851756    548.20812  0.019003332  0.018740681            5 
 2405000    0.8537846   -8.0545574    548.95493  0.019021307  0.018734644            1 
 2406000    0.8712295   -8.0398863    547.74471  0.018971485  0.018728625            2 
 2407000   0.85047109   -8.0512013    548.28294  0.018982237  0.018722574            1 
 2408000   0.85468682   -8.0751869    547.49624  0.018947129  0.018716496            3 
 2409000    0.8805732   -8.0741923    548.50297  0.018974089  0.018710426            3 
 2410000   0.87633956   -8.0619417    547.90494  0.018945537  0.018704363            3 
 2411000   0.87037675   -8.0662896    549.38087  0.018988693  0.018698349            4 
 2412000   0.87796271   -8.0357419    549.09604   0.01897098  0.018692353            2 
 2413000   0.86784028   -8.0771105    548.75335  0.018951283  0.018686364            4 
 2414000   0.85991806    -8.051379    550.17929  0.018992657  0.018680406            3 
 2415000   0.87387038   -8.0238586    549.50385  0.018961486  0.018674396            1 
 2416000    0.8746531   -8.0404574    549.79688  0.018963745  0.018668379            2 
 2417000   0.86853723   -8.0775241    549.47858  0.018944924  0.018662366            4 
 2418000   0.85923996   -8.0962628    549.77397  0.018947269  0.018656343            5 
 2419000   0.87213708   -8.0560019    551.11622  0.018985677   0.01865035            2 
 2420000   0.86718387   -8.0454853    551.21833  0.018981348  0.018644369            1 
 2421000   0.86180906   -8.0564309    550.00401  0.018931709  0.018638382            4 
 2422000   0.84994301   -8.0515856    550.04566  0.018925326  0.018632396            2 
 2423000   0.86719635   -8.0713185    549.68998  0.018905282  0.018626387            1 
 2424000    0.8355668   -8.0906356    548.56472  0.018858798  0.018620378            3 
 2425000   0.87061297   -8.0344552    550.70098  0.018924432  0.018614377            4 
 2426000   0.85295946   -8.0616392    549.84182  0.018887119  0.018608351            2 
 2427000   0.87800928   -8.0610115    550.72391  0.018909625  0.018602324            2 
 2428000   0.86806098   -8.0790951    551.18043  0.018917505  0.018596329            2 
 2429000   0.85499145   -8.0228397    551.17582  0.018909559  0.018590342            2 
 2430000   0.84233592   -8.1017427    549.78244  0.018853993  0.018584303            2 
 2431000   0.88054106    -8.054403     550.2815  0.018863345   0.01857827            6 
 2432000   0.87129691   -8.0704217    550.38798  0.018859237  0.018572214            2 
 2433000   0.86398494   -8.0702641     549.5837  0.018823938   0.01856615            5 
 2434000   0.85559789   -8.0684584    550.97782  0.018863935  0.018560109            1 
 2435000   0.84837108   -8.0488823     551.2589  0.018865808  0.018554094            5 
 2436000   0.86066144   -8.0457073    550.89231  0.018845522  0.018548046            3 
 2437000   0.87204777    -8.060624    550.00106  0.018807313  0.018542033            1 
 2438000   0.87156469   -8.0550816    551.05943  0.018835775  0.018536001            2 
 2439000   0.87414874   -8.0509499    550.30678  0.018802336  0.018529999            5 
 2440000   0.86488454   -8.0429075    551.90221  0.018849119  0.018523976            2 
 2441000   0.85517113   -8.0730068    552.09579  0.018848006  0.018517944            5 
 2442000   0.86970002   -8.0547354    551.61038  0.018823723  0.018511917            1 
 2443000    0.8550169   -8.0417835    550.72678  0.018785877  0.018505857            1 
 2444000   0.87523564   -8.0489269    549.79716  0.018746493  0.018499824            3 
 2445000   0.86123257   -8.0249049    551.68734   0.01880325  0.018493807            2 
 2446000    0.8770649   -8.0278144    552.06583  0.018808457  0.018487839            3 
 2447000   0.85865698   -8.0387849    552.08698  0.018801491  0.018481858            1 
 2448000   0.85420493   -8.0399198    551.58265  0.018776642  0.018475851            3 
 2449000   0.88256089   -8.0691535    552.32218   0.01879414  0.018469823            2 
 2450000   0.87633281   -8.0605596    551.67546  0.018764472  0.018463835            3 
 2451000   0.87689784   -8.0528613    551.66816  0.018756567  0.018457842            4 
 2452000   0.87881448     -8.07452    550.46289  0.018707956  0.018451822            4 
 2453000    0.8365133   -8.0512062    551.04763  0.018720194  0.018445801            3 
 2454000   0.86739131   -8.0591795    552.00036  0.018744918   0.01843979            2 
 2455000   0.87121895   -8.0688041    551.93759  0.018735152  0.018433797            3 
 2456000   0.85347868   -8.1119512    550.63346  0.018683274  0.018427764            1 
 2457000   0.88216359   -8.0749055    551.62475  0.018709292  0.018421739            1 
 2458000   0.86450925   -8.0902067    550.40994  0.018660494  0.018415677            2 
 2459000   0.88529192   -8.0865354     552.7699  0.018732883  0.018409642            7 
 2460000   0.84746482   -8.0731132    552.18362  0.018705407   0.01840356            2 
 2461000   0.85772258   -8.1049047    550.83059  0.018651991  0.018397487            3 
 2462000    0.8526315   -8.0612651    551.44399  0.018665177  0.018391484            2 
 2463000   0.86317624    -8.049386    551.92643  0.018673922  0.018385477            2 
 2464000   0.84340082   -8.0869686    551.38428  0.018648007  0.018379412            2 
 2465000    0.8595497   -8.0729211    552.87838  0.018690953  0.018373354            3 
 2466000    0.8610211   -8.0843785     551.7277  0.018644488  0.018367302            2 
 2467000   0.85911162   -8.1011584    550.79115  0.018605295  0.018361209            1 
 2468000   0.85593873    -8.115573    550.32259  0.018581935   0.01835511            3 
 2469000   0.84951809    -8.104082    550.74206  0.018588567  0.018348986            6 
 2470000   0.85977515   -8.0791894    550.64615  0.018577805  0.018342905           19 
 2471000   0.86291701   -8.0796309    551.83166  0.018610268  0.018336828            6 
 2472000   0.86709224   -8.0421561    552.67489  0.018631165  0.018330778            2 
 2473000   0.85931569   -8.0720274    553.17457  0.018640469  0.018324757            1 
 2474000   0.84249835   -8.0561583     551.3061  0.018569998  0.018318751            2 
 2475000   0.87280492   -8.0706441    552.45025  0.018601019  0.018312735            2 
 2476000   0.86828261   -8.0899677    551.54963  0.018563194  0.018306735            8 
 2477000   0.84310039   -8.0953627    552.29304  0.018580711  0.018300688            2 
 2478000   0.85000651   -8.1318793    551.35398  0.018541632  0.018294581            2 
 2479000   0.85725774   -8.1014826    551.70455  0.018545937  0.018288526            2 
 2480000   0.85295777    -8.093708    551.05344  0.018516581  0.018282456            2 
 2481000   0.85707186   -8.0628299    552.38189  0.018553738  0.018276443            5 
 2482000   0.85174182   -8.1077048    551.37264  0.018512377  0.018270352            2 
 2483000    0.8695254   -8.0933167    552.16985  0.018531677  0.018264248            2 
 2484000    0.8469002    -8.074483    553.26631  0.018561001   0.01825816            2 
 2485000   0.84239381   -8.0913154    551.76646  0.018503235  0.018252076            1 
 2486000   0.85568081     -8.09577    552.77061  0.018529452  0.018245996            4 
 2487000    0.8480084   -8.0801543    551.69317  0.018485899  0.018239931            2 
 2488000   0.84938404   -8.0652254    552.90582  0.018519086   0.01823388            2 
 2489000   0.85005309   -8.1094237    551.76543  0.018473464  0.018227812            3 
 2490000   0.86607055   -8.1013296    552.06004  0.018475905  0.018221763            6 
 2491000   0.83204832   -8.1158653    552.20168  0.018473226  0.018215665            2 
 2492000   0.85188441   -8.0807984    552.43768  0.018473705  0.018209564            2 
 2493000   0.85740584   -8.0740965    551.77669    0.0184442  0.018203483            3 
 2494000    0.8494682   -8.0932327    552.14771  0.018449202  0.018197423            3 
 2495000    0.8420961   -8.1115833    552.85768   0.01846552  0.018191346            3 
 2496000   0.85391889   -8.0839047    551.07457   0.01839859  0.018185288            2 
 2497000   0.84786274   -8.0645761    552.02167   0.01842283  0.018179255            4 
 2498000   0.85304268   -8.0882721    552.33432  0.018425885  0.018173234            2 
 2499000   0.82872597   -8.0813103    553.23622  0.018448587  0.018167199            2 
 2500000   0.82735451   -8.0934823    551.97285  0.018399095  0.018161153            3 
 2501000   0.84125295   -8.1018689    552.80739  0.018419545  0.018155111            3 
 2502000   0.84795579   -8.1201823    552.10241  0.018388703  0.018149091            2 
 2503000   0.84753663   -8.0677999    553.01901  0.018411873   0.01814307            3 
 2504000    0.8508077   -8.0813411    553.82323  0.018431284  0.018137053            3 
 2505000   0.85525013   -8.1200282     552.9953  0.018396384  0.018131024            3 
 2506000   0.83822938   -8.1153461    553.81947  0.018416449  0.018125018            1 
 2507000   0.84508588   -8.0841959    555.37939  0.018460956  0.018118998            4 
 2508000   0.85928864   -8.0964734    553.82027   0.01840179  0.018112962            6 
 2509000   0.85652026   -8.0759471     553.9828  0.018399854  0.018106957            2 
 2510000   0.83278714   -8.1140873    553.65976  0.018381798  0.018100972            1 
 2511000    0.8324122   -8.1058845    553.67329  0.018374927  0.018094938            3 
 2512000   0.84274982   -8.1037877      553.894  0.018374934   0.01808889            1 
 2513000   0.86473409   -8.1307131    553.40856  0.018351524  0.018082842            2 
 2514000   0.84839376   -8.1002091    553.53546  0.018348431    0.0180768            2 
 2515000    0.8488092   -8.1004463     554.2754  0.018365653  0.018070857            4 
 2516000   0.84605612    -8.098336    554.98177  0.018381749  0.018064896            3 
 2517000   0.85871241   -8.1021256     554.1513  0.018346951  0.018058879            3 
 2518000   0.85179728   -8.0788767    554.24171  0.018342656  0.018052897            1 
 2519000   0.85967019   -8.0801586    554.39694   0.01834051  0.018046924            2 
 2520000   0.84463609    -8.093318    555.70756  0.018376573  0.018040939            2 
 2521000   0.84435593   -8.0837011    555.69263   0.01836879   0.01803497            1 
 2522000   0.83561997   -8.1090352    554.59368  0.018325194  0.018028997            1 
 2523000   0.85086895   -8.0923138    554.37164  0.018310597  0.018023002            4 
 2524000   0.83926296   -8.0753835    553.93452  0.018288911   0.01801699            3 
 2525000   0.83286128   -8.1095158      553.814   0.01827769  0.018010959            2 
 2526000   0.86230051   -8.1355472    553.78845  0.018269611  0.018004909            3 
 2527000   0.84050563    -8.099486    552.89748     0.018233  0.017998812            3 
 2528000   0.85795945   -8.1121814    554.57282  0.018281013  0.017992767            1 
 2529000   0.84068531   -8.0983233    553.94081  0.018252959  0.017986726            2 
 2530000    0.8364325   -8.1255921    555.44116  0.018295163  0.017980687            6 
 2531000   0.86423063   -8.1200223    554.19437  0.018246884  0.017974684            3 
 2532000   0.86102946   -8.0494831    555.41143  0.018279734  0.017968687            2 
 2533000   0.85219388   -8.0815029    554.59044  0.018245507  0.017962689            1 
 2534000   0.84457923   -8.1085662    555.54084  0.018269562  0.017956682            3 
 2535000   0.84140007   -8.0869858    555.11161  0.018248245  0.017950658            1 
 2536000   0.84706985   -8.1332369    554.13572  0.018208981  0.017944651            1 
 2537000   0.85019303   -8.1190433    555.25982  0.018238728  0.017938616            5 
 2538000   0.85140088   -8.1098947    553.86951  0.018185891  0.017932598            2 
 2539000   0.83072572   -8.0889052    555.28037  0.018225035  0.017926609            3 
 2540000   0.83261388   -8.1258025    554.47825  0.018191544  0.017920622            1 
 2541000   0.84340916   -8.1006458    553.87087  0.018164465  0.017914632            4 
 2542000    0.8486248   -8.0944711    554.52845  0.018178877  0.017908679            3 
 2543000   0.84030487   -8.1036832    556.95859  0.018251363  0.017902691            6 
 2544000   0.82724556   -8.0775074    554.98446  0.018179522  0.017896671            1 
 2545000   0.85555672   -8.0939075    555.60578  0.018192723   0.01789067            4 
 2546000    0.8482319   -8.1156578    554.83528  0.018160359  0.017884684            2 
 2547000   0.84193948   -8.1154744    554.47143  0.018141324  0.017878673            1 
 2548000   0.82106838   -8.1113806    556.02171  0.018184907  0.017872677            3 
 2549000   0.84622456   -8.1240453    555.10703  0.018147869  0.017866658            3 
 2550000   0.84784176   -8.1389307    555.70878  0.018160418  0.017860618            2 
 2551000   0.84541716   -8.0995633    555.10562  0.018133595  0.017854622            3 
 2552000   0.84599925   -8.1070951    556.29578  0.018165353  0.017848628            2 
 2553000   0.83723211   -8.0993072    556.69487  0.018171265  0.017842656            3 
 2554000   0.84453608   -8.1410076     556.3451  0.018152737  0.017836685            2 
 2555000   0.83124693   -8.1036975    557.07419  0.018169413  0.017830703            3 
 2556000   0.86171542   -8.1266096    555.49186  0.018110715  0.017824717            2 
 2557000   0.86429069   -8.1030487    556.95017  0.018151159  0.017818771            2 
 2558000   0.84095516   -8.1271317    555.03429  0.018081649  0.017812827            3 
 2559000   0.85482848   -8.0954457    556.97388  0.018137745  0.017806888            2 
 2560000   0.83405906   -8.1200159    557.34545  0.018142756  0.017800947            7 
 2561000   0.85313663    -8.139375    555.70752  0.018082374  0.017795018            2 
 2562000   0.86000521   -8.1154502    557.17851  0.018123163  0.017789113            4 
 2563000   0.85160605   -8.1499994      557.181  0.018116172  0.017783209            5 
 2564000   0.84408216   -8.1438279    555.88782  0.018067077   0.01777728            2 
 2565000   0.85215864   -8.1132553    557.93447  0.018126526    0.0177714            2 
 2566000   0.82563271    -8.121006    556.89182  0.018085601  0.017765486            2 
 2567000   0.82498523   -8.1223441    555.83006  0.018044087  0.017759572            5 
 2568000   0.84603911   -8.0998632    558.30872  0.018117495  0.017753708            2 
 2569000    0.8303258   -8.1333067    557.32601  0.018078565  0.017747815            2 
 2570000   0.84933436   -8.1201075    555.70711  0.018019037  0.017741909            4 
 2571000   0.84753378   -8.1154546    558.25802  0.018094711  0.017735982            2 
 2572000   0.84485894   -8.1565329    557.01059  0.018047259  0.017730029            2 
 2573000   0.83533007   -8.1285174    556.86076  0.018035392  0.017724084            2 
 2574000   0.85154657   -8.1098723    557.13877  0.018037386   0.01771817            2 
 2575000    0.8284345   -8.1102296    556.32309  0.018003983  0.017712237            5 
 2576000    0.8339887    -8.151926     556.6859  0.018008731  0.017706303            3 
 2577000   0.83467656   -8.1384867    556.66704  0.018001133  0.017700366            4 
 2578000   0.85243328   -8.1305953    557.18291  0.018010826  0.017694443            2 
 2579000   0.81521615   -8.1152162    556.94736  0.017996231  0.017688527            2 
 2580000     0.835753   -8.1147761    559.04439  0.018056989  0.017682627            1 
 2581000   0.84578276   -8.1178214    557.83125  0.018010824  0.017676729            4 
 2582000   0.83047905   -8.1333309    556.80303  0.017970663  0.017670826            2 
 2583000   0.83742548   -8.0907354    559.31318  0.018044689  0.017664924            5 
 2584000    0.8551531   -8.1722612    556.32057  0.017941195  0.017659001            2 
 2585000   0.83757088   -8.1354934    557.16513  0.017961481  0.017653065            2 
 2586000   0.84614318   -8.1343891     557.1237    0.0179532  0.017647164            1 
 2587000   0.83166443   -8.1459771    558.54769   0.01799213   0.01764127            2 
 2588000   0.83166638   -8.1582453    556.30459   0.01791295  0.017635364            3 
 2589000   0.83818157   -8.1335233      556.555  0.017914092  0.017629431            5 
 2590000   0.84693835   -8.1173351    558.06599  0.017955791  0.017623503            2 
 2591000   0.83826978   -8.1060682    558.80809  0.017972729  0.017617629            2 
 2592000   0.83195731   -8.1267179    557.87714  0.017935865  0.017611721            2 
 2593000   0.83441294   -8.1758195     557.5898  0.017919713  0.017605812            1 
 2594000    0.8312413   -8.1697131    556.40894   0.01787487  0.017599875            1 
 2595000   0.81563858   -8.1509801     557.4888  0.017902659  0.017593967            2 
 2596000   0.84664781   -8.1169444    558.03208  0.017913202  0.017588093            1 
 2597000   0.84468081   -8.1077426    558.15381  0.017910211   0.01758221            2 
 2598000     0.827508   -8.1318416    559.06846  0.017932655  0.017576341            1 
 2599000   0.82627165   -8.1368968    558.06722  0.017893652  0.017570434            4 
 2600000   0.84006935   -8.1203839    558.28118  0.017893627  0.017564505            2 
 2601000   0.82442321   -8.1583261    557.19788   0.01785204  0.017558531            3 
 2602000    0.8536574   -8.1580622    557.91268  0.017868072  0.017552543            2 
 2603000   0.83470077   -8.1061619    558.15697  0.017869028  0.017546582            7 
 2604000   0.83986448   -8.1567426    557.35501  0.017836502  0.017540616            2 
 2605000   0.83013714   -8.1469946    557.77278  0.017843019   0.01753467            1 
 2606000   0.84218506   -8.1537782    557.65796  0.017832501  0.017528707            3 
 2607000   0.84810765   -8.1438852    557.76128  0.017828963  0.017522767            2 
 2608000   0.85110849   -8.1562077    557.64038  0.017818264  0.017516811            2 
 2609000   0.82878141   -8.1431841    557.87322  0.017818871  0.017510861            3 
 2610000   0.83286612   -8.1524432     557.5419  0.017801466  0.017504976            4 
 2611000   0.83968791   -8.1694719    557.36544  0.017789016  0.017499054            6 
 2612000   0.83494448   -8.1372074    558.79211  0.017827722  0.017493123            1 
 2613000   0.81549035   -8.1282688    558.04891  0.017797197  0.017487201            2 
 2614000   0.83694416   -8.1454054    558.38995  0.017801261  0.017481284            3 
 2615000   0.83161082   -8.1587871    558.30793   0.01779184  0.017475353            4 
 2616000   0.83881304   -8.1570974    557.35653  0.017754731  0.017469399            2 
 2617000   0.82773627   -8.1386981    557.79875  0.017762029  0.017463461            4 
 2618000   0.84187284   -8.1544818    557.20605  0.017736378  0.017457541            2 
 2619000   0.83608407   -8.1618233    558.89347  0.017783297  0.017451622            2 
 2620000   0.81624264    -8.147461    558.66804   0.01776934  0.017445709            5 
 2621000   0.84596641   -8.1771085    558.26673  0.017749801   0.01743978            1 
 2622000   0.81996262   -8.1721631    557.93962  0.017732635  0.017433853            3 
 2623000   0.82325101   -8.1518672    559.74241  0.017783149  0.017427928            4 
 2624000   0.82655181   -8.1621677    558.92209  0.017750321   0.01742206            1 
 2625000   0.83978698   -8.1883714     558.0901  0.017717146  0.017416163            2 
 2626000   0.83996622   -8.1464617    558.79803  0.017732865  0.017410307            2 
 2627000   0.82400637   -8.1472034    559.63681  0.017752722  0.017404463            2 
 2628000   0.82202409   -8.1586983    558.42629  0.017707582  0.017398607            4 
 2629000   0.83334584   -8.1649942    558.75308  0.017711205  0.017392739            2 
 2630000   0.81090449    -8.100696    561.53178  0.017792515  0.017386894            3 
 2631000   0.83710226   -8.1397953    560.36466  0.017748786  0.017381096            3 
 2632000   0.83173192   -8.1681509    558.62439  0.017686942   0.01737525            5 
 2633000   0.82810299   -8.1449908    559.38967  0.017704446  0.017369397            1 
 2634000   0.81495119   -8.1647802    559.04156  0.017686711  0.017363546            3 
 2635000   0.81679879   -8.1718347    559.03253  0.017679713  0.017357679            3 
 2636000   0.83188975   -8.1648321    559.80357  0.017697381  0.017351821            2 
 2637000   0.81079183   -8.1455957    559.79704  0.017690464  0.017345966            3 
 2638000   0.82828394   -8.1851575    560.19095  0.017696201  0.017340095            1 
 2639000   0.82429941   -8.1838608    559.80081  0.017677176  0.017334219            2 
 2640000    0.8327145   -8.1500073    559.64748   0.01766564  0.017328341            4 
 2641000   0.82900545   -8.2170316    558.84935  0.017633767  0.017322444            3 
 2642000   0.83328514   -8.1594194    559.52048  0.017648261  0.017316602            2 
 2643000   0.82990032   -8.1414817    560.33833  0.017667371  0.017310753            2 
 2644000   0.83013124   -8.1790624    559.56021  0.017636164  0.017304881            3 
 2645000   0.82077092   -8.1708554    561.02595  0.017675676  0.017298989            5 
 2646000   0.84126904   -8.1578536    559.71379   0.01762767   0.01729314            1 
 2647000   0.81447222   -8.1799541    560.10789  0.017633418  0.017287302            4 
 2648000   0.82254576   -8.2034151    561.13623  0.017659121  0.017281492            4 
 2649000    0.8354024   -8.1382902    560.85913  0.017643737  0.017275662            2 
 2650000   0.85205511   -8.1550908    560.72798  0.017632955  0.017269894            1 
 2651000   0.82039851   -8.1688918    560.91158  0.017632075  0.017264109            2 
 2652000   0.81845326   -8.1368533    562.25927  0.017667775  0.017258366            4 
 2653000   0.81987678   -8.1522139    560.04528  0.017591572  0.017252597            2 
 2654000   0.83480562   -8.1734473    561.19578  0.017621068  0.017246848            2 
 2655000   0.82405996   -8.1178115    562.38308  0.017651697  0.017241077            3 
 2656000   0.82452095   -8.1132657    561.15114  0.017606399  0.017235339            3 
 2657000    0.8282166   -8.1616122    561.39648  0.017607467  0.017229557            6 
 2658000   0.81814281   -8.1570219    561.70835  0.017610621   0.01722378            3 
 2659000   0.82507846   -8.1445301    561.46698  0.017596433  0.017218049            3 
 2660000   0.83610429   -8.1604654    562.05544  0.017608253  0.017212312            2 
 2661000   0.81888849   -8.1789456    562.87829  0.017627405  0.017206567            4 
 2662000   0.81267511   -8.1621886    561.42379   0.01757525  0.017200834            3 
 2663000   0.81940912   -8.1615503    561.09611  0.017558396  0.017195107            1 
 2664000   0.85366518   -8.1366556    562.36724  0.017591568  0.017189368            2 
 2665000     0.828047   -8.1747637    560.16759  0.017516185  0.017183617            2 
 2666000   0.81867664   -8.1420839    562.07898  0.017569361  0.017177884            3 
 2667000   0.82049525    -8.164766    561.72603  0.017551745  0.017172159            4 
 2668000   0.82369903   -8.1609098    561.81262  0.017547871   0.01716644            1 
 2669000   0.82794934   -8.1767022    561.99506  0.017546992  0.017160698            2 
 2670000   0.82716064   -8.1485438    561.91976   0.01753807  0.017154983            3 
 2671000   0.82600689   -8.1853837    563.03646  0.017566344  0.017149248            3 
 2672000   0.81476682   -8.1997846    560.69496  0.017486744  0.017143506            5 
 2673000   0.82993481   -8.1904116    560.85154  0.017485084  0.017137735            3 
 2674000   0.79721323   -8.2092032    562.47182   0.01752904   0.01713197            2 
 2675000   0.82942607   -8.1869084    562.83917  0.017533931  0.017126198            2 
 2676000   0.81414044   -8.1718557    563.13719  0.017536659  0.017120447            2 
 2677000   0.84732733   -8.1704784    563.02458  0.017526603  0.017114722            3 
 2678000   0.80769968   -8.1438549    562.97448  0.017518499  0.017108998            1 
 2679000   0.82762627   -8.1992806    561.78585  0.017474986  0.017103246            2 
 2680000   0.82284239   -8.1840923    562.34213  0.017485763  0.017097499            2 
 2681000   0.82899677   -8.2029344    561.39489  0.017449798  0.017091771            2 
 2682000   0.82174431   -8.1711321    562.97468  0.017492378  0.017086049            2 
 2683000   0.81439272   -8.1610165    563.47842  0.017501504  0.017080339            4 
 2684000    0.8297083   -8.1601977    562.77735  0.017473216  0.017074644            1 
 2685000   0.81846139   -8.1820482    562.11747  0.017446228  0.017068928            3 
 2686000   0.82721764   -8.1564379    564.44212  0.017511855  0.017063233            2 
 2687000   0.83576343    -8.156184     562.9674  0.017459602  0.017057525            3 
 2688000   0.82309805   -8.1983081    562.13589  0.017427328  0.017051813            2 
 2689000   0.79097381   -8.1839581    563.04675  0.017449075  0.017046088            2 
 2690000   0.83201996   -8.1861965    563.61133  0.017460078  0.017040366            2 
 2691000   0.81837879   -8.1929909    564.40055   0.01747803  0.017034676            5 
 2692000   0.83283312   -8.1638207    562.57584  0.017415052  0.017028995            3 
 2693000   0.82911233   -8.1771128    563.47054  0.017436271  0.017023311            4 
 2694000   0.82017538   -8.2040804    563.70605  0.017437084  0.017017602            1 
 2695000   0.82862888   -8.2043359    562.31212  0.017387511   0.01701187            2 
 2696000   0.81384872   -8.2055853    562.61043  0.017390283  0.017006146            3 
 2697000   0.80610697   -8.1930187    564.34833  0.017437533  0.017000442            2 
 2698000   0.81070047   -8.2033903    563.01004  0.017389734  0.016994732            1 
 2699000   0.80931071   -8.2080916    563.54581  0.017399834  0.016989027            4 
 2700000   0.83149152   -8.1903406    564.43977  0.017420981  0.016983365            7 
 2701000   0.81265289   -8.1766259    565.48262  0.017446705  0.016977729            2 
 2702000   0.82688316   -8.1691394    564.04285  0.017395844  0.016972131            5 
 2703000   0.81436882   -8.1840622    564.99246  0.017418685  0.016966522            3 
 2704000   0.82944483    -8.177024    564.21191  0.017388188  0.016960915            4 
 2705000   0.82163771   -8.1875915    564.90752  0.017403189  0.016955299            2 
 2706000   0.83337382   -8.1898528    564.29811  0.017377991  0.016949679            2 
 2707000   0.84194397    -8.195444    565.27338  0.017401594  0.016944077            5 
 2708000   0.81614933   -8.2149346    564.57128  0.017373562  0.016938438            6 
 2709000   0.81543745    -8.237463    563.51782  0.017334743  0.016932779            3 
 2710000   0.82158054   -8.1898401    564.39857   0.01735543   0.01692711            3 
 2711000   0.81633072   -8.2033874    564.18803  0.017342556  0.016921453            5 
 2712000   0.80853136   -8.2098955    564.76664   0.01735394  0.016915783            3 
 2713000   0.81077525   -8.2061894    564.34059  0.017334457  0.016910085            3 
 2714000   0.81679182   -8.1806729    564.17296  0.017322923  0.016904424            2 
 2715000   0.82030982   -8.1991272    563.36175  0.017291644  0.016898727            4 
 2716000   0.81867066   -8.1998825    565.09342  0.017338409  0.016893044            2 
 2717000   0.81332632   -8.1681235    565.41102  0.017341769  0.016887374            5 
 2718000   0.81184455   -8.1825038    564.58146  0.017309954  0.016881745            2 
 2719000   0.82192341   -8.1788022    564.73615  0.017308329  0.016876128            3 
 2720000   0.80688953   -8.1428343    566.98639  0.017370906   0.01687052            4 
 2721000   0.80903304   -8.1909015    564.27181  0.017281386   0.01686489            2 
 2722000   0.80571618   -8.1843386    566.03655  0.017329064  0.016859268            2 
 2723000    0.8313481    -8.205128    564.56891  0.017277785  0.016853657            3 
 2724000   0.81742376   -8.1637589    565.97454  0.017314444  0.016848056            1 
 2725000   0.79406942    -8.189306     564.6293  0.017266951  0.016842441            3 
 2726000   0.81305674   -8.1638738     565.0047  0.017272093  0.016836824            3 
 2727000   0.82538168    -8.176002     565.6942  0.017286829  0.016831254            5 
 2728000   0.81601191   -8.1624708    566.56394  0.017307061  0.016825674            2 
 2729000   0.81139984   -8.1919875    564.65864  0.017242538  0.016820071            2 
 2730000   0.79930839   -8.2002812    565.15922  0.017251502  0.016814471            4 
 2731000   0.80681043   -8.2048088    564.46642  0.017224046  0.016808858            2 
 2732000   0.81193025   -8.1967895    564.27688  0.017211959  0.016803225            2 
 2733000   0.81662809   -8.2130304    563.79304  0.017190909    0.0167976            3 
 2734000   0.83030969   -8.1927228    565.60113  0.017239732  0.016791976            2 
 2735000   0.80986826   -8.1956944    565.27442  0.017223474  0.016786387            3 
 2736000   0.80020957   -8.2115497    563.58326  0.017165669  0.016780778            3 
 2737000   0.81339331   -8.1914202    565.73208  0.017224823  0.016775186            2 
 2738000   0.81511924   -8.1857702    567.57882  0.017274739  0.016769641            2 
 2739000   0.81033353   -8.2013723    566.31342  0.017229933   0.01676409            5 
 2740000   0.81950705   -8.1921705    566.83759  0.017239586  0.016758554            2 
 2741000   0.80887093   -8.1768446    567.43519  0.017251465   0.01675304            4 
 2742000   0.79664922   -8.2319138    566.22934  0.017208526  0.016747486            6 
 2743000   0.79376452   -8.2135378    568.07635  0.017258365  0.016741939            1 
 2744000   0.80223014   -8.2024055     566.7777  0.017212637  0.016736384            2 
 2745000   0.81537039   -8.1942821    567.45733  0.017226999  0.016730863            4 
 2746000   0.80687107   -8.2073384    566.63269    0.0171957  0.016725329            2 
 2747000   0.83372202   -8.2051898    566.79682  0.017194419  0.016719788            1 
 2748000   0.81244516   -8.2153139    566.53434  0.017180202  0.016714238            3 
 2749000   0.82702297   -8.2156914    565.53321  0.017143604  0.016708691            2 
 2750000   0.80535225   -8.2122068    566.23968  0.017158778  0.016703138            2 
 2751000   0.82117638   -8.2097072    566.30553  0.017154536  0.016697583            6 
 2752000   0.80769032   -8.2191529    568.03892  0.017200791  0.016692039            2 
 2753000   0.81157548   -8.1814338    566.90381  0.017160183  0.016686503            2 
 2754000   0.81131148   -8.2352486    566.02649  0.017127405  0.016680977            2 
 2755000    0.8070197   -8.2106465    566.73966  0.017142761  0.016675446            3 
 2756000   0.79631851   -8.2077369    567.16756  0.017149479  0.016669937            1 
 2757000   0.83036091   -8.2311153     567.3534  0.017148876   0.01666443            4 
 2758000   0.81568889   -8.2055686    567.25827  0.017139783  0.016658921            3 
 2759000   0.82210703   -8.2605506    567.21239  0.017132185  0.016653409            3 
 2760000   0.80747103   -8.2301639    566.01857  0.017089933  0.016647893            2 
 2761000   0.80331052   -8.2150497    565.96531  0.017082136  0.016642388           11 
 2762000   0.81584877    -8.253042    565.76163  0.017069805  0.016636881            6 
 2763000   0.80856996   -8.2536974    566.69176  0.017091681  0.016631348            3 
 2764000   0.80565421   -8.2306142    568.05158  0.017126495  0.016625829            1 
 2765000    0.8139478   -8.2239449    568.25801  0.017126522  0.016620324            4 
 2766000   0.81150286   -8.2359895    567.41758   0.01709501  0.016614822            2 
 2767000   0.81336313    -8.247418    566.49163  0.017060945  0.016609304            4 
 2768000   0.81307986   -8.2457325    567.35006  0.017080626  0.016603776            1 
 2769000   0.82907504      -8.2336    567.47361  0.017078175  0.016598281            2 
 2770000   0.82514044   -8.2144198    567.63381  0.017076829  0.016592817            3 
 2771000   0.79993088   -8.1977845    567.05674  0.017053312  0.016587356            3 
 2772000    0.8122254    -8.189815    567.80996  0.017069804  0.016581917            5 
 2773000   0.79826812   -8.2237202    568.75752  0.017092124  0.016576475            1 
 2774000   0.81328873   -8.2275608    568.20372  0.017069326  0.016571018            1 
 2775000   0.82928296   -8.2071539    568.73225  0.017079046  0.016565533            1 
 2776000   0.81309807   -8.2492197    566.76558  0.017013856  0.016560066            2 
 2777000    0.7791985   -8.2191303     566.9714  0.017013906  0.016554561            2 
 2778000   0.80743243   -8.2092525    568.34842  0.017049089  0.016549096            2 
 2779000   0.81181293   -8.2024225    568.25239  0.017040074   0.01654365            4 
 2780000   0.81257228   -8.1965765    568.92325  0.017054054   0.01653822            1 
 2781000   0.80357842   -8.2182346    569.29141  0.017058954  0.016532794            4 
 2782000   0.82003871   -8.2098281    568.49222  0.017028883  0.016527347            2 
 2783000   0.80406312   -8.2210032    569.71449  0.017059363  0.016521896            4 
 2784000   0.80577805   -8.1929355    569.58088  0.017049236  0.016516438            1 
 2785000   0.79486039   -8.2287069    567.74087  0.016988057  0.016510962            1 
 2786000   0.79586781   -8.2146908    568.65522  0.017009309  0.016505483            4 
 2787000   0.81050211     -8.22375    568.29776  0.016992518  0.016500035            1 
 2788000   0.82260259   -8.2474345    569.36593   0.01701835    0.0164946            2 
 2789000   0.80453093   -8.2037659    568.83954   0.01699652  0.016489165            3 
 2790000   0.82229321   -8.2637682    567.61859   0.01695396  0.016483683            3 
 2791000   0.80336294   -8.2417759    568.09382  0.016962075  0.016478188            2 
 2792000    0.8024255   -8.2356882     568.5197  0.016968711  0.016472686            2 
 2793000   0.80118846   -8.2474462    567.09715  0.016920192  0.016467176            3 
 2794000    0.8029765   -8.2377698     568.4588  0.016954748   0.01646168            3 
 2795000   0.79271297   -8.2348517    567.43743   0.01691823  0.016456169            2 
 2796000    0.8135385   -8.2115998    569.16128  0.016963557  0.016450664            2 
 2797000   0.80788251   -8.2489548    568.68099  0.016943183  0.016445143            2 
 2798000   0.81149356   -8.2487475     567.3815  0.016898425  0.016439609            1 
 2799000   0.78808574   -8.2382616    567.24668  0.016888373  0.016434064            5 
 2800000   0.78528702   -8.2073522    567.04925  0.016876466  0.016428552            3 
 2801000    0.8029174   -8.2254005     568.2437  0.016905977  0.016423055            2 
 2802000    0.7993245   -8.2229024    568.63518  0.016911586  0.016417556            5 
 2803000   0.81161302    -8.240912    567.80581  0.016880896  0.016412027            2 
 2804000   0.79792309   -8.2365241    568.42694  0.016893335  0.016406509            4 
 2805000   0.79418879   -8.2666392    567.13713  0.016848994  0.016400977            2 
 2806000   0.81062829   -8.2713541    567.78594  0.016862258  0.016395471            3 
 2807000   0.81129315   -8.2156385     569.2472  0.016899632  0.016389948            4 
 2808000   0.79089467   -8.2633662    568.19179  0.016862292  0.016384453            3 
 2809000   0.78229928   -8.2423435    567.64381  0.016840032  0.016378952            3 
 2810000    0.8012956   -8.2582133    568.68677  0.016864969  0.016373453            1 
 2811000   0.77536628   -8.2202054    569.78843  0.016891629  0.016367974            4 
 2812000   0.80130424   -8.2353086    568.21785  0.016839078  0.016362482            1 
 2813000   0.83658308   -8.2276214    568.94136  0.016854525  0.016357021            2 
 2814000    0.7928562   -8.2514767    568.21981  0.016827168  0.016351541            2 
 2815000   0.82121743    -8.226237    569.15891  0.016848991   0.01634606            1 
 2816000   0.79488105    -8.242923    568.24466  0.016815952  0.016340596            4 
 2817000   0.79248375   -8.2383965    568.23049  0.016809564  0.016335088            1 
 2818000   0.79729049   -8.2428836      568.127  0.016800538  0.016329561            2 
 2819000   0.80504983   -8.2467743    568.64007  0.016809745  0.016324077            1 
 2820000   0.78141457   -8.2556084     569.1535  0.016818957  0.016318602            6 
 2821000   0.79318408   -8.2691817    568.24694  0.016786215  0.016313102            2 
 2822000    0.8127024    -8.293131    567.86158  0.016768887  0.016307603            2 
 2823000   0.79481777   -8.2440431    567.35747  0.016748065  0.016302102            2 
 2824000   0.79532811   -8.2249885    568.19953  0.016766983  0.016296608            2 
 2825000   0.79500194   -8.2699533    568.80536  0.016778919  0.016291105            4 
 2826000   0.79958789   -8.2822222    568.51962  0.016764556  0.016285599            5 
 2827000   0.81257955   -8.2426414     567.0723  0.016715962  0.016280105            2 
 2828000   0.81699068   -8.2475208    567.77305    0.0167307  0.016274624            3 
 2829000   0.79536278   -8.2407076    568.06297  0.016733326  0.016269136            2 
 2830000   0.78933969   -8.2596867    569.43176   0.01676772  0.016263649            5 
 2831000   0.80788146   -8.2316968    568.54026  0.016735555  0.016258178            3 
 2832000   0.81351839   -8.2734738     567.9319  0.016711744  0.016252689            5 
 2833000   0.79477191   -8.2413335    569.56165  0.016753784   0.01624722            1 
 2834000   0.80948874   -8.2446812    568.99619  0.016731245  0.016241737            5 
 2835000   0.81369836   -8.2470485    568.43644   0.01670889  0.016236257            6 
 2836000   0.79283688   -8.2115954    568.92414  0.016717329  0.016230786            2 
 2837000   0.80764772   -8.2571024    567.19232  0.016660566  0.016225304            5 
 2838000   0.79445429   -8.2394039    569.39059  0.016719245  0.016219814            3 
 2839000   0.77454781   -8.2486758    569.62375  0.016720199  0.016214357            3 
 2840000   0.80731028   -8.2510149    567.98844  0.016666328  0.016208888            5 
 2841000   0.82230513   -8.2464626     569.6623  0.016709559  0.016203431            2 
 2842000   0.79568238   -8.2653172    570.30866  0.016722633  0.016197955            2 
 2843000   0.80766522   -8.2830916    568.01021  0.016649379   0.01619246            2 
 2844000   0.80025835    -8.297696    568.58435  0.016660348   0.01618693            3 
 2845000   0.79693397   -8.2812111    568.94562  0.016665074   0.01618141            6 
 2846000    0.7957174    -8.287678    569.16545  0.016665655  0.016175894            4 
 2847000      0.80457   -8.2647273    568.56068  0.016642099  0.016170393            2 
 2848000   0.77979554    -8.272697    569.32445  0.016658604  0.016164923            2 
 2849000   0.77865599   -8.2636302    569.80287  0.016666751  0.016159483            2 
 2850000   0.79119536   -8.2681036    568.98705  0.016637048  0.016154041            1 
 2851000   0.79707182   -8.2329294    569.63002  0.016650006  0.016148597            3 
 2852000   0.78928377   -8.2501781    570.36129  0.016665536  0.016143156            4 
 2853000   0.80053612   -8.2344028    568.84138  0.016615299  0.016137754            1 
 2854000   0.81357102   -8.2565809    568.81692  0.016608763  0.016132326            3 
 2855000   0.79251997   -8.2372065    569.76741  0.016630689  0.016126873            3 
 2856000   0.79653938   -8.2757564    568.58692  0.016590421  0.016121419            3 
 2857000   0.80083482   -8.2312545    571.16672  0.016659862  0.016115982            2 
 2858000   0.81305354   -8.2666922    569.42522  0.016603255  0.016110545            3 
 2859000   0.78600282   -8.2410078    569.58128  0.016601996   0.01610508            4 
 2860000    0.8071002   -8.2695733    569.15916  0.016583892  0.016099622            1 
 2861000   0.79215777   -8.2409975    569.29388  0.016582019  0.016094167            1 
 2862000   0.78127524   -8.2572889    570.07613  0.016599002  0.016088718            1 
 2863000   0.78654227   -8.2513088    568.83963  0.016557214  0.016083274            4 
 2864000   0.81428693   -8.2652343    568.87833  0.016552559  0.016077844            3 
 2865000   0.79652868   -8.2572895    569.36923  0.016561059  0.016072396            2 
 2866000   0.81181332   -8.2600188    569.35059  0.016554739  0.016066979            2 
 2867000   0.78962759   -8.2766069     569.0367  0.016539841  0.016061565            2 
 2868000   0.81065603   -8.2905357    568.64943  0.016522822  0.016056129            1 
 2869000   0.80121812   -8.2841915     568.1808  0.016503451  0.016050671            1 
 2870000   0.81116775   -8.2733508    570.31261    0.0165596  0.016045222            4 
 2871000   0.78989761   -8.2806784    569.95652  0.016543496  0.016039795            3 
 2872000   0.79279837   -8.2836416    569.30842   0.01651893  0.016034366            2 
 2873000   0.77487798   -8.2504504    570.67655  0.016552864  0.016028935            3 
 2874000   0.79128782   -8.2312688    569.10803  0.016501625  0.016023517            1 
 2875000   0.78634673   -8.2608467    569.77644  0.016515259  0.016018112            1 
 2876000   0.78922065   -8.2649443    569.61162  0.016504741  0.016012706            2 
 2877000   0.77168922   -8.2689432    569.86684  0.016506397  0.016007299            3 
 2878000   0.78864411   -8.2300089     570.1592  0.016509127  0.016001905            2 
 2879000   0.79938765   -8.2530228    568.47193  0.016454554  0.015996483            3 
 2880000   0.81559816   -8.2763587    569.67504  0.016483653  0.015991047            1 
 2881000   0.78276307   -8.2832356    569.12785  0.016462104  0.015985593            3 
 2882000   0.77608124   -8.2541309    570.14288  0.016485741  0.015980161            3 
 2883000    0.7751461   -8.2694426    571.15141  0.016509175  0.015974744            3 
 2884000   0.78833899    -8.275162    569.30927  0.016450222  0.015969322            2 
 2885000   0.79073449   -8.2522272    570.61367  0.016482197  0.015963895            5 
 2886000   0.77527461   -8.2709019    570.43681  0.016471379  0.015958485            3 
 2887000   0.78240545   -8.2644921    570.27828  0.016461098  0.015953074            2 
 2888000    0.7997039   -8.2815047    570.74171  0.016468771   0.01594765            5 
 2889000   0.79290146   -8.2853223    570.04953  0.016443104  0.015942221            2 
 2890000   0.79046193   -8.2489086     570.4296  0.016448374   0.01593681            1 
 2891000   0.78533404   -8.2596243    569.42655  0.016413771  0.015931391            3 
 2892000   0.80848152   -8.2971457    569.55736  0.016411865  0.015925959            3 
 2893000   0.78593492   -8.2567803    569.87617  0.016415375  0.015920528            3 
 2894000   0.78477674   -8.2482865    568.68998  0.016375546  0.015915101            1 
 2895000   0.79650804   -8.3150731    569.16405  0.016383536   0.01590967            2 
 2896000   0.78940762   -8.2790542    568.60653  0.016361836  0.015904205            3 
 2897000   0.77299964   -8.3176076    569.05445  0.016369073  0.015898735            3 
 2898000   0.78841281   -8.2750092    569.48478  0.016375799  0.015893275            4 
 2899000   0.81070403   -8.2691201    570.88127  0.016410293   0.01588785            2 
 2900000    0.7743933   -8.2847287    570.58817  0.016396212  0.015882426            6 
 2901000   0.78485962   -8.2699603    569.53201  0.016360221   0.01587701            3 
 2902000   0.79490486   -8.2697422    570.46503  0.016381376  0.015871611            2 
 2903000   0.79631821   -8.3110301    569.38027  0.016344594  0.015866207            4 
 2904000   0.80019753   -8.2545972    569.91041  0.016354178  0.015860807            3 
 2905000   0.79692233   -8.2734555    570.49601  0.016365347  0.015855404            3 
 2906000   0.78004863   -8.2748492    569.42569  0.016329023  0.015849993            2 
 2907000   0.78489004   -8.2801975    569.97419  0.016339129   0.01584456            3 
 2908000   0.78061346   -8.2843666    569.90184  0.016331437  0.015839162            3 
 2909000   0.79994069   -8.2888363    569.57238  0.016316385  0.015833759            3 
 2910000   0.79332109   -8.2949935     570.9064   0.01634898  0.015828356            3 
 2911000    0.8041167   -8.2856486    570.99257  0.016345831  0.015822972            3 
 2912000   0.79603514   -8.2557604    570.00752  0.016312028  0.015817573            5 
 2913000   0.79568557     -8.25316    570.73073  0.016327118  0.015812193            2 
 2914000   0.78727828   -8.2635711     571.5715  0.016345559  0.015806832            8 
 2915000   0.78172018   -8.2839038    571.14478  0.016327752  0.015801465            8 
 2916000   0.77774492   -8.2819382    569.98031  0.016288875  0.015796094            1 
 2917000    0.7724084   -8.2657933    569.80959  0.016278414  0.015790688            2 
 2918000   0.79014081   -8.2871438    571.98236  0.016334886  0.015785306            2 
 2919000   0.80233401    -8.287975    570.78131  0.016295002  0.015779938            3 
 2920000    0.7688543   -8.3013917    569.19654  0.016244193  0.015774533            5 
 2921000   0.78248793   -8.2890027    571.05294  0.016291594  0.015769128            2 
 2922000   0.77885711   -8.2830027    570.52478  0.016270955   0.01576373            1 
 2923000   0.78876935   -8.2695529    571.37241  0.016289554  0.015758369            3 
 2924000   0.77548872   -8.3031531    571.18253  0.016278572  0.015752978            2 
 2925000   0.78441421   -8.2990023    571.20963  0.016273779  0.015747586            4 
 2926000   0.78270971   -8.2867604    571.12874  0.016265913  0.015742231            3 
 2927000   0.76044176   -8.2842594    571.23866  0.016263485  0.015736881            2 
 2928000   0.77863508   -8.3056556    571.02745   0.01625192   0.01573152            2 
 2929000    0.7942264   -8.2982014    570.39235  0.016228302  0.015726148            3 
 2930000   0.78602267   -8.2950331    570.87357   0.01623645  0.015720776            5 
 2931000    0.7708918   -8.2889561    570.19601  0.016211646  0.015715417            1 
 2932000   0.79162716   -8.2687312    569.80815  0.016195093  0.015710043            2 
 2933000   0.77712137   -8.2641858     572.3115  0.016260697  0.015704678            2 
 2934000   0.78211047   -8.2922612    571.56987  0.016234091  0.015699322            2 
 2935000   0.76846461   -8.2838369    571.28776   0.01622055  0.015693987            2 
 2936000   0.80830049   -8.2658453     571.6117  0.016224219   0.01568866            1 
 2937000   0.78659945   -8.2922246    571.04296  0.016202558  0.015683311            2 
 2938000   0.78211651   -8.2947087    571.09994   0.01619866  0.015677942            1 
 2939000   0.79765817    -8.288751    571.20372   0.01619609  0.015672588            2 
 2940000   0.78676544   -8.2586271    572.25156  0.016220282  0.015667261            2 
 2941000   0.78364809   -8.2887975    571.87756   0.01620417  0.015661937            2 
 2942000   0.78466774   -8.2840223    571.12233   0.01617727  0.015656624            4 
 2943000   0.76290818   -8.2858719    570.75091  0.016161256  0.015651284            3 
 2944000   0.76996701    -8.299071    570.13059  0.016138207  0.015645942            3 
 2945000   0.79101691   -8.2475292    571.68165  0.016176617  0.015640621            2 
 2946000    0.7803856   -8.2878871    570.51218  0.016138045  0.015635293            3 
 2947000   0.78769717   -8.3138887    570.45457   0.01613094   0.01562996            3 
 2948000   0.77223245   -8.2874692    572.79444  0.016191611  0.015624633            4 
 2949000   0.77877316   -8.3089152    570.67314  0.016126177  0.015619296            2 
 2950000   0.77797848   -8.3039347    571.12189  0.016133387  0.015613965            2 
 2951000    0.7969001   -8.2906248    571.30807  0.016133177  0.015608621            3 
 2952000   0.76858959   -8.2959983    571.67216   0.01613799  0.015603279            1 
 2953000   0.76606191   -8.2532383    572.56349  0.016157678  0.015597959            1 
 2954000   0.79391261   -8.2984556    570.82449  0.016103151  0.015592633            2 
 2955000    0.7789201    -8.303159    571.65609  0.016121153  0.015587303            1 
 2956000   0.77283096   -8.3207209    571.56887  0.016113241  0.015581986            3 
 2957000   0.75141481   -8.3151093    572.18864  0.016125257  0.015576648            1 
 2958000   0.77764843   -8.2938222    571.89857  0.016111634  0.015571334            8 
 2959000   0.76963328   -8.2712903    572.72417   0.01612944  0.015566021            3 
 2960000   0.79836106   -8.3357866    572.37392  0.016114131  0.015560721            5 
 2961000   0.79953086   -8.3096841    572.88962  0.016123202  0.015555411           10 
 2962000   0.78064347   -8.2941112    573.19175  0.016126259  0.015550106            4 
 2963000    0.7645788   -8.3057374    571.16473  0.016063807   0.01554478            1 
 2964000    0.7770808   -8.2942879     571.2706  0.016061364  0.015539478            2 
 2965000   0.77110643   -8.3082075    571.38855  0.016059262   0.01553417            1 
 2966000    0.7895643   -8.3090067    572.56349  0.016086859  0.015528857            4 
 2967000   0.77418385   -8.3017358    571.50765  0.016051782  0.015523534            2 
 2968000   0.76505732   -8.3288418    570.36781   0.01601437  0.015518182            3 
 2969000   0.78358613   -8.3314342    571.55078   0.01604218  0.015512843            2 
 2970000   0.79124943   -8.2928539     570.9077  0.016018735  0.015507512            2 
 2971000   0.76545758   -8.2922059    572.04501  0.016045243  0.015502214            2 
 2972000   0.75957871    -8.306971    571.31397  0.016019346  0.015496926            3 
 2973000   0.79524667   -8.3026196    571.89694  0.016030299  0.015491643            2 
 2974000   0.80266422   -8.3133004     572.2612  0.016035116  0.015486356            4 
 2975000   0.77755921   -8.3121491    572.35088  0.016032238  0.015481092            3 
 2976000   0.78009477   -8.3108743    570.88282  0.015985742   0.01547583            3 
 2977000   0.77067302    -8.293181    572.73024  0.016032086  0.015470542            2 
 2978000   0.77393973   -8.3068649    573.08798  0.016036713  0.015465263            5 
 2979000   0.77309247   -8.2946283    573.76296  0.016050212  0.015460012            3 
 2980000   0.79076009   -8.3433466    572.27614  0.016003248  0.015454742            4 
 2981000   0.77977275   -8.3120533    573.04527   0.01601938   0.01544947            3 
 2982000   0.76589692   -8.3009348    572.32524  0.015993887  0.015444209            5 
 2983000     0.770994   -8.3276768    572.45949  0.015992275  0.015438941            4 
 2984000   0.77438045   -8.3308544    571.67557  0.015965024  0.015433646            2 
 2985000   0.77472382   -8.3520669    571.93064  0.015966796  0.015428327            2 
 2986000   0.77461475   -8.3163815    572.85153  0.015987149  0.015423025            2 
 2987000   0.77079527   -8.3290976    571.97307  0.015957289  0.015417724            3 
 2988000   0.76819229   -8.3176795    571.64975  0.015942931  0.015412422            1 
 2989000   0.77034561    -8.332511    572.96765  0.015974341   0.01540711            1 
 2990000   0.76100209   -8.3460436    571.91934  0.015939781  0.015401818            3 
 2991000   0.77462713   -8.3170078    572.46057  0.015949531  0.015396532            1 
 2992000   0.76537689   -8.3259606    572.68242  0.015950379  0.015391254            3 
 2993000   0.77036434   -8.3499733    572.02508  0.015926748  0.015385951            3 
 2994000    0.7788871   -8.3281239    573.55583  0.015964034   0.01538066            4 
 2995000   0.76913237   -8.3665611    572.14059  0.015919326  0.015375402            4 
 2996000   0.76833653   -8.3135546    572.26011  0.015917337  0.015370125            3 
 2997000   0.76658663    -8.350695    572.28761  0.015912791  0.015364847            2 
 2998000   0.79159822   -8.3521559    571.66007   0.01589004  0.015359554            2 
 2999000   0.77398505   -8.3589744    570.52604   0.01585323  0.015354254            1 
 3000000   0.76655875   -8.3169627    571.16314  0.015865643  0.015348958            2 
 3001000   0.77670529   -8.3285233    572.31123  0.015892237  0.015343665            2 
 3002000   0.77659642   -8.3463513    571.89983  0.015875523  0.015338392            3 
 3003000   0.76009366    -8.317403    573.38863   0.01591155  0.015333132            1 
 3004000   0.76902955   -8.3465222    573.15658  0.015899816   0.01532787            2 
 3005000   0.77148402   -8.3358245    571.94039  0.015860798  0.015322599            4 
 3006000   0.77522884   -8.3831179    572.05681  0.015858749  0.015317325            3 
 3007000   0.75927311   -8.3224318    572.93103  0.015877703  0.015312054            4 
 3008000   0.78752048   -8.3542848    572.38037  0.015857169  0.015306791            2 
 3009000   0.77253564   -8.3680667    573.18199    0.0158741  0.015301533            2 
 3010000   0.77048087   -8.3482673    573.29334  0.015871909  0.015296281            4 
 3011000   0.76733148   -8.3524155    573.69395  0.015877725  0.015291031            2 
 3012000   0.77779961   -8.3330686    572.17131  0.015830326  0.015285776            2 
 3013000   0.78224837   -8.3404482    572.82859  0.015843251  0.015280539            4 
 3014000   0.77812592   -8.3115763    573.37167   0.01585301  0.015275308            2 
 3015000   0.77654398   -8.3274315    574.50877  0.015879181  0.015270078            3 
 3016000   0.76284624   -8.3177398     572.6335  0.015822102  0.015264852            2 
 3017000   0.78766923   -8.3349773    572.95148   0.01582564  0.015259611            3 
 3018000     0.770245   -8.3468032    572.61744  0.015811173  0.015254373            5 
 3019000   0.79327529   -8.3225752    572.94013  0.015814843  0.015249132            3 
 3020000   0.75881891   -8.3344692    572.45409  0.015796195  0.015243902            2 
 3021000   0.77216031   -8.3212928    574.71508  0.015853334  0.015238698            4 
 3022000   0.75559636   -8.3223795    572.48767  0.015786666  0.015233491            5 
 3023000   0.76542438   -8.3228183    573.13948  0.015799412  0.015228291            2 
 3024000   0.75732326   -8.2879883    572.75478  0.015783586  0.015223068            3 
 3025000   0.77926479   -8.3294523     575.5546  0.015855499  0.015217863            2 
 3026000   0.77092312   -8.3537556    573.12511  0.015783353  0.015212654            3 
 3027000   0.77114104   -8.3234192    572.61375  0.015764061  0.015207441            3 
 3028000   0.78640477   -8.3382084    572.73393  0.015762162  0.015202225            2 
 3029000   0.75831554   -8.3485407    572.80681  0.015758964  0.015196996            4 
 3030000    0.7723941   -8.3271959    572.34766  0.015741135  0.015191779            2 
 3031000   0.75448233   -8.3400081    572.50235  0.015740194  0.015186572            2 
 3032000   0.76301891   -8.3140575    573.38461  0.015759252  0.015181352            2 
 3033000   0.76366855   -8.3331617    573.46344  0.015756222  0.015176121            3 
 3034000   0.74996292   -8.3029906    572.25148   0.01571774  0.015170905            6 
 3035000   0.75698304   -8.3499596     571.7867    0.0156998  0.015165676            1 
 3036000   0.77447299   -8.3421703    572.88828  0.015724865  0.015160451            1 
 3037000   0.76687216   -8.3412527    574.89465  0.015774741  0.015155251            1 
 3038000   0.77107544   -8.3382794    573.19372  0.015722891  0.015150043            2 
 3039000   0.76483676   -8.3325566    573.30395   0.01572074  0.015144843            1 
 3040000   0.78379883   -8.3023836    573.85837  0.015730767  0.015139646            3 
 3041000   0.74805411   -8.3389843    573.55052  0.015717158  0.015134451            4 
 3042000   0.77188269    -8.357447    572.88595  0.015693785  0.015129246            3 
 3043000   0.76663775   -8.3084589    574.50055  0.015732844  0.015124054            3 
 3044000     0.774001   -8.3175343    573.83078   0.01570934  0.015118848            3 
 3045000   0.76536625   -8.3295104    573.12685  0.015684917  0.015113638            6 
 3046000   0.75277081   -8.3481782    573.17372   0.01568105  0.015108423            4 
 3047000    0.7483948   -8.3324836    573.12018  0.015674439  0.015103209            3 
 3048000   0.76443937   -8.3364923     574.6772  0.015711866  0.015097998            5 
 3049000   0.77368141   -8.3549354    573.65523  0.015678781  0.015092799            5 
 3050000   0.77410598   -8.3348364    574.06169  0.015684746  0.015087597            5 
 3051000   0.75122381   -8.3565009    574.10326   0.01568074  0.015082405            6 
 3052000   0.77471212   -8.3706114    573.97681   0.01567215  0.015077204            2 
 3053000   0.76770378   -8.3387586    573.14671  0.015644358  0.015071995            3 
 3054000   0.77068134   -8.3343662    573.65822  0.015653193    0.0150668            2 
 3055000   0.75795449   -8.3367407    573.85855  0.015653534  0.015061612            2 
 3056000   0.77123733   -8.3634278    573.58507  0.015640954  0.015056386            3 
 3057000    0.7496665   -8.3540115    574.10424   0.01564999  0.015051179            2 
 3058000    0.7672819   -8.3482731       573.29  0.015622684  0.015045998            3 
 3059000   0.75538248   -8.3586552    575.33013  0.015673154  0.015040813            4 
 3060000    0.7588004   -8.3644993    573.52822   0.01561896  0.015035652            4 
 3061000   0.75527488   -8.3295021    574.76035  0.015647401  0.015030492            4 
 3062000   0.76609192    -8.338581    573.05589  0.015595904  0.015025316            3 
 3063000   0.77697704    -8.320555    573.79588  0.015610945  0.015020153            2 
 3064000    0.7709815   -8.3513159    572.84992  0.015580122  0.015014974            3 
 3065000    0.7664609   -8.3760412    572.22643  0.015558087  0.015009775            2 
 3066000   0.76661043   -8.3695396    572.30635  0.015555184  0.015004575            8 
 3067000   0.76761236   -8.3495906     574.4421  0.015608143   0.01499937            2 
 3068000   0.75234191   -8.3501138    573.72764  0.015583649  0.014994184            2 
 3069000   0.77804973   -8.3514284    572.26233  0.015538784  0.014988994            2 
 3070000    0.7632436   -8.3505805    573.78786  0.015575132  0.014983808            3 
 3071000   0.75119939   -8.3104207    574.27199  0.015583197  0.014978641            1 
 3072000   0.75704101   -8.3230264    575.22867  0.015604076  0.014973469            3 
 3073000   0.76692183   -8.3314027    573.86481  0.015562014  0.014968297            4 
 3074000   0.74821995   -8.3511612    573.10825  0.015536441  0.014963119            2 
 3075000    0.7836994   -8.3486258    573.88806  0.015552522  0.014957947            3 
 3076000   0.77802595     -8.35979    573.12074  0.015526678  0.014952789            5 
 3077000   0.76610276   -8.3319121    573.55838  0.015533485   0.01494762            2 
 3078000   0.75356174   -8.3584933    574.68297  0.015558885  0.014942457            2 
 3079000   0.75800223   -8.3720344    572.80356  0.015502965  0.014937269            1 
 3080000   0.74718686   -8.3586832    572.19117  0.015481363  0.014932092            4 
 3081000   0.75454295   -8.3658913    573.50886  0.015511978  0.014926926            2 
 3082000   0.77471315   -8.3755337      573.676  0.015511465  0.014921733            3 
 3083000   0.75356236   -8.3621338    573.29893  0.015496241  0.014916557            2 
 3084000   0.75313626   -8.3848855    573.42278  0.015494563  0.014911377            1 
 3085000   0.79330903    -8.366837    574.22847  0.015511304  0.014906199            3 
 3086000   0.75711271   -8.3633224    573.37408  0.015483206  0.014901031            2 
 3087000   0.77358903   -8.3481774    574.60651   0.01551146  0.014895869            3 
 3088000   0.74547566   -8.3470782     574.7423  0.015510101  0.014890706            2 
 3089000   0.77613749    -8.356796     573.1619  0.015462445   0.01488554            2 
 3090000   0.75841387   -8.3576969    573.90278  0.015477421  0.014880383            2 
 3091000   0.74831431   -8.3846754     573.7844  0.015469222  0.014875228            6 
 3092000   0.75583756   -8.3432504    573.40585  0.015454017   0.01487008            5 
 3093000   0.77066408   -8.3661834    574.63864  0.015482235  0.014864933            3 
 3094000   0.73918254   -8.3559298    573.88678  0.015456981  0.014859792            1 
 3095000    0.7425508   -8.3806932    572.47097  0.015413866  0.014854641            2 
 3096000   0.77122663   -8.3626962    574.56806  0.015465333  0.014849493            2 
 3097000   0.76804217   -8.3477927    575.10118  0.015474685  0.014844364            3 
 3098000   0.73461244   -8.3593409    573.91251  0.015437715  0.014839237            3 
 3099000   0.74100377   -8.3619263    573.63103  0.015425165  0.014834092            4 
 3100000   0.75563844   -8.3846571    574.36406  0.015439894  0.014828945            3 
 3101000   0.75717401   -8.3732158    574.18042   0.01542998  0.014823797            7 
 3102000     0.765628   -8.3750783    573.79259  0.015414587  0.014818661            3 
 3103000   0.76674011   -8.3459113    573.74018  0.015408212  0.014813529            2 
 3104000   0.74873079   -8.3720691     572.1334  0.015360111  0.014808373            3 
 3105000   0.75663065   -8.3927335    572.89951  0.015375725  0.014803227            2 
 3106000   0.75161737   -8.3738848    572.99115  0.015373233  0.014798077            2 
 3107000   0.73692705   -8.3646625    574.57216   0.01541069  0.014792944            4 
 3108000   0.76072283    -8.369263    574.14631  0.015394313  0.014787804            2 
 3109000   0.74994616   -8.3780561    574.50407  0.015398951  0.014782667            4 
 3110000   0.74643167   -8.3716412    574.40764  0.015391416  0.014777543            6 
 3111000   0.74641361   -8.3611325    574.86798  0.015398799  0.014772439            4 
 3112000   0.75021969   -8.3577467    573.64025  0.015360975  0.014767327            4 
 3113000   0.75006207   -8.3656877    573.92133  0.015363565  0.014762215            4 
 3114000   0.75892223   -8.3447377    574.46207  0.015373102  0.014757091            1 
 3115000   0.75605358   -8.3500006    574.00737  0.015356003  0.014751968            5 
 3116000   0.75310227    -8.368855     573.5593  0.015339091  0.014746833            2 
 3117000   0.75497703   -8.3862264    575.56942  0.015387911  0.014741692            2 
 3118000   0.73874489   -8.3985191    574.37618  0.015351085  0.014736545            1 
 3119000   0.76503997   -8.4049232    573.55358  0.015324184    0.0147314            6 
 3120000   0.75807685   -8.4002565    573.33112  0.015313331  0.014726253            2 
 3121000   0.75835216   -8.3907156    574.43663  0.015337943  0.014721106           11 
 3122000   0.74979054   -8.3771255    575.61893  0.015364588  0.014715997            3 
 3123000   0.76250315   -8.3649753    575.08258  0.015345357  0.014710888            3 
 3124000   0.74296969   -8.3637273    574.42092  0.015322795  0.014705767            3 
 3125000   0.74583144    -8.376384    573.80013  0.015301337  0.014700651            4 
 3126000   0.74024455   -8.3586726     573.8677  0.015298243  0.014695543            5 
 3127000   0.74896272   -8.3613648    574.97594  0.015322885  0.014690437            3 
 3128000   0.74202625   -8.3845094     573.2715  0.015272578   0.01468532            4 
 3129000   0.77131661   -8.3678428    573.91245  0.015284767  0.014680196            5 
 3130000   0.74412853   -8.3525099    575.32062  0.015317375  0.014675089            2 
 3131000   0.75090178    -8.363364    573.85655  0.015273516  0.014669996            2 
 3132000   0.74923794    -8.347132    574.76169  0.015292723  0.014664898            1 
 3133000   0.75073585   -8.3555631    573.99408  0.015267424  0.014659809            2 
 3134000   0.76147488   -8.3724018    574.47761   0.01527541  0.014654741            8 
 3135000   0.74659042   -8.3728593    574.25647  0.015264659  0.014649665            5 
 3136000   0.75316123   -8.3782879    574.36294  0.015262621  0.014644568            1 
 3137000   0.75333777   -8.3619572    573.87413   0.01524477  0.014639464            1 
 3138000   0.74430415   -8.3698667     575.1629  0.015274137   0.01463437            1 
 3139000   0.74331419   -8.4029277     574.9236  0.015262918  0.014629274            1 
 3140000   0.74536354   -8.3705183    576.60959  0.015302802  0.014624189            2 
 3141000   0.74373421   -8.3871613    574.62341  0.015245235  0.014619116            1 
 3142000    0.7469104   -8.3798902    575.65705  0.015267798   0.01461406            3 
 3143000   0.75843483   -8.3679036     575.3056  0.015253622  0.014608994            1 
 3144000   0.76145967   -8.3588638     574.6345  0.015230982  0.014603929            3 
 3145000   0.75710897   -8.3724017    574.15057  0.015213317  0.014598841            2 
 3146000   0.74274081   -8.4081348    573.85344   0.01520061  0.014593749            5 
 3147000   0.75519916   -8.4146646    573.55833  0.015187966  0.014588655            2 
 3148000   0.73389021   -8.3996295    573.62032  0.015184782  0.014583563            3 
 3149000   0.76671901   -8.3758492    574.70863   0.01520876  0.014578489            2 
 3150000   0.74426322   -8.3855323    575.24787  0.015218198    0.0145734            1 
 3151000   0.74476164   -8.3985341    574.21877  0.015186152  0.014568321            5 
 3152000   0.74056599   -8.3988789    574.78646  0.015196343  0.014563217            3 
 3153000   0.74673529   -8.3837793    574.53155  0.015184786  0.014558111            2 
 3154000   0.74493388   -8.3874694    574.17511  0.015170554  0.014553004            3 
 3155000   0.74267687   -8.4098361    573.89418  0.015158325  0.014547897            2 
 3156000   0.74497503   -8.3919713    573.30904  0.015138071  0.014542795            4 
 3157000    0.7478078   -8.3801687    575.01009  0.015178178  0.014537698            2 
 3158000   0.74845888   -8.4217793    573.83343  0.015142322  0.014532592            2 
 3159000   0.74759242   -8.4091475    574.22909  0.015147966  0.014527491            2 
 3160000   0.75672147   -8.3884987    574.32054  0.015145584  0.014522411            3 
 3161000   0.73658773   -8.4017755    572.70642  0.015098239  0.014517335            5 
 3162000    0.7567662   -8.4139659    573.99134  0.015127328  0.014512248            3 
 3163000   0.73559585   -8.3813324    574.51888  0.015136444  0.014507168            3 
 3164000   0.73903795   -8.4059345    573.93585  0.015116305  0.014502092            4 
 3165000   0.73875535   -8.4026218     574.8862  0.015136551  0.014496998            3 
 3166000   0.75002831   -8.4311768    575.02815  0.015135506  0.014491925            4 
 3167000   0.74255488    -8.371958    575.11516  0.015133016  0.014486876            2 
 3168000   0.74189269    -8.415967    573.34922  0.015081787  0.014481816            2 
 3169000   0.74040996   -8.4158936    574.52278  0.015107888  0.014476762            5 
 3170000   0.73257135   -8.4089179    574.73427  0.015108682  0.014471714            2 
 3171000   0.74231019   -8.4006199    574.74429  0.015104181  0.014466649            2 
 3172000   0.74084418   -8.3853191    574.17899  0.015084568  0.014461588            2 
 3173000   0.72683783   -8.4170158     573.9067  0.015072663  0.014456529           12 
 3174000   0.72188011   -8.3934423    574.25909  0.015077166  0.014451472            3 
 3175000   0.74296686   -8.3933659    575.06085  0.015093461   0.01444643            1 
 3176000   0.75048551   -8.4197348      574.946  0.015085695  0.014441382            3 
 3177000   0.75888787   -8.3905711    575.38023  0.015092336  0.014436332            3 
 3178000   0.73437058    -8.393185    574.40089  0.015061907  0.014431301            2 
 3179000   0.73888559   -8.4229205    573.56927  0.015035369  0.014426251            2 
 3180000   0.73479201   -8.3898261    575.45215  0.015079983  0.014421212            3 
 3181000   0.73677862   -8.4091878    575.52929  0.015077263  0.014416162            4 
 3182000   0.73640061   -8.3998168    574.89051  0.015055796  0.014411112            2 
 3183000   0.73542853   -8.4158734    575.14953  0.015057847  0.014406079            4 
 3184000   0.73562614   -8.4090458    574.19555   0.01502815  0.014401047            3 
 3185000   0.73857902   -8.4380844    574.00864  0.015018541  0.014396005            2 
 3186000   0.74247128   -8.4154002    573.89136  0.015010759  0.014390961            3 
 3187000   0.73188313   -8.3963008    575.04854  0.015036307  0.014385912            2 
 3188000   0.73819079   -8.3999836    575.54559  0.015044584  0.014380864            3 
 3189000   0.74342065   -8.4335364    576.56313  0.015066456  0.014375832            2 
 3190000   0.72927616    -8.404254    574.93679  0.015019247  0.014370797            1 
 3191000   0.74544603   -8.3876644    575.73634  0.015035421  0.014365784            4 
 3192000   0.72941357   -8.4050231    575.16111  0.015015693  0.014360779            4 
 3193000   0.73479345   -8.3815165     574.9977  0.015006726   0.01435578            2 
 3194000   0.72936933    -8.385508    575.16063  0.015006278  0.014350779            3 
 3195000   0.74943397   -8.4062619    574.31616  0.014979556   0.01434579            3 
 3196000   0.74558156    -8.376467    575.85034  0.015014871  0.014340786            3 
 3197000    0.7416969   -8.4038894    574.91901  0.014985899   0.01433576            3 
 3198000   0.73132711   -8.4446943     574.2842  0.014964671  0.014330724            5 
 3199000   0.74115742   -8.3924849    576.25344  0.015011291  0.014325694            2 
 3200000   0.73772674    -8.407224    575.31412  0.014982139  0.014320678            3 
 3201000   0.73950104   -8.3925829    574.86843  0.014965855  0.014315658            3 
 3202000   0.75531841   -8.4033057    573.86166   0.01493498  0.014310633            2 
 3203000   0.73933436   -8.3893414    575.07846  0.014961975  0.014305611            3 
 3204000    0.7413968   -8.4146103    574.24472   0.01493562  0.014300599            3 
 3205000   0.75030772   -8.4056347    575.53881  0.014964608  0.014295576            3 
 3206000   0.74615358   -8.4095884    576.05333  0.014973314  0.014290565            2 
 3207000   0.73714563    -8.405298    573.67629  0.014906878  0.014285549            2 
 3208000   0.72471551   -8.4341274    574.20937  0.014916079  0.014280527            3 
 3209000   0.72815245   -8.4013111    573.90913  0.014903634  0.014275496            2 
 3210000     0.758759    -8.419664     575.1733  0.014931809  0.014270478            2 
 3211000   0.72420142   -8.4309818    575.36906   0.01493224  0.014265466            3 
 3212000   0.73333244    -8.407908    574.64882  0.014908905  0.014260448            4 
 3213000    0.7365448   -8.4172712    575.57055  0.014928171  0.014255436            2 
 3214000   0.72158219   -8.3987889    575.59917  0.014924268   0.01425043            2 
 3215000   0.72173676   -8.3949135    574.63723  0.014894692  0.014245444            3 
 3216000   0.74303259    -8.410503    574.80623   0.01489444  0.014240461            3 
 3217000   0.74246174   -8.4157061    574.73275  0.014887907  0.014235457            5 
 3218000   0.74201626   -8.4264227      574.356  0.014873524  0.014230442            5 
 3219000   0.76662828   -8.4042531    575.04405  0.014886715  0.014225448            1 
 3220000   0.73031414   -8.3940683    575.79144  0.014901435  0.014220458            5 
 3221000   0.74930804   -8.4224055    575.25429  0.014882911  0.014215466            2 
 3222000   0.73471373   -8.4009104    575.05419  0.014873117  0.014210463            4 
 3223000   0.73130958   -8.3911022    574.18673  0.014846073  0.014205469            5 
 3224000   0.73268904   -8.3964264     576.0668  0.014890064  0.014200484            2 
 3225000   0.72322336   -8.4029371    574.21234  0.014837528  0.014195494            3 
 3226000    0.7284964   -8.4327199    575.14091  0.014856916  0.014190507            2 
 3227000   0.73112676   -8.3910777     575.0872  0.014850925  0.014185533            1 
 3228000   0.73634434   -8.3907873    575.69854  0.014862106  0.014180563            4 
 3229000   0.74603873   -8.3995515    575.47379  0.014851703    0.0141756            3 
 3230000   0.72365094   -8.3972172    575.54222  0.014848871  0.014170643            2 
 3231000   0.73005616   -8.3880602    575.65949  0.014847299   0.01416568            2 
 3232000   0.74107026   -8.4133519    575.50106  0.014838621  0.014160696            2 
 3233000   0.74177468   -8.4115176    575.55523  0.014835427  0.014155727            2 
 3234000   0.74548112   -8.4093637    575.04228  0.014817622  0.014150746            4 
 3235000   0.75330224   -8.3987943    575.08543  0.014814153  0.014145766            2 
 3236000   0.72987604   -8.3874598    575.39113  0.014817448  0.014140804            2 
 3237000   0.74467318   -8.4047005    576.22103  0.014834235  0.014135856            2 
 3238000   0.75384105   -8.3845776    575.87718  0.014820805  0.014130915            4 
 3239000   0.74300936   -8.4141491    575.06835  0.014795419  0.014125975            2 
 3240000   0.72914527   -8.3860231    575.18394  0.014793826  0.014121027            2 
 3241000   0.73490537   -8.4176973    574.26406  0.014765609  0.014116084            5 
 3242000   0.74259126   -8.3915439    577.15575  0.014835383  0.014111135            4 
 3243000   0.72503176   -8.4011932    575.20787  0.014780755  0.014106189            5 
 3244000   0.73682385   -8.4387373    575.29147  0.014778347  0.014101241            5 
 3245000   0.72888418    -8.412685    575.16426  0.014770525  0.014096295            1 
 3246000   0.73757516   -8.4519774    576.00872  0.014787654   0.01409136            4 
 3247000   0.74333743   -8.4500139     575.6271  0.014773306  0.014086417            4 
 3248000   0.71296472   -8.4324559    575.66421   0.01476971  0.014081457            6 
 3249000   0.74396691   -8.4243783    575.95683  0.014772669  0.014076524            2 
 3250000   0.75477789    -8.421473    574.53098  0.014731564  0.014071588            5 
 3251000   0.74932724   -8.4319424     574.5824   0.01472835  0.014066654            4 
 3252000   0.74072302   -8.4090016    576.15146  0.014764029  0.014061722            2 
 3253000   0.73643202   -8.4372337    575.74653  0.014749117  0.014056794            1 
 3254000   0.72164584   -8.4264711    577.01914  0.014777175  0.014051884            2 
 3255000   0.71803637    -8.423538    576.99933  0.014772128   0.01404698            4 
 3256000   0.73453612   -8.4426913    573.93908  0.014689268  0.014042059            4 
 3257000   0.72646442   -8.4280922    575.40909   0.01472237  0.014037136            2 
 3258000    0.7263444   -8.4536866    575.42591  0.014718281  0.014032215            2 
 3259000   0.72597348   -8.4312265    575.57754  0.014717642  0.014027299            4 
 3260000   0.71552404   -8.4250743    575.51927  0.014711638  0.014022384            1 
 3261000   0.73849856    -8.434456    574.93636   0.01469223  0.014017489            3 
 3262000   0.72540344   -8.4374658    574.98617  0.014688999  0.014012581            3 
 3263000   0.72973755    -8.395884    576.58072   0.01472522  0.014007679            3 
 3264000   0.74035041    -8.457036    576.25854  0.014712483  0.014002784            1 
 3265000   0.72228484   -8.4409283    576.33678  0.014709974  0.013997884            2 
 3266000   0.72693021   -8.4623225    575.13644  0.014674843  0.013992973            3 
 3267000   0.72491461   -8.4610504    574.52992   0.01465488  0.013988066            6 
 3268000   0.72690312    -8.417785    575.07349  0.014664257  0.013983155            5 
 3269000   0.75354164   -8.4638533    575.76908  0.014677503  0.013978239            2 
 3270000    0.7250536   -8.4576101    575.56051  0.014667699  0.013973315            4 
 3271000   0.72756412    -8.456114    575.54042  0.014662703  0.013968398            3 
 3272000   0.74262778   -8.4579114    575.68991  0.014662029  0.013963477            8 
 3273000   0.72887074   -8.4462643    574.95486  0.014638834  0.013958549            5 
 3274000   0.71849451   -8.4405637    575.88843  0.014658125  0.013953637            3 
 3275000   0.74159975   -8.4609174    574.05957  0.014607114  0.013948713            4 
 3276000   0.74009811   -8.4249217    576.58384  0.014666866   0.01394381            8 
 3277000    0.7263715     -8.45837    576.33405  0.014656038  0.013938882            1 
 3278000   0.71896429   -8.4488082    574.47826  0.014604389  0.013933952            1 
 3279000   0.71399637   -8.4538603    574.80863  0.014608332  0.013929047            1 
 3280000   0.73034006   -8.4340067    573.25848  0.014564494  0.013924119            3 
 3281000   0.73435411   -8.4499555    574.89428  0.014601602  0.013919203            1 
 3282000    0.7256952   -8.4345303    575.45653  0.014611429  0.013914284            7 
 3283000   0.72915791    -8.467944    574.60408  0.014585341  0.013909361            3 
 3284000   0.73255576   -8.4381911    574.56236  0.014579841  0.013904427            4 
 3285000   0.71972248   -8.4488146    575.23245  0.014592401  0.013899495            6 
 3286000   0.71468995   -8.4367612    575.11365  0.014584948  0.013894559           10 
 3287000   0.71710645   -8.4431697    575.41565  0.014588167  0.013889614            5 
 3288000   0.71622948   -8.4689481    574.77955  0.014567608  0.013884672            4 
 3289000   0.72005833   -8.4825022    574.23702  0.014549433  0.013879729            5 
 3290000   0.73365177   -8.4612654    574.36021  0.014548131  0.013874798            1 
 3291000   0.70811565   -8.4712227    574.46131   0.01454627  0.013869868            6 
 3292000   0.72749833    -8.444134    575.21202  0.014560855  0.013864944            2 
 3293000   0.73728454   -8.4591182    575.00825  0.014551277   0.01386003            1 
 3294000   0.73019658   -8.4611116    574.52076  0.014534527    0.0138551            2 
 3295000   0.72542051   -8.4544455    575.02526  0.014542875  0.013850168            2 
 3296000   0.73129658   -8.4838927    575.35372  0.014546767  0.013845248            3 
 3297000   0.71809794   -8.4737262    574.24634  0.014514365  0.013840323            3 
 3298000   0.73803164   -8.4561405    575.76263  0.014548277  0.013835403            3 
 3299000   0.72793296   -8.4776163    573.48377  0.014486303   0.01383049            4 
 3300000   0.71305342   -8.4465836    574.21303  0.014500329  0.013825589            2 
 3301000   0.70829029   -8.4536224    574.58647  0.014505364  0.013820682            3 
 3302000   0.73160351   -8.4773607    575.11263   0.01451425  0.013815762            6 
 3303000    0.7278401   -8.4659523    574.50189  0.014494447  0.013810842            2 
 3304000   0.71463951   -8.4603123    575.40098  0.014512736   0.01380593            5 
 3305000   0.70658081   -8.4793883    573.85963  0.014469481  0.013801005            5 
 3306000   0.73396521   -8.4824968    574.80549  0.014488947   0.01379609            5 
 3307000   0.73120576   -8.4687581    574.43339  0.014475189  0.013791178            5 
 3308000   0.74705751   -8.4651473    573.83039  0.014455623  0.013786277            5 
 3309000   0.73106027   -8.4593304    575.16147  0.014484776  0.013781374            2 
 3310000   0.73159198   -8.4577392    575.47546  0.014488305  0.013776487            4 
 3311000   0.72744191   -8.4661166    574.08163  0.014448848  0.013771603            2 
 3312000   0.72740713   -8.4817824    574.89748  0.014465013  0.013766715            5 
 3313000   0.71990271   -8.4571388    575.70928  0.014481066  0.013761837            4 
 3314000   0.72532853   -8.4405962    575.53358  0.014472279  0.013756961            2 
 3315000   0.71483092   -8.4408928    575.87741  0.014476556  0.013752091            2 
 3316000   0.72710837   -8.4784845    574.68048  0.014442111  0.013747204            3 
 3317000   0.72865721   -8.4422005    574.72309  0.014438827  0.013742326            2 
 3318000   0.71718586   -8.4636053    576.42611  0.014477248  0.013737468            1 
 3319000   0.71134472   -8.4874189     575.2457  0.014443248  0.013732598            1 
 3320000     0.707236   -8.4496687    575.11294  0.014435566  0.013727728            2 
 3321000   0.71771257   -8.4831894    574.42571  0.014413974  0.013722851            4 
 3322000   0.72753963   -8.4950067    574.22792  0.014404674  0.013717963            1 
 3323000   0.72444963   -8.4834838    575.25045  0.014425982  0.013713093            2 
 3324000   0.71618296   -8.4916834     574.2013   0.01439534  0.013708234            3 
 3325000   0.73730052   -8.4800291    575.27256  0.014417859   0.01370337            4 
 3326000   0.71979908   -8.4516364    576.35931  0.014440752  0.013698507            5 
 3327000   0.73341575    -8.455478    574.58014  0.014391848  0.013693659            3 
 3328000   0.72445294   -8.4648746     575.7448  0.014416687  0.013688799            2 
 3329000   0.71193577   -8.4840769    574.87027  0.014390464  0.013683948            3 
 3330000    0.7201296   -8.4666485    574.14715  0.014368047  0.013679102            3 
 3331000   0.72284811   -8.4568499    574.66918  0.014376793  0.013674269            2 
 3332000   0.70536504   -8.4650422    574.11778  0.014358688  0.013669423            4 
 3333000   0.71181541    -8.488065    574.90765  0.014374129  0.013664565            3 
 3334000    0.7191083   -8.4485182    576.12686  0.014400291  0.013659724            3 
 3335000   0.69743814   -8.4919681    575.97857  0.014392268  0.013654883            3 
 3336000   0.71458673   -8.5012879    575.11712  0.014366435  0.013650039            3 
 3337000   0.72102356   -8.4723694    575.60206   0.01437424  0.013645191            2 
 3338000   0.71370303   -8.4740249    575.18688  0.014359569  0.013640352            2 
 3339000   0.72180595   -8.4989358    575.59743  0.014365514  0.013635499            4 
 3340000   0.71681173   -8.4854028    575.64122  0.014362306  0.013630658            4 
 3341000   0.71904749   -8.4463209    575.86477  0.014363583  0.013625836            2 
 3342000   0.72101492   -8.4792775    575.50799  0.014350389  0.013621011            3 
 3343000   0.73188733   -8.4986396    574.10223  0.014311054  0.013616183            2 
 3344000   0.69145836   -8.4861736    575.70444  0.014346702  0.013611338            9 
 3345000   0.71783147   -8.4713805    575.22814  0.014330547  0.013606493            3 
 3346000   0.73040914   -8.4852109    574.24817  0.014301857  0.013601652            5 
 3347000    0.7095414   -8.4773741    574.28145  0.014298413  0.013596809            5 
 3348000   0.70930341   -8.4894793    575.38941   0.01432172  0.013591985            3 
 3349000    0.7138273   -8.4696606    575.58144  0.014322222  0.013587157            4 
 3350000   0.72269827   -8.4790603    575.23312  0.014309282  0.013582331            2 
 3351000   0.73055369   -8.4869842    575.09893  0.014301674  0.013577491            4 
 3352000   0.69489343   -8.4772727    573.78543  0.014264753  0.013572649            5 
 3353000   0.70752114   -8.4741325    574.58216    0.0142803  0.013567814            2 
 3354000   0.71415351   -8.4773485    575.30926  0.014294108   0.01356299            5 
 3355000   0.73381643   -8.5114472    574.51465  0.014270111   0.01355816            4 
 3356000   0.70806992   -8.5042107    575.62001  0.014293306  0.013553338            1 
 3357000   0.72023065   -8.5243627    574.07998  0.014250819  0.013548523            1 
 3358000   0.69902975   -8.5204852    575.82303  0.014289831    0.0135437            2 
 3359000   0.71976662   -8.4904916    574.37057  0.014249543  0.013538877            1 
 3360000   0.71361948   -8.4866348    574.56624  0.014250155  0.013534052            2 
 3361000   0.71765808   -8.4814737    574.52761  0.014244957  0.013529225            2 
 3362000   0.70815989   -8.4934743    575.02867   0.01425314  0.013524398            2 
 3363000   0.71356228   -8.5190095    575.52257   0.01426114  0.013519579            9 
 3364000   0.71074984   -8.5099183    575.46928  0.014255581  0.013514743            3 
 3365000   0.72164694   -8.4999513    574.46869  0.014226565  0.013509932            1 
 3366000    0.7182699   -8.5052994    575.54025  0.014248867    0.0135051            2 
 3367000    0.7143466   -8.4923319    575.49493  0.014243514  0.013500281            2 
 3368000   0.71569004   -8.4808064    575.06711  0.014228699  0.013495448            2 
 3369000   0.71650956   -8.5031903    575.54546  0.014236308  0.013490626            1 
 3370000    0.7032536   -8.4860059    575.15355  0.014222392    0.0134858            4 
 3371000   0.69456464   -8.5070894    575.03401  0.014215218  0.013480981            3 
 3372000   0.71831931   -8.4891085    575.02634  0.014210813  0.013476158            3 
 3373000   0.71880073    -8.501873    574.20442  0.014186294  0.013471349            1 
 3374000   0.72986289   -8.5123793    575.50931  0.014214318  0.013466534            4 
 3375000   0.70717335   -8.5225972    574.23072  0.014178536  0.013461715            2 
 3376000    0.7192297   -8.5093048    574.72211  0.014186466    0.0134569            2 
 3377000   0.70624564    -8.503033    575.56018  0.014202946  0.013452106            2 
 3378000    0.7173932   -8.4975801    574.66894  0.014176755  0.013447308            2 
 3379000   0.71113564   -8.4877903    574.03911  0.014157027  0.013442507            2 
 3380000   0.69806458   -8.5190199     573.9152  0.014149783  0.013437695            6 
 3381000   0.71697354   -8.5133294    574.25381  0.014153944  0.013432893            2 
 3382000   0.70436786   -8.5052204    575.34876  0.014176739  0.013428088            4 
 3383000   0.72386071   -8.5167322    575.82103  0.014184181   0.01342329            3 
 3384000   0.70557843   -8.5026222    574.98555  0.014159416  0.013418512            2 
 3385000   0.72107157   -8.4931156    575.26088  0.014162011  0.013413732            1 
 3386000   0.70598727   -8.4776139    575.61987  0.014166664  0.013408963            3 
 3387000   0.71447455   -8.4850039     575.5566  0.014160924  0.013404184            4 
 3388000   0.71479415   -8.4791303    575.46986  0.014154611  0.013399406            3 
 3389000   0.71142797   -8.5191838    575.75348  0.014157408  0.013394626           15 
 3390000   0.71419893   -8.4860944    575.50605   0.01414715  0.013389855            3 
 3391000   0.71837395    -8.480111    575.74762  0.014148914  0.013385088            4 
 3392000   0.69317125   -8.5050603    574.88886  0.014123645  0.013380323            3 
 3393000   0.70398611   -8.5099106    574.61541  0.014112767  0.013375551            4 
 3394000   0.70908481   -8.5115019    576.12359  0.014145639  0.013370768           12 
 3395000   0.69978315   -8.4807994    575.30889  0.014121475  0.013365996           14 
 3396000   0.71570532   -8.4831017    575.70974  0.014127153   0.01336122            4 
 3397000   0.70744035   -8.4880435    574.93229  0.014103922  0.013356451            4 
 3398000   0.70346929   -8.4925386    574.64335  0.014092686  0.013351686            2 
 3399000   0.69134716   -8.4765949    575.00919  0.014097509  0.013346913            2 
 3400000    0.6962691    -8.487754    574.70641  0.014085941  0.013342152            1 
 3401000   0.70980163   -8.5050989    574.10971  0.014067179  0.013337391            2 
 3402000   0.70436723   -8.4933368    575.36754  0.014093855  0.013332623            2 
 3403000   0.71207138   -8.4877769     574.4248  0.014066627  0.013327867            1 
 3404000   0.71419226   -8.4909144    575.25462   0.01408281  0.013323122            2 
 3405000   0.70019965   -8.5009581    574.97722  0.014071885  0.013318392            2 
 3406000   0.71469066    -8.505092    576.31533  0.014100493  0.013313653            3 
 3407000   0.71146732   -8.5123694    574.83737  0.014060204  0.013308924            5 
 3408000   0.70557524   -8.4764427    575.67296   0.01407651  0.013304183            2 
 3409000     0.712231   -8.4871196    576.60166  0.014095083  0.013299448            3 
 3410000    0.7029918   -8.5084737    575.25757  0.014058103   0.01329471            4 
 3411000   0.71041055   -8.4931227    575.75875  0.014066226   0.01328997            2 
 3412000   0.70677519   -8.4960011    575.98824  0.014067708  0.013285233            3 
 3413000    0.7121835   -8.4819451    574.99533  0.014039343    0.0132805            6 
 3414000   0.70935624   -8.4746565     575.2785  0.014042143  0.013275765            3 
 3415000   0.71675127   -8.4792648    576.01526  0.014056009  0.013271048            3 
 3416000   0.70040605   -8.5226554    574.93863   0.01402563  0.013266328            3 
 3417000   0.70666492    -8.498597    575.95835  0.014046394  0.013261603            3 
 3418000   0.69379459   -8.5070446    575.26759  0.014025443  0.013256886            5 
 3419000   0.71652338   -8.4997267    574.55247  0.014003911   0.01325216            2 
 3420000   0.71548492   -8.4907049    575.94293  0.014033697  0.013247457            9 
 3421000   0.69426563   -8.4900074    575.54866  0.014019991  0.013242754            4 
 3422000   0.69105716   -8.4999321    575.08676  0.014004645  0.013238039            4 
 3423000   0.70202415   -8.4903684    576.09487  0.014025097  0.013233327            2 
 3424000   0.68571934   -8.4682347    576.67444  0.014035106  0.013228614            5 
 3425000   0.71044744    -8.517609    575.37124    0.0139993  0.013223895            5 
 3426000   0.71728954   -8.5134773    576.06953  0.014012199  0.013219181            2 
 3427000   0.69199898   -8.5236888    574.02211  0.013958324  0.013214474            2 
 3428000   0.69552634   -8.4834152    574.76378  0.013972282  0.013209768            3 
 3429000   0.70554508   -8.5112439    575.39329  0.013983506  0.013205056            3 
 3430000   0.69859503   -8.5078595    575.34706  0.013978306   0.01320036            2 
 3431000   0.69652212   -8.5281058    576.32796  0.013998056  0.013195665            3 
 3432000   0.69261835     -8.51948    575.50923  0.013974098  0.013190964            8 
 3433000   0.69953009   -8.5218694    575.69799  0.013974609  0.013186265            5 
 3434000   0.70665294   -8.4973774     575.5448  0.013966822   0.01318157            4 
 3435000   0.70053672   -8.5084036    576.11264  0.013976532  0.013176889            3 
 3436000   0.69907976   -8.5120917    574.69879  0.013938174   0.01317221            5 
 3437000    0.6931276   -8.5286945    575.42994  0.013951846  0.013167521            6 
 3438000   0.70469387   -8.5102407    575.44226  0.013948086  0.013162853            4 
 3439000   0.69750779   -8.5164584    575.35835  0.013941997   0.01315818            3 
 3440000   0.68957347   -8.5111422    576.73443   0.01397128  0.013153508            2 
 3441000   0.69129098   -8.5089279    575.70481  0.013942284  0.013148831            2 
 3442000   0.69810414   -8.5055409    574.34583  0.013905332  0.013144162            2 
 3443000    0.6807987   -8.5313385    575.15501  0.013920878  0.013139471            8 
 3444000   0.70144836   -8.5116804    575.66307   0.01392913  0.013134788            4 
 3445000   0.70888144   -8.5210754    575.52555   0.01392176  0.013130105            3 
 3446000   0.70107107   -8.5350186    574.88624   0.01390226  0.013125431            4 
 3447000   0.70442496   -8.5276226    575.79495  0.013920195  0.013120764            4 
 3448000    0.6833324   -8.5502839    575.42653  0.013907254  0.013116082            3 
 3449000   0.69437194   -8.5241112    575.18624  0.013897416  0.013111417            2 
 3450000   0.70933278   -8.5087244    575.93559  0.013911488  0.013106754            2 
 3451000    0.6930599   -8.5192794    576.54706  0.013922222    0.0131021            2 
 3452000   0.69558433   -8.5387382     575.9044  0.013902675  0.013097446            5 
 3453000   0.69633027   -8.5202927    577.16302  0.013929024  0.013092786            2 
 3454000   0.71592884   -8.5087918    576.57369  0.013910772  0.013088144            4 
 3455000   0.69660528   -8.5200415    575.29992  0.013876023  0.013083494            2 
 3456000   0.70551662   -8.5263303    575.71785  0.013882085  0.013078832            5 
 3457000   0.68857109   -8.5253022    574.97365   0.01386013  0.013074189            2 
 3458000   0.68133993   -8.5057155    575.66964  0.013872895  0.013069546            4 
 3459000   0.69269583   -8.5334256    575.91874  0.013874885  0.013064895            2 
 3460000   0.70215544   -8.5033385    575.71911  0.013866067  0.013060257            2 
 3461000   0.69253791   -8.5152069    576.34852  0.013877216  0.013055611            4 
 3462000   0.70795537    -8.505747    575.33041    0.0138487  0.013050977            5 
 3463000   0.70579547    -8.493886    574.60702  0.013827294  0.013046351            2 
 3464000    0.6889557   -8.5165671    575.68815  0.013849311  0.013041725            2 
 3465000   0.70769624   -8.5108297    575.58419  0.013842813  0.013037096            3 
 3466000   0.69780997   -8.5244597    575.22592  0.013830206  0.013032467            5 
 3467000   0.69548382   -8.5183138    576.64267   0.01386027  0.013027838            3 
 3468000   0.69430287   -8.5257841    575.11639  0.013819598  0.013023202            2 
 3469000   0.70411383   -8.5251217    574.81291  0.013808324  0.013018569            3 
 3470000   0.70814695   -8.5317276    576.02908  0.013833551  0.013013938            1 
 3471000   0.69360226    -8.507422     575.2902  0.013811827  0.013009313            2 
 3472000   0.68716808   -8.5098467    576.55144   0.01383812  0.013004685            2 
 3473000   0.69869901   -8.5183099    574.25731  0.013779089  0.013000058            3 
 3474000   0.70694069   -8.5196607    574.60558  0.013783477  0.012995435            2 
 3475000   0.69868334   -8.5139617    577.04271  0.013837955  0.012990815            2 
 3476000   0.68004287   -8.5339604    574.69381  0.013777661  0.012986179            3 
 3477000   0.69209759   -8.5329004    576.64563  0.013820478  0.012981551            3 
 3478000   0.69239638   -8.5518692    575.96764   0.01380026  0.012976919            2 
 3479000   0.69113898   -8.5254178    575.25602  0.013779247  0.012972289            3 
 3480000   0.68809144    -8.544428    575.36675  0.013777939  0.012967647            4 
 3481000    0.6927696   -8.5311009    575.82052  0.013784844  0.012963006            2 
 3482000   0.69143325   -8.5137224    575.24315  0.013767068  0.012958378            6 
 3483000    0.6960669   -8.5269825    575.29797  0.013764426  0.012953753            4 
 3484000   0.69231949   -8.5510211    574.65879  0.013745187  0.012949135            3 
 3485000   0.69992163   -8.5316298    574.66307  0.013741345  0.012944505            1 
 3486000   0.69531753   -8.5601536    575.28648  0.013752306  0.012939871            3 
 3487000   0.70781555   -8.5387831    574.51264  0.013729869   0.01293524            2 
 3488000   0.69487552   -8.5404536    574.46117  0.013724703  0.012930613            3 
 3489000   0.68397469   -8.5493871    575.09534  0.013735916  0.012925991            3 
 3490000   0.69455674   -8.5579419    575.80399  0.013748901  0.012921367            4 
 3491000   0.69177097   -8.5494207    574.35366  0.013710342  0.012916733            2 
 3492000   0.69860783   -8.5559061    573.86895  0.013694849  0.012912103            7 
 3493000    0.6726135   -8.5555366    575.45319  0.013728724  0.012907478            2 
 3494000   0.70955139   -8.5783538    574.46256  0.013701168  0.012902847            3 
 3495000   0.68171832   -8.5532643    574.36493   0.01369492  0.012898213            2 
 3496000   0.69911855    -8.554171    575.03317  0.013706931  0.012893583            3 
 3497000   0.69526885   -8.5644879    575.32307   0.01370992  0.012888956            2 
 3498000   0.69645288   -8.5525963    574.91109  0.013696186  0.012884327            3 
 3499000   0.68332747   -8.5401765    574.74619  0.013688344  0.012879708            4 
 3500000   0.70217636   -8.5353449    576.32914  0.013722122  0.012875094            3 
 3501000   0.67508033   -8.5621461    574.65004  0.013678236  0.012870485            2 
 3502000   0.69802942   -8.5551922    575.22416  0.013687992  0.012865877            2 
 3503000   0.69489485   -8.5549596    574.76346  0.013673124  0.012861265            3 
 3504000   0.68698038   -8.5331145    575.64408  0.013690166  0.012856655            4 
 3505000   0.68153837   -8.5597633    574.93103  0.013669306  0.012852036            2 
 3506000   0.67191074   -8.5391054    574.26948  0.013649683  0.012847425            4 
 3507000   0.68362088   -8.5480362    575.32793  0.013670942  0.012842812            3 
 3508000    0.6824571   -8.5430498    575.26796   0.01366562  0.012838206            3 
 3509000   0.68827521   -8.5663579    575.01911  0.013655816  0.012833601            2 
 3510000   0.69590433   -8.5857382    574.54181  0.013640594  0.012828987            2 
 3511000   0.69196983   -8.5600263    573.91725  0.013621885   0.01282438            1 
 3512000   0.68601959   -8.5610656    574.43959    0.0136304  0.012819777            2 
 3513000   0.70843023   -8.5644145    574.37515  0.013624992  0.012815162            3 
 3514000   0.68440232   -8.6006668    573.06801  0.013590116  0.012810547            2 
 3515000      0.69804   -8.5636285    574.02752  0.013608998  0.012805931            2 
 3516000   0.69068398   -8.5674541    575.05314  0.013629436  0.012801328            3 
 3517000   0.69684484   -8.5473703    575.20098  0.013629063  0.012796731            2 
 3518000   0.67173536   -8.5684045    574.28193  0.013603419  0.012792141            2 
 3519000   0.68418551   -8.5740624    574.94428  0.013615238  0.012787545            4 
 3520000   0.69275288   -8.5551354    574.17807  0.013593231  0.012782955            3 
 3521000   0.69429399   -8.5757515    574.32784  0.013592915  0.012778363            2 
 3522000   0.69032825   -8.5829906    574.49266  0.013592955   0.01277377            3 
 3523000   0.69321086   -8.5557252    574.62491  0.013592225  0.012769184            2 
 3524000   0.69796758   -8.5566364    574.70797  0.013590332  0.012764602            1 
 3525000   0.69318383   -8.5458253     573.7776  0.013564482  0.012760015            4 
 3526000   0.68115019   -8.5719162    574.66652  0.013581644  0.012755443            2 
 3527000   0.69160992   -8.5486401    575.42985  0.013595828  0.012750877            5 
 3528000   0.68632564   -8.5731259    575.06136  0.013583271  0.012746308            2 
 3529000   0.69909515   -8.5776091    574.68534  0.013570543  0.012741738            6 
 3530000   0.68896432   -8.5551168    574.94625  0.013572858  0.012737175            6 
 3531000   0.67803336   -8.5465286    574.87429  0.013567315  0.012732611            4 
 3532000   0.68948006   -8.5455801    574.91201  0.013564364  0.012728056            1 
 3533000   0.69331701   -8.5519529    574.63918   0.01355409  0.012723503            6 
 3534000   0.68508765   -8.5508248    575.57443  0.013572308  0.012718946            3 
 3535000   0.67585647    -8.576155    575.56777  0.013568311  0.012714385            5 
 3536000   0.69089575   -8.5674674     574.1011  0.013529909  0.012709828            8 
 3537000    0.6791871   -8.5711787    574.73022  0.013540906  0.012705276            4 
 3538000   0.68991175   -8.5684751    574.59372  0.013533864  0.012700725           13 
 3539000   0.68306217    -8.569159    574.62393  0.013530751  0.012696177            6 
 3540000   0.68117465   -8.5582658    575.48555  0.013547212  0.012691628            8 
 3541000   0.69266011   -8.5364485    574.96117  0.013531045  0.012687078           10 
 3542000    0.6811619   -8.5699555    576.30566  0.013558857  0.012682543            2 
 3543000   0.68168108   -8.5331057    575.09371  0.013526524  0.012677994            3 
 3544000   0.69294319   -8.5550623    575.93412  0.013542469  0.012673455            3 
 3545000   0.68522483   -8.5629155    575.22472  0.013521973  0.012668914            4 
 3546000   0.67083927   -8.5634778     574.2706  0.013495737  0.012664375            3 
 3547000   0.67664508   -8.5838568    574.66831  0.013501276  0.012659823            2 
 3548000   0.68263546   -8.5780859    575.04838  0.013506398  0.012655281            3 
 3549000   0.65915561   -8.5785046    575.03651  0.013502313  0.012650752            1 
 3550000   0.68550008   -8.5513908    574.95645   0.01349663  0.012646218            1 
 3551000   0.68712382   -8.5591769    575.51872  0.013506025  0.012641695            2 
 3552000   0.67825577   -8.5566535    574.91433  0.013488043  0.012637168            2 
 3553000   0.68956689   -8.5726021    574.83727  0.013482439  0.012632644            2 
 3554000   0.69048521   -8.5597872    573.96965  0.013458302  0.012628124            4 
 3555000   0.68249058   -8.5446898    575.55393  0.013491653  0.012623603            3 
 3556000   0.68022094   -8.5372118     575.5073  0.013486766  0.012619082            4 
 3557000   0.69749346   -8.5583377    575.62021   0.01348562  0.012614572            5 
 3558000   0.67858667   -8.5404849    574.69762  0.013460222  0.012610054            7 
 3559000   0.68525201   -8.5728861    574.45986  0.013450872  0.012605532            7 
 3560000   0.68489327   -8.5774409    574.60628  0.013450522  0.012601014           12 
 3561000   0.68488683   -8.5675711    574.87656  0.013453069  0.012596486            4 
 3562000   0.67916604   -8.5929746    574.30743  0.013435978  0.012591961            3 
 3563000   0.67367822   -8.6020531     574.1471  0.013428457  0.012587432            3 
 3564000    0.6927941   -8.5789153    574.60058  0.013435292  0.012582901            6 
 3565000   0.67620959   -8.5691308    574.94225   0.01343951  0.012578369            4 
 3566000    0.6631179   -8.5782427    575.47501  0.013448191  0.012573845            6 
 3567000   0.68661309   -8.5710759    574.61557  0.013424343  0.012569318            6 
 3568000   0.69307296   -8.5689009    575.38768  0.013438614  0.012564806            5 
 3569000   0.69946588   -8.5808363    573.74557  0.013396506  0.012560281            5 
 3570000   0.68507073   -8.5841171    574.92798  0.013420354  0.012555761            4 
 3571000   0.67679172   -8.5864625    574.92471   0.01341652  0.012551238            6 
 3572000   0.68161436   -8.5822851    573.69144  0.013383992   0.01254671            3 
 3573000   0.67333127   -8.5654721    572.87039  0.013361097  0.012542186            4 
 3574000   0.67874485   -8.6020579    575.08262   0.01340894  0.012537677           10 
 3575000   0.67197654   -8.5837935    574.28394  0.013386572  0.012533158            8 
 3576000   0.66969531   -8.5829392     573.1902  0.013357341  0.012528638            4 
 3577000   0.67877495   -8.5689087    575.00313  0.013395842  0.012524124            8 
 3578000   0.68250443   -8.5917882    573.88651  0.013366092  0.012519613            9 
 3579000   0.65746346   -8.5793221    575.56437  0.013401424  0.012515102            5 
 3580000   0.67706597   -8.5837832    573.18353  0.013342261  0.012510597            6 
 3581000   0.67309412   -8.5754177    575.58024  0.013394309  0.012506082            7 
 3582000     0.675438   -8.5828355    574.96572  0.013376273  0.012501564            5 
 3583000   0.67851142   -8.5913879    574.14387  0.013353425  0.012497052            8 
 3584000    0.6852859   -8.5759981    573.48853  0.013334462  0.012492541            7 
 3585000   0.69422244   -8.5837565    573.61633  0.013333713  0.012488042            3 
 3586000   0.69005551   -8.5829815     573.0929  0.013317831  0.012483528            4 
 3587000   0.67232575   -8.5791705    573.82881  0.013331215  0.012479017            5 
 3588000   0.67441913   -8.5952369    574.32461  0.013339014  0.012474515            6 
 3589000   0.67428386   -8.5803546    574.58872   0.01334143  0.012470015            4 
 3590000   0.67876721   -8.5920254    573.15826  0.013304509  0.012465512            5 
 3591000   0.67592576   -8.5576671    573.85971  0.013317082  0.012461014            4 
 3592000   0.67155642   -8.5833217    573.64776  0.013308458  0.012456516            7 
 3593000   0.69902453    -8.566548    574.59169  0.013326646  0.012452024            2 
 3594000   0.67862608   -8.5944456    573.56299  0.013299086  0.012447533            5 
 3595000   0.66273792   -8.5979739       573.33  0.013289986  0.012443041            2 
 3596000   0.66283418    -8.594106    574.89785  0.013322623  0.012438551            2 
 3597000   0.67076121   -8.6123066    573.24422  0.013280609  0.012434061            3 
 3598000   0.67849061   -8.5997736    573.94739  0.013293204  0.012429572            4 
 3599000   0.66581503    -8.596551    575.12401  0.013316755  0.012425087            2 
 3600000   0.67645425   -8.5980496    574.03144  0.013287765  0.012420596            2 
 3601000   0.67511901   -8.5921791    573.03981  0.013261127  0.012416111            4 
 3602000   0.68590115   -8.5932137    574.47177  0.013290574  0.012411628            1 
 3603000   0.68745073   -8.5952476    573.87255  0.013273026  0.012407145            4 
 3604000   0.67061771   -8.5881874    573.82201  0.013268175  0.012402666           11 
 3605000   0.67818153   -8.6064559    574.03254  0.013269361  0.012398196            3 
 3606000   0.66875931   -8.6048751    574.57838  0.013278295  0.012393719            4 
 3607000   0.68456718   -8.5882053    574.56586  0.013274324  0.012389239            1 
 3608000   0.67184942   -8.6252926    574.21854  0.013262623  0.012384764            4 
 3609000   0.67340577   -8.5839259    573.00544  0.013230937  0.012380287            3 
 3610000   0.67780761   -8.6037372    574.34953  0.013258299  0.012375818            7 
 3611000   0.67743553   -8.6101506    572.74851   0.01321768   0.01237134            3 
 3612000   0.66596432   -8.5861796    574.81611  0.013261723   0.01236687            5 
 3613000   0.66539041   -8.6035895    574.11611  0.013241907  0.012362399            2 
 3614000   0.68068628   -8.5916619    573.75344   0.01322988  0.012357933            2 
 3615000   0.66846021   -8.6045173    573.56415  0.013221857  0.012353475            6 
 3616000   0.68622731   -8.6033105    573.94861  0.013227061  0.012349019            2 
 3617000   0.65777217   -8.6124145    574.81169  0.013243288  0.012344568            3 
 3618000   0.67391648   -8.6082604    573.49226  0.013209238  0.012340105            2 
 3619000    0.6820712   -8.5893775    573.77538  0.013212107  0.012335645            1 
 3620000   0.68755667   -8.5927047    573.11411  0.013193235  0.012331185            2 
 3621000   0.66610853   -8.5974225    573.77659  0.013204837  0.012326723            4 
 3622000   0.67491704    -8.584817     573.1063   0.01318577  0.012322265            1 
 3623000   0.67041856   -8.5851564    573.50413  0.013191281  0.012317809            3 
 3624000    0.6514702   -8.6264841    574.65582  0.013214124   0.01231335            1 
 3625000   0.66790917   -8.6147815    573.81563  0.013191164  0.012308888            2 
 3626000   0.67094574   -8.6001458     573.5515  0.013181456  0.012304433            2 
 3627000   0.66872821   -8.6147429    573.45287  0.013175555  0.012299977            3 
 3628000   0.68079891    -8.619098    573.72214  0.013178109  0.012295509            6 
 3629000   0.67173341   -8.6107427     573.6458  0.013172724  0.012291064            1 
 3630000   0.65833528   -8.6017508    575.09708  0.013202412  0.012286612            2 
 3631000   0.66624114   -8.6328517    573.42678  0.013160442  0.012282164            1 
 3632000   0.66510344   -8.5842336    573.77725   0.01316486  0.012277716            3 
 3633000    0.6760002   -8.6179129    573.77361  0.013161153  0.012273276            2 
 3634000   0.66941619   -8.6193227    573.11694  0.013142472  0.012268839            3 
 3635000   0.65874777   -8.5962275    574.07227  0.013160758  0.012264406            3 
 3636000   0.66989833   -8.6328218    573.80129  0.013150928  0.012259964            4 
 3637000   0.68505643   -8.5967491    573.63679  0.013143543  0.012255532            2 
 3638000   0.66053298   -8.6143809    574.83102  0.013167286  0.012251094            3 
 3639000   0.67249002   -8.6257432    574.23098  0.013149926  0.012246668            3 
 3640000   0.67170889   -8.6218382    573.46078  0.013128681  0.012242233            2 
 3641000   0.67038347   -8.6083243    573.67648  0.013130012  0.012237798            3 
 3642000   0.67506488   -8.6149341    574.33504  0.013141475  0.012233361            5 
 3643000   0.66877306   -8.5941506    572.91208  0.013105318  0.012228927            3 
 3644000   0.66717701   -8.6252539    573.89843  0.013124278  0.012224489            1 
 3645000   0.66715945   -8.5995233    574.65425  0.013137957  0.012220068            3 
 3646000   0.68678754   -8.6211543    574.23795  0.013124839  0.012215646            5 
 3647000   0.67325662   -8.6334894    573.17094  0.013096859  0.012211217            2 
 3648000   0.66253062   -8.6226568    572.44328  0.013076646  0.012206801            9 
 3649000   0.66661573    -8.635051    573.59252  0.013099308  0.012202369            3 
 3650000   0.66321869     -8.64737    572.88612  0.013079592  0.012197937            4 
 3651000   0.66959127   -8.6221783    573.91022  0.013099384  0.012193505            4 
 3652000   0.66430743   -8.6193179    572.17142   0.01305612  0.012189076            4 
 3653000   0.67640752   -8.6273108    573.31968  0.013078741  0.012184668            7 
 3654000   0.65241149   -8.6045285    572.95529  0.013066851  0.012180251            4 
 3655000   0.66701995    -8.642249      573.074  0.013065983   0.01217583            3 
 3656000   0.65584392   -8.6456073     572.5642  0.013050789  0.012171403            9 
 3657000   0.66760489   -8.6253001     572.5905  0.013047819  0.012166979            5 
 3658000   0.67039012   -8.6114994    573.39155  0.013062501  0.012162556            5 
 3659000   0.66460469   -8.6250335    572.42179  0.013036845  0.012158133            4 
 3660000   0.67469882   -8.6436062    573.35359  0.013054499  0.012153713            6 
 3661000   0.67288555   -8.6555464    573.10016  0.013045164  0.012149298            6 
 3662000   0.65287116   -8.6481779    571.90655   0.01301444  0.012144882            2 
 3663000   0.66046757   -8.6147915    573.88502  0.013055897  0.012140458            4 
 3664000   0.65773106   -8.6265521    572.59601  0.013023017  0.012136044            3 
 3665000   0.65585397   -8.6292322    573.36299  0.013036903  0.012131632            5 
 3666000    0.6715409   -8.6237457    573.88485  0.013045209  0.012127213            5 
 3667000   0.66110432   -8.6099739    573.60053  0.013035191  0.012122804            4 
 3668000   0.66686581   -8.6420246    572.59886   0.01300888  0.012118401            2 
 3669000   0.66100226   -8.6562282    572.85576  0.013011169  0.012113995            7 
 3670000   0.65781853   -8.6302626    573.37251  0.013019358  0.012109589            4 
 3671000   0.66520667   -8.6278902    572.80369  0.013002899  0.012105185            7 
 3672000   0.67259595   -8.6409435    573.29222  0.013010444  0.012100784            4 
 3673000   0.66035258    -8.626582    572.92497   0.01299857  0.012096381            6 
 3674000   0.66140397   -8.6160532    573.72295  0.013013132  0.012091976            2 
 3675000   0.66610816   -8.6520975    572.42578  0.012980176  0.012087574            7 
 3676000   0.66509242   -8.6212275     572.1084  0.012969451  0.012083171            6 
 3677000   0.66360741   -8.6377621    572.38433  0.012972177  0.012078775            4 
 3678000   0.66095674   -8.6520504    571.93454  0.012958459  0.012074379            4 
 3679000   0.65915152   -8.6350122     573.3491  0.012986978  0.012069981            4 
 3680000   0.67754928   -8.6327754    573.26493  0.012981543  0.012065585            5 
 3681000   0.65800635   -8.6436527    572.51901  0.012961129  0.012061188            3 
 3682000   0.65916506   -8.6484481    572.25604  0.012951658  0.012056791            2 
 3683000    0.6653225    -8.635893    573.34793  0.012972847  0.012052396            3 
 3684000   0.68057514   -8.6245333    573.04905  0.012962564  0.012048012            3 
 3685000   0.66319705   -8.6203149    573.01756  0.012958335  0.012043625            4 
 3686000   0.66681088   -8.6365498    572.23846  0.012937205  0.012039238            3 
 3687000   0.66501039   -8.6486707     572.2314  0.012933537  0.012034854            2 
 3688000   0.65275555   -8.6498978    573.07002  0.012948979  0.012030465            3 
 3689000   0.66410338   -8.6503486    572.46182   0.01293173  0.012026086            3 
 3690000   0.66359014   -8.6296329    572.65724  0.012932639  0.012021717            6 
 3691000   0.65600903    -8.634786    572.31486  0.012921405   0.01201735            3 
 3692000   0.64195199   -8.6411237    573.96771  0.012955212  0.012012985            2 
 3693000   0.64779548   -8.6415171    573.10033  0.012932131  0.012008615            5 
 3694000   0.65861898   -8.6244765    573.20535     0.012931  0.012004254            3 
 3695000   0.65657484   -8.6462022    573.74423  0.012939653  0.011999887            4 
 3696000   0.66407499   -8.6428196    573.54024  0.012931553  0.011995519            2 
 3697000   0.66988874   -8.6190538    573.67397   0.01293107  0.011991158            3 
 3698000   0.66113527   -8.6415541    572.44743  0.012899933  0.011986792            6 
 3699000   0.65124824   -8.6381066      573.609  0.012922614  0.011982443            4 
 3700000   0.65458729   -8.6581061    572.62935  0.012897058  0.011978093            4 
 3701000   0.65894153   -8.6294162    572.71488  0.012895499  0.011973738            8 
 3702000   0.65608303   -8.6373998    572.85678  0.012895209  0.011969375            8 
 3703000   0.64646747   -8.6480288    573.27173  0.012901065  0.011965019            3 
 3704000   0.65232545   -8.6583675    571.83026  0.012865152  0.011960664            3 
 3705000   0.67558667   -8.6590567    572.11884   0.01286817    0.0119563            3 
 3706000   0.64938186   -8.6593953    571.72835  0.012855917  0.011951946            1 
 3707000   0.66256438   -8.6399104     573.7621  0.012898168  0.011947589            3 
 3708000   0.66856507   -8.6479808    572.50191  0.012866368  0.011943233            1 
 3709000   0.66812718   -8.6722605    572.39193  0.012860428  0.011938879            2 
 3710000   0.65992494   -8.6481384    571.37985  0.012834229  0.011934529            2 
 3711000   0.65274207   -8.6634247    571.91529  0.012842794  0.011930177            5 
 3712000   0.65725139   -8.6587283    571.95995  0.012840337  0.011925826            2 
 3713000   0.65904684   -8.6456414    573.25106  0.012865856  0.011921476            2 
 3714000   0.66296049   -8.6472292    573.88839  0.012876691  0.011917139            2 
 3715000   0.66958229   -8.6428657    572.64789  0.012845399  0.011912804            1 
 3716000   0.65435008   -8.6526437    572.18591  0.012831582  0.011908477            2 
 3717000   0.65229424   -8.6591806    573.35711  0.012854388  0.011904152            3 
 3718000   0.67501313   -8.6509864    572.69809   0.01283616  0.011899823            3 
 3719000   0.67020856    -8.643637     573.9544  0.012860859  0.011895495            3 
 3720000    0.6535401   -8.6633927    572.28811  0.012820074  0.011891176            1 
 3721000    0.6461654   -8.6555996    573.14788  0.012835884  0.011886852            2 
 3722000   0.64603231   -8.6368335    572.51106  0.012818177  0.011882527            2 
 3723000   0.65205266   -8.6556343     572.5039  0.012814574    0.0118782            2 
 3724000    0.6488392   -8.6343141    572.10615  0.012802232  0.011873876            3 
 3725000   0.67079537   -8.6660395     572.6785  0.012811599  0.011869558            2 
 3726000   0.66795421   -8.6722531    572.41916  0.012802361  0.011865231            3 
 3727000     0.655382   -8.6580499    572.34448  0.012797256  0.011860908            3 
 3728000   0.65906703   -8.6558913    572.31065  0.012793067  0.011856584            4 
 3729000   0.65773553   -8.6678532    573.20518  0.012809627  0.011852258            3 
 3730000   0.65644185   -8.6453178    573.25528  0.012807312   0.01184794            1 
 3731000    0.6518506   -8.6727644    572.73175  0.012792186  0.011843622            4 
 3732000   0.65996776   -8.6725408    572.18553  0.012776561  0.011839305            3 
 3733000   0.67089146   -8.6707392    571.63698  0.012760893  0.011834983            4 
 3734000   0.65313518   -8.6642221    572.37884  0.012774032  0.011830672            5 
 3735000   0.64848586   -8.6597768    571.04617  0.012740878  0.011826358            4 
 3736000   0.66545352   -8.6500019    572.28186  0.012765031  0.011822049            2 
 3737000   0.66238807   -8.6417816    571.93019  0.012753773  0.011817747            6 
 3738000   0.64432253   -8.6656489    573.43088  0.012783817   0.01181344            5 
 3739000    0.6499061   -8.6427207    571.88586  0.012745963  0.011809143            4 
 3740000    0.6432708   -8.6631967    571.99122  0.012744902   0.01180484            6 
 3741000   0.65175957   -8.6679366    572.66856  0.012756584  0.011800541            8 
 3742000   0.65045302   -8.6559277    571.73914  0.012732477  0.011796242           10 
 3743000    0.6612212   -8.6705323    573.00323  0.012757219  0.011791953            8 
 3744000   0.64423514   -8.6421161    571.95717  0.012730528  0.011787658            7 
 3745000   0.65899987   -8.6578442     572.0195  0.012728516   0.01178337            7 
 3746000   0.64442285   -8.6730259    571.39669  0.012711263  0.011779082            6 
 3747000   0.65639981   -8.6534736    573.00085  0.012743547  0.011774794            7 
 3748000   0.64816971   -8.6706354    571.94457  0.012716662  0.011770511           10 
 3749000   0.64895459    -8.652871    571.82946  0.012710711   0.01176623            5 
 3750000   0.66155302   -8.6757851    572.43407  0.012720757  0.011761955            3 
 3751000   0.64685706   -8.6448935    572.85547  0.012726728  0.011757674            7 
 3752000   0.64792378   -8.6485028    572.08872  0.012706306  0.011753407            5 
 3753000   0.65310784   -8.6644202    571.95211  0.012699887  0.011749129           13 
 3754000   0.65129419   -8.6561957    572.06032  0.012698906  0.011744862            6 
 3755000   0.63808491   -8.6639415    573.21578  0.012721167  0.011740593            6 
 3756000    0.6370817    -8.649537     573.2621  0.012718808   0.01173633            3 
 3757000   0.65708981   -8.6653136    573.24273  0.012714993  0.011732064            6 
 3758000   0.64880009    -8.642904    572.19008  0.012688267  0.011727798            6 
 3759000   0.65232775   -8.6570999    572.74945  0.012697292  0.011723541            6 
 3760000   0.65972248   -8.6505337    571.54656  0.012667255  0.011719283            6 
 3761000   0.66352701   -8.6528244    572.50948  0.012685223  0.011715032            2 
 3762000   0.64953243   -8.6519214    572.48402  0.012681287  0.011710783            1 
 3763000   0.67486593   -8.6554272    573.51369   0.01270072  0.011706539            4 
 3764000   0.66241487   -8.6488487    572.19963  0.012668253  0.011702295            4 
 3765000    0.6448481   -8.6549331     571.6189  0.012652034  0.011698048            6 
 3766000   0.64788782   -8.6593878    573.06529   0.01268068   0.01169381            3 
 3767000   0.65622086     -8.65425    573.84597  0.012694584  0.011689571            6 
 3768000    0.6536112   -8.6619256    573.92785  0.012693026  0.011685342            6 
 3769000   0.64972958   -8.6434881    573.58467   0.01268207  0.011681106            3 
 3770000   0.65097982   -8.6525743     573.0968  0.012667922  0.011676874            5 
 3771000   0.65641928   -8.6659369    572.35658  0.012648205  0.011672641            9 
 3772000   0.65487592   -8.6426006    571.78842    0.0126323  0.011668416            3 
 3773000   0.63459321   -8.6452824    573.07441  0.012657355  0.011664188           10 
 3774000   0.65047823   -8.6577564     573.4777  0.012662906  0.011659957            8 
 3775000   0.63855541   -8.6677511    572.40084   0.01263578  0.011655725            5 
 3776000   0.63221681   -8.6500114    572.34144  0.012631123  0.011651493            3 
 3777000   0.63127437   -8.6724063    572.66085  0.012634826  0.011647259            6 
 3778000   0.64946197    -8.657746     574.0499  0.012662121  0.011643036            2 
 3779000   0.64719928   -8.6606823    572.03035  0.012614235  0.011638821            4 
 3780000   0.63483093    -8.659599    571.94303  0.012608973  0.011634605            3 
 3781000    0.6376447    -8.643072    572.57513   0.01261957  0.011630394            3 
 3782000    0.6360969    -8.661194    572.33595  0.012610963  0.011626177            3 
 3783000   0.64702427   -8.6558214    572.17493  0.012604082  0.011621965            3 
 3784000    0.6358091   -8.6631188    571.71383  0.012590597  0.011617758            3 
 3785000   0.64348833   -8.6753493    570.72937  0.012565596  0.011613544            6 
 3786000   0.63790177   -8.6856952    572.40027  0.012599055  0.011609323            2 
 3787000   0.62917581   -8.6947016    571.97345  0.012586336  0.011605103            8 
 3788000    0.6469576   -8.6549556    572.68269  0.012598616  0.011600883            3 
 3789000     0.642664   -8.6923435    571.91161  0.012578332  0.011596665            4 
 3790000   0.64181476   -8.6703312    573.63902  0.012612995  0.011592456            4 
 3791000   0.63178724   -8.6949088     571.8373  0.012570063  0.011588243            4 
 3792000   0.63699793   -8.6616896    571.95011  0.012569227  0.011584031            3 
 3793000    0.6443315   -8.6672639    572.93012  0.012587444  0.011579824            3 
 3794000    0.6460803   -8.6720514     572.0667  0.012565162  0.011575623            4 
 3795000    0.6651246    -8.654933    571.87898  0.012557729  0.011571416            4 
 3796000   0.64302737   -8.6868397    572.08037  0.012558842  0.011567207            3 
 3797000   0.64322347   -8.6595898    571.27212  0.012537796  0.011562999            2 
 3798000   0.64728023   -8.6701031     571.6339  0.012542432  0.011558794            3 
 3799000   0.65661306   -8.6902776    571.48168  0.012535792  0.011554595            4 
 3800000   0.64475026   -8.6732217    571.94167   0.01254258  0.011550402            2 
 3801000   0.64709268   -8.6932803    571.43923  0.012528265  0.011546202            3 
 3802000   0.64600446   -8.6820328    571.84076  0.012533771  0.011542001            4 
 3803000   0.64454603   -8.6638293    571.21131  0.012516682    0.0115378            8 
 3804000   0.64620034   -8.6756969    572.34412  0.012538208  0.011533606           12 
 3805000   0.64995353   -8.6729717    571.98113  0.012526963  0.011529406            8 
 3806000   0.63292656   -8.7015928    571.76134  0.012518859  0.011525204            4 
 3807000   0.65340064   -8.7043642    571.97966   0.01252035     0.011521            2 
 3808000   0.63511194   -8.6891375    572.07178  0.012519078    0.0115168            7 
 3809000   0.64074601   -8.7069413    570.53393  0.012482146  0.011512598            8 
 3810000   0.63642174   -8.6984141    571.46314  0.012499194  0.011508396            8 
 3811000   0.64108392   -8.7036172     571.1631  0.012489353  0.011504201            6 
 3812000   0.64950248   -8.6852276    571.65173  0.012496759  0.011500001            4 
 3813000   0.63918145   -8.6932003    571.68111  0.012494123  0.011495807            3 
 3814000   0.64995182   -8.6768231    571.42443  0.012485239  0.011491618            2 
 3815000   0.64802431   -8.6980616     571.5406  0.012484504  0.011487429            2 
 3816000   0.65297102   -8.6791526    571.96336  0.012490465  0.011483241           10 
 3817000   0.64043211   -8.6950532    571.46835  0.012476385  0.011479062            6 
 3818000   0.64936847   -8.6881398    571.57722  0.012475494  0.011474888            9 
 3819000   0.63939161   -8.7070461    570.62299  0.012451405  0.011470715            7 
 3820000   0.63562418   -8.6678154    571.94938  0.012477081  0.011466536            2 
 3821000   0.67131026   -8.6928444    571.57197  0.012465584  0.011462356            6 
 3822000   0.62218544   -8.6927862    571.43734  0.012459387  0.011458179            5 
 3823000   0.62171885    -8.700523    571.43285   0.01245603  0.011454006            5 
 3824000   0.63535168   -8.6787845    572.14086  0.012468202  0.011449834            6 
 3825000   0.63476744   -8.6887702    571.87969  0.012459252  0.011445671            5 
 3826000   0.63354776   -8.7095292    571.35573  0.012444584  0.011441506            6 
 3827000    0.6403094   -8.6856668    571.79529  0.012450903   0.01143734            6 
 3828000   0.64241379   -8.6991191    572.24216  0.012457379  0.011433178            5 
 3829000   0.63218567   -8.7019821    572.20365  0.012453287  0.011429015            7 
 3830000    0.6315092    -8.694821    571.33383   0.01243111  0.011424852           11 
 3831000   0.65389236    -8.694184    570.90513   0.01241854  0.011420681            4 
 3832000   0.65706117   -8.6936133    571.43288  0.012426776  0.011416513           11 
 3833000   0.63256023   -8.6771298    571.81252  0.012431788  0.011412352           10 
 3834000   0.63442046   -8.7034363    570.56325  0.012401392  0.011408197            6 
 3835000    0.6306599   -8.6943876    571.34136  0.012415066  0.011404043            9 
 3836000   0.63288066   -8.6769158    572.15761  0.012429562  0.011399894            8 
 3837000   0.62843943   -8.6573218    571.61408  0.012414518  0.011395743            6 
 3838000   0.63656793   -8.6901027    572.89847  0.012439171  0.011391593            3 
 3839000   0.63049917   -8.6919577    571.17148  0.012398443  0.011387448            3 
 3840000    0.6331806   -8.6529638    573.04623  0.012435899  0.011383304            3 
 3841000   0.62899108   -8.6945787    572.16141  0.012413465  0.011379168            4 
 3842000   0.63198361   -8.6787359    572.06396   0.01240812  0.011375036            2 
 3843000   0.62810461   -8.6867224    571.98922   0.01240327  0.011370908            1 
 3844000   0.63632144   -8.6958197    570.77246  0.012373666  0.011366769            2 
 3845000   0.64643459    -8.683048    571.13775  0.012378365  0.011362636            2 
 3846000   0.66102709   -8.6906931       571.34  0.012379529  0.011358504            2 
 3847000   0.62786732   -8.6887232    572.37602  0.012398753  0.011354371            3 
 3848000   0.63789684   -8.6999017    571.00352  0.012365807  0.011350237            2 
 3849000   0.61007338   -8.7019873    571.20437  0.012366943  0.011346106            2 
 3850000   0.63896075   -8.6814423    572.20072  0.012385297  0.011341971            1 
 3851000    0.6320497   -8.6872683    571.35729  0.012363829  0.011337845            4 
 3852000   0.63754301   -8.7063279    571.39577  0.012361452  0.011333723            2 
 3853000   0.64694557   -8.6979692    571.65337  0.012363815  0.011329598            2 
 3854000   0.63790391   -8.6780672    570.80032  0.012342162  0.011325475            3 
 3855000   0.63565503   -8.6965526    571.18207  0.012347213  0.011321361            3 
 3856000    0.6352555   -8.6859051    572.14745  0.012364874  0.011317243            2 
 3857000   0.62621409   -8.7147985    571.37043   0.01234488  0.011313132            1 
 3858000    0.6361608   -8.6926377    571.48519  0.012344159  0.011309019            2 
 3859000   0.64018017   -8.7105406    571.51991   0.01234171  0.011304908            2 
 3860000   0.62653001     -8.69416    572.58359  0.012361477  0.011300806            3 
 3861000   0.62484575   -8.7014136    572.55126  0.012357577  0.011296703            2 
 3862000   0.64732503   -8.7040962    571.83921  0.012339013  0.011292607            5 
 3863000   0.64983583   -8.6909032    571.96616  0.012338557  0.011288507            1 
 3864000   0.64267456   -8.7268707    570.45368  0.012302745  0.011284404            1 
 3865000   0.61046427   -8.6989974    571.17964  0.012315214  0.011280306            3 
 3866000     0.632191   -8.7005939    571.85384  0.012326561   0.01127621            2 
 3867000   0.61904795   -8.6980688    571.10785  0.012307298  0.011272114            3 
 3868000   0.63283271   -8.7313968    571.00775  0.012301959  0.011268018            2 
 3869000   0.61947374   -8.7073566    573.01144  0.012341937  0.011263924            2 
 3870000   0.62309956   -8.7051709     571.9144  0.012315125  0.011259834            3 
 3871000   0.64302311   -8.6854856    572.28512  0.012319924  0.011255746            1 
 3872000   0.63762587   -8.6910882    571.60997  0.012302212  0.011251663            2 
 3873000   0.63004379   -8.6951259    571.62143  0.012299282  0.011247581            2 
 3874000   0.62490902   -8.7043782    571.25651  0.012288257  0.011243504            3 
 3875000   0.64351777   -8.7132848    571.41251  0.012288441  0.011239427            3 
 3876000    0.6113651    -8.691555    572.17385  0.012301639  0.011235351            2 
 3877000   0.63419136   -8.6925799    572.03971  0.012295583  0.011231277            1 
 3878000   0.61745758   -8.6988225    571.90894  0.012289602  0.011227208            3 
 3879000   0.63620375   -8.7007399    571.51451  0.012277961  0.011223133            1 
 3880000   0.62473835   -8.7074828    572.09162  0.012287191  0.011219066            2 
 3881000   0.63776214    -8.705665    571.28914  0.012266794  0.011214991            2 
 3882000   0.62816296   -8.6884074    573.07677  0.012302009  0.011210919            3 
 3883000   0.63881034   -8.6842155     571.2813  0.012260308  0.011206855            6 
 3884000   0.61834675   -8.6806279    572.02668  0.012273144  0.011202794            1 
 3885000   0.63013927   -8.7123342    570.97866  0.012247504  0.011198726            2 
 3886000   0.64093771   -8.6875819    572.02345  0.012266758  0.011194671            1 
 3887000   0.64837952    -8.710069    570.84569  0.012238352  0.011190617            4 
 3888000   0.62614104   -8.7044291    571.73869  0.012254344  0.011186558            1 
 3889000   0.63031443    -8.693647    571.88111  0.012254245  0.011182505            1 
 3890000   0.62561339   -8.6957217    572.04245  0.012254551  0.011178456            8 
 3891000   0.64325998   -8.7017349    572.58901  0.012263107  0.011174415            1 
 3892000   0.64388017   -8.6703473    573.34489  0.012276141   0.01117037            2 
 3893000   0.63205286   -8.7250728    572.62831  0.012257649  0.011166325            3 
 3894000   0.61963194   -8.7113219    571.12849  0.012222404  0.011162277            2 
 3895000   0.63867648   -8.7083357    571.03406  0.012217246  0.011158235            5 
 3896000   0.62569824    -8.717284    571.57409  0.012225661  0.011154187            2 
 3897000    0.6201667   -8.7307878    572.01048  0.012231855  0.011150135            3 
 3898000   0.62811546   -8.7124778    571.43791  0.012216477  0.011146082            3 
 3899000   0.62774512   -8.7097781    572.29205  0.012231599  0.011142035            3 
 3900000   0.62569629    -8.695496    571.93366  0.012220805  0.011137996            3 
 3901000   0.63133807   -8.7110167    571.21481  0.012202316  0.011133956            2 
 3902000    0.6439461   -8.7153568    570.77067  0.012189703  0.011129914            3 
 3903000   0.61433088   -8.6910573    571.36684  0.012199309  0.011125886            3 
 3904000   0.61651186   -8.7301984    570.56078  0.012178978  0.011121853            5 
 3905000   0.63471819    -8.705612    570.69771  0.012178782  0.011117814            2 
 3906000   0.61627302   -8.7159418     571.8405  0.012200045  0.011113781            2 
 3907000   0.63011336   -8.7006087    571.51899  0.012190065  0.011109745            2 
 3908000   0.62682862   -8.7077563    571.18224  0.012179765  0.011105703            4 
 3909000   0.62666478   -8.7142127    571.63978  0.012186403  0.011101667            1 
 3910000   0.62256988   -8.7198212    571.67376   0.01218401  0.011097637            4 
 3911000   0.62618421   -8.7374607    570.49012  0.012155675  0.011093607            3 
 3912000   0.63129049   -8.7187348    571.01806  0.012163813  0.011089583            2 
 3913000   0.62420557   -8.7051691    571.43576    0.0121696  0.011085564            2 
 3914000   0.62003999   -8.7178597    570.83454  0.012153691  0.011081554            4 
 3915000   0.63279257   -8.6985133    571.19741   0.01215831  0.011077538            3 
 3916000   0.62452312   -8.7049025    571.51665  0.012161999  0.011073522            1 
 3917000   0.62980012   -8.7037791    571.54783  0.012159557  0.011069516            3 
 3918000   0.62246041   -8.7155228     571.8089  0.012162007  0.011065511            1 
 3919000   0.63030855   -8.7090361    571.33423   0.01214881  0.011061505            3 
 3920000   0.61698727   -8.7172552    571.92271  0.012158221  0.011057499            4 
 3921000   0.62751152   -8.7066426     571.0026  0.012135565  0.011053494            3 
 3922000   0.62906097   -8.7229543    571.79385  0.012149283  0.011049493            1 
 3923000   0.60023584   -8.6960101    571.37007  0.012137184  0.011045497            2 
 3924000   0.63304708   -8.7173945    571.22424  0.012130994  0.011041507            2 
 3925000   0.61991174   -8.7169492    572.05562  0.012145555  0.011037517            2 
 3926000   0.61339921   -8.6998984    571.90667  0.012139299  0.011033516            2 
 3927000   0.62772244   -8.7152253    571.91369  0.012136357   0.01102952            2 
 3928000   0.62919192    -8.707812    572.16675  0.012138636  0.011025524            3 
 3929000    0.6262936   -8.7226003    570.75975  0.012105704  0.011021531            3 
 3930000   0.61896715   -8.7111067    571.24228  0.012112856  0.011017542            4 
 3931000   0.63018308   -8.6974311    570.76145  0.012099581  0.011013551            6 
 3932000   0.62878722   -8.7185903     571.5084  0.012112335  0.011009563            2 
 3933000   0.61463739   -8.7104251    571.75688   0.01211452  0.011005581            2 
 3934000   0.63109362   -8.7187473    571.62222  0.012108588  0.011001596            2 
 3935000    0.6190523   -8.7190853    570.92229  0.012090688  0.010997617            6 
 3936000   0.63173187    -8.703074    570.70888  0.012083098  0.010993633            3 
 3937000   0.63084954    -8.713761    571.31173  0.012092789   0.01098965            3 
 3938000   0.61703651   -8.7149476    571.31821  0.012089855  0.010985669            2 
 3939000   0.62680853    -8.722672       571.32  0.012086824  0.010981692            3 
 3940000    0.6089302   -8.7318214    570.84088  0.012073623  0.010977707           10 
 3941000   0.62055751   -8.7115487    571.52879  0.012085105  0.010973727            4 
 3942000   0.61912526   -8.7223913    571.37222  0.012078729  0.010969753            5 
 3943000   0.62262833   -8.7162896     572.0317  0.012089604  0.010965771            4 
 3944000   0.62229454   -8.7128138    570.26399  0.012049188  0.010961799            2 
 3945000   0.61883354   -8.7194822    570.75683  0.012056545  0.010957824            2 
 3946000   0.62891423   -8.7258148     572.0064  0.012079878  0.010953854            2 
 3947000   0.60002819   -8.7122905    571.02914  0.012056185   0.01094989            2 
 3948000   0.61983925   -8.7023596    571.81527  0.012069724  0.010945926            2 
 3949000   0.61804979   -8.7345878    571.17161  0.012053085  0.010941949            1 
 3950000    0.6186869    -8.726495    570.72301   0.01204057  0.010937988            2 
 3951000    0.6282034   -8.7455445    570.35333  0.012029725  0.010934021            1 
 3952000   0.62525523    -8.737834    569.69628  0.012012826  0.010930058            2 
 3953000   0.62015348    -8.702436    571.53273  0.012048502  0.010926096            2 
 3954000   0.60115495   -8.7126209     570.9961  0.012034145  0.010922141            3 
 3955000   0.62993676   -8.7409522     571.6782  0.012045474  0.010918189            2 
 3956000   0.62850077   -8.7271208    571.11079  0.012030477  0.010914238            1 
 3957000   0.60507318   -8.7478955    570.81581  0.012021224  0.010910284            1 
 3958000   0.62558111   -8.7298371    570.15034  0.012004176  0.010906333            3 
 3959000   0.60601551   -8.7327354    571.31025  0.012025559  0.010902388            1 
 3960000   0.61526732   -8.7589555     569.7077  0.011988798  0.010898438            3 
 3961000   0.61408661   -8.7223526    570.89637  0.012010779  0.010894488            2 
 3962000   0.60713714   -8.7094058    571.24083  0.012014993   0.01089054            2 
 3963000   0.61124865   -8.7219393    571.38648  0.012015024  0.010886591            5 
 3964000   0.61549227   -8.7330255    569.99214   0.01198268  0.010882644            6 
 3965000   0.61627467   -8.7427611    570.47217  0.011989747  0.010878702            2 
 3966000    0.6206226   -8.7471124    571.38473  0.012005899  0.010874763            3 
 3967000   0.62484533   -8.7146464    570.66907  0.011987839  0.010870834            2 
 3968000   0.61592474   -8.7272593    571.29809  0.011998028  0.010866899            2 
 3969000   0.62808823   -8.7426341    571.18721  0.011992677  0.010862965            3 
 3970000   0.59697466    -8.739998    570.58252  0.011976963   0.01085903            2 
 3971000   0.60751538   -8.7204932    570.54704  0.011973202  0.010855098            3 
 3972000   0.62616807   -8.7109722    570.04321  0.011959618  0.010851167            3 
 3973000   0.61960383   -8.7273986    570.88131  0.011974186  0.010847234            1 
 3974000   0.60788483    -8.701863    571.88131  0.011992143   0.01084331            4 
 3975000   0.60839923   -8.7409525    569.06452  0.011930074   0.01083938            2 
 3976000   0.61910282   -8.7477552    570.55518  0.011958316  0.010835449            1 
 3977000   0.61130895    -8.732786    570.46679  0.011953457   0.01083152            3 
 3978000    0.6190928   -8.7406164    570.56977   0.01195261  0.010827593            3 
 3979000   0.62466906   -8.7668545    569.83975  0.011934317  0.010823667            2 
 3980000   0.59733657   -8.7421961    571.04513  0.011956556  0.010819739            4 
 3981000   0.62487441   -8.7266551    571.51546  0.011963398  0.010815814            2 
 3982000   0.61824187   -8.7356154    569.87494  0.011926062  0.010811893            1 
 3983000   0.61819183   -8.7541492    571.46673  0.011956371   0.01080798            1 
 3984000   0.62014932   -8.7262398    570.50939  0.011933346  0.010804064            4 
 3985000   0.61649101   -8.7298974    570.99993  0.011940609  0.010800147            1 
 3986000   0.61959851   -8.7366186    570.26788  0.011922309   0.01079624            1 
 3987000   0.59548467   -8.7214105    571.30242  0.011940942  0.010792336            8 
 3988000   0.61333642   -8.7593487     571.2547   0.01193695  0.010788429            2 
 3989000   0.62231702   -8.7223466    570.56058  0.011919457  0.010784522            3 
 3990000   0.61550913   -8.7350146    570.05696  0.011905952   0.01078062            2 
 3991000   0.61472995   -8.7485268    570.11958  0.011904276  0.010776719            1 
 3992000   0.61669432    -8.741348    570.07601  0.011900384  0.010772817            7 
 3993000   0.60637339   -8.7260818    570.07465  0.011897376  0.010768915            6 
 3994000   0.61559444    -8.727094    569.50443  0.011882499  0.010765017            6 
 3995000   0.61988069   -8.7493398    569.69359  0.011883471  0.010761114            2 
 3996000   0.62492539   -8.7349002    570.54057   0.01189816  0.010757221            4 
 3997000    0.6143636   -8.7443814    568.94702  0.011861959   0.01075332            4 
 3998000   0.63258838   -8.7539347    569.45987  0.011869682  0.010749428            7 
 3999000   0.61437596   -8.7232514    570.59777  0.011890426  0.010745539            5 
 4000000   0.60064834   -8.7447238    570.35158  0.011882325  0.010741653            3 
 4001000   0.61164417   -8.7631051    569.96386  0.011871279  0.010737763            5 
 4002000   0.62714192   -8.7430448    570.36209  0.011876605  0.010733872            4 
 4003000   0.61201403   -8.7332182    569.91997  0.011864434  0.010729988            5 
 4004000   0.59823794   -8.7310057     570.6187  0.011876014  0.010726106            3 
 4005000   0.60331399    -8.740066    570.34076  0.011867265  0.010722216            5 
 4006000   0.61217981   -8.7541551    569.70963  0.011851174  0.010718327            4 
 4007000   0.61293919   -8.7515358    570.28729   0.01186023  0.010714443            3 
 4008000   0.60973249   -8.7637778    569.33416  0.011837453  0.010710556            5 
 4009000   0.62734738   -8.7771483    569.71882  0.011842496  0.010706677            3 
 4010000   0.60401882   -8.7580298    568.96463   0.01182387  0.010702795            3 
 4011000   0.60977066    -8.756736    569.30621  0.011828019   0.01069891            3 
 4012000    0.6101907   -8.7553931    568.83729  0.011815331   0.01069503            6 
 4013000   0.60314743   -8.7381571    568.71281  0.011809802  0.010691152            3 
 4014000   0.60901346   -8.7575437    569.62859  0.011825872  0.010687272            3 
 4015000   0.61872455   -8.7468573    569.85896  0.011827708  0.010683392            2 
 4016000   0.59738624   -8.7569959     569.8249  0.011824056  0.010679517            2 
 4017000   0.60563082   -8.7584037    569.73354  0.011819217  0.010675646            1 
 4018000   0.60921797   -8.7736177    569.85861   0.01181887  0.010671775            4 
 4019000   0.62109008    -8.757275    571.10165  0.011841703  0.010667903            4 
 4020000   0.60266902   -8.7585556    570.42888  0.011824811  0.010664036            2 
 4021000   0.60882251   -8.7503703    569.99552  0.011812889  0.010660168            2 
 4022000   0.61612396   -8.7603822    568.79017  0.011784978  0.010656299            2 
 4023000   0.60479115   -8.7638096    570.27017  0.011812705  0.010652434            2 
 4024000   0.61456003   -8.7376218    570.62451  0.011817108   0.01064857            2 
 4025000   0.59661502   -8.7779098    570.06658  0.011802621  0.010644708            3 
 4026000   0.60306786   -8.7520149     569.0584  0.011778821  0.010640845            2 
 4027000   0.59289837   -8.7490302    569.73123  0.011789819  0.010636987            2 
 4028000   0.60720349   -8.7549869    569.73035  0.011786874  0.010633135            2 
 4029000   0.60675341   -8.7380718    569.77515  0.011784875  0.010629282            5 
 4030000   0.61742535   -8.7504341    570.20858  0.011790914  0.010625427            2 
 4031000   0.60258797   -8.7438297    570.25787  0.011789008  0.010621575            6 
 4032000   0.61509774   -8.7702192     569.0749  0.011761634   0.01061772            3 
 4033000   0.60487901   -8.7636187    569.80162  0.011773734  0.010613866            3 
 4034000   0.59352653   -8.7622769     569.6939   0.01176859  0.010610014            2 
 4035000   0.60369723   -8.7385489     570.6812  0.011786064  0.010606163            3 
 4036000   0.60236753   -8.7382703    569.24158  0.011753419  0.010602313            2 
 4037000   0.61379258   -8.7602323    569.57187  0.011757325  0.010598467            6 
 4038000   0.60814677   -8.7789263    570.44231  0.011772377  0.010594619            2 
 4039000   0.60312368   -8.7558768    569.51464  0.011750323  0.010590773            3 
 4040000   0.60960059   -8.7831205    569.73807  0.011752023  0.010586931            9 
 4041000   0.61318306   -8.7574425    570.06478  0.011755852  0.010583091            3 
 4042000   0.61664653   -8.7813521    570.06542  0.011752957  0.010579249            2 
 4043000   0.60048322   -8.7774004    570.18248  0.011752463  0.010575407            4 
 4044000   0.62103319   -8.7536676    570.39167  0.011753867  0.010571572            4 
 4045000   0.60061474   -8.7562495    570.80244  0.011759424  0.010567734            3 
 4046000   0.60245414   -8.7769862    570.37602  0.011747735  0.010563897            3 
 4047000   0.61146173   -8.7421334    570.12918  0.011739749  0.010560064            4 
 4048000   0.62277159   -8.7830816    568.72481  0.011707938  0.010556232            3 
 4049000    0.6068689   -8.7864873    569.55832  0.011722201  0.010552397            2 
 4050000   0.60402541   -8.7659498    569.80762  0.011724437  0.010548567            2 
 4051000   0.61448416   -8.7802051    568.89541  0.011702777  0.010544744            2 
 4052000   0.61119939   -8.7876801    568.63867  0.011694609  0.010540921            2 
 4053000   0.59835717   -8.7733674    569.75407  0.011714657    0.0105371            5 
 4054000   0.59894231   -8.7816956    568.97768  0.011695808   0.01053328            1 
 4055000   0.60568737   -8.7560373    570.50606  0.011724333  0.010529458            1 
 4056000   0.59815115   -8.7538628    568.28565  0.011675823  0.010525634            2 
 4057000   0.59515211   -8.7739458    569.59481  0.011699836  0.010521815            3 
 4058000   0.60935547   -8.7728093    568.61144  0.011676759     0.010518            4 
 4059000   0.61034922    -8.774923    569.57073  0.011693577  0.010514185            2 
 4060000   0.58743233   -8.7850987    569.79893   0.01169538  0.010510369            4 
 4061000   0.58747719   -8.7607696    569.08363  0.011677822  0.010506558            2 
 4062000   0.60708843   -8.7833563    568.59916  0.011665008  0.010502749            2 
 4063000    0.6096343   -8.7822884    569.32267  0.011676977  0.010498939            3 
 4064000   0.60446834   -8.7738939    568.54769  0.011658212  0.010495131            1 
 4065000    0.5914573   -8.7714925    569.26694  0.011670089  0.010491323            1 
 4066000   0.60032097   -8.7813935    568.83864  0.011658441  0.010487509            3 
 4067000   0.60191886   -8.7742016    570.29116  0.011685336  0.010483699            5 
 4068000   0.57961429   -8.7533362    570.10377  0.011678625  0.010479894            2 
 4069000   0.59172526   -8.7632462    569.10684  0.011655338    0.0104761            2 
 4070000   0.59920248   -8.7707181    569.53184  0.011661176  0.010472303            4 
 4071000   0.61926568   -8.7885211    569.18033  0.011651116  0.010468502            4 
 4072000   0.60888908   -8.7858138    570.11232  0.011667328  0.010464705            3 
 4073000   0.59731601   -8.7749377    569.36533   0.01164918  0.010460909            2 
 4074000   0.59896491   -8.7555883     569.5382  0.011649857  0.010457116            5 
 4075000   0.61291425    -8.766396    569.80113  0.011652375  0.010453325            2 
 4076000   0.59897742   -8.7537224    569.20385  0.011637305  0.010449534            3 
 4077000   0.59722454   -8.7732429    569.68614  0.011644308  0.010445747            2 
 4078000    0.6031002   -8.7710013    570.16883  0.011651317  0.010441963            2 
 4079000   0.62029424   -8.7812531     567.9459  0.011603046  0.010438176            3 
 4080000   0.59402095   -8.7910751    568.67203  0.011615033  0.010434391            2 
 4081000   0.59673272    -8.781399    568.91315  0.011617111  0.010430605            2 
 4082000   0.59887009   -8.7782119    569.21966  0.011620522  0.010426822            2 
 4083000   0.60670012   -8.7820701    568.69141  0.011606895  0.010423046            4 
 4084000   0.60105481    -8.743654     569.0662    0.0116117   0.01041927            2 
 4085000   0.59241583   -8.7540502       569.72  0.011622195  0.010415495            2 
 4086000   0.60076776   -8.7734581    569.69061  0.011618751  0.010411725            3 
 4087000   0.60628217   -8.7852444    568.20977  0.011585714  0.010407958            6 
 4088000   0.59723986   -8.7771137    569.07999   0.01160062  0.010404193            1 
 4089000   0.60012508   -8.7818749     568.8397  0.011592885  0.010400422            4 
 4090000   0.59930976   -8.7975741    569.34813   0.01160041  0.010396656            5 
 4091000   0.59260879   -8.7658356    568.95912   0.01158965  0.010392886            4 
 4092000   0.60415101   -8.7863866    569.35499   0.01159488  0.010389121            2 
 4093000   0.59190796   -8.7942739    569.07688  0.011586385  0.010385359            4 
 4094000   0.58963283   -8.7757543    569.58279  0.011593852  0.010381595            3 
 4095000   0.60007373   -8.7928314    568.95852  0.011578318  0.010377834            4 
 4096000   0.58887639   -8.7952563    568.52712  0.011566714  0.010374075            3 
 4097000   0.59787797    -8.794494    569.30021  0.011579615  0.010370319            4 
 4098000   0.58034772   -8.7859294    570.15829  0.011594239  0.010366563            2 
 4099000   0.58754874   -8.7948832    568.33583  0.011554359  0.010362811            9 
 4100000    0.5944359   -8.7952383    568.73425  0.011559639  0.010359057            2 
 4101000   0.59454577   -8.7882874    570.14507  0.011585489  0.010355309            3 
 4102000   0.59646046   -8.7770362     569.0057  0.011559518  0.010351565            3 
 4103000   0.59862365   -8.7753634    569.64593  0.011569704   0.01034782            3 
 4104000   0.60039012   -8.7661341    568.84539  0.011550629   0.01034408            4 
 4105000   0.59272931    -8.790933    568.11091  0.011532905  0.010340337           10 
 4106000   0.59372297   -8.7933222    569.44592  0.011557191  0.010336592            4 
 4107000   0.58424138   -8.7851867    568.67433  0.011538721  0.010332851            2 
 4108000   0.60032123   -8.7931384    569.95741   0.01156194  0.010329114            2 
 4109000   0.60013409     -8.78326    568.77383  0.011535123  0.010325376            2 
 4110000   0.60518122   -8.7775531    569.22036   0.01154137   0.01032164            3 
 4111000    0.5926529   -8.7864727    570.21422  0.011558709  0.010317904            4 
 4112000   0.59183929   -8.7831751    569.63778  0.011544216  0.010314171            6 
 4113000   0.57314043   -8.7787063    568.63771  0.011521147  0.010310438            3 
 4114000   0.60889029    -8.796897    569.92953  0.011544513  0.010306704            1 
 4115000   0.58515474   -8.7695093    570.00444  0.011543225  0.010302974            4 
 4116000   0.58631868   -8.7929472    568.73143  0.011514647  0.010299251            5 
 4117000   0.58418657   -8.7866477    568.68284  0.011510866  0.010295529            4 
 4118000   0.60097751   -8.7891335    568.91552   0.01151278  0.010291808            4 
 4119000   0.58805617   -8.7837985    568.78193  0.011507282   0.01028809            3 
 4120000    0.6102179     -8.80101    568.06456  0.011489979   0.01028437            4 
 4121000    0.6008495   -8.7885858    568.28792  0.011491708  0.010280649            3 
 4122000   0.59751175   -8.7686101    570.01262  0.011523787   0.01027693            4 
 4123000   0.59702684   -8.7704758    569.74711  0.011515626  0.010273215            2 
 4124000   0.59759386   -8.7916892    569.05097  0.011498767  0.010269499            6 
 4125000   0.57918683   -8.8082983    568.65123  0.011487904  0.010265782            6 
 4126000   0.59237161   -8.8059887    569.38169  0.011499873   0.01026207            2 
 4127000   0.58626385   -8.7891656     568.8192  0.011485728  0.010258361            3 
 4128000   0.59110378   -8.7917508    568.26782  0.011471815  0.010254656            4 
 4129000   0.60332847   -8.7825426    570.09675  0.011505949  0.010250951            3 
 4130000   0.59390475   -8.7837137    568.78278   0.01147665  0.010247248            5 
 4131000   0.59097661   -8.7844928    569.27964  0.011483895  0.010243544            3 
 4132000   0.57746221   -8.8066425     568.6177  0.011467766  0.010239848            4 
 4133000   0.58160111    -8.795014     568.3928  0.011460456  0.010236146            2 
 4134000     0.586816   -8.7986967    569.17684  0.011473489  0.010232445            2 
 4135000    0.6054874   -8.8013174    568.54003   0.01145788  0.010228743            4 
 4136000   0.59331735   -8.7688573    568.74455  0.011459231  0.010225045            3 
 4137000   0.59875919    -8.802045    569.41897  0.011470046  0.010221349            1 
 4138000   0.58977679    -8.782179    568.91818  0.011457189  0.010217654            3 
 4139000   0.58528713   -8.7905745    569.53192  0.011466778  0.010213961            1 
 4140000   0.59220095   -8.7721637    569.05983  0.011454505  0.010210272            2 
 4141000    0.6065698   -8.7921256    568.52823  0.011441041  0.010206586            3 
 4142000   0.59152971   -8.8053498    569.66227  0.011461095  0.010202895            4 
 4143000   0.58152225   -8.7865168    569.16879  0.011448403  0.010199211            3 
 4144000      0.59116   -8.7985446    567.81765  0.011418469  0.010195522            3 
 4145000   0.57831965   -8.7952201    568.52966  0.011430029  0.010191843            1 
 4146000   0.58253412    -8.798998      568.445  0.011425571   0.01018816            3 
 4147000   0.60153749   -8.7954918    567.64607  0.011406761  0.010184475            3 
 4148000   0.60010089    -8.792702    569.43866  0.011440025  0.010180795            3 
 4149000   0.58538731   -8.7954054    569.37277  0.011435944  0.010177115            1 
 4150000   0.59254881   -8.7912216    569.04859  0.011426679  0.010173443            3 
 4151000   0.59722035   -8.8018762    567.62274  0.011395301  0.010169769            2 
 4152000   0.58583677   -8.7848233    568.86686  0.011417527  0.010166095            2 
 4153000   0.57825675   -8.8027719    568.01341  0.011397652  0.010162422            1 
 4154000   0.59064519   -8.7996364    568.13664  0.011397381  0.010158753            5 
 4155000   0.59126505    -8.817026    568.43683  0.011400659  0.010155085            2 
 4156000   0.58495915   -8.8101634     568.5858  0.011400902  0.010151416            4 
 4157000   0.57996395    -8.793466    569.45735  0.011415631  0.010147747            4 
 4158000   0.59961596   -8.7868784    568.86749  0.011401064  0.010144089            3 
 4159000   0.57362581    -8.799101    569.87226  0.011418455  0.010140426            2 
 4160000   0.59617137   -8.7952235     567.9349  0.011376901  0.010136764            3 
 4161000    0.5807117   -8.7897092    568.82662  0.011392026  0.010133106            3 
 4162000   0.58703979   -8.7962308    569.30399  0.011398846  0.010129451            7 
 4163000   0.58739895   -8.8003626    569.22092  0.011394446  0.010125794            1 
 4164000   0.58856274   -8.7744143    569.23739  0.011392039  0.010122136            1 
 4165000   0.59577521   -8.7857462    569.03516  0.011385257  0.010118483            4 
 4166000   0.58616715   -8.8014776    568.60821  0.011373984  0.010114838            2 
 4167000   0.59391268   -8.7841864    568.44661  0.011368023  0.010111183            3 
 4168000   0.60192875   -8.8228598    568.46508  0.011365665  0.010107532            3 
 4169000   0.58625535   -8.8063891    567.93866  0.011352416  0.010103881            7 
 4170000   0.57676958   -8.7909092    568.02779  0.011351475  0.010100235            7 
 4171000   0.58940599   -8.7986774    568.84176  0.011365016  0.010096591            9 
 4172000   0.59030102   -8.8097626    568.32938  0.011352057  0.010092947            9 
 4173000   0.57060264   -8.7844487    567.91579  0.011341077  0.010089308            4 
 4174000   0.59007506   -8.8217376    567.92795  0.011338603  0.010085669            4 
 4175000   0.57521383    -8.806257    568.52057  0.011347716   0.01008203            2 
 4176000   0.58518337   -8.7948369    568.66626  0.011347906  0.010078394            2 
 4177000   0.58604783   -8.7992735    569.68198  0.011365453  0.010074758            2 
 4178000   0.59312881   -8.7946197    568.51649  0.011339486  0.010071126            2 
 4179000   0.59263077   -8.8083453    568.36871  0.011333826  0.010067496            2 
 4180000   0.58530323   -8.7983413    568.20971  0.011327945  0.010063862            4 
 4181000   0.57588509   -8.8062047    568.37459  0.011328522  0.010060228            1 
 4182000   0.59174009     -8.81735    567.95117  0.011317375  0.010056601            4 
 4183000   0.60083928   -8.8085878     568.7453  0.011330491  0.010052972            7 
 4184000   0.58141278   -8.7838447    568.53829  0.011323659  0.010049342            3 
 4185000    0.5736417   -8.8119299    568.74327  0.011325035  0.010045716            3 
 4186000   0.57004248   -8.8218123    568.06276  0.011308782  0.010042092            2 
 4187000   0.58625324   -8.8098806    568.57247  0.011316226  0.010038469            2 
 4188000   0.58305926   -8.8187472    568.52061  0.011312492  0.010034845            4 
 4189000   0.58806483   -8.8183517    568.32993  0.011305998  0.010031229            1 
 4190000   0.57630401   -8.8026666     568.1437  0.011299596  0.010027611            4 
 4191000   0.59181554   -8.7966496     567.3555  0.011281228  0.010023992            5 
 4192000   0.59649657   -8.8105177    568.42254  0.011299748  0.010020378            2 
 4193000   0.58528585   -8.8182965    568.67721  0.011302115  0.010016769            3 
 4194000   0.57480741   -8.8142268    568.07699  0.011287494   0.01001316            1 
 4195000   0.56977926   -8.8072907    568.93893  0.011301925   0.01000955            6 
 4196000   0.58605613   -8.8094554    567.99484  0.011280482  0.010005946            2 
 4197000   0.58638278   -8.8033368    568.55387  0.011288894  0.010002339            7 
 4198000   0.58023297   -8.8229104    568.18127  0.011278809 0.0099987402            2 
 4199000   0.57997563   -8.8200704    568.31472  0.011278771 0.0099951375            2 
 4200000   0.56727762   -8.8198008    568.19123  0.011273636 0.0099915318            1 
 4201000   0.58510465    -8.800142    568.37081  0.011274514 0.0099879329            2 
 4202000   0.58307889   -8.8085256    567.18764  0.011248367 0.0099843356            5 
 4203000   0.57709978   -8.8239389    568.00145  0.011261826 0.0099807391            2 
 4204000   0.57557067   -8.8220228    568.53689  0.011269761 0.0099771469            3 
 4205000   0.58443984   -8.8280249    567.93926  0.011255237 0.0099735577            3 
 4206000   0.57394671   -8.8069799    568.42122   0.01126211 0.0099699668            2 
 4207000   0.58433859   -8.8093626     567.9618  0.011250333 0.0099663767            2 
 4208000   0.58974689   -8.8199557    568.27631  0.011253888 0.0099627841            1 
 4209000   0.57303875    -8.814097    569.01607   0.01126586 0.0099591962            5 
 4210000   0.58417344   -8.8108228    568.78752   0.01125866 0.0099556097            2 
 4211000   0.57386819   -8.8220679    568.05263  0.011241444  0.009952024            3 
 4212000    0.5777395   -8.8036894    567.52971  0.011228429 0.0099484382            7 
 4213000   0.58421309   -8.8157533    568.70578  0.011249026 0.0099448595            3 
 4214000   0.57877715   -8.8050179      568.053  0.011233448 0.0099412834            4 
 4215000   0.57307208   -8.8206795    569.41006  0.011257613   0.00993771            3 
 4216000   0.57593141   -8.8074244    569.06558  0.011248134 0.0099341388            1 
 4217000   0.57064299     -8.81378    568.60282  0.011236322 0.0099305654            2 
 4218000   0.57846428    -8.811555    567.95612  0.011220881 0.0099269935            2 
 4219000    0.5687302   -8.8143205    568.29806  0.011224976 0.0099234264            2 
 4220000   0.58864112   -8.8119133    567.81861  0.011212848 0.0099198561            2 
 4221000   0.57783615   -8.8248197    567.90327  0.011211863 0.0099162886            5 
 4222000   0.57789089   -8.8121006    568.20646  0.011215191 0.0099127265            3 
 4223000   0.57523492   -8.8317647    568.98173  0.011227834 0.0099091642            2 
 4224000   0.57938604   -8.8312387    568.39297  0.011213561    0.0099056            3 
 4225000   0.57755947   -8.8119686    568.03844  0.011203914 0.0099020369            2 
 4226000   0.56860565   -8.8291876    567.64161  0.011193438 0.0098984805            4 
 4227000    0.5913653    -8.815569    567.54797  0.011188943 0.0098949214            3 
 4228000   0.57719106   -8.8116982    568.37384  0.011202575 0.0098913663            2 
 4229000   0.55859331   -8.8139371     568.2926  0.011198325  0.009887809            2 
 4230000   0.58457735   -8.8142624    568.28491  0.011195526  0.009884255            2 
 4231000    0.5695993    -8.823928    567.34025  0.011174274 0.0098807025            2 
 4232000   0.57300495   -8.8195178    568.35429  0.011191602 0.0098771528            1 
 4233000   0.56557301   -8.8091112    568.44639  0.011190771 0.0098736049            5 
 4234000   0.57555732   -8.8053843    567.57122  0.011170903 0.0098700525            3 
 4235000   0.57492968   -8.8150297    568.07877  0.011178252 0.0098664973            4 
 4236000   0.57653506     -8.83307    568.90552  0.011191878 0.0098629471            2 
 4237000   0.56742589   -8.8376351    567.81763  0.011167839 0.0098593989            3 
 4238000   0.57327109   -8.8365191     567.1411  0.011151901 0.0098558519            3 
 4239000   0.57863077   -8.8196822    568.49909  0.011175967 0.0098523042            2 
 4240000   0.56388987   -8.8163894    568.60885  0.011175488 0.0098487591            1 
 4241000   0.57923194   -8.8208648    567.52365   0.01115153 0.0098452157            4 
 4242000   0.59374962   -8.8099471    567.44144  0.011147286 0.0098416766            3 
 4243000   0.58929035   -8.8174648    567.77926  0.011151294 0.0098381351            2 
 4244000   0.57629282   -8.8231179    567.56217  0.011144403 0.0098346014            2 
 4245000   0.57165018   -8.8233666    567.48563  0.011140275 0.0098310629            3 
 4246000   0.56642967   -8.8303133    567.79245  0.011143674 0.0098275275            1 
 4247000   0.57616018   -8.8358647    567.08312  0.011127131 0.0098239906            3 
 4248000   0.56288552   -8.8225343    567.23252  0.011127443 0.0098204552            3 
 4249000   0.56946409   -8.8265702    568.53042  0.011150279 0.0098169242            7 
 4250000   0.56637613   -8.8427764    567.37203  0.011124942 0.0098133909            3 
 4251000   0.56621446   -8.8207326    568.45014  0.011143459 0.0098098575            1 
 4252000   0.57849519   -8.8261664    567.67836  0.011125713 0.0098063281            4 
 4253000   0.57030112   -8.8048328    566.85814  0.011107025 0.0098027981            4 
 4254000   0.57122486   -8.8359342    568.02747  0.011127321 0.0097992744            2 
 4255000   0.57589709    -8.819405    567.59953  0.011116325 0.0097957508            3 
 4256000   0.56923668   -8.8489932    567.84398  0.011118499 0.0097922274            5 
 4257000   0.57810372   -8.8300609     568.6227  0.011131131 0.0097887082            2 
 4258000   0.58005203   -8.8176951    568.14706  0.011119208 0.0097851903            4 
 4259000   0.57275234   -8.8240086    568.78845  0.011129147 0.0097816786            2 
 4260000   0.58059013   -8.8257789    567.42649  0.011099892 0.0097781684            2 
 4261000   0.57742238   -8.8191285    567.80363  0.011104663 0.0097746582            1 
 4262000   0.58106123   -8.8431604    567.55536  0.011097203 0.0097711501            4 
 4263000   0.57776625    -8.815999    567.78764  0.011099141 0.0097676466            2 
 4264000   0.58456353   -8.8427643    566.97862  0.011080727 0.0097641395            1 
 4265000   0.57515818   -8.8331411     567.6721  0.011091678 0.0097606396            5 
 4266000   0.56049764   -8.8372771    567.68815  0.011089392 0.0097571361            3 
 4267000   0.58131757   -8.8220053    567.40032  0.011081172 0.0097536335            3 
 4268000   0.55936945   -8.8365754    567.73137  0.011085039 0.0097501316            3 
 4269000   0.57716724   -8.8320208    567.77661  0.011083326 0.0097466299            5 
 4270000   0.56349336   -8.8329241    566.93165   0.01106424 0.0097431303            1 
 4271000   0.57317959   -8.8466166    567.54727  0.011073661 0.0097396374            2 
 4272000   0.57080791   -8.8138071    567.75444   0.01107511 0.0097361456            2 
 4273000   0.56096152   -8.8531214    568.15041  0.011080241 0.0097326503            3 
 4274000   0.56198653   -8.8529627     567.8771  0.011072319 0.0097291572            2 
 4275000   0.55198898   -8.8439765    567.72111  0.011066688 0.0097256639            6 
 4276000   0.58022657   -8.8349993    567.01835  0.011050404 0.0097221746            4 
 4277000   0.57637936   -8.8379491     567.1606  0.011050592 0.0097186815            4 
 4278000   0.58399793   -8.8326889     567.5014  0.011054648 0.0097151943            2 
 4279000   0.55916782   -8.8377739    567.71009  0.011056129 0.0097117116            4 
 4280000   0.57717374   -8.8532114    566.81302  0.011036079 0.0097082258            4 
 4281000   0.55927148   -8.8260872    566.56654  0.011028703 0.0097047428            6 
 4282000   0.56705193    -8.842957    566.75884   0.01102987 0.0097012624            5 
 4283000   0.55832806   -8.8213849    567.17931  0.011035476 0.0096977824            5 
 4284000   0.55381311   -8.8334351    568.13591  0.011051508  0.009694303            5 
 4285000   0.56201836   -8.8592911    566.96583  0.011026173 0.0096908254            3 
 4286000   0.56615373   -8.8222741    567.81719  0.011040154 0.0096873488            3 
 4287000   0.55560399   -8.8267181    566.76079  0.011017044 0.0096838763            3 
 4288000   0.58163057    -8.831925    568.05854  0.011039695 0.0096804108            4 
 4289000   0.55733044    -8.853531     567.5865  0.011027949 0.0096769378            4 
 4290000   0.56174992   -8.8485785    566.98879  0.011013768 0.0096734704            3 
 4291000   0.55968912   -8.8440022    567.57982   0.01102268 0.0096700061            5 
 4292000   0.55939399   -8.8635258    567.20536  0.011012841 0.0096665377            3 
 4293000   0.56008408   -8.8312651    566.80922  0.011002586 0.0096630725            3 
 4294000    0.5596337   -8.8358956     567.7051   0.01101741 0.0096596081            2 
 4295000   0.56264716    -8.847986    568.44069  0.011029117  0.009656148            5 
 4296000   0.55898274   -8.8281311    567.73587  0.011012878 0.0096526836            3 
 4297000   0.57337125   -8.8361514    567.26606  0.011001204 0.0096492199            1 
 4298000   0.56392528   -8.8525965    567.23378  0.010998018 0.0096457625            6 
 4299000   0.55908222   -8.8546021    567.09584  0.010992786 0.0096423053            6 
 4300000   0.56001796   -8.8319646    567.69456  0.011001833 0.0096388574            4 
 4301000   0.55616558   -8.8391976    567.31731  0.010991965 0.0096354054            2 
 4302000   0.55824426   -8.8377982    567.41504  0.010991303 0.0096319571            5 
 4303000   0.56707028   -8.8295751    569.07462  0.011020889 0.0096285104            3 
 4304000   0.57115532   -8.8316851    568.08676  0.010999202 0.0096250651            2 
 4305000   0.55855923   -8.8261804    569.01736  0.011014661 0.0096216188            3 
 4306000   0.56175551   -8.8581447    568.09101  0.010994175 0.0096181755            3 
 4307000   0.56172261   -8.8347133    568.62361  0.011001927 0.0096147348            3 
 4308000    0.5651688    -8.843306    567.82677   0.01098396 0.0096112936            4 
 4309000   0.56031704   -8.8416651    567.08401  0.010967046 0.0096078572            2 
 4310000   0.57278391   -8.8537234    567.08051  0.010964434 0.0096044196            5 
 4311000   0.55671673    -8.861025    567.65211  0.010972939 0.0096009817            3 
 4312000   0.55600055    -8.829924    567.50924  0.010967634 0.0095975417            2 
 4313000   0.56051154   -8.8506634    566.72677  0.010949972 0.0095941051            4 
 4314000   0.56454434   -8.8525656    567.10352  0.010954712 0.0095906726            3 
 4315000   0.57558198   -8.8402496    568.24647  0.010974246 0.0095872416            3 
 4316000   0.55964948    -8.844378    566.45136  0.010937044 0.0095838134            1 
 4317000   0.54608962   -8.8475567    567.26901  0.010950294 0.0095803844            2 
 4318000   0.56344057    -8.861113    567.52298  0.010952659 0.0095769587            4 
 4319000   0.56415603   -8.8637036    567.35981  0.010946975 0.0095735362            2 
 4320000   0.56241971   -8.8397233    567.51678  0.010947469  0.009570112            3 
 4321000   0.56463428   -8.8461973     567.3343  0.010941416 0.0095666885            4 
 4322000   0.56456017   -8.8638301    567.30216  0.010938265 0.0095632703            3 
 4323000   0.57974783   -8.8500075    566.88824  0.010927755 0.0095598512            2 
 4324000   0.56737823   -8.8469686    567.15968  0.010930459 0.0095564309            3 
 4325000   0.54862246    -8.847905    567.28499  0.010930347 0.0095530143            3 
 4326000   0.55786885   -8.8589379    568.43676  0.010950007 0.0095495956            2 
 4327000   0.54673907    -8.868708     566.9619  0.010919072 0.0095461806            2 
 4328000   0.54709386   -8.8483116    567.15615  0.010920289 0.0095427649            5 
 4329000   0.55668022   -8.8534608    567.43055  0.010923049 0.0095393558            3 
 4330000   0.56218433   -8.8513107      566.686  0.010906197 0.0095359516            3 
 4331000   0.56457006   -8.8364934    566.87361  0.010907289 0.0095325451            4 
 4332000   0.55382239   -8.8461271    567.97816  0.010926019 0.0095291437            3 
 4333000   0.55965408   -8.8599014    567.76449  0.010919388 0.0095257394            4 
 4334000   0.56374625   -8.8547318    567.00223  0.010902212 0.0095223374            6 
 4335000   0.56006759   -8.8468886    567.32483  0.010905898 0.0095189397            3 
 4336000    0.5562653   -8.8505869    567.58749  0.010908431 0.0095155404            2 
 4337000   0.56453527   -8.8459225    566.73773  0.010889588 0.0095121422            1 
 4338000   0.55125828   -8.8396845    567.68877  0.010905347 0.0095087491            5 
 4339000   0.55097901   -8.8569136    567.25242  0.010894454 0.0095053556            4 
 4340000   0.56163365   -8.8659202     567.2445  0.010891792 0.0095019637            2 
 4341000    0.5502136   -8.8642375    566.42113  0.010873476 0.0094985686            3 
 4342000   0.55298798     -8.84455    567.50027  0.010891683  0.009495177            5 
 4343000   0.55970255   -8.8656406    567.69168  0.010892848 0.0094917876            2 
 4344000    0.5433464   -8.8550281    566.50247  0.010867528  0.009488394            3 
 4345000   0.55366675    -8.840401    566.88246  0.010872314 0.0094850038            1 
 4346000   0.54560169   -8.8587928    567.50528  0.010881755  0.009481623            2 
 4347000   0.56385754   -8.8515431    566.05623  0.010851473 0.0094782368            1 
 4348000   0.56413501   -8.8515649    566.54454  0.010858336 0.0094748525            6 
 4349000   0.54535626   -8.8565857    566.99102  0.010864394 0.0094714668            6 
 4350000   0.56155649   -8.8585385    566.52262  0.010852924 0.0094680839            1 
 4351000   0.54223949   -8.8556047    567.26259  0.010864602 0.0094647066            3 
 4352000   0.54801203   -8.8612297    566.84092  0.010854031 0.0094613269            4 
 4353000   0.55310094   -8.8426629    566.56814  0.010846316 0.0094579479            5 
 4354000   0.53900838   -8.8305808    566.85063  0.010849231 0.0094545732            3 
 4355000    0.5498199   -8.8606483    568.74383  0.010882967 0.0094512012            3 
 4356000    0.5577814     -8.85928    566.66532  0.010840705 0.0094478241           13 
 4357000   0.56319336   -8.8651105    565.63437  0.010818498 0.0094444472            7 
 4358000   0.55679041   -8.8624539    565.98496   0.01082272 0.0094410743           13 
 4359000   0.55200876   -8.8571472    566.28293  0.010825933 0.0094377055            4 
 4360000   0.55205003   -8.8801165    566.58039  0.010829136 0.0094343332            6 
 4361000   0.55871598   -8.8561331    566.45468  0.010824251 0.0094309661            3 
 4362000   0.55915542   -8.8578209    566.64314  0.010825369    0.0094276           10 
 4363000   0.55282065   -8.8698326    567.86889    0.0108463 0.0094242363            7 
 4364000    0.5452812   -8.8582003    566.43018  0.010816342 0.0094208711            3 
 4365000   0.55109039   -8.8434354    566.41859  0.010813642 0.0094175137            5 
 4366000   0.54495824   -8.8724335    566.80986  0.010818634 0.0094141496            9 
 4367000   0.54156685    -8.855233    567.24548  0.010824469 0.0094107917           19 
 4368000    0.5419886   -8.8558447    566.17134  0.010801498 0.0094074366            6 
 4369000   0.55006059    -8.854177    567.68935   0.01082798 0.0094040799            8 
 4370000    0.5462269   -8.8646022    567.11437  0.010814538 0.0094007244           16 
 4371000   0.54890074   -8.8823381    566.50386  0.010800424 0.0093973704            5 
 4372000   0.55718374   -8.8574347     566.7568  0.010802775 0.0093940179           12 
 4373000   0.53973846    -8.850996    566.57753  0.010796889 0.0093906658           12 
 4374000   0.55642961   -8.8471352     566.3782  0.010790623 0.0093873171           12 
 4375000   0.54326269   -8.8760076    566.35055  0.010787629 0.0093839711            2 
 4376000   0.54667125   -8.8580559    567.11096  0.010799645 0.0093806259           11 
 4377000    0.5572183   -8.8761998     567.4362   0.01080337 0.0093772799            9 
 4378000   0.55315375   -8.8688869    566.48264  0.010782752 0.0093739353           12 
 4379000   0.54551236   -8.8530966    566.46784  0.010780008 0.0093705941           10 
 4380000   0.56258449   -8.8778382    566.77613  0.010783412 0.0093672501           13 
 4381000   0.55271536   -8.8636135    566.59733   0.01077755 0.0093639101            7 
 4382000   0.52856342   -8.8934216     566.8908  0.010780671 0.0093605686           11 
 4383000   0.55949969   -8.8677174    565.67539  0.010755103 0.0093572315            3 
 4384000   0.55221241   -8.8587838    567.21553  0.010781925 0.0093538943           11 
 4385000    0.5502929   -8.8872575    567.04567  0.010776238 0.0093505588           16 
 4386000   0.54964809   -8.8762326    565.41368  0.010742774 0.0093472217            2 
 4387000   0.55248548   -8.8563626    567.18321  0.010773938 0.0093438895            4 
 4388000   0.55688332   -8.8625341    566.91243  0.010766341 0.0093405629           14 
 4389000   0.54475934   -8.8855713    566.53354  0.010756694 0.0093372351           11 
 4390000    0.5375077   -8.8778415    566.81086  0.010759508 0.0093339083            9 
 4391000     0.552629   -8.8825503    567.05523  0.010761695 0.0093305836           10 
 4392000   0.55562523   -8.8701696    565.65295  0.010732638 0.0093272581            8 
 4393000    0.5490569   -8.8691362     566.0898  0.010738482 0.0093239333           16 
 4394000   0.54785469   -8.8649807    566.50311  0.010743876 0.0093206105            6 
 4395000   0.55359028   -8.8717804    567.74088  0.010764901 0.0093172909            3 
 4396000   0.54885338   -8.8830576    565.93694  0.010728256 0.0093139758           10 
 4397000   0.54292547   -8.8678939    565.88104  0.010724756 0.0093106604            1 
 4398000   0.53928277   -8.8841349    567.56194  0.010754168 0.0093073447            4 
 4399000   0.54894016   -8.8829039     566.4578  0.010730806  0.009304033            8 
 4400000   0.53224102   -8.8806982    566.93921  0.010737485 0.0093007213            4 
 4401000   0.55530218   -8.8793951     566.5539  0.010727749 0.0092974097           11 
 4402000   0.53633126   -8.8735104    566.97499  0.010733284 0.0092940994           10 
 4403000   0.53592186   -8.8847014    566.52192  0.010722271 0.0092907892            2 
 4404000   0.54115236    -8.872344    566.46185    0.0107187 0.0092874827            8 
 4405000   0.53981029   -8.8656326    566.94534  0.010725413 0.0092841767            3 
 4406000   0.54583814   -8.8629647    566.38976  0.010712471 0.0092808719            3 
 4407000   0.53184844   -8.8714415    565.98515  0.010702389 0.0092775681            9 
 4408000   0.55724562   -8.8798705    565.87376  0.010697855 0.0092742628           11 
 4409000   0.55416729   -8.8832405    566.36585   0.01070473 0.0092709634            4 
 4410000   0.54896878   -8.8601608    566.44347  0.010703769 0.0092676631            3 
 4411000   0.54509437   -8.8944539    566.31546  0.010698924 0.0092643656            5 
 4412000   0.55063114   -8.8777763     566.8744  0.010707056   0.00926107            5 
 4413000   0.54187884   -8.8757095    566.58451  0.010699156  0.009257777           10 
 4414000   0.53420654    -8.874505    566.52233  0.010695558 0.0092544853            7 
 4415000   0.55360114   -8.8661702    566.72382  0.010696939 0.0092511945            7 
 4416000   0.55367344   -8.8745883    567.51735  0.010709491 0.0092479053            2 
 4417000   0.55130271   -8.8962445    566.47059  0.010687318 0.0092446196            5 
 4418000   0.53439668   -8.8675669    565.92303  0.010674571 0.0092413339            2 
 4419000   0.53735911   -8.8632046    567.05715  0.010693542 0.0092380468            5 
 4420000   0.53649755   -8.8942923     565.8483  0.010668331 0.0092347633           10 
 4421000   0.54800786   -8.8938803    565.85404  0.010666027 0.0092314808           11 
 4422000    0.5433222   -8.8818256    565.86451  0.010663812 0.0092282013           10 
 4423000   0.55535963   -8.8826005    565.90686  0.010662199 0.0092249181            6 
 4424000   0.55363574   -8.8941074    566.53801  0.010671677 0.0092216433            7 
 4425000   0.54372595   -8.8680657    566.25368  0.010663911 0.0092183687            8 
 4426000   0.53348187   -8.8849528    567.10519  0.010677534 0.0092150933            5 
 4427000   0.54377379   -8.8657979    566.67961  0.010667111 0.0092118168            9 
 4428000   0.54380677   -8.8817081    566.32842  0.010658093 0.0092085462            2 
 4429000   0.53403583   -8.8750593    565.83274   0.01064636 0.0092052739            3 
 4430000   0.54408542   -8.8732595    566.66495  0.010659611 0.0092020054            3 
 4431000   0.54839199   -8.8836316    566.15908  0.010647692 0.0091987378            6 
 4432000   0.55774707    -8.876182    566.72019   0.01065584 0.0091954715            5 
 4433000   0.54374443   -8.8894003    565.51292  0.010630741 0.0091922034            8 
 4434000   0.54980649   -8.8860842    566.04221  0.010638291 0.0091889407            2 
 4435000    0.5344712   -8.8761761    567.17404   0.01065716 0.0091856815           14 
 4436000   0.54688547   -8.8866251    566.70101  0.010645871 0.0091824236            4 
 4437000   0.54210786   -8.8905053    565.73218  0.010625276 0.0091791686           10 
 4438000   0.55339575    -8.881859    567.81619  0.010662014  0.009175914            3 
 4439000   0.53831315   -8.8887665    566.55449  0.010635926 0.0091726607            9 
 4440000   0.52353244   -8.8941218    565.57395  0.010615127 0.0091694055           10 
 4441000   0.53966133   -8.8972244    566.97258  0.010638981 0.0091661473            4 
 4442000    0.5484681   -8.8980367    566.10168  0.010620248 0.0091628929            3 
 4443000   0.54342634   -8.8791411    565.42565  0.010605178 0.0091596406            2 
 4444000   0.53731275   -8.8820316    565.80932  0.010609986 0.0091563929            4 
 4445000   0.54484806   -8.8898309    565.29432  0.010597944 0.0091531471            1 
 4446000   0.53225195   -8.9055572    566.02223  0.010609204 0.0091498991            2 
 4447000   0.55605534   -8.8861987    564.68768  0.010581809 0.0091466519            3 
 4448000   0.52455296   -8.8999015     565.2923  0.010590758 0.0091434055            2 
 4449000   0.53831808   -8.8745485    566.34281  0.010608054 0.0091401613            4 
 4450000   0.54584878    -8.878625    565.61441   0.01059203 0.0091369192            3 
 4451000   0.54096695   -8.9077804    565.83627  0.010593804 0.0091336777            3 
 4452000    0.5347262   -8.8946626    565.72955  0.010589427 0.0091304397            5 
 4453000   0.54047386   -8.8930354    566.63514  0.010603996 0.0091272057            2 
 4454000   0.54323586   -8.8687012    565.87944  0.010587476 0.0091239706            5 
 4455000   0.53233994   -8.8941482    566.06681  0.010588605 0.0091207392            4 
 4456000   0.54488159   -8.9093922    565.71823   0.01057971 0.0091175038            3 
 4457000    0.5388257   -8.8900199     565.5321  0.010573856 0.0091142699            5 
 4458000   0.53750098   -8.9018907    565.38173  0.010568673 0.0091110385            2 
 4459000   0.53194409   -8.8746511    565.80932  0.010574294 0.0091078113            3 
 4460000   0.53711579   -8.8913392    566.49215  0.010584681 0.0091045819            2 
 4461000   0.52695431   -8.8770256    565.65281   0.01056663 0.0091013575            2 
 4462000   0.53635181   -8.8827672    566.51781  0.010580416 0.0090981343            4 
 4463000   0.54289968   -8.8850835    565.17714  0.010553013 0.0090949132            1 
 4464000   0.54931632   -8.8999663    565.79667  0.010562214 0.0090916881            4 
 4465000   0.53613769   -8.8887929    565.55852  0.010555404 0.0090884649            3 
 4466000   0.53993603   -8.9025011    566.56166  0.010571758 0.0090852456            5 
 4467000    0.5293078   -8.8754945    565.36386  0.010547046 0.0090820241            6 
 4468000   0.53877534   -8.9092695    566.14471  0.010559249 0.0090788084            3 
 4469000   0.53015963   -8.9080847    566.12807  0.010556576 0.0090755906            3 
 4470000   0.54085092   -8.8903871    566.65796  0.010564093 0.0090723767            3 
 4471000   0.52153859   -8.9056427    565.53744  0.010540846 0.0090691631            6 
 4472000   0.53530957   -8.9059946    565.38057  0.010535565 0.0090659517            4 
 4473000   0.53348251   -8.8896017    565.39783  0.010533531 0.0090627388            3 
 4474000   0.54692952   -8.8845855    565.55719  0.010534145 0.0090595314            4 
 4475000   0.53006962   -8.9172978    565.86045  0.010537439 0.0090563239            4 
 4476000   0.54033427   -8.8904622    565.98647   0.01053743 0.0090531168            3 
 4477000   0.53003864   -8.9004457    565.87713  0.010533042  0.009049915            4 
 4478000   0.54210151   -8.8959164    565.62075  0.010525918 0.0090467112            4 
 4479000   0.54434759   -8.8945866     565.7435  0.010525852  0.009043511            3 
 4480000   0.53613136   -8.8814602    567.30333  0.010552517 0.0090403129            5 
 4481000   0.54340028   -8.9112053    565.97491  0.010525458  0.009037117            4 
 4482000    0.5253749   -8.9096812    566.34797  0.010530046 0.0090339193            3 
 4483000   0.53869012   -8.8829068    566.65701  0.010533441 0.0090307233            6 
 4484000    0.5377826   -8.8970905    565.20571   0.01050412 0.0090275287            4 
 4485000   0.54693625   -8.9149049    566.36814  0.010523377 0.0090243369            1 
 4486000   0.54403927   -8.9061264    566.98603  0.010532509 0.0090211448            2 
 4487000   0.53519159   -8.8908131    566.27731  0.010516999 0.0090179539            2 
 4488000    0.5426578   -8.9034559    565.10451  0.010492879 0.0090147653            3 
 4489000   0.53982362   -8.8833645    566.49287  0.010516315 0.0090115811            2 
 4490000   0.52816008    -8.894831    566.86969  0.010520967 0.0090083948            2 
 4491000   0.53576957    -8.889092    565.74641  0.010497781 0.0090052113            2 
 4492000   0.52967512   -8.9126911    565.38924  0.010488818 0.0090020305            2 
 4493000   0.53213171   -8.8981528     565.5755  0.010489938 0.0089988525            4 
 4494000   0.53806233   -8.9024416    566.34965  0.010501959 0.0089956744            3 
 4495000   0.53900739   -8.8890488    565.97744  0.010492722 0.0089924959            5 
 4496000   0.51706385   -8.9056173    565.42495  0.010480148 0.0089893199            5 
 4497000   0.53280472   -8.9060254    565.67212  0.010482398  0.008986142            2 
 4498000   0.53746275   -8.8933299    566.20639  0.010489966 0.0089829657            3 
 4499000   0.54450804   -8.9232086    565.05756  0.010466355 0.0089797925            6 
 4500000    0.5337262   -8.9161325    565.78338   0.01047747 0.0089766181            4 
 4501000   0.53409671    -8.904167      566.194  0.010482745 0.0089734452            5 
 4502000   0.53663993   -8.8775698    565.46108  0.010466849 0.0089702765            3 
 4503000   0.52698118   -8.9109968    565.61167  0.010467312 0.0089671082            4 
 4504000   0.52439879   -8.9060591    565.66047  0.010465891 0.0089639415            3 
 4505000    0.5477524   -8.9250917    564.87141  0.010448972 0.0089607765            4 
 4506000   0.53166914    -8.920499    565.92774  0.010466188 0.0089576122            4 
 4507000   0.53484775   -8.9023502    564.57027  0.010438767 0.0089544498            7 
 4508000   0.52584619   -8.9143077    564.81239  0.010440927 0.0089512854            4 
 4509000   0.53427334   -8.9049578    566.03608  0.010461227 0.0089481256            3 
 4510000   0.52814397   -8.8985951    566.33083  0.010464354  0.008944967            1 
 4511000   0.51750484   -8.9058789    566.10691  0.010457897 0.0089418135            3 
 4512000   0.52761068   -8.9041936    566.18006  0.010456931 0.0089386569            3 
 4513000   0.52625102   -8.9018498    565.85709   0.01044865  0.008935507            3 
 4514000   0.54526294   -8.9066063    565.78784  0.010445057 0.0089323563            2 
 4515000   0.52720191   -8.9204641    565.09494  0.010429955 0.0089292023            6 
 4516000   0.52349215    -8.899053    565.47065  0.010434578 0.0089260523            2 
 4517000   0.52255302   -8.8991536    565.80592  0.010438453 0.0089229045            1 
 4518000   0.53646885   -8.8893339    565.82626  0.010436518 0.0089197586            5 
 4519000   0.53247817   -8.9054295    564.77836  0.010414884 0.0089166124            3 
 4520000   0.54092968   -8.9130052      566.375  0.010442017   0.00891347            2 
 4521000   0.52408526   -8.9137239    566.13112  0.010435212 0.0089103295            2 
 4522000   0.53463083   -8.9067841    566.03064  0.010431053 0.0089071887            5 
 4523000   0.52784159   -8.9022411    565.11548  0.010411885 0.0089040496            5 
 4524000   0.53877394   -8.9048237    566.56873  0.010436353 0.0089009157            4 
 4525000    0.5428878   -8.9210805    565.08795  0.010406776 0.0088977803            2 
 4526000   0.51537829   -8.9130199    566.33497  0.010427437  0.008894647            3 
 4527000   0.52482447   -8.9039542    566.20642  0.010422767 0.0088915169            2 
 4528000   0.52536733   -8.9213262    565.59569  0.010409226  0.008888383            2 
 4529000   0.53858091   -8.9015874    565.67746  0.010408432 0.0088852539            6 
 4530000   0.53030929   -8.8887652    566.09319  0.010413782 0.0088821268            2 
 4531000   0.53227261   -8.8946134    564.91232  0.010389765 0.0088789957            3 
 4532000   0.52438335   -8.9019701    565.94321  0.010406429 0.0088758703            2 
 4533000   0.52297059    -8.905944    565.32338  0.010392738  0.008872746            7 
 4534000   0.51868122   -8.8997966     566.2131  0.010406799 0.0088696215            3 
 4535000   0.51929694   -8.9023205    565.39339  0.010389441  0.008866499            2 
 4536000   0.52943749   -8.9030193    565.68673   0.01039254  0.008863376            1 
 4537000   0.51887505   -8.9329411    566.07688  0.010397415 0.0088602554            4 
 4538000   0.52540392    -8.893496    566.18165  0.010397048 0.0088571345            5 
 4539000    0.5240239   -8.9106276    565.16184  0.010376034 0.0088540169            2 
 4540000   0.53284472   -8.9104768    565.75883  0.010384707 0.0088508978            5 
 4541000   0.53389945   -8.9012397    565.76754   0.01038258 0.0088477855            5 
 4542000   0.52042009   -8.9093743    564.89953  0.010364368  0.008844673            5 
 4543000    0.5146429     -8.90703    565.31583  0.010369723 0.0088415614            2 
 4544000   0.53104746    -8.905775    565.34805  0.010368032 0.0088384454            2 
 4545000   0.51666907   -8.9286788    565.51744  0.010368857 0.0088353318            5 
 4546000    0.5274107   -8.9079178    564.84364  0.010354224 0.0088322213            3 
 4547000   0.52925827   -8.9261083    565.07616  0.010356208 0.0088291129            6 
 4548000   0.51472094   -8.9089794    565.29167   0.01035788 0.0088260042            3 
 4549000   0.52355672   -8.9216256    565.21025  0.010354112 0.0088228975            4 
 4550000   0.53518941   -8.9117099       565.91  0.010364652 0.0088197938            4 
 4551000   0.51197927   -8.9042815     565.4094  0.010353208 0.0088166905            4 
 4552000   0.52100336   -8.8962286    564.63777  0.010336807 0.0088135853            4 
 4553000   0.52075624   -8.9164991    565.40723   0.01034862 0.0088104853            3 
 4554000   0.51161835   -8.9222724    565.64565  0.010350711 0.0088073856            2 
 4555000   0.53046095   -8.9255605    565.10587  0.010338563 0.0088042867            4 
 4556000   0.52495634    -8.908222    564.86407  0.010331871 0.0088011911            3 
 4557000   0.51900901   -8.9048034    564.85787  0.010329491 0.0087980983            5 
 4558000   0.52812872   -8.9140448    565.85152  0.010345391  0.008795006            4 
 4559000   0.51687343    -8.905224     565.0794  0.010329009  0.008791912            8 
 4560000    0.5266349   -8.9084616    564.95445   0.01032446 0.0087888205            3 
 4561000    0.5285169   -8.8998062    565.26343  0.010327842  0.008785731            5 
 4562000   0.51458525   -8.9223539    564.23441  0.010306781 0.0087826437            6 
 4563000   0.51508612   -8.9246424    565.19019  0.010321977 0.0087795563            5 
 4564000   0.52195087   -8.9212966     565.2001  0.010319897 0.0087764715            4 
 4565000   0.52563382   -8.9179499    564.86701  0.010311555 0.0087733859            5 
 4566000   0.51541153   -8.9248078    564.69166  0.010306097 0.0087703019            3 
 4567000    0.5253603   -8.9286216    565.09742  0.010311244 0.0087672191            3 
 4568000   0.51235558   -8.9146837    565.63297  0.010318757 0.0087641365            4 
 4569000   0.51916848   -8.9279574    565.18783   0.01030838 0.0087610558            6 
 4570000   0.52034026   -8.9299701    564.47728  0.010293167 0.0087579741            2 
 4571000   0.51737082   -8.9258577    565.72452  0.010313654 0.0087548961            7 
 4572000   0.52381981   -8.9315761    565.01084  0.010298389 0.0087518205            3 
 4573000   0.51456694   -8.9183789     564.5801  0.010288288 0.0087487459            2 
 4574000    0.5115296   -8.9427872    565.02299  0.010294108 0.0087456739            4 
 4575000   0.53130183    -8.934097    565.09703  0.010293206 0.0087425998            3 
 4576000   0.51685155   -8.9045234    564.72899  0.010284255 0.0087395292            3 
 4577000   0.51927969   -8.9146366    565.63793  0.010298557 0.0087364611            3 
 4578000   0.52299924   -8.9302153    564.84763  0.010281921 0.0087333956            3 
 4579000   0.51928153   -8.9133044    565.69383  0.010295076 0.0087303347            2 
 4580000   0.52110414   -8.9410698    564.72779  0.010275251  0.008727271            3 
 4581000   0.51085745   -8.9321868    565.41506   0.01028551 0.0087242105            3 
 4582000   0.50829662   -8.9178477    564.36241  0.010264121 0.0087211487            5 
 4583000   0.53080459   -8.9248923    564.46336  0.010263717 0.0087180871            2 
 4584000   0.50911427   -8.9138955    565.30997  0.010276868 0.0087150269            3 
 4585000   0.52761497    -8.922027    565.13124  0.010271378 0.0087119688            3 
 4586000   0.51595804   -8.9180614    564.56263  0.010258806 0.0087089121            3 
 4587000   0.51312631   -8.9210992    565.13454   0.01026696 0.0087058574            4 
 4588000   0.51818173   -8.9442809    564.75864  0.010257895 0.0087028061            5 
 4589000   0.50893058   -8.9375063    564.91825  0.010258558 0.0086997558            5 
 4590000   0.52843193    -8.927208    564.79242  0.010254038 0.0086967094            5 
 4591000   0.52592384   -8.9368624    566.26033  0.010278449 0.0086936606            3 
 4592000   0.51203539   -8.9350875    564.66524  0.010247264 0.0086906129            4 
 4593000   0.50891429    -8.933685    565.00595  0.010251215 0.0086875643            4 
 4594000   0.50168981   -8.9410238    565.01552  0.010249157 0.0086845178            3 
 4595000   0.51629785   -8.9292203     564.2893  0.010233756  0.008681473            4 
 4596000   0.51827406   -8.9365213    564.72306  0.010239394  0.008678433            3 
 4597000   0.51780398   -8.9389032    564.54743  0.010233983 0.0086753928            4 
 4598000   0.51652074   -8.9236851    564.54842  0.010231775 0.0086723521            1 
 4599000   0.50735603   -8.9337092    565.38605  0.010244728 0.0086693136            4 
 4600000   0.51048685   -8.9304333    564.62522  0.010228718  0.008666276            4 
 4601000   0.51006296   -8.9426884    564.30236  0.010220647 0.0086632403            7 
 4602000    0.5064696   -8.9254204    564.90981  0.010229426 0.0086602056           10 
 4603000    0.5101057   -8.9334186    565.00851   0.01022899 0.0086571739            5 
 4604000   0.51698412   -8.9270279    565.29206  0.010231901 0.0086541399            4 
 4605000   0.51763987   -8.9429905     565.0695  0.010225651 0.0086511089            4 
 4606000   0.51699575   -8.9234378    565.83151  0.010237218 0.0086480821            3 
 4607000   0.50838304   -8.9264281    564.58959  0.010212531 0.0086450527            2 
 4608000   0.52276746   -8.9284304    564.64303  0.010211282 0.0086420273            2 
 4609000   0.52059826   -8.9324165    565.06517  0.010216699 0.0086390052            4 
 4610000   0.52210081   -8.9420135     565.5181   0.01022267 0.0086359831            4 
 4611000   0.51209721   -8.9356999    564.69833  0.010205637 0.0086329604            4 
 4612000   0.51929363   -8.9430391    565.17408  0.010212021 0.0086299409            3 
 4613000    0.5143826   -8.9335555    565.07521  0.010208021 0.0086269225            6 
 4614000   0.51953464   -8.9314763    564.38809  0.010193398 0.0086239026            1 
 4615000   0.51796317   -8.9334952    564.81109  0.010198828 0.0086208839            4 
 4616000   0.52042689   -8.9267229    565.22305  0.010204056 0.0086178675            5 
 4617000   0.50127807   -8.9317671    564.54694  0.010189642 0.0086148564            4 
 4618000   0.51029956   -8.9328181    564.78921  0.010191808 0.0086118443            5 
 4619000   0.51187369   -8.9121349    565.07636  0.010194782 0.0086088325            5 
 4620000   0.51323665   -8.9352236    565.24839  0.010195678 0.0086058246            3 
 4621000   0.51042681   -8.9214599    564.95718   0.01018822 0.0086028162            2 
 4622000   0.51370389   -8.9302837    565.75483  0.010200397 0.0085998097            4 
 4623000   0.50617954    -8.928593    564.93154   0.01018335 0.0085968037            7 
 4624000    0.5079977   -8.9497278    565.39877  0.010189568 0.0085937986            2 
 4625000     0.513945   -8.9381981    564.68409  0.010174488 0.0085907941            4 
 4626000   0.50249125   -8.9410453    565.43121  0.010185747 0.0085877942            2 
 4627000    0.5144577   -8.9274634    565.10901  0.010177743 0.0085847933            4 
 4628000   0.51116213   -8.9407009    565.15262  0.010176329 0.0085817957            5 
 4629000    0.5183252   -8.9330266     564.5609  0.010163478 0.0085787981            6 
 4630000   0.51861443   -8.9405388    564.84429  0.010166384 0.0085758015            5 
 4631000   0.51403159   -8.9544324    565.45126  0.010175111 0.0085728065            3 
 4632000   0.51482894   -8.9486639    564.96224  0.010164116 0.0085698114            4 
 4633000   0.49705354   -8.9302695    564.72421  0.010157641  0.008566818            6 
 4634000   0.51522418   -8.9248245    565.07424  0.010161744 0.0085638276            6 
 4635000    0.4985903   -8.9404357    563.87786  0.010138041 0.0085608386            4 
 4636000   0.50557291    -8.944254    565.15676  0.010158843 0.0085578515            2 
 4637000   0.50468474   -8.9275645    565.30518   0.01015932 0.0085548643            4 
 4638000   0.50120128   -8.9337255      564.235  0.010137901 0.0085518789            6 
 4639000   0.51570263   -8.9479998    564.86457  0.010147025  0.008548893            3 
 4640000   0.51977659   -8.9192082    565.01196  0.010147485 0.0085459113            2 
 4641000   0.51288268   -8.9361075    565.16813  0.010148103 0.0085429294            3 
 4642000   0.50985568   -8.9233816    565.25392  0.010147456 0.0085399486            4 
 4643000   0.49912024   -8.9270205    564.97519  0.010140268 0.0085369674            5 
 4644000     0.515034   -8.9231573     564.1863  0.010123929 0.0085339857            7 
 4645000   0.51168354     -8.95037     564.2111  0.010122194 0.0085310028            8 
 4646000   0.50651913   -8.9302911    564.57612  0.010126563 0.0085280225            2 
 4647000   0.51023425   -8.9350795    564.54915    0.0101239 0.0085250455            3 
 4648000   0.50213444   -8.9283744    564.20015  0.010115465 0.0085220706            3 
 4649000   0.52070883   -8.9413327    565.05151  0.010128549 0.0085190958            6 
 4650000   0.51012865   -8.9513982    564.56121  0.010117584 0.0085161218            5 
 4651000   0.50735991   -8.9270095    565.31396  0.010128896 0.0085131496            4 
 4652000   0.51563484   -8.9527654    565.08663  0.010122647 0.0085101781            9 
 4653000   0.51757593   -8.9383468    563.64143  0.010094588 0.0085072078            3 
 4654000   0.51006186   -8.9469043    564.48558  0.010107534 0.0085042398            5 
 4655000   0.49999726   -8.9626031    564.90136  0.010112806 0.0085012716            5 
 4656000   0.50944619   -8.9300354     563.6963  0.010089066 0.0084983053            3 
 4657000   0.51005935   -8.9447523    564.49258  0.010101149 0.0084953427            4 
 4658000    0.5049417   -8.9432229    564.25917  0.010094804 0.0084923821            3 
 4659000   0.50418117   -8.9390299    565.55936  0.010115893 0.0084894216            5 
 4660000   0.49792169   -8.9283647    564.49637  0.010094713 0.0084864607            4 
 4661000   0.49607722   -8.9542469     563.7328  0.010078896 0.0084835011            3 
 4662000    0.5074467   -8.9497755    564.17279  0.010084599  0.008480544            3 
 4663000   0.49821346    -8.945227     564.4227  0.010086902 0.0084775884            2 
 4664000   0.51141218   -8.9505038    564.34209  0.010083299 0.0084746337            2 
 4665000   0.51241243   -8.9613808    564.46594   0.01008335 0.0084716786            4 
 4666000   0.52000299   -8.9488742    564.45922  0.010081069 0.0084687259            2 
 4667000   0.50607044    -8.952295      564.249  0.010075155 0.0084657771            5 
 4668000   0.50734493   -8.9426899    563.50522  0.010059719  0.008462829            4 
 4669000   0.50369381   -8.9492974    565.34247  0.010090356 0.0084598823            3 
 4670000   0.50211591      -8.9315    564.45687  0.010072392 0.0084569366            2 
 4671000   0.51183402    -8.933142    564.72539  0.010075027 0.0084539923            3 
 4672000    0.5078343   -8.9524487    563.91608  0.010058435 0.0084510479            2 
 4673000   0.50441763   -8.9528943    564.78332  0.010071748 0.0084481074            1 
 4674000   0.50164811    -8.944395     565.2597  0.010078086 0.0084451685            5 
 4675000   0.50181655   -8.9506762    565.23138  0.010075426 0.0084422297            4 
 4676000   0.50347427   -8.9459864    564.29968  0.010056667 0.0084392895            2 
 4677000   0.51477192   -8.9434791     564.2778  0.010054127 0.0084363525            4 
 4678000   0.50075872   -8.9483429    563.77425  0.010043007 0.0084334159            4 
 4679000   0.49279909   -8.9412277     564.3499  0.010051113 0.0084304798            1 
 4680000   0.49161182   -8.9564879    563.95201  0.010041881 0.0084275459            5 
 4681000   0.50453526   -8.9641509    564.99378  0.010058281 0.0084246134            3 
 4682000   0.50302296   -8.9374072    563.82224  0.010035281 0.0084216781            2 
 4683000   0.50106618   -8.9505306    564.72538   0.01004921 0.0084187455            2 
 4684000   0.49592015   -8.9570427    564.03578  0.010034795 0.0084158163            8 
 4685000   0.50040199   -8.9473665    564.38742  0.010038908 0.0084128884            4 
 4686000   0.50452817   -8.9586275    565.56088  0.010057634 0.0084099615            7 
 4687000   0.50337101   -8.9582858    564.01697  0.010028038 0.0084070364            2 
 4688000   0.50435709   -8.9599003    563.85664  0.010023049 0.0084041111            2 
 4689000   0.50098452   -8.9474584    563.93149  0.010022242 0.0084011902            3 
 4690000    0.5047219   -8.9647518    563.87781  0.010019151 0.0083982684            7 
 4691000   0.50695922   -8.9406032    563.64645  0.010012905 0.0083953475            2 
 4692000   0.48766484   -8.9639612    563.57574  0.010009515 0.0083924287            3 
 4693000    0.5053737    -8.958543    563.46972    0.0100055 0.0083895098            2 
 4694000   0.49529463   -8.9513371    565.32994  0.010036393 0.0083865925            3 
 4695000   0.48639738    -8.948526    563.89022  0.010008701 0.0083836768            4 
 4696000   0.50066753   -8.9596079    563.58063  0.010001076 0.0083807631            4 
 4697000   0.48886238   -8.9584757    564.30847   0.01001186 0.0083778514            2 
 4698000   0.49234211   -8.9542032    564.19927  0.010007792 0.0083749409            4 
 4699000   0.51834602   -8.9520308     564.0503   0.01000302 0.0083720313            2 
 4700000   0.49508828   -8.9543639    563.78171 0.0099961296  0.008369125            3 
 4701000   0.49645083   -8.9570011    562.92374 0.0099787941 0.0083662165            3 
 4702000   0.49928569   -8.9630184    564.10575 0.0099976207 0.0083633095            4 
 4703000   0.50058449   -8.9543664     564.6904  0.010005854 0.0083604033            4 
 4704000     0.504769   -8.9562276     563.7349 0.0099868003 0.0083574984            3 
 4705000   0.48974884   -8.9493588    564.22007 0.0099932707 0.0083545987            4 
 4706000   0.48972282   -8.9561109    563.67628 0.0099815179 0.0083516976            2 
 4707000    0.5058971   -8.9556969    564.46534  0.009993367 0.0083487999            6 
 4708000   0.50473144   -8.9505056    564.86921  0.009998393 0.0083458999            6 
 4709000   0.50203921   -8.9558332    563.50949 0.0099722073 0.0083430018            2 
 4710000   0.49537938   -8.9575045    563.83109   0.00997578 0.0083401069            4 
 4711000   0.49548058   -8.9571327    563.91083 0.0099750731 0.0083372157            6 
 4712000   0.50042196   -8.9524229    564.81405 0.0099889298 0.0083343237            3 
 4713000   0.48815124    -8.976223    564.11903 0.0099745213 0.0083314302            3 
 4714000   0.49515382   -8.9605438    564.07476 0.0099716228 0.0083285374            5 
 4715000   0.49502448   -8.9532061    563.71283 0.0099631112 0.0083256474            2 
 4716000   0.48928866   -8.9550373    564.76695 0.0099796253 0.0083227604            4 
 4717000   0.51005372   -8.9501025    564.13523 0.0099663493 0.0083198764            2 
 4718000   0.50286258   -8.9632153    564.61114 0.0099726427 0.0083169895            3 
 4719000   0.49773686   -8.9614058    563.83595 0.0099568402 0.0083141039            6 
 4720000   0.48805269   -8.9604913     562.8402 0.0099371505  0.008311221            6 
 4721000   0.50510738   -8.9658077    564.51888 0.0099646769 0.0083083388            4 
 4722000   0.49305518   -8.9581453    564.44458 0.0099612556 0.0083054584            4 
 4723000   0.49074491   -8.9430054    563.37213 0.0099402239 0.0083025778            2 
 4724000    0.5071459    -8.946485    564.21091 0.0099529161 0.0082997015            4 
 4725000   0.49458678   -8.9494924    563.72792 0.0099422913 0.0082968245            3 
 4726000   0.49828842   -8.9679888     564.1593 0.0099477942 0.0082939479            3 
 4727000   0.49500014   -8.9556951    563.21574 0.0099290555 0.0082910743            3 
 4728000   0.49707019   -8.9597189    564.04269 0.0099415309 0.0082882012            4 
 4729000   0.49595289   -8.9563208    564.21694  0.009942499 0.0082853298            2 
 4730000   0.48539544   -8.9574841    563.57619 0.0099291083 0.0082824596            6 
 4731000   0.49071693   -8.9707865    564.11228 0.0099364525 0.0082795912            7 
 4732000   0.50121811   -8.9534895    564.58502 0.0099426779 0.0082767242            4 
 4733000   0.50021106   -8.9670505    563.16688 0.0099156081 0.0082738588            2 
 4734000   0.49544635   -8.9646092    564.03621 0.0099288166 0.0082709948            5 
 4735000   0.50376659   -8.9683624    564.09035 0.0099276724 0.0082681323            3 
 4736000   0.48669698   -8.9662671    563.87496 0.0099217862 0.0082652713            6 
 4737000    0.4958249   -8.9471939    563.36405 0.0099107038 0.0082624098            1 
 4738000   0.49247451    -8.952053    564.50393 0.0099286607 0.0082595508            3 
 4739000    0.5036637   -8.9622678    563.65008 0.0099115509 0.0082566948            6 
 4740000   0.49336635       -8.952    564.06321 0.0099167231 0.0082538405            5 
 4741000   0.50173869   -8.9763908    563.88981 0.0099115836 0.0082509857            3 
 4742000   0.48587204   -8.9727505    563.73924 0.0099068473  0.008248133            5 
 4743000   0.49989648   -8.9637958     564.3535 0.0099155511 0.0082452818            2 
 4744000   0.51100274   -8.9574647    563.39839 0.0098966833 0.0082424311            2 
 4745000   0.49509927   -8.9580373      563.145 0.0098901474 0.0082395824            5 
 4746000   0.49138876   -8.9527173    564.02214 0.0099034651 0.0082367332            3 
 4747000   0.48854026   -8.9660631    562.81339 0.0098801592 0.0082338851            5 
 4748000   0.50084319   -8.9702217    564.58659 0.0099092002 0.0082310396            2 
 4749000   0.48247477   -8.9698968    564.35797 0.0099031018 0.0082281944            4 
 4750000   0.48715231   -8.9593769    564.21127 0.0098984434 0.0082253494            3 
 4751000   0.49706455   -8.9606843    564.19307 0.0098960407 0.0082225101            3 
 4752000   0.48341284   -8.9807514    563.27292  0.009877822 0.0082196673            3 
 4753000   0.50305849   -8.9684842    563.84408 0.0098857578 0.0082168238            5 
 4754000   0.49296814   -8.9549881    563.46136 0.0098769695 0.0082139861            6 
 4755000   0.48585425   -8.9639702    563.78255 0.0098805213 0.0082111493            4 
 4756000   0.48094428   -8.9594495    563.41872 0.0098720689 0.0082083141            4 
 4757000   0.49399554   -8.9581977    563.90577 0.0098785258 0.0082054801            3 
 4758000   0.49081122   -8.9690509    563.72182 0.0098732279 0.0082026463            2 
 4759000   0.49210848   -8.9773816    564.11273 0.0098779984 0.0081998159            3 
 4760000   0.49119821    -8.966642     563.5571 0.0098661957 0.0081969858            2 
 4761000   0.48955602   -8.9518927    564.04671 0.0098726932 0.0081941566            6 
 4762000   0.48865623   -8.9745958    564.15744 0.0098725578 0.0081913318            2 
 4763000   0.48074483   -8.9571294     564.0783 0.0098691004 0.0081885062            4 
 4764000   0.49279642   -8.9854907     563.9771 0.0098652585 0.0081856833            2 
 4765000   0.48720671   -8.9559578    564.30881 0.0098689893 0.0081828577            7 
 4766000    0.4817525   -8.9713753    563.59675 0.0098544683 0.0081800339            3 
 4767000   0.50522173   -8.9709401    564.24895 0.0098638024 0.0081772126            4 
 4768000   0.50226274   -8.9500924    564.08553 0.0098588774 0.0081743948            4 
 4769000   0.49446265    -8.957117    563.21084 0.0098415259 0.0081715757            6 
 4770000   0.48746428   -8.9630745     564.1469 0.0098558158 0.0081687572            5 
 4771000   0.49230364   -8.9735426    564.26729 0.0098558528 0.0081659411            7 
 4772000   0.49267143    -8.945383    563.73287 0.0098444549 0.0081631247            3 
 4773000   0.48655691   -8.9807068     564.0753  0.009848371 0.0081603103            3 
 4774000   0.49852647   -8.9611432    563.88098 0.0098429162 0.0081574982            4 
 4775000   0.48651174   -8.9771277    563.47081 0.0098336965 0.0081546847            2 
 4776000   0.50026728   -8.9792383    563.76637 0.0098367946 0.0081518753            6 
 4777000   0.49341429   -8.9822155    564.45932 0.0098468237 0.0081490647            5 
 4778000   0.48734706   -8.9695332    564.35274 0.0098429039  0.008146256            2 
 4779000   0.48441031   -8.9766144    564.58464  0.009844888 0.0081434489            4 
 4780000    0.4823593   -8.9854168    562.86654 0.0098128755 0.0081406416            6 
 4781000   0.49364929   -8.9712504    563.08057 0.0098145536 0.0081378364            4 
 4782000   0.48580621    -8.956614    564.17854  0.009831635  0.008135032            3 
 4783000    0.4823236   -8.9807351     563.4538 0.0098169524 0.0081322302            3 
 4784000   0.49704842   -8.9893789    563.17619 0.0098100647 0.0081294277            4 
 4785000   0.48885002   -8.9706023    563.42004 0.0098122612 0.0081266308            5 
 4786000   0.48199999   -8.9739959     563.8444    0.0098176 0.0081238326            3 
 4787000   0.48342603   -8.9634825    564.07871 0.0098196279 0.0081210334            6 
 4788000   0.49200151   -8.9624633     563.1336 0.0098011278 0.0081182373            4 
 4789000   0.47579339   -8.9807867    564.06713 0.0098153256 0.0081154405            3 
 4790000   0.48961977   -8.9787871    563.92551 0.0098108126 0.0081126478            5 
 4791000   0.48237136   -8.9866997    562.93982   0.00979162 0.0081098545            3 
 4792000   0.49363117   -8.9816871    563.20234  0.009794142 0.0081070619            3 
 4793000   0.47750441   -8.9706007    563.37705 0.0097951362 0.0081042723            2 
 4794000   0.49123512   -8.9881986    564.52001 0.0098129609 0.0081014817            3 
 4795000   0.48701314   -8.9750468    563.05958 0.0097855332 0.0080986952            3 
 4796000   0.47749589   -8.9681392    563.06223 0.0097835388  0.008095912            4 
 4797000   0.48362519   -8.9728491    563.74735 0.0097934012 0.0080931299            3 
 4798000   0.48881104   -8.9673313    563.14078 0.0097808249 0.0080903435            5 
 4799000    0.4835456   -8.9745799    563.85443 0.0097911793 0.0080875601            2 
 4800000   0.48932457   -8.9610009    563.60732 0.0097848493 0.0080847774            5 
 4801000   0.48590259   -8.9797407    563.66312 0.0097837797  0.008081997            3 
 4802000   0.49781481   -8.9730592    562.70956 0.0097651944 0.0080792164            3 
 4803000   0.48486902   -8.9786125    563.67456 0.0097799042 0.0080764397            2 
 4804000   0.47694815   -8.9852354      564.276 0.0097883015 0.0080736648            4 
 4805000   0.48128142   -8.9637843    563.40275 0.0097711195 0.0080708878            4 
 4806000   0.48728577   -8.9780135    563.02404 0.0097625198 0.0080681114            4 
 4807000   0.48774222   -8.9690757    564.26749 0.0097820451 0.0080653364            4 
 4808000   0.49243296   -8.9790031    562.87702 0.0097559106 0.0080625645            3 
 4809000   0.49063532   -8.9826824    562.80941 0.0097527104 0.0080597955            6 
 4810000   0.48424923   -8.9722455     563.3823  0.009760608 0.0080570263            4 
 4811000   0.47277804   -8.9920596    564.07227 0.0097705306 0.0080542563            4 
 4812000   0.48655245   -8.9804988    563.02099 0.0097502942 0.0080514895            3 
 4813000   0.47361386   -8.9793738    563.63386 0.0097588798 0.0080487251            4 
 4814000   0.48203792   -8.9723922    563.40712 0.0097529276  0.008045963            3 
 4815000   0.47796679   -8.9843244    564.01233 0.0097613764 0.0080431995            6 
 4816000   0.47804574   -8.9725178    563.04678 0.0097426423 0.0080404373            3 
 4817000   0.46834809   -8.9880221    564.93011 0.0097732009 0.0080376758            6 
 4818000   0.47859402   -8.9800565    563.13199 0.0097400719 0.0080349146            4 
 4819000   0.47470268   -8.9736577     563.5231 0.0097448139 0.0080321565            5 
 4820000   0.49006483   -8.9883945    563.80323 0.0097476354 0.0080293981            4 
 4821000   0.48296507   -8.9937918     562.7876 0.0097280578 0.0080266406            6 
 4822000   0.48236515   -8.9882597    562.83799 0.0097269111 0.0080238853            3 
 4823000   0.49262647   -8.9788668    564.04989  0.009745834 0.0080211326            3 
 4824000   0.46567135   -8.9723482    562.97296 0.0097252101 0.0080183777            4 
 4825000    0.4794157   -8.9860053    564.01855 0.0097412531  0.008015627            3 
 4826000   0.48708977   -8.9827199    563.00481 0.0097217298 0.0080128748            2 
 4827000   0.48101445   -9.0015362      563.005  0.009719719 0.0080101242            7 
 4828000   0.47315026   -8.9937556    563.75924 0.0097307242 0.0080073774            2 
 4829000    0.4792015   -8.9831122    563.45969 0.0097235399 0.0080046325           12 
 4830000   0.48558502   -8.9749227    562.98278 0.0097132984 0.0080018872            5 
 4831000   0.47449646   -8.9779112    563.11052 0.0097134914 0.0079991432            5 
 4832000   0.46509959   -8.9696004    563.88921 0.0097249105 0.0079963991            1 
 4833000   0.46671885   -8.9841417    563.51751 0.0097164892 0.0079936589            5 
 4834000   0.46698614   -8.9887018    563.40757  0.009712584 0.0079909177            4 
 4835000   0.48082114   -8.9944312    564.06128 0.0097218422 0.0079881787            3 
 4836000   0.48190417   -8.9931398    563.55295 0.0097110724 0.0079854396           10 
 4837000   0.46994837    -8.989614    563.45919 0.0097074493 0.0079827018            3 
 4838000   0.47864436    -8.974015    562.69013  0.009692196 0.0079799654            3 
 4839000   0.46930749   -8.9797848    563.18713  0.009698752 0.0079772293            3 
 4840000   0.47418035   -8.9886799    563.17764 0.0096965846 0.0079744955            4 
 4841000   0.47229514   -8.9913153    563.13954 0.0096939258 0.0079717631            4 
 4842000   0.48322911   -8.9937979    563.16671 0.0096923914 0.0079690327            2 
 4843000   0.48298247   -8.9825856    562.16534 0.0096731595 0.0079663041            2 
 4844000   0.47433091   -8.9887425    563.82758 0.0096997588 0.0079635745            2 
 4845000   0.48681109   -8.9824872    563.56082 0.0096931686 0.0079608455            3 
 4846000   0.47577882   -8.9837847    563.42733 0.0096888728 0.0079581202            3 
 4847000   0.46799329   -8.9838495    562.77099 0.0096755895 0.0079553941            4 
 4848000    0.4750642   -8.9674896     563.5405  0.009686821 0.0079526701            3 
 4849000   0.47957827   -8.9946012    563.29728 0.0096806433 0.0079499477            6 
 4850000    0.4785004   -8.9821256    562.72276 0.0096687759 0.0079472255            3 
 4851000    0.4793446   -8.9796287    563.30403 0.0096767681 0.0079445057            3 
 4852000   0.47440111   -8.9759896    563.04046  0.009670247 0.0079417873            2 
 4853000   0.47942956   -8.9983007     564.2354 0.0096887732 0.0079390684            2 
 4854000    0.4610692   -8.9809312    563.01117 0.0096657597 0.0079363512            3 
 4855000   0.47631659   -8.9654254    563.18288 0.0096667162 0.0079336378            2 
 4856000    0.4709244   -8.9925635      563.044 0.0096623421 0.0079309233            3 
 4857000   0.47138638    -8.989216    563.88937  0.009674857 0.0079282117            5 
 4858000   0.47910217   -8.9912462    563.21114 0.0096612312 0.0079254971            3 
 4859000   0.48141304   -8.9808285    563.47851 0.0096638284 0.0079227871            3 
 4860000   0.48052567   -8.9929351     563.7737 0.0096669016 0.0079200781            3 
 4861000   0.46770444   -8.9858674    563.93483 0.0096676752 0.0079173704            4 
 4862000   0.47748587   -8.9870946    562.47887 0.0096407321 0.0079146622            3 
 4863000   0.47100416   -8.9856115    563.03627 0.0096483013 0.0079119542            4 
 4864000   0.47901827   -8.9707142    563.08987 0.0096472359 0.0079092517            4 
 4865000   0.47563775   -8.9903195    563.43835 0.0096512221 0.0079065502            4 
 4866000   0.45781726   -8.9942714    562.82879 0.0096387997 0.0079038467            3 
 4867000   0.47521266   -8.9849382      563.767 0.0096528833 0.0079011451            4 
 4868000   0.46918523   -8.9877154    563.26469 0.0096423017 0.0078984465            3 
 4869000   0.48069912    -8.975258    563.08829 0.0096373021 0.0078957503            5 
 4870000   0.46719463   -8.9803063     562.5244 0.0096256742 0.0078930539            3 
 4871000   0.47947801   -8.9793353    563.03199 0.0096323819 0.0078903574            2 
 4872000   0.48137566   -8.9980652    562.59252 0.0096228878 0.0078876599            4 
 4873000   0.46981791   -8.9890926    562.94538 0.0096269475 0.0078849644            5 
 4874000    0.4731944   -9.0050311    563.33861 0.0096316956 0.0078822717            3 
 4875000    0.4789662   -8.9777116    562.95515  0.009623165 0.0078795813            3 
 4876000   0.46453776   -9.0083258    562.98927 0.0096217745 0.0078768896            2 
 4877000     0.474202   -8.9880296    563.93204 0.0096359107 0.0078741994            3 
 4878000   0.47041368   -8.9869232    563.33574 0.0096237484 0.0078715112            4 
 4879000   0.47575864   -8.9983728    562.93091 0.0096148614 0.0078688237            2 
 4880000   0.46519455   -8.9931045    562.89922   0.00961235 0.0078661367            3 
 4881000   0.46490963   -9.0113966    562.54383 0.0096043131 0.0078634508            4 
 4882000   0.46310639   -8.9935251    562.89692  0.009608373 0.0078607668            2 
 4883000   0.47245041   -9.0050608     562.5003 0.0095996365  0.007858083            4 
 4884000   0.46775699   -8.9972306    562.97853 0.0096058308 0.0078554014            3 
 4885000   0.46767695   -9.0027369    562.28775 0.0095920803 0.0078527214            4 
 4886000   0.47012011   -8.9878559    562.94112 0.0096012608 0.0078500433            5 
 4887000   0.47925312   -8.9866236    562.76758 0.0095963369 0.0078473642            7 
 4888000     0.474054   -9.0007944    562.92711 0.0095970934 0.0078446912            6 
 4889000   0.47418746    -9.015525    563.26652 0.0096009157 0.0078420137            3 
 4890000   0.46837447   -8.9886192     563.2192 0.0095981458 0.0078393388            5 
 4891000   0.47160005   -8.9874487    563.62731 0.0096031369 0.0078366635            5 
 4892000   0.45492369   -8.9836838    561.95398 0.0095726694 0.0078339893            2 
 4893000   0.46625695   -9.0023878    564.27256 0.0096102009 0.0078313174            4 
 4894000   0.46926619    -8.994314     562.9973 0.0095865227 0.0078286458            3 
 4895000   0.47742196   -8.9878955    563.07807 0.0095859392  0.007825975            5 
 4896000   0.47775045   -8.9752397    563.41955 0.0095897936  0.007823306            2 
 4897000   0.46463177   -9.0015159    562.79687 0.0095772389 0.0078206391            3 
 4898000    0.4675138   -9.0011852    563.26009 0.0095831647 0.0078179707            3 
 4899000   0.46871403   -9.0034568    562.88821 0.0095748827 0.0078153038            5 
 4900000   0.47232613   -9.0200526    562.46766 0.0095657766 0.0078126399            5 
 4901000   0.46476123   -9.0039809    562.53809 0.0095650222 0.0078099737            1 
 4902000    0.4663676   -9.0150358     563.5549 0.0095803567 0.0078073122            2 
 4903000   0.47121005   -9.0025227    562.43442 0.0095593586 0.0078046503            3 
 4904000   0.46310205   -8.9934034     562.9252 0.0095657491 0.0078019903            3 
 4905000   0.45992219   -9.0091699    562.43203 0.0095554202 0.0077993321            2 
 4906000   0.46007316   -9.0052974    563.06655 0.0095642503  0.007796673            5 
 4907000   0.46500432   -9.0047646    563.38203  0.009567659 0.0077940186            4 
 4908000   0.46218722   -8.9954949    562.88325 0.0095572408 0.0077913669            3 
 4909000   0.46869689   -8.9975124    563.48626 0.0095655303 0.0077887139            2 
 4910000   0.46484827   -9.0050402     562.5368 0.0095474678  0.007786063            4 
 4911000   0.45953061   -9.0088181    562.21856 0.0095401235 0.0077834106            6 
 4912000   0.47508226   -9.0177123    562.90426 0.0095498144 0.0077807625            2 
 4913000    0.4680814   -8.9992696      562.417 0.0095396059 0.0077781153            3 
 4914000   0.46633428   -8.9955062    563.79457 0.0095610258 0.0077754683            3 
 4915000   0.47033737   -9.0219454    562.72499 0.0095409458 0.0077728231            4 
 4916000   0.46796546   -8.9913704     561.7675 0.0095227743 0.0077701754            5 
 4917000   0.46364856   -9.0039363    562.67772 0.0095362639  0.007767533            4 
 4918000    0.4583643   -9.0220586    563.10083 0.0095414944 0.0077648886            3 
 4919000   0.47229437   -8.9937705    562.37178 0.0095272037 0.0077622454            2 
 4920000   0.46685409   -9.0002164     562.3996 0.0095257385 0.0077596028            3 
 4921000   0.46352963   -9.0117496    563.25729 0.0095383271 0.0077569631            6 
 4922000   0.47708873   -9.0085314    563.01459   0.00953228 0.0077543233            3 
 4923000   0.46378011   -9.0077122    562.87539 0.0095279874 0.0077516867            2 
 4924000   0.45784875   -8.9944794    562.79771 0.0095247378 0.0077490498            4 
 4925000    0.4675631   -9.0048904    563.36009 0.0095323196 0.0077464151            4 
 4926000   0.46534057   -9.0032813    562.79044 0.0095207478 0.0077437815            6 
 4927000   0.46372284    -9.004113    562.39327 0.0095120978 0.0077411487            3 
 4928000   0.46435239   -9.0141675    562.28214 0.0095082884 0.0077385162            7 
 4929000     0.458745   -9.0099007    562.85651   0.00951607 0.0077358848            5 
 4930000   0.47886768   -9.0018453    562.94996 0.0095157194 0.0077332552            5 
 4931000   0.45109893   -9.0088942    562.65351 0.0095087796 0.0077306261            4 
 4932000   0.45903516   -9.0195478    562.41219 0.0095027742 0.0077279971            3 
 4933000   0.46089591   -9.0103184    561.95213  0.009493076  0.007725369            4 
 4934000   0.45534266   -9.0139845    563.90865 0.0095241968 0.0077227441            4 
 4935000   0.47344709   -9.0097136    563.02475 0.0095073413 0.0077201185            4 
 4936000    0.4685206   -8.9974655    563.16625 0.0095078041 0.0077174962            7 
 4937000   0.46304157    -9.018433    563.11034 0.0095049346 0.0077148744            3 
 4938000   0.46552945   -9.0071292    561.43669 0.0094747653 0.0077122552            2 
 4939000   0.44635324   -9.0036059    563.06949 0.0095003963 0.0077096361            3 
 4940000   0.46308699   -9.0035597    562.33393 0.0094860649 0.0077070171            3 
 4941000   0.44994019   -9.0179873    563.19713 0.0094987035 0.0077043992            5 
 4942000   0.45306517   -8.9992294    562.17743 0.0094795871 0.0077017809            3 
 4943000   0.46733247   -9.0061571    562.90288 0.0094898994 0.0076991652            2 
 4944000   0.45211627   -9.0021921    562.93725 0.0094885593 0.0076965517            6 
 4945000   0.46211161   -9.0396229    562.53724 0.0094798996 0.0076939369            6 
 4946000   0.45470022   -9.0080128    562.78733 0.0094821966  0.007691324            3 
 4947000    0.4521896   -9.0037944    561.83247  0.009464195 0.0076887145            5 
 4948000   0.46462065   -9.0192298    563.27247 0.0094865344 0.0076861046            5 
 4949000   0.45530334   -9.0125199    562.21259 0.0094667709 0.0076834967            4 
 4950000   0.46118465   -9.0042454    562.57319 0.0094709291 0.0076808895            8 
 4951000   0.45247295   -9.0035288    562.38882 0.0094659129 0.0076782853            8 
 4952000   0.45399376   -9.0067018    563.02518 0.0094747102 0.0076756819            4 
 4953000   0.45724282   -9.0164611     562.9429  0.009471413 0.0076730802            3 
 4954000   0.45379343   -9.0224339    562.29352 0.0094585776 0.0076704787            3 
 4955000    0.4571341   -9.0249119    562.22128 0.0094554538 0.0076678789            4 
 4956000   0.45362055   -9.0100634    562.70137 0.0094616183 0.0076652802            6 
 4957000   0.45880224   -9.0118867    561.67975  0.009442535 0.0076626824            3 
 4958000   0.45693092   -9.0088029    562.06522 0.0094471094 0.0076600835            3 
 4959000   0.45990723   -9.0138171    563.67423 0.0094722429 0.0076574893            5 
 4960000   0.45796068   -9.0015148    562.54324 0.0094513313 0.0076548949            5 
 4961000     0.454044    -9.013713    562.45448 0.0094479352 0.0076523008            8 
 4962000    0.4625354    -9.014993    563.24415 0.0094592931  0.007649707            3 
 4963000   0.44628727   -9.0066237    562.37245 0.0094427504 0.0076471173            2 
 4964000   0.45852456   -9.0278252    562.56111 0.0094440155 0.0076445268            2 
 4965000   0.46231326   -9.0214268    562.65435 0.0094436783 0.0076419397            7 
 4966000   0.45732386   -9.0007253    561.98652 0.0094305698 0.0076393514            6 
 4967000     0.460722    -9.023632    562.30378  0.009433994 0.0076367654            3 
 4968000   0.45865018    -9.015248    563.49728 0.0094521148 0.0076341795            6 
 4969000   0.46597948    -9.017987    562.72455 0.0094372534 0.0076315924            3 
 4970000     0.465145   -9.0284899    562.24884 0.0094273782 0.0076290091            3 
 4971000   0.45822122   -9.0277384    562.33162 0.0094268694 0.0076264278            4 
 4972000   0.45861457   -9.0109557    563.10449 0.0094379272 0.0076238478            4 
 4973000   0.45877109   -9.0258598    562.19466 0.0094207832 0.0076212692            7 
 4974000   0.45952227   -9.0371348    561.98284 0.0094153404 0.0076186904            4 
 4975000   0.46240589   -9.0229034    562.34108 0.0094194486 0.0076161133            3 
 4976000   0.45153875   -9.0285044    561.53512 0.0094040581 0.0076135345            2 
 4977000   0.45969893   -9.0152738    562.27238  0.009414513 0.0076109575            3 
 4978000   0.45070912   -9.0251936    562.12998 0.0094102381 0.0076083831            4 
 4979000   0.46395323    -9.013016     562.2887 0.0094110045 0.0076058097            5 
 4980000   0.45198018   -9.0118473    563.13263 0.0094232368 0.0076032382            3 
 4981000   0.46270618   -9.0410543     562.5012  0.009410781 0.0076006689            5 
 4982000   0.45246466   -9.0248474    562.58185 0.0094102411 0.0075980998            3 
 4983000   0.45788949   -9.0342608    562.70982 0.0094104927 0.0075955295            4 
 4984000   0.44936872   -9.0201103    562.54856 0.0094059083 0.0075929631            2 
 4985000   0.45769646    -9.018392    562.66555 0.0094059772 0.0075903954            4 
 4986000   0.44610883   -9.0175034    561.88895  0.009391111 0.0075878287            4 
 4987000   0.45151045   -9.0326452    562.43776 0.0093983985 0.0075852638            3 
 4988000   0.45194643   -9.0074037    562.84375 0.0094032972 0.0075827014            5 
 4989000   0.45608428   -9.0240309    562.78015 0.0094003499 0.0075801387            3 
 4990000   0.45005333   -9.0214076    562.38422  0.009391854 0.0075775812            3 
 4991000   0.45615995   -9.0094521    562.33664 0.0093891779 0.0075750233            5 
 4992000   0.45084006   -9.0161149    562.49348 0.0093899152 0.0075724656            4 
 4993000    0.4592894   -9.0168858    562.06742 0.0093809236 0.0075699091            3 
 4994000   0.44333587   -9.0194424    562.08544 0.0093793458 0.0075673528            2 
 4995000   0.45611295   -9.0195525    562.41953 0.0093830419 0.0075647995            5 
 4996000   0.44806276   -9.0307879    562.09012 0.0093756691 0.0075622462            4 
 4997000   0.44518441   -9.0088309    562.17435 0.0093751977 0.0075596931            6 
 4998000   0.45425273   -9.0256842    562.33768  0.009376045 0.0075571408            6 
 4999000   0.45345656   -9.0283073     561.2824 0.0093565779 0.0075545924            3 
 5000000   0.45963823   -9.0305643    562.66911 0.0093778184 0.0075520426            3 
 5001000   0.45596962   -9.0305938    561.21324 0.0093516837 0.0075494945            4 
 5002000   0.44756139   -9.0290554    562.82795 0.0093767151 0.0075469492            5 
 5003000   0.45273382    -9.016114    561.65913 0.0093553722 0.0075444042            2 
 5004000   0.46385465   -9.0248473     562.4662 0.0093669431 0.0075418601            4 
 5005000   0.45741683    -9.029796     561.7093 0.0093524691  0.007539318            4 
 5006000   0.45904851   -9.0155533    562.47962 0.0093634243 0.0075367759            4 
 5007000   0.44771593   -9.0498918    562.75213 0.0093660896 0.0075342362            5 
 5008000    0.4467464   -9.0159123    561.99609 0.0093516389  0.007531697            2 
 5009000   0.45478162   -9.0184954    561.75042 0.0093456847 0.0075291576            6 
 5010000   0.45382469   -9.0303625    562.38731  0.009354413 0.0075266178            4 
 5011000   0.45115387   -9.0345259    561.60642 0.0093395599 0.0075240797            4 
 5012000   0.45020776   -9.0231573    562.32059 0.0093495708 0.0075215421            4 
Loop time of 12372.8 on 48 procs for 5000000 steps with 4000 atoms

Performance: 69830.775 tau/day, 404.113 timesteps/s
99.4% CPU use with 48 MPI tasks x no OpenMP threads

MPI task timing breakdown:
Section |  min time  |  avg time  |  max time  |%varavg| %total
---------------------------------------------------------------
Pair    | 846.31     | 910.32     | 986        | 112.8 |  7.36
Neigh   | 81.86      | 85.121     | 88.443     |  17.4 |  0.69
Comm    | 765.9      | 843.85     | 919.23     | 126.5 |  6.82
Output  | 15.658     | 15.662     | 15.745     |   0.3 |  0.13
Modify  | 10382      | 10412      | 10445      |  14.7 | 84.15
Other   |            | 106.2      |            |       |  0.86

Nlocal:        83.3333 ave          92 max          76 min
Histogram: 2 3 2 14 3 12 8 3 0 1
Nghost:        2187.83 ave        2207 max        2173 min
Histogram: 2 5 7 5 9 9 6 3 1 1
Neighs:        14600.2 ave       15969 max       13378 min
Histogram: 5 5 7 2 5 8 4 5 4 3
FullNghs:      29201.0 ave       32171 max       26666 min
Histogram: 3 1 6 10 9 6 8 4 0 1

Total # of neighbors = 1401647
Ave neighs/atom = 350.41175
Neighbor list builds = 266951
Dangerous builds = 0

#clear
#
#next RN
#
#jump SELF
Total wall time: 3:26:16
