
units lj                  # Use reduced LJ style units
atom_style atomic         # Uncharged point particles
atom_modify map hash      # Needed for indexing of clusters etc
                          # Used to be able to find where atoms are in relation to each other.

lattice fcc 1.0 spacing 1 1 1
Lattice spacing in x,y,z = 1.5874011 1.5874011 1.5874011
region box block 0 10 0 10 0 10 units lattice
create_box 2 box
Created orthogonal box = (0.0000000 0.0000000 0.0000000) to (15.874011 15.874011 15.874011)
  3 by 4 by 4 MPI processor grid
create_atoms 1 box
Created 4000 atoms
  using lattice units in orthogonal box = (0.0000000 0.0000000 0.0000000) to (15.874011 15.874011 15.874011)
  create_atoms CPU = 0.004 seconds
set type 1 type/fraction 2 0.59 78393
Setting atom values ...
  2375 settings made for type/fraction
mass 1 1.0
mass 2 1.0
pair_style lj/cut  3.5
pair_modify tail  yes
pair_coeff 1  1  1.0  1.0   # Intearaction between 1 and 1 set with epsilon = 1 and sigma = 1
pair_coeff 1  2  1.5  0.8
pair_coeff 2  2  0.5  0.88

write_data data.0
System init for write_data ...
Neighbor list info ...
  update every 1 steps, delay 10 steps, check yes
  max neighbors/atom: 2000, page size: 100000
  master list distance cutoff = 3.8
  ghost atom cutoff = 3.8
  binsize = 1.9, bins = 9 9 9
  1 neighbor lists, perpetual/occasional/extra = 1 0 0
  (1) pair lj/cut, perpetual
      attributes: half, newton on
      pair build: half/bin/atomonly/newton
      stencil: half/bin/3d
      bin: standard
WARNING: Not all mixed pair coeffs generated from mixing. Use write_data with 'pair ij' option to store all pair coeffs. (../write_data.cpp:312)


#############################
#   M E L T   S Y S T E M   #
#############################

velocity all create 2.4 1741580 mom yes dist gaussian # Assign velocities
                                                    # Temperature 2.4, random number seed, zero linear momentum
                                                                                # Gaussian distribution

timestep 0.002   # simulation timestep
thermo 1000       # output thermodynamic data every 1000 steps bf 100

# Define a fix  in this case with index 1 applied to all
# particles in the simulation. This fix is for simulations
# in the anisotropic NPT ensemble. Note that we use the MTK
# correction.
fix 1 all npt temp 2.4 2.4 0.1 iso 5.68 5.68 0.5 mtk yes tchain 5 pchain 5 # Use NPT ensemble
                                                                         # Set temperature and pressure and damping
                                                                         # Numbers of thermostats in chain and in barostat
run 10000          # run for 10000 steps
Per MPI rank memory allocation (min/avg/max) = 3.642 | 3.644 | 3.648 Mbytes
Step Temp E_pair E_mol TotEng Press Volume 
       0          2.4   -4.7762807            0   -1.1771807   -4.0862689         4000 
    1000      2.43553    -4.485583            0  -0.83320126    6.0938514    3598.8971 
    2000    2.4165923   -4.6104093            0  -0.98642708    5.4283081    3598.8814 
    3000    2.4031779   -4.5260328            0  -0.92216718    5.7626336    3610.6652 
    4000    2.3850201   -4.5053107            0  -0.92867499    6.0563711    3593.5435 
    5000    2.4294839   -4.4575368            0  -0.81422189    5.9671732    3620.5311 
    6000    2.3494581   -4.5126872            0  -0.98938114    5.8087415    3599.0372 
    7000    2.3496679   -4.5514009            0   -1.0277803    5.5003601    3610.4272 
    8000    2.4090058   -4.5169344            0  -0.90432912     5.757432    3600.0355 
    9000    2.4046345   -4.4959974            0  -0.88994735    5.4966497    3641.4685 
   10000    2.4301749   -4.6261173            0   -0.9817663    5.5832675    3583.7615 
Loop time of 2.67905 on 48 procs for 10000 steps with 4000 atoms

Performance: 645004.707 tau/day, 3732.666 timesteps/s
99.6% CPU use with 48 MPI tasks x no OpenMP threads

MPI task timing breakdown:
Section |  min time  |  avg time  |  max time  |%varavg| %total
---------------------------------------------------------------
Pair    | 1.2035     | 1.2887     | 1.3576     |   2.8 | 48.10
Neigh   | 0.22052    | 0.22602    | 0.24014    |   0.9 |  8.44
Comm    | 0.81186    | 0.89636    | 0.97136    |   3.6 | 33.46
Output  | 0.0002485  | 0.00025606 | 0.00032891 |   0.0 |  0.01
Modify  | 0.21612    | 0.25168    | 0.27934    |   3.4 |  9.39
Other   |            | 0.01602    |            |       |  0.60

Nlocal:        83.3333 ave          94 max          75 min
Histogram: 2 4 5 9 7 13 3 3 1 1
Nghost:        1768.17 ave        1798 max        1740 min
Histogram: 1 7 4 7 5 8 6 5 3 2
Neighs:        10663.8 ave       12286 max        9323 min
Histogram: 3 5 3 6 12 5 8 3 1 2

Total # of neighbors = 511863
Ave neighs/atom = 127.96575
Neighbor list builds = 904
Dangerous builds = 195

# Equilibrate just above the melting temperature to avoid step fn in T

fix 1 all npt temp 1.25 1.25 0.1 iso 5.68 5.68 0.5 mtk yes tchain 5 pchain 5
run 2000
Per MPI rank memory allocation (min/avg/max) = 3.644 | 3.646 | 3.650 Mbytes
Step Temp E_pair E_mol TotEng Press Volume 
   10000    2.4301749   -4.6261173            0   -0.9817663    5.5832675    3583.7615 
   11000    1.2652809   -6.6309231            0   -4.7334762    5.5802966    2768.3968 
   12000    1.2497329   -6.6786801            0   -4.8045493    5.8747114    2750.4051 
Loop time of 0.669717 on 48 procs for 2000 steps with 4000 atoms

Performance: 516038.559 tau/day, 2986.334 timesteps/s
99.6% CPU use with 48 MPI tasks x no OpenMP threads

MPI task timing breakdown:
Section |  min time  |  avg time  |  max time  |%varavg| %total
---------------------------------------------------------------
Pair    | 0.30259    | 0.33104    | 0.36097    |   2.5 | 49.43
Neigh   | 0.041578   | 0.044342   | 0.048827   |   0.7 |  6.62
Comm    | 0.2091     | 0.24372    | 0.27641    |   3.3 | 36.39
Output  | 5.3886e-05 | 5.5336e-05 | 7.1355e-05 |   0.0 |  0.01
Modify  | 0.04169    | 0.045506   | 0.048904   |   0.9 |  6.79
Other   |            | 0.00506    |            |       |  0.76

Nlocal:        83.3333 ave          90 max          77 min
Histogram: 3 2 2 11 5 10 10 1 3 1
Nghost:        2109.75 ave        2126 max        2089 min
Histogram: 3 1 5 6 3 6 6 9 7 2
Neighs:        13875.7 ave       15463 max       12124 min
Histogram: 3 3 3 4 7 7 9 9 0 3

Total # of neighbors = 666035
Ave neighs/atom = 166.50875
Neighbor list builds = 142
Dangerous builds = 11

#############################
# L I N E A R  Q U E N C H  #
#############################

# Define solid atoms. This closely follows ten Wolde  Ruiz-Montero and Frenkel  Faraday Discuss  1996  104  93-110
# Compute components of the per-atom q6 vector
compute q6 all orientorder/atom degrees 1 6 components 6 nnn NULL cutoff 1.3 # compute the Q6 parameter.
                                                                             # Use all neighbours within 1.3 unit cell.

# get number of connections
compute coord_number all coord/atom orientorder q6 0.5

# An atom is solid if it has 8 or more connections (of a possible 14)
variable is_solid atom c_coord_number>=8
group solid dynamic all var is_solid    # Must be dynamic to update
dynamic group solid defined

# do clustering
compute cluster solid cluster/atom 1.3 # Create a cluster where all atoms within are solid and max 1.3 units from another member

# define chunks one chunk per cluster
compute clus_chunks solid chunk/atom c_cluster nchunk every compress yes  # Says which atoms are in which chunk

# count the size of each chunk
compute size_chunks solid property/chunk clus_chunks count


# Find the maximum entry in the vector of chunk sizes
variable max_n equal max(c_size_chunks)


# Thermo style which includes this variable
# thermo_style custom step temp pe vol v_max_n

thermo ${N}  # Print the thermo information every 100 steps
thermo 1000  

# Reset the npt fix at a lower temperature (below freezing)
fix 1  all npt temp  ${temp} ${temp}  0.1  iso  5.68  5.68  0.5  mtk yes tchain  5  pchain  5
fix 1  all npt temp  0.45 ${temp}  0.1  iso  5.68  5.68  0.5  mtk yes tchain  5  pchain  5
fix 1  all npt temp  0.45 0.45  0.1  iso  5.68  5.68  0.5  mtk yes tchain  5  pchain  5

dump dmp2 all dcd ${N} traj.dcd
dump dmp2 all dcd 1000 traj.dcd


compute msd all msd com yes
variable twopoint equal c_msd[4]/6/(step*dt+1.0e-6)
fix 9 all vector 10 c_msd[4]
variable fit equal slope(f_9)/6/(10*dt)
thermo_style custom step temp pe c_msd[4] v_twopoint v_fit v_max_n

fix 1 all npt temp 1.25 ${temp} 0.1 iso 5.68 5.68 0.5 mtk yes tchain 5 pchain 5
fix 1 all npt temp 1.25 0.45 0.1 iso 5.68 5.68 0.5 mtk yes tchain 5 pchain 5
run 500000 # 5000000  # Run for this many steps
Neighbor list info ...
  update every 1 steps, delay 10 steps, check yes
  max neighbors/atom: 2000, page size: 100000
  master list distance cutoff = 3.8
  ghost atom cutoff = 3.8
  binsize = 1.9, bins = 8 8 8
  4 neighbor lists, perpetual/occasional/extra = 1 3 0
  (1) pair lj/cut, perpetual
      attributes: half, newton on
      pair build: half/bin/atomonly/newton
      stencil: half/bin/3d
      bin: standard
  (2) compute orientorder/atom, occasional
      attributes: full, newton on
      pair build: full/bin/atomonly
      stencil: full/bin/3d
      bin: standard
  (3) compute coord/atom, occasional
      attributes: full, newton on
      pair build: full/bin/atomonly
      stencil: full/bin/3d
      bin: standard
  (4) compute cluster/atom, occasional
      attributes: full, newton on
      pair build: full/bin/atomonly
      stencil: full/bin/3d
      bin: standard
Per MPI rank memory allocation (min/avg/max) = 9.848 | 9.851 | 9.855 Mbytes
Step Temp PotEng c_msd[4] v_twopoint v_fit v_max_n 
   12000    1.2497329   -6.6786801 8.3717864e-31 5.8137403e-33 8.3333333e+20            3 
   13000    1.2507227    -6.685665   0.48356687 0.0030997875  0.039873429            3 
   14000    1.2667919   -6.7046318   0.94748845  0.005639812  0.038615292            2 
   15000    1.2238411   -6.6860841    1.3241344  0.007356302  0.036929454            1 
   16000    1.2330934   -6.7375542    1.7573181 0.0091526983  0.035476476            2 
   17000    1.2397283   -6.7177799    2.2137685  0.010851806  0.035557684            2 
   18000    1.2344934   -6.7069307    2.6405332  0.012224691  0.035751611            3 
   19000    1.2386773   -6.7640691    3.1247943  0.013705238  0.036118616            3 
   20000    1.2172564   -6.7383828    3.5970578   0.01498774  0.036472798            3 
   21000    1.2313934     -6.71659    4.0437772  0.016046734  0.036772179            2 
   22000    1.2392686   -6.7039065    4.5542616   0.01725099  0.037081726            5 
   23000    1.2395965   -6.7422556    4.9436794  0.017911881  0.037362306            2 
   24000    1.2321267   -6.7182366    5.3442877  0.018556554  0.037307455            3 
   25000     1.216154   -6.7528756    5.7113085  0.019037695  0.037124479            3 
   26000    1.2206991   -6.7630475    6.1533266    0.0197222   0.03694934            3 
   27000    1.2534559   -6.7648784    6.5973174   0.02036209  0.036753389            4 
   28000    1.2296396   -6.7790689    7.0337121  0.020933667  0.036660403            4 
   29000    1.2540764   -6.7774424    7.3798851  0.021206566  0.036509591            4 
   30000    1.2137337   -6.7928749    7.7989052  0.021663625   0.03629488            4 
   31000    1.2146095    -6.753792    8.2662056  0.022220982  0.036150541            2 
   32000    1.2272144   -6.7534713     8.668814  0.022575036   0.03607263            2 
   33000    1.2167953   -6.7777096    9.0762434  0.022919806  0.035990885            2 
   34000    1.2160361   -6.7724778    9.4515181  0.023165485  0.035876279            1 
   35000    1.2155661   -6.7802564    9.7545923  0.023225219  0.035706482            2 
   36000    1.2016355   -6.8173111     10.05179  0.023268031  0.035456325            2 
   37000    1.1929528   -6.8056509    10.358974  0.023331021  0.035193489            8 
   38000     1.179634    -6.836621     10.66497  0.023388093  0.034902874            1 
   39000    1.2068863   -6.7839923     11.05913   0.02363062  0.034610455            3 
   40000    1.2178654   -6.7606889    11.560425  0.024084218  0.034399622            3 
   41000    1.2058774   -6.8706268    11.901252  0.024189537  0.034243145            2 
   42000    1.1724162   -6.8382831    12.309086  0.024422789  0.034099362            2 
   43000    1.1961242   -6.8001142    12.606002  0.024430236  0.033936177            3 
   44000    1.2078109   -6.8076382    13.047237  0.024710676  0.033788917            5 
   45000    1.1794698   -6.8238172    13.366379  0.024752554  0.033633199            5 
   46000    1.2055069   -6.8206215    13.743086  0.024896895  0.033502775            3 
   47000    1.1930203   -6.7953142    14.058682  0.024926741  0.033360561            3 
   48000      1.20706   -6.8516756    14.476379  0.025132601  0.033225549            3 
   49000    1.1876686   -6.8389494    14.714891  0.025025325  0.033106089            2 
   50000    1.1724112   -6.8505768    15.038101  0.025063501  0.032966495            2 
   51000    1.2069828   -6.8162198    15.474512   0.02528515  0.032846258            2 
   52000    1.1910913   -6.8583476    15.805972  0.025330084  0.032727099            3 
   53000    1.1675462   -6.8727324    16.141005  0.025378938  0.032612804            2 
   54000    1.1776441    -6.881489    16.397163  0.025304264  0.032493023            3 
   55000    1.1907829   -6.8763823    16.697865  0.025299795  0.032356698            1 
   56000    1.1807536    -6.878957    17.056016  0.025380975  0.032217504            5 
   57000    1.1717895    -6.907144    17.382846  0.025413518   0.03208107            4 
   58000    1.2045916   -6.8717173     17.81616  0.025597931  0.031963355            4 
   59000     1.163463   -6.8890983    18.037077  0.025476097  0.031848423            4 
   60000    1.1541238    -6.832075    18.498149  0.025691874  0.031754191            2 
   61000    1.1779574   -6.8617032    18.793771   0.02567455  0.031657669            5 
   62000    1.1476588   -6.9488577    19.105204  0.025679037  0.031556591            4 
   63000    1.1745476     -6.92689    19.464041  0.025746086   0.03146842            4 
   64000    1.1557307   -6.9260906    19.744077  0.025708433  0.031370915            4 
   65000    1.1633975   -6.9041375    19.948296  0.025574739  0.031257809            2 
   66000    1.1553848    -6.928916    20.270345   0.02559387  0.031139182            2 
   67000    1.1448405   -6.9010114    20.734238  0.025788853  0.031030895            3 
   68000    1.1940951   -6.9393011    21.034607  0.025777704  0.030939348            2 
   69000    1.1680789   -6.9275475    21.331791  0.025763032  0.030845503            3 
   70000    1.1631709   -6.9641171    21.530047  0.025631009  0.030749191            4 
   71000     1.163481   -6.9384259    21.894805  0.025698128  0.030640886            3 
   72000    1.1611817   -6.9585423    22.285812  0.025793764  0.030553887            5 
   73000    1.1489646    -6.936011    22.702332  0.025915904  0.030476692            1 
   74000    1.1292876   -6.9180547    23.025166   0.02592924  0.030402634            3 
   75000    1.1449434   -6.9995288     23.23329  0.025814767  0.030329068            5 
   76000    1.1458625   -6.9495312    23.556023  0.025828973  0.030253907            4 
   77000    1.1305496   -6.9741861    23.791971  0.025748886  0.030171559            1 
   78000    1.1454362   -6.9614426    24.264073  0.025923155   0.03010105            2 
   79000    1.1299407   -6.9729172    24.694581  0.026049135   0.03004233            3 
   80000    1.1219111   -6.9940852    25.012757  0.026054956  0.029986896            6 
   81000    1.1346571   -6.9874167    25.301647  0.026030501  0.029930378            3 
   82000    1.1178233   -6.9442763    25.522444  0.025937443  0.029869822            3 
   83000     1.142857   -6.9933096     25.77849  0.025882018  0.029802148            5 
   84000    1.1530491   -7.0005159    26.043845  0.025837148    0.0297263            3 
   85000    1.1339801   -7.0327735    26.269358  0.025754272  0.029647717            2 
   86000    1.1346894   -7.0111411    26.663296  0.025836527  0.029575678            2 
   87000    1.1376005   -7.0001712    26.939885  0.025804488  0.029503966            4 
   88000    1.1247943   -6.9968356    27.227689  0.025783796  0.029435315            2 
   89000    1.1242627   -7.0307374    27.508599  0.025757115  0.029367417            2 
   90000    1.1270471   -7.0466277    27.795057  0.025736164  0.029291859            3 
   91000    1.1137868   -7.0488624    28.058591   0.02569468  0.029213646            3 
   92000    1.1458883   -7.0413838    28.332753  0.025663725  0.029142058            4 
   93000    1.1037313   -6.9882524    28.753151  0.025764472   0.02907506            3 
   94000     1.116104    -7.012403    28.876186  0.025599456  0.029002884            3 
   95000    1.1264123   -7.0367683    29.244217  0.025652822  0.028927083            4 
   96000    1.1069534   -7.0769702     29.50739  0.025614054  0.028858312            2 
   97000    1.1172373   -7.0904876    29.813509   0.02561298  0.028791464            6 
   98000    1.1188594   -7.0826719    29.966024  0.025481313  0.028720357            1 
   99000    1.1254032    -7.046802     30.24443  0.025458275  0.028647935            2 
  100000    1.1196644   -7.0243652    30.733769  0.025611474  0.028584547            3 
  101000    1.1105311   -7.0485353    30.780201  0.025396205   0.02852143            3 
  102000    1.1262468   -7.0922153    31.126451  0.025430107  0.028448811            2 
  103000     1.103303   -7.0619725    31.436904  0.025434388  0.028380367            4 
  104000    1.1073719   -7.0852292    31.610181  0.025328671  0.028303831            5 
  105000    1.1030574   -7.0856843    31.795534   0.02523455  0.028230808            3 
  106000    1.1098076   -7.1134284    32.129806  0.025259282  0.028155091            3 
  107000    1.1084581    -7.140531    32.305899  0.025160357  0.028079192            2 
  108000    1.1177014   -7.1289526    32.476036   0.02505867  0.028000515            4 
  109000    1.0846504    -7.081389    32.805178  0.025080412  0.027924364            6 
  110000    1.0978161    -7.073397    33.042519  0.025032211  0.027848832            6 
  111000    1.1031386   -7.1558866    33.222608  0.024941897  0.027769534            2 
  112000    1.0541125   -7.1373291    33.359618  0.024821144  0.027687469            6 
  113000    1.0931275   -7.1042983     33.71005  0.024859919  0.027603238            2 
  114000    1.0959657   -7.1364057    33.852169  0.024745737  0.027522298            6 
  115000     1.071375    -7.106014    34.016958   0.02464997  0.027435288            3 
  116000     1.073436   -7.1072003    34.087165  0.024487906  0.027342503            3 
  117000    1.0592424   -7.1514739    34.247408   0.02439274  0.027247644            4 
  118000    1.0655856   -7.1444183    34.501642  0.024365566  0.027155747            3 
  119000    1.0923881   -7.1626581    34.840041  0.024397788  0.027067117            4 
  120000    1.0632492   -7.1852286    35.110581  0.024382348   0.02698256            3 
  121000    1.0546324   -7.1952813    35.338603   0.02433788  0.026901299            2 
  122000    1.0706594   -7.1832593    35.562685  0.024291451  0.026820043            7 
  123000    1.0859374   -7.2002084    35.724316  0.024203466  0.026734578            6 
  124000    1.0807376   -7.2006535    35.862977  0.024101463  0.026647011            3 
  125000    1.0666133    -7.199294    35.902049  0.023934699  0.026557751            3 
  126000    1.0852968    -7.189399    36.360693  0.024048077  0.026469233            4 
  127000    1.0678343   -7.1698695     36.56227  0.023990991  0.026384482            6 
  128000    1.0340934    -7.162734    36.723748   0.02390869  0.026298147            8 
  129000    1.0464422   -7.1408607    37.176288   0.02401569  0.026216121            3 
  130000    1.0543166   -7.2173707    37.273178  0.023893062  0.026133844            4 
  131000    1.0595517   -7.1807291     37.41446  0.023800547  0.026050712            5 
  132000    1.0569354   -7.1876713     37.55168  0.023706869  0.025968423            3 
  133000    1.0778185   -7.2112746    37.724348   0.02363681  0.025885391            5 
  134000     1.034481   -7.2170067    37.997329   0.02363018  0.025801832            2 
  135000    1.0542383   -7.1793818    38.134265   0.02353967  0.025716644            3 
  136000    1.0444888   -7.1777296     38.31415  0.023476808  0.025631776            2 
  137000    1.0467332   -7.2458717     38.42038  0.023370061  0.025545298            5 
  138000     1.058513   -7.2288014    38.669301  0.023351027  0.025458911            4 
  139000    1.0512224   -7.1940392    38.982508  0.023370808  0.025377421            8 
  140000     1.058798    -7.219544    39.290263  0.023387061  0.025297077            8 
  141000    1.0565034   -7.2547389    39.007767  0.023054236  0.025211528            7 
  142000    1.0047212   -7.2568615    39.385098   0.02311332  0.025123969            2 
  143000    1.0339067    -7.268227    39.510266  0.023024631  0.025039173            6 
  144000    1.0226892   -7.2569215    39.700517  0.022974836  0.024955851           11 
  145000    1.0372559   -7.2218218    39.938531  0.022953179  0.024872082            3 
  146000    1.0377012   -7.2865508    40.052211  0.022860851  0.024789479            3 
  147000    1.0165818   -7.2893338    40.273653  0.022830869  0.024708845            4 
  148000    1.0279055   -7.2867257    40.295328  0.022688811  0.024625666            4 
  149000     1.012872   -7.2760325    40.573345  0.022692027   0.02454187            2 
  150000    1.0419553   -7.3013292    40.558667  0.022532593  0.024457026            4 
  151000    1.0403825   -7.2959188     40.90137    0.0225725  0.024372533            6 
  152000    1.0119704   -7.2719432    41.023929  0.022491189  0.024290855            4 
  153000    1.0323101   -7.3419212    41.126486  0.022400047  0.024208058            4 
  154000    1.0160183    -7.307584    41.420072  0.022413459  0.024125091            6 
  155000    1.0269473   -7.3514226    41.414471  0.022265845  0.024042096            3 
  156000    1.0541407   -7.3423302    41.496569   0.02216697  0.023956791            2 
  157000    1.0130173   -7.3209418    41.647871  0.022106089  0.023873116            4 
  158000   0.99912485   -7.3458895    41.910812  0.022104858  0.023789047            4 
  159000    1.0189659   -7.3398611    42.255967  0.022146733  0.023707569            5 
  160000    1.0330357   -7.3828748    42.237397  0.021998644  0.023626597            2 
  161000   0.98827312   -7.3177513    42.695482  0.022099111  0.023548239           14 
  162000   0.99548309    -7.358397    42.778135  0.022005213  0.023471961            3 
  163000   0.99804547   -7.3746577    42.785954  0.021874209   0.02339445            2 
  164000    1.0101425   -7.3437249    43.023666  0.021861619  0.023315935            3 
  165000   0.99338346   -7.3478887    43.153685   0.02179479   0.02323814            2 
  166000    1.0022401   -7.3811959     43.22199  0.021697786  0.023162292            5 
  167000    1.0058629   -7.3640766    43.525994  0.021719558   0.02308575            4 
  168000   0.98376089   -7.4089309    43.622727  0.021638257  0.023010536            5 
  169000   0.99949016   -7.4028752    43.534015  0.021466477  0.022933901            7 
  170000   0.99516045   -7.3663481    43.964877   0.02155141   0.02285665            4 
  171000   0.99380689   -7.3396238    43.937509  0.021412041  0.022779867            2 
  172000   0.97930317   -7.3885132    44.013338  0.021324292  0.022702867            8 
  173000    1.0021303   -7.3799312    44.282303  0.021330589  0.022626136            4 
  174000   0.97870317   -7.3986184    44.351193  0.021240993  0.022549071            3 
  175000   0.99142896   -7.3791162     44.56203  0.021220014  0.022473936            3 
  176000    1.0143526   -7.4120788    44.842688  0.021232333  0.022400326            6 
  177000   0.98925079   -7.4075431    44.909472  0.021143819  0.022328135            5 
  178000   0.98279873   -7.3763602    45.205138  0.021163454  0.022257339            3 
  179000   0.97605427   -7.4341655     45.23302  0.021058203    0.0221873            7 
  180000   0.99412344   -7.4207568    45.264017  0.020955563  0.022116966            3 
  181000   0.97632056   -7.4502561      45.5497  0.020971317  0.022047143            4 
  182000   0.97755432   -7.4260935    45.461189  0.020815563  0.021975944            3 
  183000   0.99664548   -7.4474044    45.642248  0.020784266  0.021903989            6 
  184000   0.95497202    -7.420839     45.91044  0.020792772  0.021832855            5 
  185000   0.94531837   -7.4417344    46.096441  0.020764163  0.021763594            3 
  186000   0.96995038   -7.4730382    46.072457  0.020641782   0.02169579            7 
  187000   0.97366908   -7.4694536    46.249585  0.020610332  0.021627538           10 
  188000   0.96330151   -7.4710574     46.55498  0.020636073  0.021558795            7 
  189000   0.95590853   -7.4512089     46.65075  0.020569114  0.021490355            5 
  190000   0.99075956   -7.4808239    46.633708  0.020453381  0.021421226            4 
  191000   0.95402431   -7.4734515    46.737694  0.020391664  0.021353457            3 
  192000   0.98167544   -7.4755358    46.807576  0.020315788  0.021285361            5 
  193000   0.95444505   -7.4755526    47.107201  0.020339897  0.021217042            5 
  194000   0.96225274   -7.4913359    47.192605  0.020271737  0.021148148            5 
  195000   0.95639265   -7.4895859    47.287534  0.020208348  0.021079809            2 
  196000   0.97370175   -7.5151257    47.178236  0.020058774  0.021011453            3 
  197000   0.92072147   -7.5319271    47.329746  0.020021043  0.020941447            4 
  198000   0.94743016   -7.5328107    47.333979  0.019921708  0.020870665            5 
  199000    0.9682572   -7.5317192    47.476732  0.019881379  0.020801586            6 
  200000   0.95491032   -7.5320634    47.721274  0.019883864  0.020731907            2 
  201000   0.97338055   -7.5143667    47.850742  0.019838616  0.020663808           14 
  202000    0.9359158   -7.5426318    47.995825  0.019800258  0.020596964            5 
  203000   0.97426012   -7.5003763    48.327019  0.019838678  0.020530985           19 
  204000   0.95591606   -7.5434894    48.290283  0.019726423  0.020464865            4 
  205000   0.93457557   -7.5346419    48.291947  0.019630873  0.020399484           11 
  206000   0.93387585   -7.5481903    48.359739  0.019563001  0.020333562            4 
  207000   0.92100647   -7.5264571    48.630715  0.019577583  0.020268122            6 
  208000   0.95177827   -7.5858304    48.559095  0.019454765  0.020203639            4 
  209000   0.92424166   -7.5766133    48.704048  0.019419477  0.020138517           13 
  210000   0.93133891   -7.5818447    48.664525  0.019311319  0.020072748            8 
  211000   0.93635025   -7.6280736    48.844903  0.019291036  0.020006354            6 
  212000   0.91113207   -7.5944549     48.94465  0.019239249  0.019939388            4 
  213000   0.92287916   -7.5953954    49.090367  0.019205934  0.019873182            8 
  214000   0.91839446   -7.5987208    49.072806  0.019109348  0.019807815            6 
  215000   0.91864708    -7.632344    49.214816   0.01907551  0.019742423            7 
  216000   0.91789121   -7.5865392    49.256693  0.019003354  0.019676937            8 
  217000    0.9024141    -7.632713    49.286748  0.018927322  0.019611606            4 
  218000   0.92303478   -7.6047246    49.428868  0.018894827  0.019545637            3 
  219000   0.92101254   -7.5853144    49.507786  0.018838579  0.019479507            5 
  220000   0.94280533   -7.6335234    49.586473  0.018782755     0.019414            8 
  221000   0.93946237   -7.5975856    49.689935  0.018736778  0.019348542            7 
  222000   0.92726758   -7.6705505    49.729587  0.018667262  0.019282696            5 
  223000   0.90729177   -7.5955228    49.732315  0.018584572  0.019216797            8 
  224000   0.87935453   -7.6507117     49.79693  0.018525644  0.019150153            5 
  225000   0.90304637   -7.6650917    49.672768  0.018397321  0.019082099            6 
  226000   0.88517261   -7.6677315    49.806079  0.018365073  0.019014945            5 
  227000    0.8968879   -7.6926153    49.871325  0.018308122  0.018948073            4 
  228000   0.91530119   -7.6350517    50.230898  0.018359246  0.018882334            5 
  229000   0.89538023   -7.6516139    50.154357  0.018251222  0.018816157           15 
  230000   0.91297275   -7.6620013    50.306586  0.018227024   0.01875112           14 
  231000   0.90349199   -7.6850109    50.456421  0.018202172  0.018687238           21 
  232000   0.91195549   -7.6779015    50.421175  0.018111054  0.018623258           14 
  233000   0.90065325   -7.6916598    50.575641   0.01808857  0.018559869           19 
  234000   0.86252494   -7.6760466    50.723883  0.018064061  0.018496153           14 
  235000   0.88662172   -7.6799379     50.72348   0.01798705  0.018433121           10 
  236000   0.90026502   -7.7030717    50.883748  0.017967425  0.018370728           24 
  237000   0.88339281    -7.701022    50.846866  0.017878645  0.018308277            6 
  238000   0.88195641   -7.7126318    51.062293  0.017878954  0.018245922            5 
  239000   0.89771771   -7.7225649     51.07637  0.017809055  0.018184713            5 
  240000   0.87658719   -7.7477993    51.188323  0.017773723  0.018123802            6 
  241000   0.89036517   -7.7316408    51.258165  0.017724123  0.018062729            5 
  242000   0.85383929   -7.7619221    51.105661  0.017598368   0.01800115            7 
  243000   0.89019484   -7.7332441    51.353119  0.017610809  0.017939734           13 
  244000   0.88349805   -7.7843022    51.379178  0.017547534  0.017878008           11 
  245000   0.86837019   -7.7809701     51.36644  0.017471578   0.01781665            5 
  246000   0.88696174   -7.7673014    51.499848  0.017445748  0.017756014            6 
  247000   0.86480721   -7.7942082    51.491244  0.017372215  0.017694674            7 
  248000   0.88624512   -7.8530161    51.405036  0.017273198  0.017633151            8 
  249000   0.87544044   -7.8247594    51.533942  0.017246968  0.017572073            9 
  250000   0.85023203   -7.7872797    51.687323  0.017229108  0.017512005           11 
  251000   0.87417085   -7.8069889    51.855663  0.017216356  0.017452207            6 
  252000   0.86147481   -7.8091317    51.932417  0.017173418   0.01739225            9 
  253000   0.85337045   -7.7996027    51.805692  0.017063798  0.017331825            6 
  254000   0.84822423   -7.7714657    51.994217   0.01705847  0.017271857            8 
  255000   0.86873852   -7.8286182    51.776869  0.016920546  0.017211407           11 
  256000   0.87147186    -7.799064    52.034098  0.016938183  0.017151411           17 
  257000   0.86705327   -7.8310727    52.168893  0.016915984  0.017091986            7 
  258000   0.83843854   -7.8289564    52.131898  0.016838468  0.017032658            8 
  259000    0.8518359   -7.8398378    51.941496  0.016712193  0.016972866            6 
  260000   0.84118961    -7.814287    52.115921  0.016703821  0.016913313            5 
  261000   0.84929633   -7.8597209    52.094074  0.016632846  0.016853799            9 
  262000   0.84321109   -7.8444243    52.167637   0.01659276  0.016794572           15 
  263000    0.8476985   -7.8551818    52.345479   0.01658602  0.016735396           17 
  264000   0.85492858   -7.8381201    52.433682  0.016551036  0.016676399            5 
  265000   0.86139307    -7.831166     52.27027  0.016437192  0.016618394           10 
  266000   0.86384448   -7.8378601    52.395099  0.016414505  0.016559519            7 
  267000   0.84076155   -7.8728541    52.265066  0.016312442  0.016501024            6 
  268000   0.84629494   -7.8685618    52.477842  0.016317737  0.016442519           10 
  269000   0.84610386   -7.8695242    52.653154  0.016311386  0.016384447            7 
  270000   0.84450892   -7.8940102     52.52911  0.016212688  0.016326787            7 
  271000   0.83746126   -7.8780839    52.729204  0.016214392  0.016270081           10 
  272000   0.83167555   -7.8812294    52.749447  0.016160983  0.016213567            9 
  273000    0.8078295   -7.8874697    52.795487  0.016115838  0.016156706            6 
  274000   0.83870598   -7.9068144    52.706202  0.016029867  0.016100307           14 
  275000      0.83485   -7.9017139    52.845589  0.016013815   0.01604411           18 
  276000   0.81384055   -7.8911612    52.842182  0.015954765  0.015988045           18 
  277000   0.82747712    -7.898533    52.823048   0.01589141  0.015931674           25 
  278000   0.83074359    -7.888418    52.897987  0.015856711  0.015875568           22 
  279000   0.79953794    -7.906546    52.870227  0.015791585  0.015819521           43 
  280000   0.81867514   -7.9103845    52.925163  0.015751537  0.015763353           24 
  281000     0.824807   -7.9068402    52.882072  0.015682702  0.015707554           19 
  282000     0.815225   -7.9281651    53.064705  0.015681059  0.015651569           23 
  283000   0.82603396    -7.949485    52.889061  0.015573928  0.015595523           15 
  284000   0.80590858   -7.9453342    53.007467  0.015553834  0.015540296           18 
  285000   0.81229868   -7.9635743    53.176985  0.015548826  0.015484958           18 
  286000   0.81291898   -7.9704463    53.035182  0.015453142  0.015429606           34 
  287000   0.81618339   -7.9840094    53.124893  0.015425346  0.015374215           20 
  288000   0.79100489   -7.9463323    53.037533  0.015346508  0.015319043           11 
  289000   0.81183898    -7.973748    52.961459   0.01527147  0.015263444           19 
  290000   0.80665348    -7.977469      53.0789  0.015252558   0.01520785           27 
  291000   0.79296218   -8.0254997    53.172561  0.015226965  0.015152631           17 
  292000   0.80785245   -8.0096576     52.94823  0.015110796  0.015097714           14 
  293000   0.78086735   -7.9982595    53.140404  0.015113881  0.015042884           33 
  294000   0.80049629   -7.9966305    53.173681  0.015071905  0.014988146           19 
  295000   0.79998362   -8.0030315    53.082579  0.014995079  0.014933379           11 
  296000    0.7945533   -8.0034626    53.179183  0.014971617  0.014878578           37 
  297000   0.80684287   -8.0034567    53.097324  0.014898239  0.014823928           13 
  298000   0.79937377   -8.0299786    53.238459  0.014887712  0.014769555           24 
  299000   0.78781591   -8.0367851    53.240177  0.014838399  0.014715537           10 
  300000   0.77546798   -8.0287467    53.238016  0.014788338  0.014661699           10 
  301000   0.78945554   -8.0407742    53.292201  0.014754208  0.014607894           11 
  302000    0.7939289   -8.0467433    53.289752  0.014704678  0.014554113           13 
  303000   0.79021308    -8.079984     53.14931  0.014617522  0.014500537           25 
  304000   0.78165335   -8.0375079     53.32714  0.014618185  0.014446864            9 
  305000   0.78437624   -8.0519945    53.211766  0.014538734   0.01439337           16 
  306000   0.77851338   -8.0508651    53.299294  0.014515058  0.014340071           22 
  307000   0.77708319   -8.0398853    53.414506  0.014499052  0.014286858           15 
  308000   0.76176056   -8.0775603    53.310819  0.014423923  0.014233452           11 
  309000   0.78434487   -8.0535423    53.198144  0.014346857  0.014180131           16 
  310000   0.76893114   -8.0996713    53.209686  0.014303679  0.014127077           18 
  311000   0.77075995   -8.1119099    53.147965  0.014241148  0.014074207           12 
  312000   0.76314111   -8.1272959    53.151899  0.014196554  0.014021028            9 
  313000   0.78231102   -8.1211911    53.196651  0.014163113  0.013968071           14 
  314000   0.76585493   -8.1200534    53.166658  0.014110047  0.013915323           12 
  315000   0.76235864   -8.1346961    53.247036  0.014086517  0.013862722           18 
  316000    0.7690156   -8.1225849    53.253435  0.014043627  0.013810572           20 
  317000   0.76272483   -8.1208092    53.173412  0.013978289  0.013758224           17 
  318000    0.7621292   -8.1389591    53.073771  0.013908221   0.01370612           17 
  319000   0.76344119   -8.1553425     53.25686   0.01391245  0.013654156           21 
  320000   0.74568416   -8.1530822    53.153882  0.013842157   0.01360256           17 
  321000   0.74989532   -8.1767027    53.144006  0.013796471  0.013551023           13 
  322000   0.72851067   -8.1446402    53.309795  0.013796531  0.013499784           15 
  323000   0.76483262   -8.1799722     53.23312  0.013734035  0.013448919           12 
  324000   0.73931056   -8.1658754    53.291282  0.013706605  0.013397897           14 
  325000    0.7527188   -8.1639114    53.281258  0.013661861  0.013347131           19 
  326000    0.7489501    -8.172158     53.29472  0.013623395   0.01329663           17 
  327000   0.73548549   -8.1634824    53.212575  0.013560799   0.01324642           17 
  328000    0.7325428   -8.1720477    53.280413   0.01353669  0.013196375           28 
  329000   0.73169294   -8.1581087    53.378697   0.01352044  0.013146501           18 
  330000   0.73927585    -8.170029    53.413795  0.013488332  0.013096848           23 
  331000   0.72509164    -8.184771    53.527776  0.013476278  0.013047654           38 
  332000   0.74626322   -8.2008053    53.419633  0.013408542   0.01299859           19 
  333000   0.72982628   -8.1915623     53.40099  0.013363611  0.012949538           18 
  334000   0.74014068   -8.2135997    53.353635  0.013311785  0.012900486           20 
  335000   0.74498888   -8.1905299    53.265016  0.013250004  0.012851529           31 
  336000   0.72351667   -8.2280746    53.293257  0.013217574  0.012802813           12 
  337000   0.72167937   -8.2145514    53.273644  0.013173502   0.01275421           23 
  338000   0.73799863   -8.2217092    53.301906  0.013141495  0.012705611           17 
  339000   0.73176878    -8.237222    53.229108  0.013084835  0.012657115           15 
  340000   0.71154145    -8.210792    53.260308  0.013053997  0.012608886           20 
  341000   0.73016641   -8.2356008    53.392291  0.013047969  0.012560859           39 
  342000   0.71482853   -8.2451478     53.28687   0.01298413  0.012512879           27 
  343000   0.71960997   -8.2448737    53.227049  0.012931742  0.012465036           45 
  344000   0.73762369    -8.227999    53.227288  0.012894207   0.01241727           39 
  345000   0.70702424   -8.2266903    53.234064  0.012858469  0.012369595           71 
  346000   0.71663788   -8.2629621    53.191059  0.012810949  0.012321863           59 
  347000   0.73011795   -8.2559248    53.066314  0.012744072  0.012274403           52 
  348000   0.69459145   -8.2692265    53.148568  0.012727148   0.01222716           37 
  349000   0.70685709   -8.2672444    53.145957  0.012690056  0.012180056           55 
  350000   0.71181259    -8.253455    53.161248   0.01265744  0.012133202           64 
  351000   0.73542966   -8.2411096    53.301279  0.012654625  0.012086608           43 
  352000   0.70424179   -8.2753795    53.194067  0.012593292  0.012040288           59 
  353000   0.71296633   -8.2891613    53.373242  0.012599915   0.01199409           59 
  354000   0.71580789   -8.2805882    53.282944  0.012543066  0.011948108           80 
  355000   0.69991389   -8.2775553    53.244875  0.012498797  0.011902248           66 
  356000   0.69269652   -8.3021853    53.247254  0.012464245  0.011856501           59 
  357000   0.70100227   -8.2818778    53.235543  0.012426597  0.011810985           36 
  358000    0.6941194    -8.304401    53.187097  0.012380609  0.011765763           37 
  359000   0.69496827   -8.2981499    53.245606  0.012359704  0.011720695           86 
  360000   0.68135989   -8.3040341    53.242619   0.01232468  0.011675845           57 
  361000   0.71071857   -8.3030689    53.170467  0.012273884  0.011631324           45 
  362000   0.70000822   -8.3170873    53.066539  0.012216054  0.011586825          101 
  363000   0.68762472   -8.3229716    53.224486  0.012218661  0.011542613           54 
  364000   0.69308703   -8.3120573    53.256578   0.01219244  0.011498472           55 
  365000   0.68556081   -8.3427699    53.174894  0.012140387  0.011454634           56 
  366000   0.68618568   -8.3356403    53.214344  0.012116198   0.01141082           52 
  367000   0.69240836    -8.346382    53.161121  0.012071099  0.011367215           80 
  368000   0.67247325   -8.3627017    53.058859   0.01201514  0.011323619           67 
  369000    0.6809742    -8.363296    53.178622  0.012009626  0.011280172           89 
  370000     0.680991   -8.3413766    53.186087  0.011978848  0.011236939           61 
  371000   0.66734773   -8.3322095    53.156519  0.011939919  0.011193822           94 
  372000   0.68245762   -8.3685254    53.069832  0.011888403  0.011150873           79 
  373000   0.65848593    -8.361506    53.166256  0.011878073  0.011108212           59 
  374000   0.65786449   -8.3782267    53.102409  0.011832088  0.011065716           81 
  375000   0.68521887   -8.3333781    53.156156  0.011812479  0.011023461           92 
  376000   0.66713412   -8.3872495    53.079517  0.011764077  0.010981333          135 
  377000   0.66016611   -8.3946282    53.108313  0.011739238  0.010939337           75 
  378000   0.67907624   -8.3955238    53.177677  0.011723474  0.010897473          115 
  379000   0.66932391   -8.4042215    53.129148  0.011681871  0.010855703           68 
  380000   0.65159961   -8.3921799     53.09473  0.011643581   0.01081414           67 
  381000   0.66230118   -8.3960213    53.065578  0.011606644  0.010772635           84 
  382000   0.64894303   -8.3960339    52.940208  0.011548911  0.010731466           74 
  383000   0.63934131   -8.4081107    53.002347  0.011532277  0.010690452          129 
  384000   0.65651363   -8.4124824    53.054315  0.011513523  0.010649697           86 
  385000   0.64488384   -8.4160884    52.981074  0.011467765  0.010609096          109 
  386000   0.66179457   -8.3901964    53.119695  0.011467983  0.010568706           87 
  387000   0.65975444   -8.4202437    53.057379  0.011424931  0.010528446          136 
  388000   0.65518851   -8.4209438    52.917312  0.011365402  0.010488288           76 
  389000   0.65071882   -8.4390165    52.850092  0.011321785   0.01044828          174 
  390000   0.62939169   -8.4254378     52.86111  0.011295109  0.010408463           91 
  391000   0.64734561   -8.4400583    52.931361  0.011281194  0.010368643          130 
  392000    0.6474071   -8.4473856    52.943911  0.011255083  0.010329158          126 
  393000    0.6371646   -8.4307013    52.923531  0.011222123  0.010289778           86 
  394000   0.64805351   -8.4501355    52.899949  0.011188652  0.010250441           84 
  395000   0.63262526   -8.4527984     52.83264  0.011146126  0.010211356          118 
  396000   0.62437541   -8.4411496    52.903825   0.01113296  0.010172417           90 
  397000    0.6299679   -8.4714242    52.844405  0.011092444  0.010133625           83 
  398000   0.62100208   -8.4565218    52.851069  0.011065969  0.010095018           96 
  399000   0.62763692   -8.4416794    53.036615  0.011076987  0.010056693           70 
  400000   0.62868146   -8.4663111     52.84061   0.01100846  0.010018431           93 
  401000   0.61784068   -8.4657587    52.885568  0.010990351 0.0099804825          120 
  402000   0.63272926   -8.4690429    52.905591  0.010967162  0.009942595           71 
  403000   0.62019151   -8.4636544    52.837372  0.010925842 0.0099049744           55 
  404000   0.62393576   -8.4626303    52.939641  0.010919893 0.0098675396           73 
  405000   0.62733057   -8.4716921     52.97267  0.010899726 0.0098302829          110 
  406000   0.62567772   -8.4788232    52.875082  0.010852849 0.0097931509           97 
  407000   0.63560564   -8.4872697    52.844058  0.010819832 0.0097562688           70 
  408000   0.62554852   -8.4776626    52.912227  0.010807236 0.0097194697           84 
  409000   0.61736139   -8.4994843    52.937386  0.010785938 0.0096827715           59 
  410000   0.61110202   -8.5050513    52.741303  0.010719777 0.0096462803          141 
  411000   0.60500358   -8.4984176    52.794804  0.010704543 0.0096098783          139 
  412000   0.60443778   -8.5133854    52.838106  0.010687319 0.0095735637          115 
  413000   0.61106843   -8.5038231    52.789542  0.010651643 0.0095374572           65 
  414000    0.6049076   -8.5177604    52.795383   0.01062709 0.0095015684           81 
  415000   0.60294494   -8.5175131    52.822156  0.010606859 0.0094658722          149 
  416000   0.60663749   -8.5282402    52.783878  0.010573694 0.0094303162          106 
  417000   0.59471656   -8.5166468    52.815326  0.010554621 0.0093950291           82 
  418000    0.6090133   -8.5371733    52.827835  0.010531865 0.0093599121          131 
  419000   0.60429959   -8.5425436    52.752311  0.010491709 0.0093249399           69 
  420000    0.6089177   -8.5131734    52.749908  0.010466252  0.009290128          148 
  421000   0.59325403   -8.5265771    52.804273  0.010452152 0.0092555156          118 
  422000   0.59294894   -8.5204272    52.746085  0.010415894 0.0092210657           80 
  423000   0.58599903   -8.5343632    52.801999  0.010402285  0.009186712          106 
  424000   0.58873601   -8.5345615    52.812691  0.010379853 0.0091526049           97 
  425000   0.59732488   -8.5445845    52.825713  0.010357983 0.0091185338           88 
  426000   0.58773532   -8.5418559    52.755553  0.010319944 0.0090846801          108 
  427000   0.59498971   -8.5391898    52.734099  0.010291588 0.0090509996          116 
  428000   0.58685903   -8.5229192    52.767988  0.010274141 0.0090174857           74 
  429000   0.58181011   -8.5694854    52.748066  0.010246322 0.0089840752          115 
  430000   0.57749467   -8.5553896    52.775035   0.01022772 0.0089507779          148 
  431000   0.57870308     -8.56299    52.726807  0.010194665 0.0089176432           76 
  432000   0.57697686   -8.5797048    52.640647  0.010154446 0.0088846261           90 
  433000   0.57375148    -8.582719    52.659763  0.010134673 0.0088516838          126 
  434000   0.58557079    -8.554902    52.798994  0.010138056 0.0088189486           94 
  435000     0.571954   -8.5553776    52.696044  0.010095027 0.0087863941           81 
  436000   0.56682572   -8.5708982    52.673624  0.010067589  0.008753963          135 
  437000   0.56703526   -8.5732103    52.677192  0.010045231 0.0087216742          234 
  438000   0.56203246   -8.5708609    52.577628  0.010003354 0.0086895002           75 
  439000   0.57588433   -8.5893247    52.567912 0.0099787229 0.0086574339          124 
  440000   0.57134973    -8.585423     52.55561 0.0099537141 0.0086254889           89 
  441000   0.56677476   -8.6017868    52.554088 0.0099308556  0.008593723          233 
  442000   0.55920463   -8.5838055    52.578667 0.0099130216 0.0085620183          154 
  443000   0.56996154   -8.5997251    52.663702 0.0099066408 0.0085304599          202 
  444000   0.56034968   -8.5885342    52.572503 0.0098672116 0.0084991182          100 
  445000   0.55635261   -8.5962071    52.579981 0.0098464385 0.0084679066          218 
  446000   0.54497797   -8.6030959    52.569127 0.0098223331 0.0084368491          172 
  447000   0.55909091   -8.6041171    52.614789  0.009808872 0.0084059506          181 
  448000   0.55017353    -8.595142    52.545702  0.009774126 0.0083751684          116 
  449000   0.54361648   -8.5911584     52.66834 0.0097751188 0.0083445913          133 
  450000   0.56140361   -8.5983846    52.567489 0.0097347202 0.0083141488          161 
  451000   0.55696195   -8.6101825    52.510395 0.0097025859 0.0082838794          232 
  452000   0.55073391    -8.607719     52.55193 0.0096887776 0.0082537428          162 
  453000   0.54562366   -8.5996633    52.624875 0.0096808085  0.008223681          184 
  454000    0.5585284   -8.6111909    52.588349 0.0096527806 0.0081937828          167 
  455000   0.53796123   -8.6147254    52.512424 0.0096176601 0.0081640014          223 
  456000   0.56599659   -8.6334686    52.593129 0.0096113174 0.0081343734          198 
  457000   0.53868577   -8.6193322    52.565601 0.0095852664  0.008104867          241 
  458000   0.54549421   -8.6433342    52.509796 0.0095541842 0.0080755001          168 
  459000   0.54044517   -8.6222806    52.492477 0.0095302245 0.0080461756          264 
  460000   0.53409436   -8.6224279    52.511657 0.0095129813 0.0080170767          190 
  461000   0.53265681    -8.639315    52.494064 0.0094891655 0.0079880779          201 
  462000   0.52651236   -8.6386922    52.514345 0.0094722844 0.0079592734          236 
  463000   0.51717194   -8.6486019    52.495774 0.0094484834 0.0079305236          230 
  464000   0.52647585   -8.6536307    52.457847 0.0094213087 0.0079019252          158 
  465000   0.52421425   -8.6368568    52.403751 0.0093913533 0.0078734516          210 
  466000   0.52486832   -8.6609639    52.468792 0.0093828313 0.0078451836          181 
  467000   0.52361104   -8.6399731    52.513176 0.0093706595 0.0078170211          183 
  468000   0.51506754   -8.6733106    52.414157 0.0093330051 0.0077888987          112 
  469000   0.51623316    -8.641465    52.400484 0.0093106758 0.0077609285          224 
  470000   0.52503805   -8.6649069    52.344649  0.009280966 0.0077330697          254 
  471000   0.52226095   -8.6621162    52.398503 0.0092707897 0.0077053557          221 
  472000   0.51678187   -8.6755067    52.493049 0.0092678406 0.0076777716          112 
  473000   0.49284858   -8.6595362    52.432133 0.0092375146  0.007650308          187 
  474000   0.50858863   -8.6681897    52.444077  0.009220126 0.0076229542          162 
  475000   0.50773061   -8.6731637     52.38324  0.009190042 0.0075957109          158 
  476000   0.50721135    -8.684839    52.389326 0.0091718007 0.0075685857          107 
  477000   0.50095187   -8.6673312    52.399984 0.0091544347 0.0075415987          228 
  478000   0.51009478   -8.6737509    52.378592 0.0091315537 0.0075147769          274 
  479000   0.51042279    -8.684915    52.339411 0.0091056735 0.0074881475          137 
  480000   0.50493567   -8.6817115    52.361889 0.0090906057 0.0074615634          207 
  481000   0.50187095   -8.6786321     52.32949 0.0090660932 0.0074351037          133 
  482000   0.49509434   -8.6835721    52.390571 0.0090578442 0.0074088513          319 
  483000   0.51172685   -8.6886242    52.314785 0.0090260154 0.0073826404          218 
  484000    0.4952719   -8.6929884    52.387125 0.0090198218 0.0073565828          164 
  485000   0.49566452   -8.6955883    52.267541 0.0089806771 0.0073306145          167 
  486000   0.50089879   -8.6982065    52.335045 0.0089737732 0.0073047587          194 
  487000   0.48882059   -8.7108233    52.282413 0.0089463404 0.0072790156          204 
  488000   0.49073147   -8.6958995    52.349859  0.008939525 0.0072534048          218 
  489000   0.49506282   -8.7044591    52.466748 0.0089411636 0.0072278825          219 
  490000   0.48442636   -8.7256574    52.277908 0.0088908007 0.0072024902          225 
  491000   0.47956142   -8.7212055    52.254161 0.0088686628 0.0071772207          167 
  492000   0.48878354   -8.7139956    52.316949 0.0088612718 0.0071520828          165 
  493000   0.47710404   -8.7271311    52.230274 0.0088286467 0.0071270677          141 
  494000   0.48066756   -8.7207509    52.221311  0.008809263 0.0071021731          196 
  495000   0.48474626   -8.7185047     52.24352 0.0087952055 0.0070773498          181 
  496000    0.4828816   -8.7228261    52.203058  0.008770675 0.0070526883          187 
  497000   0.48037622   -8.7254701    52.180715 0.0087492815 0.0070281189          221 
  498000   0.48333189   -8.7338259    52.245186  0.008742501 0.0070036467          151 
  499000   0.47509248   -8.7163727    52.288686 0.0087322455 0.0069792692          230 
  500000   0.46726636   -8.7561141     52.28061  0.008713435 0.0069550002          252 
  501000   0.46396493   -8.7365447    52.247054 0.0086904613 0.0069308693          144 
  502000   0.46947606   -8.7492402    52.256611 0.0086747362 0.0069068369          230 
  503000   0.46577219   -8.7497417    52.152666 0.0086402694 0.0068829203          238 
  504000   0.45983859    -8.753803    52.232588 0.0086363405 0.0068590719          212 
  505000   0.46972898   -8.7507971    52.274564 0.0086261657 0.0068353452          180 
  506000   0.46149781   -8.7537177    52.202635 0.0085972719  0.006811719           87 
  507000   0.44968556   -8.7516421    52.176122 0.0085759569 0.0067881764          226 
  508000   0.45928916   -8.7528279    52.153669 0.0085553919 0.0067647332          155 
  509000   0.46069045   -8.7598846    52.222892 0.0085499169 0.0067413681          180 
  510000     0.448433    -8.769676    52.183679  0.008526745 0.0067181474          256 
  511000    0.4436384   -8.7750667    52.122361 0.0085000589 0.0066949919          230 
  512000   0.45383827   -8.7678502    52.207178  0.008497262 0.0066720031          184 
Loop time of 1323.54 on 48 procs for 500000 steps with 4000 atoms

Performance: 65279.492 tau/day, 377.775 timesteps/s
99.4% CPU use with 48 MPI tasks x no OpenMP threads

MPI task timing breakdown:
Section |  min time  |  avg time  |  max time  |%varavg| %total
---------------------------------------------------------------
Pair    | 94.106     | 100.48     | 106.57     |  34.1 |  7.59
Neigh   | 9.1336     | 9.4634     | 9.8771     |   5.5 |  0.72
Comm    | 83.456     | 90.253     | 97.121     |  38.1 |  6.82
Output  | 1.0172     | 1.018      | 1.0414     |   0.3 |  0.08
Modify  | 1105       | 1110.1     | 1114.3     |   5.7 | 83.87
Other   |            | 12.21      |            |       |  0.92

Nlocal:        83.3333 ave          89 max          78 min
Histogram: 2 5 5 7 3 13 6 2 2 3
Nghost:        2401.42 ave        2414 max        2378 min
Histogram: 2 2 0 1 5 5 13 6 8 6
Neighs:        16596.3 ave       18525 max       14401 min
Histogram: 2 7 4 4 5 5 5 6 4 6
FullNghs:      33193.7 ave       35591 max       30720 min
Histogram: 1 2 6 9 3 12 8 2 2 3

Total # of neighbors = 1593296
Ave neighs/atom = 398.32400
Neighbor list builds = 26591
Dangerous builds = 0

#clear
#
#next RN
#
#jump SELF
Total wall time: 0:22:07
