
units lj                  # Use reduced LJ style units
atom_style atomic         # Uncharged point particles
atom_modify map hash      # Needed for indexing of clusters etc
                          # Used to be able to find where atoms are in relation to each other.

lattice fcc 1.0 spacing 1 1 1
Lattice spacing in x,y,z = 1.5874011 1.5874011 1.5874011
region box block 0 10 0 10 0 10 units lattice
create_box 2 box
Created orthogonal box = (0.0000000 0.0000000 0.0000000) to (15.874011 15.874011 15.874011)
  3 by 4 by 4 MPI processor grid
create_atoms 1 box
Created 4000 atoms
  using lattice units in orthogonal box = (0.0000000 0.0000000 0.0000000) to (15.874011 15.874011 15.874011)
  create_atoms CPU = 0.003 seconds
set type 1 type/fraction 2 0.29 78393
Setting atom values ...
  1200 settings made for type/fraction
mass 1 1.0
mass 2 1.0
pair_style lj/cut  3.5
pair_modify tail  yes
pair_coeff 1  1  1.0  1.0   # Intearaction between 1 and 1 set with epsilon = 1 and sigma = 1
pair_coeff 1  2  1.5  0.8
pair_coeff 2  2  0.5  0.88

write_data data.0
System init for write_data ...
Neighbor list info ...
  update every 1 steps, delay 10 steps, check yes
  max neighbors/atom: 2000, page size: 100000
  master list distance cutoff = 3.8
  ghost atom cutoff = 3.8
  binsize = 1.9, bins = 9 9 9
  1 neighbor lists, perpetual/occasional/extra = 1 0 0
  (1) pair lj/cut, perpetual
      attributes: half, newton on
      pair build: half/bin/atomonly/newton
      stencil: half/bin/3d
      bin: standard
WARNING: Not all mixed pair coeffs generated from mixing. Use write_data with 'pair ij' option to store all pair coeffs. (../write_data.cpp:312)


#############################
#   M E L T   S Y S T E M   #
#############################

velocity all create 2.4 8172548 mom yes dist gaussian # Assign velocities
                                                    # Temperature 2.4, random number seed, zero linear momentum
                                                                                # Gaussian distribution

timestep 0.002   # simulation timestep
thermo 1000       # output thermodynamic data every 1000 steps bf 100

# Define a fix  in this case with index 1 applied to all
# particles in the simulation. This fix is for simulations
# in the anisotropic NPT ensemble. Note that we use the MTK
# correction.
fix 1 all npt temp 2.4 2.4 0.1 iso 5.68 5.68 0.5 mtk yes tchain 5 pchain 5 # Use NPT ensemble
                                                                         # Set temperature and pressure and damping
                                                                         # Numbers of thermostats in chain and in barostat
run 10000          # run for 10000 steps
Per MPI rank memory allocation (min/avg/max) = 3.642 | 3.644 | 3.648 Mbytes
Step Temp E_pair E_mol TotEng Press Volume 
       0          2.4   -6.4756105            0   -2.8765105   -3.9602485         4000 
    1000    2.3789118   -4.9270195            0    -1.359544     5.579788    4206.2892 
    2000    2.3393786   -4.9695891            0   -1.4613985    5.3658669    4199.1821 
    3000    2.3924605   -4.9189395            0   -1.3311459    5.8316558    4191.9605 
    4000    2.3681715   -5.0022494            0   -1.4508803    5.4175892     4179.224 
    5000    2.4151709   -4.9416717            0    -1.319821    5.4713638    4214.6491 
    6000    2.4023773   -4.9880717            0   -1.3854065    5.5281187    4176.2855 
    7000    2.3659471   -4.9802688            0   -1.4322354    5.4496716    4187.1262 
    8000    2.3494281   -4.9822346            0   -1.4589734     5.514182    4180.0689 
    9000    2.4004675   -4.8941288            0   -1.2943278    5.7600931    4211.3449 
   10000    2.3865984   -4.9823247            0   -1.4033221    5.4606603     4197.065 
Loop time of 2.37234 on 48 procs for 10000 steps with 4000 atoms

Performance: 728394.499 tau/day, 4215.246 timesteps/s
99.6% CPU use with 48 MPI tasks x no OpenMP threads

MPI task timing breakdown:
Section |  min time  |  avg time  |  max time  |%varavg| %total
---------------------------------------------------------------
Pair    | 1.0469     | 1.1039     | 1.1958     |   3.0 | 46.53
Neigh   | 0.19872    | 0.21025    | 0.22295    |   1.1 |  8.86
Comm    | 0.70578    | 0.80648    | 0.88529    |   4.5 | 34.00
Output  | 0.00023894 | 0.00024304 | 0.000323   |   0.0 |  0.01
Modify  | 0.21243    | 0.23662    | 0.25862    |   2.7 |  9.97
Other   |            | 0.01481    |            |       |  0.62

Nlocal:        83.3333 ave          94 max          70 min
Histogram: 2 1 4 4 3 14 6 10 1 3
Nghost:        1591.27 ave        1626 max        1564 min
Histogram: 2 6 7 10 7 4 3 2 4 3
Neighs:        9094.58 ave       10746 max        7291 min
Histogram: 2 0 6 4 7 12 7 5 4 1

Total # of neighbors = 436540
Ave neighs/atom = 109.13500
Neighbor list builds = 907
Dangerous builds = 202

# Equilibrate just above the melting temperature to avoid step fn in T

fix 1 all npt temp 1.25 1.25 0.1 iso 5.68 5.68 0.5 mtk yes tchain 5 pchain 5
run 2000
Per MPI rank memory allocation (min/avg/max) = 3.643 | 3.645 | 3.649 Mbytes
Step Temp E_pair E_mol TotEng Press Volume 
   10000    2.3865984   -4.9823247            0   -1.4033221    5.4606603     4197.065 
   11000    1.2286079   -6.8044263            0   -4.9619752    5.7818255      3369.59 
   12000    1.2708532   -6.8342834            0   -4.9284801    5.6031416    3367.8757 
Loop time of 0.549179 on 48 procs for 2000 steps with 4000 atoms

Performance: 629303.465 tau/day, 3641.802 timesteps/s
99.6% CPU use with 48 MPI tasks x no OpenMP threads

MPI task timing breakdown:
Section |  min time  |  avg time  |  max time  |%varavg| %total
---------------------------------------------------------------
Pair    | 0.23699    | 0.26601    | 0.29679    |   2.2 | 48.44
Neigh   | 0.035761   | 0.038891   | 0.042106   |   0.6 |  7.08
Comm    | 0.16507    | 0.19754    | 0.23231    |   2.9 | 35.97
Output  | 4.8159e-05 | 5.0336e-05 | 6.6841e-05 |   0.0 |  0.01
Modify  | 0.038529   | 0.042155   | 0.046437   |   1.0 |  7.68
Other   |            | 0.004539   |            |       |  0.83

Nlocal:        83.3333 ave          91 max          74 min
Histogram: 1 3 4 4 13 5 2 5 6 5
Nghost:        1835.19 ave        1850 max        1815 min
Histogram: 2 5 4 2 4 4 8 5 9 5
Neighs:        11343.8 ave       12543 max       10266 min
Histogram: 6 5 6 2 7 3 7 4 5 3

Total # of neighbors = 544503
Ave neighs/atom = 136.12575
Neighbor list builds = 143
Dangerous builds = 9

#############################
# L I N E A R  Q U E N C H  #
#############################

# Define solid atoms. This closely follows ten Wolde  Ruiz-Montero and Frenkel  Faraday Discuss  1996  104  93-110
# Compute components of the per-atom q6 vector
compute q6 all orientorder/atom degrees 1 6 components 6 nnn NULL cutoff 1.3 # compute the Q6 parameter.
                                                                             # Use all neighbours within 1.3 unit cell.

# get number of connections
compute coord_number all coord/atom orientorder q6 0.5

# An atom is solid if it has 8 or more connections (of a possible 14)
variable is_solid atom c_coord_number>=8
group solid dynamic all var is_solid    # Must be dynamic to update
dynamic group solid defined

# do clustering
compute cluster solid cluster/atom 1.3 # Create a cluster where all atoms within are solid and max 1.3 units from another member

# define chunks one chunk per cluster
compute clus_chunks solid chunk/atom c_cluster nchunk every compress yes  # Says which atoms are in which chunk

# count the size of each chunk
compute size_chunks solid property/chunk clus_chunks count


# Find the maximum entry in the vector of chunk sizes
variable max_n equal max(c_size_chunks)


# Thermo style which includes this variable
# thermo_style custom step temp pe vol v_max_n

thermo ${N}  # Print the thermo information every 100 steps
thermo 1000  

# Reset the npt fix at a lower temperature (below freezing)
fix 1  all npt temp  ${temp} ${temp}  0.1  iso  5.68  5.68  0.5  mtk yes tchain  5  pchain  5
fix 1  all npt temp  0.45 ${temp}  0.1  iso  5.68  5.68  0.5  mtk yes tchain  5  pchain  5
fix 1  all npt temp  0.45 0.45  0.1  iso  5.68  5.68  0.5  mtk yes tchain  5  pchain  5

dump dmp2 all dcd ${N} traj.dcd
dump dmp2 all dcd 1000 traj.dcd


compute msd all msd com yes
variable twopoint equal c_msd[4]/6/(step*dt+1.0e-6)
fix 9 all vector 10 c_msd[4]
variable fit equal slope(f_9)/6/(10*dt)
thermo_style custom step temp pe c_msd[4] v_twopoint v_fit v_max_n

fix 1 all npt temp 1.25 ${temp} 0.1 iso 5.68 5.68 0.5 mtk yes tchain 5 pchain 5
fix 1 all npt temp 1.25 0.45 0.1 iso 5.68 5.68 0.5 mtk yes tchain 5 pchain 5
run 2000000 # 5000000  # Run for this many steps
Neighbor list info ...
  update every 1 steps, delay 10 steps, check yes
  max neighbors/atom: 2000, page size: 100000
  master list distance cutoff = 3.8
  ghost atom cutoff = 3.8
  binsize = 1.9, bins = 8 8 8
  4 neighbor lists, perpetual/occasional/extra = 1 3 0
  (1) pair lj/cut, perpetual
      attributes: half, newton on
      pair build: half/bin/atomonly/newton
      stencil: half/bin/3d
      bin: standard
  (2) compute orientorder/atom, occasional
      attributes: full, newton on
      pair build: full/bin/atomonly
      stencil: full/bin/3d
      bin: standard
  (3) compute coord/atom, occasional
      attributes: full, newton on
      pair build: full/bin/atomonly
      stencil: full/bin/3d
      bin: standard
  (4) compute cluster/atom, occasional
      attributes: full, newton on
      pair build: full/bin/atomonly
      stencil: full/bin/3d
      bin: standard
Per MPI rank memory allocation (min/avg/max) = 9.807 | 9.813 | 9.817 Mbytes
Step Temp PotEng c_msd[4] v_twopoint v_fit v_max_n 
   12000    1.2708532   -6.8342834 1.0969111e-30 7.6174378e-33 8.3333333e+20            1 
   13000     1.240024   -6.8534935    0.5145571 0.0032984428  0.042364179            3 
   14000     1.247386   -6.8564818    0.9731746 0.0057927058  0.040051042            1 
   15000    1.2190404   -6.8537096    1.5173481 0.0084297113   0.04081045            1 
   16000     1.218191   -6.8644281     1.961116  0.010214145  0.040813815            1 
   17000    1.2504111   -6.8647424    2.3756288  0.011645239   0.03983148            1 
   18000    1.2556457   -6.8122847    2.8873578  0.013367397   0.03934511            1 
   19000    1.2443013   -6.8618068    3.3858425  0.014850186  0.039494943            1 
   20000    1.2510264   -6.8614329    3.7957183  0.015815492  0.039476517            1 
   21000    1.2357309    -6.878485    4.2979169  0.017055225  0.039316696            1 
   22000    1.2267099   -6.8575517    4.8174838  0.018248044  0.039482238            2 
   23000    1.2210404   -6.8618858    5.2556496  0.019042208  0.039551332            1 
   24000    1.2579148     -6.87389    5.8529947  0.020322898  0.039767795            2 
   25000    1.2581912   -6.9015002    6.3159884  0.021053294  0.040036173            2 
   26000    1.2428802   -6.8607678    6.9048334  0.022130876  0.040278294            1 
   27000    1.2453879   -6.8542474    7.3315138  0.022628129  0.040488946            2 
   28000     1.237847   -6.8343145    7.9711214  0.023723575  0.040735593            1 
   29000     1.244841   -6.8517914    8.4735672  0.024349331  0.040982039            3 
   30000    1.2630922   -6.8346031    8.9797658  0.024943794  0.041148593            1 
   31000    1.2404177   -6.8805052    9.4425868  0.025383297  0.041295518            2 
   32000     1.217002   -6.8907565    9.9085269  0.025803455  0.041400746            1 
   33000    1.2383545   -6.9022809    10.397792  0.026257049  0.041511176            2 
   34000    1.2556342   -6.9383767    10.874565  0.026653346  0.041561793            2 
   35000    1.2280126   -6.8755675     11.32683  0.026968643   0.04153369            1 
   36000    1.2448842   -6.8440752     11.76451  0.027232661   0.04148509            2 
   37000    1.2259461   -6.8905151    12.233401  0.027552704  0.041381205            1 
   38000    1.2508608   -6.8740476    12.616856  0.027668543  0.041262044            2 
   39000     1.230781   -6.8847922    13.047093  0.027878404  0.041103932            1 
   40000     1.224364   -6.9037524    13.488442  0.028100921  0.040948312            1 
   41000    1.2378629   -6.8756308    14.017007  0.028489852  0.040801933            1 
   42000    1.2445606   -6.8584941    14.500519  0.028770871  0.040701633            1 
   43000    1.2315855   -6.9194754    14.872049  0.028821801  0.040609362            3 
   44000    1.2462819    -6.865751    15.283992  0.028946954  0.040462259            3 
   45000    1.2067703   -6.8994641    15.703257  0.029080104  0.040318351            1 
   46000     1.263235   -6.8556537    16.244593  0.029428611  0.040202419            1 
   47000    1.2183154   -6.9364026    16.614026  0.029457493  0.040090205            2 
   48000    1.2537603   -6.9042499    17.109535  0.029704053  0.039987069            2 
   49000    1.2417522   -6.9092818    17.617472  0.029961687  0.039883993            1 
   50000    1.2338104   -6.8442192    18.153054   0.03025509  0.039809132            3 
   51000    1.2520506    -6.870232    18.608854  0.030406624   0.03974311            1 
   52000    1.2499063   -6.8810029      18.9646  0.030391988  0.039669094            4 
   53000    1.2279366   -6.9127505      19.4087  0.030516823   0.03960443            1 
   54000     1.231011   -6.8655449    19.908533  0.030723045  0.039537817            1 
   55000    1.2292125   -6.8933164     20.40742  0.030920334  0.039488262            1 
   56000    1.2423004   -6.8511249     20.93982  0.031160446  0.039463407            1 
   57000    1.1908424   -6.8871716    21.449786  0.031359337  0.039446781            2 
   58000    1.2553545   -6.9103059    21.915747  0.031488142   0.03943654            1 
   59000    1.2392431   -6.8784102    22.342622  0.031557376  0.039432824            2 
   60000    1.2289856   -6.8789369    22.929189  0.031846095  0.039421544            2 
   61000    1.2476643   -6.9105202     23.24939  0.031761462   0.03939385            2 
   62000    1.2426575   -6.9027623    23.520256  0.031613247  0.039349998            1 
   63000    1.2224086   -6.8646368    23.873595  0.031578829  0.039295172            2 
   64000    1.2656571   -6.9233458    24.352768  0.031709334  0.039223032            2 
   65000    1.2136962   -6.8975218    24.745821  0.031725411  0.039148366            1 
   66000    1.2355463   -6.9025219    25.146111   0.03175014  0.039079165            1 
   67000    1.2183971   -6.9284443    25.468548  0.031677298  0.038995664            1 
   68000    1.2241715   -6.9088971    25.951688  0.031803539   0.03891302            1 
   69000    1.2213559   -6.9046843    26.452718  0.031947727  0.038841249            4 
   70000    1.2201352   -6.9041945    26.913905  0.032040363  0.038780047            1 
   71000    1.1691072   -6.8969097    27.272942  0.032010495  0.038710154            1 
   72000    1.2343965    -6.899473    27.634824   0.03198475  0.038639412            1 
   73000    1.2465041    -6.905863    28.119195  0.032099537  0.038562628            1 
   74000    1.2255544   -6.9307637    28.443803  0.032031309   0.03848521            1 
   75000     1.223059   -6.9167433    28.971563  0.032190625  0.038416023            1 
   76000    1.2230206   -6.9299084     29.33752  0.032168333  0.038349772            1 
   77000    1.2239226   -6.9149763    29.879264  0.032336865  0.038294263            3 
   78000    1.1992202   -6.9259064    30.350361  0.032425599  0.038249981            5 
   79000    1.2227246   -6.8919674    30.907924  0.032603295  0.038212356            1 
   80000     1.198383   -6.9286356    31.403392  0.032711866  0.038182478            3 
   81000    1.2087862   -6.8607874    32.102281  0.033027038  0.038169549            1 
   82000    1.2467639   -6.8848961    32.453926  0.032981632  0.038153346            1 
   83000    1.2273501   -6.9692255    32.725174    0.0328566  0.038131725            2 
   84000    1.2478153   -6.9119986    33.430463  0.033165142  0.038119895            2 
   85000    1.2191634   -6.9075899    33.858481   0.03319459  0.038121034            1 
   86000    1.2253629   -6.9117051    34.288399  0.033225192  0.038115528            2 
   87000    1.2191859   -6.8824026    34.875715  0.033405858  0.038117357            1 
   88000    1.2152817   -6.9003144    35.427998   0.03354924  0.038125166            1 
   89000    1.2126835   -6.8517642    35.740843  0.033465209  0.038130267            1 
   90000    1.2149644   -6.9121204    36.168552    0.0334894  0.038130534            1 
   91000    1.2165919   -6.9183217    36.890606  0.033782606  0.038135787            1 
   92000    1.2108717   -6.9294077    37.332072  0.033815283  0.038151761            1 
   93000    1.2166397   -6.8751158    37.841229  0.033907911  0.038167402            2 
   94000    1.2221788   -6.9445912    38.018694  0.033704516   0.03817373            2 
   95000    1.2298138   -6.9265098    38.343367  0.033634532  0.038160044            1 
   96000    1.2075608   -6.9198469    38.747328  0.033634833  0.038145823            1 
   97000    1.2112092   -6.9519831    39.310673  0.033772055  0.038135915            3 
   98000     1.213994   -6.9318142    39.722544  0.033777673   0.03812846            1 
   99000    1.2250856   -6.9382714    39.920581  0.033603182  0.038113939            2 
  100000    1.2181814   -6.9204622    40.557498  0.033797915  0.038097843            1 
  101000    1.2003985   -6.9174374    41.045572  0.033865983  0.038082964            1 
  102000    1.2388082    -6.934894     41.40861  0.033830564  0.038069329            2 
  103000    1.2220938   -6.9606855    41.890006   0.03389159  0.038055965            3 
  104000    1.2183983   -6.9285982    42.317365  0.033908145  0.038041499            1 
  105000    1.1992116   -6.9031182    42.771017  0.033945251  0.038032965            2 
  106000    1.2335657   -6.9431236    43.196145  0.033959234  0.038018207            3 
  107000    1.2225248   -6.9230698    43.638049  0.033986019  0.038002381            1 
  108000    1.1936175    -6.896708    44.176588  0.034086874  0.037992949            1 
  109000    1.2224523   -6.9476869    44.634368  0.034124134  0.037983655            1 
  110000    1.2127979   -6.9512149    44.766688  0.033914158  0.037967214            2 
  111000    1.1905697   -6.9621237    45.142063  0.033890438  0.037943533            2 
  112000    1.1865594   -6.9370941    45.549332  0.033890872  0.037916545            1 
  113000    1.1977929   -6.9685213    45.557326  0.033596848  0.037884443            1 
  114000     1.213091   -6.9621625    46.123187   0.03371578  0.037845295            2 
  115000     1.211867    -6.947476    46.469011  0.033673196  0.037805003            1 
  116000    1.2034126   -6.9380161    47.116069  0.033847751  0.037768959            2 
  117000    1.2316627   -6.9875102    47.327835  0.033709284  0.037736689            1 
  118000    1.2090256   -6.9618236     47.77126  0.033736765  0.037699467            3 
  119000    1.1911246    -6.926241    48.233473  0.033776941  0.037662135            1 
  120000     1.203589   -6.9334781    48.480622  0.033667098  0.037624284            1 
  121000    1.2089608   -6.9829835    48.855291  0.033646895  0.037579382            5 
  122000    1.2089078   -6.9369649    49.363419  0.033718182  0.037540468            1 
  123000    1.1976258   -6.9393876    50.133597  0.033965852  0.037509712            2 
  124000    1.2213173   -6.9607074      50.3993  0.033870497  0.037480516            2 
  125000    1.2105052   -6.9732132    50.920002  0.033946668  0.037453256            2 
  126000     1.205184   -6.9104145    51.468443  0.034039975  0.037428576            1 
  127000    1.2081999    -7.003216    51.666889  0.033902158  0.037405349            1 
  128000    1.2194041   -6.9630835     52.27996  0.034036432  0.037378961            2 
  129000    1.2048704   -6.9891909    52.404852  0.033853263  0.037353176            3 
  130000    1.1941664   -6.9401736    53.136764  0.034062028  0.037327112            1 
  131000    1.1901327   -6.9638842    53.383831   0.03395918  0.037303767            1 
  132000    1.1925102   -6.9359323    53.728888  0.033919753   0.03728297            1 
  133000    1.2223043    -6.972784    54.179115  0.033946814  0.037255816            4 
  134000     1.205471   -6.9733628    54.791569  0.034074359  0.037233694            2 
  135000    1.2113779   -6.9454869    55.240891  0.034099315  0.037211131            1 
  136000    1.1974682   -6.9481101    55.614829  0.034077714  0.037186919            1 
  137000    1.2181528   -6.9887123    55.779346  0.033929043  0.037160783            2 
  138000    1.1793878   -7.0013279    56.446402  0.034085992   0.03713804            2 
  139000    1.1990517   -6.9540136    56.975192  0.034157789   0.03712284            2 
  140000    1.1889077   -6.9626352    57.187388  0.034040112  0.037107389            1 
  141000    1.1988438   -6.9341681    57.811342   0.03416746   0.03708636            1 
  142000    1.2214767   -6.9518814    58.218303  0.034165671  0.037067705            1 
  143000    1.1592371   -6.9411652    58.519639  0.034102353  0.037050759            3 
  144000    1.1719273   -6.9573178    59.089477  0.034195299   0.03703344            2 
  145000     1.214075   -6.9332124    59.397136  0.034136285  0.037014977            1 
  146000    1.2132272   -6.9770755    59.625552  0.034032849  0.036996183            1 
  147000    1.1733288   -6.9952447    60.184743  0.034118335  0.036975358            1 
  148000    1.1778404   -6.9678269     60.86033  0.034268204  0.036956087            1 
  149000    1.1878262   -6.9819727    61.069481  0.034155191  0.036938878            2 
  150000    1.2195344   -7.0047932    61.569751  0.034205417  0.036923883            1 
  151000    1.1686794    -6.925873    62.047748  0.034242687  0.036905353            1 
  152000    1.1963697   -6.9545584    62.288582  0.034149442  0.036886995            2 
  153000    1.1997536   -6.9764015    62.505819  0.034044564  0.036863643            1 
  154000    1.1872135    -6.997632    63.005755  0.034094023  0.036843466            1 
  155000    1.1929577    -6.953982    63.376064  0.034073152  0.036821145            1 
  156000    1.1962125   -6.9647298    63.910105  0.034140013  0.036800765            2 
  157000    1.1972618   -6.9797877    64.121174  0.034034593  0.036777403            1 
  158000     1.182405   -7.0088589    64.338248  0.033933675  0.036750936            2 
  159000    1.1740971   -6.9862854      64.8304  0.033978197  0.036728751            1 
  160000    1.1939386   -6.9780412    65.728302  0.034233491  0.036709444            1 
  161000    1.1972925   -6.9579572     66.17107  0.034250036  0.036693978            1 
  162000    1.1924429   -6.9580047    66.607395  0.034263063  0.036683517            1 
  163000     1.191469   -6.9793953    67.237894  0.034375201  0.036673711            3 
  164000    1.1783938   -6.9783416    67.583253  0.034341084  0.036663982            2 
  165000    1.1837143   -6.9938157     68.07712  0.034382384  0.036652034            1 
  166000    1.1695447   -7.0019769    68.359939  0.034317238  0.036638777            2 
  167000    1.2056779   -6.9749196    68.577533  0.034220326  0.036627806       -1e+20 
  168000    1.1986758    -7.009891    69.118625  0.034285032  0.036615601            2 
  169000     1.197696      -7.0333    69.343203  0.034192901  0.036602803            1 
  170000    1.1695934   -6.9824422    69.928413  0.034278634  0.036591132            4 
  171000    1.2121546   -6.9737645     70.26929  0.034244293  0.036577375            1 
  172000    1.1845204   -6.9930804    70.569135  0.034190473  0.036559473            1 
  173000    1.1693053   -7.0053876    70.990169   0.03419565  0.036542099            3 
  174000    1.1807963    -6.997404    71.606657  0.034294376  0.036524145            1 
  175000    1.1830901   -6.9718893    71.880955  0.034229026  0.036510259            2 
  176000    1.1898601   -6.9337212    72.690311  0.034417761  0.036498583            2 
  177000    1.2062806   -7.0404526    72.295683  0.034037515  0.036485338            2 
  178000    1.1746059   -7.0131754    72.820961   0.03409221  0.036468156            2 
  179000    1.1811869   -6.9596372    73.534815  0.034234085  0.036452385            6 
  180000    1.2117305   -7.0070529    73.363568  0.033964615  0.036435029            3 
  181000    1.2024562   -6.9698666    74.370056  0.034240357  0.036414703            1 
  182000    1.1865743   -6.9818437    74.638824  0.034175286  0.036395916            3 
  183000     1.186968   -6.9990145    75.097497  0.034197403  0.036378265            1 
  184000    1.1948595   -6.9926438    75.672355    0.0342719   0.03635843            1 
  185000    1.1757513   -7.0158297    75.756525  0.034124561  0.036338661            4 
  186000    1.1524776   -7.0262409    75.869745  0.033991821  0.036319193            2 
  187000    1.1739895   -6.9999669     76.39652  0.034044795  0.036300905            1 
  188000    1.1691817    -6.963565    76.854751  0.034066822  0.036280915            1 
  189000    1.1947039   -7.0099922    76.927528  0.033918663  0.036257063            2 
  190000    1.1658745   -7.0206769    77.235325  0.033875142  0.036231097            3 
  191000    1.1962244   -6.9923675    77.738527  0.033917333  0.036206781            1 
  192000    1.1892804   -6.9837103    77.790014  0.033763027  0.036179635            2 
  193000    1.1834189   -6.9964079    78.426366  0.033862852  0.036152327            2 
  194000    1.1823441    -7.010639    78.816387  0.033855836  0.036123958            1 
  195000    1.1883548   -6.9799578    79.153499  0.033826281  0.036095809            1 
  196000    1.1924425   -6.9745418    79.345248  0.033735224   0.03606785            2 
  197000    1.1778551    -6.981626     79.68506  0.033707724  0.036039358            2 
  198000    1.1832952   -6.9861912    79.911846  0.033632932    0.0360098            1 
  199000    1.1528989   -7.0197898    80.059751  0.033525859  0.035978949            3 
  200000    1.1697452   -7.0135459      80.2882  0.033453417  0.035946651            1 
  201000    1.1874274   -7.0490262      80.7923  0.033495978  0.035912952            3 
  202000    1.1983186   -7.0005765    81.569731  0.033650879  0.035883157            1 
  203000    1.1815806    -7.024041    81.424945  0.033425675  0.035851227            2 
  204000     1.171294    -7.055588    81.701965  0.033374986  0.035816545            3 
  205000    1.1496628   -6.9844261    82.037564  0.033348603  0.035781554            2 
  206000    1.1784827   -7.0243746    82.581758   0.03340686  0.035743915            1 
  207000    1.1571623   -7.0501413    82.753842  0.033314751  0.035706774            3 
  208000    1.1659892   -7.0321528    82.710365  0.033137166  0.035669114            2 
  209000    1.1696905   -6.9970591    83.294994   0.03321172  0.035632527            1 
  210000    1.1509478   -6.9748902    83.911809  0.033298337  0.035595993            1 
  211000    1.1841251   -6.9929336    84.109631  0.033218654  0.035560384            2 
  212000    1.1845819   -7.0168321    84.294193   0.03313451  0.035524344            4 
  213000    1.1785029   -7.0377082    84.509784  0.033063296  0.035486153            3 
  214000    1.1434155   -7.0194965    84.994597  0.033097585  0.035448361            1 
  215000    1.2100429   -7.0519463    84.962111  0.032931051  0.035409313            1 
  216000    1.1700055   -7.0082628    85.453354  0.032968115  0.035370655            1 
  217000    1.1608204   -7.0489157    86.050781  0.033045615  0.035332319            2 
  218000    1.1607767   -7.0056301    86.558909  0.033088268  0.035294753            3 
  219000     1.150311   -7.0869075     86.52981  0.032926107  0.035255692            2 
  220000    1.1452225   -7.0008207    87.148028  0.033010617  0.035218504            1 
  221000    1.1689928   -6.9964703     87.19253  0.032878028  0.035181908            1 
  222000    1.1444658   -7.0567846    87.621849  0.032891084  0.035146351            1 
  223000    1.1590624   -7.0384679    88.006905  0.032887483  0.035108839            1 
  224000    1.1653028   -7.0153281    88.356992  0.032870905  0.035072443            3 
  225000    1.1576468   -7.0276359    88.722255  0.032860094  0.035036557            3 
  226000    1.1618215   -7.0631063    89.212834  0.032895588  0.035000518            2 
  227000    1.1539738   -7.0379071    89.361887  0.032805392  0.034966427            2 
  228000    1.1643352   -7.0412708    89.978288  0.032886801  0.034933197            1 
  229000    1.1553031   -7.0266711    90.260752  0.032845979  0.034899437            1 
  230000    1.1633337   -7.0404248    90.354257   0.03273705  0.034865395            2 
  231000    1.1756956   -7.0682172    90.509562  0.032651357  0.034828882            2 
  232000    1.1639667   -7.0376612    90.784265   0.03260929  0.034792294            2 
  233000     1.170334   -7.0482148    91.440508  0.032704044  0.034756549            1 
  234000     1.162311   -7.0578324    91.787159  0.032687735   0.03472213            1 
  235000    1.1574937   -7.0594504    91.987077  0.032619531  0.034688018            3 
  236000    1.1744843   -7.0501309    91.971317  0.032475747  0.034652276            1 
  237000    1.1628411   -7.0122118    92.727765  0.032604699  0.034615433            1 
  238000    1.1517704   -7.0483248    93.072199  0.032588305  0.034579864            1 
  239000    1.1487919   -7.0436245    93.596608  0.032634801  0.034545137            1 
  240000    1.1695504   -7.0266847    93.672974  0.032525338  0.034512327            2 
  241000    1.1864423   -7.0316654    93.983715  0.032497827  0.034478701            2 
  242000    1.1652505   -7.0545191    94.805362  0.032646474   0.03444616            2 
  243000    1.1631016   -7.0838981     95.31003  0.032685195  0.034415304            2 
  244000    1.1331204   -7.0725142    95.210161  0.032517131  0.034384708            2 
  245000    1.1438481   -7.0489687    95.541575  0.032497134   0.03435418            1 
  246000     1.157181   -7.0326708     96.20444   0.03258958  0.034322404            3 
  247000    1.1551635   -7.0584378    96.361095  0.032510491   0.03429185            2 
  248000    1.1393684   -7.0396928    96.862631  0.032547927  0.034263406            1 
  249000    1.1620906   -7.0216789    97.661009  0.032684407  0.034234803            2 
  250000    1.1608721   -7.0918201    97.677034  0.032559011  0.034208596            3 
  251000    1.1649063   -7.0556913    98.446787  0.032684856  0.034181054            2 
  252000    1.1712412   -7.0706197    98.330101  0.032516568  0.034154722            2 
  253000    1.1372018    -7.067196    98.708996  0.032512845  0.034128386            2 
  254000    1.1543553   -7.0964545    99.268681  0.032568465  0.034101819            1 
  255000    1.1635844   -7.0323803    99.632606  0.032559675  0.034076356            1 
  256000    1.1651235   -7.0940795    99.700871  0.032454711  0.034050377            2 
  257000    1.1626908   -7.0965216    100.48836  0.032583773   0.03402506            2 
  258000    1.1544106   -7.0767182    100.85231  0.032575036  0.034000584            3 
  259000    1.1520762   -7.0595593    101.45626  0.032643583  0.033976764            2 
  260000    1.1261553   -7.0378305    101.83116  0.032638194  0.033952957            1 
  261000    1.1835174   -7.0845302    101.98471  0.032562167  0.033930278            1 
  262000     1.167993   -7.0194695    102.31387  0.032542578  0.033907619            1 
  263000    1.1476687   -7.0625756    102.74584  0.032555717  0.033884503            2 
  264000    1.1470082   -7.0809016    103.05708  0.032530645   0.03386143            1 
  265000    1.1391798   -7.1080774    103.13003  0.032430827  0.033838717            2 
  266000    1.1512616   -7.0846367    104.14123  0.032625697  0.033817067            2 
  267000    1.1573298   -7.0986015    104.13222  0.032500693  0.033795046            1 
  268000    1.1643599    -7.093389    104.85788  0.032605063  0.033775779            1 
  269000     1.147978   -7.0705263    105.18087  0.032583913  0.033756962            2 
  270000    1.1338316   -7.1239187    105.07149  0.032429472  0.033738024            1 
  271000    1.1759986    -7.097982    105.69076  0.032500233  0.033716603            2 
  272000    1.1445378    -7.064353    106.30208  0.032568038  0.033698871       -1e+20 
  273000    1.1249662   -7.0511855    106.42987   0.03248775  0.033680444            1 
  274000    1.1288696   -7.0777942    107.04599  0.032556565  0.033662717            4 
  275000    1.1619307   -7.0660925    107.39918  0.032545207  0.033644045            1 
  276000    1.1426209   -7.0627621    107.33796  0.032408804  0.033623373            1 
  277000    1.1447275   -7.0683862    107.66167  0.032389191  0.033603595            2 
  278000    1.1411662   -7.0659994    108.55851  0.032541521   0.03358427            2 
  279000    1.1356693   -7.0737346    108.38662  0.032373542  0.033565258            3 
  280000    1.1358901   -7.0657746     109.0485   0.03245491  0.033547297            1 
  281000    1.1315026   -7.0684684    109.44134  0.032455914    0.0335297            1 
  282000    1.1454016   -7.1029869    109.54537  0.032371564  0.033510934            2 
  283000     1.156143   -7.0895035    109.91973  0.032367413  0.033493615            4 
  284000    1.1735031   -7.0591511    110.24056  0.032347583  0.033475183            1 
  285000    1.1498325    -7.066447    110.59433  0.032337522  0.033455198            3 
  286000    1.1329729   -7.0608419    110.95027  0.032328167  0.033434086            1 
  287000    1.1634556   -7.1159764    110.95608  0.032217211  0.033413524            2 
  288000    1.1226154   -7.0606081    111.42028  0.032239665  0.033393609            2 
  289000    1.1352022   -7.0810215     111.9903  0.032292474  0.033372595            2 
  290000    1.1382837   -7.1144401    111.92771  0.032163134  0.033352993            1 
  291000    1.1630395   -7.1199799    112.11532  0.032106335  0.033331692            2 
  292000    1.1390932   -7.0854791      112.292  0.032046804  0.033310285            1 
  293000    1.1397686   -7.0982196    112.74513  0.032066304  0.033288558            4 
  294000    1.1254863   -7.1086896    112.87616  0.031994377  0.033265828            1 
  295000    1.1408202   -7.0669773    113.69359  0.032116834  0.033243714            1 
  296000    1.1419531   -7.0554357    113.93055  0.032075042  0.033222098            1 
  297000    1.1519305   -7.0895099    113.99539  0.031985239  0.033199145            1 
  298000    1.1387835   -7.1046459    114.69201  0.032072709  0.033176329            1 
  299000    1.1544142   -7.1004963    114.67004  0.031959319  0.033153816            2 
  300000    1.1320035    -7.100637    115.30223  0.032028397   0.03313059            2 
  301000    1.1118333    -7.115392    115.16628  0.031884351  0.033107885            2 
  302000     1.129123   -7.0982019    115.85434  0.031968637  0.033085693            2 
  303000    1.1290805   -7.0872406    116.15125  0.031944787  0.033064719            2 
  304000    1.1115838    -7.139836    116.45806  0.031923811  0.033043495            3 
  305000    1.1438156   -7.1053739    116.81099   0.03191557  0.033022223            1 
  306000     1.131849    -7.087281    117.44955  0.031985172  0.033001555            1 
  307000    1.1589732   -7.1187743    117.45437  0.031882293   0.03298142            1 
  308000    1.1243828   -7.0652984    118.13166   0.03196203  0.032961204            3 
  309000    1.1429357   -7.0886473    118.21185  0.031880219  0.032940801            4 
  310000    1.1056268   -7.1009707    118.43537  0.031837465  0.032920655            2 
  311000    1.1347618   -7.1021086     119.2606  0.031956217  0.032901037            2 
  312000    1.1039464   -7.0747949    119.69778   0.03197056  0.032881023            1 
  313000    1.1295441    -7.095952    119.82916  0.031903398  0.032861428            1 
  314000    1.1144718    -7.106116    120.20959  0.031902757  0.032841501            2 
  315000    1.1233925   -7.1265569    120.25828  0.031814361  0.032822177            2 
  316000    1.1307518   -7.0851017    120.66062  0.031819785  0.032802918            1 
  317000    1.1324965   -7.0852334    120.99577   0.03180751   0.03278438            2 
  318000    1.1285167   -7.1367653    121.51793  0.031844322  0.032765676            1 
  319000    1.1265697   -7.1089539    122.05286  0.031884237  0.032747892            1 
  320000    1.1303824   -7.1134404    122.68042  0.031948026  0.032730205            3 
  321000     1.125861   -7.1050534     122.7591  0.031868924  0.032713092            2 
  322000    1.1208411   -7.1329837    123.27616  0.031903767  0.032695785            2 
  323000    1.1274756   -7.1468611    123.30239  0.031811762  0.032678193            1 
  324000    1.1106435   -7.1419515    124.13309  0.031927235  0.032662327            2 
  325000    1.1069049   -7.0930723    124.50845  0.031925244   0.03264625            2 
  326000    1.1086038   -7.1281356    124.72594   0.03188291  0.032630859            2 
  327000    1.1139983   -7.1171448    124.79632  0.031803343  0.032615064            1 
  328000    1.1254919   -7.0735338    125.56376  0.031901361  0.032599146            1 
  329000    1.1271844   -7.1711606    125.41082  0.031765659  0.032583199            1 
  330000    1.1145965   -7.1278913    126.14217  0.031854084  0.032567066            2 
  331000    1.1264902   -7.1614216    125.60757  0.031623255  0.032549929            2 
  332000     1.139178   -7.1266608    126.17034  0.031669262  0.032532405            2 
  333000    1.1049716   -7.0918794    126.99308  0.031780049  0.032515695            3 
  334000    1.1279677   -7.1380281    127.43387  0.031794878  0.032500678            1 
  335000    1.1196765   -7.1206389    127.99847  0.031840416  0.032485296            3 
  336000    1.1183115   -7.1014558    128.54176  0.031880396  0.032469883            2 
  337000    1.1056191    -7.130543    128.73676  0.031834015  0.032455172            1 
  338000    1.1193599   -7.1700721    128.69515  0.031729573  0.032439104            2 
  339000    1.0901973   -7.1187735    129.22114  0.031765276  0.032423581            2 
  340000    1.1453452   -7.1263354    129.24546  0.031677809   0.03240799            2 
  341000    1.1091805    -7.148533    130.00484  0.031770488  0.032392297            6 
  342000    1.1094878   -7.1529445    130.17895  0.031720016  0.032376525            3 
  343000    1.1288056   -7.1061738    131.01974  0.031831813  0.032361696            1 
  344000    1.1203013   -7.1086091    131.37411  0.031825124  0.032346891            1 
  345000    1.1023238   -7.1296073    131.04921    0.0316544  0.032332103            2 
  346000    1.0820573   -7.1458999    131.18567  0.031595778  0.032317059            1 
  347000    1.1315389   -7.1610895    131.51001  0.031582616  0.032301202            2 
  348000    1.1257471   -7.1356497    132.49069  0.031726698  0.032285983            2 
  349000    1.1025475   -7.1593734    131.87918  0.031489775   0.03226993            2 
  350000    1.1081507   -7.1526732    131.94593  0.031415697  0.032252703            1 
  351000    1.0945626   -7.1316606    132.50001  0.031457743  0.032235164            1 
  352000    1.0997697   -7.1071578    133.14369   0.03152076  0.032217244            2 
  353000    1.1250833   -7.1397014     132.7319  0.031334255  0.032199231            1 
  354000    1.1037272   -7.1759109    132.96055  0.031299565  0.032179995            1 
  355000    1.1165267   -7.1546797    133.46646  0.031330156  0.032161169            1 
  356000    1.1228596   -7.1434994    133.98049  0.031362474  0.032141646            1 
  357000    1.1145302   -7.1654815    134.46005  0.031386566  0.032123141            1 
  358000    1.1228108   -7.1755081    134.41791  0.031289086   0.03210545            1 
  359000    1.1111795   -7.1495625    134.97148  0.031330427  0.032087588            1 
  360000    1.1288625   -7.1597561    135.18138  0.031291986  0.032069803            2 
  361000    1.1403771   -7.1177062    135.58203   0.03129779  0.032052023            1 
  362000    1.1053032   -7.1401512    135.89864  0.031284217  0.032034591            1 
  363000    1.0791417   -7.1466789    136.22039  0.031271898  0.032016394            2 
  364000    1.1203846   -7.1762906    136.16982   0.03117441  0.031997884            1 
  365000    1.0749451   -7.1448944    136.65777  0.031200403  0.031979504            2 
  366000    1.0913744   -7.1712015    136.78308  0.031143688  0.031960487            1 
  367000     1.116088   -7.1552841    136.78147  0.031058462  0.031940573            1 
  368000    1.1047635   -7.1461644    137.16509  0.031060935  0.031921405            1 
  369000    1.0963608   -7.1337746    137.14672   0.03097261   0.03190155            3 
  370000     1.117379   -7.1280307    137.99281  0.031079461  0.031882247            1 
  371000    1.1070974   -7.1640806    138.00595   0.03099864  0.031862849            2 
  372000    1.1262761   -7.1495026    138.51298  0.031028894  0.031843124            2 
  373000    1.0894463   -7.1574085    138.90244  0.031032717  0.031823498            2 
  374000    1.1129803   -7.1757799    139.21853  0.031020171  0.031804435            1 
  375000    1.1007366   -7.0791281     140.3255  0.031183443  0.031785956            2 
  376000    1.1079757   -7.1152803    140.26424  0.031086933  0.031767995            2 
  377000    1.1134562   -7.1526625    140.14386  0.030977865   0.03175008            2 
  378000    1.1087296   -7.1836992    141.01364  0.031087662  0.031731291            1 
  379000    1.0927982   -7.1641581    141.64173  0.031143741  0.031712792            2 
  380000    1.1098992    -7.148404    141.10232   0.03094349  0.031694676            3 
  381000    1.1126135   -7.1591429    141.68953   0.03099071  0.031676536            4 
  382000    1.1084977   -7.2018443    141.75235  0.030923288  0.031658686            2 
  383000    1.1076735    -7.148427     142.6221  0.031031789  0.031640814            3 
  384000    1.1064829     -7.17677    141.82643  0.030778306  0.031622699            2 
  385000     1.112687   -7.1480615    143.04396  0.030961895   0.03160434            2 
  386000    1.1061667   -7.1633363    142.32394  0.030726238   0.03158646            1 
  387000     1.089254   -7.1990942    142.53781  0.030692896   0.03156661            2 
  388000    1.0831676   -7.1755368    143.19533   0.03075501  0.031547472            2 
  389000    1.0799212   -7.1960076    143.37567  0.030714583  0.031528867            1 
  390000    1.0839823   -7.1570365    144.09899  0.030790383  0.031510393            3 
  391000    1.1240932   -7.2039815    144.10709  0.030713361  0.031491753            2 
  392000    1.0959019   -7.1754438    144.67706  0.030756178  0.031472557            3 
  393000    1.0972895   -7.1473009    145.18456  0.030785529  0.031453734            1 
  394000    1.1126676   -7.1668753    144.55612  0.030574476   0.03143476            2 
  395000    1.0921018   -7.2211239    145.70263  0.030738951  0.031415956            3 
  396000    1.0922341   -7.2083243    145.93989  0.030711256  0.031397958            3 
  397000    1.1147884   -7.1688507    146.52448  0.030756607  0.031380571            1 
  398000    1.0985629   -7.1708564    147.14425  0.030809098  0.031364161            3 
  399000    1.1022955   -7.1820163    146.68447  0.030635855  0.031347848            3 
  400000    1.0895806   -7.1476995    147.72475   0.03077599  0.031330829            2 
  401000    1.1128849   -7.1770942    147.89107  0.030733805  0.031314478            1 
  402000    1.0778667   -7.2389909    147.85305   0.03064947  0.031297706            2 
  403000    1.1108519   -7.2029348    148.41948  0.030690545  0.031280835            2 
  404000    1.0926568    -7.164919    148.80828  0.030694777  0.031264514            1 
  405000    1.0979441    -7.182579    149.01189  0.030660882  0.031248422            2 
  406000    1.1134284   -7.2144955    149.65499  0.030717363  0.031231793            1 
  407000    1.1061011    -7.230063    149.31255  0.030571776  0.031214501            3 
  408000    1.1228586    -7.165291    149.75983  0.030588201  0.031197398            1 
  409000    1.0943485   -7.2183472    150.21348  0.030605844  0.031180821            1 
  410000    1.0929193   -7.1714438    150.59361  0.030608457   0.03116366            2 
  411000    1.0926446   -7.2006397    150.91124  0.030598386  0.031146663            2 
  412000    1.0938608    -7.188195    151.56063  0.030655467  0.031130125            2 
  413000    1.0661172   -7.2126288    151.29556  0.030527755  0.031113454            1 
  414000    1.0916825   -7.2133181    151.66174  0.030527725  0.031096183            1 
  415000     1.106253    -7.188455    151.55058  0.030431844  0.031078278            2 
  416000    1.0940477   -7.2222125    152.06102  0.030460941  0.031060959            1 
  417000     1.082631   -7.2163032    152.02717  0.030381129  0.031043636            2 
  418000       1.0674   -7.2219726    152.64055  0.030430732  0.031025983            2 
  419000    1.0989295   -7.1724375    152.81085  0.030391975  0.031008837            2 
  420000     1.074447   -7.1475236    153.41845  0.030440169  0.030992038            1 
  421000    1.0996069   -7.1705647    153.29512  0.030343452   0.03097529            5 
  422000    1.0695913   -7.1938276    153.60227  0.030332203  0.030957995            2 
  423000    1.0829997   -7.1872613    154.42498  0.030422573  0.030941651            1 
  424000    1.0627518   -7.2355387    153.81641  0.030231213  0.030924972            3 
  425000    1.0904926   -7.2113619    154.36173  0.030267005   0.03090772            3 
  426000    1.0905006   -7.2203847    155.02016  0.030324757  0.030890639            2 
  427000    1.0986731   -7.1699624    155.70844  0.030388063  0.030873537            1 
  428000    1.1056151   -7.2192923    155.67437  0.030310431  0.030857024            1 
  429000    1.1005115   -7.2302615    155.49667  0.030205258  0.030840724            2 
  430000    1.0794963   -7.2253317    155.68696  0.030171891  0.030823508            1 
  431000     1.075857   -7.2169362    156.68657  0.030295161  0.030806195            1 
  432000    1.0612784   -7.2579536     156.6645  0.030220776  0.030788859            2 
  433000    1.0939647   -7.1993554    157.20128  0.030254287  0.030771528            2 
  434000    1.0889747   -7.1907187    157.29409  0.030202399  0.030755176            1 
  435000    1.0751759   -7.2190369    157.56118  0.030184134  0.030738186            1 
  436000    1.0831239   -7.2357754    157.85959  0.030171939  0.030721618            2 
  437000    1.0683983   -7.2017234    158.43694  0.030212994  0.030705142            2 
  438000    1.0985475   -7.2215267    158.59004  0.030173144  0.030688891            3 
  439000    1.0723775   -7.2370701    159.09271   0.03019983  0.030672892            1 
  440000    1.0874881   -7.2330012    159.37478  0.030184617  0.030657443            2 
  441000    1.0730975   -7.2026387    159.80126   0.03019676  0.030641961            2 
  442000    1.0735274   -7.2238876    159.87265  0.030141903  0.030626145            3 
  443000    1.0940907    -7.228022    159.87678  0.030074639   0.03061042            1 
  444000    1.0614375   -7.2285104    160.52824  0.030129174  0.030594158            3 
  445000    1.1098709   -7.2360128    161.28936  0.030203999  0.030578268            1 
  446000     1.061921   -7.2319213     161.7076  0.030214424   0.03056267            2 
  447000    1.0628054   -7.2039382    162.01045   0.03020329  0.030547575            2 
  448000    1.0708955   -7.1975754    161.94042  0.030122846  0.030532474            2 
  449000    1.0901421   -7.2218888    162.70013  0.030196758  0.030517102            2 
  450000    1.0844552   -7.2503015    162.76944  0.030142488  0.030501734            2 
  451000    1.0742197   -7.2415079     162.7095  0.030064578  0.030486419            1 
  452000    1.0872176   -7.2327779     162.7325  0.030002305  0.030470404            1 
  453000     1.081076   -7.2630485    162.73525  0.029936581  0.030453954            2 
  454000    1.0785655   -7.2426868    163.28278  0.029971142  0.030437667            3 
  455000    1.0693436   -7.2074808    163.80489  0.030000895  0.030420987            2 
  456000    1.0818721   -7.2762884    163.70552  0.029916944  0.030404609            1 
  457000    1.0891295   -7.2308389    164.05173  0.029914612  0.030388485            1 
  458000      1.07724   -7.2551577    164.70409  0.029967993  0.030371995            2 
  459000    1.0659056   -7.2491741    165.37638   0.03002476  0.030356199            3 
  460000    1.0958682   -7.2404029     165.3894  0.029961848  0.030341205            1 
  461000    1.0704074   -7.2125303     166.2373  0.030050126  0.030326719            2 
  462000    1.0875767    -7.219221     166.2883  0.029994281  0.030312525            1 
  463000    1.0748275   -7.2067643     166.7388  0.030010583  0.030297966            1 
  464000    1.0869232    -7.260314    166.65092  0.029930123  0.030283335            1 
  465000    1.0729336   -7.2548638     166.7671  0.029886578  0.030268248            2 
  466000    1.0502384    -7.241082    167.14546  0.029890104  0.030253205            2 
  467000    1.1013426   -7.2600823    167.12028  0.029821606  0.030237604            2 
  468000    1.0617122   -7.2527533     166.8848  0.029715954  0.030221654            2 
  469000    1.0560772   -7.2522834    168.36684  0.029915928  0.030206019            1 
  470000    1.0731453   -7.2610233    168.23294  0.029828536  0.030191168            2 
  471000    1.0916145   -7.2216197    169.44817  0.029980214  0.030176486            3 
  472000    1.0548209   -7.2869732    168.40886  0.029733203  0.030161782            2 
  473000    1.0725749   -7.2306434    169.54228  0.029870027  0.030146829            3 
  474000    1.0786851   -7.2653842    169.76512  0.029846189   0.03013238            3 
  475000    1.0691649   -7.2494577    169.89517  0.029806169  0.030117886            3 
  476000    1.0803882   -7.2490993    170.66204  0.029877809  0.030103688            2 
  477000    1.0742293   -7.2455613    170.26345  0.029745537   0.03008884            1 
  478000    1.0504358   -7.2420598    170.64555  0.029749921  0.030073882            1 
  479000    1.0744645   -7.2660528    170.99662   0.02974889  0.030059514            1 
  480000     1.044343   -7.2875691    171.05391  0.029696859  0.030045039            2 
  481000    1.0739098   -7.2953966    171.13351  0.029648911  0.030030418            1 
  482000    1.0650196   -7.2176172    172.20946  0.029773419  0.030015684            6 
  483000    1.0802841    -7.244661     172.1748  0.029705798  0.030000932            2 
  484000    1.0739653   -7.2741904    171.78155  0.029576713   0.02998591            4 
  485000    1.0372188   -7.2731909    172.37061  0.029616944  0.029970911            1 
  486000    1.0550892   -7.2079241    173.00235  0.029664327  0.029956092            2 
  487000    1.0617561   -7.2376252    173.11723  0.029623071  0.029941272            2 
  488000    1.0426308   -7.2770871     173.6081  0.029646192  0.029926943            2 
  489000    1.0489295   -7.2591683    173.82277  0.029622148  0.029912667            1 
  490000    1.0521269    -7.234092     173.9975  0.029591411  0.029898506            2 
  491000    1.0589659   -7.2256137    174.67493  0.029646119  0.029884215            3 
  492000    1.0670882   -7.2457758    174.95157  0.029632718  0.029870192            3 
  493000     1.058919   -7.2657518    174.05356  0.029420818   0.02985557            2 
  494000    1.0767637      -7.2911    174.62237  0.029457215  0.029839883            2 
  495000    1.0957269   -7.2536843    175.52218  0.029549188  0.029824173            1 
  496000    1.0622788   -7.2603652    175.28027  0.029448971  0.029809253            1 
  497000    1.0609854    -7.255148    175.59213  0.029442006  0.029793637            1 
  498000    1.0432425   -7.2918492     175.4963   0.02936685  0.029777763            3 
  499000    1.0736796    -7.268698    175.40972   0.02929354  0.029761627            2 
  500000    1.0693404   -7.2976601    176.52757  0.029421262  0.029745758            1 
  501000    1.0623801   -7.3023225    176.13916  0.029297931  0.029730021            2 
  502000    1.0571327    -7.269837    177.05017  0.029390799  0.029714095            1 
  503000    1.0574232   -7.2951202    177.06812  0.029335342  0.029698734            2 
  504000    1.0580197   -7.2742358    176.92315  0.029253167  0.029683396            1 
  505000    1.0731899    -7.305112    177.27363  0.029253074  0.029667411            2 
  506000    1.0495699   -7.2513036    178.02437  0.029318901  0.029652523            2 
  507000    1.0573022    -7.312221    177.90027  0.029240675  0.029636769            2 
  508000    1.0708645   -7.2553193    178.66572  0.029308681  0.029620936            2 
  509000    1.0351766   -7.2812536      178.736  0.029262607  0.029605319            1 
  510000    1.0795194   -7.2565129     178.8079  0.029216978   0.02959021            1 
  511000    1.0427085   -7.2858386    179.54535  0.029280064  0.029574713            3 
  512000    1.0649493   -7.3023004    179.10399  0.029151041  0.029558306            1 
  513000    1.0357834   -7.2773834    180.13372  0.029261488  0.029542108            1 
  514000    1.0574522   -7.2553602    179.18305   0.02905043  0.029525736            2 
  515000    1.0690617   -7.2706662    179.67778  0.029074075  0.029509264            1 
  516000    1.0365354   -7.2680639    179.96879  0.029064728  0.029492847            2 
  517000    1.0456614   -7.3141833    179.38669  0.028914683  0.029475724            2 
  518000    1.0292957   -7.3089579    179.53167  0.028882186  0.029458182            1 
  519000    1.0574522   -7.3066827    180.29391  0.028948925   0.02944063            6 
  520000    1.0546694   -7.3195023    180.88215  0.028987524  0.029423459            2 
  521000    1.0394125   -7.3089378    180.66132  0.028896565  0.029406168            1 
  522000     1.048735   -7.2948177    181.21086  0.028928937  0.029388789            1 
  523000    1.0609544   -7.2495412    182.17064  0.029026552  0.029372127            2 
  524000    1.0466964   -7.3147774     182.3917  0.029006314  0.029356014            1 
  525000    1.0537517    -7.244679    182.34616  0.028943835  0.029339821            3 
  526000    1.0570636   -7.3037343    182.93823   0.02898261  0.029323897            2 
  527000    1.0542774   -7.2552386    183.18738  0.028967011   0.02930795            1 
  528000    1.0417844   -7.2996518    182.91958  0.028869883  0.029291598            2 
  529000    1.0550381   -7.3176196    183.30776  0.028876459  0.029274833            2 
  530000    1.0477805    -7.261077    183.92309  0.028918724  0.029258273            1 
  531000    1.0575717   -7.2678119    183.76867  0.028840031  0.029242124            3 
  532000    1.0320752   -7.2979768    183.60523  0.028760218  0.029225909            2 
  533000    1.0542903   -7.2904911    184.13494  0.028789078  0.029209138            4 
  534000    1.0495423   -7.3283308    183.54286  0.028642768  0.029192136            2 
  535000    1.0209269   -7.3298111    184.38232  0.028719988  0.029175043            2 
  536000    1.0246257   -7.2900428    184.71951  0.028718829  0.029158162            2 
  537000    1.0380705   -7.3115809    185.77876  0.028829728  0.029141366            2 
  538000    1.0432263   -7.2559744    185.73348  0.028769127  0.029124509            2 
  539000    1.0404537   -7.3170535    185.13279  0.028622881  0.029107356            2 
  540000    1.0366638   -7.2967683    185.55205  0.028634576  0.029090406            2 
  541000    1.0438726   -7.3134526     186.2158  0.028683888  0.029073889            2 
  542000    1.0375775   -7.3564449    186.37527  0.028655485  0.029057034            1 
  543000    1.0251565   -7.3089281    187.13267  0.028718949  0.029040107            3 
  544000    1.0291679   -7.2719444    186.68915  0.028598215  0.029023549            2 
  545000    1.0638597    -7.302551    187.53764   0.02867548  0.029006515            2 
  546000    1.0403348   -7.3115644    186.87121  0.028521247  0.028989715            1 
  547000     1.029043   -7.2970946    187.39963  0.028549608  0.028972715            3 
  548000    1.0162248   -7.3101882    187.99132  0.028587488  0.028955682            5 
  549000    1.0522925   -7.3104756    187.79864  0.028506169   0.02893836            3 
  550000    1.0241356   -7.3047479    187.78243  0.028451883  0.028920914            2 
  551000    1.0251058   -7.2805288     188.7033  0.028539518  0.028903522            1 
  552000    1.0383085   -7.3303103    188.15211  0.028404605  0.028886253            1 
  553000    1.0395763   -7.3640459    188.70999   0.02843731  0.028868942            1 
  554000     1.024502   -7.3155213    188.56386  0.028363998  0.028851646            2 
  555000     1.019887   -7.3515361    188.48259  0.028300689  0.028833989            2 
  556000    1.0323054   -7.3448251    188.42351  0.028240933  0.028815933            3 
  557000    1.0341406   -7.3479615    189.04446  0.028283133  0.028797809            2 
  558000    1.0236804   -7.2910043    189.24341  0.028262158  0.028779508            2 
  559000    1.0582277   -7.2966214    189.67721  0.028276268  0.028761299            1 
  560000    1.0306788   -7.2974503    189.44536  0.028191274  0.028743109            2 
  561000    1.0263724   -7.2948768    189.60928  0.028165371  0.028724619            3 
  562000    1.0191799   -7.3495804    189.48882  0.028097393  0.028705938            1 
  563000      1.03036   -7.3871879    189.35627  0.028027868    0.0286869            1 
  564000    1.0203059   -7.3274815    190.20213  0.028103152  0.028667859            3 
  565000    1.0434886   -7.3510423    190.37527  0.028078949  0.028649076            2 
  566000    1.0238285   -7.3364785    190.06653  0.027983882   0.02863018            2 
  567000    1.0239706   -7.3467616    190.37024  0.027979166  0.028610898            2 
  568000     1.022817   -7.3403688    191.09537  0.028036293  0.028591612            2 
  569000    1.0343475    -7.337081    191.30509  0.028017734  0.028572515            2 
  570000    1.0310585    -7.373588     191.0769  0.027935219  0.028553803            1 
  571000    1.0307976   -7.3190503    191.73089  0.027981741  0.028535475            2 
  572000    1.0132415    -7.278983    192.89975   0.02810311  0.028517334            2 
  573000    1.0031487   -7.3276612    192.48978  0.027994442  0.028499069            4 
  574000    1.0287942    -7.330029    192.57208  0.027957619  0.028480953            2 
  575000     1.033774   -7.3210202    193.40138  0.028029185  0.028462681            1 
  576000    1.0288938   -7.3496001    192.90315  0.027908441  0.028444443            2 
  577000    1.0355856    -7.371659    192.96871  0.027869543  0.028426293            4 
  578000    1.0175493    -7.323157    193.47718  0.027894633  0.028407932            1 
  579000    1.0272182   -7.3582601    193.93773  0.027912742  0.028389567            3 
  580000    1.0253079   -7.3231505    194.11302  0.027889802  0.028370887            1 
  581000    1.0185225   -7.3485625    194.92985  0.027958957  0.028352908            2 
  582000    1.0102221   -7.3276518     194.7022  0.027878322  0.028335037            4 
  583000    1.0242413   -7.3736334    194.46135  0.027796077  0.028317092            1 
  584000    1.0217319    -7.358124    195.10955  0.027840974  0.028298645            1 
  585000    1.0248419   -7.3395777    195.63537  0.027868286   0.02828067            2 
  586000    1.0112985   -7.3650886    195.42407  0.027790681  0.028262503            3 
  587000     1.020166   -7.3535251    195.56261  0.027763006  0.028244274            2 
  588000    1.0290977   -7.3355894    195.70575  0.027736075  0.028225847            2 
  589000    1.0250525   -7.3707163    195.87271  0.027712608  0.028207705            2 
  590000    1.0063456    -7.358227    196.51153  0.027755866   0.02818956            1 
  591000    1.0178799   -7.3352589    196.41613   0.02769545  0.028171764            3 
  592000    1.0389219   -7.3492509    196.39793  0.027646104  0.028153866            2 
  593000    1.0158888   -7.4003315    196.71299  0.027643759  0.028135868            1 
  594000    1.0278847   -7.3784659    196.63942    0.0275869  0.028117933            2 
  595000    1.0131473   -7.3319068    197.75965   0.02769743  0.028099933            2 
  596000    1.0142952   -7.3921613     197.8195  0.027659326  0.028081886            2 
  597000    1.0205434   -7.3280385    197.78719  0.027608485  0.028063933            2 
  598000    0.9999243   -7.3252528    198.59006    0.0276742  0.028046138            1 
  599000    1.0230802   -7.3698779    198.68574   0.02764131  0.028028409            2 
  600000     1.010499   -7.3853936    198.00475   0.02750066  0.028010764            1 
  601000    1.0337844   -7.3692689    198.55681  0.027531448  0.027993105            1 
  602000    1.0141438   -7.3590152     199.7913  0.027656603  0.027975932            2 
  603000    1.0256756   -7.3243994    199.57502  0.027580848  0.027958837            1 
  604000    1.0220506   -7.3599141    199.46387  0.027519849  0.027941539            4 
  605000    1.0299316   -7.3466721    199.97435  0.027544676  0.027924304            2 
  606000    1.0438759   -7.3476103    200.09961  0.027516449  0.027906621            2 
  607000    1.0159724      -7.3997    200.11478  0.027473199    0.0278892            2 
  608000    1.0182537   -7.4048191    199.70389  0.027371695  0.027871372            1 
  609000   0.99450602   -7.3442623    200.54178  0.027441404  0.027853576            2 
  610000    1.0157652   -7.3854758    200.51058  0.027392155  0.027835856            2 
  611000    1.0184529   -7.4090199    200.14521  0.027297492  0.027817559            2 
  612000    1.0132001   -7.3780879    200.78561  0.027340089  0.027799452            2 
  613000    1.0145752   -7.3569848    201.35087  0.027372331  0.027781424            1 
  614000   0.98489888   -7.3596671    201.08204  0.027291265  0.027762996            2 
  615000    1.0060305   -7.3873997    200.74031  0.027200584  0.027744361            1 
  616000   0.99961036    -7.375709    201.69075  0.027285004  0.027726006            1 
  617000    1.0178772   -7.4020529    201.18587  0.027172592  0.027707528            1 
  618000   0.99945567   -7.3783399    202.16503  0.027260656   0.02768901            3 
  619000   0.99828514   -7.3777608    201.97999  0.027191706  0.027670278            7 
  620000   0.98311377   -7.3620788     202.5214  0.027220619  0.027651552            2 
  621000    1.0152344   -7.3697664     202.7244  0.027204026  0.027633153            3 
  622000    1.0268115   -7.3830485    203.19524  0.027223371     0.027615            1 
  623000    1.0149555   -7.4249417    202.16746  0.027042197  0.027596519            2 
  624000   0.98225871   -7.3953642    202.77972  0.027080624  0.027578094            2 
  625000    1.0100459   -7.3684387    203.43294  0.027124392  0.027559784            1 
  626000    1.0063706   -7.3514542    203.73685   0.02712152  0.027541395            2 
  627000     1.005507   -7.3536724    203.70619  0.027074189  0.027522982            1 
  628000   0.99579197   -7.4023575    203.86156  0.027051694  0.027504869            3 
  629000    1.0041535   -7.4213249    203.79966  0.027000485  0.027486661            2 
  630000    1.0032408   -7.3777535    204.69654  0.027076262  0.027468194            1 
  631000    1.0122025   -7.3988669    204.28981  0.026979637  0.027449792            2 
  632000    1.0052102   -7.4042972     204.8351  0.027008848  0.027431465            1 
  633000    1.0186741   -7.4218848    205.35787  0.027035002  0.027413262            3 
  634000    1.0393163   -7.4474418    204.73919   0.02691104  0.027394866            2 
  635000   0.99924645   -7.3888303    205.50399  0.026969028  0.027376707            2 
  636000    1.0010759   -7.3973172    206.27104  0.027027128  0.027358828            2 
  637000    1.0091587   -7.3827949    205.70504  0.026910654  0.027341007            1 
  638000    1.0225696   -7.4027651    206.37737  0.026956292  0.027323179            2 
  639000   0.97151677   -7.4212303    206.56154  0.026938125  0.027305199            1 
  640000   0.98588324    -7.373693    206.38085  0.026872506  0.027287107            2 
  641000    0.9874654   -7.4106275    206.37568  0.026829912  0.027269107            2 
  642000   0.99916451   -7.4194727    206.14868  0.026758656  0.027250912            1 
  643000    1.0091939   -7.4372408    207.50538  0.026892869  0.027232986            5 
  644000   0.98645218   -7.3992469    207.61549  0.026865358   0.02721521            1 
  645000   0.99802995   -7.4189796    207.41755  0.026798133  0.027197445            2 
  646000    1.0087002   -7.4281569    207.67349  0.026789666  0.027179891            2 
  647000    1.0113116   -7.4415723    207.46342  0.026721202  0.027161903            1 
  648000    1.0134187   -7.3902063     208.2195  0.026777199  0.027144123            1 
  649000   0.98332936   -7.3684255    208.38734  0.026757491  0.027126578            1 
  650000   0.99201889    -7.415451    208.42724  0.026721441  0.027108939            2 
  651000    1.0288664   -7.4066296    209.12944  0.026770281  0.027091386            2 
  652000    1.0001828   -7.3938047     209.3323  0.026755151  0.027074034            2 
  653000   0.99813113   -7.4173675     209.3118  0.026711562  0.027056759            1 
  654000    1.0089342   -7.3969108    209.84048  0.026738083  0.027039708            5 
  655000    1.0017288     -7.41601    210.48018  0.026778648  0.027022354            2 
  656000   0.97190946   -7.4171089    209.46645  0.026609052  0.027005077            2 
  657000   0.98807931   -7.4231933    209.94444  0.026629178   0.02698744            1 
  658000   0.99886438   -7.4191775    210.21648  0.026623161  0.026969736            5 
  659000   0.99733224    -7.419555    209.64113  0.026510006  0.026951927            1 
  660000    0.9959552   -7.4116479    210.72996  0.026607319  0.026934299            1 
  661000    1.0001353   -7.4046317    210.15126  0.026494108  0.026916907            2 
  662000   0.98293784   -7.4122625    210.76295  0.026531086  0.026899158            3 
  663000   0.97425779   -7.4366218    211.07037  0.026529709  0.026881384            1 
  664000   0.98613913   -7.4086564    210.77203  0.026452313  0.026863859            2 
  665000   0.98050146   -7.3883089    211.63198  0.026520298  0.026846626            4 
  666000    0.9854139   -7.4036368    212.17755  0.026548742  0.026829268            1 
  667000    0.9849475   -7.4266258    212.18426  0.026509778  0.026811899            3 
  668000   0.98889788   -7.4240688    211.98928  0.026445769  0.026794559            2 
  669000   0.99985255   -7.4199635    212.17644  0.026429552  0.026777278            1 
  670000    1.0048588   -7.4126639     212.0197   0.02637061  0.026759598            2 
  671000   0.99240847   -7.3847218    212.28757  0.026364577  0.026741979            3 
  672000   0.96579058   -7.4721466    212.23037  0.026318251  0.026724088            2 
  673000   0.97994621   -7.4230325    212.52361  0.026315454  0.026705872            2 
  674000   0.99111462   -7.3975994    213.05154  0.026341684  0.026687881            1 
  675000   0.99448159   -7.4522864    212.31715  0.026211993  0.026670054            2 
  676000   0.98969658   -7.4066627     213.1554  0.026276554  0.026651852            1 
  677000    0.9730658   -7.4297906    213.44803   0.02627376  0.026634103            2 
  678000   0.97993635   -7.4555115    213.35863  0.026224021  0.026616083            1 
  679000   0.98520161   -7.4475182    213.40244  0.026190776  0.026598196            1 
  680000   0.99179951   -7.4558014    213.49427  0.026163514  0.026580189            5 
  681000   0.97917904    -7.473536    213.18516  0.026087268   0.02656209            2 
  682000   0.98058842   -7.4334015    214.67903  0.026231553  0.026544095            1 
  683000   0.98301042   -7.4373949    214.82316  0.026210732  0.026526258            1 
  684000   0.97272633   -7.4490116    214.48417  0.026131113  0.026508186            1 
  685000    0.9856878   -7.4164922    214.87995  0.026141113  0.026490148            1 
  686000     1.005896   -7.4630851    215.01798  0.026119774  0.026472101            3 
  687000   0.99935175     -7.48806    214.68617  0.026041506  0.026453754            2 
  688000   0.97396193   -7.4228776    215.45935  0.026097305  0.026435926            3 
  689000    0.9641242    -7.473477    215.02187  0.026006516  0.026418066            2 
  690000   0.99618707   -7.4521929    215.04469   0.02597158  0.026400237            1 
  691000   0.97430882   -7.4384294    216.46799  0.026105642  0.026382261            1 
  692000   0.98925761   -7.4561592    215.39016  0.025938122  0.026364528            1 
  693000   0.96976281   -7.4425876    216.28432  0.026008215  0.026346594            1 
  694000    0.9742311   -7.4445635      216.129   0.02595209  0.026328422            2 
  695000   0.97125795    -7.458833    215.76327  0.025870896  0.026310424            1 
  696000   0.98539351   -7.4894451    216.21782  0.025888149  0.026292279            2 
  697000    0.9886691   -7.4699399    216.91184  0.025933984  0.026274076            2 
  698000   0.98809178   -7.4369924    216.78807  0.025882053  0.026256052            4 
  699000   0.97867071   -7.4705389    217.12006  0.025884604  0.026238022            3 
  700000   0.98255411   -7.4584184    217.51878  0.025895092  0.026219996            1 
  701000   0.99331047   -7.4712504    216.81663  0.025774682  0.026201715            2 
  702000   0.96419494   -7.4753186    217.02058  0.025762177   0.02618345            3 
  703000   0.97923756   -7.4777397     217.4357   0.02577474  0.026165097            2 
  704000   0.96693888   -7.4832473    217.47782  0.025743113   0.02614686            2 
  705000    0.9770853   -7.4816237    217.38597  0.025695741  0.026128638            1 
  706000   0.95748108    -7.453469    218.55729  0.025797602  0.026110527            1 
  707000   0.98363873   -7.4987945     218.0693  0.025703595  0.026092385            4 
  708000   0.96266537   -7.4687145    218.47089  0.025714559  0.026074266            1 
  709000   0.96950157   -7.5159226    218.49791  0.025681465   0.02605588            3 
  710000   0.99871891   -7.5091038      219.236  0.025731925  0.026037683            1 
  711000   0.98798137   -7.4615217    218.86076  0.025651753  0.026019555            3 
  712000   0.98544239   -7.4327844    219.28872  0.025665814  0.026001665            2 
  713000   0.96929229   -7.4372284     220.1435  0.025729722  0.025983906            3 
  714000   0.97530429   -7.4612949    219.35208  0.025601317  0.025966172            1 
  715000   0.96011175   -7.4805647    219.83385  0.025621661  0.025948298            2 
  716000   0.98086483   -7.4504088    219.95103  0.025599515  0.025930583            2 
  717000   0.96316684   -7.4595907    219.91567  0.025559701  0.025912695            2 
  718000   0.98438997    -7.457809    221.28879  0.025683471  0.025895102            2 
  719000   0.94674499   -7.4688711    220.09848  0.025509792  0.025877421            2 
  720000   0.97325801   -7.4717999    220.40674  0.025510039  0.025859386            1 
  721000   0.99161354   -7.5000676    220.83259  0.025523878  0.025841602            2 
  722000   0.97664841    -7.469237    220.82971  0.025488193   0.02582368            3 
  723000   0.94793487     -7.44807    220.68763  0.025436565  0.025805613            3 
  724000   0.96668614   -7.4867771    221.89845  0.025540797   0.02578774            3 
  725000   0.97257102   -7.4749214    221.91958  0.025507998  0.025770132            2 
  726000   0.96418391   -7.5105119    221.51001   0.02542585   0.02575273            4 
  727000   0.95065628   -7.4446908    222.33083  0.025484964  0.025735548            2 
  728000   0.95672081   -7.4816714    223.34333  0.025565857  0.025718598            2 
  729000   0.94330135   -7.4635399    223.41027   0.02553844  0.025701987            2 
  730000   0.98598848   -7.4368746    223.66963  0.025533063  0.025685407            5 
  731000   0.97638465   -7.4385145    223.81961  0.025515231  0.025668868            3 
  732000   0.96680339   -7.5198463    223.69058  0.025465685  0.025652378            2 
  733000   0.97051802   -7.4956712    223.43313  0.025401675  0.025635773            3 
  734000   0.96892469   -7.4863313    224.25445  0.025460315  0.025618916            1 
  735000   0.97753597    -7.485348    223.23166  0.025309712  0.025602137            2 
  736000   0.93116722   -7.4645438    224.96086  0.025471112  0.025585362            2 
  737000   0.96126252   -7.5265103    223.92593  0.025319531   0.02556852            2 
  738000   0.98275189   -7.4981749    224.12718  0.025307947  0.025551533            3 
  739000   0.94132173   -7.5154301    225.06679  0.025379656  0.025534378            2 
  740000    0.9543821   -7.5372644    224.64511  0.025297872  0.025517305            2 
  741000   0.97458621   -7.4674954    225.44732  0.025353949  0.025500532            3 
  742000   0.97226456   -7.5093755    225.83879  0.025363745   0.02548358            7 
  743000   0.95089505   -7.4976497    226.04493  0.025352729  0.025467008            1 
  744000   0.93874371   -7.4677023    226.17682  0.025333425  0.025450508            3 
  745000    0.9722726   -7.4919474    226.26816  0.025309638   0.02543397            1 
  746000   0.93406755   -7.4959487    225.86577  0.025230761   0.02541729            3 
  747000   0.94944084   -7.4833399    225.77757  0.025187146  0.025400508            2 
  748000    0.9652877   -7.4796194    226.20892  0.025201528  0.025383771            1 
  749000   0.94262465   -7.4862847    226.02576  0.025147503  0.025366984            1 
  750000   0.95911452   -7.4855967    226.66041   0.02518449  0.025350158            1 
  751000   0.94595753   -7.5482617    226.40503  0.025122617  0.025333362            2 
  752000     0.954027   -7.5241605    226.67357  0.025118968  0.025316593            1 
  753000   0.93493132   -7.4809384    227.78553  0.025208668  0.025300031            1 
  754000   0.95922438   -7.4739408    227.99165  0.025198016  0.025283852            2 
  755000   0.95741009   -7.4837349    228.18305  0.025185767   0.02526758            1 
  756000   0.94511606   -7.5035048    227.41118   0.02506737  0.025250831            3 
  757000   0.95524697   -7.5313473    228.08579  0.025108519  0.025233957            1 
  758000   0.96418001   -7.5275131    226.89377  0.024944346  0.025217343            1 
  759000   0.95151196   -7.5152722    227.33568      0.02496  0.025200504            1 
  760000   0.94135625   -7.5243007    228.46086  0.025050533   0.02518381            3 
  761000   0.95986102   -7.5117172    228.27388   0.02499714  0.025167043            3 
  762000    0.9457416   -7.5035652    227.88499  0.024921805   0.02515035            2 
  763000   0.95070801   -7.5218415    228.01968  0.024903853  0.025133289            1 
  764000   0.94480625   -7.5097257    228.30378  0.024902245  0.025116356            2 
  765000   0.95538124   -7.5383846    228.45912  0.024886615  0.025099415            3 
  766000   0.94903953   -7.5242509    228.67771  0.024877906  0.025082415            3 
  767000   0.92216991   -7.5181547    229.15016  0.024896802  0.025065573            2 
  768000   0.95287325   -7.5217596    228.85139  0.024831965   0.02504859            2 
  769000   0.95077199   -7.5224937    229.41365  0.024860604    0.0250317            2 
  770000   0.95408129   -7.5152129    229.12697  0.024797291  0.025015004            1 
  771000   0.94641892   -7.5172102    230.16843  0.024877695  0.024998171            3 
  772000   0.92703396   -7.4980178    229.43668  0.024766481  0.024981515            1 
  773000   0.94394775   -7.5341269    230.18922   0.02481557  0.024964728            2 
  774000   0.96365207   -7.5291061    230.11816  0.024775857  0.024948049            2 
  775000   0.95330576    -7.510873     230.0418  0.024735677  0.024931358            2 
  776000   0.93585462   -7.5430986    230.22945  0.024723953  0.024914455            2 
  777000   0.95012538   -7.5485232     229.8896  0.024655684  0.024897623            2 
  778000   0.93735737   -7.5249606    230.93085  0.024735523  0.024881037            1 
  779000   0.95081553    -7.529621    230.83286  0.024693289   0.02486448            2 
  780000   0.94817905   -7.5140016    231.48657  0.024731471   0.02484808            4 
  781000   0.96370373   -7.5490962    231.57724   0.02470948  0.024831746            3 
  782000   0.95365927   -7.5336542    231.69575  0.024690511  0.024815332            2 
  783000    0.9338504   -7.5316944     231.9424  0.024685228  0.024799011            1 
  784000   0.94563761    -7.525253    232.76818  0.024741516   0.02478292            4 
  785000   0.94362921   -7.5216438    232.87476  0.024721313  0.024766963            1 
  786000   0.94556298   -7.5342779    232.86104  0.024688405  0.024751072            2 
  787000   0.92700095   -7.5484728    233.40274  0.024714394  0.024735083            1 
  788000   0.94422164   -7.5280315    232.94933  0.024635081  0.024719092            2 
  789000    0.9376323   -7.5522161    233.50309  0.024662346  0.024702948            2 
  790000   0.92640259   -7.5338667    232.85652  0.024562925  0.024686622            2 
  791000   0.94561522   -7.5231041    232.97078  0.024543909   0.02467027            1 
  792000   0.96486026   -7.5309441    233.15866  0.024532687  0.024653879            1 
  793000   0.92416562   -7.5218258    233.06118  0.024491507  0.024637534            2 
  794000   0.93912126   -7.5607854    233.25118  0.024480602  0.024621371            1 
  795000   0.92974239   -7.5182547    234.46314  0.024576849  0.024605154            3 
  796000   0.94654867   -7.5295295    233.71691   0.02446785  0.024589131            2 
  797000   0.93532391    -7.549853     234.1389  0.024481274  0.024573085            3 
  798000   0.96326922   -7.5374483     234.0607  0.024442429  0.024556934            2 
  799000   0.93275724   -7.5428266      234.389  0.024446079  0.024540792            2 
  800000   0.92283731   -7.5633713    234.43696  0.024420517  0.024524655            2 
  801000   0.93845469   -7.5636052    235.19518  0.024468912  0.024508389            2 
  802000   0.93191448   -7.5377263    234.90668  0.024408425  0.024492368            1 
  803000   0.92434612   -7.5392428    234.95716  0.024383267   0.02447653            3 
  804000   0.93145921   -7.5581399    235.68303  0.024428175  0.024460617            1 
  805000   0.93671215   -7.5263216    235.34924  0.024363275  0.024444827            5 
  806000    0.9310891   -7.5478164    236.46121  0.024448016  0.024429032            2 
  807000   0.91678535   -7.5224569    236.89707  0.024462729   0.02441309            2 
  808000   0.93710536   -7.5339171    236.24685  0.024365393  0.024397198            1 
  809000   0.93763954   -7.5515667    236.37167  0.024348133   0.02438128            3 
  810000   0.93996092   -7.5262769    237.37388  0.024421181   0.02436554            4 
  811000   0.92573151   -7.5341788    237.10199  0.024363131  0.024350039            4 
  812000   0.91074352   -7.5764509    236.15089  0.024235518  0.024334357            2 
  813000   0.92955884   -7.5667998    236.97659  0.024290343  0.024318465            1 
  814000   0.91912875   -7.5527592     237.3268  0.024296355  0.024302613            1 
  815000   0.93622076   -7.5706662    237.55141   0.02428951  0.024287007            2 
  816000   0.91384083   -7.5631751    238.10608  0.024316389  0.024271497            2 
  817000   0.92689262   -7.6020303    237.51852  0.024226695  0.024255968            2 
  818000   0.92677093     -7.57663    237.43951  0.024189029  0.024240538            1 
  819000   0.90047951   -7.5730403    238.50953  0.024268369  0.024224968            1 
  820000   0.92059577   -7.5493494    238.40011  0.024227653  0.024209511            1 
  821000   0.92977191   -7.5864018    237.85889  0.024143208  0.024193811            4 
  822000   0.91905128   -7.5741682    237.40731  0.024068056   0.02417787            2 
  823000   0.92039142   -7.5693658    238.83965  0.024183845  0.024162062            1 
  824000   0.92296278   -7.5523799    238.34522  0.024104492  0.024146252            1 
  825000   0.92521767   -7.5374742    238.23882  0.024064527  0.024130631            2 
  826000   0.92507357   -7.5719542     238.4961  0.024061349  0.024114788            3 
  827000   0.91436157   -7.5642786    238.66763  0.024049539  0.024098805            1 
  828000   0.93048601    -7.570929    239.26572  0.024080688  0.024082819            2 
  829000   0.92249538   -7.5532411    238.51509  0.023976185  0.024066906            1 
  830000   0.92915874   -7.5394384    239.73553  0.024069832  0.024050989            3 
  831000   0.91852492   -7.5886408     238.7663  0.023943673  0.024034991            2 
  832000   0.88465842   -7.5636788    240.00984  0.024039447  0.024019156            2 
  833000   0.93120953   -7.6127914    239.47904  0.023957487   0.02400321            4 
  834000    0.9184355   -7.5722777    239.56844  0.023937694  0.023987431            3 
  835000   0.90768377   -7.5689138    240.12438  0.023964509   0.02397166            1 
  836000   0.90444033   -7.5806748    239.70643  0.023894182  0.023955812            2 
  837000   0.90813641   -7.5848897    240.22127  0.023916893   0.02394007            3 
  838000   0.93475513   -7.5745405    240.19339   0.02388558  0.023924281            1 
  839000   0.92881297   -7.5680311    240.65264  0.023902726  0.023908412            3 
  840000    0.9311721   -7.6173797    241.09537  0.023918191  0.023892704            2 
  841000   0.90514553   -7.5828347     240.0921  0.023790338  0.023877086            3 
  842000   0.91031358   -7.5861369    240.77248  0.023829422   0.02386149            4 
  843000   0.92487799   -7.6021208    240.26944  0.023751428  0.023845738            2 
  844000   0.92421746   -7.5931451    241.15515  0.023810738  0.023830012            2 
  845000   0.91081131   -7.6293054    241.62194  0.023828594  0.023814434            1 
  846000   0.92293638   -7.5728922    241.54764  0.023793109  0.023798833            4 
  847000   0.90599716   -7.5762355    241.88869  0.023798572    0.0237833            2 
  848000   0.90790599   -7.5681678    241.85486  0.023767183  0.023767559            8 
  849000   0.91476207   -7.5940692    241.91919  0.023745504  0.023752051            2 
  850000   0.91422269   -7.6057834    242.09191  0.023734501  0.023736533            2 
  851000   0.94163291   -7.5714239    242.47597   0.02374422  0.023720956            3 
  852000   0.91981812   -7.6197997    242.11857  0.023681394  0.023705295            2 
  853000   0.90348075   -7.5974317    242.61152   0.02370179   0.02368966            5 
  854000   0.90980462   -7.6225207    242.20198  0.023634073  0.023673794            2 
  855000   0.88879241   -7.6105926    242.18177  0.023604461  0.023658145            2 
  856000   0.90614656   -7.6290931    242.25553  0.023584066  0.023642547            1 
  857000   0.91312149   -7.5837645     242.9742   0.02362643  0.023626915            2 
  858000   0.91595693   -7.6340089    243.22062  0.023622827  0.023611172            2 
  859000   0.90916291   -7.6110493    243.14467  0.023587958  0.023595444            2 
  860000   0.91348246   -7.5994296    243.42316  0.023587515  0.023579831            5 
  861000   0.91042151   -7.6226564    243.81355  0.023597905  0.023564178            1 
  862000   0.88758201   -7.5901986    244.18927  0.023606852  0.023548744            3 
  863000   0.90457185    -7.607456    244.04359  0.023565429  0.023533209            5 
  864000   0.90633214   -7.6386961    244.05253  0.023539017  0.023517653            2 
  865000   0.93205542   -7.6175636    244.83492  0.023587179  0.023502193            5 
  866000   0.89790735   -7.6093924    244.38331  0.023516485  0.023486805            1 
  867000   0.92005795    -7.609213     244.2664  0.023478124  0.023471356            2 
  868000   0.90734944   -7.6140112    245.00297   0.02352179   0.02345614            2 
  869000   0.90740497   -7.6013611    245.50223    0.0235426  0.023440987            2 
  870000   0.89622193    -7.597052      245.183  0.023484962  0.023425751            3 
  871000    0.9000031   -7.5831656    245.26451  0.023465797   0.02341043            3 
  872000    0.9104359   -7.6121047    245.16851  0.023429713  0.023395129            2 
  873000   0.91191962   -7.6200452    245.60424  0.023444468  0.023379789            1 
  874000   0.91100703   -7.6490631    245.53561  0.023411099  0.023364274            2 
  875000   0.89685875   -7.6162777    245.31231  0.023363077   0.02334896            3 
  876000   0.91200377   -7.6128545    245.92489  0.023394681  0.023333816            2 
  877000   0.88975376   -7.6146666    246.96898  0.023467216  0.023318714            1 
  878000   0.89962119   -7.6358261    246.68945  0.023413957   0.02330378            2 
  879000   0.90983771   -7.6226745    246.80348   0.02339813  0.023288654            2 
  880000   0.90286971   -7.6125353    246.74413  0.023365921  0.023273544            2 
  881000   0.88748355   -7.6581056    246.41923  0.023308668  0.023258531            2 
  882000   0.89766497   -7.6210083    247.17857  0.023353984  0.023243695            1 
  883000   0.91432897   -7.6174275    247.70277  0.023377008   0.02322889            3 
  884000   0.89904693   -7.6136389    246.93173  0.023277878  0.023214006            2 
  885000    0.9011054    -7.641254    247.09652  0.023267092  0.023199006            3 
  886000   0.91273488   -7.6091786    247.10142  0.023241292  0.023183984            2 
  887000   0.91495132   -7.6390149     247.5756  0.023259639  0.023168921            1 
  888000   0.89274785   -7.6446493    247.67443  0.023242721  0.023153805            4 
  889000   0.92043657   -7.6295794    248.08282  0.023254857  0.023138896            3 
  890000   0.88948198    -7.612453    248.39711  0.023258156  0.023124027            2 
  891000   0.90303065   -7.6267801    248.02443  0.023197197  0.023109279            3 
  892000   0.91037621   -7.6186904    248.22783  0.023190193   0.02309443            1 
  893000   0.90290635   -7.6602999    249.02803  0.023238898   0.02307943            2 
  894000   0.90424404    -7.640443    248.27061  0.023142302    0.0230644            1 
  895000   0.88127737   -7.6287684    247.60802  0.023054751  0.023049334            1 
  896000   0.88719103   -7.6916831    247.96403  0.023062131  0.023034178            3 
  897000   0.89767394   -7.6420694    248.50093    0.0230863   0.02301894            1 
  898000   0.88821142    -7.651251    248.42842  0.023053863  0.023003846            2 
  899000   0.87498124    -7.622389    248.97891  0.023079246  0.022988677            2 
  900000    0.8630747   -7.6285482    249.09361  0.023064223  0.022973621            2 
  901000   0.90362763   -7.6027951    249.69363   0.02309412  0.022958533            2 
  902000   0.89326005   -7.6927302    248.56797  0.022964521  0.022943445            2 
  903000   0.89365046     -7.68949    248.89961  0.022969695   0.02292812            2 
  904000   0.88868746   -7.6990993    248.75474  0.022930931  0.022912668            2 
  905000   0.89665041   -7.6853941    249.31534  0.022957213   0.02289732            3 
  906000   0.89599963   -7.6474934    249.91094  0.022986657  0.022882111            4 
  907000    0.8816806   -7.6505866    249.40483  0.022914814  0.022866983            3 
  908000   0.90181585   -7.6437666    249.45359  0.022894052  0.022851872            2 
  909000   0.88921411   -7.6410295    249.74363  0.022895455  0.022836585            1 
  910000   0.87936518   -7.6682282    249.67661  0.022864159  0.022821309            2 
  911000   0.87605681   -7.6405447    250.43274  0.022908227  0.022806092            2 
  912000   0.89027036   -7.6743984    249.98311  0.022842024  0.022790907            3 
  913000   0.87915892   -7.6400387    250.81828  0.022893235  0.022775699            4 
  914000   0.90623292   -7.6408045    250.84646  0.022870757  0.022760635            2 
  915000   0.89013545   -7.6523314    250.80715  0.022842181  0.022745727            1 
  916000   0.89905568   -7.6331878    251.31251  0.022863219  0.022731023            4 
  917000   0.90229684    -7.630223    251.88355  0.022890181  0.022716382            2 
  918000   0.90776572    -7.636291    251.68358  0.022847093  0.022701638            1 
  919000   0.89316982   -7.6539509    251.56678  0.022811641  0.022687106            5 
  920000   0.86530609   -7.6495202    251.82934  0.022810629  0.022672414            2 
  921000   0.87780249   -7.6403136    251.94896  0.022796685  0.022657734            2 
  922000   0.87165645   -7.6633489    251.37218  0.022719828  0.022642902            2 
  923000   0.87909184   -7.6643728    252.02713  0.022754346  0.022627995            2 
  924000   0.91095704   -7.6333097    252.42857  0.022765924  0.022613151            1 
  925000   0.87615508   -7.6805816    251.78066  0.022682942  0.022598134            2 
  926000   0.88697026   -7.6942889    251.37691  0.022622112  0.022582965            2 
  927000   0.88459406   -7.7074271    251.90357  0.022645053  0.022567951            3 
  928000   0.87719468   -7.6698342    252.08615  0.022637046  0.022552844            5 
  929000   0.88822347   -7.6701226    252.54223  0.022653591   0.02253801            5 
  930000   0.89072306   -7.6482969    253.13189  0.022682069  0.022523057            2 
  931000   0.88234969   -7.6686605     252.4126  0.022593323  0.022508158            3 
  932000   0.89666184   -7.6914715    253.04321  0.022625466  0.022493327            5 
  933000   0.87926487   -7.6631832    253.19883  0.022615115  0.022478391            2 
  934000     0.875876    -7.719782     252.9404  0.022567845  0.022463549            3 
  935000   0.86506819    -7.678371    252.92712  0.022542524  0.022448733            1 
  936000   0.87121078    -7.717979    253.32781  0.022554114  0.022433792            1 
  937000   0.87144631   -7.6543421     253.7438   0.02256704  0.022418682            3 
  938000   0.87997804   -7.6673631    253.58626  0.022528985  0.022403576            2 
  939000   0.87380953   -7.6735931    253.73127  0.022517862  0.022388709            1 
  940000   0.87435373    -7.685594    253.13351  0.022440914  0.022373962            1 
  941000   0.87979961   -7.6984116    253.50994  0.022450402  0.022359064            2 
  942000    0.8887404   -7.7104188    253.57364  0.022432204  0.022344107            5 
  943000   0.88845373   -7.7003419    254.49689  0.022490005  0.022329107            3 
  944000   0.87131825   -7.6638255    254.41628  0.022459065  0.022314146            2 
  945000   0.86709865   -7.6865354    254.00838  0.022399328  0.022299255            2 
  946000   0.85670615   -7.7392202    253.48317  0.022329384  0.022284327            6 
  947000   0.89169949   -7.6647679      254.012  0.022352341   0.02226932            1 
  948000   0.87552722   -7.6864035     254.4819  0.022370068    0.0222544            3 
  949000   0.87149172   -7.6702868    254.24369  0.022325579  0.022239492            2 
  950000   0.88681001   -7.7143731    254.49555  0.022324171  0.022224473            2 
  951000   0.87452327   -7.6875677    254.37848  0.022290438  0.022209359            2 
  952000   0.85133975   -7.6883711    254.72707  0.022297537  0.022194407            3 
  953000   0.86570803   -7.7270719    255.00355  0.022298317    0.0221795            2 
  954000   0.89329303   -7.7038073    254.57098  0.022237157  0.022164582            1 
  955000   0.87340071   -7.6983634    255.26188  0.022274161   0.02214962            3 
  956000    0.8769136   -7.6897556    255.52259  0.022273587  0.022134599            2 
  957000   0.88441873   -7.6711214    255.31325  0.022232084  0.022119665            1 
  958000   0.88274407   -7.7270775    255.55116  0.022229572   0.02210466            4 
  959000   0.86261221   -7.7289187    255.23498  0.022178917  0.022089685            3 
  960000   0.85213036   -7.6826414    255.87359  0.022211249  0.022074594            2 
  961000   0.86371544   -7.6897116    255.40885  0.022147836  0.022059612            1 
  962000   0.87973305   -7.6977003     255.1266  0.022100364  0.022044498            3 
  963000    0.8742444   -7.6831396    255.06444  0.022072035  0.022029424            2 
  964000   0.87076459   -7.7177301    255.46491  0.022083757  0.022014271            4 
  965000   0.83777023   -7.7020646    255.49145  0.022063165  0.021998968            1 
  966000   0.86566499   -7.7242017    256.56138  0.022132624  0.021983726            3 
  967000   0.88601911   -7.7038464    255.19923   0.02199235  0.021968411            2 
  968000   0.85984169    -7.729098    255.88373  0.022028558  0.021953143            2 
  969000   0.87070329   -7.7165137    255.83876  0.022001957  0.021937941            5 
  970000   0.84626623   -7.6800992    255.81018  0.021976819   0.02192258            2 
  971000   0.88222871   -7.6680871    256.11771  0.021980579  0.021907354            2 
  972000   0.87779513   -7.7311302    255.69331   0.02192158    0.0218921            6 
  973000   0.86904046   -7.7370163    255.72124  0.021901442  0.021876739            1 
  974000   0.86860376   -7.7013787    256.49857  0.021945463  0.021861442            6 
  975000   0.85590662   -7.7188687    255.97594  0.021878286  0.021846255            1 
  976000   0.86558362   -7.7164786    257.04501  0.021947149  0.021831087            2 
  977000     0.859678   -7.7048552    257.12271  0.021931313  0.021815856            4 
  978000   0.86728825   -7.6910438    256.98223  0.021896918  0.021800761            3 
  979000   0.84754407     -7.68899    256.77365  0.021856797  0.021785782            3 
  980000   0.85998425   -7.7090411    256.91893  0.021846848  0.021770663            1 
  981000   0.84837276   -7.7287904    256.71853  0.021807555  0.021755359            1 
  982000   0.85341135   -7.7498034    256.75706  0.021788617  0.021739984            4 
  983000   0.85091091   -7.7265989    257.22568  0.021806178  0.021724704            1 
  984000   0.84083276   -7.7324784    256.69679  0.021739227   0.02170937            3 
  985000   0.86275731   -7.7477478    256.67363  0.021715197  0.021693911            2 
  986000   0.87276928   -7.7349974    257.22967  0.021740168  0.021678496            2 
  987000   0.86105208   -7.7198735    257.27737  0.021722169  0.021663214            2 
  988000   0.84199397   -7.7140426      256.848  0.021663968  0.021647871            2 
  989000   0.87742712   -7.7103212      257.165  0.021668773  0.021632527            2 
  990000   0.86317509   -7.7134489    257.20411  0.021650177  0.021617096            2 
  991000   0.86496594    -7.728422    256.55646   0.02157387    0.0216016            1 
  992000   0.85842517   -7.7429122    257.58104  0.021638192  0.021586172            1 
  993000   0.82409923   -7.7479564    257.09584  0.021575683  0.021570726            2 
  994000    0.8575766   -7.6810264    257.42749  0.021581781  0.021555266            2 
  995000   0.84844267   -7.7041738    257.10315  0.021532927  0.021539744            3 
  996000   0.86492687   -7.7612535    257.21401  0.021520583  0.021524122            4 
  997000   0.85484516   -7.7522024    257.65544  0.021535894  0.021508449            4 
  998000   0.85227953   -7.7193585    257.44189  0.021496484  0.021492767            1 
  999000   0.83803904   -7.7322461    257.99867   0.02152141  0.021477069            2 
 1000000   0.83583943   -7.7514915    257.01863  0.021418219  0.021461261            6 
 1001000   0.84584442   -7.7553941    257.53627  0.021439916  0.021445564            1 
 1002000   0.84272461   -7.7835681    257.05844  0.021378779  0.021429683            3 
 1003000   0.84702174   -7.7986128    257.39702  0.021385595  0.021413797            2 
 1004000   0.84163428   -7.7473805     258.1027  0.021422867  0.021398151            3 
 1005000   0.84217551   -7.7645293    257.63217  0.021362535  0.021382598            4 
 1006000      0.86426   -7.7462917    258.00631  0.021372292  0.021367049            3 
 1007000   0.86226171   -7.7626075    258.54476  0.021395627  0.021351635            3 
 1008000   0.85050098   -7.7506187    258.51245   0.02137173  0.021336178            3 
 1009000   0.83936588   -7.7767349    258.54033  0.021352852  0.021320665            3 
 1010000   0.84801676   -7.7479471    259.01943   0.02137124  0.021305268            4 
 1011000   0.84630084   -7.7761571    258.90047  0.021340296  0.021289791            3 
 1012000   0.85532447   -7.7495707    258.47172  0.021283903  0.021274351            2 
 1013000   0.84835398   -7.7458238    258.75077  0.021285848  0.021258993            3 
 1014000   0.85465249   -7.7688666    259.05126  0.021289551  0.021243499            2 
 1015000   0.85938756   -7.7708076    258.59679  0.021231263  0.021227982            1 
 1016000   0.84305059   -7.7572722    259.25479  0.021264337   0.02121244            3 
 1017000   0.83596345   -7.7545217    259.03411  0.021225345  0.021196994            2 
 1018000   0.83889808   -7.7488544    259.08113  0.021208344    0.0211815            2 
 1019000   0.86499119   -7.7577046    259.68239  0.021236702  0.021166094            2 
 1020000    0.8442497   -7.7577747     259.3978  0.021192631  0.021150718            3 
 1021000   0.84726777   -7.7960183    259.66377  0.021193582  0.021135324            2 
 1022000     0.856871   -7.7250625    259.99211  0.021199617  0.021119963            3 
 1023000   0.85387355   -7.7328318    260.29013  0.021203171   0.02110472            3 
 1024000   0.86392882   -7.7457615    260.58514  0.021206473  0.021089483            2 
 1025000    0.8450596   -7.7702095    259.60349  0.021105975  0.021074196            5 
 1026000   0.84046356   -7.7740328    260.05147  0.021121789  0.021058795            2 
 1027000   0.84165204   -7.7627514    260.03617  0.021099981  0.021043497            3 
 1028000   0.85177096   -7.7678455    259.84419  0.021063894  0.021028195            3 
 1029000   0.83388988   -7.7586852    260.82695  0.021123012  0.021012769            3 
 1030000   0.85253259   -7.8073705    259.97105  0.021033256  0.020997458            3 
 1031000   0.83680884   -7.8153635    259.86474  0.021004263  0.020982004            1 
 1032000   0.85752548   -7.7528016    260.09086  0.021002169  0.020966571            3 
 1033000   0.84318452   -7.7691792    260.17294  0.020988459  0.020951165            1 
 1034000   0.83533987   -7.7652332    260.70749  0.021011242  0.020935751            3 
 1035000   0.82876685   -7.7489585    261.24521  0.021034236  0.020920457            6 
 1036000   0.84894488   -7.7420934    260.43323  0.020948619   0.02090515            2 
 1037000   0.83022106   -7.7780733    260.70615  0.020950349  0.020889831            2 
 1038000   0.83822752   -7.7834337    260.52092  0.020915295   0.02087451            1 
 1039000     0.832798   -7.7706038    261.18172  0.020948165  0.020859318            6 
 1040000   0.82981418   -7.7627944    261.56512  0.020958744   0.02084416            3 
 1041000   0.82549409   -7.7487222    261.51686  0.020934747  0.020828968            1 
 1042000   0.83516938   -7.7824254    260.99748  0.020873119  0.020813689            2 
 1043000   0.83005249   -7.7706185    261.27986  0.020875668  0.020798374            1 
 1044000    0.8528127   -7.7909089    260.94313  0.020828794  0.020782949            7 
 1045000   0.83898091    -7.771341    260.62299  0.020783332  0.020767579            1 
 1046000   0.83896417   -7.7989429    261.20153  0.020809555  0.020752172            2 
 1047000   0.83740686   -7.8116035    261.46579  0.020810713  0.020736689            2 
 1048000   0.83161468   -7.8112927      261.387  0.020784589  0.020721156            4 
 1049000   0.81881016    -7.800277    261.16558  0.020747186  0.020705631            3 
 1050000    0.8372292   -7.7790627    260.99064  0.020713543  0.020690105            4 
 1051000   0.84304258   -7.7945484    260.41488  0.020648183  0.020674594            6 
 1052000   0.84687665   -7.7657579    261.79651     0.020738  0.020659128            2 
 1053000   0.83846175   -7.7655233    261.53065  0.020697265  0.020643667            2 
 1054000   0.81515781   -7.7593767    261.99848  0.020714618  0.020628196            3 
 1055000   0.82940621   -7.7961364    261.16727  0.020629326  0.020612806            1 
 1056000   0.85001268   -7.7927677     261.5329  0.020638645  0.020597345            2 
 1057000   0.84759458    -7.782279    261.61343  0.020625467  0.020581914            2 
 1058000   0.83454066   -7.8101843    260.82988  0.020544256  0.020566436            3 
 1059000   0.84297809   -7.7866737    262.05709  0.020621427  0.020551005            1 
 1060000   0.81232527    -7.788666    262.02474  0.020599429  0.020535594            4 
 1061000   0.82338803   -7.7670886    262.02804  0.020580273  0.020520169            2 
 1062000    0.8131052   -7.7776103     261.8588  0.020547615  0.020504631            3 
 1063000   0.83901298   -7.8134528     262.1119  0.020548127  0.020489162            2 
 1064000   0.82049848   -7.8086344    261.91851  0.020513668  0.020473729            1 
 1065000   0.82431574   -7.8164754    261.78824  0.020484213  0.020458334            2 
 1066000   0.83284783   -7.7955099    262.15608  0.020493752   0.02044297            2 
 1067000   0.82396409   -7.7970759      262.687  0.020516011  0.020427713            2 
 1068000   0.82221185   -7.8192313    262.28074  0.020465101  0.020412489            1 
 1069000   0.83506689   -7.8153183    262.40301  0.020455489  0.020397223            1 
 1070000   0.81820545   -7.8237541    262.75929  0.020464119  0.020381926            1 
 1071000   0.82716012   -7.8083589    262.42346  0.020418881  0.020366602            2 
 1072000   0.84106921   -7.8241238    262.24298  0.020385804  0.020351411            2 
 1073000   0.82439257   -7.8019654    263.01093  0.020426447  0.020336187            3 
 1074000   0.83619527   -7.8273902    262.79475  0.020390654  0.020320971            2 
 1075000   0.82720452   -7.8110556    262.71983  0.020365878  0.020305745            2 
 1076000   0.83733154   -7.8189843    262.25261  0.020310766  0.020290384            2 
 1077000   0.82640366   -7.8156776    262.75972  0.020331145  0.020275076            3 
 1078000   0.82287599   -7.8316376    262.83971  0.020318469  0.020259723            3 
 1079000   0.81324119   -7.8379717    262.97962  0.020310443  0.020244451            1 
 1080000   0.83935967   -7.8129246    263.18234  0.020307279  0.020229155            3 
 1081000   0.82596481    -7.843238    263.20521  0.020290256  0.020213884            3 
 1082000   0.82746869   -7.8195748    263.32741  0.020280916  0.020198487            3 
 1083000   0.82871809    -7.834315    263.25881   0.02025691  0.020183083            3 
 1084000   0.83253457   -7.8141333    263.67554   0.02027026  0.020167785            1 
 1085000   0.82026039   -7.8158462    263.52197  0.020239783  0.020152538            2 
 1086000   0.82094474   -7.8155856    263.67219  0.020232672  0.020137374            3 
 1087000   0.82637964   -7.8138727    263.39498  0.020192807  0.020122071            1 
 1088000   0.79257991   -7.8275142    263.32171  0.020168636  0.020106785            2 
 1089000   0.82149728   -7.8039138    263.89846   0.02019425   0.02009158            1 
 1090000   0.82604729   -7.8323493    263.71277  0.020161527  0.020076386            2 
 1091000   0.82958505    -7.807566    264.24889  0.020183997  0.020061271            4 
 1092000   0.83046949   -7.8388399    264.12524  0.020156077  0.020046116            3 
 1093000   0.81871807   -7.8435247    264.05965  0.020132636  0.020030969            3 
 1094000   0.81533911   -7.8300595    263.90619  0.020102543  0.020015761            2 
 1095000    0.8324982   -7.8386746    263.44239  0.020048888  0.020000551            2 
 1096000   0.83682719   -7.8383886    263.34763   0.02002339  0.019985303            3 
 1097000   0.81889097   -7.9116247    263.85526  0.020043699  0.019970075            3 
 1098000    0.8262057   -7.8733996    263.82165  0.020022894  0.019954801            1 
 1099000   0.80966694   -7.8777822    263.77516   0.02000115  0.019939477            2 
 1100000   0.81992168   -7.9001979    263.65874  0.019974147  0.019924137            2 
 1101000   0.80510738   -7.8698398    264.05587  0.019986063  0.019908864            1 
 1102000   0.81444316   -7.8542405    263.64597  0.019936931  0.019893593            3 
 1103000   0.83100411    -7.823468    264.27969  0.019966734  0.019878384            4 
 1104000   0.80124209   -7.8477331    264.54041  0.019968328  0.019863144            1 
 1105000   0.82033156   -7.8333859    264.05974  0.019914008  0.019847952            2 
 1106000   0.81390253   -7.8530376    264.58327  0.019935448  0.019832729            3 
 1107000   0.83420277   -7.8658212    264.95026  0.019945066  0.019817487            2 
 1108000   0.80995106   -7.8709959    264.19921  0.019870578   0.01980223            1 
 1109000     0.816464   -7.8811452    264.13042  0.019847492  0.019786924            1 
 1110000    0.8079238   -7.8413664    264.31191  0.019843237  0.019771659            2 
 1111000   0.82450832   -7.8807792    264.27955  0.019822949  0.019756431            2 
 1112000   0.79800491   -7.8443341    264.45359  0.019818165  0.019741153            3 
 1113000   0.80361659   -7.8386278    264.45303  0.019800316  0.019725994            2 
 1114000   0.81769728   -7.8442558    264.44067  0.019781618  0.019710877            1 
 1115000   0.81826335   -7.8504104    265.38514  0.019834465  0.019695769            2 
 1116000   0.81516501   -7.8129091    265.67341  0.019838218  0.019680749            1 
 1117000   0.78806533   -7.8515105    264.77746  0.019753616    0.0196657            2 
 1118000   0.81049756   -7.8355417    265.34447  0.019778211  0.019650624            3 
 1119000   0.81035137   -7.8736953    264.65655  0.019709305  0.019635376            3 
 1120000   0.79612186    -7.851942    264.97666  0.019715525  0.019620166            2 
 1121000   0.79276211    -7.863232    265.58383  0.019743074  0.019605056            4 
 1122000   0.80164906   -7.8416118    265.49469  0.019718857  0.019589937            4 
 1123000   0.79472837   -7.8640883    265.01046  0.019665365  0.019574726            1 
 1124000   0.79821078   -7.8632893    264.86223  0.019636879  0.019559489            3 
 1125000    0.8071084   -7.8854079    265.30432  0.019652172  0.019544252            2 
 1126000   0.79762185   -7.8610567    265.59335  0.019656109  0.019529078            3 
 1127000   0.80131434   -7.8857425    264.23182  0.019537993  0.019513807            2 
 1128000   0.81615109    -7.861335    265.51318  0.019615336  0.019498558            2 
 1129000   0.80054597   -7.8602246    265.09513  0.019567104  0.019483456            2 
 1130000   0.80281173    -7.860821    265.44295  0.019575439  0.019468263            1 
 1131000   0.81766495   -7.8704707    265.14853  0.019536438  0.019453081            2 
 1132000   0.82455519   -7.8594509    265.67419  0.019557876  0.019437979            4 
 1133000   0.81760379   -7.8683318    265.10705  0.019498901  0.019422761            1 
 1134000   0.79620441   -7.8685644    265.06643  0.019478721  0.019407601            2 
 1135000   0.80876063   -7.8638485    265.81016  0.019516164  0.019392389            2 
 1136000   0.81239792   -7.8600468    266.00455  0.019513245  0.019377259            3 
 1137000   0.81173076   -7.8489447    266.01178  0.019496612  0.019362107            1 
 1138000    0.7872095   -7.8674994     265.9634  0.019475937  0.019347026            1 
 1139000   0.81116765   -7.9003657    265.27673  0.019408599  0.019331915            2 
 1140000   0.79034438   -7.8743335    265.32248  0.019394918  0.019316765            1 
 1141000   0.79344635   -7.8987919    265.07413  0.019359782  0.019301596            3 
 1142000    0.8074328   -7.8985623    265.38131  0.019365245   0.01928644            2 
 1143000   0.79379029    -7.888842     265.5738  0.019362336  0.019271253            3 
 1144000   0.79139324   -7.8903932    265.58385  0.019346143  0.019256118            2 
 1145000   0.79834722   -7.8902874    265.26494  0.019306036  0.019240931            2 
 1146000   0.78696176   -7.8862604    266.14894  0.019353472   0.01922578            1 
 1147000   0.79305577   -7.8425645    266.60188  0.019369506  0.019210713            1 
 1148000   0.79544476   -7.8990996    266.21907  0.019324845   0.01919569            2 
 1149000   0.80253837   -7.8890623    265.66211  0.019267632  0.019180615            2 
 1150000   0.78967712   -7.9140847    266.05999   0.01927971  0.019165528            5 
 1151000   0.78617762   -7.9354219    265.75843  0.019241126  0.019150369            3 
 1152000    0.7946762   -7.8848572    266.38766  0.019269941  0.019135197            2 
 1153000   0.79164145   -7.8851897    266.34311  0.019250008  0.019120105            2 
 1154000   0.79555987   -7.9148065    266.62748  0.019253862  0.019105107            2 
 1155000   0.79696604   -7.9265375    266.19561  0.019206033  0.019090023            4 
 1156000   0.78054022   -7.8825577     266.7184  0.019227105  0.019075048            2 
 1157000   0.78800054   -7.9129466    266.78033  0.019214948  0.019060129            1 
 1158000   0.79827019   -7.9131277    266.65603  0.019189409  0.019045156            2 
 1159000   0.78614743   -7.9181846    266.23204  0.019142367  0.019030103            3 
 1160000   0.78437616   -7.8890434    266.73075  0.019161692  0.019015141            1 
 1161000   0.79272621   -7.9157401    266.76239  0.019147458  0.019000153            1 
 1162000   0.79015537   -7.9114881    267.03955  0.019150857  0.018985255            7 
 1163000   0.77373023   -7.9078574    267.34555  0.019156316   0.01897042            3 
 1164000   0.79184641   -7.9144491    266.84084  0.019103726  0.018955492            5 
 1165000   0.77536874   -7.9161974    266.99916  0.019098652  0.018940584            2 
 1166000    0.7868361   -7.9219846    266.86953  0.019073008  0.018925643            7 
 1167000   0.76057932   -7.9545601    266.87843    0.0190573  0.018910646            2 
 1168000   0.78387798   -7.9320167    266.11105  0.018986234  0.018895647            2 
 1169000   0.79095372   -7.9354674    266.93304  0.019028589  0.018880742            1 
 1170000   0.78182192   -7.9059668    267.07599  0.019022506  0.018865924            3 
 1171000   0.77312168   -7.9151948    266.44182  0.018961132  0.018851039            2 
 1172000   0.77801914   -7.9122814    267.12276   0.01899337  0.018836131            3 
 1173000   0.78754932   -7.9339259    267.01325  0.018969398   0.01882126            3 
 1174000   0.77539434   -7.9136582    267.69804  0.019001849  0.018806481            1 
 1175000   0.77659383   -7.9447145    267.34802  0.018960852   0.01879167            3 
 1176000   0.76699242   -7.9362104     266.9958   0.01891977   0.01877688            3 
 1177000   0.79499555   -7.9231171     267.5797  0.018945037  0.018762054            3 
 1178000     0.767509   -7.8994801    267.65963  0.018934609  0.018747326            2 
 1179000   0.77866661   -7.9032197    267.74406  0.018924516  0.018732522            2 
 1180000    0.7871082   -7.9278896    267.91558  0.018920592  0.018717759            4 
 1181000   0.77919831   -7.9263819    267.92064  0.018904928  0.018703022            1 
 1182000   0.77404705   -7.9165633     267.0914  0.018830471  0.018688295            1 
 1183000   0.75180056   -7.9340804    268.12902  0.018887646  0.018673518            2 
 1184000   0.79370246   -7.9263521    267.58121  0.018833137  0.018658786            2 
 1185000   0.77235579   -7.9178133    268.29946  0.018867754  0.018644039            1 
 1186000   0.77817973   -7.9572269    268.01923  0.018832155  0.018629266            3 
 1187000    0.7872334   -7.9161549    267.48107  0.018778508  0.018614439            1 
 1188000   0.78792096   -7.9437526    267.35638  0.018753955  0.018599708            6 
 1189000   0.77236856   -7.9180324    267.64169  0.018758178  0.018584901            2 
 1190000   0.77847179   -7.9571642    267.48889  0.018731715  0.018570141            1 
 1191000   0.79069464   -7.9530266    267.74393  0.018733832  0.018555392            2 
 1192000   0.78709356   -7.9123088    267.73406  0.018717426  0.018540678            4 
 1193000   0.75092623   -7.9557982    267.37039  0.018676334  0.018525897            1 
 1194000   0.77919112   -7.9254833    267.67597  0.018682019  0.018511112            3 
 1195000   0.76474009   -7.9423991      268.076  0.018694281  0.018496378            2 
 1196000   0.78857215   -7.9429224    268.46152  0.018705513  0.018481704            2 
 1197000   0.76097825   -7.9650935    267.62096  0.018631367  0.018467003            2 
 1198000   0.77810909   -7.9461491    268.06383  0.018646621  0.018452294            3 
 1199000   0.76716111   -7.9240413    268.17421  0.018638741  0.018437638            2 
 1200000   0.76853113    -7.937961    268.33558  0.018634415  0.018422986            1 
 1201000   0.78864293   -7.9629035    267.67119    0.0185728  0.018408345            2 
 1202000   0.74800663   -7.9631371    268.47917  0.018613364  0.018393718            4 
 1203000   0.76451992   -7.9554053    268.13843  0.018574289  0.018379078            2 
 1204000   0.78869639   -7.9262654    268.34662  0.018573271    0.0183645            1 
 1205000   0.76141342   -7.9401988    268.49002  0.018567775  0.018349905            4 
 1206000   0.77067424   -7.9592256    268.17605  0.018530683  0.018335376            2 
 1207000   0.77751755   -7.9371025      269.103  0.018579329  0.018320902            4 
 1208000     0.776468   -7.9419417     268.2869  0.018507651  0.018306453            2 
 1209000    0.7769849   -7.9755838    268.83549  0.018530155  0.018292029            1 
 1210000   0.76787874   -7.9384985    269.16322  0.018537412  0.018277612            1 
 1211000   0.77511215   -7.9796804    268.54296  0.018479422  0.018263171            2 
 1212000   0.76599639   -7.9619195    268.85809  0.018485843  0.018248753            3 
 1213000   0.74986238   -7.9577084    268.75412   0.01846346  0.018234329            2 
 1214000   0.75795422   -7.9736336     268.8871  0.018457379   0.01821992            3 
 1215000   0.75125192   -7.9700084    268.61107  0.018423256  0.018205514            3 
 1216000   0.76154391   -7.9810157    268.72354  0.018415813  0.018191113            3 
 1217000    0.7665355   -7.9470694    268.66931  0.018396967  0.018176663            3 
 1218000   0.78163128   -7.9682137    268.98865  0.018403712  0.018162269            2 
 1219000   0.78158093   -7.9659597    269.50462  0.018423887  0.018147956            3 
 1220000   0.77059226   -7.9814698    269.64513  0.018418383  0.018133615            4 
 1221000   0.77288075   -7.9731245     269.1022  0.018366243  0.018119249            2 
 1222000   0.77012011   -7.9800425    268.70248  0.018323955  0.018104866            1 
 1223000   0.74162233   -7.9912723    268.92098  0.018323861  0.018090398            2 
 1224000   0.76892456   -7.9670883    269.08226  0.018319871   0.01807592            2 
 1225000   0.77827849    -7.962546    269.15488  0.018309856  0.018061529            2 
 1226000   0.77200407   -7.9728765    269.14082  0.018293966  0.018047185            2 
 1227000   0.76788539    -7.991326    268.99999  0.018269491  0.018032893            2 
 1228000   0.76214906   -7.9509137    269.75927   0.01830614  0.018018638            4 
 1229000   0.74970748   -7.9838112    269.34263  0.018262994  0.018004407            3 
 1230000    0.7628628     -7.95701    269.54213  0.018261662  0.017990197            4 
 1231000   0.75471674   -7.9555283    270.43575  0.018307321  0.017976033            2 
 1232000   0.75589012    -7.982352    269.99254  0.018262482  0.017961904            1 
 1233000    0.7562613   -7.9263412    270.64438  0.018291726  0.017947784            2 
 1234000   0.74139935   -7.9708515    270.33151  0.018255775  0.017933628            2 
 1235000   0.75023386   -7.9539407     270.4662  0.018250081  0.017919507            3 
 1236000   0.74969856    -7.953763    269.92528  0.018198846  0.017905415            2 
 1237000   0.75782486   -7.9622901    269.72546  0.018170672   0.01789126            4 
 1238000   0.75005086   -7.9682258    269.91005   0.01816842  0.017877105            3 
 1239000   0.74907863   -8.0008027    269.20613  0.018106412  0.017862879            1 
 1240000   0.75256448   -7.9833538    269.86801  0.018136291  0.017848618            2 
 1241000   0.75007498   -7.9714622    269.48141  0.018095716  0.017834364            2 
 1242000   0.73856965   -7.9973408      269.647  0.018092257  0.017820069            3 
 1243000   0.76474505   -7.9840908    269.73552  0.018083636   0.01780582            1 
 1244000   0.76372937   -7.9604332    269.41678  0.018047748  0.017791505            2 
 1245000   0.73800606   -7.9980278    269.47001  0.018036815  0.017777242            2 
 1246000    0.7606998   -8.0028725    269.35075  0.018014363  0.017763006            3 
 1247000   0.73483066   -7.9692572    269.83585  0.018032335  0.017748794            5 
 1248000   0.77020207   -7.9940129    270.07756  0.018034025  0.017734641            3 
 1249000   0.76288615   -7.9886338    270.35202  0.018037898  0.017720546            3 
 1250000   0.76587801   -7.9673881     270.2652   0.01801768  0.017706436            2 
 1251000   0.75333087   -7.9906254    270.51177  0.018019702  0.017692307            3 
 1252000   0.74924162   -7.9761696    269.86133  0.017962016  0.017678234            2 
 1253000   0.75920563   -7.9998286    270.54709  0.017993289  0.017664188            1 
 1254000   0.74297213    -8.015415    270.34126  0.017965262  0.017650141            3 
 1255000   0.73672527   -8.0095873    270.26464  0.017945859  0.017636048            1 
 1256000   0.75546784   -8.0132235    270.46618  0.017944943  0.017621987            2 
 1257000   0.75270068    -7.974936    270.68732  0.017945328  0.017607931            3 
 1258000   0.74619383   -7.9669848    270.82985  0.017940504  0.017593959            3 
 1259000   0.74383212   -8.0212622    270.28331  0.017890079  0.017579941            4 
 1260000   0.76396864   -7.9718235     270.4622  0.017887712  0.017565923            1 
 1261000   0.74399411   -8.0366981    270.76021   0.01789322  0.017551903            3 
 1262000   0.74350058   -8.0027925    270.43099  0.017857303  0.017537916            2 
 1263000    0.7276883   -8.0340086    269.93578  0.017810489  0.017523827            3 
 1264000   0.72242343   -8.0245301    270.06798  0.017805115  0.017509777            3 
 1265000   0.75599438   -8.0090917      269.761  0.017770817  0.017495785            3 
 1266000   0.76097866   -7.9947966    270.56456  0.017809674  0.017481874            1 
 1267000   0.75439807   -8.0080117    271.97874   0.01788863  0.017467967            1 
 1268000   0.73491586   -8.0026206    271.41807  0.017837676   0.01745412            4 
 1269000   0.73671486   -8.0183648    270.62669   0.01777165   0.01744031            3 
 1270000   0.74705955   -8.0394489     271.2321  0.017797382  0.017426487            4 
 1271000   0.75212683    -7.994217    271.62424   0.01780909   0.01741269            2 
 1272000   0.74182391   -8.0090625    270.87108  0.017745747  0.017398869            2 
 1273000   0.75200415   -8.0252847    270.97942  0.017738899  0.017385019            3 
 1274000   0.73981371   -8.0337304    270.48499  0.017692634  0.017371132            3 
 1275000    0.7200895   -8.0238345     271.1921  0.017724974   0.01735726            2 
 1276000   0.74885357   -8.0392175     271.0457  0.017701522  0.017343423            2 
 1277000   0.73256134   -8.0278978    270.72072  0.017666452  0.017329595            3 
 1278000   0.74154653   -8.0406977      271.064  0.017675013   0.01731573            3 
 1279000   0.74270772   -8.0368697    271.32249  0.017678036  0.017301813            5 
 1280000   0.75554066   -8.0563974    270.73964  0.017626279  0.017287862            2 
 1281000   0.74152793   -8.0230411    270.21652  0.017578488  0.017273953            1 
 1282000   0.72034705   -8.0681411    270.21144  0.017564446  0.017260016            3 
 1283000   0.72218712   -8.0573487    270.70233   0.01758264  0.017246081            2 
 1284000   0.74389612   -8.0639184    270.80559  0.017575649  0.017232192            1 
 1285000   0.74655399   -8.0492065    270.95708  0.017571795  0.017218293            2 
 1286000   0.74156146   -8.0382479    270.89889  0.017554361  0.017204376            3 
 1287000   0.73997442   -8.0663091     270.3487  0.017505096  0.017190499            1 
 1288000   0.75382029   -8.0226777    271.07728  0.017538644   0.01717669            1 
 1289000   0.73901382   -8.0348793    271.36904    0.0175439    0.0171629            2 
 1290000   0.72911161   -8.0357777    271.14266  0.017515676  0.017149162            4 
 1291000   0.71741699   -8.0512354    270.72576  0.017475198  0.017135391            2 
 1292000   0.74582612   -8.0293696    271.46587  0.017509408  0.017121609            2 
 1293000   0.74811769   -8.0458379     271.1406  0.017474903  0.017107839            2 
 1294000   0.73694218   -8.0103813    271.26085  0.017469143  0.017094091            5 
 1295000   0.74449829   -8.0352544     271.5741  0.017475811  0.017080367            2 
 1296000   0.73384085   -8.0371208    271.20505  0.017438596  0.017066613            2 
 1297000   0.72865425   -8.0684055     271.2214  0.017426201  0.017052801            2 
 1298000   0.73108648   -8.0390031    270.75833  0.017383046     0.017039            3 
 1299000   0.73016988     -8.06431    271.12074  0.017392914  0.017025157            2 
 1300000    0.7233766   -8.0508012    271.39542  0.017397142  0.017011364            3 
 1301000    0.7501737   -8.0424589    271.18529  0.017370311  0.016997557            1 
 1302000   0.72999643    -8.081085     270.6489  0.017322639  0.016983738            2 
 1303000   0.73204177   -8.0433446    270.77303  0.017317282  0.016969961            3 
 1304000   0.71748496   -8.0173788     270.7827   0.01730462  0.016956215            3 
 1305000   0.72716345   -8.0201126    271.41326  0.017331626  0.016942506            2 
 1306000   0.71073935   -8.0722615    270.85758  0.017282898  0.016928768            2 
 1307000     0.735841   -8.0526176    271.07136  0.017283305  0.016915006            2 
 1308000   0.71650576   -8.0322748    271.28875  0.017283942  0.016901272            2 
 1309000   0.71241372   -8.0599685    271.32135  0.017272813  0.016887578            2 
 1310000   0.73642587   -8.0493698    270.93071  0.017234778  0.016873855            1 
 1311000   0.72684194   -8.0464249    271.64641  0.017267125  0.016860185            1 
 1312000   0.74111034   -8.0775681    271.48419  0.017243661  0.016846508            2 
 1313000   0.73250631   -8.0525224    270.80774  0.017187594  0.016832786            2 
 1314000    0.7369517   -8.0468302    270.75077  0.017170901  0.016819089            3 
 1315000   0.73334789   -8.0687091    271.44994  0.017202151  0.016805382            2 
 1316000   0.73103645   -8.0587885    270.99323  0.017160159  0.016791668            3 
 1317000    0.7352687   -8.0294663    271.38459  0.017171893  0.016777965            2 
 1318000    0.7383563   -8.0620327    270.83138  0.017123886   0.01676424            3 
 1319000   0.73093397   -8.0485509    270.93914  0.017117711  0.016750504            1 
 1320000   0.73201928   -8.0531693     271.0946  0.017114558  0.016736781            1 
 1321000    0.7215446   -8.0803341    270.92691  0.017091024  0.016723103            2 
 1322000   0.73103147   -8.0529817    270.88012  0.017075146  0.016709467            2 
 1323000   0.72130013   -8.0783591    270.71801  0.017052029  0.016695794            2 
 1324000   0.70786805   -8.0650348    270.65727  0.017035327  0.016682127            3 
 1325000   0.73009291   -8.0814769     271.2491  0.017059692  0.016668429            1 
 1326000   0.72544289   -8.0962343    271.14062  0.017040009    0.0166547            4 
 1327000   0.71676479   -8.0797926    271.04168  0.017020955   0.01664104            2 
 1328000   0.74702368   -8.0667848    271.66063  0.017046977  0.016627442            4 
 1329000   0.72780081   -8.0625808    271.41944  0.017019027  0.016613846            2 
 1330000   0.71622674   -8.0660131    271.41384   0.01700588  0.016600303            2 
 1331000   0.73654585   -8.0766763    271.62278  0.017006185  0.016586807            2 
 1332000   0.72017404   -8.0860826    272.29498  0.017035472  0.016573306            1 
 1333000   0.72541799   -8.0898958    272.06438  0.017008276  0.016559809            6 
 1334000   0.71718261    -8.097819    272.34021  0.017012757   0.01654636            3 
 1335000   0.71445449   -8.0964963    271.86549   0.01697038  0.016532933            5 
 1336000   0.72144872   -8.0808428    271.80627  0.016953984  0.016519512            6 
 1337000   0.71575681   -8.0826756    271.71189  0.016935421  0.016506089            2 
 1338000   0.71421986   -8.0910239    271.62651  0.016917446  0.016492609            4 
 1339000   0.71015397   -8.0992712    271.68762  0.016908614  0.016479184            2 
 1340000    0.7155264   -8.0895769    271.78988  0.016902356  0.016465756            2 
 1341000   0.71124395    -8.088976    271.91358  0.016897438  0.016452426            1 
 1342000   0.72027658   -8.1101101     271.5414  0.016861736  0.016439117            2 
 1343000   0.71044498   -8.0988029    272.15766   0.01688742  0.016425819            3 
 1344000   0.72739862   -8.0631302    272.62086  0.016903575  0.016412504            1 
 1345000   0.72628932    -8.082363    272.41746  0.016878405  0.016399228            2 
 1346000   0.71937563   -8.0781845    271.89743   0.01683367  0.016385977            2 
 1347000   0.72404236    -8.082121    271.98906  0.016826841  0.016372701            1 
 1348000   0.72498023   -8.0926856    271.93968  0.016811306  0.016359477            2 
 1349000   0.69833051   -8.0856447    272.19579  0.016814665  0.016346286            1 
 1350000   0.72397995   -8.1064238     272.4566  0.016818309  0.016333027            2 
 1351000    0.7235803    -8.134965    272.00587  0.016778057  0.016319728            3 
 1352000   0.71209655   -8.0948106    272.28616  0.016782924  0.016306432            4 
 1353000   0.71962685   -8.0777263    272.66319  0.016793742    0.0162932            2 
 1354000   0.71361864   -8.0971747    272.91883  0.016797072   0.01628003            2 
 1355000   0.69725916   -8.0968066    272.13008  0.016736167  0.016266863            2 
 1356000   0.71864323   -8.0909924    272.61718   0.01675376  0.016253722            2 
 1357000   0.71360513   -8.0724957    272.58436  0.016739398  0.016240581            3 
 1358000   0.71094936   -8.0996039    272.86428  0.016744249  0.016227464            2 
 1359000   0.70757231   -8.1232785    272.41039  0.016704096  0.016214293            3 
 1360000   0.71237685   -8.1097752    273.09703  0.016733887  0.016201093            3 
 1361000   0.70642983   -8.0828887     272.6385  0.016693516   0.01618797            1 
 1362000   0.70601284   -8.0891395    272.67452  0.016683463   0.01617484            1 
 1363000   0.71320445   -8.1140977    272.00145  0.016630071  0.016161699            1 
 1364000   0.70227288   -8.1085594    272.36262  0.016639945  0.016148615            3 
 1365000   0.69834121   -8.1252172    272.04868  0.016608588  0.016135522            1 
 1366000    0.7196074   -8.1223121    272.41533  0.016618797  0.016122412            2 
 1367000   0.70617773   -8.1021531    272.76474  0.016627941  0.016109357            3 
 1368000   0.71193496   -8.1105251    272.60303  0.016605935  0.016096291            5 
 1369000   0.70532935   -8.1297104     272.6166  0.016594631  0.016083258            2 
 1370000   0.72161159   -8.1237804    272.24183  0.016559722  0.016070209            3 
 1371000   0.70081955   -8.1393585    272.28447  0.016550235  0.016057118            3 
 1372000   0.71078868   -8.1259937    272.02785  0.016522586  0.016044102            2 
 1373000   0.71322976   -8.1179988    272.67482  0.016549819  0.016031053            4 
 1374000    0.7069091   -8.1078875    272.57868  0.016531943  0.016018065            1 
 1375000   0.69986721   -8.1313996    272.92601   0.01654097  0.016005032            2 
 1376000   0.70581647    -8.121838    272.74153  0.016517777  0.015992003            2 
 1377000   0.69157291    -8.111479    272.87902  0.016514102  0.015979032            2 
 1378000    0.7094546   -8.1440684    272.38504  0.016472245  0.015966044            1 
 1379000   0.70021164   -8.1373755    272.66321   0.01647711  0.015953058            2 
 1380000     0.710927   -8.1198639    272.66831  0.016465478  0.015940044            2 
 1381000   0.70615188   -8.1253081    272.83952  0.016463886  0.015927064            3 
 1382000   0.71235198   -8.1425675    272.11411  0.016408231  0.015914113            2 
 1383000   0.70175825   -8.1356548    272.63615  0.016427823  0.015901114            3 
 1384000    0.6963437   -8.1252752     272.6369  0.016415998  0.015888128            6 
 1385000    0.7051197   -8.1422224    272.40128  0.016389969  0.015875166            2 
 1386000   0.69993598   -8.1457646    272.81195  0.016402835  0.015862247            4 
 1387000   0.70182223   -8.1225716    272.47535  0.016370785   0.01584929            4 
 1388000   0.69901784   -8.1397531    272.37671  0.016353069  0.015836354            6 
 1389000   0.70757463    -8.129772    272.65961  0.016358268  0.015823426            3 
 1390000    0.7013886   -8.1478517    272.28385  0.016323972  0.015810491            4 
 1391000   0.69574361   -8.1284694    272.64795  0.016334049  0.015797559            2 
 1392000    0.6967316   -8.1571049    272.98509  0.016342498  0.015784646            2 
 1393000   0.69291079   -8.1317788    272.97373  0.016330087  0.015771704            2 
 1394000   0.69175475   -8.1392754    272.55314  0.016293229  0.015758758            1 
 1395000   0.69594971   -8.1325433    272.27734  0.016265074   0.01574587            5 
 1396000   0.70441771   -8.1542239    272.52564  0.016268245  0.015733015            2 
 1397000   0.68970251   -8.1352163    272.37667  0.016247713  0.015720192            5 
 1398000   0.70059374   -8.1409396    272.84038  0.016263733  0.015707318            6 
 1399000   0.68865269   -8.1175828    272.85289  0.016252853  0.015694443            2 
 1400000   0.68825932   -8.1465321    272.76133  0.016235793  0.015681592            3 
 1401000   0.68271045     -8.14558    272.28736  0.016196013  0.015668742            2 
 1402000   0.69790134   -8.1487567      272.342  0.016187708  0.015655898            3 
 1403000   0.69404776    -8.139559    272.08121   0.01616068  0.015643048            4 
 1404000   0.68812821   -8.1541935    272.58421  0.016179025  0.015630169            3 
 1405000    0.6786832   -8.1586755    271.97645  0.016131462  0.015617279            3 
 1406000   0.68653689   -8.1271043    273.04762  0.016183477  0.015604446            3 
 1407000   0.67914983   -8.1786688    272.60289  0.016145634  0.015591579            2 
 1408000   0.68699586   -8.1344391    272.47355  0.016126512  0.015578702            2 
 1409000   0.69172704   -8.1478845    272.16338  0.016096722  0.015565822            4 
 1410000      0.69053   -8.1371179    272.14961  0.016084492  0.015552962            1 
 1411000   0.70171125   -8.1588386    272.51907  0.016094913  0.015540127            2 
 1412000    0.7045786   -8.1550899    272.12075  0.016060006  0.015527299            2 
 1413000   0.67758326    -8.137625    272.57886  0.016075658  0.015514472            3 
 1414000   0.69271418   -8.1555517    272.98059  0.016087965  0.015501694            5 
 1415000   0.69615334   -8.1824282    272.70658  0.016060458  0.015488898            2 
 1416000   0.67099032   -8.1694573    272.87016  0.016058743  0.015476125            2 
 1417000   0.68675493    -8.156445    272.52726  0.016027244  0.015463366            4 
 1418000   0.69765063   -8.1906788    272.42894  0.016010163  0.015450582            4 
 1419000   0.69888557   -8.1562978    272.46756  0.016001149  0.015437819            3 
 1420000   0.68911319   -8.1608573    272.63951  0.015999971   0.01542507            2 
 1421000   0.69913435   -8.1702552    272.15228  0.015960138  0.015412352            3 
 1422000   0.68274282   -8.1789052    272.29664  0.015957375  0.015399591            6 
 1423000    0.6897598   -8.1571408     272.0621  0.015932425  0.015386853            2 
 1424000    0.6971539   -8.1677884    272.65121  0.015955712  0.015374154            2 
 1425000   0.68445501   -8.1862862    272.85554  0.015956464  0.015361431            3 
 1426000   0.69477728   -8.1831167    272.21342   0.01590775  0.015348671            1 
 1427000   0.67953621   -8.1840539     272.7139  0.015925829  0.015335949            4 
 1428000   0.69216602     -8.16021    272.64941  0.015910913  0.015323243            4 
 1429000   0.68365909   -8.1631741    272.28167  0.015878334  0.015310589            2 
 1430000   0.68681383   -8.1840455    272.83923  0.015899722  0.015297949            1 
 1431000   0.68774975   -8.1763275    272.46082  0.015866574  0.015285317            2 
 1432000   0.68568234    -8.157354    272.76528  0.015873212  0.015272681            3 
 1433000   0.68078261     -8.17526    272.70342  0.015858538  0.015260093            1 
 1434000   0.68270409   -8.2008947    272.56803  0.015839611  0.015247506            4 
 1435000   0.66952499   -8.1777151    272.56883   0.01582862  0.015234884            3 
 1436000   0.68303726   -8.1761167     272.4684  0.015811769  0.015222289            3 
 1437000   0.68572274   -8.1904463    272.38382   0.01579586  0.015209687            3 
 1438000   0.68864591   -8.1804437    272.40924  0.015786349  0.015197097            6 
 1439000    0.6873737   -8.1841933     272.8162  0.015798946  0.015184503            3 
 1440000   0.66965416    -8.192898    272.68863  0.015780592  0.015171915            2 
 1441000    0.6823289   -8.1849871    272.80886  0.015776594  0.015159312            1 
 1442000    0.6908034   -8.1798638    273.01478  0.015777553  0.015146766            1 
 1443000   0.67286061    -8.185421    272.83482  0.015756226  0.015134175            2 
 1444000   0.68839987   -8.2061414    272.20187  0.015708787  0.015121587            2 
 1445000   0.69083738   -8.1977967    272.10163  0.015692135   0.01510901            2 
 1446000   0.66566378   -8.1833665    272.51998  0.015705393  0.015096452            2 
 1447000   0.66299887   -8.2095362    272.43556  0.015689677  0.015083872            3 
 1448000   0.66970825    -8.182769    272.52463  0.015683968  0.015071331            2 
 1449000    0.6721718   -8.1760364    272.97228  0.015698889  0.015058831            2 
 1450000   0.68165453    -8.206469    272.48069   0.01565981  0.015046359            2 
 1451000   0.68494595   -8.1946964    272.22753  0.015634478  0.015033834            2 
 1452000   0.69262001   -8.2166828    272.44433  0.015636153  0.015021299            4 
 1453000   0.65982463    -8.198583    272.75724  0.015643338  0.015008794            2 
 1454000   0.67829909   -8.1815819    272.60829  0.015624042  0.014996297            6 
 1455000   0.67329866   -8.2090467    272.02506    0.0155799  0.014983836            4 
 1456000   0.67232198   -8.2001943    272.88782  0.015618579  0.014971371            1 
 1457000   0.66920068   -8.2478034    272.35638  0.015577464  0.014958913            3 
 1458000   0.68080319   -8.1993542    272.80363  0.015592343   0.01494646            3 
 1459000   0.66442243   -8.2076862     272.4622  0.015562155  0.014934027            2 
 1460000   0.68303248   -8.2187015    272.47425  0.015552183   0.01492158            2 
 1461000   0.66491587   -8.2230616    272.66904  0.015552649  0.014909162            3 
 1462000   0.67333555   -8.1950336    272.81325  0.015550231  0.014896752            2 
 1463000   0.66930929   -8.1886738    272.84723  0.015541537  0.014884361            2 
 1464000   0.66496707   -8.2137885    272.89048  0.015533383  0.014871989            3 
 1465000   0.67646718    -8.201439    272.37713   0.01549358  0.014859595            3 
 1466000   0.68581877    -8.210453    272.52309  0.015491308  0.014847231            2 
 1467000   0.65977252   -8.2432761    272.48617  0.015478651  0.014834826            2 
 1468000   0.68203315   -8.2151771    272.00763  0.015440942  0.014822446            2 
 1469000   0.66016306   -8.2111391    272.78867  0.015474737  0.014810094            6 
 1470000   0.67698607   -8.2015634    272.62025  0.015454663  0.014797718            2 
 1471000   0.66504574   -8.1975708    272.36356  0.015429615  0.014785361            2 
 1472000   0.65961425   -8.2152897    271.93952  0.015395127  0.014772994            3 
 1473000   0.65668596    -8.236859    272.66485   0.01542571  0.014760644            3 
 1474000   0.68499694   -8.2418225    272.67295  0.015415703  0.014748277            3 
 1475000   0.65561609   -8.2177356    272.35823   0.01538747  0.014735938            2 
 1476000   0.65478155   -8.2311868    271.91862  0.015352225  0.014723621            4 
 1477000   0.66892799   -8.2451829    271.82552  0.015336579  0.014711283            2 
 1478000   0.66546245   -8.2437518    272.00787  0.015336483  0.014698933            2 
 1479000   0.66283365   -8.2393565    272.12627  0.015332785  0.014686584            4 
 1480000   0.65684658   -8.2429278     271.1776  0.015269009  0.014674215            5 
 1481000   0.66611649   -8.2157707    272.22391  0.015317573  0.014661889            8 
 1482000    0.6595395   -8.2569992    271.44176  0.015263257   0.01464954            3 
 1483000   0.67039062   -8.2218012      272.053  0.015287312  0.014637215            2 
 1484000   0.66833474   -8.2256304    271.84562  0.015265365  0.014624893            3 
 1485000   0.66661495   -8.2505056    271.34952  0.015227246  0.014612585            2 
 1486000   0.65276771   -8.2520177    271.71794  0.015237659  0.014600273            1 
 1487000   0.66971375   -8.2468471     271.5241  0.015216549  0.014587958            4 
 1488000   0.64138371   -8.2527101     271.6519   0.01521348   0.01457564            3 
 1489000   0.66128444   -8.2541525    271.85989  0.015214903  0.014563363            6 
 1490000   0.66596283   -8.2585005    271.80975  0.015201887  0.014551118            3 
 1491000   0.64543612   -8.2496556    271.79524  0.015190881  0.014538882            6 
 1492000   0.65590401   -8.2350716    272.22523  0.015204716  0.014526666            2 
 1493000   0.65480284   -8.2434349    271.87445  0.015174953  0.014514453            2 
 1494000   0.65281597   -8.2560689    272.20458   0.01518321  0.014502231            5 
 1495000   0.66272712   -8.2494185    271.94989  0.015158857   0.01449002           12 
 1496000   0.65155149   -8.2289223     272.0319  0.015153292  0.014477842            5 
 1497000   0.65232965    -8.261523    271.62782  0.015120676  0.014465628            1 
 1498000   0.67271819   -8.2571089    272.17223  0.015140867   0.01445344            3 
 1499000   0.65516721   -8.2655961    272.71676  0.015161039   0.01444126            2 
 1500000   0.65560629   -8.2503744    271.82795  0.015101553  0.014429088            3 
 1501000   0.66594359   -8.2500048    271.56594  0.015076945  0.014416887            1 
 1502000   0.66099691   -8.2816154    271.40867  0.015058182  0.014404734            2 
 1503000    0.6448041    -8.254288     271.5934  0.015058406  0.014392594            3 
 1504000   0.66072315   -8.2439385    272.17056  0.015080372  0.014380467            1 
 1505000    0.6405879   -8.2710506    272.34415  0.015079964  0.014368339            2 
 1506000   0.66518814   -8.2612607    271.47732  0.015021985  0.014356222            3 
 1507000   0.65916872    -8.276325    271.61457  0.015019607  0.014344095            2 
 1508000   0.65608139   -8.2585378    271.70222  0.015014491  0.014331961            2 
 1509000   0.64507465   -8.2758451    271.97415  0.015019558  0.014319831            3 
 1510000   0.64525804   -8.2759571    271.80581   0.01500032  0.014307703            2 
 1511000    0.6510237   -8.2779168    271.49257  0.014973118  0.014295584            4 
 1512000   0.64046395   -8.2777326    271.78574  0.014979373   0.01428348            1 
 1513000   0.63409632   -8.2750847    271.88392   0.01497488  0.014271364            5 
 1514000   0.65249588   -8.2751241    272.01927  0.014972439  0.014259284            2 
 1515000   0.64338214   -8.2883936    271.89148  0.014955527   0.01424725            2 
 1516000   0.64775856   -8.2589914    271.61691  0.014930569  0.014235176            6 
 1517000   0.64067456   -8.2788799    271.78949  0.014930207  0.014223144            2 
 1518000   0.65031172   -8.3042774    271.48106   0.01490344  0.014211113            2 
 1519000   0.65199189     -8.26965    271.99083  0.014921595  0.014199138            3 
 1520000   0.64433459   -8.2732381    271.65369  0.014893295  0.014187143            2 
 1521000   0.65696895   -8.2727234     271.7612  0.014889393  0.014175155            5 
 1522000   0.64007835   -8.2773902    271.50098  0.014865363  0.014163168            1 
 1523000   0.65338936   -8.2875243    271.37831   0.01484889  0.014151191            2 
 1524000   0.66042212   -8.2870233    271.95999  0.014870953  0.014139239            1 
 1525000   0.63888111   -8.3238861    271.19636  0.014819473   0.01412726            1 
 1526000   0.66061114   -8.2903444    271.58865  0.014831185  0.014115312            4 
 1527000   0.63382901    -8.290821     271.6882  0.014826905  0.014103344            2 
 1528000   0.63439445   -8.2954319    271.30962  0.014796554  0.014091394            1 
 1529000   0.65325522   -8.3046986     271.9206  0.014820176  0.014079467           11 
 1530000   0.64367489   -8.3033906    271.15092  0.014768569  0.014067538            2 
 1531000   0.64591852   -8.3060677    271.34919  0.014769714   0.01405562            2 
 1532000   0.62397785   -8.2702464    271.61741  0.014774663  0.014043687            2 
 1533000   0.64162056   -8.3123704    270.91425  0.014726802  0.014031751            4 
 1534000   0.63439781   -8.3023529    271.25585  0.014735759  0.014019849            3 
 1535000   0.63226409    -8.293346    271.86516  0.014759238  0.014007947            3 
 1536000   0.62963154   -8.2921804    271.50264  0.014729961  0.013996068            2 
 1537000   0.64265715   -8.3172053    271.09449  0.014698248  0.013984181            2 
 1538000   0.63412067   -8.2879204    271.95176  0.014735141  0.013972312            6 
 1539000    0.6443448   -8.3092386    271.38668  0.014694968  0.013960453            3 
 1540000   0.62904657   -8.2727163    271.11218  0.014670572  0.013948597            2 
 1541000    0.6453181    -8.285868    271.25789  0.014668932  0.013936767            4 
 1542000   0.62729441   -8.2721447    271.34919  0.014664353  0.013924911            4 
 1543000   0.63819374   -8.2824458    271.72249   0.01467501  0.013913103            3 
 1544000   0.64422795   -8.2850103    271.43912  0.014650211  0.013901302            3 
 1545000   0.64530906   -8.2771059    271.45305   0.01464148  0.013889489            1 
 1546000   0.64338507   -8.3073727    270.81284  0.014597501  0.013877692            2 
 1547000    0.6284073   -8.3184865    271.09626  0.014603332  0.013865891            2 
 1548000     0.645833   -8.2760284    271.60316  0.014621186  0.013854106            5 
 1549000   0.64090336   -8.2988353     271.5185  0.014607193  0.013842357            1 
 1550000   0.63440325   -8.3019452    271.17392  0.014579243  0.013830622            3 
 1551000   0.62583362   -8.2928648    271.73002  0.014599722  0.013818893            3 
 1552000   0.63246644   -8.3007368    271.36227  0.014570569  0.013807139            3 
 1553000    0.6304377   -8.2975815    270.96746  0.014540001  0.013795406            3 
 1554000   0.62332685   -8.3017891    271.79496  0.014575019  0.013783669            3 
 1555000   0.61584892   -8.2834093    271.30789  0.014539544   0.01377194            3 
 1556000   0.63098537   -8.3157034    271.39982  0.014535123  0.013760219            5 
 1557000   0.64964249   -8.3236297    270.79053  0.014493178  0.013748514            1 
 1558000   0.63329689   -8.3197868    271.34347   0.01451345  0.013736822            4 
 1559000   0.61545729    -8.294371     271.5703  0.014516266  0.013725165            5 
 1560000   0.62484024   -8.3086393    271.53934  0.014505307  0.013713474            4 
 1561000   0.64704987   -8.3181436    271.52144  0.014495059  0.013701805            7 
 1562000   0.63398555   -8.3142936     271.5738  0.014488572  0.013690137            7 
 1563000   0.62748798   -8.3106904    271.38604  0.014469292  0.013678479            4 
 1564000   0.62759408   -8.2990257    271.60121  0.014471505   0.01366683            4 
 1565000   0.64462211   -8.2917203    271.40551  0.014451838  0.013655193            3 
 1566000   0.62303784   -8.3016392    271.47351  0.014446227  0.013643595            6 
 1567000    0.6209175   -8.2894436    271.43476  0.014434948  0.013631991            3 
 1568000   0.61341409   -8.2990643     271.3134  0.014419292  0.013620417            2 
 1569000   0.62188137   -8.3036355    271.45435  0.014417588  0.013608853            2 
 1570000   0.63939274   -8.3174351    271.33387   0.01440201  0.013597315            3 
 1571000   0.62912452   -8.3190843    271.05725  0.014378169  0.013585788            4 
 1572000   0.61911228   -8.3098356    270.67389  0.014348701  0.013574261            3 
 1573000   0.61044385    -8.296217    271.37719  0.014376838  0.013562742            5 
 1574000   0.62798599   -8.3378328     271.5262  0.014375593  0.013551234            3 
 1575000   0.62144747   -8.3096188    271.66042  0.014373567  0.013539742            3 
 1576000   0.61305691   -8.3080006    271.33805  0.014347401  0.013528275            3 
 1577000   0.62480027   -8.3175004    271.45516  0.014344491  0.013516819            4 
 1578000   0.63278337    -8.318654    270.72617  0.014296904  0.013505349            2 
 1579000    0.6255243   -8.3361448    271.41131  0.014324008  0.013493887            3 
 1580000   0.62454153   -8.3311951    270.96322  0.014291309  0.013482451            7 
 1581000   0.61648089   -8.3247659    271.48047  0.014309533  0.013471026            2 
 1582000   0.62469748   -8.3166023     271.4317  0.014297919  0.013459611            2 
 1583000   0.60980735   -8.3303066    271.52785  0.014293949  0.013448222            2 
 1584000   0.61900574   -8.3139828     271.5457  0.014285864  0.013436822            3 
 1585000   0.61165346   -8.3311838    271.49241  0.014274049  0.013425443            2 
 1586000   0.61226886   -8.3307801    271.39863  0.014260121  0.013414052            1 
 1587000   0.63175829   -8.3411756    271.09346  0.014235111  0.013402713            4 
 1588000   0.62126438   -8.3315205    271.24858  0.014234287  0.013391342            3 
 1589000   0.61166952   -8.3441616    271.37796  0.014232115  0.013379974            2 
 1590000   0.61718316   -8.3349579    271.43849  0.014226336  0.013368615            3 
 1591000   0.62436757   -8.3494408    271.32702  0.014211555  0.013357282            5 
 1592000   0.62182022   -8.3385881    271.14234  0.014192961  0.013345955            6 
 1593000   0.61175732   -8.3547733    271.78117  0.014217471  0.013334644            2 
 1594000   0.61894708   -8.3370394    271.33291  0.014185117  0.013323336            3 
 1595000   0.61806043   -8.3323753    271.47901  0.014183856  0.013312035            1 
 1596000   0.61543788   -8.3405802    271.21539  0.014161205  0.013300765            2 
 1597000   0.62021711   -8.3431351    270.85325   0.01413344  0.013289492            3 
 1598000   0.61184638   -8.3263347    271.57745  0.014162362  0.013278221            2 
 1599000   0.61894371   -8.3393959    271.52613   0.01415083  0.013266991            3 
 1600000   0.62152134   -8.3343082    271.15248  0.014122525  0.013255774            3 
 1601000   0.60899982    -8.342988    271.21366  0.014116889   0.01324455            4 
 1602000   0.62344703   -8.3417463    271.46763  0.014121288  0.013233334            4 
 1603000   0.61789505   -8.3565058     271.5816  0.014118403  0.013222113            6 
 1604000   0.60196318   -8.3517441    271.06669  0.014082849  0.013210897            3 
 1605000   0.61161888   -8.3647528    271.36193  0.014089404  0.013199703            4 
 1606000    0.6034605   -8.3601677    271.33926  0.014079455   0.01318851            3 
 1607000   0.59438771   -8.3466119     271.2643  0.014066807  0.013177309            4 
 1608000   0.61548322   -8.3648875    270.85145  0.014036663  0.013166116            3 
 1609000   0.61073407    -8.360658    270.78434  0.014024463  0.013154942            3 
 1610000   0.60059683   -8.3424027    271.32922  0.014043956  0.013143767            2 
 1611000   0.62065224    -8.349662    271.34699  0.014036157   0.01313263            3 
 1612000   0.61268648   -8.3701623    271.32266  0.014026192   0.01312147            5 
 1613000   0.60759002   -8.3603545    270.87188  0.013994207  0.013110328            2 
 1614000   0.60230454   -8.3714994     271.0697  0.013995751  0.013099197            4 
 1615000   0.59858186   -8.3776545     271.4047  0.014004371  0.013088082            1 
 1616000   0.62169648   -8.3278526    271.13435  0.013981763  0.013076983            5 
 1617000   0.62029945   -8.3721667    270.81287  0.013956549  0.013065889            2 
 1618000   0.60267667   -8.3718866     271.0276  0.013958982   0.01305481            3 
 1619000   0.61354826   -8.3663616    271.83635  0.013991988  0.013043743            3 
 1620000   0.60802787   -8.3578018    271.42731   0.01396231  0.013032689            2 
 1621000   0.60715666   -8.3676402    270.58129  0.013910204  0.013021637            2 
 1622000   0.60107789    -8.375726    271.37679  0.013942499    0.0130106            4 
 1623000   0.61298729    -8.358887     270.7902  0.013903789   0.01299957            3 
 1624000   0.59940752   -8.3574582    271.49308  0.013931295  0.012988523            4 
 1625000   0.60742643   -8.3620099    270.90985  0.013892813  0.012977498            3 
 1626000   0.59751196   -8.3734297    271.10167    0.0138941  0.012966486            1 
 1627000   0.60313175   -8.3608358    271.54211  0.013908119   0.01295548            4 
 1628000   0.59825703   -8.3894663     270.4663  0.013844507  0.012944483            4 
 1629000   0.61376129   -8.3938962    271.05375   0.01386606  0.012933481            3 
 1630000   0.60614324   -8.3790957    271.18601  0.013864315  0.012922502            3 
 1631000   0.61017569   -8.3794636    271.12326  0.013852609  0.012911526            5 
 1632000   0.59119876   -8.3766362    270.67032  0.013820993  0.012900558            3 
 1633000   0.61358121   -8.3727607    271.07788  0.013833327  0.012889594            3 
 1634000   0.57845679   -8.3868409     271.1279  0.013827412   0.01287865            2 
 1635000   0.60626714   -8.3739794     270.5612  0.013790072  0.012867715            4 
 1636000   0.59850348   -8.3669941    271.28782  0.013818654    0.0128568            3 
 1637000   0.60294682   -8.3808701      270.788  0.013784769  0.012845888            3 
 1638000   0.60559968   -8.3762114    270.95278  0.013784737  0.012835001            3 
 1639000   0.58459952   -8.3686198    270.26667  0.013741441   0.01282411            4 
 1640000   0.59949552    -8.397303    270.85249   0.01376283  0.012813222            5 
 1641000   0.60253979   -8.3719951    271.21327  0.013772764  0.012802356            2 
 1642000   0.59405454   -8.3784708    270.66731  0.013736668    0.0127915            3 
 1643000   0.60127359   -8.3847126    270.27284    0.0137083  0.012780651            3 
 1644000   0.59633504   -8.3824267    271.02094  0.013737882  0.012769811            2 
 1645000   0.58529337   -8.3800574    270.82287  0.013719497  0.012758977            4 
 1646000   0.60247172   -8.4021412    270.64903  0.013702361  0.012748135            2 
 1647000   0.58960796   -8.3836056    271.13671  0.013718716  0.012737299            3 
 1648000   0.60494542   -8.3811158    270.82796   0.01369478  0.012726483            3 
 1649000   0.58479092   -8.3801515    270.76714  0.013683401   0.01271567            4 
 1650000   0.57953458    -8.377482    270.93577  0.013683625  0.012704867            4 
 1651000   0.58335529   -8.3984082    271.11257   0.01368426  0.012694097            2 
 1652000    0.6056911   -8.3787803      271.121  0.013676402  0.012683308            4 
 1653000   0.59255883   -8.3813053    270.66456  0.013645118  0.012672529            5 
 1654000   0.59277586    -8.377445    271.08279   0.01365794  0.012661769            4 
 1655000   0.59522322   -8.3789029    270.30902  0.013610726  0.012651029            6 
 1656000   0.59616508   -8.3980177    270.66027  0.013620183  0.012640285            3 
 1657000   0.58580434   -8.3966288    270.94703  0.013626385  0.012629555            4 
 1658000   0.58764071   -8.3743137    270.38904  0.013590121   0.01261884            1 
 1659000   0.60252885   -8.3893028     270.7599  0.013600557  0.012608138            4 
 1660000   0.59269086    -8.415594    270.50848  0.013579743  0.012597438            2 
 1661000   0.60680268   -8.4095349    270.53867  0.013573082  0.012586755            3 
 1662000   0.58919507   -8.3960759    270.40315   0.01355812  0.012576049            2 
 1663000   0.58872809   -8.3869803    270.38819  0.013549218  0.012565374            2 
 1664000   0.59676829   -8.4084497    270.34957  0.013539141  0.012554707            4 
 1665000   0.59345714    -8.406823    270.37857  0.013532461  0.012544041            3 
 1666000   0.58228225   -8.4174571    271.06786  0.013558817  0.012533402            3 
 1667000   0.58659867   -8.4176549    270.10007  0.013502303   0.01252276            2 
 1668000   0.58950912   -8.3937133    270.73039  0.013525699  0.012512154            3 
 1669000   0.58380147   -8.3914089    270.55402  0.013508789  0.012501538            3 
 1670000   0.58249358   -8.4293961     270.6518  0.013505579  0.012490923            1 
 1671000   0.58529351   -8.4138128    270.34474  0.013482183  0.012480334            4 
 1672000   0.57653219   -8.4122743    270.51304  0.013482508  0.012469739            2 
 1673000   0.58538912    -8.418087    270.31067  0.013464369   0.01245917            2 
 1674000   0.59515396   -8.4265022    270.18996  0.013450317  0.012448603            4 
 1675000   0.58656451   -8.4113565     270.4915  0.013457289   0.01243804            2 
 1676000   0.58481628   -8.4028026    270.58416  0.013453867  0.012427498            3 
 1677000   0.58468242    -8.401569    270.32432  0.013432932  0.012416962            3 
 1678000    0.5728515   -8.4228019     270.7221  0.013444681  0.012406447            4 
 1679000   0.58555386   -8.4157707    270.45829   0.01342358  0.012395935            2 
 1680000   0.57386372   -8.4098665    270.21443  0.013403493  0.012385425            3 
 1681000   0.59224838   -8.4203389      270.924  0.013430696  0.012374938            3 
 1682000    0.5991284   -8.4384793    270.91584  0.013422307  0.012364466            4 
 1683000   0.56858861   -8.4298671     270.8312  0.013410141  0.012354006            4 
 1684000   0.58680027   -8.4127672    270.51758  0.013386658  0.012343557            3 
 1685000    0.5872239   -8.4023538    270.75995    0.0133907  0.012333095            7 
 1686000    0.5789882   -8.4289033    270.42292  0.013366099  0.012322651            4 
 1687000   0.57411928   -8.4318126    270.41342  0.013357707   0.01231222            2 
 1688000   0.59235923   -8.4122449    270.32729  0.013345542  0.012301798            4 
 1689000   0.57931068   -8.4046438    270.08095  0.013325486  0.012291383            2 
 1690000   0.58091677   -8.4183217    270.47229  0.013336898  0.012280974            9 
 1691000   0.57767552   -8.4115126    270.48352  0.013329564  0.012270575            3 
 1692000   0.57213392   -8.4254657    270.68199  0.013331461   0.01226018            3 
 1693000   0.57637182   -8.4073405    270.43077  0.013311221  0.012249813            3 
 1694000   0.57028534   -8.3938125    271.20627  0.013341513  0.012239443            2 
 1695000   0.58599618   -8.4354163    270.31151  0.013289651  0.012229076            2 
 1696000   0.57995668   -8.4259968     270.5389  0.013292988  0.012218723            5 
 1697000   0.57866684   -8.4188751    270.46278  0.013281417  0.012208377            4 
 1698000   0.57637265   -8.4297179    270.35813  0.013268459  0.012198053            4 
 1699000   0.57505228   -8.4148433     270.5377  0.013269458  0.012187736            3 
 1700000   0.57306928   -8.4234139    270.47898  0.013258773  0.012177432            3 
 1701000   0.57330267    -8.418105    270.71247  0.013262418  0.012167143            2 
 1702000   0.57220948   -8.4435404    270.58631  0.013248448  0.012156848            2 
 1703000   0.56746595    -8.432301    270.36124  0.013229656  0.012146546            1 
 1704000   0.57504064   -8.4390321    269.73145  0.013191092   0.01213625            1 
 1705000   0.58993283   -8.4333283    270.11546  0.013202124  0.012125976            2 
 1706000   0.57365475   -8.4353993    270.69851  0.013222866  0.012115723            3 
 1707000   0.57409409   -8.4371655    270.19925  0.013190747  0.012105464            2 
 1708000   0.58096504   -8.4399462    270.13319  0.013179801  0.012095209            1 
 1709000   0.57399641   -8.4297559    270.34638  0.013182484  0.012084972            2 
 1710000   0.55096183   -8.4558844    269.94191  0.013155064  0.012074729            2 
 1711000    0.5812734   -8.4612272    270.20615  0.013160245  0.012064481            2 
 1712000    0.5715025   -8.4395293    270.04368   0.01314465  0.012054271            3 
 1713000   0.57170909   -8.4538507    269.90141  0.013130055  0.012044062            2 
 1714000   0.56479766   -8.4518573    270.04187  0.013129223  0.012033856            2 
 1715000   0.58434052   -8.4543546    269.85167  0.013112326   0.01202366            3 
 1716000   0.57092656   -8.4582057    269.83837  0.013104039  0.012013474            2 
 1717000   0.57429719    -8.460694    269.77991  0.013093569  0.012003297            2 
 1718000   0.56334841    -8.460455    269.91499    0.0130925  0.011993124            3 
 1719000   0.56723751   -8.4543397    270.09538  0.013093629  0.011982951            2 
 1720000   0.57093649   -8.4455319    270.29164  0.013095525  0.011972791            2 
 1721000   0.56180573   -8.4798336    269.63136  0.013055944  0.011962642            4 
 1722000   0.56248855   -8.4597037    270.29841  0.013080643  0.011952501            2 
 1723000   0.55893941   -8.4621783    270.08311  0.013062638  0.011942387            4 
 1724000   0.56676035     -8.44959    269.79649  0.013041207  0.011932291            3 
 1725000   0.57338458   -8.4578202    269.81386  0.013034486  0.011922197            2 
 1726000   0.55715924   -8.4574205    269.99815  0.013035832  0.011912102            2 
 1727000   0.56110728   -8.4601242    269.95416  0.013026161  0.011902025            1 
 1728000   0.56381381   -8.4630501    270.35283  0.013037849  0.011891962            3 
 1729000   0.56659058   -8.4764617    270.27081  0.013026355  0.011881919            1 
 1730000   0.55704301   -8.4373156    270.23355   0.01301703  0.011871893            2 
 1731000    0.5629015   -8.4602458    269.95115  0.012995915  0.011861869            4 
 1732000   0.56109821    -8.473636    270.11986  0.012996529  0.011851856            2 
 1733000   0.56515421   -8.4519527    270.06705   0.01298649  0.011841837            2 
 1734000   0.56206091   -8.4716888    269.90269  0.012971102  0.011831835            2 
 1735000   0.56504335   -8.4648101    269.95934  0.012966347  0.011821855            3 
 1736000   0.55845042   -8.4467855    270.19704  0.012970288  0.011811877            6 
 1737000   0.54308953   -8.4671271    270.22507  0.012964166   0.01180192            2 
 1738000   0.56820003     -8.47062    269.77157  0.012934962  0.011791971            3 
 1739000   0.55336547   -8.4598149    270.14369  0.012945356  0.011782022            3 
 1740000   0.54727162   -8.4592618    269.90925  0.012926688  0.011772066            3 
 1741000   0.57093989   -8.4733122    269.91397  0.012919489  0.011762125            2 
 1742000   0.55858941    -8.463825    269.87283  0.012910105  0.011752192            1 
 1743000   0.56551896   -8.4611756    269.63945   0.01289154   0.01174227            2 
 1744000   0.55667979   -8.4588842     270.1669  0.012909351   0.01173237            6 
 1745000   0.56058883   -8.4645749    269.92281  0.012890297   0.01172246            2 
 1746000   0.55410864   -8.4691049    269.57709  0.012866413  0.011712565            2 
 1747000   0.56208847   -8.4677464     269.3609  0.012848736  0.011702683            3 
 1748000   0.55845236   -8.4619187    269.71141  0.012858095  0.011692814            3 
 1749000   0.54468989   -8.4864771    269.62364  0.012846562  0.011682937            4 
 1750000   0.56320332   -8.4594869    269.61942   0.01283902  0.011673065            4 
 1751000   0.55250918   -8.4697655    270.17222  0.012857997  0.011663204            2 
 1752000   0.54280757   -8.4823617    269.74558  0.012830364  0.011653354            3 
 1753000   0.55689874   -8.4734282    269.96847  0.012833641  0.011643528            3 
 1754000   0.55302738   -8.4663848    269.62161  0.012809845  0.011633707            2 
 1755000   0.55257408   -8.4859436    269.74235  0.012808279  0.011623884            2 
 1756000   0.56564097   -8.4718615     269.6054  0.012794486   0.01161408            2 
 1757000   0.55821237   -8.4878884    269.42251  0.012778529  0.011604287            3 
 1758000   0.54802144   -8.4783891      269.374  0.012768961  0.011594497            2 
 1759000   0.54846271   -8.4956636    269.97445  0.012790148  0.011584719            2 
 1760000   0.54693162   -8.4861201    269.52986   0.01276183  0.011574941            2 
 1761000   0.54670525   -8.4752767    269.43454  0.012750073  0.011565168            2 
 1762000   0.55261156   -8.4754409    269.74829  0.012757675  0.011555419            3 
 1763000   0.54494766    -8.506842    269.88133  0.012756728  0.011545688            3 
 1764000     0.544424   -8.4755254     269.1965  0.012717144  0.011535974            3 
 1765000   0.54558408   -8.4891731    269.90752  0.012743509  0.011526254            1 
 1766000   0.56027881   -8.4733279     270.1471  0.012747598  0.011516559            1 
 1767000   0.53088364   -8.4981276    269.96445   0.01273177  0.011506868            2 
 1768000   0.53980188    -8.488073    269.64722  0.012709616   0.01149718            2 
 1769000   0.54213966   -8.4816177    269.45807  0.012693521  0.011487506            1 
 1770000   0.53661117   -8.4817577    269.59206  0.012692658  0.011477832            1 
 1771000   0.54703277   -8.4996462    269.39884    0.0126764   0.01146815            4 
 1772000   0.55042482   -8.4734319    269.89776  0.012692709  0.011458494            1 
 1773000     0.538716   -8.5074196    269.74458   0.01267835  0.011448852            2 
 1774000   0.54370619   -8.4964926    270.04755  0.012685436  0.011439222            2 
 1775000   0.54780062   -8.4663014    269.67975  0.012661021  0.011429609            1 
 1776000   0.53547077   -8.4873271    269.48649  0.012644824  0.011419993            2 
 1777000   0.53809503   -8.4896045    269.59476  0.012642786  0.011410391            7 
 1778000   0.55389555   -8.5070011    269.33208  0.012623363  0.011400804            1 
 1779000    0.5337087   -8.4836113    269.44069  0.012621355   0.01139122            4 
 1780000   0.53856456   -8.4889379    269.54311   0.01261906  0.011381647            3 
 1781000   0.53506837   -8.4887904    269.82218  0.012625032   0.01137209            3 
 1782000   0.54669371   -8.4839931    269.47203  0.012601573  0.011362527            5 
 1783000   0.54724261   -8.5095429    269.10174  0.012577198  0.011352975            7 
 1784000   0.54646608   -8.5022119    269.51371  0.012589392  0.011343434            3 
 1785000   0.52904812   -8.4919654    269.78688  0.012595092  0.011333907            2 
 1786000   0.53777052   -8.5142153     269.5588  0.012577398  0.011324404            2 
 1787000   0.54206497   -8.5109515    269.86532  0.012584654  0.011314902            2 
 1788000   0.53461292   -8.4969228    269.68588  0.012569252  0.011305417            5 
 1789000   0.54041973    -8.496796    269.76893  0.012566095  0.011295931            2 
 1790000   0.54972962   -8.4957091    269.30411  0.012537435  0.011286459            2 
 1791000   0.52695497   -8.5095352    269.61055  0.012544693     0.011277            1 
 1792000   0.54283811   -8.4897933    269.06153  0.012512162  0.011267542            3 
 1793000    0.5231156   -8.4958831    269.27866  0.012515275  0.011258086            3 
 1794000   0.54253888   -8.4908363    269.11522  0.012500707  0.011248642            3 
 1795000   0.52814936     -8.50328    269.40124  0.012507021  0.011239203            2 
 1796000   0.53618202   -8.4899115    269.21589  0.012491458  0.011229775            2 
 1797000   0.54382141   -8.4884164    269.56874  0.012500869  0.011220358            1 
 1798000   0.53793386   -8.5107922    269.63716  0.012497088  0.011210957            2 
 1799000   0.53751076   -8.4929048    269.78481   0.01249698  0.011201562            3 
 1800000   0.53990518   -8.5317015    269.38173  0.012471376  0.011192161            2 
 1801000   0.53749085   -8.5064889    269.16351  0.012454355  0.011182774            2 
 1802000     0.539096    -8.499146    269.39579  0.012458185  0.011173396            1 
 1803000   0.53217882   -8.5280342     269.4801  0.012455172  0.011164021            4 
 1804000   0.54183946   -8.5207655    269.47008  0.012447805  0.011154646            2 
 1805000   0.53689992   -8.5035628    269.13876  0.012425612  0.011145286            2 
 1806000   0.53552391   -8.5362089    269.15428  0.012419448  0.011135946            2 
 1807000   0.52143395   -8.5105752    269.14488  0.012412142  0.011126605            2 
 1808000   0.53993637   -8.5084712    269.44747  0.012419223  0.011117276            2 
 1809000   0.53717493   -8.5045123    269.55158  0.012417154  0.011107968            2 
 1810000   0.53067947   -8.5258873    269.29164  0.012398326  0.011098657            4 
 1811000   0.53737368   -8.5237574    269.25234  0.012389671  0.011089357            4 
 1812000   0.53595636   -8.5224006    269.02857  0.012372543   0.01108006            2 
 1813000   0.53785083   -8.5252114    269.42167  0.012383787  0.011070781            4 
 1814000   0.52895371   -8.5158949    269.37237  0.012374695  0.011061515            2 
 1815000   0.53921732   -8.5280675    269.17076  0.012358621  0.011052248            6 
 1816000   0.52876589   -8.5387967    269.30212  0.012357843     0.011043            5 
 1817000   0.53407527   -8.5245825    269.33914   0.01235274  0.011033743            2 
 1818000   0.53143311   -8.5386893    269.44372  0.012350739   0.01102451            4 
 1819000   0.51940163   -8.5103377     269.1755  0.012331661  0.011015299            1 
 1820000   0.52624543   -8.5235649    269.80962   0.01235392  0.011006087            2 
 1821000   0.52733508   -8.5172896    269.06353  0.012312993  0.010996879            5 
 1822000   0.52486007   -8.5209621    269.40085  0.012321663  0.010987679            4 
 1823000   0.53526251   -8.5312095    269.00281  0.012296709  0.010978499            3 
 1824000   0.52930581   -8.5272665    269.29163  0.012303163   0.01096933            2 
 1825000   0.51527124   -8.5296492    268.90463   0.01227875  0.010960151            2 
 1826000    0.5200098   -8.5324087    269.43005  0.012296004  0.010950991            2 
 1827000   0.52506396   -8.5234365    269.43019  0.012289281  0.010941828            2 
 1828000   0.52550053   -8.5273886    268.88655  0.012257775  0.010932701            1 
 1829000   0.51715892   -8.5410671    269.20908  0.012265768  0.010923572            3 
 1830000    0.5368932   -8.5519725    269.02083  0.012250493   0.01091445            1 
 1831000   0.51235498   -8.5258816    269.03499  0.012244447  0.010905334            2 
 1832000   0.52481427   -8.5134624    269.40588  0.012254634   0.01089623            1 
 1833000   0.52398833   -8.5495882    269.49184  0.012251857  0.010887143            3 
 1834000   0.52257491   -8.5306746    268.71325  0.012209798  0.010878056            2 
 1835000   0.52871966   -8.5374476    268.74651  0.012204655  0.010868979            3 
 1836000   0.52806618   -8.5413765    269.02774  0.012210772   0.01085992            2 
 1837000   0.52265287   -8.5360559    268.71944   0.01219014  0.010850867            2 
 1838000    0.5135074   -8.5291287    269.37548  0.012213251  0.010841827            3 
 1839000   0.51970496   -8.5268087    269.03603  0.012191228  0.010832791            3 
 1840000   0.52025286   -8.5371515    269.56819  0.012208704  0.010823775            3 
 1841000   0.51895412   -8.5321023    269.02179   0.01217734  0.010814769            3 
 1842000   0.51389661   -8.5508381    268.78614  0.012160068  0.010805746            3 
 1843000   0.51954571   -8.5346416    269.09196  0.012167298  0.010796739            2 
 1844000   0.51543885    -8.540112     268.7393  0.012144762  0.010787743            2 
 1845000   0.51558397   -8.5375792    269.22903  0.012160299  0.010778757            1 
 1846000   0.51362039   -8.5304248    268.50182  0.012120884  0.010769777            2 
 1847000   0.51691963   -8.5211397    268.97791  0.012135802   0.01076081            1 
 1848000   0.49975531    -8.524829    269.06399  0.012133116  0.010751844            2 
 1849000   0.50015981   -8.5359221    268.87702  0.012118128  0.010742894            2 
 1850000   0.51355372   -8.5062427    269.14874  0.012123817  0.010733966            3 
 1851000    0.5127216   -8.5260759    269.18166  0.012118749  0.010725039            1 
 1852000   0.51918889   -8.5257862    269.14141  0.012110394  0.010716121            2 
 1853000   0.51088155   -8.5361712    269.18179  0.012105675  0.010707216            6 
 1854000   0.51604954   -8.5505611    268.68184  0.012076674  0.010698317            1 
 1855000   0.51419456   -8.5360627    268.59655  0.012066332  0.010689424            2 
 1856000   0.51231791   -8.5424263    268.90983  0.012073897  0.010680534            1 
 1857000   0.51387747   -8.5448988    268.86374  0.012065327  0.010671651            2 
 1858000    0.5042182   -8.5453771    268.97047   0.01206362  0.010662784            2 
 1859000   0.51414543   -8.5602529    268.82988  0.012050828  0.010653916            3 
 1860000   0.51861937   -8.5571878    269.13652  0.012058088  0.010645058            2 
 1861000   0.51520961   -8.5343978    268.49451   0.01202286  0.010636214            1 
 1862000    0.5140134   -8.5366716    268.71147  0.012026113  0.010627376            2 
 1863000   0.52410144    -8.562093    268.82873  0.012024903  0.010618545            2 
 1864000   0.50777654   -8.5511981    268.98474  0.012025426  0.010609724            2 
 1865000   0.51467932   -8.5240084    269.20047  0.012028618  0.010600924            2 
 1866000   0.50165577   -8.5576404    268.79075  0.012003874  0.010592122            2 
 1867000   0.51805715   -8.5361907    268.74294  0.011995311  0.010583339            2 
 1868000   0.49331776   -8.5319628    269.15889  0.012007445  0.010574559            2 
 1869000   0.51041585   -8.5551044    268.85528  0.011987483  0.010565787            6 
 1870000   0.49761069   -8.5515782    268.91102  0.011983557  0.010557017            3 
 1871000   0.50546131    -8.565513    268.34731  0.011952045  0.010548254            1 
 1872000   0.50358888   -8.5565608    268.95942  0.011972909  0.010539499            3 
 1873000   0.50456076    -8.555289    269.03713  0.011969974  0.010530748            2 
 1874000   0.50946939   -8.5665431    268.31253  0.011931365  0.010522004            1 
 1875000   0.50599805   -8.5417511    268.49763  0.011933228   0.01051327            1 
 1876000   0.50422298   -8.5593709    268.78469  0.011939619  0.010504544            3 
 1877000   0.51136851   -8.5659878    268.22283  0.011908312  0.010495825            2 
 1878000   0.51582769    -8.560743    268.43868  0.011911549  0.010487115            2 
 1879000   0.50919065   -8.5642656    268.77627  0.011920182  0.010478422            1 
 1880000   0.49791377   -8.5655417    268.76553  0.011913366   0.01046973            2 
 1881000   0.49619639    -8.575009    268.70262  0.011904245  0.010461042            1 
 1882000   0.50605365    -8.567776    269.09212  0.011915166  0.010452374            2 
 1883000   0.49354061   -8.5621275    269.09406  0.011908924  0.010443713            2 
 1884000   0.50341084    -8.546325    268.36406  0.011870314  0.010435056            5 
 1885000   0.50139627   -8.5819916    268.36814  0.011864197  0.010426414            2 
 1886000   0.50290563   -8.5596696    268.60186  0.011868234  0.010417777            3 
 1887000   0.50650367   -8.5790766    268.93251  0.011876546  0.010409144            2 
 1888000   0.50271836   -8.5686319    268.51239  0.011851712  0.010400534            2 
 1889000   0.49828825    -8.572201    268.79822  0.011858047  0.010391915            2 
 1890000    0.4988892   -8.5590385    268.55923  0.011841236  0.010383311            3 
 1891000   0.50711033   -8.5413527    268.49364  0.011832084  0.010374716            2 
 1892000    0.5038501   -8.5788197    268.54078  0.011827906  0.010366129            2 
 1893000   0.49381805   -8.5667686    269.01704  0.011842624  0.010357562            4 
 1894000   0.49365098   -8.5590512    268.70713  0.011822735  0.010348995            3 
 1895000   0.49432717    -8.561092    268.81592  0.011821281  0.010340443            2 
 1896000   0.50004041   -8.5636524    268.42434  0.011797835  0.010331884            4 
 1897000   0.49152331   -8.5682156      268.582  0.011798542  0.010323343            2 
 1898000   0.50024138    -8.570813    268.95308  0.011808618   0.01031481            2 
 1899000   0.49512505   -8.5843775     268.6693  0.011789947  0.010306284            2 
 1900000    0.4998701   -8.5746474    268.51602  0.011777019  0.010297772            3 
 1901000   0.49724422   -8.5811813    268.48705  0.011769553   0.01028927            3 
 1902000   0.49899224   -8.5557249    268.50973  0.011764359  0.010280778            2 
 1903000   0.48854844   -8.5674829    268.43926  0.011755091  0.010272296            2 
 1904000   0.49164022   -8.5795517    267.94346  0.011727217  0.010263818            2 
 1905000   0.49097523   -8.5648981    268.21282  0.011732844  0.010255342            2 
 1906000   0.48867907   -8.5742735    268.20038  0.011726145  0.010246891            1 
 1907000   0.49322209    -8.572605    268.47031  0.011731791  0.010238447            2 
 1908000   0.49883632   -8.5768258    268.42748  0.011723772   0.01023001            3 
 1909000   0.48750324   -8.5836576    268.73019  0.011730845  0.010221578            2 
 1910000   0.49999764   -8.5857419    268.54136  0.011716464  0.010213157            2 
 1911000   0.48947924   -8.5809702    268.79383  0.011721343  0.010204736            4 
 1912000   0.49703874   -8.5979181     268.6189  0.011707588  0.010196327            1 
 1913000   0.48512658   -8.5799281    268.45523  0.011694338  0.010187927            1 
 1914000    0.4873523   -8.5982292    268.48008   0.01168931  0.010179538            2 
 1915000   0.48906988   -8.5961775    268.54954  0.011686229  0.010171152            2 
 1916000   0.48834412   -8.5746519      268.425  0.011674713  0.010162773            2 
 1917000   0.48864817   -8.5942449    268.34173  0.011665003  0.010154409            1 
 1918000   0.48250917   -8.5968183    268.42954  0.011662737   0.01014605            2 
 1919000   0.47569182   -8.5853323    268.36556   0.01165388  0.010137701            2 
 1920000   0.48278783    -8.593215    268.50422  0.011653829  0.010129361            1 
 1921000   0.48262528   -8.5885296    268.49813  0.011647498  0.010121026            2 
 1922000   0.48989019   -8.5867157    268.10089  0.011624215  0.010112696            2 
 1923000   0.47516352   -8.5913514    267.95033  0.011611645  0.010104365            2 
 1924000   0.48967334   -8.5865216    268.57069  0.011632479   0.01009605            3 
 1925000   0.47670983     -8.59405    267.89463   0.01159717  0.010087739            2 
 1926000   0.48520318   -8.5855094    268.23753  0.011605985  0.010079435            1 
 1927000   0.48084171   -8.5896587    268.19323  0.011598046  0.010071142            3 
 1928000   0.48503407   -8.6033964     267.9213  0.011580277  0.010062863            1 
 1929000   0.48328644   -8.5976735    268.08753  0.011581455  0.010054588            2 
 1930000   0.49080627    -8.590426    268.01644  0.011572385  0.010046329            2 
 1931000   0.48568046   -8.5990185    268.04195  0.011567493  0.010038072            2 
 1932000   0.48440463   -8.6019883      268.316  0.011573326  0.010029822            2 
 1933000   0.48785711   -8.5881812     268.4131  0.011571525  0.010021582            2 
 1934000   0.47737678   -8.5923476    267.96165   0.01154609   0.01001335            1 
 1935000   0.48273148   -8.6050442    268.08388  0.011545387  0.010005131            2 
 1936000   0.47790148    -8.588937    268.30491  0.011548937 0.0099969228            6 
 1937000   0.48314379   -8.6254233    268.24878   0.01154056 0.0099887252            1 
 1938000   0.48883527   -8.6066286    268.20659  0.011532791 0.0099805379            2 
 1939000   0.47877474   -8.6048232     267.9937  0.011517694   0.00997235            1 
 1940000   0.47249038   -8.5969972    268.23992  0.011522333 0.0099641785            1 
 1941000   0.48104959   -8.5929322    267.99443  0.011505857 0.0099560111            3 
 1942000   0.46414864   -8.5974645    268.33347  0.011514481 0.0099478541            2 
 1943000   0.48279593   -8.5989777    267.97074  0.011492998 0.0099397012            2 
 1944000   0.47226241   -8.6018778    268.21037  0.011497358 0.0099315564            2 
 1945000   0.46227254   -8.6047048    268.12692  0.011487871 0.0099234237            2 
 1946000   0.46920198   -8.6175074    268.01834  0.011477319 0.0099152904            2 
 1947000   0.48516554   -8.6040441    268.11354  0.011475498 0.0099071695            4 
 1948000   0.47338065   -8.6143752    267.99732  0.011464635 0.0098990586            2 
 1949000   0.46477208    -8.603796     267.7611  0.011448653 0.0098909577            2 
 1950000   0.47494668   -8.6289061    268.18474  0.011460886  0.009882864            2 
 1951000   0.47042645   -8.5951496    268.17122  0.011454434 0.0098747758            2 
 1952000   0.48164568   -8.6113581    268.10767  0.011445853 0.0098666917            4 
 1953000    0.4753218   -8.6228777    268.27591  0.011447172 0.0098586135            3 
 1954000    0.4759809   -8.6053301    268.16851  0.011436733 0.0098505556            3 
 1955000   0.47328509   -8.6056112    268.36263  0.011439157  0.009842497            3 
 1956000   0.46926538   -8.5917313    267.93358   0.01141503 0.0098344594            3 
 1957000    0.4696306   -8.6160827    267.76533  0.011402032  0.009826412            3 
 1958000   0.46774146   -8.6008662    268.17191  0.011413513 0.0098183782            2 
 1959000   0.47659687   -8.6004068     268.1087  0.011404998 0.0098103565            2 
 1960000   0.47495517     -8.60519    268.07705  0.011397834 0.0098023488            2 
 1961000   0.46890591   -8.6269522    268.09749   0.01139289 0.0097943385            1 
 1962000   0.46717909   -8.6071921    268.11467  0.011387813 0.0097863402            2 
 1963000   0.46810413   -8.6141229    267.71596  0.011365086 0.0097783423            2 
 1964000   0.47274204   -8.6153196    267.72684  0.011359761 0.0097703558            6 
 1965000    0.4718481   -8.6213988     268.1539  0.011372091 0.0097623772            1 
 1966000   0.46441956   -8.6301603    268.25196  0.011370463 0.0097544045            2 
 1967000   0.46627857   -8.6122707    268.07695  0.011357268 0.0097464424            2 
 1968000   0.47042603   -8.6189074    268.00491  0.011348446   0.00973849            2 
 1969000   0.45780791   -8.6129548    268.03597  0.011343997 0.0097305476            1 
 1970000   0.47025737   -8.6211338    267.88079  0.011331675 0.0097226079            1 
 1971000   0.45581471    -8.618796     268.0225  0.011331917 0.0097146736            1 
 1972000   0.46323517   -8.6038952    267.87014  0.011319732 0.0097067471            3 
 1973000   0.45741516   -8.6102674    267.75648  0.011309194 0.0096988281            2 
 1974000   0.46958789   -8.6147969    267.86967  0.011308243 0.0096909156            3 
 1975000   0.47959349    -8.610654    267.80929   0.01129997 0.0096830069            2 
 1976000   0.47141012   -8.6220423    268.04896  0.011304359 0.0096751085            4 
 1977000   0.45962253   -8.6289829    267.81823  0.011288915 0.0096672174            4 
 1978000   0.46195227   -8.6087922    267.53274  0.011271181 0.0096593415            2 
 1979000   0.45811603   -8.6191662    267.41201  0.011260401 0.0096514746            3 
 1980000   0.45756559   -8.6290188    267.78677  0.011270487 0.0096436151            2 
 1981000   0.45626794   -8.6257716    267.79464  0.011265129 0.0096357615            1 
 1982000   0.46479022   -8.6347687    267.66681   0.01125407 0.0096279184            2 
 1983000    0.4593928   -8.6224435    267.88218  0.011257446 0.0096200775            2 
 1984000   0.46591455   -8.6143672    267.84854  0.011250359  0.009612252            2 
 1985000   0.46924499   -8.6358549    267.68468  0.011237812 0.0096044308            3 
 1986000   0.46187311   -8.6234687    267.63176  0.011229933 0.0095966145            4 
 1987000   0.46047499   -8.6344618    267.44243  0.011216341 0.0095888077            1 
 1988000   0.46603857   -8.6324199    268.06134  0.011236642 0.0095810135            2 
 1989000   0.45663902   -8.6359105    267.90603  0.011224486 0.0095732286            2 
 1990000   0.45431524   -8.6166846    267.33766  0.011195044 0.0095654488            2 
 1991000   0.45544075   -8.6279833    267.68682  0.011204036 0.0095576749            1 
 1992000   0.45252076   -8.6424009    267.91268   0.01120786 0.0095499071            2 
 1993000   0.45956828   -8.6398567    267.84569  0.011199435 0.0095421461            3 
 1994000   0.45580056    -8.627749    267.76968  0.011190642 0.0095343888            3 
 1995000   0.46048478   -8.6418194    267.80392  0.011186463 0.0095266513            1 
 1996000   0.45088964   -8.6329545    267.57679  0.011171376 0.0095189166            1 
 1997000    0.4575027   -8.6356376    268.01603  0.011184111 0.0095111873            1 
 1998000    0.4564137   -8.6531701    267.50356  0.011157139 0.0095034694            1 
 1999000    0.4471985   -8.6365277    267.83973  0.011165572 0.0094957643            3 
 2000000   0.46661414   -8.6482967    267.82501  0.011159375 0.0094880682            1 
 2001000   0.43919653   -8.6482121    267.67202  0.011147427 0.0094803789            4 
 2002000   0.45182672    -8.639527    267.79863  0.011147129  0.009472692            1 
 2003000   0.45240045   -8.6416598    267.62354   0.01113428 0.0094650164            2 
 2004000   0.44056043   -8.6191747    268.16777  0.011151354 0.0094573508            1 
 2005000   0.44794085   -8.6330971    267.56605  0.011120783 0.0094496924            2 
 2006000   0.45443379   -8.6432433    267.61273  0.011117179 0.0094420419            2 
 2007000   0.46200589   -8.6381792    267.28061   0.01109785  0.009434405            2 
 2008000   0.45186405   -8.6403164    267.59288  0.011105282 0.0094267758            2 
 2009000   0.44736535    -8.630376     267.7387  0.011105803 0.0094191476            1 
 2010000   0.44807845   -8.6426716    267.61812  0.011095278 0.0094115298            1 
 2011000   0.44756985   -8.6363095    267.17811  0.011071528 0.0094039109            3 
 2012000   0.44679574   -8.6486683    267.65858  0.011085925 0.0093963089            3 
Loop time of 4778.9 on 48 procs for 2000000 steps with 4000 atoms

Performance: 72317.842 tau/day, 418.506 timesteps/s
99.4% CPU use with 48 MPI tasks x no OpenMP threads

MPI task timing breakdown:
Section |  min time  |  avg time  |  max time  |%varavg| %total
---------------------------------------------------------------
Pair    | 294.89     | 316.19     | 348.47     |  72.8 |  6.62
Neigh   | 31.449     | 32.585     | 33.851     |  10.7 |  0.68
Comm    | 288.19     | 323.49     | 354.14     |  81.1 |  6.77
Output  | 6.0421     | 6.0445     | 6.0758     |   0.2 |  0.13
Modify  | 4041.6     | 4055.9     | 4067.4     |  10.2 | 84.87
Other   |            | 44.73      |            |       |  0.94

Nlocal:        83.3333 ave          92 max          75 min
Histogram: 1 3 7 7 4 12 5 7 1 1
Nghost:        2049.94 ave        2068 max        2028 min
Histogram: 1 2 4 3 9 8 6 8 5 2
Neighs:        13309.3 ave       15093 max       11685 min
Histogram: 3 4 4 8 8 6 5 7 2 1
FullNghs:      26617.9 ave       29514 max       23774 min
Histogram: 1 4 4 9 3 10 8 6 2 1

Total # of neighbors = 1277658
Ave neighs/atom = 319.41450
Neighbor list builds = 107127
Dangerous builds = 0

#clear
#
#next RN
#
#jump SELF
Total wall time: 1:19:42
