
units lj                  # Use reduced LJ style units
atom_style atomic         # Uncharged point particles
atom_modify map hash      # Needed for indexing of clusters etc
                          # Used to be able to find where atoms are in relation to each other.

lattice fcc 1.0 spacing 1 1 1
Lattice spacing in x,y,z = 1.5874011 1.5874011 1.5874011
region box block 0 10 0 10 0 10 units lattice
create_box 2 box
Created orthogonal box = (0.0000000 0.0000000 0.0000000) to (15.874011 15.874011 15.874011)
  3 by 4 by 4 MPI processor grid
create_atoms 1 box
Created 4000 atoms
  using lattice units in orthogonal box = (0.0000000 0.0000000 0.0000000) to (15.874011 15.874011 15.874011)
  create_atoms CPU = 0.036 seconds
set type 1 type/fraction 2 0.21 78393
Setting atom values ...
  872 settings made for type/fraction
mass 1 1.0
mass 2 1.0
pair_style lj/cut  3.5
pair_modify tail  yes
pair_coeff 1  1  1.0  1.0   # Intearaction between 1 and 1 set with epsilon = 1 and sigma = 1
pair_coeff 1  2  1.5  0.8
pair_coeff 2  2  0.5  0.88

write_data data.0
System init for write_data ...
Neighbor list info ...
  update every 1 steps, delay 10 steps, check yes
  max neighbors/atom: 2000, page size: 100000
  master list distance cutoff = 3.8
  ghost atom cutoff = 3.8
  binsize = 1.9, bins = 9 9 9
  1 neighbor lists, perpetual/occasional/extra = 1 0 0
  (1) pair lj/cut, perpetual
      attributes: half, newton on
      pair build: half/bin/atomonly/newton
      stencil: half/bin/3d
      bin: standard
WARNING: Not all mixed pair coeffs generated from mixing. Use write_data with 'pair ij' option to store all pair coeffs. (../write_data.cpp:312)


#############################
#   M E L T   S Y S T E M   #
#############################

velocity all create 2.4 8172548 mom yes dist gaussian # Assign velocities
                                                    # Temperature 2.4, random number seed, zero linear momentum
                                                                                # Gaussian distribution

timestep 0.002   # simulation timestep
thermo 1000       # output thermodynamic data every 1000 steps bf 100

# Define a fix  in this case with index 1 applied to all
# particles in the simulation. This fix is for simulations
# in the anisotropic NPT ensemble. Note that we use the MTK
# correction.
fix 1 all npt temp 2.4 2.4 0.1 iso 5.68 5.68 0.5 mtk yes tchain 5 pchain 5 # Use NPT ensemble
                                                                         # Set temperature and pressure and damping
                                                                         # Numbers of thermostats in chain and in barostat
run 10000          # run for 10000 steps
Per MPI rank memory allocation (min/avg/max) = 3.642 | 3.644 | 3.648 Mbytes
Step Temp E_pair E_mol TotEng Press Volume 
       0          2.4   -6.9803555            0   -3.3812555   -3.6586826         4000 
    1000    2.4161328   -4.8990357            0   -1.2757425    5.5238954    4440.4235 
    2000    2.4051656   -4.8160831            0   -1.2092366    5.6258505     4460.864 
    3000    2.3711801   -4.7737503            0   -1.2178693    5.7173658    4478.0108 
    4000     2.395511    -4.866545            0   -1.2741768    5.9013854    4405.2264 
    5000    2.4161994   -4.8242296            0   -1.2008366    5.8456488    4435.6211 
    6000    2.3500796   -4.8235208            0   -1.2992826    5.9583361    4418.0694 
    7000    2.3504858   -4.8835363            0   -1.3586889    5.6540366    4413.9933 
    8000    2.3849957   -4.8366109            0   -1.2600117    5.5695111    4451.7059 
    9000    2.3787309   -4.8094294            0    -1.242225    5.9270304    4426.6029 
   10000    2.3860345   -4.8198275            0   -1.2416705    5.8882043    4424.2324 
Loop time of 2.32495 on 48 procs for 10000 steps with 4000 atoms

Performance: 743241.419 tau/day, 4301.166 timesteps/s
99.6% CPU use with 48 MPI tasks x no OpenMP threads

MPI task timing breakdown:
Section |  min time  |  avg time  |  max time  |%varavg| %total
---------------------------------------------------------------
Pair    | 0.95639    | 1.0427     | 1.1857     |   3.8 | 44.85
Neigh   | 0.19642    | 0.20583    | 0.23096    |   1.4 |  8.85
Comm    | 0.69146    | 0.81579    | 0.91895    |   5.2 | 35.09
Output  | 0.0002515  | 0.00025928 | 0.00033495 |   0.0 |  0.01
Modify  | 0.19435    | 0.24572    | 0.30076    |   6.0 | 10.57
Other   |            | 0.01467    |            |       |  0.63

Nlocal:        83.3333 ave          91 max          77 min
Histogram: 6 2 6 5 3 14 3 7 1 1
Nghost:        1536.67 ave        1571 max        1507 min
Histogram: 1 2 5 8 11 14 4 1 0 2
Neighs:        8617.44 ave        9764 max        7822 min
Histogram: 7 3 5 9 6 8 4 4 1 1

Total # of neighbors = 413637
Ave neighs/atom = 103.40925
Neighbor list builds = 908
Dangerous builds = 203

# Equilibrate just above the melting temperature to avoid step fn in T

fix 1 all npt temp 1.25 1.25 0.1 iso 5.68 5.68 0.5 mtk yes tchain 5 pchain 5
run 2000
Per MPI rank memory allocation (min/avg/max) = 3.642 | 3.645 | 3.649 Mbytes
Step Temp E_pair E_mol TotEng Press Volume 
   10000    2.3860345   -4.8198275            0   -1.2416705    5.8882043    4424.2324 
   11000    1.2452037   -6.5371777            0   -4.6698391    5.9296844    3616.2192 
   12000    1.2598865   -6.6276655            0   -4.7383083    5.5128234    3613.2268 
Loop time of 0.506747 on 48 procs for 2000 steps with 4000 atoms

Performance: 681997.633 tau/day, 3946.746 timesteps/s
99.6% CPU use with 48 MPI tasks x no OpenMP threads

MPI task timing breakdown:
Section |  min time  |  avg time  |  max time  |%varavg| %total
---------------------------------------------------------------
Pair    | 0.21944    | 0.24674    | 0.28051    |   2.2 | 48.69
Neigh   | 0.032559   | 0.034603   | 0.039485   |   0.6 |  6.83
Comm    | 0.14262    | 0.17159    | 0.19894    |   3.2 | 33.86
Output  | 4.9906e-05 | 5.1388e-05 | 6.4217e-05 |   0.0 |  0.01
Modify  | 0.038804   | 0.049266   | 0.06175    |   2.7 |  9.72
Other   |            | 0.0045     |            |       |  0.89

Nlocal:        83.3333 ave          94 max          71 min
Histogram: 1 1 1 6 13 10 10 2 3 1
Nghost:        1757.48 ave        1789 max        1737 min
Histogram: 6 6 7 6 6 7 4 3 1 2
Neighs:        10574.4 ave       12312 max        8825 min
Histogram: 1 1 2 13 10 5 10 3 1 2

Total # of neighbors = 507572
Ave neighs/atom = 126.89300
Neighbor list builds = 143
Dangerous builds = 8

#############################
# L I N E A R  Q U E N C H  #
#############################

# Define solid atoms. This closely follows ten Wolde  Ruiz-Montero and Frenkel  Faraday Discuss  1996  104  93-110
# Compute components of the per-atom q6 vector
compute q6 all orientorder/atom degrees 1 6 components 6 nnn NULL cutoff 1.3 # compute the Q6 parameter.
                                                                             # Use all neighbours within 1.3 unit cell.

# get number of connections
compute coord_number all coord/atom orientorder q6 0.5

# An atom is solid if it has 8 or more connections (of a possible 14)
variable is_solid atom c_coord_number>=8
group solid dynamic all var is_solid    # Must be dynamic to update
dynamic group solid defined

# do clustering
compute cluster solid cluster/atom 1.3 # Create a cluster where all atoms within are solid and max 1.3 units from another member

# define chunks one chunk per cluster
compute clus_chunks solid chunk/atom c_cluster nchunk every compress yes  # Says which atoms are in which chunk

# count the size of each chunk
compute size_chunks solid property/chunk clus_chunks count


# Find the maximum entry in the vector of chunk sizes
variable max_n equal max(c_size_chunks)


# Thermo style which includes this variable
# thermo_style custom step temp pe vol v_max_n

thermo ${N}  # Print the thermo information every 100 steps
thermo 1000  

# Reset the npt fix at a lower temperature (below freezing)
fix 1  all npt temp  ${temp} ${temp}  0.1  iso  5.68  5.68  0.5  mtk yes tchain  5  pchain  5
fix 1  all npt temp  0.45 ${temp}  0.1  iso  5.68  5.68  0.5  mtk yes tchain  5  pchain  5
fix 1  all npt temp  0.45 0.45  0.1  iso  5.68  5.68  0.5  mtk yes tchain  5  pchain  5

dump dmp2 all dcd ${N} traj.dcd
dump dmp2 all dcd 1000 traj.dcd


compute msd all msd com yes
variable twopoint equal c_msd[4]/6/(step*dt+1.0e-6)
fix 9 all vector 10 c_msd[4]
variable fit equal slope(f_9)/6/(10*dt)
thermo_style custom step temp pe c_msd[4] v_twopoint v_fit v_max_n

fix 1 all npt temp 1.25 ${temp} 0.1 iso 5.68 5.68 0.5 mtk yes tchain 5 pchain 5
fix 1 all npt temp 1.25 0.45 0.1 iso 5.68 5.68 0.5 mtk yes tchain 5 pchain 5
run 500000 # 5000000  # Run for this many steps
Neighbor list info ...
  update every 1 steps, delay 10 steps, check yes
  max neighbors/atom: 2000, page size: 100000
  master list distance cutoff = 3.8
  ghost atom cutoff = 3.8
  binsize = 1.9, bins = 9 9 9
  4 neighbor lists, perpetual/occasional/extra = 1 3 0
  (1) pair lj/cut, perpetual
      attributes: half, newton on
      pair build: half/bin/atomonly/newton
      stencil: half/bin/3d
      bin: standard
  (2) compute orientorder/atom, occasional
      attributes: full, newton on
      pair build: full/bin/atomonly
      stencil: full/bin/3d
      bin: standard
  (3) compute coord/atom, occasional
      attributes: full, newton on
      pair build: full/bin/atomonly
      stencil: full/bin/3d
      bin: standard
  (4) compute cluster/atom, occasional
      attributes: full, newton on
      pair build: full/bin/atomonly
      stencil: full/bin/3d
      bin: standard
Per MPI rank memory allocation (min/avg/max) = 9.776 | 9.782 | 9.787 Mbytes
Step Temp PotEng c_msd[4] v_twopoint v_fit v_max_n 
   12000    1.2598865   -6.6276655            0            0 8.3333333e+20            1 
   13000    1.2315134   -6.6149923   0.52961235 0.0033949509  0.043492912            1 
   14000    1.2075283   -6.5959828    1.0547976 0.0062785571   0.04303313            1 
   15000    1.2395318    -6.595671    1.5962749 0.0088681934  0.043439249            3 
   16000    1.2484366   -6.6262213    2.1031915  0.010954122  0.044056615            2 
   17000    1.2511028   -6.6111593    2.5220727  0.012363101   0.04312094            3 
   18000    1.2423546   -6.6208309      2.92691  0.013550509  0.041444088            2 
   19000    1.2585768   -6.6183912    3.4239983  0.015017536  0.040600162            1 
   20000    1.2562239   -6.6115819    3.9279988  0.016366661  0.040190885            1 
   21000     1.230922   -6.6316208    4.3778385  0.017372374  0.039975344            4 
   22000     1.243718   -6.6726841    4.7934481     0.018157  0.039636221            3 
   23000    1.2352088    -6.614202    5.2024415  0.018849425  0.039297987            1 
   24000    1.2286625   -6.6279192    5.6879939  0.019749979  0.039026461            2 
   25000    1.2382085   -6.6336568     6.222846   0.02074282  0.038934362            2 
   26000    1.2228267   -6.6844987    6.7665046  0.021687514  0.038987599            3 
   27000    1.1947591    -6.674587    7.2995266  0.022529403  0.039227482            3 
   28000    1.2403222   -6.6620123    7.8192436  0.023271558  0.039473947            1 
   29000    1.2157663   -6.6325479    8.2731862  0.023773523  0.039600998            3 
   30000    1.2174512   -6.6485721    8.7627837  0.024341066  0.039766606            2 
   31000    1.2236737   -6.6660338    9.2517691  0.024870347  0.039886994            2 
   32000    1.2179608   -6.6693381    9.7958295  0.025509972  0.040014158            2 
   33000    1.2215268   -6.6403799    10.228793  0.025830285  0.040109525            1 
   34000    1.2138514   -6.6236229    10.750754  0.026349886  0.040187513            3 
   35000    1.2197674   -6.6775873    11.167941  0.026590337  0.040258752            3 
   36000    1.2152574   -6.6812092    11.609133  0.026872992  0.040287821            1 
   37000    1.2192427   -6.6405975    12.173981  0.027418876   0.04031138            2 
   38000    1.2095678   -6.6875901    12.592223  0.027614524  0.040292281            2 
   39000    1.1924624   -6.6435862    13.127804  0.028050862  0.040290382            5 
   40000    1.1918626   -6.6819453    13.538958  0.028206161  0.040288925            1 
   41000    1.1881519   -6.6541454    14.005666    0.0284668   0.04028034            1 
   42000    1.2086336   -6.6719188     14.42279  0.028616647  0.040247998            2 
   43000    1.2121951   -6.6765577    14.931131    0.0289363  0.040224636            2 
   44000    1.2141577    -6.703891    15.286099  0.028950945  0.040144366            2 
   45000    1.1873367   -6.7161283    15.695137  0.029065069  0.040057071            2 
   46000    1.1832871   -6.6813866    16.250369  0.029439074  0.039981369            2 
   47000    1.1814145    -6.734633    16.559296  0.029360454  0.039900839            2 
   48000    1.1761482   -6.6931535    16.955198  0.029436108  0.039775014            1 
   49000    1.1847482   -6.6693421    17.511106  0.029780791  0.039658217            2 
   50000    1.1925233   -6.7379007     17.82877  0.029714617  0.039544626            1 
   51000    1.1993726   -6.7223589    18.340513  0.029968158  0.039443187            3 
   52000    1.1735571   -6.7254748    18.943037  0.030357431  0.039381699            4 
   53000    1.1796247   -6.7250643    19.372292  0.030459579  0.039336089            1 
   54000    1.1947562   -6.7178912    19.894638  0.030701602  0.039300401            2 
   55000    1.1608748   -6.7241567    20.171162  0.030562367  0.039257286            3 
   56000    1.2056577   -6.7345958    20.730099  0.030848361  0.039207482            3 
   57000    1.1919523   -6.7234354    21.123784  0.030882725  0.039162772            2 
   58000    1.1720122   -6.7870372    21.449498  0.030818244  0.039102003            2 
   59000    1.1924028   -6.7622847    21.825846  0.030827466  0.039001251            1 
   60000    1.1785621   -6.7785641    22.199389  0.030832484  0.038913726            2 
   61000     1.165343   -6.7454648    22.673198  0.030974314  0.038827734            2 
   62000    1.1715607   -6.7393582    22.954631  0.030852998  0.038737123            2 
   63000    1.1578921   -6.7595464     23.36786  0.030909868  0.038624472            2 
   64000    1.1943548   -6.8224681    23.660851    0.0308084  0.038497963            2 
   65000    1.1691628   -6.7672326    23.867618   0.03059951  0.038361743            2 
   66000    1.1606948   -6.7790867    24.288244  0.030666975  0.038219517            2 
   67000    1.1514325   -6.7385069     24.68634  0.030704403  0.038069573            4 
   68000    1.1827108   -6.7458723    25.117817  0.030781639  0.037932684            1 
   69000      1.13868   -6.7695722    25.542534  0.030848471   0.03780193            6 
   70000    1.1551377   -6.7543528    25.921995  0.030859517  0.037676699            3 
   71000    1.1621949   -6.7842893    26.406619  0.030993684  0.037559792            2 
   72000    1.1649164   -6.7815247    26.892765  0.031125885  0.037455645            1 
   73000    1.1528795   -6.7642228    27.311941  0.031178015  0.037364623            1 
   74000    1.1468381   -6.8093401    27.561161  0.031037343  0.037264435            2 
   75000    1.1270403   -6.7975623    28.024191   0.03113799  0.037170375            1 
   76000    1.1457372   -6.7691689    28.471637    0.0312189  0.037080296            2 
   77000    1.1588257   -6.8224797    28.926024  0.031305221  0.037002169            1 
   78000    1.1471683   -6.8098901    29.209731  0.031206978  0.036916506            3 
   79000    1.1456275   -6.8137293    29.527281   0.03114692   0.03683003            2 
   80000    1.1601175   -6.8031989    29.755532  0.030995346  0.036732138            2 
   81000    1.1363676   -6.7923057    30.256186  0.031127763  0.036636197            1 
   82000    1.1275575   -6.8300311    30.417608  0.030912203  0.036534081            3 
   83000    1.1365408   -6.8191874    30.814763  0.030938517  0.036425028            2 
   84000    1.1002969   -6.8265328     31.05739  0.030810903  0.036315185            6 
   85000    1.1300809   -6.8477774    31.477083  0.030859885  0.036206515            3 
   86000    1.1072658   -6.8605735    31.899353  0.030910226  0.036106923            1 
   87000    1.1363693    -6.799691    32.375196  0.031010724  0.036011457            3 
   88000    1.1624651   -6.8236078    32.668228  0.030935822  0.035917858            2 
   89000    1.1028457   -6.8426723      32.9613   0.03086264  0.035825664            3 
   90000     1.121651   -6.8533469    33.597468  0.031108767  0.035739419            2 
   91000    1.0888115   -6.8458159    33.839436  0.030988495   0.03565224            1 
   92000    1.1291886   -6.8661632    34.249726  0.031023302  0.035574979            5 
   93000    1.1227562   -6.8015682    34.723807  0.031114522  0.035501081            1 
   94000    1.1230553   -6.8576509    34.799247  0.030850396  0.035418781            2 
   95000    1.1247144   -6.8515452     35.15889  0.030841132  0.035333053            3 
   96000    1.1129708   -6.8382658    35.670555  0.030964024  0.035253631            1 
   97000    1.1226168   -6.8342197    36.068175  0.030986404  0.035182505            2 
   98000    1.1179997   -6.8467347     36.44177  0.030987899  0.035109746            1 
   99000    1.1015713   -6.9069814    36.622948  0.030827397   0.03503074            2 
  100000    1.1006731    -6.886888    36.979534  0.030816278  0.034954866            2 
  101000     1.115513   -6.8735804    37.324335  0.030795656  0.034876995            1 
  102000    1.0875405   -6.8666262    37.519342  0.030653057  0.034795778            1 
  103000    1.1167014   -6.8715832    37.836653  0.030612179  0.034708311            3 
  104000     1.121357    -6.885822    38.003629  0.030451626   0.03461546            2 
  105000    1.1014118   -6.8499557    38.354294  0.030439916  0.034516125            2 
  106000    1.1339207   -6.9305294    38.349089  0.030148654  0.034412389            3 
  107000     1.096983   -6.9247488    38.622296   0.03007967   0.03430395            2 
  108000    1.1210503   -6.8926196    39.036012   0.03012038  0.034189682            2 
  109000    1.1032335   -6.9254841     39.13298   0.02991818  0.034080425            2 
  110000    1.1115847    -6.892201    39.472379  0.029903317  0.033966404            9 
  111000    1.1063117    -6.882019    39.785913  0.029869304  0.033851594            2 
  112000    1.1046164   -6.8785395    40.073041  0.029816251  0.033742984            1 
  113000    1.1071436   -6.9408157    40.232359  0.029669881  0.033629045            3 
  114000    1.0749088   -6.9071763    40.486505  0.029595399  0.033517803            1 
  115000    1.0999548   -6.9235704    40.826084  0.029584119  0.033407821            3 
  116000    1.0933318   -6.9598239    41.188362   0.02958934  0.033297621            4 
  117000    1.0955366   -6.9319244    41.493531  0.029553797  0.033192212            3 
  118000    1.0756317   -6.9094529    41.849498   0.02955473  0.033090816            2 
  119000    1.0824796   -6.9609934    41.890868  0.029335341   0.03298441            4 
  120000    1.0711894   -6.9330725     42.39911  0.029443826  0.032878449            2 
  121000    1.0901346   -6.9252273    42.829401  0.029496832  0.032780364            1 
  122000    1.0889696    -6.933883    43.121662  0.029454687  0.032690141            1 
  123000    1.0918941    -6.959426    43.375466  0.029387172  0.032598396            1 
  124000    1.0584422   -6.9414378    43.525948  0.029251309  0.032505521            3 
  125000    1.0827651   -6.9690346    43.743617  0.029162411  0.032409579            1 
  126000    1.0669785   -6.9612927    44.057076  0.029138278  0.032310708            1 
  127000    1.0687805   -6.9503171    44.083246  0.028926014  0.032208204            2 
  128000     1.066384   -6.9691885    44.473727  0.028954249  0.032106482            2 
  129000      1.07644   -6.9819646    44.766435  0.028918886  0.032006577            2 
  130000    1.0656383   -6.9714639    45.381786  0.029090888  0.031911939            2 
  131000    1.0577377   -6.9570634    45.529381  0.028962711  0.031820676            2 
  132000    1.0391201   -6.9673835    45.882317  0.028966109  0.031731312            2 
  133000    1.0707293    -6.984653    46.196063  0.028944902  0.031642365            2 
  134000    1.0582232   -6.9938401     46.36887  0.028836362  0.031556141            3 
  135000    1.0671988   -6.9981288    46.453982  0.028675297  0.031469282            4 
  136000    1.0579401    -7.006739    46.889689  0.028731427  0.031381445            3 
  137000    1.0394285   -6.9963704    47.109187  0.028655223  0.031293089            4 
  138000    1.0332583    -7.046808    47.244734  0.028529428  0.031205545            3 
  139000    1.0532157   -6.9962677    47.741357  0.028621917   0.03112192            1 
  140000    1.0611654   -6.9823633    47.951622  0.028542632  0.031040694            3 
  141000    1.0433521   -7.0194161    48.317938  0.028556701  0.030957655            3 
  142000     1.029839   -7.0069695    48.455495  0.028436323  0.030878044            3 
  143000    1.0472266   -6.9943876    48.800922  0.028438765  0.030798524            3 
  144000    1.0561794   -6.9826608    49.136583  0.028435523  0.030719741            4 
  145000    1.0323165   -7.0117041    49.469678  0.028430849  0.030643115            1 
  146000    1.0443486   -7.0325178    49.579596  0.028298856  0.030568835            2 
  147000    1.0384384   -7.0007927    50.065913  0.028382037  0.030492977            2 
  148000    1.0222129   -6.9809994    50.375004  0.028364304  0.030418203            2 
  149000    1.0310723   -7.0323527    50.349406  0.028159623   0.03034248            1 
  150000    1.0290001   -7.0259959    50.530145  0.028072303  0.030266589            2 
  151000    1.0144082   -7.0280487    50.838316  0.028056466  0.030190442            1 
  152000    1.0144747   -7.0233116    51.059941  0.027993389  0.030116055            5 
  153000    1.0192249   -7.0463535    51.254936  0.027916632  0.030042698            2 
  154000   0.99974332   -7.0623447    51.790777  0.028025312   0.02997048            1 
  155000    1.0230407   -7.0487212    52.017985  0.027966659  0.029898599            3 
  156000    1.0210671   -7.0768527    52.187963  0.027878185  0.029826517            2 
  157000    1.0263271   -7.0829865    52.262387   0.02774012  0.029752787            4 
  158000    1.0142265   -7.0506896    52.502413  0.027691146  0.029676424            1 
  159000    1.0134091   -7.0443488     52.52867   0.02753075  0.029598282            4 
  160000    1.0136155   -7.0544067     52.87042  0.027536677  0.029520737            4 
  161000     1.000813   -7.0707083    53.141827  0.027506121   0.02944623            3 
  162000    1.0029289    -7.054613    53.427088   0.02748307  0.029374199            6 
  163000    1.0124741   -7.0995536    53.466688  0.027334708  0.029300361            3 
  164000    1.0462812    -7.061243    53.697281  0.027285203  0.029222906            2 
  165000    1.0116754    -7.069767    54.149833    0.0273484  0.029146682            2 
  166000    1.0066906   -7.0849248    54.133264  0.027175333  0.029071701            3 
  167000    1.0021206   -7.1079398    54.441581  0.027166458  0.028995038            3 
  168000    1.0081784    -7.134839    54.750405  0.027157939  0.028919358            3 
  169000    1.0344893   -7.0781655    54.961469  0.027101316  0.028845204            4 
  170000   0.98581586   -7.0905709    55.089752   0.02700478  0.028770656            4 
  171000    1.0027065   -7.1105709    55.206463  0.026903734  0.028694327            3 
  172000   0.99098893   -7.0985288    55.451895  0.026866228  0.028618576            3 
  173000   0.99116539    -7.104298    55.714768  0.026837557  0.028543645            3 
  174000    1.0075552   -7.1045075    55.967726  0.026804466  0.028470555            4 
  175000   0.96492324   -7.1287153    56.540444  0.026924021  0.028399633            2 
  176000   0.97042878     -7.07687    56.647229  0.026821605  0.028330499            6 
  177000    0.9582494    -7.107147    56.863735  0.026772003   0.02826309            2 
  178000      1.00273   -7.1471322    57.029657  0.026699277  0.028195664            3 
  179000   0.97168392   -7.1729476    57.223831  0.026640517  0.028125485            4 
  180000   0.98703946   -7.1422928    57.674713  0.026701256  0.028057732            3 
  181000   0.98334736   -7.1692884    57.838032  0.026628928   0.02799204            3 
  182000   0.98042983   -7.1515343    58.095366  0.026600442  0.027926739            2 
  183000   0.97211595   -7.1682835    58.288723  0.026543134  0.027861378            3 
  184000    0.9837175    -7.126242    58.530124  0.026508208  0.027796999            2 
  185000   0.97557414   -7.1318562    58.618518  0.026404738  0.027732802            2 
  186000   0.97248165   -7.1655926    58.820527  0.026353283  0.027667977            1 
  187000   0.96641557   -7.1354192    59.121779  0.026346604  0.027604196            3 
  188000   0.96590341    -7.160739     59.64014  0.026436232  0.027541807            2 
  189000   0.96085483   -7.1587169    59.656972   0.02630378    0.0274801            3 
  190000    0.9569384   -7.2068956    59.687591  0.026178768  0.027417505            3 
  191000   0.99205956    -7.198933    59.926575  0.026145975  0.027355954            1 
  192000   0.94164921   -7.1774642    60.098559  0.026084444  0.027293024            4 
  193000   0.97864672   -7.1641987    60.383957   0.02607252  0.027230173            2 
  194000   0.97475844   -7.1696819    60.766497  0.026102447  0.027169841            3 
  195000   0.94607045   -7.1811796     60.96847  0.026054902  0.027109802            3 
  196000   0.96066227   -7.1838183     61.28581  0.026056892   0.02705118            5 
  197000   0.93771933   -7.1546447    61.414233  0.025978948   0.02699239            3 
  198000   0.96707623    -7.206091    61.526875   0.02589515  0.026932438            2 
  199000   0.94475568   -7.2239533    61.523231  0.025763497  0.026872218            2 
  200000   0.96465875    -7.184984    62.110753  0.025879481  0.026811883            3 
  201000   0.96428862   -7.2058193    62.215805  0.025794281  0.026752433            2 
  202000   0.96738814   -7.2370299    62.469174  0.025771111  0.026692502            4 
  203000   0.95284011   -7.1998846    62.702452  0.025739923  0.026634167            4 
  204000   0.94459256   -7.2074718    62.769127  0.025640983  0.026575796            3 
  205000   0.93286441   -7.2232196     62.91948  0.025577024  0.026517452            4 
  206000   0.93469038   -7.2352849    63.028564  0.025496992  0.026458396            4 
  207000   0.93638772   -7.2365316    63.120804  0.025410952  0.026398348            4 
  208000   0.94199427   -7.2341702    63.390485  0.025396829  0.026339658            6 
  209000   0.92301938    -7.244224    63.701552  0.025399343  0.026281601            3 
  210000    0.9601485    -7.267333      63.8848  0.025351111  0.026224465            2 
  211000   0.93360989    -7.226666    64.014476  0.025282179  0.026167534            2 
  212000   0.93352184   -7.2345476    64.357167  0.025297628   0.02611118            4 
  213000   0.93332942   -7.2048295    64.557776  0.025257346  0.026054681            5 
  214000   0.92328415   -7.2535937    64.819103  0.025241083   0.02599837            2 
  215000   0.92550828   -7.2157351    65.115106  0.025238413  0.025943387            2 
  216000   0.93694649   -7.2932637    65.210656  0.025158432  0.025888541            6 
  217000   0.93140047   -7.2361122    65.364865  0.025101714  0.025833665            4 
  218000   0.91698156   -7.2535836    65.446712  0.025017856  0.025778493            3 
  219000   0.91049216   -7.2572505    65.651018  0.024981362  0.025723991            4 
  220000   0.91219195   -7.2994469    65.690678  0.024882833  0.025667877            5 
  221000   0.91382229   -7.3081352    65.894614   0.02484714  0.025610829            3 
  222000    0.9158694   -7.2720134    65.909939  0.024740968   0.02555268            5 
  223000   0.90361811   -7.2574815    66.103405  0.024702319  0.025496206            3 
  224000   0.90608173   -7.2882283    66.188371   0.02462365  0.025438939            3 
  225000   0.91666557   -7.3107232    66.242524  0.024534268  0.025380478            3 
  226000   0.92366072   -7.3081627    66.441024  0.024498903  0.025321722            3 
  227000   0.89516564   -7.3042369    66.552168   0.02443178  0.025262415            6 
  228000   0.89399854   -7.3122447    66.589995  0.024338448  0.025202278            4 
  229000    0.9143407    -7.312084    66.699548  0.024272033  0.025141415            3 
  230000   0.92234848   -7.3267617    66.712729  0.024171279  0.025079409            3 
  231000   0.90301719    -7.331842    66.995954  0.024168815  0.025018842            2 
  232000   0.88512328     -7.29558    67.076553  0.024093589  0.024957371            8 
  233000   0.91571642   -7.3341062    67.138686  0.024012405  0.024895341            3 
  234000   0.88511588    -7.335229    67.239254  0.023945603  0.024832265            4 
  235000   0.88813931   -7.3298574    67.351341  0.023883454  0.024769599            4 
  236000   0.88061497   -7.3341114    67.648342  0.023887126  0.024706894            3 
  237000   0.90483286   -7.3269881    67.653023  0.023787983  0.024644264            4 
  238000   0.88619274   -7.3359979    67.846416  0.023755748  0.024582035            4 
  239000   0.90147979   -7.3411284    67.948252  0.023691859  0.024519556            4 
  240000   0.88484559   -7.3424809    67.949782  0.023593674  0.024457652            4 
  241000   0.90448937   -7.3573431    68.019437   0.02351986  0.024394839            5 
  242000    0.8837304   -7.3665282     68.34251  0.023533922  0.024332701            2 
  243000   0.88347413   -7.3716023    68.336122  0.023434884  0.024271142            3 
  244000   0.87100837   -7.3574562    68.599263   0.02342871  0.024209624            2 
  245000   0.88956729   -7.3557362    68.672703  0.023358062   0.02414794            2 
  246000   0.89735105   -7.3940319    68.766005  0.023294717  0.024085901            3 
  247000   0.87701727   -7.3806474    69.026811  0.023288398  0.024023653            4 
  248000   0.87311244   -7.3642971    69.289886  0.023282892  0.023962765            4 
  249000   0.87756172    -7.366206    69.346062  0.023208187  0.023901754            3 
  250000   0.85896623   -7.3499236    69.400293  0.023133431  0.023841635            5 
  251000   0.86927543   -7.3904318    69.368144  0.023030592  0.023780242            7 
  252000   0.88544822   -7.3472802    69.570457  0.023006103   0.02371929            2 
  253000   0.85533713   -7.3842396    69.792132  0.022988186  0.023658264            4 
  254000   0.86475567   -7.4111171    69.791514  0.022897478  0.023598279            4 
  255000   0.84099272   -7.4173511    69.928009   0.02285229  0.023538491            3 
  256000   0.85509084   -7.3896695    70.267189  0.022873434  0.023478494            3 
  257000    0.8616079     -7.40389    70.354469  0.022812733  0.023419278            2 
  258000   0.84215411    -7.444932    70.203318   0.02267549  0.023359703            2 
  259000   0.86622113   -7.4024451    70.524867  0.022691399  0.023299443            2 
  260000    0.8533178   -7.4242399     70.38837  0.022560375  0.023239961            2 
  261000   0.87023373   -7.3864465    70.574129  0.022533247  0.023180201            2 
  262000   0.84183429   -7.4265648    70.819094  0.022525157  0.023120577            2 
  263000   0.82965704   -7.4421394    70.789575  0.022430157  0.023061215            2 
  264000    0.8288632   -7.4336884    71.168265   0.02246473  0.023002177            3 
  265000   0.84480509   -7.4089798    71.187347  0.022385958  0.022943501            3 
  266000   0.84388637   -7.4243414    71.171213  0.022296746   0.02288409            3 
  267000   0.84979614   -7.4021501    71.423132  0.022291864    0.0228252            3 
  268000   0.82646411   -7.4290104    71.554779   0.02224962  0.022766696            6 
  269000   0.84737253   -7.4590593    71.340338  0.022100476  0.022707611            2 
  270000    0.8566347   -7.4528144    71.613157  0.022102826  0.022647962            4 
  271000   0.82936153   -7.4613941     71.54787   0.02200119  0.022588044            2 
  272000   0.84209352   -7.4559403     71.74338  0.021980202    0.0225288            6 
  273000   0.83498965   -7.4718254    71.796138  0.021915793  0.022469585            3 
  274000   0.82691114   -7.4751554    72.025382   0.02190553  0.022410062            6 
  275000   0.83276412   -7.4658589       71.972  0.021809697  0.022351062            5 
  276000   0.83551383   -7.4586347    72.059897  0.021757215  0.022291405            6 
  277000   0.81342879   -7.4777358    72.034287  0.021670965  0.022232488            4 
  278000   0.81932557    -7.486885    72.454255  0.021718901  0.022173751            3 
  279000   0.82732248   -7.4741154    72.405796  0.021626582  0.022115916            6 
  280000   0.80409299   -7.4816214    72.522452  0.021584063  0.022057186            2 
  281000   0.80799551   -7.5053506    72.501863  0.021501146  0.021998176            2 
  282000     0.823067   -7.4869703     72.65444  0.021469988  0.021938902            5 
  283000   0.81797877   -7.4836957    72.773192  0.021429091  0.021879697            4 
  284000   0.82103485   -7.5225603    72.817865  0.021366744  0.021820138            7 
  285000    0.8009065   -7.5085699    72.678559  0.021251041  0.021760532            3 
  286000   0.81731801   -7.5345312    73.001397  0.021270803  0.021701338            3 
  287000   0.81050379   -7.4942962    73.094675  0.021223773  0.021643112            5 
  288000   0.80664796   -7.4904312    73.189285  0.021177455  0.021585506            2 
  289000   0.81638101   -7.5020023    73.532315   0.02120309  0.021528271            5 
  290000   0.80653992   -7.5222295    73.510213  0.021123625  0.021471671            4 
  291000   0.79607037   -7.5300794    73.522606  0.021054584  0.021414805            3 
  292000   0.79480244   -7.5139697    73.595756  0.021003355  0.021357743            3 
  293000   0.79780819   -7.5212089    73.590782  0.020930256  0.021300807            3 
  294000   0.79830372   -7.5372784    73.643471     0.020874   0.02124344            7 
  295000   0.79654022   -7.5369161    73.643557  0.020803265  0.021186087            6 
  296000   0.76561998    -7.538976    73.756774  0.020764858  0.021128987            5 
  297000   0.78817187   -7.5783488    73.809677  0.020709786  0.021071831            6 
  298000   0.80024858   -7.5491977    73.766951  0.020628342  0.021014523            2 
  299000   0.77821657   -7.5338548    73.871878  0.020588595  0.020956709            5 
  300000   0.78114058   -7.5569103    73.945005  0.020540279  0.020899143            3 
  301000   0.80278882   -7.5799884    73.890445  0.020456934  0.020841536            8 
  302000   0.77836961    -7.591222    74.025341  0.020426419  0.020784107            4 
  303000   0.79224817   -7.5850584    74.202784  0.020407806  0.020726735            3 
  304000   0.76445509   -7.5827345    74.189709  0.020337091  0.020669492            3 
  305000   0.77941545   -7.6025031    74.347047  0.020313401  0.020612304            6 
  306000   0.78128401   -7.5514781    74.208738  0.020209351  0.020555548            5 
  307000   0.78573215   -7.5532389    74.388778  0.020192394  0.020498469            3 
  308000   0.77795294   -7.5269512    74.557956  0.020172607  0.020441861            5 
  309000   0.77984503    -7.577306     74.55696  0.020107055   0.02038551            5 
  310000   0.78941725   -7.5791198    74.571631  0.020046137  0.020328466            2 
  311000   0.78102888    -7.579655    74.408931  0.019938084  0.020271721            4 
  312000   0.76535401   -7.6037542    74.531224  0.019906844  0.020214647            6 
  313000   0.75803169   -7.6178547    74.405542  0.019809782  0.020157868            5 
  314000   0.77665846   -7.5930282    74.647977  0.019811034  0.020101496            3 
  315000   0.76321347   -7.6192729    74.673698  0.019754947  0.020044828            4 
  316000   0.74774643   -7.6086415    74.860684  0.019741742  0.019987762            7 
  317000    0.7585701   -7.6288684    74.581663  0.019606115  0.019930472            3 
  318000    0.7636358   -7.6357703    74.633664  0.019558088  0.019873243            4 
  319000   0.75622386   -7.6484989    74.795363  0.019539019  0.019816002            2 
  320000   0.76743056   -7.6466076    74.861708  0.019495236  0.019759002            1 
  321000   0.74918188   -7.6313306    75.125015   0.01950286  0.019702464            7 
  322000    0.7606461   -7.6108607    75.001557  0.019410341  0.019646058            4 
  323000   0.74858408   -7.6381045    74.870437  0.019316418  0.019589191            2 
  324000   0.76817192   -7.6569178    75.052598  0.019303652  0.019531969           10 
  325000   0.74561263   -7.6716543    75.132072  0.019264634  0.019475417            2 
  326000   0.74063465   -7.6579214    74.950739  0.019159187  0.019418524            3 
  327000   0.73918115   -7.6937336    74.912504  0.019090852  0.019361737            6 
  328000   0.74994346   -7.6923915    75.043296  0.019065878  0.019304922            8 
  329000   0.73653836   -7.6826042    75.142808  0.019033133  0.019248378            3 
  330000   0.72972588   -7.6782408    75.008824  0.018941622  0.019191847            3 
  331000    0.7307631   -7.6544981     75.12027  0.018912455  0.019134923            6 
  332000    0.7427871   -7.6751021    75.287045  0.018897351  0.019078373            2 
  333000   0.72576511   -7.6809781    75.021428  0.018774131  0.019021922            8 
  334000   0.75375106   -7.6808379    75.258143  0.018776982  0.018965525            3 
  335000   0.74052558    -7.648728     75.38962  0.018753637  0.018909435            4 
  336000   0.72923328   -7.7254382     75.07665  0.018620201  0.018853587            5 
  337000   0.72945171   -7.6771913    75.061046   0.01856109  0.018797059            4 
  338000   0.72929565    -7.702292    75.202921  0.018541154  0.018740626            4 
  339000   0.70734182    -7.702875    75.376841  0.018529214   0.01868434            7 
  340000   0.72707755   -7.7171523    75.494453  0.018503542  0.018628456            4 
  341000   0.71790215   -7.7110922    75.512304  0.018453642  0.018573039           12 
  342000   0.70771174   -7.7232749     75.54527  0.018407717  0.018517732            3 
  343000   0.72549822   -7.7033436    75.645687  0.018378447  0.018462728            2 
  344000   0.72433924   -7.6886362     75.63667  0.018322837  0.018408017            5 
  345000   0.72055373   -7.7241015    75.660376  0.018275453  0.018353281            4 
  346000   0.70961934   -7.7053683    75.732494  0.018240003  0.018298504            3 
  347000   0.70012213   -7.7248586    75.477902  0.018126297  0.018243663            3 
  348000   0.72280704   -7.7427624    75.690504  0.018125121  0.018189064            2 
  349000   0.71136771   -7.7419771    75.748518  0.018087039  0.018134697            4 
  350000     0.706313   -7.7317072    75.860572  0.018062041  0.018080889            4 
  351000   0.70310545   -7.7330724    75.893187  0.018018326   0.01802724           10 
  352000   0.69892023   -7.7521034    75.950019  0.017980592  0.017973411            4 
  353000   0.70719201   -7.7304593    75.802705  0.017894878  0.017919342            5 
  354000   0.70197017   -7.7727168    75.760599  0.017834416  0.017865384            4 
  355000   0.69120645   -7.7697182    75.671358   0.01776323   0.01781154            2 
  356000   0.68615429   -7.7512608    75.898411  0.017766482  0.017757466            6 
  357000   0.69898978   -7.7635253    75.809832  0.017696039  0.017703496            6 
  358000   0.70174482   -7.7665048    75.781637  0.017640046  0.017649868            5 
  359000   0.68349569   -7.7673921    76.032252  0.017649084  0.017596688            5 
  360000   0.69916733   -7.7725936    75.863792  0.017561063  0.017543393            4 
  361000   0.69428045   -7.7776928    75.922731  0.017526023  0.017490567            3 
  362000    0.6794054   -7.7712653    75.882777  0.017468411  0.017437585            6 
  363000   0.70042393   -7.8083483    76.086628  0.017467086  0.017384875            3 
  364000   0.68974821   -7.7780949    75.946187  0.017386947  0.017332398            3 
  365000    0.6970716   -7.7920136    75.983131  0.017347747  0.017279808            5 
  366000   0.67970734   -7.8113707    76.218007  0.017353827  0.017227391            4 
  367000   0.68115485   -7.8218908     76.03967  0.017266047  0.017175065            4 
  368000   0.69518409    -7.835288    76.127467   0.01723901  0.017122986            3 
  369000   0.67032529   -7.8202815    76.143932   0.01719601  0.017071061            4 
  370000   0.68822246   -7.8192985    75.936741  0.017102869  0.017019304            4 
  371000    0.6555509   -7.7980312    76.097575  0.017092897  0.016967369            5 
  372000   0.66796375   -7.8150949    76.194532  0.017068667  0.016915763            6 
  373000   0.67582559    -7.838147    75.989003  0.016976989  0.016864096            5 
  374000   0.67258268   -7.8503075    76.011179  0.016936537  0.016812481            5 
  375000   0.66290876   -7.8291804    76.206344  0.016934743  0.016761348            6 
  376000   0.66471201   -7.8438163    76.201302  0.016888586  0.016710162            3 
  377000   0.65893798    -7.821698     76.21143  0.016846028  0.016659503            3 
  378000   0.68157121   -7.8568392    76.241434  0.016808076   0.01660905            5 
  379000   0.67172796   -7.8581238    76.419114  0.016802796  0.016558628            5 
  380000   0.66550291   -7.8679141    76.381766  0.016750387  0.016508364           16 
  381000   0.65772444   -7.8696607    76.386539  0.016707467  0.016458223            6 
  382000   0.66220066   -7.8629274    76.144039  0.016610829  0.016408094            3 
  383000   0.64906089   -7.8842686    76.352545  0.016612825  0.016357915            3 
  384000   0.64107086   -7.9020967    76.227379    0.0165424  0.016307686            3 
  385000   0.66052309   -7.8876792    76.310172  0.016517353  0.016257642            5 
  386000   0.64367733   -7.9030855    76.118908   0.01643327  0.016207691            4 
  387000   0.65326582   -7.8781889    76.422574  0.016456196  0.016157854            6 
  388000   0.64549557   -7.8908234    76.221279   0.01637055  0.016108138            3 
  389000   0.64560332   -7.8854127    76.452982  0.016378102  0.016058634            3 
  390000   0.65287443   -7.8957279    76.209538  0.016284089  0.016009328            5 
  391000   0.65474228    -7.920236    76.217109  0.016244056  0.015959971            3 
  392000   0.63307939   -7.9032626    76.282683  0.016216557  0.015910879            3 
  393000    0.6421379   -7.9458019    76.180821  0.016153694  0.015861976            7 
  394000   0.64865207   -7.9362764      76.1878  0.016114171  0.015813025            5 
  395000   0.65725097   -7.9116757    76.291199   0.01609519  0.015764178            3 
  396000   0.63340048   -7.9406586    76.373906   0.01607195  0.015715496            4 
  397000   0.63762002   -7.9303096    76.317738  0.016019676  0.015666806            6 
  398000   0.64050404   -7.9575662    75.976474  0.015907972  0.015618203            7 
  399000   0.63412543   -7.9393895    76.261609  0.015927654  0.015569816            4 
  400000   0.63448863   -7.9223673    76.306788  0.015897247  0.015521722            3 
  401000   0.64157165   -7.9385727    76.144006  0.015823775   0.01547373            7 
  402000   0.61916085   -7.9103881    76.383988   0.01583416  0.015425669            8 
  403000   0.62073563   -7.9426411    76.239106   0.01576491  0.015378036            5 
  404000   0.62063011   -7.9336309    76.316644  0.015741882  0.015330563            4 
  405000     0.614712   -7.9530004    76.280212  0.015695517  0.015283098            3 
  406000   0.61588647   -7.9389277    76.425221  0.015686622  0.015235694            4 
  407000   0.61876111   -7.9706032    76.359749  0.015634674  0.015188381            4 
  408000   0.61850521    -7.937037    76.321054  0.015588451  0.015141286            5 
  409000   0.60535887   -7.9598223    76.316205  0.015549349  0.015094172            5 
  410000   0.61142074    -7.979885    76.274154  0.015502877  0.015047278            3 
  411000   0.61833505   -7.9647289    76.298217  0.015470036  0.015000418            8 
  412000      0.62095   -7.9495124    76.167156  0.015405978   0.01495373            5 
  413000   0.60956961   -7.9478303     76.44336  0.015424407  0.014907455            3 
  414000   0.60517406    -7.956542    76.399486  0.015378318  0.014861173            6 
  415000   0.60086353   -7.9915736    76.165927  0.015294363  0.014814998            9 
  416000   0.61378334   -7.9864132    76.201955  0.015264815  0.014768934            7 
  417000   0.60811725   -7.9990331    76.114424  0.015210716  0.014723002            5 
  418000   0.60387282   -7.9991019    76.264999  0.015204346  0.014677087            9 
  419000   0.59536393   -7.9971143    76.264333  0.015167926  0.014631404            8 
  420000   0.58720418   -8.0094028    76.341098  0.015147043  0.014585866            8 
  421000   0.60761113   -7.9947509    76.111483  0.015065614  0.014540515            7 
  422000   0.59590264   -7.9866325    76.301651  0.015067467  0.014495335            6 
  423000   0.59509819     -8.01322    76.335112  0.015038438  0.014450346            5 
  424000   0.60859969   -8.0108421    76.182783  0.014973031  0.014405423            5 
  425000   0.59164444   -8.0287151    76.177054  0.014936677  0.014360546            8 
  426000   0.59587759   -8.0068414    76.322953  0.014930155  0.014315837            8 
  427000   0.59013378   -8.0216619    76.306107  0.014891902  0.014271256            7 
  428000   0.58318078   -8.0239392    76.135257  0.014823843  0.014226605           10 
  429000     0.578649   -8.0229865    76.284729  0.014818323  0.014182149            3 
  430000   0.57485993   -8.0384167    76.223095  0.014771918  0.014137779           11 
  431000   0.57509127   -8.0250999    76.162233  0.014725876  0.014093443            6 
  432000   0.58693964   -8.0246088    76.041655  0.014668529  0.014049122            8 
  433000   0.58249387   -8.0669558    76.164732  0.014658339  0.014004954            7 
  434000   0.58786783    -8.060456    76.075164  0.014607366  0.013960881            6 
  435000   0.56390785   -8.0801929    76.070483   0.01457289  0.013917005            4 
  436000   0.57981475   -8.0541712    76.078997  0.014541093  0.013873196            6 
  437000   0.57453689   -8.0631754     76.14831  0.014521035  0.013829764            3 
  438000   0.56667391   -8.0803359    76.174125  0.014492794   0.01378645            5 
  439000   0.56992121   -8.0552392    76.066569  0.014439364  0.013743277            7 
  440000   0.55895972   -8.0632154    76.034412  0.014400457  0.013700127            9 
  441000   0.55104499    -8.088518    75.989147  0.014359249  0.013657037            7 
  442000   0.56556303   -8.0752069    75.959572  0.014321186  0.013614119            8 
  443000   0.55773396   -8.0805166    75.972914  0.014291368  0.013571269           14 
  444000   0.55996479    -8.068882    76.002551  0.014264743    0.0135286            6 
  445000   0.56208409    -8.093397    76.009127  0.014233919  0.013486082            7 
  446000   0.56404617   -8.0828688    75.998274  0.014199976  0.013443789            7 
  447000   0.55262278   -8.0848883    75.970263  0.014162987  0.013401569            7 
  448000   0.55843395   -8.0790928    75.938502  0.014125465   0.01335955            7 
  449000   0.54989729    -8.077957     76.03885   0.01411263  0.013317653            9 
  450000   0.54800686   -8.1023287     76.02581  0.014078854  0.013275933            7 
  451000   0.54776573    -8.108003    76.009457  0.014044615   0.01323435            8 
  452000   0.55482712   -8.1071001    76.044438  0.014019992  0.013192906            7 
  453000   0.56167409   -8.1012311    75.903429  0.013963103  0.013151463            8 
  454000   0.55335457   -8.1037935    75.952485  0.013941352  0.013110151            4 
  455000   0.53581014   -8.0921401    75.999252  0.013919277  0.013069006            6 
  456000   0.53434013   -8.1160761    75.970937  0.013883578  0.013028039            7 
  457000   0.53308618   -8.1278095     75.84076   0.01382946  0.012987206            5 
  458000   0.53333257   -8.1195466    75.950588  0.013819248  0.012946436            5 
  459000   0.52824556   -8.1250965    75.862797  0.013773202    0.0129058            4 
  460000   0.54044496   -8.1311763    76.012478  0.013770376  0.012865441            7 
  461000   0.53529659   -8.1246826      75.8566  0.013712328  0.012825056            5 
  462000   0.53636425    -8.112131    75.955862  0.013700552   0.01278483            6 
  463000   0.53153903     -8.12785    75.939669  0.013668047  0.012744804            6 
  464000   0.52261874   -8.1250701    75.891216  0.013629888  0.012704888            4 
  465000   0.53474983   -8.1429981    75.912523  0.013604395  0.012665124            5 
  466000   0.52341363   -8.1392556    75.769854  0.013549688  0.012625525            9 
  467000   0.51137242    -8.144151     75.82216  0.013530007  0.012585969            4 
  468000   0.51935392   -8.1440437    75.869266  0.013509485  0.012546629            5 
  469000   0.51218518    -8.148281    75.763658  0.013461915  0.012507326            6 
  470000   0.52415553   -8.1423471    75.901283  0.013457674  0.012468256            7 
  471000   0.51344792   -8.1623343    75.790326   0.01340947  0.012429376            5 
  472000   0.51969323   -8.1586414    75.847741  0.013391197  0.012390594            7 
  473000    0.5168911   -8.1577941     75.81344  0.013356843  0.012351976            5 
  474000   0.50891126   -8.1453839     75.77696   0.01332225  0.012313415            6 
  475000   0.51190658   -8.1544906    75.736405  0.013287089  0.012274995            6 
  476000   0.51235326   -8.1734977    75.723327  0.013256885  0.012236702            6 
  477000   0.50789337   -8.1774911    75.656612  0.013217437  0.012198539            7 
  478000   0.50288587   -8.1690882    75.750673  0.013206184    0.0121605            4 
  479000   0.50016904   -8.1761579    75.752097  0.013178862  0.012122648            6 
  480000   0.48916409   -8.1667696     75.70576  0.013143361  0.012084897            7 
  481000   0.50184219   -8.1643302    75.828111  0.013137233  0.012047341            7 
  482000   0.50413788   -8.1847939    75.715635  0.013090532  0.012009793            3 
  483000   0.50273494   -8.1831975    75.688438  0.013058737  0.011972471            7 
  484000   0.49801062   -8.1878608    75.650746  0.013025266  0.011935286            5 
  485000   0.48924754   -8.1858218    75.580762  0.012986385  0.011898277            7 
  486000   0.49449145   -8.1885056    75.724544  0.012984318  0.011861396            4 
  487000   0.48554551   -8.1943687    75.674501  0.012949093  0.011824591            7 
  488000   0.47850436   -8.1735943    75.782638  0.012941024   0.01178798           10 
  489000   0.48881433   -8.2041432    75.706082  0.012901514  0.011751466            5 
  490000   0.48732289   -8.2115782    75.701454  0.012874397  0.011715063            4 
  491000   0.48956125   -8.2157452    75.603598  0.012831568  0.011678806            4 
  492000   0.47913517   -8.2173761    75.615192  0.012807451  0.011642629            4 
  493000   0.48323448   -8.1961951    75.681715  0.012792717  0.011606602            6 
  494000    0.4763746   -8.2035179    75.538905   0.01274273   0.01157072            7 
  495000   0.46945234   -8.2201429    75.653666  0.012736307   0.01153501            4 
  496000   0.47120159   -8.2068769    75.697276  0.012717956  0.011499425            4 
  497000   0.46856412   -8.2238418    75.555604  0.012668612  0.011463956            7 
  498000   0.46610121   -8.2263829    75.606117  0.012651626  0.011428594            5 
  499000   0.48240779   -8.2158641    75.508086  0.012609901  0.011393353            5 
  500000   0.46148271   -8.2225041    75.515978  0.012585996  0.011358207            4 
  501000    0.4633079   -8.2135318    75.562111  0.012568548  0.011323207            6 
  502000   0.46164589   -8.2145922    75.529233  0.012538053  0.011288272            5 
  503000   0.45910374   -8.2406604    75.574479  0.012520623  0.011253514            6 
  504000   0.46656985   -8.2286075    75.448692  0.012474982  0.011218834            6 
  505000   0.46744215   -8.2484142    75.431396  0.012447425  0.011184309            5 
  506000   0.44579205   -8.2254713    75.483223  0.012431361  0.011149897            7 
  507000   0.46338747   -8.2347902     75.39198  0.012391844  0.011115584           10 
  508000   0.46106055    -8.255848    75.403176  0.012369287  0.011081368            5 
  509000   0.46693804   -8.2405604    75.415221  0.012346958   0.01104729           10 
  510000   0.45199775   -8.2504692    75.374783  0.012316141  0.011013321            6 
  511000   0.44866028   -8.2529946    75.433574  0.012301627  0.010979553            5 
  512000   0.45403291   -8.2495634    75.515133  0.012290875  0.010945934            8 
Loop time of 1157.19 on 48 procs for 500000 steps with 4000 atoms

Performance: 74663.652 tau/day, 432.081 timesteps/s
99.4% CPU use with 48 MPI tasks x no OpenMP threads

MPI task timing breakdown:
Section |  min time  |  avg time  |  max time  |%varavg| %total
---------------------------------------------------------------
Pair    | 70.706     | 74.872     | 81.282     |  27.7 |  6.47
Neigh   | 7.3668     | 7.7083     | 8.0697     |   6.4 |  0.67
Comm    | 68.166     | 75.82      | 81.453     |  34.8 |  6.55
Output  | 0.82946    | 0.8299     | 0.83797    |   0.1 |  0.07
Modify  | 983.85     | 986.4      | 989.12     |   4.4 | 85.24
Other   |            | 11.56      |            |       |  1.00

Nlocal:        83.3333 ave          92 max          74 min
Histogram: 1 3 5 6 3 9 12 5 3 1
Nghost:        1936.92 ave        1952 max        1919 min
Histogram: 2 2 5 8 5 4 8 7 3 4
Neighs:        12306.9 ave       13877 max       10384 min
Histogram: 1 1 4 6 8 8 8 8 1 3
FullNghs:      24613.3 ave       27543 max       21764 min
Histogram: 2 2 6 5 6 12 9 3 2 1

Total # of neighbors = 1181438
Ave neighs/atom = 295.35950
Neighbor list builds = 26846
Dangerous builds = 0

#clear
#
#next RN
#
#jump SELF
Total wall time: 0:19:20
