
units lj                  # Use reduced LJ style units
atom_style atomic         # Uncharged point particles
atom_modify map hash      # Needed for indexing of clusters etc
                          # Used to be able to find where atoms are in relation to each other.

lattice fcc 1.0 spacing 1 1 1
Lattice spacing in x,y,z = 1.5874011 1.5874011 1.5874011
region box block 0 10 0 10 0 10 units lattice
create_box 2 box
Created orthogonal box = (0.0000000 0.0000000 0.0000000) to (15.874011 15.874011 15.874011)
  3 by 4 by 4 MPI processor grid
create_atoms 1 box
Created 4000 atoms
  using lattice units in orthogonal box = (0.0000000 0.0000000 0.0000000) to (15.874011 15.874011 15.874011)
  create_atoms CPU = 0.003 seconds
set type 1 type/fraction 2 0.54 78393
Setting atom values ...
  2170 settings made for type/fraction
mass 1 1.0
mass 2 1.0
pair_style lj/cut  3.5
pair_modify tail  yes
pair_coeff 1  1  1.0  1.0   # Intearaction between 1 and 1 set with epsilon = 1 and sigma = 1
pair_coeff 1  2  1.5  0.8
pair_coeff 2  2  0.5  0.88

write_data data.0
System init for write_data ...
Neighbor list info ...
  update every 1 steps, delay 10 steps, check yes
  max neighbors/atom: 2000, page size: 100000
  master list distance cutoff = 3.8
  ghost atom cutoff = 3.8
  binsize = 1.9, bins = 9 9 9
  1 neighbor lists, perpetual/occasional/extra = 1 0 0
  (1) pair lj/cut, perpetual
      attributes: half, newton on
      pair build: half/bin/atomonly/newton
      stencil: half/bin/3d
      bin: standard
WARNING: Not all mixed pair coeffs generated from mixing. Use write_data with 'pair ij' option to store all pair coeffs. (../write_data.cpp:312)


#############################
#   M E L T   S Y S T E M   #
#############################

velocity all create 2.4 8172548 mom yes dist gaussian # Assign velocities
                                                    # Temperature 2.4, random number seed, zero linear momentum
                                                                                # Gaussian distribution

timestep 0.002   # simulation timestep
thermo 1000       # output thermodynamic data every 1000 steps bf 100

# Define a fix  in this case with index 1 applied to all
# particles in the simulation. This fix is for simulations
# in the anisotropic NPT ensemble. Note that we use the MTK
# correction.
fix 1 all npt temp 2.4 2.4 0.1 iso 5.68 5.68 0.5 mtk yes tchain 5 pchain 5 # Use NPT ensemble
                                                                         # Set temperature and pressure and damping
                                                                         # Numbers of thermostats in chain and in barostat
run 10000          # run for 10000 steps
Per MPI rank memory allocation (min/avg/max) = 3.642 | 3.644 | 3.648 Mbytes
Step Temp E_pair E_mol TotEng Press Volume 
       0          2.4   -5.0605359            0   -1.4614359   -4.1673139         4000 
    1000    2.4188514   -4.7797403            0   -1.1523703    5.6839857    3637.4667 
    2000    2.4433246   -4.7367875            0   -1.0727169    5.6033751    3659.2809 
    3000    2.3591443   -4.7523745            0   -1.2145427    5.6233185    3652.0339 
    4000     2.410262   -4.7923736            0   -1.1778845    5.4013044    3653.3539 
    5000    2.4039506   -4.7043461            0   -1.0993217    6.0237911    3649.6523 
    6000    2.3447658   -4.6803876            0   -1.1641181    5.6120709    3676.1025 
    7000    2.3438901     -4.78191            0   -1.2669539    5.6623481    3645.2081 
    8000    2.3308919    -4.745347            0   -1.2498832    5.8070262    3629.7135 
    9000    2.4004554    -4.763474            0   -1.1636911    5.3935468    3663.2403 
   10000     2.380764   -4.7163082            0   -1.1460549     5.500892    3673.3491 
Loop time of 2.75924 on 48 procs for 10000 steps with 4000 atoms

Performance: 626259.559 tau/day, 3624.187 timesteps/s
99.6% CPU use with 48 MPI tasks x no OpenMP threads

MPI task timing breakdown:
Section |  min time  |  avg time  |  max time  |%varavg| %total
---------------------------------------------------------------
Pair    | 1.2151     | 1.282      | 1.4863     |   4.0 | 46.46
Neigh   | 0.2163     | 0.22719    | 0.25181    |   1.3 |  8.23
Comm    | 0.78671    | 0.95509    | 1.0678     |   6.1 | 34.61
Output  | 0.00025389 | 0.00025957 | 0.00033106 |   0.0 |  0.01
Modify  | 0.21309    | 0.27874    | 0.35066    |   8.1 | 10.10
Other   |            | 0.01601    |            |       |  0.58

Nlocal:        83.3333 ave          90 max          74 min
Histogram: 1 1 5 3 5 6 15 3 4 5
Nghost:        1749.79 ave        1770 max        1727 min
Histogram: 1 5 1 11 4 9 3 6 2 6
Neighs:        10387.2 ave       11569 max        9145 min
Histogram: 3 4 3 6 6 8 7 5 5 1

Total # of neighbors = 498587
Ave neighs/atom = 124.64675
Neighbor list builds = 907
Dangerous builds = 209

# Equilibrate just above the melting temperature to avoid step fn in T

fix 1 all npt temp 1.25 1.25 0.1 iso 5.68 5.68 0.5 mtk yes tchain 5 pchain 5
run 2000
Per MPI rank memory allocation (min/avg/max) = 3.644 | 3.646 | 3.649 Mbytes
Step Temp E_pair E_mol TotEng Press Volume 
   10000     2.380764   -4.7163082            0   -1.1460549     5.500892    3673.3491 
   11000    1.2430312   -6.8487353            0   -4.9846547      5.72876    2827.8249 
   12000    1.2581749   -6.9860343            0   -5.0992438    5.9037051    2785.0755 
Loop time of 0.757522 on 48 procs for 2000 steps with 4000 atoms

Performance: 456224.247 tau/day, 2640.187 timesteps/s
99.3% CPU use with 48 MPI tasks x no OpenMP threads

MPI task timing breakdown:
Section |  min time  |  avg time  |  max time  |%varavg| %total
---------------------------------------------------------------
Pair    | 0.29314    | 0.32587    | 0.35444    |   2.2 | 43.02
Neigh   | 0.041659   | 0.044577   | 0.04784    |   0.6 |  5.88
Comm    | 0.22867    | 0.25527    | 0.28972    |   2.6 | 33.70
Output  | 5.5054e-05 | 5.6305e-05 | 7.5027e-05 |   0.0 |  0.01
Modify  | 0.12182    | 0.12675    | 0.13155    |   0.8 | 16.73
Other   |            | 0.005001   |            |       |  0.66

Nlocal:        83.3333 ave          90 max          77 min
Histogram: 2 2 6 7 9 6 8 3 2 3
Nghost:        2101.21 ave        2116 max        2091 min
Histogram: 7 6 5 4 5 7 8 1 3 2
Neighs:        13700.1 ave       15740 max       12385 min
Histogram: 3 4 12 6 10 5 4 3 0 1

Total # of neighbors = 657603
Ave neighs/atom = 164.40075
Neighbor list builds = 144
Dangerous builds = 13

#############################
# L I N E A R  Q U E N C H  #
#############################

# Define solid atoms. This closely follows ten Wolde  Ruiz-Montero and Frenkel  Faraday Discuss  1996  104  93-110
# Compute components of the per-atom q6 vector
compute q6 all orientorder/atom degrees 1 6 components 6 nnn NULL cutoff 1.3 # compute the Q6 parameter.
                                                                             # Use all neighbours within 1.3 unit cell.

# get number of connections
compute coord_number all coord/atom orientorder q6 0.5

# An atom is solid if it has 8 or more connections (of a possible 14)
variable is_solid atom c_coord_number>=8
group solid dynamic all var is_solid    # Must be dynamic to update
dynamic group solid defined

# do clustering
compute cluster solid cluster/atom 1.3 # Create a cluster where all atoms within are solid and max 1.3 units from another member

# define chunks one chunk per cluster
compute clus_chunks solid chunk/atom c_cluster nchunk every compress yes  # Says which atoms are in which chunk

# count the size of each chunk
compute size_chunks solid property/chunk clus_chunks count


# Find the maximum entry in the vector of chunk sizes
variable max_n equal max(c_size_chunks)


# Thermo style which includes this variable
# thermo_style custom step temp pe vol v_max_n

thermo ${N}  # Print the thermo information every 100 steps
thermo 1000  

# Reset the npt fix at a lower temperature (below freezing)
fix 1  all npt temp  ${temp} ${temp}  0.1  iso  5.68  5.68  0.5  mtk yes tchain  5  pchain  5
fix 1  all npt temp  0.45 ${temp}  0.1  iso  5.68  5.68  0.5  mtk yes tchain  5  pchain  5
fix 1  all npt temp  0.45 0.45  0.1  iso  5.68  5.68  0.5  mtk yes tchain  5  pchain  5

dump dmp2 all dcd ${N} traj.dcd
dump dmp2 all dcd 1000 traj.dcd


compute msd all msd com yes
variable twopoint equal c_msd[4]/6/(step*dt+1.0e-6)
fix 9 all vector 10 c_msd[4]
variable fit equal slope(f_9)/6/(10*dt)
thermo_style custom step temp pe c_msd[4] v_twopoint v_fit v_max_n

fix 1 all npt temp 1.25 ${temp} 0.1 iso 5.68 5.68 0.5 mtk yes tchain 5 pchain 5
fix 1 all npt temp 1.25 0.45 0.1 iso 5.68 5.68 0.5 mtk yes tchain 5 pchain 5
run 5000000 # 5000000  # Run for this many steps
Neighbor list info ...
  update every 1 steps, delay 10 steps, check yes
  max neighbors/atom: 2000, page size: 100000
  master list distance cutoff = 3.8
  ghost atom cutoff = 3.8
  binsize = 1.9, bins = 8 8 8
  4 neighbor lists, perpetual/occasional/extra = 1 3 0
  (1) pair lj/cut, perpetual
      attributes: half, newton on
      pair build: half/bin/atomonly/newton
      stencil: half/bin/3d
      bin: standard
  (2) compute orientorder/atom, occasional
      attributes: full, newton on
      pair build: full/bin/atomonly
      stencil: full/bin/3d
      bin: standard
  (3) compute coord/atom, occasional
      attributes: full, newton on
      pair build: full/bin/atomonly
      stencil: full/bin/3d
      bin: standard
  (4) compute cluster/atom, occasional
      attributes: full, newton on
      pair build: full/bin/atomonly
      stencil: full/bin/3d
      bin: standard
Per MPI rank memory allocation (min/avg/max) = 9.846 | 9.849 | 9.853 Mbytes
Step Temp PotEng c_msd[4] v_twopoint v_fit v_max_n 
   12000    1.2581749   -6.9860343  2.31649e-30 1.6086736e-32 8.3333333e+20            2 
   13000    1.2738715   -6.9509445   0.47323312 0.0030335455  0.038546253            2 
   14000    1.2387295   -6.9887554   0.87615479 0.0052152069  0.035772361            1 
   15000     1.251327    -7.031721    1.2420428 0.0069002375  0.034219852            2 
   16000    1.2555343   -7.0060534    1.6592517 0.0086419357  0.033529749            1 
   17000    1.2748768   -6.9520294    2.0763786  0.010178326   0.03353728            2 
   18000    1.2631927   -7.0046135    2.5063293  0.011603376  0.033967974            2 
   19000    1.2375877   -6.9587146    2.8656214  0.012568515  0.033921241            1 
   20000    1.2465188   -6.9747485    3.2593322   0.01358055  0.033577688            3 
   21000    1.2229205   -6.9239474    3.6796603  0.014601826  0.033543438            2 
   22000    1.2400807   -6.9987755    4.1541681  0.015735485  0.033794649            2 
   23000    1.2311071   -6.9582534     4.626238  0.016761732  0.034062853            4 
   24000    1.2489833   -6.9606816    4.9651929  0.017240253   0.03425185            2 
   25000    1.2511365   -6.9691282     5.318905  0.017729683  0.034142514            1 
   26000     1.244295   -6.9612385    5.7227739  0.018342224   0.03404434            3 
   27000    1.2533276   -7.0072147    6.0232879  0.018590395  0.033847576            2 
   28000    1.2604682   -6.9725637     6.429667  0.019135913  0.033588065            3 
   29000    1.2546557   -6.9859876    6.8365669  0.019645307  0.033444194            2 
   30000    1.2470433    -6.960874    7.3578542  0.020438483  0.033429103            2 
   31000    1.2483872   -7.0370615    7.8388909  0.021072287   0.03358211            1 
   32000    1.2651632   -6.9985847    8.2773982  0.021555724  0.033705024            3 
   33000    1.2645552   -6.9840089    8.6386531   0.02181478  0.033827023            1 
   34000    1.2654033   -6.9739882    9.1226301  0.022359387  0.033950737            2 
   35000    1.2331862    -6.950455    9.6489544  0.022973701  0.034109022            4 
   36000    1.2415663   -7.0448187    10.118852  0.023423268  0.034302369            3 
   37000    1.2275235   -6.9593075     10.54266  0.023744729  0.034455528            1 
   38000    1.2559892   -7.0216069    10.740749  0.023554274   0.03452452            3 
   39000    1.2361042   -6.9761381    11.210318   0.02395367  0.034530323            2 
   40000    1.2269786    -6.979694    11.702164  0.024379509   0.03457086            4 
   41000    1.2789785   -7.0011584     12.17381  0.024743516  0.034622799            2 
   42000    1.2397858   -7.0481357    12.522573  0.024846376  0.034673051            2 
   43000    1.2337709   -6.9949924    12.917494  0.025033904    0.0346981            3 
   44000    1.2361586   -6.9786811    13.306363  0.025201446  0.034729714            2 
   45000    1.2139127   -6.9512508    13.770008  0.025500015   0.03474014            3 
   46000    1.2325984   -6.9892616    14.155153  0.025643394  0.034750557            3 
   47000    1.2365355   -7.0108671     14.44824  0.025617447  0.034721958            2 
   48000    1.2799806   -7.0065764    14.885949  0.025843662  0.034677156            2 
   49000    1.2478183   -6.9801019    15.275995  0.025979584  0.034645259            2 
   50000    1.2380548   -7.0006514    15.662604   0.02610434  0.034605267            1 
   51000    1.2529155   -7.0229939    16.069905  0.026258014  0.034581514            5 
   52000       1.2467   -7.0299401    16.404636  0.026289481  0.034554642            2 
   53000    1.2462925    -7.004869    16.705202  0.026266041  0.034483862            2 
   54000    1.2315904   -6.9870435    17.233524  0.026594945  0.034411868            2 
   55000    1.2556666   -6.9929131     17.66713  0.026768379  0.034373281            1 
   56000    1.2531704   -6.9635777    18.157945  0.027020751  0.034351043            3 
   57000    1.2468629   -7.0164613    18.650858  0.027267337  0.034372057            3 
   58000    1.2259905   -6.9967322     19.02728  0.027338046  0.034400782            2 
   59000    1.2642894   -7.0163576    19.486289  0.027523007  0.034415287            3 
   60000    1.2289488   -6.9692575    20.019541  0.027804918  0.034425449            1 
   61000    1.2511237   -6.9375277    20.430449  0.027910449  0.034452443            2 
   62000     1.221079   -6.9661705    20.756331  0.027898294  0.034481431            3 
   63000    1.2443278   -7.0116534    21.109201  0.027922223  0.034486068            4 
   64000    1.2053499   -7.0025428    21.489228  0.027980765  0.034490695            1 
   65000    1.2222203    -7.023331    21.832691  0.027990629  0.034493122            2 
   66000    1.2588161   -7.0462657    22.084941  0.027885026   0.03446589            2 
   67000    1.2326747   -7.0506555    22.604953  0.028115613  0.034433261            1 
   68000    1.2427819   -6.9830839     23.10049  0.028309424  0.034425738            4 
   69000    1.2175437   -6.9715964    23.523201  0.028409663  0.034406912            1 
   70000    1.2360881   -7.0154914     23.79899  0.028332131  0.034389522            1 
   71000    1.2525992   -7.0052691    24.146817  0.028341334  0.034362157            4 
   72000    1.2332848   -6.9692651    24.463484  0.028314217    0.0343219            2 
   73000    1.2673382   -7.0087472    24.708638  0.028206207  0.034273309            4 
   74000    1.2549994   -7.0054016    25.027808  0.028184468  0.034209904            4 
   75000    1.2357256   -6.9981692    25.378489  0.028198321  0.034149527            2 
   76000    1.2565242   -6.9421036    25.751212  0.028235978   0.03409413            4 
   77000    1.2339704    -7.009004    26.176874   0.02832995  0.034028423            2 
   78000    1.2303231   -6.9523121    26.666019  0.028489336  0.033971958            3 
   79000    1.2177296    -7.043136    27.008787  0.028490281  0.033929655            2 
   80000     1.239267   -6.9805728    27.233699  0.028368437  0.033876564            3 
   81000    1.2498075   -6.9751314    27.707871   0.02850604  0.033823879            1 
   82000    1.2499835   -7.0023603    28.123985  0.028581285  0.033775648            2 
   83000    1.2451973   -6.9532629    28.618611  0.028733545   0.03373888            1 
   84000    1.2533979   -6.9673699    28.970558  0.028740633  0.033700834            3 
   85000      1.24473   -7.0293645    29.371608  0.028795694  0.033664631            2 
   86000    1.2125139   -7.0189163    29.889234  0.028962436  0.033637054            2 
   87000    1.2466233   -7.0008167    30.300043   0.02902303  0.033621572            3 
   88000    1.2450687   -7.0520445    30.601579  0.028978767  0.033603615            3 
   89000    1.2072087   -7.0415287    30.935162  0.028965507  0.033585639            4 
   90000    1.2587938   -6.9964013    31.427113  0.029099178  0.033560239            2 
   91000    1.2470922   -6.9814423    31.731283  0.029057951  0.033534412            2 
   92000    1.2264928   -7.0147669    32.020508  0.029004083  0.033508668            1 
   93000    1.2307037    -7.079193    32.432339  0.029061236  0.033484848            3 
   94000    1.2268709   -7.0054863    32.917494  0.029182175  0.033455431            2 
   95000    1.2524007   -6.9885552    33.326498   0.02923377   0.03343162            6 
   96000     1.221811    -6.982155    33.635622  0.029197589   0.03341197            4 
   97000    1.2403076   -7.0774894    33.796438  0.029034741  0.033379557            3 
   98000    1.2449007   -6.9523164    34.252161  0.029125987  0.033343438            1 
   99000    1.2364954   -7.0165764    34.597899  0.029122811  0.033311911            1 
  100000    1.2316046   -7.0324423    34.820159  0.029016799  0.033270906            1 
  101000    1.2193175   -6.9994646     35.24626  0.029081073  0.033231045            2 
  102000    1.2362152   -7.0121958    35.703092  0.029169192  0.033195302            3 
  103000    1.2666153   -7.0449432    35.764704  0.028935845   0.03315703            4 
  104000    1.2484144    -7.103655    36.264734   0.02905828  0.033116026           10 
  105000    1.2436675    -7.005616    36.573039  0.029026221  0.033071427            1 
  106000    1.2391008   -7.0467885     37.07295  0.029145401  0.033033424            3 
  107000    1.2493086    -7.029141      37.6605  0.029330607  0.033003976            2 
  108000    1.2095842   -7.0582318    37.729547  0.029112305  0.032976985            2 
  109000    1.2406533   -7.0689805    38.205849  0.029209364  0.032945504            4 
  110000    1.2295603   -6.9751849    38.710085  0.029325822  0.032909916            2 
  111000    1.2362003   -6.9437787    39.089687  0.029346611  0.032882014            1 
  112000    1.2220847    -7.012669    39.360858  0.029286353  0.032857921            2 
  113000    1.2430151    -6.950864    39.675508  0.029259224  0.032826935            1 
  114000     1.232704   -7.0566261    39.757011  0.029062142  0.032789219            2 
  115000    1.2393733   -7.0264245    40.368359  0.029252434  0.032755188            1 
  116000    1.2673048   -6.9596586    40.959956  0.029425256  0.032731164            3 
  117000    1.2298675   -7.0263114    41.238796  0.029372361  0.032705676            4 
  118000    1.2409559   -6.9993397    41.865034  0.029565702  0.032687872            2 
  119000    1.2545914   -7.0374723    41.977657  0.029396118  0.032671393            3 
  120000    1.2634562     -7.05449    42.262264  0.029348794  0.032650986            4 
  121000    1.2276686   -7.0186784    42.745687  0.029439178  0.032624436            1 
  122000    1.2517517   -7.0310711    43.156357  0.029478386  0.032605833            7 
  123000    1.2136575   -7.0514741    43.512631  0.029480102  0.032588867            2 
  124000    1.2390642   -7.0375814    43.844087  0.029465112  0.032571436            1 
  125000    1.2255703   -6.9959512    44.180498  0.029453665  0.032551744            3 
  126000    1.2685321    -7.019133    44.715925  0.029574024  0.032536972            1 
  127000    1.2085882   -7.0684414    44.987899  0.029519618  0.032520191            3 
  128000    1.2215779    -7.000003    45.572455  0.029669567  0.032504091            1 
  129000    1.2230677   -7.0775925    45.690284  0.029515687  0.032487407            6 
  130000    1.2371795   -7.0587155    46.155875    0.0295871  0.032473642            2 
  131000    1.2069504    -7.030618    46.855434  0.029806256  0.032462713            4 
  132000    1.2074494     -7.00967    47.150913   0.02976699   0.03245445            2 
  133000    1.2485175   -7.0316166     47.54596  0.029790702  0.032448038            2 
  134000    1.2374353   -7.0399877    47.941541  0.029814391  0.032438975            1 
  135000    1.2471699   -7.0285316    48.205104  0.029756237  0.032429412            1 
  136000    1.2403882    -7.019268    48.420345  0.029669329  0.032414624            5 
  137000    1.2318709   -7.0057397    48.970571  0.029787452  0.032402781            4 
  138000    1.2213628   -7.0371927    49.195479  0.029707415  0.032388703            1 
  139000     1.228227   -7.0746957    49.476562  0.029662208  0.032371249            4 
  140000     1.211061   -7.0207522    49.846959  0.029670809  0.032357772            1 
  141000     1.260724   -7.0387638    50.243371  0.029694664  0.032343763            5 
  142000    1.2454999   -7.0415726    50.562829  0.029673022  0.032331065            2 
  143000    1.2376039   -6.9839112    51.235193  0.029857339  0.032318465            3 
  144000    1.2059157   -7.0100578    51.326257  0.029702695  0.032304362            1 
  145000    1.2342251   -7.0527817    51.642707  0.029679716  0.032286714            3 
  146000    1.2331211   -7.0036895    52.141052  0.029760874  0.032270737            2 
  147000    1.2298369   -7.0518253    52.187092  0.029584519   0.03225348            1 
  148000    1.2106568   -7.0267388    52.834139  0.029748952  0.032237933            2 
  149000    1.2300492   -7.0951322    53.260047  0.029787498  0.032224259            1 
  150000    1.2309664   -7.0313693    53.537714  0.029743174  0.032206977            3 
  151000    1.2274851   -7.0058478    53.936561  0.029766314   0.03219191            3 
  152000    1.2355091   -7.0947628    53.895751  0.029548109  0.032170833            1 
  153000    1.2260331   -7.0157708    54.270628  0.029559166  0.032146724            3 
  154000    1.2169956   -7.0292422    54.643105  0.029568779  0.032122691            1 
  155000    1.2201284   -6.9956101    55.000219   0.02957001  0.032093633            4 
  156000    1.2071337   -7.0499125    55.123082  0.029446091  0.032065908            2 
  157000    1.2518492   -7.0419595    55.550285  0.029485289  0.032038106            3 
  158000    1.2189926   -7.0461885    55.842564  0.029452829  0.032010739            5 
  159000    1.2258266   -7.0594332    56.319775  0.029517702  0.031985271            3 
  160000    1.2070796   -7.0137383    56.858433  0.029613767   0.03196357            2 
  161000    1.2206475    -7.043376    57.106446  0.029558202   0.03194372            2 
  162000    1.1881313   -6.9925031    57.725019   0.02969394  0.031926579            1 
  163000    1.1923494   -7.0758888     57.79973  0.029549964  0.031907314            2 
  164000    1.2198074   -7.0607684    58.218237  0.029582437  0.031889395            4 
  165000    1.1996949   -7.0477637    58.658517  0.029625514  0.031871627            4 
  166000     1.258475    -7.040781    59.257825  0.029747904  0.031859321            5 
  167000    1.2327921   -7.0668435    59.502961  0.029692096  0.031844485            2 
  168000    1.2004969    -7.007194    60.081134   0.02980215  0.031830243            1 
  169000    1.2431162   -7.0739396    60.260386  0.029714194  0.031818693            2 
  170000    1.2593138   -7.0226001    60.758293  0.029783477  0.031803834            1 
  171000    1.2179295   -7.0217069    61.002021   0.02972808  0.031789755            4 
  172000    1.2155664   -7.0152851    61.642276  0.029865444  0.031779906            2 
  173000    1.2246965   -7.0170328    62.105392  0.029915892  0.031770624            3 
  174000    1.1959682   -7.0551422    62.066552   0.02972536  0.031762409            4 
  175000    1.2348855   -7.0716971    62.451896  0.029738998  0.031750542            2 
  176000    1.2387661   -7.0102198     63.20392  0.029926098  0.031740122            2 
  177000    1.2398103   -7.0726615    63.330297  0.029816524  0.031731877            1 
  178000    1.2403876   -7.0145132    64.099609   0.03000918  0.031724925            1 
  179000    1.2410259   -7.0387071    64.298871  0.029934297  0.031720509            2 
  180000    1.2275622   -7.0484827    64.347248  0.029790392  0.031712708            3 
  181000    1.2283784   -7.0419021    64.882145  0.029872074  0.031701282            2 
  182000    1.2246585   -7.0546585    64.935487  0.029732366  0.031687608            5 
  183000    1.2290706   -7.0462982     65.44723  0.029802928  0.031677215            1 
  184000    1.2147133   -7.0542032    65.977371  0.029881056  0.031666534            2 
  185000    1.2287863   -7.0556491    66.228091  0.029832473  0.031654247            2 
  186000    1.2347445   -7.0572868    66.572214  0.029826261  0.031642032            2 
  187000    1.2462055   -7.0285949    66.797319  0.029767076  0.031629379            1 
  188000    1.2247183    -7.091426    67.081973  0.029734917  0.031616191            3 
  189000     1.222952   -7.0261035    67.385479  0.029711411  0.031603202            3 
  190000    1.2193874   -7.0671132      67.6072  0.029652281  0.031591735            2 
  191000    1.2047214   -7.0452027    68.251208  0.029778014  0.031580346            1 
  192000    1.2365959   -7.0152791    68.900311  0.029904649  0.031567471            2 
  193000    1.2081834   -7.0560505    68.898223  0.029748801  0.031557886            6 
  194000    1.2179579   -7.0596616    69.387948   0.02980582  0.031547755            2 
  195000    1.2270249   -7.0035118    70.609148   0.03017485  0.031542527            5 
  196000    1.2144331   -7.0533729    70.503099  0.029975807  0.031538155            2 
  197000    1.2304112   -7.0849754    70.627278  0.029876175  0.031531419            2 
  198000    1.1982676   -7.0480101    71.084931    0.0299179  0.031528282            5 
  199000    1.2040715    -7.042358    71.740043  0.030041894  0.031524952            2 
  200000    1.2250353   -7.0261049    72.259228  0.030108011   0.03152282            2 
  201000     1.227217   -7.0432318    72.656004  0.030122721  0.031522238            2 
  202000    1.2167428   -7.0410107    73.281053  0.030231458  0.031522481            2 
  203000    1.1890497   -7.0473382    73.646383  0.030232505  0.031523441            4 
  204000    1.2313334   -7.0498043    73.603907  0.030066955  0.031523269            5 
  205000    1.2272052   -7.0255311    73.916631  0.030047411  0.031522261            1 
  206000    1.2330095   -7.0915771     73.93459  0.029908815  0.031516897            2 
  207000    1.2196888   -7.0636792    74.298418  0.029910796  0.031508606            1 
  208000    1.2157313   -7.0706541    74.522741  0.029856867  0.031499052            2 
  209000    1.2019725   -7.0553447    74.835831  0.029838848  0.031487726            2 
  210000    1.2077189    -7.011765    75.242455  0.029858117  0.031479184            3 
  211000    1.2017628   -7.0197645    75.694039   0.02989496  0.031471103            2 
  212000    1.2113055   -7.0519931    76.059071  0.029897434   0.03146161            1 
  213000     1.213179   -7.0624251    76.572041  0.029957762  0.031454312            2 
  214000    1.2315641   -7.0539952    77.104849  0.030025253   0.03144702            3 
  215000    1.2052206   -7.0471369    77.194573  0.029920377  0.031439798            3 
  216000    1.2300406   -7.0735354    77.778326   0.03000707  0.031434649            2 
  217000    1.1902233   -7.0547031    78.079732  0.029984536  0.031427705            2 
  218000    1.1886088   -7.0639492    78.513925  0.030012968  0.031423773            1 
  219000    1.2574991   -7.0666459    78.941918  0.030038781  0.031420798            2 
  220000    1.2110666   -7.0861253    79.412987  0.030080677  0.031418725            4 
  221000    1.1940267   -7.1037083    79.826049   0.03010032  0.031415999            4 
  222000    1.2355536   -7.0795137    80.137759  0.030081741  0.031412088            2 
  223000    1.2255259   -7.0727676     80.46772  0.030070149  0.031407317            2 
  224000     1.226801   -7.0691964    80.978581   0.03012596  0.031403068            3 
  225000    1.2205963   -7.0717868    81.254111  0.030094115  0.031399993            2 
  226000    1.2265965   -7.0817572    81.194381  0.029938931  0.031393228            4 
  227000    1.2223927    -7.102095    81.275658  0.029836879  0.031385884            2 
  228000     1.240702   -7.0423145    81.811143  0.029901733  0.031377846            3 
  229000    1.2328315   -7.0430487    82.108166  0.029879245  0.031371284            5 
  230000    1.2134272   -7.0448559    82.488551  0.029887156  0.031361282            2 
  231000    1.2067413   -7.0844488    82.959185  0.029927556  0.031352225            2 
  232000    1.2105044   -7.0498536    83.215199  0.029890517  0.031343617            2 
  233000     1.212593   -7.0300148    83.760501  0.029957261  0.031335476            5 
  234000    1.2306753    -7.065513    83.970449  0.029904006  0.031325138            2 
  235000    1.2024639   -7.1079695    84.171288  0.029847974  0.031316048            2 
  236000    1.2181081   -7.0826836    84.821577  0.029951122  0.031306758            3 
  237000    1.2295591    -7.075791    85.225775  0.029966869   0.03129869            1 
  238000    1.2067127   -7.1314654    85.302421  0.029867795  0.031291789            2 
  239000    1.2190163    -7.061704    86.302792  0.030091629  0.031285177            1 
  240000    1.1907208   -7.0268701    86.836424  0.030151536  0.031280438            3 
  241000    1.2041478   -7.1046107    86.815289  0.030019118  0.031277415            1 
  242000     1.212332   -7.0452908    87.525276  0.030139558    0.0312718            2 
  243000    1.2196888   -7.0866542    87.245293  0.029919511  0.031266528            2 
  244000    1.2187395   -7.1103788    87.691768  0.029949374  0.031260357            2 
  245000    1.2346115    -7.070488    88.198221  0.029999395  0.031253197            3 
  246000    1.2435551    -7.073269    88.746275  0.030063101  0.031248582            2 
  247000    1.2430086   -7.1159809    88.693952  0.029923735  0.031244282            3 
  248000    1.1978952   -7.0742816    89.193754  0.029971019  0.031240256            2 
  249000    1.2184962   -7.1295282    89.429317   0.02992949  0.031235384           10 
  250000    1.2101094   -7.0702157     90.38771  0.030129237  0.031231289            2 
  251000    1.2296433   -7.1063834     90.44605  0.030028569  0.031228611            2 
  252000    1.2040979   -7.1174397    90.686424  0.029988897  0.031225596            7 
  253000    1.2048915   -7.1151383    91.166157  0.030028378  0.031219859            1 
  254000     1.209108   -7.0960834    91.605905  0.030054431  0.031213772            8 
  255000    1.2074024     -7.08437    91.844973  0.030014697  0.031208241            8 
  256000    1.2002441   -7.0757953    93.008932  0.030276345  0.031205589            4 
  257000      1.20521   -7.0687626    92.863016  0.030111224  0.031202973            2 
  258000    1.1918155   -7.0850663    93.106603  0.030073192  0.031200023            2 
  259000    1.1975562   -7.0374564    94.060896  0.030264123  0.031196337            3 
  260000    1.1933157    -7.063667    94.187317  0.030188243  0.031193077            2 
  261000    1.1908121   -7.0422798    94.383365  0.030135174  0.031189491            2 
  262000    1.1937702   -7.0738416    94.532655  0.030067638  0.031187701            6 
  263000    1.2177328   -7.1269472    94.659577  0.029993529  0.031183689            2 
  264000    1.2166382   -7.1047376    95.269923  0.030072577  0.031178615            4 
  265000    1.2140504   -7.0720254    95.732212  0.030104469  0.031174278            1 
  266000    1.2252716   -7.0902637    95.679919  0.029974912  0.031168297            2 
  267000    1.2086618   -7.0858773    96.140712  0.030006464  0.031163122            4 
  268000    1.2283833   -7.1092092    96.418612  0.029980912  0.031157822            2 
  269000     1.209835   -7.1168192    96.984057  0.030044627  0.031152325            2 
  270000    1.1838578   -7.0689938    97.204614  0.030001424  0.031147372            2 
  271000    1.2273577     -7.03652    97.459662  0.029969146   0.03114243            4 
  272000    1.2084325   -7.0820311    97.786872  0.029959213  0.031135627            3 
  273000    1.2087062   -7.0456692    98.260318  0.029993992   0.03113011            2 
  274000    1.2309059   -7.0944829    98.603256  0.029988825  0.031124375            3 
  275000    1.2168501   -7.1136012     98.87575  0.029962348  0.031119187            1 
  276000    1.2066795    -7.093201    99.373713   0.03000414  0.031114581            2 
  277000    1.1760039   -7.1101597    99.980274  0.030078301  0.031109935            2 
  278000    1.2323348    -7.087501    100.32199  0.030072538  0.031106129            1 
  279000    1.2158309   -7.1059242    100.01253  0.029872322  0.031100643            2 
  280000      1.22686   -7.0818753     101.0669  0.030079434  0.031095387            2 
  281000    1.2038849   -7.1357725    100.95573  0.029939421  0.031091016            3 
  282000    1.1842815    -7.083902    101.38377  0.029959744  0.031085625            3 
  283000    1.2132226   -7.0650145    101.86745  0.029996306  0.031079858            4 
  284000    1.2293255   -7.0750567    102.17759  0.029981688  0.031073717            4 
  285000    1.1990378   -7.0500861    102.80157   0.03005894  0.031067602            3 
  286000    1.1989784   -7.0814002    103.22344  0.030076759  0.031061961            3 
  287000    1.2295312   -7.0836419    103.54113  0.030064207  0.031056868            4 
  288000    1.2256086   -7.0865945    104.23112  0.030159467  0.031053324            4 
  289000    1.2216357   -7.1123147    104.24999  0.030060552  0.031048703            3 
  290000     1.192702     -7.11014    104.34547   0.02998433  0.031045085            3 
  291000    1.2097811   -7.1063538    105.04285  0.030080999  0.031040807            3 
  292000    1.2257387   -7.1397468    104.99679  0.029964837  0.031035895            2 
  293000    1.1958718   -7.0510099    105.89375  0.030117677  0.031031265            5 
  294000    1.2007266   -7.0563829    106.64885  0.030229265  0.031029094            5 
  295000    1.2003074   -7.1257891    106.50761  0.030086895  0.031027036            5 
  296000    1.2145747   -7.1118719    107.00229  0.030124517  0.031025434            2 
  297000    1.2073498   -7.0803328    107.54799  0.030176204  0.031023976            2 
  298000    1.2038081   -7.0443711     108.3151  0.030289457  0.031022642            3 
  299000    1.2265454   -7.0955371    108.60324  0.030268461  0.031022314            4 
  300000    1.1858505   -7.0569432    109.23173  0.030342146  0.031022387            1 
  301000    1.1930655   -7.1526221    108.95558  0.030164889  0.031021715            3 
  302000    1.1796709   -7.1146851    109.99024  0.030350508  0.031021957            1 
  303000    1.2109737   -7.1070972    110.46882  0.030381963  0.031024391            2 
  304000    1.2076577   -7.1185559    110.41433  0.030267086   0.03102583            2 
  305000    1.2195572   -7.0450181    111.75393  0.030533861  0.031028401            1 
  306000     1.204121   -7.0716131    111.75079  0.030433221  0.031032043            2 
  307000    1.1963901   -7.0925759    111.82755  0.030354926  0.031033655            1 
  308000    1.1740004   -7.0835583    112.29985  0.030384159  0.031035503            4 
  309000    1.1934274   -7.1016485    112.02678  0.030212184  0.031035409            3 
  310000    1.2095549   -7.1351632    112.15667  0.030149643  0.031034662            1 
  311000     1.190337   -7.1354099    112.87122  0.030244165  0.031033563            3 
  312000    1.2090458   -7.1212016    113.20473  0.030236307   0.03103251            1 
  313000    1.2103202   -7.1179766    113.19239   0.03013642  0.031030346            3 
  314000    1.2109185   -7.0821606    113.77492  0.030195043  0.031028715            2 
  315000    1.1884367   -7.0900874    113.76661  0.030096987  0.031026136            1 
  316000    1.1967299   -7.0603069    114.40329  0.030169644  0.031021927            4 
  317000    1.1975315   -7.0777839    114.07685  0.029988656  0.031017092            1 
  318000    1.2250704   -7.1336041    114.61129  0.030034404  0.031012548            3 
  319000    1.1870096   -7.0805832    115.04468   0.03005347  0.031006635            5 
  320000    1.1975698   -7.0961473    115.43433  0.030061025  0.031001232            3 
  321000    1.1752478   -7.0977193    115.59733  0.030009691  0.030996758            2 
  322000    1.2190671   -7.1387183    115.86914  0.029986838  0.030991983            4 
  323000    1.1944561   -7.0970785    116.43273  0.030039403  0.030986935            5 
  324000    1.2065285   -7.0610806    116.87066  0.030059327  0.030982165            5 
  325000    1.1919154   -7.0642756    117.36904  0.030094625  0.030978195            2 
  326000    1.2315024   -7.0325798    117.96875  0.030155611  0.030974277            1 
  327000    1.2103777   -7.0295934    117.94692  0.030057829  0.030969807            1 
  328000    1.1910347   -7.1293263    117.90295  0.029955017  0.030964061            1 
  329000    1.2066177   -7.0846866    118.75172  0.030078957  0.030957967            2 
  330000    1.2223851   -7.1131828    118.21944  0.029853394  0.030953231            1 
  331000    1.2049711   -7.0625048    118.76445  0.029900415  0.030946251            3 
  332000    1.1825903   -7.1302556    118.73243  0.029802315  0.030938656            3 
  333000    1.1995643   -7.1214886    118.93657  0.029763906  0.030931413            2 
  334000     1.214113   -7.1277497    119.71448  0.029868883  0.030923523            1 
  335000    1.2105915    -7.126343    119.96728  0.029842608  0.030915904            2 
  336000    1.2227313   -7.0802224    120.80325  0.029961123  0.030908528            2 
  337000    1.2016124   -7.1180124    120.71035  0.029849246   0.03090196            2 
  338000     1.237447   -7.1210497    121.11956  0.029861825  0.030895525            2 
  339000    1.2273935   -7.1049659    121.82997  0.029948371  0.030888795            4 
  340000    1.1954281   -7.0928822    121.97375  0.029895527  0.030881831            2 
  341000    1.1999932   -7.1123354    122.42505  0.029918146  0.030875377            3 
  342000    1.1928855   -7.0864099    122.97725  0.029965217  0.030868997            2 
  343000    1.1861122    -7.069176    123.38444  0.029976783  0.030863142            3 
  344000    1.2428066   -7.0967671     123.4346  0.029901793  0.030856193            4 
  345000    1.2007979   -7.1415194    123.47574  0.029825058  0.030848912            4 
  346000    1.2187319   -7.1100449     124.2416  0.029923313   0.03084193            4 
  347000    1.1806268   -7.1201408    124.00414  0.029780053   0.03083521            5 
  348000    1.1971512   -7.1344875    124.14245  0.029727597  0.030827501            3 
  349000    1.1932392   -7.1175348     124.8258  0.029805586  0.030819516            2 
  350000    1.2148169   -7.1449992    124.55793   0.02965665  0.030811181            3 
  351000     1.190699   -7.1180654    125.32724  0.029754805  0.030802837            1 
  352000    1.2067635    -7.137306    125.15257  0.029628922  0.030794203            4 
  353000    1.2010767   -7.1284856    125.86101  0.029712232  0.030785686            2 
  354000    1.1918429   -7.1348494    126.30482  0.029732774  0.030776895            2 
  355000    1.2003725   -7.1637236    126.55281  0.029707233  0.030768036            2 
  356000    1.2238146    -7.072977    127.75752  0.029905787  0.030760145            1 
  357000    1.1920937   -7.1762707    127.17479  0.029685993  0.030751604            3 
  358000    1.2076948   -7.0815163    127.97683  0.029789766  0.030743253            1 
  359000    1.1961133   -7.0988922    128.28769  0.029778944  0.030735233            2 
  360000    1.1960352   -7.0950976    128.64224  0.029778296  0.030727493            1 
  361000    1.2060516   -7.1343399    128.71468  0.029712529   0.03071956            1 
  362000    1.2196342   -7.1112236    129.28948  0.029762772   0.03071175            1 
  363000     1.172592    -7.094882    129.16004  0.029651064  0.030703175            2 
  364000    1.1837907   -7.1637483    129.36337  0.029616155  0.030694752            3 
  365000    1.1983899   -7.1344785    130.15603  0.029715989   0.03068742            2 
  366000    1.1832498   -7.1371521    130.51171  0.029715782   0.03068053            3 
  367000    1.1983401   -7.1557406    130.67794  0.029672556   0.03067398            3 
  368000    1.2024637   -7.1631635     130.7904  0.029617392  0.030666977            3 
  369000    1.1752242   -7.1155447    131.67305  0.029736461  0.030659821            2 
  370000    1.1954662   -7.1431139    131.42151   0.02959944  0.030651956            5 
  371000     1.200212     -7.19741    131.51066  0.029539681   0.03064399            4 
  372000    1.2049083   -7.1483776    132.04902  0.029580873  0.030635598            4 
  373000    1.1962336   -7.1372384    133.04599  0.029724305  0.030627981            1 
  374000    1.1751366   -7.1666786    132.59821  0.029545056  0.030619101            4 
  375000    1.2040273   -7.1658996    133.07364  0.029571919  0.030609926            5 
  376000    1.2056805   -7.1098404    134.09417  0.029719452  0.030600448            3 
  377000    1.1973906   -7.1426206    133.57686  0.029526272   0.03059058            2 
  378000    1.1583366   -7.1500457    134.24572  0.029595617  0.030581463            3 
  379000    1.1837652   -7.2192042     134.0616  0.029477045  0.030571642            3 
  380000    1.1827727   -7.1051276     135.2066  0.029650571  0.030563787            3 
  381000     1.193402   -7.0972448    135.78924  0.029700183  0.030556737            2 
  382000    1.1741779   -7.1334589    136.06492  0.029682575  0.030549591            3 
  383000    1.1837065    -7.144949    136.26265  0.029648096  0.030542288            1 
  384000    1.1719284   -7.1178611    136.94534   0.02971904  0.030535673            3 
  385000    1.2099783   -7.1774127    136.69311  0.029587254  0.030528122            3 
  386000    1.2103755   -7.0977162    137.64079  0.029715197  0.030520999            3 
  387000    1.1883853   -7.1160824    138.05846   0.02972835  0.030515436            2 
  388000    1.2013992   -7.1364829    138.24177  0.029691101  0.030508357            2 
  389000    1.1827559   -7.1632946    138.12422  0.029589593  0.030501344            2 
  390000      1.18927   -7.1567304    138.37654  0.029567636  0.030493296            3 
  391000    1.1775714   -7.1281148    139.22768  0.029673419  0.030485548            1 
  392000    1.1874788   -7.1347065    139.33165  0.029619824  0.030479396            2 
  393000    1.2276688   -7.0738956    140.16022  0.029720149  0.030473384            1 
  394000    1.1686484    -7.127614    140.16644  0.029646032  0.030467519            3 
  395000     1.194025   -7.1402716    141.06625  0.029760812  0.030461927            3 
  396000    1.2006369   -7.1487095    140.80661  0.029631021  0.030456469            2 
  397000    1.1961707   -7.1115355    142.13483  0.029835186   0.03045205            3 
  398000    1.2012461   -7.1312764    142.04226  0.029740841  0.030447659            1 
  399000    1.1957676   -7.1286722    142.34288  0.029729089  0.030443189            2 
  400000    1.1941378    -7.177707     142.3307   0.02965223   0.03043819            3 
  401000    1.2017079   -7.1636308    142.60063  0.029634379  0.030433101            1 
  402000    1.1989527   -7.1342805    143.33516  0.029712927  0.030428883            2 
  403000    1.1890865   -7.1551162    143.33385  0.029638928  0.030423975            3 
  404000    1.1552303   -7.1056117    144.17134  0.029738313  0.030418466            4 
  405000    1.1952772   -7.1109405    144.38243  0.029708318  0.030412972            1 
  406000    1.1803955    -7.133209    144.39472  0.029637668  0.030407731            3 
  407000    1.1986587    -7.194613    144.50033  0.029586473  0.030401881            2 
  408000    1.1785254   -7.1580489    145.37379   0.02969236  0.030395422            2 
  409000    1.1723001    -7.121905    145.49382  0.029644217   0.03038988            2 
  410000    1.1559739   -7.1709239      145.675  0.029608741  0.030383971            2 
  411000    1.1734561   -7.1409922    146.39447  0.029682576  0.030378249            2 
  412000    1.1873541   -7.1765127    146.93409  0.029719679  0.030373216            1 
  413000    1.1903684   -7.1169433    146.78256  0.029617143  0.030367956            3 
  414000    1.1674926   -7.1509929    147.20849  0.029631338  0.030362303            2 
  415000    1.1729663   -7.1498165     147.3848  0.029595342  0.030356071            3 
  416000    1.1829137   -7.1226188    148.00764  0.029648967  0.030350481            2 
  417000    1.1829533   -7.1588655    148.25529  0.029627357  0.030345468            3 
  418000    1.1950111   -7.1395862     149.1882  0.029742464  0.030340927            2 
  419000     1.185979   -7.1449958    149.14465  0.029662818  0.030335623            3 
  420000    1.2024616   -7.1839647    149.12249  0.029587797  0.030329635            5 
  421000    1.1934922   -7.1541635    149.62174  0.029616338  0.030324451            2 
  422000    1.1746056   -7.1564896    149.92282  0.029605612  0.030318897            2 
  423000    1.1777815   -7.1561767    150.16519   0.02958337  0.030313371            3 
  424000    1.1748344   -7.1549926    150.76239  0.029630973  0.030307835            1 
  425000    1.1695069   -7.1654322    150.64108  0.029537466  0.030301995            2 
  426000     1.166885   -7.1665517    151.50687  0.029637493  0.030295409            2 
  427000    1.1981552   -7.1759505    151.53056  0.029572708  0.030289489            2 
  428000    1.1756891   -7.1988327      151.486  0.029494938  0.030282803            1 
  429000    1.1440682   -7.1626599     151.7922  0.029485665  0.030275612            6 
  430000     1.173914    -7.103889    152.17029  0.029490366  0.030268671            5 
  431000    1.1905275   -7.1919349    151.37493  0.029268161   0.03026082            2 
  432000    1.2016681   -7.1778448    152.00348  0.029321658  0.030252276            2 
  433000    1.1704635   -7.1470185     152.7186  0.029391571  0.030244285            2 
  434000      1.16698   -7.1997125    153.38196  0.029451222  0.030236239            1 
  435000      1.18437   -7.1815026    154.05756  0.029512943  0.030227882            1 
  436000      1.19875   -7.1655853    153.46029  0.029331095  0.030220451            5 
  437000    1.2100862   -7.1129537     154.2312  0.029410984  0.030212854            2 
  438000    1.1884178   -7.1102155    154.55053  0.029404591  0.030205124            2 
  439000    1.2095531    -7.165458    154.45836  0.029320114  0.030196487            4 
  440000    1.2181006   -7.1316993    154.60736  0.029281696  0.030188049            4 
  441000    1.1612881   -7.1209266    155.16058  0.029319838  0.030179106            3 
  442000    1.2024267   -7.1359214    155.56798  0.029330312  0.030170547            2 
  443000    1.1486177   -7.1758487    155.31019  0.029215612   0.03016205            3 
  444000     1.186574   -7.1617623    156.40766  0.029355792  0.030152992           10 
  445000    1.1783564   -7.1386765    156.88488   0.02937919  0.030144782            2 
  446000    1.1856964   -7.1825617    156.40911  0.029224422  0.030136626            1 
  447000    1.1791094   -7.1450351    156.91715  0.029253756  0.030128607            2 
  448000    1.1791212   -7.1414247    157.30689  0.029260954  0.030119655            2 
  449000    1.1788996   -7.0925097    158.01934  0.029328015  0.030111373            2 
  450000    1.1634783   -7.2227042    157.90236  0.029241178  0.030102363            2 
  451000    1.1894144    -7.175692    158.31289  0.029252197   0.03009405            3 
  452000    1.1836149   -7.1955887    158.39117  0.029201912  0.030086319            6 
  453000     1.181851   -7.1645301    158.92435  0.029235532  0.030078007            2 
  454000    1.1662976   -7.1514936    159.37409  0.029253688  0.030069801            5 
  455000    1.1539315   -7.1542085     159.8344    0.0292737  0.030061731            2 
  456000    1.1879157   -7.1974016    159.82335  0.029207484  0.030053002            2 
  457000    1.1752666   -7.2183432     159.6248  0.029107366  0.030044389            2 
  458000    1.1917035   -7.1685474     161.0069  0.029295288  0.030036193            4 
  459000    1.1770919   -7.1368243    161.45741  0.029313256   0.03002847            2 
  460000    1.1619692   -7.1626424     160.7254   0.02911692  0.030020583            4 
  461000    1.1761023   -7.1526574    161.39779  0.029175306  0.030012031            2 
  462000    1.2009105   -7.1946689    161.82973  0.029190067  0.030003555            2 
  463000    1.1938955   -7.1505707    162.54131  0.029255095  0.029995938            3 
  464000    1.1989514   -7.1807318    163.07986  0.029288769  0.029988843            1 
  465000    1.1535561   -7.1545709    163.79592  0.029354108  0.029981439            2 
  466000    1.1605557   -7.1701892    163.16017  0.029177427  0.029973818            3 
  467000    1.1773559    -7.199198    163.40524   0.02915868  0.029966014            4 
  468000    1.1788422   -7.1368066    164.27695  0.029251594  0.029957882            2 
  469000    1.1774317    -7.179923    164.27117  0.029188196  0.029950391            2 
  470000    1.1955925   -7.1370638    165.39721  0.029325747  0.029943671            2 
  471000    1.1849436   -7.1441537    164.95586  0.029185397   0.02993652            2 
  472000    1.1784492   -7.1962491    165.43107  0.029207462  0.029928792            1 
  473000    1.1676964   -7.1958308    166.16736  0.029275434  0.029921642            5 
  474000    1.1938785   -7.1320442    166.61312   0.02929204  0.029915176            2 
  475000    1.1775005    -7.198322     166.6673  0.029239878  0.029909147            2 
  476000    1.1887271   -7.1854695    167.14177  0.029261515  0.029902616            3 
  477000    1.1743139   -7.1836993    168.21931   0.02938842   0.02989661            3 
  478000     1.177759   -7.1650117    168.34735  0.029349258  0.029891268            1 
  479000    1.1539331   -7.1471646    169.45568  0.029480808  0.029886865            2 
  480000    1.1717965   -7.1425857    169.55805  0.029437161  0.029882024            3 
  481000    1.1545968   -7.2087724    169.54937  0.029374457  0.029877478            2 
  482000     1.197574   -7.2179645    169.55952   0.02931527  0.029872576            2 
  483000    1.1719278   -7.1781068    170.22342   0.02936912  0.029867318            3 
  484000    1.1661503   -7.2084784    170.39494  0.029337971  0.029862368            4 
  485000    1.1825768   -7.1043843    171.52914  0.029472362  0.029857939            2 
  486000    1.1603449   -7.1842037    171.21261  0.029357443  0.029853334            5 
  487000    1.1590199   -7.1530894    172.13805  0.029455519  0.029848786            3 
  488000    1.1470481    -7.214163    172.12268  0.029392534   0.02984416            2 
  489000    1.1807774   -7.2000912    171.84654  0.029285367  0.029839003            1 
  490000    1.1589024    -7.160795    172.80512  0.029388626  0.029834892            3 
  491000    1.1959029   -7.2178047    172.30861  0.029244503   0.02983026            1 
  492000    1.1670028   -7.1659381     172.6075  0.029235688  0.029824819            3 
  493000    1.1507465   -7.1725539     173.4392  0.029316971  0.029820371            2 
  494000    1.1625902   -7.1254209    174.15653  0.029378632  0.029816067            5 
  495000    1.1738337      -7.1819    174.05004  0.029301353  0.029811656            3 
  496000    1.1488475   -7.1882533    174.51209  0.029319908   0.02980676            2 
  497000    1.1534569   -7.1815987    174.65515  0.029284901  0.029802663            2 
  498000    1.1628807   -7.2266771    174.46807  0.029194791  0.029797453            1 
  499000    1.1620379    -7.137105    175.89899  0.029375249  0.029792468            2 
  500000    1.1689715   -7.1981425    175.10551  0.029184252  0.029786566            2 
  501000    1.1763081   -7.1537917    175.53456  0.029197365  0.029781615            1 
  502000    1.1580138   -7.2217383    175.74204  0.029173645  0.029776409            8 
  503000    1.1803307   -7.1814426    176.50878  0.029242674  0.029770609            3 
  504000     1.156573    -7.182499    176.70531  0.029217147   0.02976491            2 
  505000    1.1906368   -7.1623043    176.89583  0.029190731  0.029760318            4 
  506000    1.1807305   -7.1910848    176.95771  0.029143233  0.029755188            4 
  507000     1.184108   -7.1816802    178.69261   0.02937091  0.029749583            3 
  508000    1.1935903   -7.1788628    178.17413  0.029228039  0.029744562            2 
  509000    1.1766857   -7.1775337    177.79408  0.029108396  0.029739107            4 
  510000    1.1480816   -7.1440674    179.01227  0.029250371  0.029733514            5 
  511000     1.180635   -7.1852989    178.95904  0.029184449  0.029727909            3 
  512000    1.1601492   -7.1474843    179.62392  0.029235664  0.029722131            2 
  513000    1.1586517   -7.1894804     179.5288  0.029163222   0.02971603            2 
  514000    1.1591046   -7.1722904    180.08435  0.029196555  0.029710208            4 
  515000    1.1845401   -7.1846792    180.10106  0.029142566   0.02970417            3 
  516000    1.1688874   -7.1860908     180.2424  0.029108915  0.029697731            2 
  517000     1.148165   -7.1484113    180.55781  0.029103451  0.029691027            3 
  518000    1.1665723   -7.1863619    180.84309  0.029093162  0.029684638            2 
  519000    1.1760394   -7.1998117     180.3638  0.028960148  0.029678056            3 
  520000    1.1872371   -7.1923421    181.14695   0.02902996  0.029671162            3 
  521000    1.1320498   -7.1788582    181.83072  0.029083609  0.029664403            3 
  522000    1.1559064   -7.1747673    182.23595  0.029092585  0.029658853            3 
  523000    1.1589734   -7.1473989    182.88035  0.029139635  0.029653186            2 
  524000    1.1956107   -7.1668586    182.99549  0.029102337  0.029647327            3 
  525000    1.1801948   -7.1967395    183.02275   0.02905123  0.029640938            3 
  526000     1.155024   -7.2151204    183.73583  0.029108972  0.029634544            2 
  527000    1.1665001   -7.1825222    183.69075  0.029046608  0.029628517            1 
  528000    1.1674279    -7.226576    183.99083  0.029038956  0.029622428            3 
  529000    1.1824251   -7.2162719    183.77933  0.028950746  0.029616282            2 
  530000    1.1538589   -7.2021879    184.43807  0.028999696  0.029609787            3 
  531000    1.1501456   -7.1830294    184.97326  0.029029074  0.029602909            2 
  532000    1.1708737   -7.2167786    184.51476  0.028902687  0.029595522            2 
  533000    1.1788934   -7.2453785     184.9586  0.028917855  0.029588061            3 
  534000    1.1693051   -7.2150026    185.35366  0.028925353  0.029580894            2 
  535000    1.1621611   -7.2049466    185.97703  0.028968385  0.029573698            3 
  536000    1.1689101   -7.2187045     185.7897  0.028885215  0.029566847            6 
  537000    1.1829597   -7.2464808      185.837  0.028838764  0.029559447            2 
  538000    1.1769758   -7.2163087    187.50008  0.029042763   0.02955309            4 
  539000    1.1611283   -7.2442037    187.09219  0.028925818  0.029546993            3 
  540000    1.1299643   -7.2057465    187.74038   0.02897228  0.029540806            5 
  541000    1.1591842   -7.1919301    188.35184  0.029012914  0.029534397            4 
  542000    1.1530392   -7.2085378    189.15943  0.029083553  0.029528508            3 
  543000    1.1789939   -7.2324661    188.90638  0.028991157  0.029522375            4 
  544000    1.1660382   -7.1848543    189.43542  0.029018906  0.029516457            4 
  545000     1.158264   -7.1753174    189.59912  0.028990691  0.029510954            2 
  546000     1.154663   -7.2219215    189.31165   0.02889372  0.029505335            2 
  547000    1.1663728   -7.2085744    189.78661  0.028913256  0.029498973            3 
  548000    1.1791376   -7.1440764    192.24983  0.029235072  0.029494032            2 
  549000    1.1296044   -7.1464619    192.06094  0.029153148  0.029489492            2 
  550000    1.1570695   -7.1646066    192.22308   0.02912471   0.02948464            1 
  551000    1.1781498   -7.2156813    192.01163  0.029039871   0.02947989            5 
  552000    1.1858788   -7.2093894      192.722  0.029094505  0.029474976            2 
  553000    1.1653248   -7.2199014    192.81168  0.029055407  0.029469911            3 
  554000    1.1643326   -7.2086884    193.14118  0.029052525  0.029465018            2 
  555000    1.1721689   -7.2263858    193.09283  0.028992917  0.029460043            2 
  556000    1.1749567   -7.1588689    193.72765  0.029035918  0.029454649            4 
  557000    1.1584501   -7.2171722    193.51817  0.028952449  0.029449449            3 
  558000    1.1597869   -7.2230564    193.98755  0.028970662  0.029444038            4 
  559000    1.1573648   -7.2151958    194.33712  0.028970948  0.029438609            2 
  560000    1.1759109   -7.2233265    194.72547  0.028977005   0.02943348            4 
  561000    1.1569469   -7.1732154    195.80882  0.029086277  0.029428659            4 
  562000    1.1414818   -7.2427138    195.24259  0.028950562  0.029423928            4 
  563000    1.1455149   -7.2491467    195.93525  0.029001665  0.029419258            1 
  564000    1.1616056   -7.2262956    195.68956  0.028913942  0.029414436            1 
  565000    1.1709996   -7.2170938    196.76288  0.029021074  0.029409454            3 
  566000    1.1608355   -7.2239183    196.63672  0.028951225   0.02940445            3 
  567000    1.1670482   -7.2484949    196.33785  0.028856239    0.0293994            2 
  568000    1.1480171   -7.2140299    197.75286  0.029013037  0.029394435            3 
  569000    1.1458717   -7.2039709    197.99673  0.028997763    0.0293897            4 
  570000    1.1630692   -7.1842696    198.45501  0.029013891  0.029385209            3 
  571000    1.1649316   -7.2092942    198.67899  0.028995766  0.029380856            2 
  572000    1.1651201   -7.1996282    199.10796   0.02900757  0.029376501            2 
  573000    1.1800619   -7.2089111    199.88085   0.02906935   0.02937188            1 
  574000    1.1923901   -7.2045597    200.32334  0.029082946   0.02936733            4 
  575000    1.1939907   -7.1826251      200.249  0.029021594  0.029363137            4 
  576000    1.1917089     -7.22383    199.71773  0.028894347  0.029358621            2 
  577000    1.1858111   -7.1846808    201.10891  0.029045192  0.029353457            1 
  578000    1.1658968    -7.170672    201.10596  0.028994515  0.029347983            1 
  579000     1.166379    -7.235937     200.2909   0.02882713  0.029342658            1 
  580000    1.1872755   -7.2220823    200.58459  0.028819625   0.02933691            2 
  581000    1.1415755   -7.2092752    200.83429  0.028805836  0.029331352            2 
  582000    1.1640926   -7.1984709    201.27221  0.028819045  0.029325924            3 
  583000    1.1680959   -7.2036646    202.16075  0.028896619   0.02932054            6 
  584000    1.1529899   -7.2291926    202.18543   0.02885066  0.029315171            2 
  585000    1.1589679     -7.23867    202.03454  0.028779848  0.029309722            3 
  586000    1.1826402   -7.2141298    202.38981  0.028781258   0.02930421            3 
  587000    1.1786957   -7.1935152    204.04989    0.0289679  0.029299047            3 
  588000    1.1523589    -7.166218    203.92109  0.028900381  0.029293878            3 
  589000    1.1692626   -7.2025261     204.2425  0.028896788  0.029288848            7 
  590000    1.1684072   -7.2596871     204.0976  0.028827345  0.029283709            1 
  591000    1.1562918   -7.2196258    204.60652  0.028850327   0.02927878            3 
  592000    1.1670473    -7.228456    205.03269  0.028861584  0.029273676            5 
  593000    1.1913109   -7.2090972    205.71044  0.028908156   0.02926857            3 
  594000    1.1575803   -7.2141304    205.62061  0.028846886  0.029263686            2 
  595000    1.1473007   -7.2407057    205.89914  0.028837414  0.029258718            1 
  596000    1.1574864   -7.2463549    206.26781  0.028840577  0.029253665            4 
  597000    1.1860994    -7.237282    206.88006  0.028877731  0.029248492            2 
  598000    1.1338273   -7.2881032    206.53242  0.028780995  0.029243327            2 
  599000     1.137089   -7.1951058    208.50094  0.029006809  0.029238396            1 
  600000    1.1320041   -7.2276369    208.32135  0.028933521  0.029234901            4 
  601000    1.1750335   -7.2408148    208.48983  0.028908739  0.029230995            1 
  602000    1.1599954    -7.257431    208.08225  0.028804297  0.029226973            4 
  603000    1.1666935   -7.1527619    209.59601  0.028965729  0.029222697            4 
  604000    1.1350857    -7.222622    209.13801  0.028854582  0.029218904            2 
  605000     1.149735   -7.2024209    209.36624  0.028838325  0.029214535            2 
  606000    1.1565392   -7.1976017    209.77059  0.028846341  0.029210229            3 
  607000    1.1307685   -7.2642883    209.93247  0.028821043  0.029206124            2 
  608000    1.1618332   -7.2660233     210.1713  0.028806373   0.02920159            2 
  609000    1.1876656   -7.2104476    210.69621  0.028830899   0.02919707            2 
  610000    1.1606707   -7.2205858    210.36604   0.02873853  0.029192341            4 
  611000    1.1112839   -7.2216347    210.46865   0.02870549  0.029186771            4 
  612000    1.1488591   -7.2035487     211.3822  0.028782979  0.029181298            5 
  613000    1.1691661   -7.2064294    212.17187  0.028843376  0.029176317            3 
  614000    1.1611974   -7.2332862     211.6849  0.028730307   0.02917092            3 
  615000    1.1437626   -7.1944342    212.42953   0.02878449  0.029165842            4 
  616000     1.133178    -7.226697    213.34249  0.028861268  0.029161025            5 
  617000    1.1643126   -7.2245542    213.31963  0.028811403  0.029156091            1 
  618000    1.1534814   -7.2391114    213.57853  0.028799694  0.029151425            3 
  619000    1.1685447   -7.2135917    214.41074  0.028865204  0.029147332            3 
  620000    1.1656867   -7.1935488    215.27678  0.028935052  0.029143523            3 
  621000    1.1728378    -7.267398    214.84032  0.028829888  0.029139787            2 
  622000    1.1809071   -7.2209224     215.2772  0.028842068  0.029135539            2 
  623000    1.1424081   -7.2116918    215.96243  0.028887431   0.02913141            7 
  624000    1.1665375   -7.2322229    216.60717  0.028927239  0.029127544            2 
  625000    1.1652505   -7.1984869    217.50844  0.029001126  0.029123829            4 
  626000    1.1533534   -7.2342412    217.19775  0.028913439  0.029120305            5 
  627000    1.1327923    -7.215547     217.7548  0.028941361   0.02911633            3 
  628000    1.1616666   -7.1909414    217.13453  0.028812968  0.029112344            3 
  629000    1.1470235   -7.2252723    217.07034  0.028758656  0.029108041            2 
  630000    1.1455767   -7.2744538    217.29884  0.028743232  0.029103987            5 
  631000    1.1504466   -7.2283264    218.85226  0.028902834  0.029099814            2 
  632000    1.1234762   -7.2203882     218.4091  0.028798668  0.029095883            1 
  633000    1.1564823   -7.2560551    218.47158  0.028761398  0.029091371            3 
  634000    1.1750967   -7.2511331    219.66059  0.028872318  0.029087202            3 
  635000     1.147613   -7.2120227    219.98776  0.028869784  0.029083137            3 
  636000    1.1339906   -7.2334335    219.67617  0.028783565  0.029078874            3 
  637000    1.1465373   -7.2304707    220.15555  0.028801093  0.029074989            2 
  638000    1.1377005   -7.2488441    221.03087   0.02887028  0.029071619            5 
  639000    1.1698215   -7.1973606    222.09955  0.028964469  0.029068256            2 
  640000    1.1610148   -7.2705015    221.62913   0.02885796  0.029065172            1 
  641000    1.1900278   -7.2237527     222.4872  0.028924493  0.029062573            3 
  642000    1.1598799   -7.2219771    222.56528  0.028889574  0.029059454            1 
  643000    1.1503406   -7.2808798    221.70941  0.028733723  0.029056182            1 
  644000    1.1334871   -7.2429562    223.01172  0.028857625  0.029052893            4 
  645000    1.1669379   -7.2112312    222.61657  0.028761831   0.02904962            5 
  646000    1.1514155    -7.229527    223.64385  0.028849825  0.029045606            4 
  647000    1.1522043    -7.241093    222.98157  0.028719934  0.029041385            2 
  648000    1.1540183   -7.2380691    223.74149  0.028773339  0.029037237            2 
  649000    1.1331338    -7.220861    224.09095  0.028773876  0.029032818            2 
  650000    1.1709138   -7.2474511    223.88915  0.028703737  0.029028487            3 
  651000    1.1196856   -7.2744502    223.94068  0.028666242   0.02902371            6 
  652000    1.1431457     -7.26975    223.63708  0.028583471  0.029018705            4 
  653000    1.1655457    -7.263631    224.16713  0.028607342  0.029013696            1 
  654000    1.1570042   -7.2670695    225.20955  0.028696426  0.029008434            6 
  655000    1.1411414   -7.2646679     225.0581  0.028633345  0.029003275            1 
  656000    1.1236782   -7.2501343    225.52546  0.028649067  0.028998673            2 
  657000    1.1520925   -7.2058218    225.37597    0.0285865  0.028993943            2 
  658000    1.1464029   -7.2285528    226.03946  0.028627085  0.028988763            3 
  659000    1.1467652   -7.1652592    227.25142  0.028736901  0.028984099            1 
  660000    1.1528556   -7.2382229    226.48403  0.028596469  0.028978989            2 
  661000    1.1574267    -7.241605    227.67777  0.028703703  0.028973576            3 
  662000    1.1360395   -7.2487824    227.21014  0.028601478  0.028968555            7 
  663000    1.1232683   -7.2227636    227.75325  0.028626602   0.02896359            3 
  664000    1.1617363   -7.2639909    227.81146  0.028590796  0.028958677            1 
  665000    1.1329166   -7.2350483    229.01773  0.028698964  0.028953747            2 
  666000    1.1175791   -7.2568834    227.90288  0.028516376  0.028948851            1 
  667000    1.1407503   -7.2645785    228.50772  0.028549191  0.028944005            6 
  668000      1.15624   -7.2538127    229.04944  0.028574032  0.028939206            2 
  669000    1.1590618    -7.268963    229.43419  0.028579246  0.028934106            2 
  670000    1.1546589   -7.2640477    228.61182  0.028434306  0.028929051            4 
  671000    1.1518812   -7.3081067    228.43967  0.028370551  0.028923885            5 
  672000    1.1228848   -7.2835795    228.33456  0.028315298  0.028917442            9 
  673000    1.1262603    -7.261015    230.43181  0.028532913  0.028911397            2 
  674000    1.1412538   -7.2668384    229.74137  0.028405214  0.028905441            3 
  675000    1.1500661   -7.2851579    229.55096  0.028339624  0.028899168            2 
  676000    1.1712173   -7.2335131    230.68562  0.028437577  0.028892684            1 
  677000    1.1303688   -7.2749522    230.68595  0.028395611  0.028886499            3 
  678000     1.150986   -7.2176489      231.869   0.02849914   0.02888018            3 
  679000    1.1417931   -7.2948786    230.50403  0.028289645  0.028874057            1 
  680000    1.1548655   -7.2793263    231.65388  0.028388956  0.028867917            2 
  681000    1.1545803    -7.239207    232.08074  0.028399504  0.028861727            4 
  682000      1.11918   -7.2863269    231.25206  0.028256606  0.028855185            5 
  683000    1.1235239   -7.2310743    232.61585  0.028381632  0.028848513            4 
  684000    1.1407339   -7.2686637     232.3612  0.028309113   0.02884207            4 
  685000     1.167067   -7.2480306    232.49479  0.028284038  0.028835774            2 
  686000     1.162479   -7.2450807    232.93663  0.028296481  0.028829453            2 
  687000    1.1509417   -7.2644019    233.49165  0.028322616  0.028822786            5 
  688000    1.1260413   -7.2635656    233.65254  0.028300938  0.028816348            1 
  689000    1.1404167   -7.2882104    234.04784  0.028307673   0.02880955            3 
  690000    1.1192851   -7.2452496    233.58473  0.028210716  0.028802793            3 
  691000    1.1023857   -7.2494252    234.38164  0.028265997   0.02879576            5 
  692000    1.1366177     -7.25961    234.96504  0.028295404  0.028788717            2 
  693000    1.1253136   -7.2570167    234.97892  0.028256243  0.028781788            2 
  694000    1.1330546   -7.2732514    234.28003  0.028131607  0.028774969            1 
  695000    1.1028956   -7.2667778    234.80245  0.028153771  0.028767969            3 
  696000     1.134887   -7.2309663    236.48613   0.02831491  0.028761269            1 
  697000    1.1397682    -7.241056    236.61813  0.028290068  0.028754887            2 
  698000    1.1488276   -7.2264949    236.87526  0.028280237  0.028748462            2 
  699000    1.1312621   -7.2733711     237.2172  0.028280544  0.028742264            2 
  700000    1.1619476     -7.29803    237.23947  0.028242794  0.028735806            2 
  701000    1.1623319   -7.3309461    236.40763  0.028103617  0.028728997            5 
  702000    1.1668007   -7.3226655    237.10452   0.02814631   0.02872244            2 
  703000    1.1418692   -7.2790329    238.48678  0.028270126  0.028715963            3 
  704000    1.1461297   -7.2777265    238.38162  0.028217522  0.028709627            2 
  705000    1.1459117   -7.2671549    239.84182  0.028350096  0.028703783            4 
  706000    1.1276555   -7.2721803    239.45068  0.028263772  0.028698058            5 
  707000    1.1477378     -7.28065    239.97047  0.028285062  0.028692134            4 
  708000    1.1623099   -7.2505505    239.73356  0.028217227  0.028685916            7 
  709000    1.1572201   -7.2645762    240.09716  0.028220164  0.028680165            2 
  710000    1.1339144   -7.3206985    240.16849   0.02818879  0.028674274            3 
  711000    1.1268433   -7.2756742    241.61659  0.028318869  0.028668467            2 
  712000    1.1576136   -7.2641138    241.99823  0.028323763   0.02866302            2 
  713000    1.1244024   -7.3060471    241.09113  0.028178019  0.028657365            3 
  714000    1.1546665   -7.2688391    242.75842  0.028333149  0.028651614            2 
  715000    1.1312886   -7.2286898    243.00973  0.028322812  0.028645914            2 
  716000    1.1716365   -7.3157134    241.71883  0.028133011  0.028639732            3 
  717000    1.1410341     -7.27453    242.20753  0.028150573  0.028633748            3 
  718000    1.1141473   -7.3045402    242.27845  0.028119597  0.028627721            6 
  719000    1.1362778   -7.3054845    242.15942  0.028066692  0.028621234            3 
  720000    1.1290095   -7.2633316    243.67023  0.028202573  0.028614412            1 
  721000    1.1317689   -7.2628475    243.10487  0.028098113  0.028608022            3 
  722000    1.1242254   -7.2920549    243.67872  0.028125429   0.02860186            2 
  723000     1.135848   -7.2711277    243.73493  0.028093008  0.028595489            3 
  724000    1.1291793   -7.2838541    244.67027  0.028161864  0.028588652            2 
  725000    1.1337904   -7.3036839    243.52657   0.02799156  0.028581711            4 
  726000    1.1297293   -7.2899665    243.96219  0.028003006  0.028574611            3 
  727000    1.1290341   -7.2750911     245.4749  0.028137884  0.028567803            2 
  728000    1.1495975   -7.2924995    245.02636  0.028047889   0.02856102            3 
  729000    1.1482058   -7.2807692    245.68011  0.028084146  0.028554228            3 
  730000    1.1377949   -7.2950611    245.44029  0.028018298  0.028548032            6 
  731000    1.0984669   -7.2717931    246.40063  0.028089447  0.028541874            4 
  732000    1.1190867   -7.2275454    247.17368   0.02813908  0.028535427            1 
  733000    1.1303061   -7.2944957     246.9047  0.028070111  0.028529335            3 
  734000    1.1614139   -7.2492567    247.96053   0.02815174  0.028523064            3 
  735000    1.1195102    -7.291453    247.69286  0.028083091  0.028517088            2 
  736000    1.1275311   -7.2771794    248.08901  0.028089788  0.028511037            7 
  737000    1.1477057   -7.3366986     247.2761  0.027959758  0.028504884            2 
  738000    1.1401639   -7.2919006     249.0373  0.028120743  0.028498438            3 
  739000    1.1132973   -7.2755299    249.07835  0.028087319  0.028492184            7 
  740000    1.1316831   -7.2560514    249.24362  0.028067975  0.028485995            3 
  741000    1.1506185   -7.2807725    249.34269  0.028041238  0.028479624            2 
  742000    1.1103442    -7.315243    249.61204  0.028033697  0.028472929            3 
  743000    1.1235489   -7.2510089    248.91559  0.027917854  0.028466243            3 
  744000     1.099858   -7.2719408     249.1881  0.027910854  0.028459526            2 
  745000    1.1219462   -7.2998638     250.0672  0.027971722  0.028453189            7 
  746000    1.1171715   -7.2468791    251.13834  0.028053881  0.028446535            4 
  747000    1.1114549   -7.2758437    250.64038  0.027960774  0.028439878            4 
  748000    1.1448213   -7.2775565    250.02328  0.027854644  0.028433168            3 
  749000    1.1095878   -7.2627432    251.69778  0.028003758  0.028426381            2 
  750000    1.1141828   -7.2645695    250.74382  0.027860424  0.028419796            4 
  751000    1.1446365   -7.3067205    251.30278  0.027885351  0.028413237            3 
  752000    1.0943565   -7.2788787    252.27434  0.027955933  0.028406476            2 
  753000    1.1159274   -7.3047746    252.31186  0.027922959  0.028399807            3 
  754000    1.1258487   -7.2841363    251.83933  0.027833701  0.028393022            4 
  755000    1.1420572   -7.2666476    253.00809  0.027925838  0.028386371            5 
  756000    1.1373536   -7.3029258    252.74586  0.027859994  0.028379893            1 
  757000    1.1212558   -7.2905894    253.38697  0.027893766   0.02837311            3 
  758000    1.1282101   -7.3255379    253.53593  0.027873343  0.028366673            4 
  759000    1.1280913     -7.33964    253.33503  0.027814562  0.028360084            3 
  760000    1.1300388   -7.2762932    254.88933  0.027948391  0.028353813            2 
  761000    1.1216599   -7.3253159     254.9599  0.027919393  0.028347643            3 
  762000    1.0996181   -7.2786328    256.06628  0.028003749  0.028341196            4 
  763000    1.1351051   -7.2741404    255.63304  0.027919729  0.028334995            2 
  764000     1.106161   -7.2754899    256.28408  0.027954197  0.028328888            5 
  765000    1.1134743   -7.2828263    256.50446  0.027941662  0.028322941            1 
  766000    1.1518364    -7.283431    257.16316  0.027976845  0.028317135            2 
  767000     1.139032   -7.2908856    257.29137  0.027954299  0.028311033            4 
  768000    1.1259797   -7.3379475    257.07022  0.027893904  0.028305219            6 
  769000     1.115684   -7.2917258    257.18758  0.027870349  0.028299245            4 
  770000    1.1185204   -7.2874263     257.9094  0.027912273  0.028293327            1 
  771000     1.116901   -7.2665472     259.7113  0.028070828   0.02828783            2 
  772000    1.1527878   -7.2897992    258.84192  0.027940622  0.028282093            5 
  773000    1.1297874   -7.3315698    258.38942  0.027855695  0.028276176            2 
  774000      1.13525   -7.2851989    259.68943  0.027959672  0.028270374            5 
  775000    1.1327427   -7.2668214    258.84118  0.027832385  0.028264804            2 
  776000    1.1333475   -7.2620024    259.38265  0.027854666  0.028258941            2 
  777000    1.1464361   -7.2971893    259.84361  0.027868255  0.028253164            2 
  778000    1.1351314   -7.3067942     260.5732  0.027910583  0.028247437            4 
  779000     1.122481   -7.2700032    261.22417  0.027944392  0.028241674            1 
  780000    1.1236403    -7.307664    260.47724  0.027828765  0.028235667            1 
  781000    1.1040906   -7.2869456    260.61735  0.027808082  0.028229566            1 
  782000     1.146344   -7.2740203    262.06855  0.027927169  0.028223698            1 
  783000    1.1293707   -7.2807699     261.8562  0.027868902  0.028217783            3 
  784000    1.1266471   -7.3309265    261.29045   0.02777322   0.02821164            2 
  785000    1.1129211   -7.3439472    261.60114  0.027770821  0.028205114            3 
  786000    1.1114386   -7.3048905    262.18964  0.027797883  0.028198984            2 
  787000    1.1460875    -7.343875    262.03665  0.027746363  0.028192816            3 
  788000    1.1155271   -7.3708813    261.72789  0.027678499  0.028186164            2 
  789000    1.1327889   -7.3366464    262.39692  0.027714081   0.02817966            2 
  790000    1.1043719    -7.303492    263.53829  0.027799398   0.02817344            2 
  791000    1.1513556   -7.3230447    264.22736  0.027836847  0.028167521            3 
  792000    1.1062118   -7.3042506     263.6546  0.027741435  0.028161505            4 
  793000    1.1129472   -7.2858875    264.82507  0.027829452  0.028155682            3 
  794000    1.1196246   -7.3313033    264.47823  0.027758001  0.028149543            4 
  795000     1.101349   -7.3104145    264.40045  0.027714932  0.028143541            2 
  796000    1.1194989   -7.2684831    265.71162   0.02781738  0.028137472            2 
  797000     1.118696   -7.3223831    265.28669  0.027738048  0.028131534            2 
  798000    1.1409274   -7.2860712    265.64971  0.027741198  0.028125549            8 
  799000    1.1441665   -7.3102271    265.40043  0.027680479  0.028119702            2 
  800000    1.1252048   -7.3092044    266.40946  0.027750986  0.028113918            2 
  801000     1.131842   -7.2930212    267.68078  0.027848604  0.028108146            2 
  802000    1.1295263      -7.2951    267.79045  0.027825275  0.028102466            1 
  803000    1.1093092   -7.2793754     268.2167  0.027834859  0.028096965            2 
  804000    1.1505879   -7.3187813    268.18066  0.027796502  0.028091479            4 
  805000    1.1270807   -7.3181568    269.01946  0.027848806  0.028086101            4 
  806000    1.1330917   -7.3466009    269.13501  0.027826201   0.02808076            5 
  807000    1.1228262   -7.2858998    270.03084  0.027884226  0.028075707            2 
  808000    1.0922778   -7.3055593    269.67792  0.027813317  0.028070551            9 
  809000    1.1140145    -7.313361    270.06271  0.027818574  0.028065009            3 
  810000    1.1135076   -7.3354806    269.88714  0.027766167  0.028059696            2 
  811000    1.1418756    -7.293035    270.69693  0.027815139  0.028054302            2 
  812000    1.1468964   -7.3118765     270.8335  0.027794899  0.028049248            3 
  813000    1.1185406    -7.323864    270.34119  0.027710249  0.028044205            2 
  814000    1.1287835   -7.3259959    271.89141   0.02783491  0.028039526            1 
  815000      1.09117   -7.2918905    272.12656  0.027824801  0.028034827            2 
  816000    1.1415133   -7.3223521    271.82667  0.027760076  0.028029916            3 
  817000    1.1199622   -7.3251452    272.53857  0.027798712  0.028025125            4 
  818000    1.1067613   -7.3148908    272.53531  0.027764396  0.028019917            2 
  819000    1.1152745   -7.2882463    273.98826  0.027878333  0.028015004            1 
  820000    1.1225689   -7.3494468    273.95244  0.027840695  0.028010001            2 
  821000    1.1021288   -7.3475853    273.93146  0.027804655  0.028005079            7 
  822000    1.1090561   -7.2852529     274.6874  0.027847465   0.02800045            4 
  823000    1.1205481   -7.3556149    273.71497  0.027715165  0.027995988            3 
  824000     1.105884    -7.374434    273.46706  0.027656459  0.027990878            5 
  825000    1.1150458   -7.3031917    275.80108  0.027858695  0.027985962            4 
  826000    1.1092205   -7.3129116    274.35644  0.027679221  0.027981028            6 
  827000    1.1091806   -7.3844073    275.49679   0.02776066  0.027976124            2 
  828000    1.1184819   -7.3169251    276.41155  0.027819198  0.027971313            4 
  829000    1.1332068   -7.3627903    275.84874  0.027729065  0.027966433            4 
  830000    1.0933519   -7.3369788    276.19231  0.027730152  0.027961561            2 
  831000     1.128114   -7.3477232    276.89123   0.02776687  0.027956756            2 
  832000    1.1154443   -7.2876804    278.28805  0.027873402  0.027951801            2 
  833000    1.1348025   -7.2975511    277.83048  0.027794166  0.027947526            3 
  834000    1.1324652   -7.3068928    277.36833  0.027714661  0.027942827            2 
  835000     1.101603    -7.317491    278.61516  0.027805904  0.027938056            3 
  836000    1.1198396   -7.2952574    279.85653  0.027896384  0.027933604            3 
  837000    1.1163588   -7.3213438     279.2297  0.027800647  0.027929265            4 
  838000    1.1234722   -7.2977501    279.93236  0.027837347  0.027925104            2 
  839000    1.1096664   -7.3408918     279.5184  0.027763051  0.027921035            3 
  840000    1.1100269   -7.2912333    280.28863  0.027806412  0.027917086            3 
  841000    1.1001704   -7.3241853    280.71062  0.027815162  0.027912957            5 
  842000    1.1206028   -7.3033937     280.2945  0.027740944  0.027908698            4 
  843000    1.0866111   -7.2914247    282.22414  0.027898788  0.027904743            3 
  844000    1.1335546   -7.2589262    283.16667  0.027958794  0.027900658            3 
  845000    1.1103249   -7.3428163    281.39966  0.027751445  0.027896713            4 
  846000    1.1176851   -7.3067152    281.54458  0.027732918  0.027892643            4 
  847000    1.1013442    -7.339331    282.22821  0.027767435  0.027888222            4 
  848000    1.1241097   -7.3441993    282.90913  0.027801604  0.027883914            3 
  849000    1.1180562   -7.3656365    282.49401  0.027728113   0.02787949            2 
  850000    1.1099204   -7.3262431    282.92057  0.027737311  0.027875069            3 
  851000    1.1150721   -7.3352018    283.06494  0.027718854  0.027870234            2 
  852000    1.1179691   -7.3514427    282.33297  0.027614727  0.027865491            6 
  853000    1.1104936   -7.3264575    283.31846   0.02767863  0.027860794            3 
  854000    1.1166622   -7.3290098    283.15447  0.027630218  0.027855942            5 
  855000    1.1278512     -7.33212    283.68864  0.027649965  0.027851106            1 
  856000    1.1322801   -7.3279268    283.68213   0.02761703  0.027845971            6 
  857000    1.0957443   -7.3169648    284.27715  0.027642663  0.027840961            5 
  858000    1.1224869   -7.3149881    283.97923  0.027581511  0.027836106            2 
  859000    1.1298539   -7.3328216    285.32495  0.027679952  0.027830978            2 
  860000    1.1144298   -7.2939827    285.53328  0.027667953  0.027825969            2 
  861000    1.1279468   -7.3164596    285.43405  0.027626214  0.027820862            1 
  862000    1.1166413   -7.3528985     285.5269  0.027603142  0.027816079            3 
  863000    1.1192544   -7.3199555    285.97545   0.02761447  0.027811168            7 
  864000    1.1154542   -7.3356018    286.09024   0.02759358   0.02780641            4 
  865000    1.1171779   -7.3541924    285.58869  0.027513361  0.027801349            3 
  866000      1.11416   -7.2983094    286.62066  0.027580895  0.027796186            9 
  867000    1.1056737   -7.3266522      287.146  0.027599577  0.027791145            3 
  868000    1.1143324   -7.3678314     286.3387  0.027490274  0.027785951            4 
  869000    1.0806226   -7.3587314    286.44071  0.027468422  0.027780623            2 
  870000    1.0716083   -7.3896986    287.25928  0.027515256  0.027775018            1 
  871000    1.1012016   -7.3560298    287.55273  0.027511742  0.027769915            3 
  872000    1.0801513   -7.3915678    287.19827  0.027446318  0.027764504            4 
  873000    1.1127432   -7.3521662    287.71425  0.027464133   0.02775932            3 
  874000    1.1214646   -7.3645712    287.75773  0.027436854   0.02775401            5 
  875000    1.0916034   -7.3497622    288.31942  0.027458992  0.027748496            2 
  876000    1.0943222   -7.3350644    288.46889  0.027441865  0.027743151            4 
  877000     1.110599   -7.3074901    289.85077  0.027541883  0.027737774            2 
  878000    1.1357117   -7.3404624    289.61626  0.027488255  0.027732357            3 
  879000    1.0824441   -7.2864456    289.58559  0.027454076  0.027727116            4 
  880000    1.1087676   -7.3843737    288.50205   0.02732027  0.027721731            4 
  881000    1.1145959   -7.3313235    290.23561  0.027453236  0.027716378            5 
  882000    1.0829622   -7.3287593    291.04865  0.027498928  0.027711226            3 
  883000    1.1119266   -7.3640382    290.36986  0.027403724  0.027706112            2 
  884000    1.1169046   -7.3178698    291.12586  0.027443991  0.027700834            2 
  885000    1.0975753   -7.3413036    290.99872   0.02740101  0.027695396            2 
  886000    1.1390958   -7.3375281    292.54902  0.027515897  0.027690247            4 
  887000    1.1157534   -7.3538249    291.67546  0.027402805  0.027685023            2 
  888000    1.1081747   -7.3341141    292.18035  0.027419327  0.027679758            1 
  889000     1.119358   -7.3485482    292.90546  0.027456455  0.027674469           14 
  890000    1.0936445   -7.3273548    292.86308  0.027421637  0.027669098            1 
  891000     1.089756    -7.312148    293.22905  0.027425089  0.027663677            3 
  892000    1.1000857   -7.3277722     293.1241  0.027384539  0.027658418            3 
  893000      1.11114    -7.337019    293.83202  0.027419934  0.027653022            5 
  894000    1.1020741   -7.3225988    293.82085  0.027388223  0.027647539            1 
  895000     1.108564   -7.3320909    294.24809  0.027397401  0.027641729            2 
  896000    1.1068584   -7.3625863    293.82921  0.027327866   0.02763597            6 
  897000    1.1129169   -7.3281953    294.05182   0.02731808  0.027630379            5 
  898000     1.103403   -7.3390454    294.86764  0.027363367  0.027625033            2 
  899000    1.1139976   -7.3575442    295.30684  0.027373641  0.027619632            4 
  900000    1.1054852   -7.3404485     295.3458  0.027346833  0.027614094            4 
  901000    1.0935614   -7.3482019    295.56441  0.027336701    0.0276085            2 
  902000     1.105485   -7.3159322    295.97635  0.027344452  0.027602901            4 
  903000    1.0963393   -7.3651302    295.11628  0.027234799  0.027597167            3 
  904000    1.1015844   -7.3864188    295.67269  0.027255963   0.02759129            2 
  905000    1.1010373   -7.3712653    296.92993  0.027341614  0.027585295            2 
  906000    1.0999448   -7.3486523    296.56818  0.027278162  0.027579543            3 
  907000    1.1146849   -7.3802851    295.86837   0.02718379   0.02757367            3 
  908000    1.1375701   -7.3780632    296.98636  0.027256458  0.027568035            8 
  909000    1.1195944    -7.345052    297.11737  0.027238483  0.027562184            2 
  910000     1.079915   -7.3726854    296.78031  0.027177684  0.027556163            3 
  911000    1.0917416   -7.3092668    297.74637  0.027236221    0.0275502            2 
  912000    1.0887818   -7.3426078    297.92399  0.027222587  0.027544705            3 
  913000    1.1351386   -7.3269418    298.79663   0.02727242  0.027539043            5 
  914000    1.1180743   -7.3419727    298.89822  0.027251844   0.02753323            2 
  915000    1.1254407   -7.3929208    298.18492  0.027157096  0.027527311            4 
  916000    1.1244011   -7.3115782    299.50399  0.027247452  0.027521505            3 
  917000    1.0878017   -7.3518129    299.12895  0.027183656  0.027515594            3 
  918000    1.1337012   -7.3984589     298.8846  0.027131863  0.027509608            3 
  919000    1.0906734   -7.3763654      298.771  0.027092039  0.027503648            3 
  920000    1.0884255   -7.3862055    299.88073   0.02716311  0.027497543            3 
  921000    1.0817033   -7.4091772    299.52276  0.027101227  0.027491278            2 
  922000    1.1163774   -7.3853572    300.38706  0.027149951  0.027485413            1 
  923000    1.1206321   -7.3302233    301.15739  0.027190086  0.027479746            2 
  924000    1.1015568   -7.3458656    301.87672  0.027225534  0.027474244            3 
  925000    1.0821806   -7.3579784    301.47291  0.027159721  0.027468512            3 
  926000    1.1000334   -7.3454846    302.00444  0.027178226  0.027462958            2 
  927000    1.0985937   -7.3588194    302.01312  0.027149687  0.027457302            5 
  928000    1.1068496   -7.3841286    301.76975  0.027098577  0.027451347            2 
  929000    1.0905934   -7.4120537      301.474  0.027042878  0.027445471            3 
  930000    1.0950995   -7.3512575     302.3925  0.027096102   0.02743941            5 
  931000    1.1092636   -7.3542504     302.5829   0.02708404  0.027433627            3 
  932000    1.0802741   -7.3680627    303.12004  0.027103008  0.027427472            2 
  933000    1.0692738    -7.371936     302.4077  0.027010334  0.027421342            2 
  934000    1.0815534   -7.3533898    303.19838  0.027051961  0.027415275            2 
  935000    1.1224964   -7.3273364     304.1477  0.027107638  0.027409592            2 
  936000    1.0945967    -7.387384    305.01094  0.027155532  0.027404008            1 
  937000    1.1060655   -7.4017261    303.66191  0.027006573  0.027398203            3 
  938000     1.102498   -7.4195737    303.09663  0.026927562  0.027392267            5 
  939000    1.0980679   -7.3447857    305.30452  0.027094828  0.027386367            2 
  940000    1.1108556   -7.3532365    306.07155  0.027134003  0.027380542            2 
  941000    1.0831581   -7.3750229    305.27207  0.027034367  0.027374533            2 
  942000    1.1186884   -7.3687988    305.54551  0.027029858  0.027368656            5 
  943000    1.1153643   -7.3600779    306.83272  0.027114945  0.027362671            5 
  944000    1.0873824   -7.3620353    306.29269  0.027038549  0.027356943            2 
  945000    1.0894008   -7.3695631    306.33823  0.027013953  0.027351068            3 
  946000    1.0959903   -7.3924867    306.52118  0.027001513  0.027344999            4 
  947000     1.101649   -7.4177287    305.76495  0.026906454  0.027338815            3 
  948000    1.1086951   -7.3180717    306.42151  0.026935786  0.027332606            2 
  949000    1.0859965   -7.4037481    306.49625  0.026913967  0.027326017            4 
  950000    1.0843102   -7.3738512    307.25922  0.026952563  0.027319571            2 
  951000    1.1051449    -7.370451    307.23866  0.026922421   0.02731296            3 
  952000    1.0952775   -7.4214655     306.4762  0.026827398  0.027306385            3 
  953000    1.1279564   -7.3530502    308.20003  0.026949985   0.02729975            3 
  954000    1.0756043   -7.3886119    307.50939  0.026861407  0.027293477           10 
  955000    1.1153336   -7.3656264    308.01738  0.026877607  0.027287249            2 
  956000    1.1138777   -7.3402348    308.93492  0.026929473  0.027281065            3 
  957000     1.080105   -7.3956985    309.02408  0.026909098  0.027274752            2 
  958000    1.0718699   -7.3697056    309.18294  0.026894828  0.027268206            3 
  959000    1.1234087   -7.3770342    309.10297  0.026859834  0.027261846            2 
  960000    1.0999112   -7.4177214    309.42778   0.02686005  0.027255318            2 
  961000    1.0921948   -7.3807798    308.60678  0.026760907  0.027248807            5 
  962000    1.0826423   -7.3316529    310.25414  0.026875792  0.027242402            3 
  963000    1.1127432   -7.4031133     309.5479  0.026786769  0.027235746            3 
  964000    1.1224883    -7.343916    310.67498  0.026856412  0.027229254            4 
  965000    1.1203165   -7.4452388    310.11249  0.026780008  0.027222703            6 
  966000     1.083951   -7.3531194    311.03582  0.026831938   0.02721604            2 
  967000    1.0770367   -7.3904446    309.97027  0.026712364  0.027209388            1 
  968000    1.1020123   -7.3651075    311.49289  0.026815848  0.027202639            3 
  969000    1.0953974   -7.3467442    311.47125  0.026786314  0.027196011            2 
  970000    1.1186072   -7.3769055    310.96711  0.026715388  0.027189239            3 
  971000    1.1202914    -7.415705    310.75751  0.026669886  0.027182402            1 
  972000    1.0975775   -7.4257875    311.84149  0.026735382   0.02717577            4 
  973000    1.1032935   -7.3873243    311.75131   0.02670018  0.027169099            2 
  974000    1.1028196   -7.4124109     311.6064  0.026660369  0.027162256            2 
  975000    1.1058262   -7.3887037    312.06908  0.026672571  0.027155293            5 
  976000    1.0793094    -7.397149    313.04431   0.02672851  0.027148284            3 
  977000    1.1174424   -7.3857994    312.74522  0.026675641  0.027141355            6 
  978000    1.0844068   -7.3815802    312.34531  0.026614291  0.027134369            4 
  979000     1.086175   -7.4466282    311.96351  0.026554606  0.027127071            9 
  980000    1.1046899   -7.3977725    313.22952  0.026635164  0.027119822            2 
  981000    1.0788904   -7.4048988    312.68092   0.02656141  0.027112481            3 
  982000    1.0708289   -7.4156238    313.90105  0.026637903  0.027105231            2 
  983000    1.1003637   -7.3888741    313.12046   0.02654463  0.027098304            2 
  984000    1.0944689   -7.3681251    315.13922  0.026688619  0.027091616            2 
  985000     1.103455   -7.3362618    315.61123  0.026701458  0.027084844            6 
  986000    1.0760695   -7.3958676    314.64259  0.026592511  0.027077989            2 
  987000      1.06508   -7.4128587    314.97459  0.026593599  0.027070991            5 
  988000    1.0767261   -7.3986218    315.52045  0.026612723  0.027063992            1 
  989000    1.0835541   -7.3338948    317.78236  0.026776403  0.027057375            2 
  990000    1.0751563   -7.3735023    316.30184  0.026624734  0.027050532            1 
  991000    1.0863266   -7.3785848    316.15808  0.026585778  0.027043458            3 
  992000    1.1017788   -7.3852582     316.3553  0.026575546  0.027036129            3 
  993000    1.0907639    -7.412944    316.76694  0.026583329  0.027028922            4 
  994000    1.1120156   -7.3850293    316.57433  0.026540437  0.027021624            3 
  995000    1.0865675   -7.3763595    317.19551  0.026565788  0.027014383            1 
  996000    1.1213653    -7.349853    317.34949  0.026551999  0.027007206            2 
  997000    1.0948645   -7.3918571    317.75401  0.026559179  0.027000091            4 
  998000    1.0839123   -7.4428918    317.12301  0.026479877  0.026992754            5 
  999000    1.0961142   -7.4166726    317.72722  0.026503772  0.026985549            3 
 1000000     1.101614   -7.4080238    317.91539  0.026492949  0.026978448            2 
 1001000    1.1145479   -7.4287923    317.87421  0.026463055  0.026971269            2 
 1002000    1.0902058   -7.3629836    318.91956  0.026523583   0.02696421            3 
 1003000    1.0677984   -7.3896762    319.12537  0.026514238  0.026956936            1 
 1004000    1.1031093   -7.4157813    318.77183  0.026458486  0.026949653            4 
 1005000    1.1101876   -7.4050186    318.70818  0.026426881  0.026942504            5 
 1006000      1.08975   -7.3915677    319.54064  0.026469569  0.026935202            3 
 1007000     1.085289   -7.3867142    318.99501   0.02639813  0.026927908            4 
 1008000    1.1057589    -7.410941    319.14831  0.026384616   0.02692049            4 
 1009000    1.0912905    -7.417378    319.78097  0.026410718   0.02691306            5 
 1010000    1.0939385   -7.4170909    319.91306  0.026395467  0.026905544            2 
 1011000    1.1015412   -7.3969733    320.13323  0.026387506   0.02689822            3 
 1012000    1.0893443    -7.400041    321.83794  0.026501806  0.026891005            5 
 1013000    1.0800196   -7.4120443    320.12822  0.026334996  0.026883804            5 
 1014000    1.0663923   -7.4133932    321.38128  0.026412005  0.026876569            3 
 1015000    1.0813144   -7.3782299    321.45188   0.02639178  0.026869409            5 
 1016000    1.0876067   -7.4101806    321.39386  0.026361045  0.026862223            4 
 1017000    1.0987937   -7.3990088    322.16065  0.026397956  0.026855069            2 
 1018000    1.0947784   -7.4166097    322.79523  0.026423971   0.02684756            2 
 1019000    1.1220321   -7.4132165    321.78999  0.026315831  0.026840095            2 
 1020000    1.0871017   -7.4005055    323.04417  0.026392498  0.026832896            2 
 1021000     1.106342   -7.3800389     322.9867  0.026361957  0.026825607            5 
 1022000    1.0813081   -7.4373803    322.20604  0.026272508  0.026818265            2 
 1023000    1.0867539   -7.4118149    323.67323  0.026366343  0.026810837            2 
 1024000    1.0922191   -7.4190048    322.52333  0.026247016  0.026803384            3 
 1025000    1.0981078   -7.4308552    322.46839  0.026216942  0.026795711            2 
 1026000     1.084052    -7.346847    324.92917  0.026391258  0.026788185            4 
 1027000    1.0859742   -7.4599074    323.14405  0.026220712  0.026780836            1 
 1028000    1.0911231   -7.3876797    324.38897  0.026296123  0.026773428            3 
 1029000    1.0743216   -7.4357096    324.07558  0.026245188  0.026765971           13 
 1030000    1.0908677   -7.4281532    324.82785   0.02628057  0.026758359            4 
 1031000    1.0994688    -7.421268    324.52628  0.026230705  0.026750963            2 
 1032000    1.1011957   -7.4321638    324.45357  0.026199416  0.026743661            4 
 1033000    1.0937756    -7.421326    324.71579  0.026195208  0.026736235            3 
 1034000    1.1027865    -7.443592    324.84485  0.026180275  0.026728723            1 
 1035000    1.0686175   -7.4382606    324.94654  0.026163168   0.02672104            2 
 1036000    1.0963523   -7.4002345    326.35608  0.026251294  0.026713425            3 
 1037000    1.0830209   -7.3813258    325.50156   0.02615731   0.02670571            2 
 1038000     1.087415   -7.3911078    326.07296  0.026177984  0.026697995            4 
 1039000    1.0959704   -7.4596279    324.50417  0.026026963  0.026690342            4 
 1040000    1.0752714   -7.4171695    325.83718  0.026108748  0.026682449            2 
 1041000    1.0982852   -7.4241471    326.03322  0.026099361  0.026674681           13 
 1042000    1.0855566    -7.388563    327.39434  0.026183168  0.026667074            5 
 1043000    1.1025827   -7.4227518    326.45294  0.026082849  0.026659323            2 
 1044000    1.0896627   -7.4576953    326.34254  0.026049053  0.026651401            5 
 1045000    1.0880658   -7.3850711    326.74533  0.026056246   0.02664359            3 
 1046000    1.1110685   -7.4023997    327.65808  0.026104053  0.026636027            2 
 1047000     1.070746   -7.4470084    327.63675  0.026077424  0.026628314            2 
 1048000    1.1007764   -7.4207529    327.05911  0.026006608   0.02662042            2 
 1049000    1.0909666   -7.4189379    327.00956  0.025977881  0.026612464            7 
 1050000    1.0918284   -7.4101082    327.60748  0.026000594  0.026604763            3 
 1051000    1.0994811   -7.4270197    328.35117  0.026034821  0.026596842            3 
 1052000    1.0987549     -7.46383    327.32555   0.02592883  0.026588793            5 
 1053000    1.0708004   -7.4268389    328.64111  0.026008318  0.026580677            3 
 1054000    1.0761678   -7.3796763    329.26004  0.026032577  0.026572801            2 
 1055000    1.0822771   -7.3823388    329.81717  0.026051909  0.026565082            3 
 1056000    1.0991376   -7.4551031    328.22485  0.025901583  0.026557256            4 
 1057000    1.0949704   -7.4642792     328.7685  0.025919939  0.026549332            4 
 1058000    1.0995594   -7.4506667    329.94704  0.025988267  0.026541517            3 
 1059000    1.1031808   -7.3965065    329.94384  0.025963475  0.026533761            1 
 1060000    1.0976683   -7.4258576    330.01991  0.025944961  0.026525901            6 
 1061000     1.073228   -7.4178486    330.23646  0.025937517  0.026518121            3 
 1062000    1.0900992   -7.4042544    330.79837  0.025957185  0.026510155            2 
 1063000    1.0750881   -7.4286156    331.11491  0.025957582  0.026502147            1 
 1064000    1.0657803   -7.4163829     330.9446  0.025919847   0.02649409            2 
 1065000    1.0931385   -7.4509739    329.81499   0.02580712  0.026486103            3 
 1066000    1.0678589   -7.4025051    331.14166  0.025886621  0.026478151            5 
 1067000    1.0840343   -7.4014372    331.19908  0.025866845  0.026470326            3 
 1068000    1.0719239   -7.3720331    332.90338  0.025975607  0.026462559            1 
 1069000    1.0725831   -7.4327593    332.29894  0.025904189  0.026454763            5 
 1070000    1.1091991   -7.4779861    331.87002  0.025846575  0.026446846            2 
 1071000    1.1120591    -7.397047    333.53572  0.025952048  0.026439163            1 
 1072000    1.1123033   -7.3988029    333.37901  0.025915657  0.026431486            2 
 1073000    1.0579422   -7.3802359     332.9884  0.025861168  0.026423931            4 
 1074000    1.0986074   -7.4233538    333.26104  0.025858243  0.026416133            2 
 1075000    1.0655738   -7.4611647    332.51167  0.025776098  0.026408163            4 
 1076000    1.0743815   -7.4842061    333.07512   0.02579578  0.026400128            7 
 1077000    1.0632306    -7.445358    333.39278  0.025796408   0.02639219            5 
 1078000    1.0559291   -7.4334992    333.73485  0.025798922  0.026384314            3 
 1079000    1.0451449   -7.3983971    335.37175  0.025901432  0.026376474            3 
 1080000    1.0772218   -7.4474519    335.32503  0.025873845  0.026368806            3 
 1081000    1.0741687   -7.4438439    334.59525  0.025793652  0.026361231            3 
 1082000    1.0691823   -7.4315403    335.98362  0.025876742  0.026353618            2 
 1083000    1.0654063   -7.4697133    334.51427  0.025739787  0.026345929            5 
 1084000    1.0921569   -7.4134973    336.26497  0.025850628  0.026338256            4 
 1085000    1.0572826   -7.4538331    335.67522  0.025781507  0.026330404            2 
 1086000    1.0570714   -7.4822131    335.43326  0.025739201  0.026322665            4 
 1087000      1.09053   -7.4488719    335.91503  0.025752455  0.026314784            3 
 1088000    1.0750048   -7.4093252    337.60931  0.025858556  0.026307029            3 
 1089000    1.0940805   -7.4568724    336.41154  0.025743154  0.026299465            4 
 1090000    1.1117615    -7.435072    336.85637  0.025753545  0.026291658            1 
 1091000    1.0688235   -7.4555861     336.4609  0.025699733  0.026283895            3 
 1092000    1.0903588   -7.4523281    337.60124  0.025763221  0.026276086            4 
 1093000    1.0850836    -7.404211    337.60971  0.025740295  0.026268261            4 
 1094000    1.0714244   -7.5037575     337.1042   0.02567826  0.026260412            3 
 1095000    1.0614282   -7.4645561    337.63576  0.025695263  0.026252445            5 
 1096000     1.072914   -7.4054236    339.41912  0.025807415   0.02624478            2 
 1097000     1.068156   -7.4262087    338.69382  0.025728792  0.026236992            2 
 1098000    1.0887001   -7.3711092    339.28383  0.025750139  0.026229394            1 
 1099000    1.0888701   -7.4537607    338.46478  0.025664603  0.026221889            3 
 1100000    1.0642926   -7.4419443    339.13187  0.025691808  0.026214296            2 
 1101000    1.0726058   -7.4400651     338.2814  0.025604102  0.026206527            6 
 1102000    1.0958122   -7.4560122    339.27172  0.025655756  0.026198746            3 
 1103000    1.0805592   -7.4746069    338.86679  0.025601903  0.026190816            3 
 1104000    1.0766738   -7.4223397    339.96323  0.025661475  0.026182827            6 
 1105000    1.0602719   -7.3904747    339.54695  0.025606859  0.026174816            1 
 1106000    1.0473424   -7.3940534    339.54649  0.025583672  0.026166799            2 
 1107000    1.0713697   -7.4519197    339.25051   0.02553828  0.026158787            5 
 1108000    1.0634706   -7.4976384    338.00568  0.025421607   0.02615045            3 
 1109000    1.0670089   -7.3996328    339.92149  0.025542643    0.0261421            6 
 1110000    1.0704385   -7.4118553    340.36762  0.025553124  0.026133781            5 
 1111000    1.0711873   -7.4129703    340.49137  0.025539406  0.026125566            2 
 1112000    1.0767007   -7.4169487     339.8527  0.025468578  0.026117264            3 
 1113000    1.0934963   -7.4539655    339.86158  0.025446359  0.026109011            2 
 1114000    1.0625013   -7.4433988    340.29159  0.025455684  0.026100592            1 
 1115000    1.0547163   -7.4228419    340.31256  0.025434421  0.026092082            2 
 1116000    1.1207404     -7.45169    340.92954  0.025457702  0.026083452            4 
 1117000    1.0769642   -7.4033428    341.07473  0.025445742  0.026075028            4 
 1118000    1.0501736   -7.4535472    340.38532  0.025371595  0.026066516            4 
 1119000     1.083148   -7.4311646    341.58236  0.025438067  0.026057879            4 
 1120000     1.061973   -7.4682643    341.94738  0.025442513  0.026049374            9 
 1121000    1.0552792   -7.4526417    341.82694  0.025410864  0.026040874            5 
 1122000    1.0485051   -7.4476882    341.78343  0.025384985   0.02603226            7 
 1123000    1.0614468    -7.489721    340.74958  0.025285662  0.026023463            4 
 1124000    1.0729658   -7.4342425    342.92482  0.025424438  0.026014922            2 
 1125000    1.0618282   -7.4321085    342.84206  0.025395708   0.02600632            3 
 1126000    1.0804103   -7.4543524    342.89512  0.025377081  0.025997697            4 
 1127000    1.0820134    -7.414487    343.64782   0.02541022  0.025989291            7 
 1128000    1.0972706   -7.4742256    342.75395  0.025321657  0.025980842            3 
 1129000    1.0866868   -7.4450526    343.61587  0.025362848  0.025972369            1 
 1130000    1.0560181   -7.4605426    343.60558  0.025339645  0.025963904            3 
 1131000    1.1069133   -7.4485242    343.76758  0.025329176   0.02595539            4 
 1132000     1.093444   -7.4289762    343.64107  0.025297487  0.025946939            2 
 1133000    1.0842998   -7.4393682    345.16693  0.025387388  0.025938633            2 
 1134000     1.069612   -7.3872054    345.63899  0.025399691  0.025930287            2 
 1135000    1.0537132   -7.4426703    344.82346  0.025317434  0.025921896            2 
 1136000    1.0448052   -7.4857721    343.92917  0.025229546  0.025913259            4 
 1137000    1.0587943   -7.4642753    344.59786  0.025256366  0.025904467            3 
 1138000    1.0825908   -7.4868286       343.93  0.025185267  0.025895749            2 
 1139000    1.0714553   -7.4672375    344.40726  0.025198073  0.025886778            6 
 1140000    1.0763602   -7.4264492    345.40985  0.025249258  0.025877827            6 
 1141000    1.0752729   -7.4930676    343.15616   0.02506253  0.025868796            2 
 1142000     1.074733   -7.4465007     345.0291  0.025177255  0.025859759            2 
 1143000    1.0650063   -7.4492162    345.27991  0.025173513  0.025850741            5 
 1144000    1.0596046   -7.4688572    344.90346  0.025124087  0.025841744            4 
 1145000     1.075325   -7.4758395    344.17087  0.025048826  0.025832617            3 
 1146000    1.0636773   -7.4488668     345.6902  0.025137449  0.025823548            1 
 1147000    1.0694327   -7.5118652    343.29042  0.024941181  0.025814475            2 
 1148000    1.0655681   -7.4508413    345.09108  0.025050165  0.025805285            6 
 1149000     1.066219   -7.4413498    346.51242  0.025131449  0.025796292            5 
 1150000    1.0618862   -7.4689343    346.36116  0.025098635  0.025787301            2 
 1151000    1.0925391   -7.4958341    344.90929  0.024971712  0.025778215            2 
 1152000    1.0759964   -7.4548958    346.81484  0.025087879  0.025769097            2 
 1153000    1.0617762   -7.4846275    347.15692  0.025090844  0.025759904            2 
 1154000    1.0816556   -7.4754946    346.00143  0.024985661  0.025750682            3 
 1155000    1.0693851   -7.4693179    346.63215  0.025009534  0.025741379            6 
 1156000    1.0859408   -7.4455247    345.87478  0.024933303  0.025732034            3 
 1157000    1.0518324    -7.450917    347.96074  0.025061995  0.025722773            2 
 1158000    1.0682749   -7.4870248    345.62743   0.02487244  0.025713328            3 
 1159000    1.0595322   -7.4346662    347.67124  0.024997932   0.02570404            3 
 1160000    1.0914526   -7.4743434    347.37067  0.024954789  0.025694734            1 
 1161000    1.0979688   -7.4269598    348.04705  0.024981844  0.025685564            2 
 1162000    1.0697788   -7.4490401    347.08871  0.024891617  0.025676681            1 
 1163000    1.0733278   -7.4786394    346.80527  0.024849905  0.025667512            5 
 1164000    1.0520978    -7.477009    348.25666  0.024932464   0.02565836            2 
 1165000    1.0408647   -7.4443078    348.32549  0.024915986  0.025649352            3 
 1166000    1.0768363    -7.425489    347.86058  0.024861391  0.025640318            2 
 1167000    1.0606712   -7.4261759    348.06892  0.024854964   0.02563098            5 
 1168000    1.0694777   -7.4435456    349.23785  0.024917084  0.025621937            5 
 1169000    1.0643497   -7.4135355    349.46079  0.024911662  0.025612712            5 
 1170000      1.06022   -7.4400974    348.77623  0.024841612  0.025603282            3 
 1171000    1.0750879   -7.4918501    346.87767  0.024685288  0.025593864            4 
 1172000    1.0499819   -7.4615923    348.87128  0.024805978  0.025584302            2 
 1173000    1.0549878   -7.4770162    347.36129  0.024677557  0.025574811            2 
 1174000    1.0721255   -7.4462381    348.79885  0.024758578   0.02556531            2 
 1175000    1.0848846   -7.4579832     349.9273  0.024817539  0.025555879            8 
 1176000    1.0408138   -7.4541616    349.61464   0.02477428  0.025546596            1 
 1177000    1.0501066    -7.468943     350.1724  0.024792722  0.025537138            3 
 1178000    1.0616869   -7.4519663    350.45627  0.024791757  0.025527752            7 
 1179000    1.0703374   -7.4511251    351.19996  0.024823293   0.02551834            4 
 1180000    1.0457395   -7.4385539    350.96447  0.024785626  0.025509155            3 
 1181000    1.0920958   -7.4586301    350.92665  0.024761971  0.025499985            3 
 1182000    1.0725507    -7.508343     350.2583  0.024693902  0.025490606            5 
 1183000     1.067946   -7.4926578    351.07283  0.024730405  0.025481119            2 
 1184000    1.0718428   -7.4973606    351.12376  0.024713103  0.025471724            3 
 1185000    1.0630494   -7.5010782    350.86849  0.024674296   0.02546231            2 
 1186000    1.0568557   -7.4618225    352.68134   0.02478087  0.025452911            3 
 1187000     1.067147   -7.4786965    352.01072  0.024712912  0.025443727            2 
 1188000    1.0776096     -7.48179    351.90714  0.024684844  0.025434399            2 
 1189000    1.0601774   -7.4690367     352.0096  0.024671265  0.025425081            3 
 1190000    1.0611365   -7.4585263    352.62846  0.024693869  0.025415641            5 
 1191000    1.0776238   -7.4515606    352.29664  0.024649919  0.025406374            1 
 1192000    1.0448905   -7.4889714    351.90051  0.024601546  0.025396726            5 
 1193000     1.069551   -7.4509982    352.22801  0.024603801  0.025387118            2 
 1194000    1.0712945   -7.5113014    352.62618  0.024610984   0.02537734            6 
 1195000    1.0869467   -7.5345244    351.86587  0.024537369  0.025367534            4 
 1196000    1.0369998   -7.4872787    352.71737  0.024576182  0.025357844            6 
 1197000    1.0441518   -7.4907678    352.57862  0.024545991  0.025348042            3 
 1198000    1.0626547    -7.474997    352.56236  0.024524371  0.025338299           11 
 1199000    1.0632368   -7.5105651    352.53075   0.02450172  0.025328541            1 
 1200000    1.0554736   -7.4760038    353.05075  0.024517413  0.025318858            3 
 1201000     1.038128   -7.5168198    352.36525  0.024449434  0.025309251            6 
 1202000    1.0747842   -7.5118158    353.01862  0.024474391   0.02529947            3 
 1203000    1.0649375   -7.4673265    353.55168  0.024490973  0.025289581            3 
 1204000    1.0435255   -7.4693489    354.06012  0.024505822  0.025279846            4 
 1205000    1.0604291   -7.5085896    353.56888  0.024451513   0.02527013            3 
 1206000    1.0425598   -7.4338101    353.75715  0.024444248  0.025260768            5 
 1207000    1.0282449   -7.4788646    355.07437  0.024514938  0.025251303            4 
 1208000    1.0577512   -7.4820897    354.39091  0.024447497  0.025241803            3 
 1209000    1.0513476   -7.4761785    354.82631  0.024457287  0.025232153            2 
 1210000    1.0569001   -7.5102509    354.23713  0.024396496  0.025222624            1 
 1211000    1.0247008   -7.4562026    354.95372  0.024425662  0.025212989            8 
 1212000    1.0529942    -7.499429    355.24463  0.024425511  0.025203534            2 
 1213000    1.0627986   -7.4854023    355.28733  0.024408308   0.02519403            6 
 1214000    1.0466092   -7.4950059    356.09601  0.024443713   0.02518441            1 
 1215000    1.0594726    -7.506089    356.00876   0.02441761  0.025174951            1 
 1216000    1.0716993   -7.5067891    356.39701  0.024424137  0.025165446            6 
 1217000    1.0534312   -7.5187554    355.99325  0.024376421  0.025155846            2 
 1218000    1.0662321   -7.4456235    357.73062  0.024475275  0.025146375            3 
 1219000    1.0270491   -7.5084245    356.84541  0.024394682  0.025136968            7 
 1220000    1.0716742    -7.468189    356.96926  0.024383146  0.025127573            4 
 1221000    1.0473962   -7.5126279    356.74475  0.024347853   0.02511811            3 
 1222000    1.0861713   -7.5194679    356.82142  0.024333157  0.025108554            4 
 1223000    1.0563613   -7.4719168    357.27187  0.024343954  0.025098886            5 
 1224000    1.0622614   -7.4508306    358.31358  0.024394988   0.02508938            3 
 1225000    1.0723841   -7.5116234    357.67253  0.024331465  0.025079811            2 
 1226000    1.0544315   -7.4660826    357.32015  0.024287667  0.025070207            2 
 1227000    1.0573373    -7.509136    356.62586  0.024220719  0.025060594            2 
 1228000    1.0327535   -7.4646513    357.73236  0.024276083  0.025051018            2 
 1229000    1.0558062   -7.5259419    358.47145  0.024306445  0.025041622            4 
 1230000    1.0521846    -7.499215    358.21968  0.024269626   0.02503217            7 
 1231000    1.0338924   -7.5578878    356.67686  0.024145469  0.025022733            2 
 1232000     1.063022   -7.5213834    358.50846  0.024249761  0.025013289            4 
 1233000    1.0590732   -7.5437263    358.01655  0.024196847  0.025003796            3 
 1234000     1.044972   -7.4547463    359.85682  0.024301514  0.024994354            4 
 1235000    1.0535939   -7.5234779    358.13272    0.0241655  0.024984988            3 
 1236000    1.0527683    -7.514327      359.082  0.024209952  0.024975603            2 
 1237000    1.0397964   -7.4912238    361.22957  0.024335056  0.024966203            7 
 1238000    1.0350707   -7.4887969    359.16713   0.02417657  0.024957054            4 
 1239000    1.0521633    -7.483316    360.47191  0.024244815  0.024947832            1 
 1240000    1.0359297   -7.5369822    360.70715  0.024241072  0.024938507            9 
 1241000    1.0535663   -7.5517374    359.91682  0.024168468  0.024928952            4 
 1242000    1.0431121    -7.559919    359.66797  0.024132312  0.024919449            3 
 1243000    1.0532891   -7.5044247    361.56452  0.024240046  0.024909902            3 
 1244000    1.0358395   -7.5411877    360.71388  0.024163577  0.024900471            5 
 1245000    1.0635227   -7.5299296    361.87344  0.024221783  0.024890946            5 
 1246000    1.0319213   -7.5126189    360.47555  0.024108852  0.024881487            3 
 1247000    1.0558652   -7.5438606    360.65083  0.024101231  0.024872159            5 
 1248000    1.0722447   -7.5077421    362.22926  0.024187317  0.024862733            4 
 1249000    1.0435658   -7.4866847     362.5307  0.024188064  0.024853442            4 
 1250000    1.0727541   -7.5577339    361.21121  0.024080748  0.024844152            3 
 1251000    1.0375717   -7.5049111    362.59506  0.024153681  0.024834839            2 
 1252000    1.0828144   -7.4771518    362.90254  0.024154855  0.024825577            4 
 1253000    1.0496107   -7.4547495    364.08439  0.024214178  0.024816327            3 
 1254000    1.0608992   -7.5151774    363.31605   0.02414381   0.02480707            6 
 1255000     1.064485   -7.5189066    362.08042  0.024042525  0.024797681            2 
 1256000    1.0662335   -7.5428304    362.74979  0.024067794   0.02478832            2 
 1257000    1.0623492   -7.4773761     364.3369  0.024153865  0.024779049            4 
 1258000    1.0760679    -7.510845    363.35268  0.024069467  0.024769863            2 
 1259000     1.026348   -7.5440207    363.77079  0.024078024   0.02476051            3 
 1260000     1.046161   -7.5548405    363.12921  0.024016482  0.024751075            2 
 1261000    1.0548415   -7.5311988    363.70308  0.024035361  0.024741528            7 
 1262000    1.0448901   -7.4695291    364.34002  0.024058375  0.024732064            3 
 1263000    1.0592339   -7.5337075    365.18861  0.024095316  0.024722856            2 
 1264000    1.0653898   -7.5119809    364.06696  0.024002305  0.024713565            2 
 1265000     1.041872   -7.4939782    365.36659  0.024068945  0.024704254            6 
 1266000    1.0400473   -7.5124045    364.96328  0.024023386  0.024695086            3 
 1267000    1.0508349   -7.5279867     364.7398  0.023989726  0.024685804            5 
 1268000    1.0486315   -7.5344697    364.71415  0.023969122  0.024676562            4 
 1269000    1.0525591   -7.5435901    363.50801  0.023871028   0.02466723            2 
 1270000    1.0414964   -7.5102583    365.49906  0.023982878  0.024657939            4 
 1271000    1.0443769    -7.488023    366.02078  0.023998216  0.024648922            2 
 1272000     1.053413   -7.5404342    365.57284  0.023950003  0.024639892            1 
 1273000    1.0222992   -7.5046333    366.05545  0.023962782  0.024630695            2 
 1274000    1.0475463   -7.5160132     365.6329  0.023916333  0.024621598            3 
 1275000    1.0379675   -7.4823362    366.87202  0.023978564  0.024612395            4 
 1276000    1.0364386   -7.4841578    366.85614  0.023958734  0.024603138            4 
 1277000    1.0474509   -7.5080292     367.4151  0.023976449  0.024593885            2 
 1278000    1.0380435   -7.5265113    366.85883  0.023921416   0.02458462            3 
 1279000     1.064927   -7.5140135    368.34946  0.023999834   0.02457559            5 
 1280000     1.033784   -7.5079015    367.25086  0.023909561  0.024566441            3 
 1281000    1.0508211   -7.5274612    367.32575  0.023895768  0.024557273            5 
 1282000    1.0593706   -7.5241061     368.2933  0.023940022  0.024548227            5 
 1283000    1.0612705   -7.5446521    366.73118    0.0238199  0.024539042            8 
 1284000    1.0530632   -7.5184343    369.62427  0.023989114  0.024529746            7 
 1285000    1.0389259   -7.5133561    368.00844  0.023865658  0.024520573            4 
 1286000    1.0598184   -7.5525682    369.35145  0.023934127   0.02451151            4 
 1287000    1.0654052     -7.49874    370.13631   0.02396635  0.024502457            4 
 1288000    1.0302139   -7.5239255    369.16767  0.023885072  0.024493382            2 
 1289000    1.0484538   -7.5131241    368.53868  0.023825878   0.02448431            5 
 1290000    1.0580689   -7.5292037    369.61361  0.023876848  0.024475303            3 
 1291000    1.0466701   -7.5335872    370.29035  0.023902036  0.024466305            2 
 1292000    1.0349112   -7.5710651    369.49214  0.023832053   0.02445726            8 
 1293000    1.0353277   -7.5454357    368.12201  0.023725317  0.024448032            3 
 1294000    1.0307048   -7.5817902    369.08568  0.023769042  0.024438866            3 
 1295000     1.031588   -7.5610656    370.14434  0.023818812  0.024429786            3 
 1296000    1.0492108   -7.5097165    370.70882   0.02383673  0.024420881            2 
 1297000    1.0558165   -7.5405647    370.95622  0.023834247  0.024411974           11 
 1298000    1.0463387   -7.4937266    372.45094  0.023911848  0.024403175            3 
 1299000    1.0263485   -7.5525009    370.88329  0.023792872  0.024394326            3 
 1300000    1.0676403   -7.4967521    371.92142  0.023841116  0.024385504            2 
 1301000     1.038626   -7.5453452    371.56317  0.023799845  0.024376727            7 
 1302000    1.0345579   -7.5403324     371.3497  0.023767902  0.024367841            3 
 1303000    1.0537066   -7.5499761    370.96543  0.023725085  0.024358897            4 
 1304000    1.0329437    -7.493274     372.0086  0.023773556  0.024350074            3 
 1305000    1.0322119   -7.5396038    370.68375  0.023670738  0.024341112            3 
 1306000    1.0316393   -7.5616234    371.21895  0.023686763  0.024332025            5 
 1307000    1.0642162   -7.5400273    372.71094  0.023763768  0.024322972            4 
 1308000    1.0273637   -7.5310833    372.94883  0.023760756  0.024314108            4 
 1309000    1.0490228   -7.5140182    373.15311  0.023755609  0.024305205            7 
 1310000    1.0397369   -7.5436527    373.25902  0.023744213  0.024296516            7 
 1311000    1.0544484   -7.4978375    373.93517   0.02376908  0.024287818            2 
 1312000    1.0526404   -7.5207381    373.37164   0.02371517  0.024279218            2 
 1313000    1.0446251   -7.5310152     374.4071  0.023762827  0.024270584            3 
 1314000    1.0223464   -7.5322265    373.94143   0.02371521  0.024261972            2 
 1315000    1.0275009   -7.5372683    374.31292  0.023720718  0.024253265            3 
 1316000    1.0630098   -7.4965338    374.31106  0.023702575  0.024244527            4 
 1317000    1.0341942   -7.5671405    374.70198  0.023709313  0.024235831            5 
 1318000    1.0395668   -7.5184313    373.94978  0.023643765  0.024227279            3 
 1319000     1.055709   -7.5598412    374.77821  0.023678179  0.024218632            3 
 1320000    1.0367354   -7.5378305    374.69552   0.02365502   0.02420998            3 
 1321000    1.0373522   -7.5091052    375.80161  0.023706889  0.024201439            2 
 1322000    1.0253747   -7.5775719    375.41627  0.023664667  0.024192799            4 
 1323000    1.0251878   -7.5602356     375.0513  0.023623791  0.024184188            2 
 1324000    1.0415806   -7.5418854    375.53544   0.02363642  0.024175588            2 
 1325000    1.0395941   -7.5201126    377.59167  0.023747904  0.024167043            2 
 1326000    1.0575498   -7.5170557    376.83183  0.023682242  0.024158511            2 
 1327000    1.0308807   -7.5100618    377.09629  0.023681003  0.024150024            4 
 1328000    1.0103316   -7.5259563    376.07228  0.023598913   0.02414144            3 
 1329000    1.0131898   -7.5189005    375.86501   0.02356816   0.02413281            2 
 1330000    1.0395586   -7.5465683    376.77397  0.023607392  0.024124174            4 
 1331000    1.0380586   -7.5940567    376.98824  0.023603071   0.02411552            4 
 1332000    1.0604467   -7.5880454    375.99945  0.023523489  0.024106825            7 
 1333000     1.019617   -7.5853344    376.64085   0.02354594  0.024098113            3 
 1334000    1.0248508   -7.5553757    377.35527  0.023572918  0.024089412            1 
 1335000    1.0517267   -7.5098928    378.66867  0.023637245  0.024080942            7 
 1336000    1.0411597   -7.5641652    378.55865   0.02361269  0.024072463            3 
 1337000    1.0190792   -7.5286486    378.29417  0.023578545  0.024064062            3 
 1338000    1.0467539   -7.5918148    378.00669  0.023543017  0.024055526            3 
 1339000    1.0518635   -7.5941799    377.57629  0.023498649  0.024046856            5 
 1340000    1.0254776   -7.5692401    378.65567  0.023548238  0.024038367            4 
 1341000    1.0401417   -7.5697353    379.33978   0.02357319  0.024029795            3 
 1342000    1.0748191   -7.6031585    378.95652  0.023531826  0.024021301            7 
 1343000    1.0455001   -7.5153892    380.38988  0.023603244  0.024013025            9 
 1344000    1.0525318   -7.5000504    380.44885  0.023589338  0.024004652            3 
 1345000    1.0354423   -7.5567102    378.66105  0.023461032  0.023996068            6 
 1346000    1.0480676   -7.5204944    379.75939  0.023511602  0.023987426            5 
 1347000    1.0329849   -7.5532738    379.47987  0.023476854  0.023978858            5 
 1348000    1.0441786   -7.5272066    379.68308     0.023472  0.023970384            2 
 1349000    1.0427496    -7.521158    381.20362  0.023548531   0.02396189            5 
 1350000    1.0477754   -7.5698899    380.27879  0.023473999  0.023953469            7 
 1351000    1.0324784   -7.5550401    381.08977  0.023506647  0.023944896            8 
 1352000    1.0335652   -7.5479326    380.32449  0.023442091  0.023936253            4 
 1353000    1.0349314   -7.5499698    379.81503  0.023393387  0.023927659            5 
 1354000    1.0251186   -7.5601835    381.33144  0.023469439  0.023919043            4 
 1355000    1.0441835   -7.5411414    382.75606  0.023539733   0.02391052            7 
 1356000    1.0313825   -7.5868274    381.11522  0.023421535  0.023902084            3 
 1357000    1.0278919   -7.5971398    380.20513  0.023348387  0.023893514            7 
 1358000    1.0477385   -7.5413857    381.74429  0.023425643  0.023885002            3 
 1359000    1.0265179   -7.5436068    381.27003  0.023379325  0.023876589            2 
 1360000    1.0218544   -7.5865809     383.8398  0.023519596  0.023868276            4 
 1361000    1.0150381   -7.5869207    381.77679  0.023375997  0.023859813            2 
 1362000    1.0396031   -7.5602778    382.85859  0.023425024  0.023851346            3 
 1363000    1.0209238   -7.5752961    381.79938  0.023343078  0.023842927            4 
 1364000    1.0301105   -7.5868022    382.25533   0.02335382  0.023834458            2 
 1365000    1.0431536    -7.493369     382.9163  0.023377063  0.023826079            2 
 1366000    1.0286038   -7.6015538    381.41149  0.023268149  0.023817602            3 
 1367000    1.0174493   -7.5533497    382.86788   0.02333991  0.023809046            3 
 1368000    1.0329736   -7.6056358    381.71364  0.023252536  0.023800439            6 
 1369000    1.0554272   -7.5404522    382.96718  0.023311857   0.02379194            2 
 1370000    1.0566928   -7.5843857    384.71814  0.023401347  0.023783656            4 
 1371000     1.031473   -7.5738255    383.56938  0.023314453   0.02377529            3 
 1372000     1.043658    -7.557122    384.79592  0.023371958  0.023766904            5 
 1373000    1.0164864   -7.5628631    383.50454  0.023276556  0.023758492            3 
 1374000    1.0320803   -7.5846719    384.77341  0.023336573  0.023750101           15 
 1375000    1.0126427   -7.5630426    384.83099   0.02332309  0.023741871            4 
 1376000    1.0353637   -7.5872231    385.03658  0.023318591  0.023733547            2 
 1377000    1.0420532   -7.6118302    384.29577  0.023256824  0.023725225            4 
 1378000    1.0237682   -7.5785803    385.92732  0.023338614  0.023717004            2 
 1379000      1.02214    -7.618042    384.83767  0.023255841  0.023708645            4 
 1380000    1.0246527   -7.5955148    385.67028  0.023289268  0.023700388            1 
 1381000    1.0496188   -7.6347495    385.12089  0.023239252  0.023692067            3 
 1382000     1.041773   -7.5459183     385.6847  0.023256434  0.023683845            5 
 1383000    1.0377953   -7.5711315    385.77649  0.023245149  0.023675608            1 
 1384000     1.032673   -7.5847185     386.9921  0.023301547  0.023667305            5 
 1385000    1.0389593   -7.5431919    386.54331   0.02325772  0.023659046            3 
 1386000    1.0189485   -7.5127319    387.37093  0.023290701  0.023651022            6 
 1387000     1.018573   -7.5664584    387.62463  0.023289151  0.023642877            6 
 1388000    1.0376615     -7.61515    386.12776  0.023182502  0.023634635           13 
 1389000    1.0233474   -7.5780716    387.33524  0.023238255  0.023626331            3 
 1390000    1.0425146   -7.5954307    386.75181  0.023186559  0.023618041            3 
 1391000    1.0441708   -7.5704395    386.79751  0.023172628  0.023609665            7 
 1392000    1.0421562   -7.5917525    386.74703  0.023152959  0.023601478            2 
 1393000    1.0152301   -7.5648218    387.41812  0.023176485  0.023593297            6 
 1394000    1.0332399   -7.5768472    386.65175  0.023114045  0.023585021            4 
 1395000    1.0372643    -7.564753    388.69365  0.023219454   0.02357675            7 
 1396000    1.0322518   -7.5556983    387.84764  0.023152319  0.023568488            4 
 1397000    1.0276612   -7.6029981    387.53966  0.023117374  0.023560202            4 
 1398000    1.0200198   -7.5724936    388.06138  0.023131937  0.023552008            6 
 1399000    1.0061273   -7.5510718    389.09652  0.023177062  0.023543887            9 
 1400000    1.0175183     -7.57155    389.53536  0.023186628  0.023535652            3 
 1401000    1.0296691   -7.5806007    388.18811  0.023089942  0.023527494            5 
 1402000    1.0110699   -7.5527154    389.72352  0.023164736  0.023519314            3 
 1403000    1.0434608   -7.5468584    390.08427  0.023169652  0.023511231            7 
 1404000    1.0360257   -7.6001383    389.65077   0.02312742  0.023503001            3 
 1405000    1.0151063   -7.6176112    389.58683  0.023107167  0.023494826            5 
 1406000    1.0151579   -7.5777715    390.59888  0.023150716  0.023486588            4 
 1407000    1.0289076   -7.5411094    389.52233    0.0230705  0.023478462            7 
 1408000    1.0294793   -7.5462012    392.05528  0.023204029  0.023470305            4 
 1409000    1.0243615   -7.5413212    390.98521  0.023124273  0.023462207            4 
 1410000    1.0256442    -7.557372    390.46399  0.023077068  0.023454019            6 
 1411000    1.0193748    -7.551663    390.79601  0.023080322  0.023445983            6 
 1412000    1.0218761   -7.5616741    391.86334  0.023126968  0.023437974            6 
 1413000    1.0180272   -7.5668182    391.74532   0.02310364   0.02342994            2 
 1414000    1.0585661    -7.590441    392.46532  0.023129734  0.023421949            4 
 1415000     1.018459    -7.543757    391.41125   0.02305131  0.023413936            5 
 1416000    1.0335313   -7.6249036    392.03195   0.02307156  0.023405795           14 
 1417000    1.0250071   -7.5727225    392.50731  0.023083234  0.023397754            5 
 1418000    1.0069646   -7.6131051    391.34957  0.022998917  0.023389746            4 
 1419000     1.030631   -7.5497923    393.41253   0.02310386  0.023381842            4 
 1420000    1.0267467   -7.5680974    393.37948   0.02308565  0.023373942            8 
 1421000    1.0502792   -7.6182483    392.42665  0.023013526  0.023366027            3 
 1422000    1.0270115   -7.5875834    394.33059  0.023108919  0.023358092            4 
 1423000    1.0329141   -7.6075118    393.47408   0.02304252  0.023350268            6 
 1424000    1.0167653    -7.570951    394.42814  0.023082171  0.023342421           12 
 1425000    1.0122878   -7.5525437    394.79823  0.023087616  0.023334589            8 
 1426000    1.0380302   -7.5449297    395.12186  0.023090338  0.023326857            9 
 1427000    1.0258886   -7.5674403    393.79884  0.022996896  0.023318989            8 
 1428000    1.0224037   -7.5623764    394.94213   0.02304751  0.023311192            4 
 1429000    1.0010107   -7.5838798    394.53563  0.023007676  0.023303447            3 
 1430000    1.0341334   -7.5985061    394.19817  0.022971922   0.02329577           17 
 1431000    1.0075767   -7.6198652    395.65761  0.023040858  0.023287967            2 
 1432000    1.0126734   -7.5829659    395.39497  0.023009484  0.023280197            2 
 1433000    1.0350836   -7.6021851    396.33201  0.023047919  0.023272457            2 
 1434000    1.0383579   -7.5908683    396.06154  0.023016129  0.023264745            3 
 1435000    1.0035181   -7.5737807     396.8959  0.023048543  0.023257199            3 
 1436000    1.0240547   -7.5340846    397.60965  0.023073912  0.023249674            4 
 1437000    1.0368674   -7.5933544    396.58586  0.022998484  0.023242173            3 
 1438000    1.0071827   -7.6054355    395.40093  0.022913823    0.0232346            3 
 1439000    1.0234115   -7.5711116    397.82949  0.023038539   0.02322705            3 
 1440000    1.0103059   -7.6133616     397.3482  0.022994687  0.023219408            6 
 1441000    1.0151494   -7.6008458    397.08081  0.022963267    0.0232119            2 
 1442000    1.0329136    -7.628877    396.70904  0.022925858  0.023204363            4 
 1443000    1.0278043   -7.6030572    397.40723   0.02295029  0.023196742            5 
 1444000    1.0199269   -7.6173358    397.58686  0.022944763  0.023189163            9 
 1445000    1.0089587    -7.598833     397.7756   0.02293977    0.0231815            9 
 1446000   0.99651867   -7.6306481    396.81772  0.022868702  0.023173884            3 
 1447000    1.0089543   -7.6013685     398.7477  0.022964046  0.023166346            2 
 1448000    1.0281425   -7.5856953     399.3672   0.02298384   0.02315891            3 
 1449000    1.0155119   -7.5773084    398.64464  0.022926423   0.02315137            7 
 1450000    1.0073581   -7.5695057    399.45827  0.022957372   0.02314379            3 
 1451000    1.0167074   -7.5394297    400.50205  0.023001496  0.023136362            4 
 1452000    1.0209012   -7.5912899    398.25692  0.022856802  0.023128946            3 
 1453000    1.0341617   -7.6064243    398.35136  0.022846488  0.023121242            6 
 1454000    1.0119273   -7.5959774    398.66217  0.022848588  0.023113517            5 
 1455000    1.0148119   -7.5597689    400.30169  0.022926786  0.023105832            5 
 1456000    1.0008692   -7.6144314    398.47822  0.022806675  0.023098104            3 
 1457000    1.0273244   -7.6543626    398.13111  0.022771168  0.023090167            6 
 1458000    1.0369543   -7.6178316    399.54449  0.022836334  0.023082306            3 
 1459000    1.0126366   -7.6150894    397.75799  0.022718642  0.023074474            5 
 1460000    1.0392256   -7.6437684    398.61877  0.022752213  0.023066792            3 
 1461000    1.0261135   -7.6148411    399.76929  0.022802264  0.023059089            2 
 1462000    1.0185909   -7.6108102    400.82849  0.022847041  0.023051373            4 
 1463000   0.99341619   -7.5823852    400.37666  0.022805688   0.02304368            3 
 1464000    1.0098516   -7.6000172    401.27772  0.022841401  0.023035963            6 
 1465000     1.008262   -7.6541243    400.45383  0.022778944   0.02302827            4 
 1466000    1.0095638   -7.6431254    399.57801   0.02271362  0.023020573            3 
 1467000    1.0283986   -7.6328066    400.58589   0.02275539  0.023012931            4 
 1468000    1.0147443   -7.6314347    401.48703  0.022791044  0.023005289            4 
 1469000     1.003907    -7.605909    400.62249  0.022726486  0.022997833            2 
 1470000   0.99929667   -7.6094081    402.00013  0.022789123   0.02299025            6 
 1471000    1.0053249   -7.6126937     400.9375  0.022713432  0.022982577            2 
 1472000    1.0348157   -7.6248824    401.06526  0.022705234  0.022975058            3 
 1473000     1.025904   -7.6051727    402.15548  0.022751498  0.022967495            2 
 1474000    1.0162163   -7.5988128    402.32468  0.022745629  0.022960029            3 
 1475000    1.0187654   -7.6322724    401.33569  0.022674333  0.022952339            4 
 1476000    1.0225155   -7.6196783    400.94148  0.022636714  0.022944679            4 
 1477000    1.0217174   -7.6315469     402.1996  0.022692372  0.022936922            3 
 1478000     1.021158   -7.6501537    400.61394  0.022587615  0.022929115            2 
 1479000    1.0149654   -7.5917226    402.34078  0.022669641  0.022921347            4 
 1480000    1.0187725   -7.6261583    403.71994  0.022731979  0.022913672            4 
 1481000    1.0068217   -7.6320445    401.50884  0.022592214  0.022905909            4 
 1482000    1.0154645   -7.5911803     401.8234  0.022594658  0.022898204            7 
 1483000    1.0296872   -7.6180077    402.67928  0.022627516  0.022890487            3 
 1484000    1.0000886   -7.6612058    402.30398  0.022591194  0.022882663            3 
 1485000    1.0057161    -7.603725    402.87717  0.022608147  0.022874879            3 
 1486000    1.0363292   -7.5842608    404.88675  0.022705628  0.022867198            2 
 1487000    1.0158837   -7.6237251    403.31866   0.02260248  0.022859604            3 
 1488000    1.0061041   -7.6353633    402.76584   0.02255633  0.022851849            4 
 1489000    1.0343924   -7.5807983    404.70381  0.022649642  0.022844178            3 
 1490000    1.0187732   -7.6317514    403.90014  0.022589493  0.022836529            9 
 1491000     1.016061   -7.6359502    404.51094  0.022608481  0.022828815            7 
 1492000     1.008819   -7.5731489    405.10028  0.022626245  0.022821222            7 
 1493000    1.0054787   -7.5754355     404.8923  0.022599481  0.022813669            6 
 1494000    1.0211312   -7.6127934     404.5727  0.022566527  0.022806186            2 
 1495000    1.0382131   -7.5448992    405.98279  0.022630033  0.022798638            4 
 1496000    1.0205352   -7.5854235    405.76475   0.02260276  0.022791084            2 
 1497000    1.0154608   -7.5969171    406.89892  0.022650797  0.022783518            3 
 1498000    1.0196557   -7.6106094    406.18928  0.022596199  0.022775915            2 
 1499000    1.0327543   -7.6410278    405.56051   0.02254617  0.022768335            6 
 1500000    1.0299648   -7.6399221    404.60107  0.022477837  0.022760584            3 
 1501000     1.004143   -7.6483844    405.45449  0.022510243  0.022752861            2 
 1502000    0.9958247   -7.6319539    403.57228  0.022390828  0.022745066            3 
 1503000    1.0208424   -7.6198163    404.97107  0.022453486  0.022737319            7 
 1504000    1.0303247   -7.6393527    405.78626  0.022483724  0.022729645            3 
 1505000    1.0071549   -7.6211304    405.61223  0.022459149  0.022722024            9 
 1506000     1.005739   -7.5877709    407.04814  0.022523691   0.02271442            6 
 1507000    1.0308988   -7.5911611    407.39836  0.022528111  0.022706902            4 
 1508000     1.004388   -7.6644133    405.74429  0.022421767  0.022699234            9 
 1509000     1.016627   -7.6074252    407.71263  0.022515608  0.022691532            2 
 1510000    1.0157709   -7.6179935    406.03917  0.022408343  0.022683897            3 
 1511000   0.98580206   -7.6554265    406.17499  0.022401003  0.022676279            3 
 1512000    1.0196752   -7.6088566    406.99375  0.022431313  0.022668605            3 
 1513000   0.99871506   -7.6386225    406.80211  0.022405932  0.022661029            4 
 1514000     1.007826    -7.649628    406.28274  0.022362546  0.022653371            4 
 1515000     1.002768   -7.6545683    407.18099  0.022397194  0.022645613            5 
 1516000   0.99854831   -7.6496966    408.04321  0.022429816  0.022637937            6 
 1517000    1.0343713   -7.6523543    406.89195  0.022351788  0.022630236            2 
 1518000   0.97691795    -7.610201    408.57494  0.022429454  0.022622505            5 
 1519000    1.0260455   -7.5911099    409.88283   0.02248644  0.022614811            4 
 1520000     1.006748   -7.6441669    407.73217  0.022353737  0.022607325            3 
 1521000    1.0265894   -7.6254574    408.00332  0.022353897  0.022599733            5 
 1522000   0.99997371   -7.6065656    408.94898  0.022390987  0.022592082            4 
 1523000    1.0092575   -7.6506147    407.98901  0.022323758  0.022584438            5 
 1524000   0.99390726   -7.6330811     409.1652  0.022373425  0.022576756            2 
 1525000   0.99668114   -7.6501355    409.07927  0.022354059  0.022569192            7 
 1526000    1.0089472   -7.6593031    408.21275   0.02229209  0.022561562            7 
 1527000    1.0017714   -7.6165769    408.60237  0.022298754  0.022553811            5 
 1528000    1.0144501   -7.6519356    408.04044  0.022253514  0.022546111            4 
 1529000    1.0064687   -7.6366949    409.11598  0.022297579  0.022538523            8 
 1530000   0.99209969   -7.6374941    409.14364  0.022284512  0.022530798            8 
 1531000     1.009982   -7.6883991    408.57228  0.022238857  0.022523008            8 
 1532000     1.000976   -7.6907762    408.45665  0.022218051  0.022515137            4 
 1533000    1.0239646   -7.6676959     409.3756  0.022253511  0.022507284            5 
 1534000   0.99919469   -7.6682677    409.79197  0.022261624  0.022499319            3 
 1535000    1.0175934   -7.6045675    409.57589   0.02223539  0.022491364            4 
 1536000   0.98241199   -7.6924987    408.51811  0.022163526  0.022483485            2 
 1537000    0.9894284    -7.595388    408.99656  0.022175047  0.022475644            6 
 1538000   0.98794183   -7.6602309    408.70977   0.02214509  0.022467631            5 
 1539000   0.98836239    -7.602098    409.42749  0.022169563  0.022459765            3 
 1540000    1.0140811    -7.630169    409.63392  0.022166338  0.022451831            8 
 1541000   0.99715442    -7.620788    409.19571  0.022128256  0.022443903            5 
 1542000    1.0166936   -7.6475733    410.31425  0.022174354  0.022436004            6 
 1543000    1.0109344    -7.694592    408.36251  0.022054575   0.02242808            4 
 1544000    1.0116244   -7.6107576    410.18522  0.022138667  0.022420119            7 
 1545000   0.98525596   -7.6264287    409.02877  0.022061962  0.022412307            5 
 1546000    1.0160745    -7.667153    409.39322  0.022067336  0.022404406            2 
 1547000   0.99942848   -7.6521383    409.81314  0.022075692  0.022396471            6 
 1548000    1.0207747   -7.6581042    411.64315  0.022159945  0.022388563           11 
 1549000   0.99860023   -7.6592988    410.92905  0.022107222  0.022380649            2 
 1550000    1.0094377   -7.6415555    410.26889  0.022057467  0.022372552            4 
 1551000   0.98944963   -7.6434135    411.07386  0.022086496   0.02236449            3 
 1552000    1.0155137   -7.6288308    410.60171  0.022046913  0.022356482            5 
 1553000   0.99002056   -7.6419065    410.84037  0.022045523  0.022348489            5 
 1554000   0.98335257   -7.6537885    410.06236  0.021989616  0.022340542            6 
 1555000    1.0019729    -7.650204    410.79778  0.022014886  0.022332497            7 
 1556000    1.0249159   -7.6271382    412.10272  0.022070625  0.022324495            3 
 1557000   0.99209042   -7.6538343    410.80452  0.021986968   0.02231652            6 
 1558000    1.0046986   -7.5825774    412.48426  0.022062701  0.022308687            4 
 1559000   0.99511507   -7.6346559    411.86346  0.022015365  0.022300785           12 
 1560000     1.003469   -7.6668443    411.84726  0.022000388   0.02229279            4 
 1561000    0.9701874    -7.665306    412.19637  0.022004931  0.022284733            4 
 1562000    1.0100883   -7.6109233    412.68303  0.022016807  0.022276672            6 
 1563000    1.0166994   -7.6233634    412.12469  0.021972952  0.022268704            6 
 1564000    1.0058522   -7.6655529    410.08872  0.021850422   0.02226067            7 
 1565000   0.99511706   -7.6321704    411.56537  0.021915089  0.022252539            4 
 1566000    1.0044144   -7.6597475    412.37307  0.021944076  0.022244402            5 
 1567000    1.0092324   -7.6661976    412.29497  0.021925918  0.022236205            4 
 1568000    1.0020017   -7.6540048    412.39235  0.021917111  0.022228036            3 
 1569000    0.9935403   -7.6561966    412.13268   0.02188935  0.022219884            7 
 1570000   0.99572842    -7.640793    411.88959  0.021862505  0.022211767            4 
 1571000    0.9945167   -7.6564997    411.98456  0.021853626  0.022203629            3 
 1572000    0.9974514   -7.6636696    412.48581  0.021866296  0.022195515            4 
 1573000    1.0182859    -7.669696    412.60351   0.02185863  0.022187365            3 
 1574000    1.0169885   -7.6692903    412.88749  0.021859778  0.022179233            5 
 1575000     1.001818   -7.6160443     413.4511   0.02187572  0.022171086            7 
 1576000   0.98082559   -7.6831025    413.10678  0.021843633   0.02216292            2 
 1577000    1.0035471   -7.6692759    411.99382  0.021770969  0.022154743            8 
 1578000   0.98958528   -7.6203559    414.47213  0.021888051  0.022146651            4 
 1579000   0.99289829   -7.6408009    413.57834  0.021827018   0.02213853            5 
 1580000   0.99953407   -7.6548867    412.30915  0.021746263  0.022130386            2 
 1581000    1.0167193   -7.6557481    412.81402   0.02175912  0.022122237            2 
 1582000    1.0160882   -7.6492354    414.03715  0.021809795  0.022114118            5 
 1583000   0.99721521   -7.6621941    414.97683  0.021845485   0.02210602            7 
 1584000     1.011025   -7.6959843    414.08645  0.021784851    0.0220979            3 
 1585000   0.98920547   -7.6648305    413.15261  0.021722009  0.022089876            4 
 1586000   0.98104743   -7.6482094    413.62417   0.02173309  0.022081831            3 
 1587000   0.99069449   -7.6323636    416.09335  0.021849052  0.022073869            3 
 1588000    1.0040595   -7.6655551    414.42937  0.021747973  0.022065851            8 
 1589000    1.0002739   -7.6745056    414.97269   0.02176278  0.022057698           11 
 1590000    1.0087676   -7.6508318    414.60131  0.021729629  0.022049688            4 
 1591000     1.000884    -7.685876    414.29096  0.021699715  0.022041658            1 
 1592000   0.98540545   -7.6600099    416.03263  0.021777252  0.022033637            5 
 1593000   0.98696887   -7.6677577    414.81079  0.021699665  0.022025578            5 
 1594000   0.99523212   -7.6618375    415.88665  0.021742297   0.02201757            5 
 1595000    1.0060878   -7.6621348     416.1678  0.021743354  0.022009652            3 
 1596000    0.9745073   -7.6489869    416.41053  0.021742404  0.022001743            3 
 1597000   0.99888226   -7.6382915    417.58241   0.02178994  0.021993811            4 
 1598000   0.98681048   -7.7094644    414.43808  0.021612332  0.021985869            2 
 1599000    0.9961767    -7.670349    416.43304  0.021702785  0.021977852            3 
 1600000    1.0024361   -7.6685544    416.89925  0.021713503  0.021969859           14 
 1601000   0.97820912   -7.7098219    416.28708  0.021668076  0.021961871            4 
 1602000   0.99472541   -7.6796297    416.08054  0.021643807   0.02195392            5 
 1603000    1.0034979   -7.7100675    416.57699  0.021656113  0.021945915            3 
 1604000    1.0191385   -7.6771176    417.21089  0.021675545   0.02193802            3 
 1605000    1.0095436   -7.6717914    417.46938  0.021675461  0.021930216            3 
 1606000    1.0166417   -7.6788513    418.31623  0.021705906  0.021922345           10 
 1607000   0.99720403   -7.6806816     417.2517  0.021637196   0.02191456            3 
 1608000   0.98256449   -7.7118765    417.63786  0.021643753  0.021906674           12 
 1609000   0.98637931   -7.6289663    418.85759  0.021693474  0.021898892            4 
 1610000    1.0000952   -7.6280387     419.5631  0.021716516  0.021891197            4 
 1611000   0.99318616   -7.6889742    418.84474  0.021665877  0.021883459            4 
 1612000    1.0017471   -7.6831991    417.03336  0.021558797   0.02187556            9 
 1613000   0.99182753   -7.7065239    416.84613  0.021535758   0.02186769            3 
 1614000   0.97707789   -7.6301027    420.13573  0.021692262  0.021859884            5 
 1615000   0.98227705   -7.6501854    419.23021  0.021632106  0.021852168            5 
 1616000    0.9947058    -7.686804    418.07992  0.021559402  0.021844577           11 
 1617000   0.97929051   -7.6440051    421.15179   0.02170438  0.021836923            3 
 1618000   0.98841287   -7.7141457      418.976  0.021578904   0.02182926            4 
 1619000   0.98691958   -7.7102399     419.5169  0.021593417  0.021821541            7 
 1620000   0.99191124   -7.7018956    420.28698  0.021619701  0.021813821            3 
 1621000   0.97429834   -7.6923447    419.68484  0.021575408  0.021806028            9 
 1622000   0.99624337   -7.6937572    419.98227  0.021577387  0.021798231            2 
 1623000   0.98110667   -7.7086847    420.17592  0.021574036  0.021790413            4 
 1624000   0.97933583   -7.6831885    420.23738  0.021563905   0.02178268            5 
 1625000   0.99903532   -7.6715449     420.6663  0.021572631  0.021775014           22 
 1626000    1.0043407   -7.7114563    420.12595   0.02153167  0.021767271            2 
 1627000    0.9853062   -7.6739266    420.62234  0.021543861  0.021759559            6 
 1628000   0.98010211   -7.6681655    420.20663  0.021509348  0.021751929            2 
 1629000       0.9778   -7.6490796    421.68466  0.021571755  0.021744328            5 
 1630000    1.0006358   -7.6483542    422.19143  0.021584429  0.021736712            3 
 1631000   0.99659369   -7.6874564    421.14442    0.0215177  0.021729162            6 
 1632000   0.99087201    -7.694955    419.90442  0.021441198  0.021721361            5 
 1633000    1.0031301   -7.6850579    421.46655  0.021507785  0.021713597            5 
 1634000   0.98965151   -7.7258135    421.03896  0.021472815  0.021705856            6 
 1635000   0.98250507   -7.7543552    420.01313  0.021407397   0.02169815           10 
 1636000    1.0105574   -7.7255445    420.57856  0.021423113  0.021690464            9 
 1637000    1.0026147   -7.6557768    423.00151  0.021533369  0.021682776            5 
 1638000   0.97746306   -7.6562504    422.97561  0.021518906  0.021675142            2 
 1639000   0.99345594    -7.673824    420.62263  0.021386141  0.021667387            4 
 1640000    1.0085563   -7.6728723    422.42853  0.021464864  0.021659669            6 
 1641000    1.0008172   -7.6855062    421.10692   0.02138467   0.02165198            3 
 1642000    1.0014311   -7.6868728    422.24299  0.021429303   0.02164424            1 
 1643000    1.0077426   -7.6640932    422.81632   0.02144534  0.021636498            3 
 1644000   0.98752833   -7.7276194    421.96708  0.021389248  0.021628777            7 
 1645000    0.9829914   -7.6863498    422.61484   0.02140906  0.021621055            3 
 1646000   0.99058717   -7.7028262    423.27277  0.021429363  0.021613309            4 
 1647000   0.99264692   -7.6995917    423.08355  0.021406777  0.021605634            4 
 1648000   0.98508485   -7.6857033    422.67469  0.021373113  0.021597988            2 
 1649000    1.0034374   -7.7056443     424.4614  0.021450445  0.021590289            7 
 1650000   0.98480447   -7.7165554    423.07283  0.021367315  0.021582517            5 
 1651000    1.0040363   -7.6866638    423.63054  0.021382523  0.021574831            8 
 1652000   0.99076507   -7.6731488    423.80294  0.021378276  0.021567204            3 
 1653000   0.99124696   -7.7037652    424.44314  0.021397617  0.021559529            4 
 1654000    0.9910923   -7.6884718    423.40326  0.021332288  0.021551952            4 
 1655000   0.96521799   -7.7055403    423.41396  0.021319938  0.021544283            3 
 1656000     1.001416   -7.6992586    423.24567  0.021298594  0.021536589            4 
 1657000   0.96544654   -7.7098866    423.24023  0.021285467  0.021528866            3 
 1658000    1.0007256   -7.6778167    424.28405  0.021325093  0.021521092            6 
 1659000    0.9982316   -7.7053891    422.69291  0.021232314  0.021513372            4 
 1660000    1.0055922   -7.6937961    423.69407  0.021269783  0.021505595           10 
 1661000   0.96249793   -7.6988378    424.49703  0.021297262  0.021497799            2 
 1662000   0.99270664   -7.6985235       424.85  0.021302146  0.021489988            3 
 1663000   0.99824593   -7.6453686    425.16052  0.021304897  0.021482246            3 
 1664000    0.9924048   -7.6826929    424.60129  0.021264087  0.021474506            5 
 1665000   0.96971819   -7.7254071    424.72889  0.021257702  0.021466747            4 
 1666000   0.98621233   -7.7037684    425.02246  0.021259627   0.02145903            4 
 1667000   0.99736526   -7.7040189    424.62157  0.021226833  0.021451344            3 
 1668000   0.99025029    -7.697388    425.60013  0.021262996  0.021443654            3 
 1669000   0.98147869   -7.7069423    423.61205  0.021150991  0.021436002            7 
 1670000    1.0037748   -7.7134527    424.69492  0.021192361  0.021428208            3 
 1671000   0.96827431   -7.7158698     425.8599  0.021237777  0.021420485            5 
 1672000    1.0038489   -7.7719018    423.89709  0.021127247  0.021412663            5 
 1673000    0.9942525   -7.7813523    424.52987  0.021146138  0.021404804            8 
 1674000   0.99643236   -7.7015982    425.93889  0.021203649  0.021397057            3 
 1675000   0.99527202   -7.7159366    425.21128   0.02115479  0.021389325            8 
 1676000   0.97597725   -7.6974096    427.29916  0.021245981  0.021381749            6 
 1677000   0.97140776   -7.6988778    426.19526  0.021178457   0.02137421            7 
 1678000    0.9830789   -7.6888745    427.08996  0.021210268   0.02136663            2 
 1679000     0.993473   -7.6978957    425.83677  0.021135436  0.021359099            5 
 1680000   0.97542263   -7.7230425    426.83504  0.021172373  0.021351454            4 
 1681000   0.99498695   -7.7711644    426.36854  0.021136652  0.021343752           10 
 1682000   0.97346429   -7.7423354    425.99565  0.021105611  0.021335992            4 
 1683000    0.9665142   -7.7107544    426.68037  0.021126974  0.021328268            2 
 1684000   0.99364677   -7.6905494    426.56756  0.021108846  0.021320585            6 
 1685000   0.96964203   -7.7268687    426.40535  0.021088296  0.021312879            2 
 1686000   0.98957006   -7.7382737    427.12756  0.021111485  0.021305127            8 
 1687000    0.9695801   -7.7018174    427.09344  0.021097285   0.02129745            3 
 1688000   0.98962808   -7.6928464    427.24979  0.021092505  0.021289763            6 
 1689000   0.98664482   -7.7281229     427.0994  0.021072597  0.021282074            5 
 1690000   0.96022873   -7.7591763    426.37091  0.021024207  0.021274311            7 
 1691000   0.98137172   -7.7182719    427.43417  0.021064172   0.02126645            5 
 1692000   0.97810601    -7.736916    427.34885   0.02104752  0.021258672            3 
 1693000   0.97085033   -7.7303131    427.96996  0.021065661  0.021250904            4 
 1694000    1.0011792   -7.6722431    429.24436  0.021115917  0.021243307            3 
 1695000   0.97494073   -7.7413975    426.79619  0.020983097  0.021235622            5 
 1696000   0.97759738    -7.724662    427.40101  0.021000443  0.021227876            5 
 1697000   0.98714407   -7.6934337    427.98164   0.02101658  0.021220179            2 
 1698000   0.99307125   -7.6978308    427.83521  0.020997016  0.021212426            6 
 1699000   0.97598185   -7.7369445    427.63762  0.020974967  0.021204693            6 
 1700000   0.98638744   -7.6773625    429.41262  0.021049638  0.021197042            7 
 1701000   0.98120937   -7.7128289    429.35051  0.021034221  0.021189378            8 
 1702000   0.97148009   -7.7351515    427.60346  0.020936323  0.021181661           18 
 1703000   0.98756032   -7.7066931     429.1933  0.021001825  0.021173952            6 
 1704000   0.98650502   -7.6559361    428.97211  0.020978683   0.02116628            6 
 1705000   0.96292362   -7.7106212    428.61277  0.020948816  0.021158625            4 
 1706000   0.97333872   -7.6980686    429.45683  0.020977766  0.021150921            2 
 1707000   0.98022458   -7.7441379    428.15323  0.020901837  0.021143232            3 
 1708000   0.95725958    -7.701787    430.59802  0.021008881  0.021135457            2 
 1709000    1.0060694   -7.7216766     429.3699  0.020936703  0.021127711            3 
 1710000   0.99938138   -7.7248864    429.85231  0.020947968  0.021120047            5 
 1711000   0.98953928   -7.7008586    429.87965  0.020937057  0.021112393            5 
 1712000   0.99591302   -7.7121311    429.66953    0.0209146  0.021104784            4 
 1713000    0.9637406     -7.70486    429.50979  0.020894619  0.021097085            4 
 1714000   0.97578448   -7.7230453    429.41182  0.020877665  0.021089353            5 
 1715000   0.98453656   -7.7256427    429.11167  0.020850907   0.02108161            4 
 1716000   0.97725472   -7.7148296    428.81843  0.020824516   0.02107384            3 
 1717000   0.99828431   -7.7005366    430.55791  0.020896812  0.021066218            7 
 1718000   0.98264586   -7.7190362    430.02726  0.020858909  0.021058443            5 
 1719000   0.98543624   -7.7238086    429.64268  0.020828131   0.02105074           10 
 1720000   0.98952658   -7.7098828    431.15167  0.020889131  0.021043088            5 
 1721000    0.9632342   -7.6919254    431.67918  0.020902536  0.021035371            3 
 1722000   0.97922678   -7.7025817    429.86135  0.020802427  0.021027639           10 
 1723000   0.97787389   -7.7305347    429.00874  0.020749117  0.021019915            3 
 1724000   0.99371301   -7.7473891    431.13896   0.02084005  0.021012108            4 
 1725000   0.98709748    -7.696407    429.69949  0.020758429   0.02100434            5 
 1726000   0.97810909   -7.7024814    431.72326  0.020844113  0.020996623            3 
 1727000   0.97427804   -7.6776315    431.52459  0.020822456  0.020988821            3 
 1728000   0.99041432   -7.7211119    431.01436  0.020785801  0.020981073            3 
 1729000   0.96118328   -7.7774612    429.12976  0.020682946   0.02097329            7 
 1730000    0.9747531   -7.6950642    432.20165  0.020818962  0.020965515            6 
 1731000   0.98712642   -7.7474822    431.46871   0.02077165  0.020957692            7 
 1732000    0.9973523   -7.7230967    431.23808  0.020748561  0.020949825            4 
 1733000   0.99531737   -7.7147939    431.81928  0.020764536     0.020942            8 
 1734000   0.96640139   -7.7093329    430.64036  0.020695904  0.020934166            4 
 1735000   0.99603236   -7.7454546     430.4814   0.02067634  0.020926279            4 
 1736000   0.97114668   -7.7373494    431.10026  0.020694137  0.020918391            3 
 1737000   0.98091726   -7.7300923    431.77915  0.020714793  0.020910519            5 
 1738000   0.97408432    -7.700231    430.34857  0.020634281  0.020902745            3 
 1739000   0.96036718   -7.6952105    431.47204  0.020676253  0.020894898            3 
 1740000   0.97798397   -7.7017492    431.58369  0.020669717  0.020887083            3 
 1741000   0.98707355   -7.7375895    430.62924   0.02061216  0.020879178            5 
 1742000   0.96084369   -7.7478696     432.0656   0.02066904  0.020871254            8 
 1743000   0.96419665    -7.746143     430.5821  0.020586254  0.020863367            4 
 1744000   0.98007412   -7.7701097    429.96532  0.020544979  0.020855416            4 
 1745000   0.99639058   -7.7631261    431.28944  0.020596439  0.020847471            3 
 1746000   0.96131076   -7.7411589    431.48242  0.020593854  0.020839531            9 
 1747000   0.97904958   -7.7802304    431.16232  0.020566796  0.020831623            9 
 1748000   0.97795751   -7.7386662    431.80257  0.020585553  0.020823792            6 
 1749000    0.9647952   -7.7654033    432.87759  0.020625004  0.020816005            5 
 1750000   0.94943181   -7.7215605    432.80036  0.020609541  0.020808245            4 
 1751000   0.97791621   -7.7219806    433.05941    0.0206101  0.020800514            3 
 1752000   0.97089326   -7.7541876    431.48937  0.020523657  0.020792721            4 
 1753000   0.97456561   -7.7200391    432.65344  0.020567286  0.020784893            5 
 1754000   0.97169146   -7.7139539    432.20586  0.020534296  0.020777089            6 
 1755000   0.98362056   -7.7195432    434.01754   0.02060862  0.020769339            6 
 1756000     0.985216   -7.7695509     433.1332  0.020554916  0.020761634            3 
 1757000   0.96904675   -7.7669479    432.05499  0.020492079  0.020753817            6 
 1758000   0.96287014   -7.7763566    430.60827  0.020411844   0.02074604            2 
 1759000   0.96064326   -7.7482948     432.0222  0.020467226  0.020738248           10 
 1760000   0.95944171   -7.7530767    431.99754  0.020454429  0.020730448           12 
 1761000   0.97191524   -7.7521894    433.02445  0.020491409  0.020722721           23 
 1762000   0.95887674   -7.7580982    432.63122  0.020461182  0.020714919            7 
 1763000   0.96020062    -7.727187    433.12144  0.020472747  0.020707141            6 
 1764000   0.97742775   -7.7533832    434.09717  0.020507236  0.020699336            4 
 1765000   0.95698774    -7.767415    433.45787  0.020465433  0.020691616           11 
 1766000   0.96299236   -7.7803979    433.45994  0.020453942  0.020683888            7 
 1767000   0.99147191   -7.7363282    434.59825   0.02049605  0.020676247            3 
 1768000   0.96750932   -7.7546199    434.80419  0.020494164  0.020668636            4 
 1769000   0.97493631   -7.7938348    433.28326  0.020410932  0.020660963            5 
 1770000   0.96167789   -7.7348122    435.68071  0.020512275  0.020653324            1 
 1771000   0.96248725   -7.7605662    433.58922  0.020402278  0.020645631            3 
 1772000   0.97698851   -7.7431767    437.01238  0.020551748  0.020638008            9 
 1773000   0.97572537   -7.7424702    435.98029  0.020491647  0.020630449            7 
 1774000   0.99546939   -7.7367073    435.10939  0.020439186  0.020622892            3 
 1775000   0.97395479   -7.7388375    436.64931  0.020499968  0.020615408            4 
 1776000   0.97055755   -7.6960843    436.38205  0.020475885  0.020607948            5 
 1777000   0.95878636   -7.7493595    436.71947  0.020480185  0.020600448            5 
 1778000   0.97499816   -7.7632209    436.53895  0.020460206  0.020592892            5 
 1779000   0.98331508   -7.7838818    435.05154   0.02037903  0.020585203            6 
 1780000   0.94786507   -7.7835165    434.90217  0.020360588  0.020577502            4 
 1781000   0.97526787   -7.7636153    436.13298  0.020406746  0.020569907            9 
 1782000   0.96252481   -7.7786712    435.30186  0.020356428  0.020562338            5 
 1783000   0.95690943   -7.7562412    436.35886  0.020394413   0.02055469            3 
 1784000   0.97222127   -7.7495442    436.73882   0.02040073  0.020547091            4 
 1785000   0.96296637   -7.7988118    435.93226  0.020351646  0.020539574            4 
 1786000   0.96869871   -7.7457594    436.81315  0.020381353  0.020532042            5 
 1787000   0.95684508   -7.7325947    437.23148  0.020389455  0.020524556            2 
 1788000    0.9701937   -7.7164144    437.36474  0.020384263  0.020517068            6 
 1789000   0.96284849   -7.7562818    438.30203  0.020416528   0.02050964            2 
 1790000   0.94963311   -7.7353091     438.3454  0.020407141  0.020502211            7 
 1791000   0.96088437   -7.7308305    438.48339  0.020402168  0.020494779            4 
 1792000   0.96258912   -7.7513458    437.05872  0.020324531  0.020487293            1 
 1793000   0.95234811   -7.7599325      437.464  0.020332032  0.020479727            4 
 1794000   0.95686294   -7.8219865    437.22471  0.020309583  0.020472091            3 
 1795000   0.94669693   -7.7930983    437.87057  0.020328253  0.020464527            5 
 1796000   0.97578638   -7.7262353    438.30276  0.020336988  0.020457068            2 
 1797000   0.96879845   -7.7740753    438.13586  0.020317931  0.020449604            6 
 1798000   0.94416693   -7.8066081    436.81498  0.020245411  0.020442054            6 
 1799000   0.95339613   -7.7502396    439.15786  0.020342684  0.020434552           14 
 1800000    0.9545204   -7.7334734    438.86076  0.020317628  0.020427068            3 
 1801000   0.96577338   -7.7684574    439.39819  0.020331214   0.02041968            3 
 1802000   0.97574067   -7.7683873    439.15118  0.020308508  0.020412275            3 
 1803000   0.93532048   -7.7579011    439.83315  0.020328765  0.020404854            3 
 1804000   0.94363362   -7.7039096    440.66479  0.020355912  0.020397499            3 
 1805000   0.98913788   -7.7218027    441.30245  0.020374074  0.020390205            5 
 1806000   0.97662399   -7.7506643    439.34618  0.020272526  0.020382812            5 
 1807000   0.95999987   -7.7544009    439.14524   0.02025204  0.020375389            4 
 1808000   0.95542782   -7.7989221    438.85663  0.020227536  0.020367901            3 
 1809000   0.95380196   -7.7550954    439.77213  0.020258528  0.020360391            9 
 1810000   0.98292888   -7.7345253    440.19534   0.02026682  0.020352941            2 
 1811000   0.93298192   -7.7949085     440.2861  0.020259806  0.020345507            3 
 1812000   0.94948539    -7.757817    439.49947  0.020212448  0.020338064            4 
 1813000   0.95797393   -7.7591864    439.49508  0.020201098  0.020330632            8 
 1814000   0.94053637   -7.6996706    440.67271   0.02024406  0.020323224            5 
 1815000   0.96384852    -7.767956    440.15511  0.020209142  0.020315793            6 
 1816000   0.97663145   -7.7490187    440.91709   0.02023298  0.020308397            6 
 1817000   0.94919057   -7.7068099    440.92972  0.020222423  0.020300949            4 
 1818000   0.95025571   -7.7928042    440.07783  0.020172251  0.020293515            7 
 1819000   0.96717223   -7.7370665    441.25527  0.020215103  0.020285982            9 
 1820000   0.97240274   -7.8169181    439.50375  0.020123798  0.020278498           13 
 1821000   0.95239622   -7.7757982    439.98295  0.020134677  0.020271054           13 
 1822000   0.95864843   -7.7763943    440.63372   0.02015339  0.020263546           16 
 1823000   0.93841834   -7.7426077    441.47815  0.020180936  0.020256073            6 
 1824000   0.96499172   -7.7820907    440.95466  0.020145955  0.020248603            3 
 1825000   0.97343162   -7.7230353    441.78678  0.020172912  0.020241138            3 
 1826000   0.95844375   -7.7705853    441.02444  0.020127074  0.020233696            7 
 1827000   0.93967441   -7.7880207    442.10586  0.020165383  0.020226268           13 
 1828000   0.97840714   -7.7940656    440.86759  0.020097902   0.02021884            4 
 1829000   0.97039795   -7.7670433    441.00517  0.020093183  0.020211466            4 
 1830000    0.9717038   -7.7649703    441.27704  0.020094583  0.020204121            9 
 1831000    0.9670339   -7.7956604    441.39193  0.020088837  0.020196763            9 
 1832000   0.97130247   -7.7484473    441.99834  0.020105456  0.020189363            8 
 1833000   0.95168009   -7.7951495    440.80473  0.020040222     0.020182            3 
 1834000   0.96545079    -7.796622    440.49978  0.020015439  0.020174579            6 
 1835000   0.94347305   -7.7579562    442.07121  0.020075895  0.020167194            2 
 1836000   0.94782843   -7.8202158     441.3922  0.020034141   0.02015975           10 
 1837000    0.9880343   -7.7761663    442.59813  0.020077941  0.020152289            4 
 1838000   0.95023831   -7.7465375     441.9598  0.020038076  0.020144865            3 
 1839000   0.96570781   -7.7822807    442.71101   0.02006122  0.020137391            2 
 1840000   0.96301297   -7.7984281    440.92996  0.019969654   0.02012992            7 
 1841000   0.94036995   -7.7890139    440.01619  0.019917445  0.020122389            5 
 1842000   0.93968368   -7.8225529    441.33005  0.019966072  0.020114715            6 
 1843000   0.96713312   -7.8088826    440.18092  0.019903279  0.020107096            6 
 1844000   0.97086547   -7.8264693    441.46679  0.019950596  0.020099485            3 
 1845000   0.95955933   -7.7928864    442.06513  0.019966808  0.020091958            4 
 1846000   0.97571803    -7.791525    442.81311  0.019989758  0.020084456            5 
 1847000   0.97231937   -7.7763265    443.18824   0.01999586  0.020077023           10 
 1848000   0.94809061   -7.8250725    441.78346  0.019921693  0.020069549            7 
 1849000   0.96585431   -7.8045378    442.11099   0.01992568  0.020062142            3 
 1850000   0.94647186   -7.8151528     443.6319  0.019983419  0.020054764            6 
 1851000   0.95154232   -7.8014941    443.51612   0.01996741  0.020047357            3 
 1852000   0.95841817   -7.8036293    445.12968  0.020029233  0.020039925            3 
 1853000   0.97043781   -7.8110356    441.39396  0.019850421  0.020032473            6 
 1854000   0.95846521   -7.7567022    444.39747  0.019974716  0.020025048            7 
 1855000   0.95558741   -7.7846119    444.02929  0.019947408  0.020017605            5 
 1856000   0.97901545   -7.7572008    443.89115  0.019930457   0.02001017            3 
 1857000   0.94826236   -7.8181164    443.57605  0.019905585  0.020002711            2 
 1858000   0.94327361   -7.7696351    444.85263  0.019952127  0.019995276            9 
 1859000   0.96126834   -7.8121743    442.84943  0.019851597  0.019987831           11 
 1860000   0.93259267   -7.8049476     443.4501  0.019867836  0.019980373            6 
 1861000   0.94990604    -7.787094    443.19143  0.019845577  0.019972969            5 
 1862000   0.93762529   -7.7720059    445.10735  0.019920666  0.019965642            5 
 1863000   0.95626932   -7.7674296    445.74647  0.019938561   0.01995837            3 
 1864000   0.93820545   -7.8067409    444.07023  0.019852925  0.019951004            3 
 1865000   0.95695043   -7.8069405    443.45315  0.019814707  0.019943684            9 
 1866000   0.94966321   -7.8137763    445.16894  0.019880714  0.019936344            6 
 1867000   0.94980821   -7.7815786    444.31084  0.019831764  0.019928918            4 
 1868000   0.95389657   -7.8379657    443.59696    0.0197893  0.019921562            3 
 1869000   0.95549556   -7.7975574     445.4441  0.019861071  0.019914229            5 
 1870000   0.93029537   -7.7920113     444.0722  0.019789314  0.019906863            5 
 1871000   0.94318611   -7.7914689    445.11611  0.019825232  0.019899519            6 
 1872000   0.96761192   -7.7592437    446.17056  0.019861581  0.019892235            3 
 1873000    0.9387266   -7.7938924    445.14459  0.019805329  0.019884954            5 
 1874000   0.97255342   -7.7867275     446.1491   0.01983943  0.019877694            2 
 1875000   0.97454848   -7.7607878    446.07799  0.019825688  0.019870412            7 
 1876000   0.94844673   -7.8214592      445.347  0.019782649  0.019863068            5 
 1877000   0.95147016   -7.8054795    445.44446  0.019776437  0.019855697            6 
 1878000   0.95516573   -7.8125334    445.83747  0.019783345  0.019848356            4 
 1879000   0.98049815   -7.8063241    445.60812  0.019762645  0.019841004           15 
 1880000   0.97472664   -7.7843063    445.90326  0.019765215  0.019833714            4 
 1881000   0.94174691   -7.8061762    447.66897  0.019832933   0.01982642            9 
 1882000   0.95880793   -7.7642625    446.29485   0.01976155  0.019819192            5 
 1883000   0.93773434   -7.7727056    447.74497  0.019815232  0.019811915            3 
 1884000   0.95892864   -7.7909537    446.37755   0.01974423  0.019804626            8 
 1885000   0.96264822   -7.7960508     446.1888  0.019725411  0.019797334            6 
 1886000   0.94377963   -7.7963614    447.08173  0.019754407  0.019789979           12 
 1887000   0.94095263   -7.8332659    445.92803  0.019692989  0.019782629            7 
 1888000   0.95190546    -7.790678    447.40022  0.019747538  0.019775331            7 
 1889000   0.96205185   -7.8048876    447.58096  0.019745057  0.019768071            5 
 1890000   0.96815053    -7.795853      448.429  0.019772002  0.019760842            2 
 1891000   0.94954805   -7.8373519    446.68732  0.019684793  0.019753527            4 
 1892000   0.93359823   -7.8273323    447.21768  0.019697748  0.019746154            2 
 1893000   0.95266123   -7.8361149    447.11524  0.019682833   0.01973879            4 
 1894000   0.94418318   -7.8079628    446.52987  0.019646686  0.019731455            6 
 1895000   0.95060629   -7.8004559    446.99743  0.019656879  0.019724132           10 
 1896000   0.92933825   -7.7818068    448.05628   0.01969305  0.019716892            3 
 1897000   0.96407524   -7.8261097    447.13942  0.019642392  0.019709576            4 
 1898000    0.9404039   -7.7899734    447.62461  0.019653346  0.019702223            5 
 1899000   0.94668369   -7.8130613    446.36957  0.019587922  0.019694843            3 
 1900000   0.95761196   -7.8549692    446.37539  0.019577868  0.019687467            8 
 1901000   0.93686369   -7.8148902    447.98411   0.01963809  0.019680143            3 
 1902000   0.92836971   -7.7993795    448.39682  0.019645847  0.019672862            3 
 1903000   0.93020136   -7.8585142    445.63312    0.0195145  0.019665573            4 
 1904000   0.97124184   -7.8003581    448.03982  0.019609586  0.019658274            4 
 1905000   0.95582361   -7.8220059    448.20049  0.019606321    0.0196511            4 
 1906000   0.94545765   -7.8223397    449.20227  0.019639833  0.019643871            4 
 1907000   0.95748431   -7.7778152    448.82824   0.01961319  0.019636669            5 
 1908000   0.92187043   -7.7871496    450.45624  0.019674014  0.019629582            3 
 1909000   0.97286061   -7.8045856    450.23825  0.019654193  0.019622488            3 
 1910000   0.96123184   -7.8140108    449.85417  0.019627145  0.019615362            4 
 1911000   0.95291659   -7.8405856    449.49649  0.019601277  0.019608214            3 
 1912000   0.95401487   -7.7973536    448.70672  0.019556604  0.019601066            4 
 1913000   0.95696668     -7.79701    449.45959  0.019579177  0.019593895           10 
 1914000   0.95982398   -7.7962804    448.84081  0.019542007  0.019586722            4 
 1915000   0.94491641   -7.7930998    450.25934  0.019593531  0.019579554            6 
 1916000   0.94264229    -7.786583    449.97196  0.019570806  0.019572409            3 
 1917000   0.94984673   -7.8363708    448.38102  0.019491437  0.019565213            9 
 1918000   0.96283972    -7.829834    448.84192    0.0195013  0.019557982            2 
 1919000   0.94362793   -7.8209713    448.17718  0.019462271  0.019550705            5 
 1920000   0.96182656    -7.831886    449.62138  0.019514817  0.019543445            4 
 1921000   0.95302124   -7.8165862    449.68415  0.019507381  0.019536223            7 
 1922000   0.95229005   -7.8217941    449.29062  0.019480169  0.019528921           10 
 1923000   0.95944327   -7.8698216    448.36588  0.019429965  0.019521629            9 
 1924000   0.94167475    -7.851254    449.94964  0.019488463  0.019514333            5 
 1925000   0.95054423   -7.8270982    449.12965  0.019442842  0.019507063            6 
 1926000   0.96055786    -7.849842    450.28597  0.019482778  0.019499795            3 
 1927000   0.93116063   -7.8226152     450.2144  0.019469573  0.019492621            6 
 1928000   0.93730455   -7.8496316    451.05713  0.019495899  0.019485404           10 
 1929000   0.93266981   -7.8782416    448.57201  0.019378435  0.019478096           12 
 1930000   0.97358327   -7.8658644    448.88377  0.019381855   0.01947081           12 
 1931000   0.93579977   -7.8446944    451.24152  0.019473568  0.019463532            7 
 1932000   0.93729086   -7.8347095    451.02545  0.019454169  0.019456277            6 
 1933000   0.93945768   -7.8294994    450.71204  0.019430593  0.019449048            3 
 1934000   0.94181029   -7.8377076    451.08066   0.01943643  0.019441826           14 
 1935000    0.9436079    -7.856809    450.79308     0.019414  0.019434557            9 
 1936000   0.93510362    -7.865627    451.20511  0.019421707  0.019427347            7 
 1937000   0.94331337   -7.8008738      451.561  0.019426992  0.019420213            9 
 1938000   0.93840014   -7.8389862    450.68962  0.019379498  0.019413085            6 
 1939000   0.94089212   -7.8324885    452.66242   0.01945429  0.019405932            6 
 1940000   0.91932625   -7.8477621    451.45517  0.019392404  0.019398813            5 
 1941000   0.95990179   -7.8551744    452.01992   0.01940666   0.01939177           10 
 1942000   0.94850988   -7.8280445    453.79208  0.019472712  0.019384732            2 
 1943000    0.9215063   -7.8118502    453.65841  0.019456957  0.019377727            2 
 1944000   0.96189914   -7.8285613    452.14296  0.019381986  0.019370653           25 
 1945000   0.91840581   -7.8172732    453.11788  0.019413791   0.01936355            3 
 1946000   0.93874523   -7.8553096     452.3594  0.019371334  0.019356429            8 
 1947000   0.95127446   -7.8330583    452.45049  0.019365284  0.019349353            9 
 1948000   0.92760277   -7.8228322    453.41582  0.019396639  0.019342269           10 
 1949000   0.94375837    -7.806241    453.15312  0.019375454  0.019335157            2 
 1950000   0.95989486   -7.8557825      451.327  0.019287479  0.019328083            5 
 1951000   0.95312907   -7.8540121      452.844  0.019342389  0.019320957            4 
 1952000   0.94061963   -7.8339012    453.83418  0.019374752  0.019313823            6 
 1953000   0.92037238   -7.8607043    452.05028  0.019288713  0.019306714            2 
 1954000   0.93574822   -7.8380886    453.95887  0.019360238  0.019299603            9 
 1955000   0.93399232   -7.8378665    452.57646  0.019291409    0.0192925            6 
 1956000   0.91651228   -7.8538707    452.35666  0.019272182  0.019285414            3 
 1957000   0.93595173    -7.868149    452.46729  0.019267045  0.019278285           12 
 1958000   0.93337834     -7.83881    454.18176  0.019330174  0.019271232            8 
 1959000   0.93850865   -7.8332352     452.7267   0.01925841   0.01926415            6 
 1960000   0.94252427   -7.8230609      452.061   0.01922028  0.019257158           10 
 1961000    0.9352397   -7.7821414     454.0618  0.019295504  0.019250139            7 
 1962000   0.92503649   -7.8120891    453.95256   0.01928103  0.019243082            6 
 1963000   0.93457582   -7.8602338    452.28999  0.019200628  0.019235971            5 
 1964000   0.93943303   -7.8394429    454.21862  0.019272684  0.019228865            2 
 1965000   0.93402397   -7.8695674    453.24921  0.019221764  0.019221766           19 
 1966000   0.92601761   -7.8243341    454.46734  0.019263621  0.019214733            2 
 1967000   0.93534934   -7.7989591    455.13387  0.019282066  0.019207766            5 
 1968000   0.95946465   -7.8244039    454.94603  0.019264314  0.019200754            6 
 1969000   0.92530347   -7.7924032    454.23877  0.019224597   0.01919379           12 
 1970000   0.94553378   -7.8451092    454.43695  0.019223221  0.019186788            7 
 1971000   0.95548353   -7.8164281    452.94784  0.019150509  0.019179782            6 
 1972000   0.94753338   -7.8107561    455.42878  0.019245638  0.019172755            3 
 1973000   0.91432334   -7.8258485    454.04532  0.019177451  0.019165723            4 
 1974000   0.93696592   -7.8499742    453.88543  0.019160986  0.019158697            7 
 1975000   0.95399453   -7.8469803    454.74322  0.019187478  0.019151727            3 
 1976000   0.93832841   -7.8357215    455.84997  0.019224442  0.019144731            5 
 1977000   0.94248958   -7.8162614    455.03924  0.019180544  0.019137736            3 
 1978000   0.93745488   -7.8752148    454.97152  0.019167995  0.019130733            7 
 1979000   0.91682675   -7.8037634    455.94394  0.019199256  0.019123752            3 
 1980000   0.94920428    -7.886273    453.50057  0.019086724   0.01911675            7 
 1981000   0.94216367   -7.8774093    454.57879  0.019122446  0.019109744            4 
 1982000   0.92414881    -7.856734    455.32999  0.019144382  0.019102715            5 
 1983000    0.9199645   -7.9102527    454.33478  0.019092905  0.019095645            6 
 1984000   0.93977828   -7.8573924    454.43491  0.019087488  0.019088552            4 
 1985000   0.92925602   -7.8389446    454.46971  0.019079333   0.01908142            8 
 1986000   0.94321241   -7.8643731    454.99601   0.01909181   0.01907433            4 
 1987000   0.93496874   -7.8255004    456.49462  0.019145052  0.019067354            6 
 1988000   0.92885593   -7.8243413    455.75492  0.019104415  0.019060328           12 
 1989000   0.92658673   -7.8816052    456.11975  0.019110095  0.019053277            6 
 1990000    0.9218512   -7.8766837    454.71734  0.019041765  0.019046154            5 
 1991000   0.93495848   -7.8519976    456.48593  0.019106225  0.019039108           15 
 1992000   0.92193982   -7.8867028    454.80382  0.019026264  0.019032076            3 
 1993000   0.94470703    -7.850595    457.29736   0.01912098  0.019025126           13 
 1994000   0.91794387   -7.8359189    456.23432  0.019066964  0.019018254            3 
 1995000   0.94902481   -7.8413111    456.78667  0.019080479  0.019011304            6 
 1996000   0.92309666   -7.8612443    457.03203  0.019081164  0.019004378            5 
 1997000   0.93712588   -7.8744461    455.99003  0.019028127  0.018997419            9 
 1998000   0.90771829   -7.8373216    456.31767  0.019032269  0.018990524            3 
 1999000   0.92873872   -7.8567701    457.87449  0.019087648  0.018983627            3 
 2000000   0.93489235   -7.8466086    456.13554  0.019005647  0.018976638            4 
 2001000   0.94862887   -7.8319452    458.29968  0.019086277  0.018969756            5 
 2002000   0.92408925   -7.8657424    456.15407  0.018987432  0.018962827           10 
 2003000   0.94098067   -7.8626818      457.581  0.019037319  0.018955905            9 
 2004000   0.93727536   -7.8621521    458.46584  0.019064614  0.018949007            5 
 2005000   0.92800667   -7.8551103    456.79815  0.018985792  0.018942106            3 
 2006000   0.94838892   -7.8725526    456.35925  0.018958095  0.018935235            6 
 2007000   0.95038561   -7.8366878    459.43127  0.019076203  0.018928391            4 
 2008000   0.92197887   -7.8071113    459.48774  0.019069047  0.018921561            3 
 2009000   0.90879727   -7.8593699    457.45352  0.018975175  0.018914738            9 
 2010000   0.94222311   -7.8639125    458.11599    0.0189932  0.018907919            9 
 2011000   0.91281172     -7.85724    458.31199  0.018991877  0.018901111            8 
 2012000   0.93380839    -7.870081    459.10629  0.019015337  0.018894267            7 
 2013000   0.92833417   -7.8738665    458.27338   0.01897141   0.01888747            2 
 2014000   0.92099155   -7.8392412    460.73267  0.019063748  0.018880722            5 
 2015000   0.94512077   -7.8872051    458.44778  0.018959792  0.018873887           13 
 2016000   0.91906661   -7.8888317    458.47769  0.018951624  0.018867074            8 
 2017000   0.91082263   -7.8356911    459.71221  0.018993233  0.018860287            7 
 2018000   0.96359637   -7.8871516    459.06395  0.018957051  0.018853486            5 
 2019000   0.92316919   -7.8597098    459.13101   0.01895043  0.018846707            3 
 2020000   0.92315139   -7.8777972    460.12494  0.018982052  0.018839925            4 
 2021000   0.93380853   -7.8711384     459.2255  0.018935572  0.018833126            6 
 2022000   0.94448218   -7.8881422    458.68911  0.018904101  0.018826286            6 
 2023000   0.94438002    -7.861183    459.52084  0.018929018   0.01881956            7 
 2024000   0.92395468   -7.8905596    458.90564  0.018894336  0.018812799            5 
 2025000   0.92185697   -7.8616392      459.859  0.018924239  0.018805996            3 
 2026000   0.91360607   -7.8671793     460.3101  0.018933453  0.018799247            9 
 2027000   0.92889038   -7.8930455    459.22666   0.01887957  0.018792438            6 
 2028000   0.95514742   -7.9022755    458.86277  0.018855308  0.018785589            4 
 2029000    0.9109185   -7.8239882    461.67709  0.018961602  0.018778811           15 
 2030000   0.92540172   -7.8517872    460.14607  0.018889412   0.01877204            9 
 2031000   0.91604615   -7.9085075    459.51539  0.018854234  0.018765233           15 
 2032000   0.92612968   -7.8625691    460.49168  0.018884994  0.018758347            3 
 2033000   0.91655706   -7.9049297    459.18628  0.018822196  0.018751423            4 
 2034000     0.941904    -7.922707    458.87075  0.018800014   0.01874452            5 
 2035000   0.92741542    -7.855177    459.91152  0.018833396  0.018737552           15 
 2036000   0.90184575   -7.9061953    459.65067  0.018813469  0.018730675            8 
 2037000   0.90704916   -7.8751698    460.34998  0.018832841  0.018723796            6 
 2038000   0.93749275    -7.870462    459.39597  0.018784592  0.018716907            6 
 2039000   0.91678622   -7.8842763    460.46865  0.018819219  0.018710024            5 
 2040000   0.93849396   -7.8764044     459.7088  0.018778954   0.01870318            8 
 2041000   0.94340862   -7.9157124    459.74624  0.018771282  0.018696312            7 
 2042000   0.91089571   -7.8804539    459.19027  0.018739401  0.018689456            5 
 2043000   0.91835786    -7.895787    459.95967  0.018761612  0.018682534            9 
 2044000   0.91899517   -7.8978671    459.65934  0.018740188  0.018675604           10 
 2045000   0.94886326   -7.8890344    460.12319  0.018749926  0.018668723            2 
 2046000   0.92516277   -7.8759288    462.32553  0.018830463  0.018661899            6 
 2047000   0.92653485   -7.8714782    461.26728  0.018778183  0.018655066           13 
 2048000   0.92559851    -7.843467    461.25203  0.018768393  0.018648289            7 
 2049000   0.93572288   -7.9149175    459.85271  0.018702323  0.018641474            5 
 2050000     0.927709   -7.9195857    460.72536  0.018728673  0.018634647            8 
 2051000   0.91916448   -7.8876961    461.14452  0.018736573  0.018627829           10 
 2052000   0.93892858   -7.8949141    462.14161  0.018767934  0.018620964            6 
 2053000    0.9254218   -7.9246953    460.99917  0.018712419  0.018614083            8 
 2054000   0.94199842    -7.878135    461.69465  0.018731526  0.018607263            4 
 2055000   0.91737391   -7.9121977    460.59351  0.018677758  0.018600452            8 
 2056000   0.91550442   -7.8598522    462.23424  0.018735175   0.01859362            6 
 2057000   0.90418729   -7.8976799    460.95501  0.018674243  0.018586849            9 
 2058000   0.92889528   -7.8695969    461.71165  0.018695807  0.018580056            5 
 2059000   0.94038012   -7.8903847    461.24153    0.0186677  0.018573276            4 
 2060000   0.91688801   -7.8493405    461.65775  0.018675475  0.018566476            8 
 2061000   0.94554949   -7.8572956      461.882  0.018675481  0.018559696            3 
 2062000   0.91905427   -7.8699203    462.08766  0.018674736   0.01855286            4 
 2063000   0.92606777   -7.8627945    462.22182  0.018671103  0.018546072            8 
 2064000   0.92354775   -7.8874434    461.05981  0.018615141  0.018539251           10 
 2065000   0.92724988   -7.8747176    462.25977  0.018654551  0.018532417            4 
 2066000   0.91806107   -7.8907998    462.02296   0.01863597  0.018525525           11 
 2067000   0.91855975   -7.8882458     461.5321  0.018607164  0.018518641            9 
 2068000    0.9396467   -7.8799607    460.86712   0.01857137  0.018511725            6 
 2069000   0.91844046   -7.8703726    462.69021  0.018635823  0.018504874            4 
 2070000    0.9097591   -7.8193104    462.91701   0.01863595  0.018498068            3 
 2071000   0.92621856   -7.8807435    461.63371  0.018575314  0.018491215           15 
 2072000   0.92800859   -7.8977444    462.24724  0.018591025  0.018484309            3 
 2073000   0.91925602   -7.9348851    460.15193  0.018497826  0.018477401           12 
 2074000   0.91222883   -7.9158366    462.38624  0.018578682  0.018470529            8 
 2075000   0.94475478   -7.9125216     460.6382  0.018499526  0.018463604            5 
 2076000   0.91911514   -7.8635057    463.16631  0.018592097   0.01845677            7 
 2077000   0.92010262   -7.9072835    462.62623  0.018561476  0.018449847           10 
 2078000   0.90910296   -7.8685272    461.53311  0.018508707  0.018442982            7 
 2079000   0.90814375    -7.886207    462.35364  0.018532693  0.018436087            9 
 2080000   0.92440051   -7.9102404    461.73622  0.018499047  0.018429196            4 
 2081000    0.9212395   -7.9111345    461.14184  0.018466356  0.018422243            3 
 2082000   0.91751323   -7.8895854    461.82389  0.018484786  0.018415377            4 
 2083000   0.94799378   -7.8662886    461.85988  0.018477352  0.018408524            4 
 2084000   0.92711103   -7.8687431    463.22167  0.018522939  0.018401678            7 
 2085000   0.91598069   -7.8918119    463.68282  0.018532487  0.018394827            6 
 2086000   0.91420543   -7.9067135    462.10462  0.018460555  0.018387899            5 
 2087000   0.92123844   -7.9078789    462.53457  0.018468877  0.018380971           18 
 2088000   0.93629211   -7.9292602    462.71985  0.018467427  0.018374075            5 
 2089000   0.92153188   -7.8905031    462.24736  0.018439738  0.018367147            5 
 2090000   0.91499843   -7.8880497    463.20897  0.018469257    0.0183603            5 
 2091000   0.91701868   -7.8963936    462.08635  0.018415684   0.01835338            8 
 2092000   0.92985353   -7.9019066    462.92014  0.018440095  0.018346509            6 
 2093000   0.92115329   -7.9204043    462.39134   0.01841023   0.01833962            8 
 2094000    0.9084945   -7.9444877    462.26035  0.018396225  0.018332691            4 
 2095000   0.90981306   -7.9458399    462.80417  0.018409076  0.018325737            6 
 2096000   0.91735314   -7.9261926     462.0691  0.018371068  0.018318844            2 
 2097000   0.91752114   -7.9314302    462.01726  0.018360247  0.018311941            5 
 2098000   0.92107365    -7.903535    462.68792  0.018378135  0.018304999           10 
 2099000   0.90200267   -7.9353158    462.09166  0.018345707  0.018298114           12 
 2100000   0.91695947   -7.8964107    463.53064  0.018394073  0.018291222            4 
 2101000   0.90676122   -7.9070921    463.16691  0.018370891  0.018284318            7 
 2102000   0.91007761   -7.9286533    462.31162  0.018328244  0.018277379            9 
 2103000   0.90935335   -7.8769736     464.0844  0.018389776  0.018270488           26 
 2104000   0.91995964    -7.949037    461.47956  0.018277866  0.018263524            5 
 2105000   0.92187228   -7.9130232    463.00738  0.018329667  0.018256597           10 
 2106000   0.93422296   -7.9471961    462.17261  0.018287932  0.018249663           20 
 2107000   0.88343467   -7.9267745    461.93523  0.018269864   0.01824267            4 
 2108000   0.91782577   -7.9196366    463.25826  0.018313499  0.018235715            4 
 2109000   0.90933124   -7.9309632    462.33255  0.018268237   0.01822874            7 
 2110000   0.89090954   -7.9352974    463.51696  0.018306357  0.018221755           10 
 2111000   0.92274672    -7.954036    463.62917  0.018302115  0.018214726            5 
 2112000   0.92535052   -7.9151066    462.47503   0.01824791  0.018207703            4 
 2113000   0.91341901   -7.9142618     462.1255  0.018225489  0.018200656            5 
 2114000    0.9336628   -7.9182059    461.81047  0.018204449  0.018193554           14 
 2115000   0.89163307    -7.921652    463.27331  0.018253479  0.018186484           12 
 2116000   0.90898896   -7.9253897    463.06566  0.018236675  0.018179484           10 
 2117000   0.92332831   -7.9419136    461.49296  0.018166153  0.018172453            7 
 2118000   0.91285677    -7.909924    463.57096  0.018239336  0.018165473            7 
 2119000   0.90235807   -7.8871132    465.50462  0.018306773  0.018158527            4 
 2120000   0.92157524   -7.8833914    463.35282  0.018213554  0.018151552           10 
 2121000   0.92332986   -7.9480207    461.94948   0.01814983  0.018144561            9 
 2122000   0.92652045   -7.9159132    463.14357   0.01818817  0.018137592           12 
 2123000   0.91147268   -7.9154757    463.34055  0.018187335   0.01813063            4 
 2124000   0.90480695   -7.8909641    464.21797  0.018213197  0.018123682            5 
 2125000    0.9256362   -7.9356863    463.10303  0.018160903  0.018116741            7 
 2126000   0.92107571   -7.9079441    464.34521  0.018201051  0.018109805            5 
 2127000    0.9097125   -7.9438699    464.47513  0.018197584  0.018102892            5 
 2128000   0.92026128   -7.9144799    464.03837  0.018171929   0.01809599            4 
 2129000   0.92037163   -7.9590082    463.16438  0.018129183  0.018089088            7 
 2130000   0.93194229   -7.8944484    464.44738  0.018170868  0.018082145            7 
 2131000   0.89896509   -7.9140678    463.98856  0.018144399  0.018075235            9 
 2132000   0.87598724   -7.9173826    463.81508  0.018129107  0.018068288            9 
 2133000    0.9129453   -7.9407615    464.19443  0.018135429  0.018061268           11 
 2134000   0.89890365   -7.9260017    464.05712  0.018121568  0.018054278           11 
 2135000   0.90334121   -7.9162901    464.30611  0.018122799  0.018047349            9 
 2136000   0.93408705   -7.9062704    464.15372  0.018108369  0.018040429            7 
 2137000   0.90215449   -7.8963479     463.1967  0.018062576  0.018033467           14 
 2138000   0.90906555   -7.9342359    464.13022  0.018090514  0.018026479            7 
 2139000   0.90811176   -7.9055149    465.38422  0.018130911  0.018019488           11 
 2140000   0.94065406   -7.9299814    463.42652  0.018046204   0.01801251            5 
 2141000   0.90999034   -7.9271884    464.46545  0.018078213  0.018005552            5 
 2142000   0.90267722   -7.9175452    463.08067  0.018015899  0.017998589            9 
 2143000   0.90547886   -7.9114555    465.15569  0.018088182  0.017991642            5 
 2144000   0.89494888   -7.8954475    465.23034  0.018082647  0.017984775            5 
 2145000   0.90221714   -7.8894431    464.36708  0.018040679  0.017977899            4 
 2146000   0.92684605   -7.9197338    463.83831  0.018011739  0.017970961           12 
 2147000   0.91896685   -7.9061248    465.01225  0.018048915  0.017964055            6 
 2148000     0.923189   -7.9196806    464.58381  0.018023891  0.017957199            4 
 2149000   0.92200495   -7.8762411    465.73164  0.018060014  0.017950298            9 
 2150000   0.94053577   -7.9147295    464.59852  0.018007695   0.01794339            3 
 2151000   0.91727016   -7.9196069    465.80773  0.018046169  0.017936476            3 
 2152000   0.93088169   -7.9045159    465.11493  0.018010956    0.0179296            5 
 2153000   0.91926294   -7.8881753    465.19005  0.018005498   0.01792277            5 
 2154000   0.92927529   -7.8843838     465.3456  0.018003157  0.017915912           10 
 2155000   0.92068944   -7.9084353    464.92567  0.017978564  0.017909025            8 
 2156000   0.88320312   -7.9496042    464.72407  0.017962433  0.017902132           12 
 2157000   0.90087685   -7.9408808    463.79806   0.01791833  0.017895211            7 
 2158000    0.8980042   -7.9067529     465.4242  0.017972822  0.017888309            5 
 2159000   0.89733195   -7.9329604    465.44282  0.017965216  0.017881354            6 
 2160000   0.91810853   -7.8960357    465.35861   0.01795365  0.017874391            4 
 2161000   0.90145713   -7.9343855    465.00506  0.017931708  0.017867459            4 
 2162000   0.90479647   -7.9105042    465.16817  0.017929701  0.017860551            4 
 2163000   0.88771116   -7.9369452    465.17311  0.017921602  0.017853629            8 
 2164000   0.91075408   -7.9376841    464.11854   0.01787271  0.017846709            5 
 2165000   0.90788265   -7.9251316    464.96184  0.017896915  0.017839749           21 
 2166000   0.91895115   -7.9453119    464.65763  0.017876948  0.017832826            3 
 2167000   0.90597562   -7.9425706    465.44289  0.017898896  0.017825928            4 
 2168000   0.90503282   -7.9449433    464.60135  0.017858293  0.017818998            8 
 2169000    0.9079973   -7.9494507    464.47929   0.01784537  0.017812103           13 
 2170000   0.87731159   -7.9572351     465.4554  0.017874631  0.017805155            7 
 2171000    0.9084644   -7.9561015    464.67071  0.017836278  0.017798186           10 
 2172000   0.90612054   -7.9724828    464.47865  0.017820697  0.017791164            4 
 2173000   0.89533218   -7.9420139    464.31098  0.017806066  0.017784138            9 
 2174000   0.88757199   -7.9578293    464.47996  0.017804353  0.017777103            4 
 2175000   0.91209732   -7.9692863    464.87859   0.01781144  0.017770087            7 
 2176000   0.90970425   -7.9485127    465.41478  0.017823789   0.01776311            9 
 2177000   0.89032752   -7.9427995    464.87984  0.017795125  0.017756148            5 
 2178000   0.89247325   -7.9449335    466.41455  0.017845675  0.017749188            7 
 2179000   0.90865965   -7.9705062    464.07847  0.017748144  0.017742203            4 
 2180000   0.88737272   -7.9271355    464.79024  0.017767211  0.017735152            4 
 2181000   0.90654535   -7.9452229    465.37986  0.017781593  0.017728186            7 
 2182000   0.90907019   -7.9753649    466.47506  0.017815271   0.01772126           26 
 2183000   0.89903822    -7.945846    465.48015  0.017769131  0.017714335           24 
 2184000   0.90394814   -7.9635735    466.08277  0.017783989  0.017707382           15 
 2185000   0.90421738   -7.9696755    465.57152  0.017756351   0.01770044           23 
 2186000   0.90962813    -7.993916    465.19673   0.01773394    0.0176935            5 
 2187000   0.89739572   -7.9340452     466.9051  0.017790928  0.017686555            4 
 2188000   0.88849419   -7.9270396    466.56902  0.017769996  0.017679648            6 
 2189000   0.90084489   -7.9377162    466.22769  0.017748884  0.017672793            5 
 2190000   0.91014739   -7.9257812    467.25576  0.017779899  0.017665895            4 
 2191000   0.86514823   -7.9452616    466.75419  0.017752708  0.017659008            5 
 2192000   0.90073146    -7.918229     467.4445  0.017770852  0.017652133            5 
 2193000   0.89369147   -7.9452932    466.20559  0.017715671  0.017645256            9 
 2194000   0.90518042     -7.97615    465.13485  0.017666927  0.017638363            5 
 2195000   0.90942319   -7.9645723    466.34899  0.017704973  0.017631443           11 
 2196000   0.89771768   -7.9916637    467.37509  0.017735849  0.017624579            6 
 2197000   0.89649089   -8.0075039     466.5489  0.017696438  0.017617666            4 
 2198000   0.89475244   -7.9701358    466.08502    0.0176708  0.017610793            8 
 2199000   0.91846551   -7.9704628    466.55066   0.01768041  0.017603909           14 
 2200000   0.90756608   -7.9874956     465.8604  0.017646227  0.017596969           10 
 2201000   0.88861668   -7.9769119    466.53458  0.017663735  0.017590072           15 
 2202000   0.92176038   -7.9856631    466.89566  0.017669379  0.017583138            3 
 2203000   0.88471125   -7.9856868    465.16907  0.017596046  0.017576243            8 
 2204000   0.88283793   -7.9689192    467.08821  0.017660625   0.01756933           14 
 2205000   0.89622981    -7.982391    466.95675  0.017647648  0.017562387           27 
 2206000   0.89287425   -7.9703535    466.74426  0.017631621  0.017555481            7 
 2207000   0.89264247   -7.9763332    465.76924  0.017586816  0.017548605           13 
 2208000   0.89878957    -7.933278    467.81822  0.017656183  0.017541757            6 
 2209000   0.89035489   -7.9582836    467.79284  0.017647233   0.01753493           14 
 2210000    0.9083268   -7.9738272    466.60103  0.017594307  0.017528102           15 
 2211000   0.87771757   -7.9962365    467.30141  0.017612747  0.017521292            9 
 2212000   0.89636246   -7.9366296    469.11091  0.017672955   0.01751452            7 
 2213000   0.89203818   -7.9780096    467.10581  0.017589464  0.017507755           11 
 2214000    0.8927997   -7.9815454    469.00107  0.017652856  0.017500912           11 
 2215000   0.89369225    -8.000091    467.55397  0.017590443  0.017494098            5 
 2216000   0.89814279   -7.9447049    467.74307  0.017589616  0.017487282           10 
 2217000   0.87429602   -7.9622871    468.61981  0.017614637   0.01748046            8 
 2218000   0.89154817     -7.97077     468.5569  0.017604332  0.017473624           11 
 2219000   0.90037975    -7.995244    466.34388   0.01751329  0.017466774           21 
 2220000   0.89854071    -7.961039    467.62079  0.017553333  0.017459899           14 
 2221000   0.89845995   -8.0026806     467.6986  0.017548349  0.017453066           22 
 2222000   0.89614721   -8.0115649    467.20645  0.017521994  0.017446206           22 
 2223000   0.89350658    -7.974687    468.80168  0.017573912  0.017439361           23 
 2224000   0.89955902    -7.970936    467.07687  0.017501382  0.017432588           15 
 2225000   0.89642834   -7.9693148    468.08385   0.01753123  0.017425794           17 
 2226000   0.90758817    -8.002025    468.76859  0.017548989  0.017418956           13 
 2227000   0.89144032   -7.9590109     467.5281   0.01749469  0.017412152           22 
 2228000   0.90932449   -7.9639069    467.96443  0.017503158  0.017405331            4 
 2229000   0.88459017    -7.998568    467.55264   0.01747991  0.017398474           17 
 2230000   0.90745124   -8.0164753    468.87536  0.017521501  0.017391666            5 
 2231000   0.88213042   -8.0045233    467.70332  0.017469868  0.017384839           17 
 2232000   0.89151654   -7.9724271    468.51041  0.017492175  0.017377998           21 
 2233000   0.89355142   -8.0039252    469.12836  0.017507403  0.017371133            7 
 2234000   0.89629917   -8.0099675    468.95005  0.017492915  0.017364288            5 
 2235000   0.88294119   -7.9785639    467.95862  0.017448121  0.017357487           12 
 2236000   0.89716755   -7.9635742    469.15974  0.017485083  0.017350703            9 
 2237000   0.90346084   -7.9795233    468.49639  0.017452555  0.017343922           10 
 2238000   0.88032018   -7.9710033    469.41827  0.017479084  0.017337169           22 
 2239000   0.90330862   -7.9405553    469.42304  0.017471454  0.017330425            2 
 2240000   0.89283955    -7.929474    470.06821  0.017487656  0.017323708           11 
 2241000   0.89733171   -7.9270179    470.70486  0.017503528   0.01731699           14 
 2242000   0.89615721   -7.9680621    469.33176  0.017444683  0.017310266            4 
 2243000   0.87651125   -7.9855455    469.18343  0.017431395  0.017303533            9 
 2244000   0.88296508   -7.9498931    468.80215  0.017409468  0.017296802            5 
 2245000    0.8867851   -7.9514665    470.28647   0.01745681  0.017290073            4 
 2246000   0.89647684   -7.9161178    471.12507  0.017480153   0.01728336            4 
 2247000   0.91616942   -7.9554119    470.13694  0.017435727  0.017276625            8 
 2248000   0.89513342   -7.9678683    469.39787  0.017400574  0.017269855           14 
 2249000   0.89855698   -7.9329728    470.09128   0.01741853  0.017263141            5 
 2250000   0.87455337   -7.9368905    469.98709  0.017406929  0.017256419           13 
 2251000   0.87612852   -7.9451484    469.94254  0.017397547  0.017249672           15 
 2252000   0.87447177    -7.991617    469.61718  0.017377782  0.017242899           27 
 2253000   0.88735279   -7.9909956    469.42166  0.017362837  0.017236181           19 
 2254000   0.89114592   -7.9822718    470.19365  0.017383675   0.01722945           11 
 2255000    0.8938803   -7.9913229    470.02952  0.017369901  0.017222733            5 
 2256000   0.88669781    -7.994346     469.9357  0.017358736  0.017216013           10 
 2257000   0.89795312    -7.957399    470.84469  0.017384607  0.017209273            7 
 2258000   0.91431594   -8.0209992    469.56417  0.017329649  0.017202614            7 
 2259000   0.87135364     -7.98222     469.6381  0.017324705  0.017195905           19 
 2260000   0.88225993   -7.9495561    471.43694  0.017383368  0.017189194            5 
 2261000   0.88549745   -7.9814748    469.09073  0.017289206  0.017182504            5 
 2262000   0.89844764   -7.9976704    470.35923  0.017328295  0.017175823            9 
 2263000   0.87988069   -8.0078364    470.43771  0.017323527   0.01716914            9 
 2264000   0.88978141   -7.9345542    470.46564  0.017316904  0.017162468            6 
 2265000   0.89037973   -8.0241392    470.05145  0.017294019  0.017155804            6 
 2266000   0.89232404   -7.9667098    470.67599  0.017309355  0.017149116           11 
 2267000    0.8840148   -7.9406307    471.76524   0.01734176  0.017142471            7 
 2268000   0.89620659   -7.9453192     472.0811   0.01734572   0.01713584            4 
 2269000    0.8817252   -8.0058014    469.16596  0.017231011  0.017129151           16 
 2270000   0.88938384   -7.9885232    471.39603  0.017305288  0.017122499            4 
 2271000   0.86195436   -7.9918873    471.10016   0.01728681  0.017115823            8 
 2272000   0.89662798   -7.9805957    471.71575  0.017301781  0.017109176           13 
 2273000   0.85686295   -8.0246669    469.72239  0.017221088   0.01710249            6 
 2274000   0.87309667   -7.9950184    470.85755  0.017255114  0.017095798            6 
 2275000   0.89594083   -7.9690484    470.63497  0.017239376   0.01708912            8 
 2276000   0.89672849   -7.9647586    471.42076  0.017260573  0.017082483            9 
 2277000   0.88439205   -7.9964121     471.4485  0.017254008  0.017075831            4 
 2278000   0.88205478   -8.0024079    470.12373  0.017197971   0.01706914            4 
 2279000   0.89139036   -7.9524929    471.49882  0.017240706  0.017062475            7 
 2280000   0.88752588   -7.9865739    471.25409  0.017224199   0.01705585            3 
 2281000   0.88065638   -7.9737492    471.23658  0.017216008  0.017049242           10 
 2282000   0.88008281   -7.9986935    471.75092  0.017227247  0.017042603           11 
 2283000   0.89418173   -8.0316551    470.06184  0.017158046  0.017035961            9 
 2284000   0.88357443   -7.9797071     472.7253  0.017247712  0.017029316            5 
 2285000   0.89332767   -7.9784014    471.93168  0.017211221  0.017022693            3 
 2286000   0.86812154   -7.9981332    471.01687  0.017170344   0.01701607            4 
 2287000   0.89240847   -8.0047936    471.57844  0.017183298  0.017009421            9 
 2288000     0.876337   -7.9740241    472.75475  0.017218632   0.01700279            7 
 2289000   0.89380547   -7.9741607    471.27394  0.017157199  0.016996116            8 
 2290000   0.89337033     -8.01597    470.83215   0.01713363  0.016989466            3 
 2291000   0.87918035   -7.9576961    472.59698  0.017190345    0.0169828            4 
 2292000     0.896377   -8.0204551     472.0031  0.017161253  0.016976229            8 
 2293000   0.88981435   -8.0059594     470.6946  0.017106215  0.016969603            6 
 2294000   0.86992183   -7.9731615    471.10241  0.017113572  0.016963011            8 
 2295000    0.8873149   -7.9883322    471.47246  0.017119552    0.0169564            6 
 2296000   0.89311738   -7.9628715    472.20017  0.017138508  0.016949843            5 
 2297000   0.87264413   -7.9513206    472.51051  0.017142305  0.016943263           10 
 2298000    0.8662607   -8.0146834    470.45882  0.017060444  0.016936642            8 
 2299000   0.89630705   -8.0061184    471.40447  0.017087301  0.016930012           14 
 2300000   0.89907998   -8.0184064    471.36645  0.017078495  0.016923398            8 
 2301000   0.91002844   -8.0216941    472.00674  0.017094261   0.01691676            8 
 2302000     0.887536   -8.0260432    471.50465  0.017068659  0.016910094           15 
 2303000   0.90220842   -7.9985127    473.98493  0.017150996  0.016903485            6 
 2304000   0.88481826   -8.0261313    472.04602  0.017073424   0.01689684            7 
 2305000   0.89308585   -8.0234155    472.13855  0.017069362  0.016890203            5 
 2306000   0.88988758     -8.01012    472.36592  0.017070176  0.016883585            4 
 2307000   0.89488761   -7.9603284    472.43881   0.01706541  0.016876986            5 
 2308000   0.87849035   -8.0298718    472.07361   0.01704483  0.016870376           11 
 2309000   0.88329575   -8.0215091    471.82191  0.017028364  0.016863719            8 
 2310000   0.87959171   -7.9889814    472.52664  0.017046416  0.016857092           10 
 2311000   0.87956319   -8.0123479    472.41806  0.017035124  0.016850465            7 
 2312000   0.90035528   -8.0069857    472.73959  0.017039345   0.01684384           15 
 2313000    0.8797179   -7.9865128    471.99794  0.017005258  0.016837274           10 
 2314000   0.87226834   -7.9927699    472.76462  0.017025519  0.016830674            8 
 2315000   0.86491847    -8.018671    473.87853  0.017058263  0.016824098           16 
 2316000   0.88811984   -8.0214845    471.55477  0.016967284  0.016817525           33 
 2317000    0.8869158   -7.9956848    473.91113   0.01704471  0.016810943           11 
 2318000   0.88357062   -8.0005282    472.99889  0.017004562  0.016804408            9 
 2319000   0.87206202   -7.9878185    473.48388  0.017014657    0.0167979           11 
 2320000    0.8819019   -8.0002522    472.37424  0.016967466  0.016791327            5 
 2321000   0.87063357   -8.0175609    472.88182  0.016978379  0.016784801           11 
 2322000   0.89486429   -7.9672737    474.45973  0.017027696  0.016778309            9 
 2323000   0.87094731   -7.9931407    473.39189   0.01698206  0.016771814            8 
 2324000   0.88667814   -7.9807322    473.33371  0.016972666   0.01676528           10 
 2325000   0.86266251   -7.9914884    473.81939  0.016982774  0.016758734            7 
 2326000     0.888781   -8.0474174    472.11732  0.016914493  0.016752177           12 
 2327000   0.89848711   -7.9815966    474.28773   0.01698495  0.016745622           11 
 2328000   0.87635311   -8.0379604     472.2561  0.016904929  0.016739091           15 
 2329000   0.90016953   -8.0025935    472.67496  0.016912658  0.016732548           14 
 2330000   0.89257768   -8.0578945    472.79877  0.016909827  0.016725981           12 
 2331000    0.8744624   -7.9959635    473.45156   0.01692591  0.016719458            4 
 2332000   0.88692351   -8.0152118    474.20546  0.016945592  0.016712936            7 
 2333000   0.87064449   -8.0350794    473.36209  0.016908205  0.016706378           10 
 2334000   0.86060515   -8.0155228    473.63767    0.0169108   0.01669982            4 
 2335000    0.8769045     -7.99641    474.17935  0.016922889  0.016693276            4 
 2336000   0.88457549   -8.0126044    473.31541  0.016884825  0.016686725           10 
 2337000   0.88101219   -8.0082078    474.75455  0.016928917  0.016680189            6 
 2338000   0.86594278   -7.9994597    474.18604  0.016901413  0.016673638           15 
 2339000   0.86155324   -7.9965352     474.2035  0.016894809  0.016667098            7 
 2340000   0.88864933   -8.0610707    473.72756   0.01687064   0.01666053            7 
 2341000   0.87896569   -8.0302017    474.24374  0.016881808  0.016653964            5 
 2342000    0.8629675   -8.0332955    474.26433  0.016875332  0.016647401            3 
 2343000   0.86324873   -8.0275503    474.95568  0.016892719   0.01664087            8 
 2344000   0.87068932   -8.0460533    473.74491  0.016842467  0.016634334           10 
 2345000   0.85738779   -8.0209368    473.33306  0.016820649  0.016627768            8 
 2346000   0.87760506   -8.0299234    473.55408   0.01682133  0.016621227            9 
 2347000    0.8829809   -8.0447379    474.23962  0.016838504   0.01661469            6 
 2348000   0.88203318   -8.0049393    474.36874  0.016835915  0.016608177           11 
 2349000   0.86911987   -8.0547147    473.08237  0.016783112  0.016601608            7 
 2350000   0.88254613   -8.0342797    473.98983   0.01680815   0.01659507            9 
 2351000    0.8867074   -8.0532107    473.04355  0.016767459  0.016588522           18 
 2352000   0.87156843   -8.0656671     474.0195  0.016794909  0.016581948           20 
 2353000   0.87192899   -8.0564956    471.68527  0.016705102  0.016575397           11 
 2354000   0.88055232   -8.0433719    473.69729  0.016769233  0.016568795            9 
 2355000   0.87978969   -8.0538272    473.58964  0.016758303  0.016562188           11 
 2356000   0.88000513   -8.0247283    473.45527  0.016746437  0.016555589            6 
 2357000   0.88135299   -8.0442119    474.48249   0.01677565  0.016549015            5 
 2358000   0.88354578   -8.0445074    472.16503  0.016686635   0.01654244            9 
 2359000   0.87700534   -8.0319059    473.30386  0.016719791  0.016535896           11 
 2360000   0.86181917   -8.0440948    474.15167  0.016742644  0.016529367           13 
 2361000   0.87035774   -7.9630527    475.71582   0.01679076  0.016522889           13 
 2362000   0.87535759   -8.0133781    475.51094  0.016776423  0.016516398            6 
 2363000   0.88818134   -8.0113025    473.39876  0.016694836  0.016509879            7 
 2364000   0.88431607   -8.0223083    475.40674  0.016758557  0.016503408           36 
 2365000   0.87938565   -8.0510504    473.64295  0.016689322  0.016496942           12 
 2366000   0.86635664   -8.0233425    475.23795  0.016738446  0.016490467            8 
 2367000   0.88168683   -8.0356052    474.41001  0.016702225  0.016484013           12 
 2368000   0.87749931   -8.0592406    473.42834  0.016660626   0.01647751           16 
 2369000   0.84935409   -8.0789762    473.80683  0.016666907  0.016470953           12 
 2370000   0.87972779   -8.0307639    473.71324  0.016656584  0.016464401           12 
 2371000   0.87987498   -8.0560487    474.92936  0.016692301  0.016457864            7 
 2372000   0.87772487   -8.0509398    474.95723  0.016686243  0.016451323           16 
 2373000   0.86395008   -8.0665888    474.38517  0.016659123  0.016444835           33 
 2374000   0.86979081    -8.042161    473.97243  0.016637617  0.016438366           21 
 2375000   0.86054336   -8.0355133    474.21278  0.016639045  0.016431866           11 
 2376000   0.85432812   -8.0727716    475.05291  0.016661508  0.016425371           21 
 2377000   0.87621198   -8.0356786    474.45178  0.016633424  0.016418905           18 
 2378000    0.8520969   -8.0308516    473.65578  0.016598534  0.016412433           17 
 2379000    0.8949291   -8.0585945    474.09688  0.016607008  0.016405937            8 
 2380000    0.8767952   -8.0438569    474.72449  0.016622006  0.016399495            8 
 2381000   0.88678062   -8.0458107    474.65958  0.016612753  0.016393003           17 
 2382000   0.87709092    -8.019914    475.89816   0.01664911  0.016386534            7 
 2383000   0.87136836   -8.0218507     475.8405  0.016640107  0.016380105            9 
 2384000    0.8672526   -7.9991251     475.8294  0.016632739  0.016373691           11 
 2385000   0.86715681   -8.0336534    475.38489  0.016610234   0.01636727           16 
 2386000   0.87027479   -8.0582966    476.15896  0.016630307   0.01636083           11 
 2387000   0.87611528    -8.038984    474.67736  0.016571616  0.016354404           14 
 2388000     0.851874   -8.0401103    475.16441  0.016581673  0.016347982            5 
 2389000   0.86259516   -8.0091005    476.18531  0.016610343  0.016341576            5 
 2390000   0.87155021   -8.0339546    475.67479  0.016585592   0.01633517            8 
 2391000    0.8681626   -8.0539231    474.55053  0.016539472  0.016328713            8 
 2392000   0.87077463   -8.0657842    475.37335  0.016561223  0.016322266           16 
 2393000   0.88038242    -8.047287     476.2762  0.016585743  0.016315878           13 
 2394000   0.86469379   -8.0628253    476.36677  0.016581968  0.016309463           10 
 2395000   0.88278015   -8.0324243    476.45746    0.0165782  0.016303107            7 
 2396000   0.85442452   -8.0653954    475.72563  0.016545827  0.016296723            8 
 2397000   0.89678924    -8.014506    476.90514  0.016579931   0.01629036           13 
 2398000   0.86357926    -8.045299    476.38077  0.016554795  0.016283989            7 
 2399000   0.87339364   -8.0318713    475.86322  0.016529916   0.01627764           10 
 2400000   0.88264902    -8.039185    477.79422  0.016590077  0.016271349           13 
 2401000   0.86630495   -8.0230503    477.63816  0.016577751  0.016265044            6 
 2402000    0.8735752   -8.0183836     478.5922  0.016603948  0.016258744            9 
 2403000   0.86746912   -8.0550397     476.3041   0.01651769  0.016252447           15 
 2404000   0.85679002   -8.0312855    478.12517  0.016573945  0.016246125           11 
 2405000   0.87206204   -8.0699146    476.74511  0.016519235  0.016239825            3 
 2406000   0.87731494   -8.0517089    477.37319  0.016534123  0.016233514           10 
 2407000   0.86720281    -8.043588    476.72393  0.016504775  0.016227192           15 
 2408000   0.86297307   -8.0612761    476.63739  0.016494926  0.016220872            9 
 2409000   0.87615322   -8.0610658     478.4695  0.016551456  0.016214539            7 
 2410000   0.85568463   -8.0580134    477.53039  0.016512116  0.016208259           16 
 2411000   0.86925585   -8.0440977    477.22111  0.016494577  0.016201975           24 
 2412000   0.87369364   -8.0735438    476.00506  0.016445725  0.016195667           21 
 2413000   0.85321208   -8.0738842    476.26699  0.016447955  0.016189352           11 
 2414000   0.87389539   -8.0638987    477.44995  0.016481978  0.016183046           27 
 2415000   0.86660901   -8.0792164    477.84453  0.016488769  0.016176756           24 
 2416000   0.88101999   -8.0513776    477.34343   0.01646466  0.016170408            7 
 2417000   0.86696072   -8.0748285    477.29206  0.016456077  0.016164112            5 
 2418000   0.86632432    -8.074761    477.40032  0.016453003  0.016157773            4 
 2419000   0.87690605   -8.0628564    477.52868  0.016450623  0.016151506            8 
 2420000   0.87347512    -8.083759    477.84841  0.016454835  0.016145196            9 
 2421000   0.87182107    -8.086606    476.53764   0.01640292  0.016138856            9 
 2422000   0.86508343   -8.1240879    474.91552  0.016340336  0.016132535           10 
 2423000   0.86986207   -8.1282006    476.97109  0.016404288  0.016126198           13 
 2424000   0.84777572   -8.1167829    477.46281  0.016414426  0.016119884           34 
 2425000   0.87209036    -8.122245    477.11283   0.01639563  0.016113588           20 
 2426000   0.85513115   -8.1211947    477.48289  0.016401583  0.016107284            9 
 2427000   0.85363201   -8.0679279     477.9222  0.016409909  0.016100998           33 
 2428000   0.85606292   -8.1053272    478.46639  0.016421828  0.016094733           32 
 2429000   0.87126381    -8.106431    477.93098  0.016396699  0.016088456           17 
 2430000   0.86133287   -8.0799032    478.22658  0.016400089  0.016082195           18 
 2431000   0.86157736   -8.0976284    478.73169  0.016410657  0.016075946           44 
 2432000     0.847886   -8.0726255    479.17887  0.016419232  0.016069734           40 
 2433000   0.87259355   -8.0758326    478.34181  0.016383813  0.016063519           31 
 2434000   0.85492354   -8.0528334    479.85207  0.016428789  0.016057334           37 
 2435000   0.85375687   -8.0694994    479.41599  0.016407118  0.016051142           48 
 2436000   0.87117924   -8.0662434    477.39423   0.01633122  0.016044937           32 
 2437000    0.8783854   -8.0975218    477.97025  0.016344216  0.016038714           42 
 2438000   0.83923391   -8.0661023    479.20327  0.016379658  0.016032514           29 
 2439000    0.8555405   -8.0946183    479.49383   0.01638287  0.016026305           31 
 2440000   0.86041907   -8.0918117    478.01845  0.016325767  0.016020098           16 
 2441000   0.83917791   -8.0455285    480.10997  0.016390481  0.016013908           25 
 2442000   0.85666551   -8.1089019    478.13575  0.016316399   0.01600773           16 
 2443000   0.87090691   -8.0795597    479.25878  0.016348028  0.016001518           18 
 2444000   0.86536461   -8.1041725    479.84932  0.016361474  0.015995327           29 
 2445000   0.85271494   -8.1231864     478.3787  0.016304659  0.015989121           22 
 2446000   0.85649485   -8.0745182    477.81979  0.016278952  0.015982889           14 
 2447000   0.89114809   -8.0585456    479.65831   0.01633491  0.015976662           12 
 2448000   0.85280257   -8.0895833     477.7046  0.016261731  0.015970462           13 
 2449000   0.85596246   -8.0881256    479.15648  0.016304494  0.015964202           11 
 2450000   0.86616785   -8.0802771    479.50284   0.01630962  0.015957991           11 
 2451000   0.85387913   -8.1049933    478.51782  0.016269476  0.015951755           10 
 2452000   0.87173129   -8.0692284    478.32661  0.016256342  0.015945534           10 
 2453000   0.84945615   -8.0717361    479.65236  0.016294753  0.015939379            5 
 2454000   0.85957313    -8.094735    477.71311   0.01622226  0.015933228           11 
 2455000   0.86169457   -8.0744477    480.62211  0.016314396  0.015927062            5 
 2456000   0.86378963   -8.0984469     479.1449  0.016257631  0.015920906           13 
 2457000    0.8731396   -8.0918934    478.17579  0.016218145   0.01591471            9 
 2458000   0.84399062   -8.0863322    479.91529  0.016270521  0.015908564           10 
 2459000    0.8524784   -8.0684294    480.44881  0.016281985  0.015902441            5 
 2460000   0.83913968   -8.0790703    478.40779  0.016206226  0.015896288            7 
 2461000   0.85529237   -8.1060696    478.99632  0.016219569  0.015890122            6 
 2462000   0.87408514   -8.1056592    479.44233  0.016228078  0.015883983           12 
 2463000   0.85515538   -8.1152758    479.45323  0.016221858  0.015877813           18 
 2464000   0.86536247    -8.081726    479.46079   0.01621553  0.015871663           20 
 2465000   0.85090496   -8.0829704    480.05564  0.016229062  0.015865536           17 
 2466000   0.85032302   -8.1227021    479.67729  0.016209695  0.015859355           31 
 2467000   0.85332808   -8.1276322    479.06283  0.016182368  0.015853168           31 
 2468000   0.86742154   -8.1170041    478.42759  0.016154362  0.015846966           11 
 2469000   0.84879661   -8.1033664    480.08218  0.016203665  0.015840798           20 
 2470000   0.85204058   -8.0491854    480.36899  0.016206781  0.015834663           18 
 2471000   0.85077604   -8.1147613    479.49524  0.016170755  0.015828507           21 
 2472000   0.83265875   -8.0636318    480.35723  0.016193272  0.015822371            5 
 2473000   0.86387277   -8.0819931    479.61705  0.016161782  0.015816249           18 
 2474000   0.84773807   -8.1106592    480.07979  0.016170836  0.015810117           22 
 2475000   0.84603433    -8.114302     480.8983  0.016191862  0.015803996           17 
 2476000   0.85106229   -8.1205403    479.93767  0.016152991   0.01579786           24 
 2477000   0.85996906    -8.087672     479.8137  0.016142299  0.015791727           22 
 2478000   0.86104881   -8.0908034    479.70513  0.016132134  0.015785593           27 
 2479000   0.84679983   -8.1085011    479.52491  0.016119568  0.015779443           28 
 2480000   0.86466912   -8.1373855    478.49102  0.016078327   0.01577328           42 
 2481000   0.83144573   -8.1490728    479.35205  0.016100768  0.015767084           32 
 2482000   0.85104207   -8.1299915    478.14662  0.016053808  0.015760853           21 
 2483000   0.85624419   -8.1405891    479.28281  0.016085475  0.015754648           43 
 2484000   0.85663279   -8.0945508    478.71948  0.016060101  0.015748428           27 
 2485000   0.86044854   -8.1233276    479.42412  0.016077268  0.015742202           24 
 2486000    0.8333819   -8.1628468     479.2688  0.016065594  0.015736009           26 
 2487000   0.84893241   -8.1305613    478.80101   0.01604346   0.01572981           41 
 2488000    0.8447027   -8.1092153    479.24337  0.016051828  0.015723611           34 
 2489000   0.86388908   -8.1508593     478.6878  0.016026778  0.015717394           40 
 2490000   0.87383186   -8.1546468    479.65441  0.016052691  0.015711174           57 
 2491000   0.85696139    -8.133406    478.56712  0.016009873  0.015704992           47 
 2492000   0.84173398   -8.1096228    479.26712  0.016026857  0.015698813           19 
 2493000   0.86278407   -8.1111975    479.19403  0.016017985  0.015692678           27 
 2494000    0.8644487   -8.1335732    480.10432  0.016041978  0.015686506           33 
 2495000   0.86117028   -8.1413438    478.93467  0.015996482  0.015680347           37 
 2496000   0.84517581   -8.1408799    478.57723  0.015978139  0.015674183           37 
 2497000   0.84608758   -8.1442568    478.95442  0.015984328  0.015668019           46 
 2498000   0.84224919   -8.1520512     479.3945  0.015992611  0.015661829           54 
 2499000   0.84677301   -8.1527047     478.8369  0.015967617   0.01565565           48 
 2500000    0.8624811    -8.111144    480.28849  0.016009616  0.015649483           43 
 2501000   0.87440884   -8.0947701    480.12013  0.015997605  0.015643338           35 
 2502000   0.85300391   -8.1488675    478.97984  0.015953232  0.015637182           37 
 2503000   0.85512846   -8.1100195    480.47454  0.015996622  0.015631032           19 
 2504000   0.84719703   -8.1337627    479.27238  0.015950226  0.015624908           24 
 2505000   0.83650647   -8.0951301    481.43008  0.016015638    0.0156188           29 
 2506000   0.85067021   -8.0865081     480.3794  0.015974308  0.015612728           26 
 2507000   0.84158706   -8.1306524    480.33976  0.015966619   0.01560664           46 
 2508000   0.84503661   -8.1295219    480.13148  0.015953332  0.015600528           24 
 2509000   0.84665872   -8.1582996    479.51759  0.015926584  0.015594403           37 
 2510000    0.8362689   -8.1318943    480.59258  0.015955929  0.015588295           33 
 2511000   0.85274746   -8.1197139     481.0412  0.015964463  0.015582254           48 
 2512000   0.84561631   -8.1251159    480.68309  0.015946228  0.015576169           22 
 2513000   0.86499921   -8.0854599    481.30883  0.015960632  0.015570076           20 
 2514000   0.87046631   -8.1438919    480.25726  0.015919427  0.015563983           16 
 2515000   0.85438589   -8.1246693    480.21075  0.015911556  0.015557861           24 
 2516000   0.85734998    -8.132857    480.42144   0.01591221  0.015551769           39 
 2517000   0.84079107   -8.1300658    480.26739  0.015900788  0.015545673           23 
 2518000   0.86276118   -8.1347698    481.29391  0.015928446  0.015539591           33 
 2519000   0.84483132   -8.1110487    480.66648  0.015901366  0.015533508           20 
 2520000   0.86090932   -8.1147553    482.97961  0.015971548  0.015527442           54 
 2521000    0.8359867   -8.1017279    481.47084  0.015915339  0.015521373           25 
 2522000   0.85455751   -8.1088382    480.29875    0.0158703  0.015515301           33 
 2523000   0.85271477   -8.1448799    480.79299  0.015880334   0.01550919           14 
 2524000    0.8470523    -8.142004    480.77796  0.015873546  0.015503087           17 
 2525000   0.85556293   -8.1326892    479.63551  0.015829555  0.015496981           28 
 2526000   0.85135422   -8.1286335    480.43175  0.015849556  0.015490889           17 
 2527000   0.84608441   -8.1205947    480.03751  0.015830283  0.015484789           25 
 2528000   0.84259004    -8.127727    479.75431  0.015814686  0.015478685            6 
 2529000   0.83956451   -8.1246955    479.97865  0.015815825  0.015472572            5 
 2530000   0.84886172   -8.1490092      480.136  0.015814756  0.015466506            7 
 2531000   0.83841999   -8.1240506    481.55093  0.015855094  0.015460451            5 
 2532000   0.86887294   -8.0995069    481.28183  0.015839976  0.015454417            8 
 2533000    0.8572239   -8.1573661    480.87052  0.015820191  0.015448383           25 
 2534000   0.85281362   -8.1254222    481.85079  0.015846185  0.015442341           12 
 2535000   0.86941578   -8.1696398    479.99856  0.015779045  0.015436301           15 
 2536000    0.8409082   -8.1284192    482.00146  0.015838639  0.015430259            4 
 2537000   0.84408671   -8.1041748    481.79216  0.015825521  0.015424246            7 
 2538000   0.83870656   -8.1378256    481.65114  0.015814655  0.015418233           26 
 2539000   0.86802661   -8.1289241    481.19053  0.015793309  0.015412221           15 
 2540000   0.85483083   -8.1492686    481.54964  0.015798873  0.015406205           13 
 2541000   0.84310302     -8.13463    482.97375  0.015839359   0.01540019           27 
 2542000   0.84494415   -8.1299833    482.47195  0.015816678  0.015394204           15 
 2543000   0.85093544   -8.1243838    482.77836  0.015820499  0.015388239           16 
 2544000   0.83501531    -8.129627    482.57358  0.015807573  0.015382265           21 
 2545000   0.83748437   -8.1014172    482.84524  0.015810257  0.015376281           22 
 2546000   0.85729509   -8.1046014    482.46584  0.015791629  0.015370279           20 
 2547000   0.85946183   -8.1430344    483.24432  0.015810899  0.015364272           17 
 2548000   0.84435609   -8.1292648    482.02423   0.01576479  0.015358264           16 
 2549000   0.83147851   -8.1457271    481.80029  0.015751285  0.015352246            9 
 2550000   0.85243772   -8.1152206    481.92753  0.015749266   0.01534624           10 
 2551000   0.85396506   -8.0718315    483.31942  0.015788561  0.015340246           32 
 2552000   0.84772366   -8.1398531    480.88804  0.015702979  0.015334264           10 
 2553000   0.84973119   -8.1374052    481.71171  0.015723714  0.015328273            5 
 2554000   0.86833584   -8.1181498    481.78817  0.015720053  0.015322322           10 
 2555000   0.83074115   -8.1102618    482.19768  0.015727256  0.015316353           25 
 2556000   0.83861399   -8.1304286    483.14105   0.01575186  0.015310402           13 
 2557000   0.84698958    -8.144083     482.2175  0.015715601  0.015304451           10 
 2558000   0.84994598   -8.1410179    482.05909  0.015704297  0.015298512           18 
 2559000   0.83054165   -8.1390193    481.50904  0.015680248  0.015292562           27 
 2560000   0.84327603   -8.1214158    483.44975  0.015737297  0.015286579           14 
 2561000   0.84178768   -8.1643154    482.12942  0.015688189  0.015280619            8 
 2562000   0.82850691   -8.1418456    481.97755  0.015677126  0.015274654            5 
 2563000   0.83588535   -8.1424095    481.90866  0.015668769  0.015268677            7 
 2564000   0.83828851   -8.1643967    481.89632  0.015662257  0.015262708           13 
 2565000   0.84903658   -8.1749106     481.8219  0.015653733  0.015256695           11 
 2566000   0.83758233   -8.1557148    482.26764  0.015662108  0.015250704           13 
 2567000   0.82020873   -8.1699477    483.03462  0.015680906  0.015244713            6 
 2568000   0.84579828   -8.1611393    481.50922  0.015625299   0.01523873            9 
 2569000   0.83026541   -8.1510874    482.05829  0.015637028  0.015232714            5 
 2570000    0.8279028   -8.1566913    482.75724  0.015653607  0.015226695            5 
 2571000   0.85549983   -8.1890283    481.94475  0.015621183  0.015220669            4 
 2572000   0.82554707    -8.150371    481.79358  0.015610212  0.015214671            6 
 2573000   0.84499536   -8.1499832     482.1201   0.01561472  0.015208659            7 
 2574000    0.8379286   -8.1346362    482.79191  0.015630404  0.015202708            7 
 2575000   0.84889863   -8.1218969    482.79865  0.015624552  0.015196764            9 
 2576000   0.85017793   -8.1036084    482.63303  0.015613129   0.01519082           13 
 2577000    0.8300169   -8.1229678    482.12612  0.015590678  0.015184893            6 
 2578000   0.84638443   -8.1397613    482.76105  0.015605154  0.015178935            6 
 2579000   0.84367602   -8.1609068    483.27718  0.015615781  0.015172968            7 
 2580000   0.82504994   -8.1596125    482.07192  0.015570798  0.015167007            6 
 2581000   0.85409005   -8.1803497    482.78795  0.015587884  0.015161066           13 
 2582000   0.82050988   -8.1700973    482.61819  0.015576368  0.015155134            8 
 2583000   0.81953544   -8.1445136    482.73659  0.015574158  0.015149194           10 
 2584000   0.84553837    -8.141911    483.65089  0.015597617  0.015143259            6 
 2585000    0.8212894   -8.1137414    483.90341  0.015599723  0.015137361           12 
 2586000   0.84048604   -8.1493689     483.1486  0.015569367  0.015131463            8 
 2587000   0.83774394   -8.1314538    483.42014  0.015572096  0.015125544            8 
 2588000   0.84147636   -8.1286733     483.8207  0.015578977  0.015119648            7 
 2589000   0.83739516   -8.1382919    483.73339  0.015570149  0.015113746           10 
 2590000   0.81539573   -8.1386875    483.54675  0.015558132  0.015107844            8 
 2591000   0.84248979   -8.1438242    483.34994  0.015545798  0.015101914            6 
 2592000   0.83102859   -8.1810784    482.58701  0.015515272  0.015095953            7 
 2593000   0.83514615   -8.1373936    482.67286  0.015512047  0.015090011            9 
 2594000   0.83332234   -8.1596199    483.53317  0.015533705  0.015084099           18 
 2595000   0.83306677   -8.1736574    483.34096  0.015521546  0.015078191           12 
 2596000   0.83940211   -8.1645839     483.3049   0.01551441  0.015072279            5 
 2597000    0.8218313   -8.1560364     483.1818  0.015504486  0.015066343            7 
 2598000   0.84429693   -8.1788456    483.09805  0.015495832  0.015060423            8 
 2599000   0.83820766   -8.1989289    483.70028  0.015509179   0.01505451            6 
 2600000    0.8540375   -8.1639486    482.69717  0.015471063  0.015048585           18 
 2601000   0.82016138   -8.1586414    482.95755  0.015473457  0.015042651            7 
 2602000   0.82632125    -8.154991    482.08554  0.015439583  0.015036722           16 
 2603000    0.8427697   -8.1569259    483.08233  0.015465563  0.015030799            9 
 2604000   0.82097529   -8.1759382    482.74221  0.015448739  0.015024899            5 
 2605000    0.8367679   -8.1604535    483.63994  0.015471527  0.015019018           13 
 2606000    0.8453241   -8.1746863    482.84707  0.015440236   0.01501313           16 
 2607000   0.81870652   -8.1466593    483.90473  0.015468122  0.015007245           12 
 2608000   0.81398643    -8.114226    483.66786  0.015454622  0.015001371            9 
 2609000   0.82407258   -8.1920304    482.45374  0.015409919   0.01499549           10 
 2610000   0.83499362   -8.1286657     483.7607  0.015445744  0.014989595            8 
 2611000    0.8322596   -8.1937868    483.10749   0.01541898  0.014983698            9 
 2612000   0.83857678   -8.1992906    482.12538  0.015381744  0.014977789           12 
 2613000   0.83070615   -8.1718021    482.20983   0.01537855  0.014971858           12 
 2614000    0.8557574   -8.1560006    483.68998  0.015419854  0.014965967            6 
 2615000   0.85910761   -8.1523563    483.35965  0.015403431  0.014960092            8 
 2616000   0.83184262   -8.1459132    483.65158  0.015406842  0.014954208            5 
 2617000    0.8314212    -8.153545     483.3072  0.015389988  0.014948318            6 
 2618000    0.8410065   -8.1546678    483.53234  0.015391276  0.014942408            8 
 2619000    0.8411509   -8.1675185    483.29387  0.015377812  0.014936484            7 
 2620000   0.82357207   -8.1516662    484.34399  0.015405343  0.014930613           11 
 2621000    0.8204805   -8.1804294    483.46612  0.015371554  0.014924738           38 
 2622000   0.83820852   -8.1930173    482.87091  0.015346774  0.014918883           15 
 2623000   0.84162145   -8.1717959    485.04425  0.015409971  0.014913044           16 
 2624000   0.83868631   -8.1595293    484.02884  0.015371851  0.014907168           16 
 2625000   0.81622069   -8.1603121    484.11392  0.015368696  0.014901313           12 
 2626000   0.82871987   -8.1794849    483.45731  0.015342006  0.014895468           12 
 2627000   0.83271999   -8.1635654    483.84823  0.015348567  0.014889606           27 
 2628000   0.83282974   -8.1900828    482.80769  0.015309732  0.014883768           41 
 2629000   0.82592199   -8.1381985    483.90413  0.015338663  0.014877924           25 
 2630000   0.81685256   -8.1423061    484.53439  0.015352801  0.014872106           21 
 2631000   0.81617341   -8.1590423    484.88197  0.015357975  0.014866273           12 
 2632000   0.82522491   -8.1950154    483.77216  0.015317001  0.014860427           18 
 2633000   0.83547607   -8.1514948    484.02275  0.015319115  0.014854587           12 
 2634000   0.85163696   -8.1738774    484.18315  0.015318373  0.014848745           36 
 2635000    0.8174846   -8.1547658    484.38513  0.015318948  0.014842904           37 
 2636000   0.82177049   -8.1617811    484.51968   0.01531739  0.014837089           38 
 2637000   0.83108561   -8.1979164    484.25343  0.015303167  0.014831256           42 
 2638000   0.80456694   -8.1826752    485.13633  0.015325257  0.014825425           35 
 2639000   0.83708196   -8.1924738    484.19178  0.015289623   0.01481961           31 
 2640000   0.81978917   -8.1455535    484.54427  0.015294958  0.014813802           26 
 2641000   0.84570875   -8.1672905    483.71927  0.015263135  0.014808017           43 
 2642000    0.8258414   -8.2135875    484.05445   0.01526793  0.014802207           40 
 2643000   0.81618028   -8.1859252    483.64097  0.015249116  0.014796398           19 
 2644000   0.81377371   -8.1902308    484.63722  0.015274749   0.01479058           30 
 2645000   0.83356253   -8.1899248    484.25323  0.015256876  0.014784751           33 
 2646000   0.82393738    -8.216001    483.24703   0.01521942  0.014778929           23 
 2647000   0.84142168   -8.2175424    483.91467  0.015234689  0.014773127           19 
 2648000   0.82192383   -8.1450511    484.98771  0.015262705  0.014767341           30 
 2649000   0.82848962    -8.188512    484.59944  0.015244729  0.014761567           14 
 2650000   0.82308095   -8.1787692    484.83849  0.015246494  0.014755808           29 
 2651000   0.81216006   -8.1536058    485.45239   0.01526004  0.014750022           32 
 2652000   0.82835187   -8.2088251    484.67004  0.015229702  0.014744224           25 
 2653000   0.82295998   -8.1598689    483.92679  0.015200615  0.014738426           18 
 2654000   0.81964409   -8.1782423    484.56941  0.015215066  0.014732626           25 
 2655000   0.82389939   -8.1970935    483.99805  0.015191402  0.014726854           21 
 2656000   0.81821514   -8.2038554    485.63784  0.015237131  0.014721108           25 
 2657000   0.82017751   -8.1771438    485.47339  0.015226238  0.014715361           14 
 2658000   0.82217624   -8.2108876    483.40932  0.015155798  0.014709609           21 
 2659000     0.833643   -8.1838433     484.2631  0.015176855   0.01470384           27 
 2660000   0.80712623   -8.2224874    484.30862  0.015172576  0.014698081           13 
 2661000   0.82630234   -8.2191925    483.96385  0.015156077  0.014692307            8 
 2662000   0.82402126   -8.2216558    483.37679  0.015132006  0.014686507           13 
 2663000   0.82994453   -8.2084217    483.53934   0.01513141  0.014680711           17 
 2664000   0.82003719   -8.2192856     483.9724  0.015139277  0.014674938           18 
 2665000   0.82095674   -8.2067508    484.89288  0.015162379  0.014669167           41 
 2666000   0.81412705   -8.2274859    485.30702  0.015169637  0.014663417           32 
 2667000   0.82198318   -8.1828032    484.97441  0.015153556  0.014657667           26 
 2668000   0.83038055   -8.1955213    485.37219  0.015160301  0.014651933           23 
 2669000   0.84270531   -8.2013989    484.21084   0.01511836  0.014646184            5 
 2670000    0.8437675   -8.2098226    484.63985  0.015126088  0.014640457           18 
 2671000   0.83801612   -8.2218505    483.62949  0.015088902  0.014634719            8 
 2672000   0.80442081   -8.1847612    485.41634  0.015138983  0.014628984            9 
 2673000   0.82125505   -8.1974212    485.51891  0.015136517  0.014623262            7 
 2674000   0.83790324   -8.1717658     485.7327  0.015137519  0.014617544            4 
 2675000   0.81908947   -8.2100286    485.38697  0.015121089  0.014611816           26 
 2676000   0.82504016   -8.1684654    486.12788  0.015138511  0.014606083           11 
 2677000   0.83424138   -8.2172099    484.02161   0.01506729   0.01460037           24 
 2678000   0.81593577   -8.2014685    485.30012  0.015101448  0.014594632           31 
 2679000   0.82283536   -8.2282386    484.26403  0.015063582  0.014588888           50 
 2680000   0.83479535   -8.1944547    485.15633  0.015085707  0.014583161           23 
 2681000   0.81887384   -8.1995212    484.88311  0.015071587  0.014577425            7 
 2682000   0.82034728   -8.2358714    483.94828  0.015036921  0.014571677           16 
 2683000   0.83159726     -8.21963    485.00442   0.01506412  0.014565919           17 
 2684000   0.82102349   -8.2282547    483.63386  0.015015954   0.01456015           37 
 2685000   0.82921744   -8.2301049    484.19315   0.01502772  0.014554359           28 
 2686000   0.82738163   -8.2378377    484.83289  0.015041974  0.014548577           36 
 2687000   0.83593505   -8.1961278    485.02845   0.01504244   0.01454282           32 
 2688000   0.80693869   -8.2043903    485.84088  0.015062031  0.014537093           55 
 2689000   0.82523684   -8.2039859    483.97544  0.014998619  0.014531372           37 
 2690000   0.82678186    -8.207374    485.98722  0.015055366  0.014525681           51 
 2691000   0.83579185   -8.2143298    485.60626  0.015037974  0.014519953           52 
 2692000   0.83027275   -8.2128568    485.55824  0.015030901  0.014514234           73 
 2693000   0.80337084   -8.2255319    484.39225  0.014989239  0.014508513           80 
 2694000   0.80755138   -8.1654196    486.91344  0.015061663  0.014502826           76 
 2695000    0.8140413   -8.1874319    486.16464   0.01503292  0.014497138           55 
 2696000   0.82553138   -8.1743934    486.85237  0.015048602  0.014491451           81 
 2697000   0.80971612   -8.2022943    486.32509   0.01502673  0.014485775           68 
 2698000   0.81238408   -8.1955944    485.96488  0.015010034  0.014480106           54 
 2699000    0.8248956   -8.2085206    486.23598  0.015012844  0.014474435           63 
 2700000    0.8005395   -8.1768845    487.02935   0.01503177  0.014468772           61 
 2701000   0.81976833    -8.202279    485.52149  0.014979683  0.014463096           70 
 2702000   0.81876352   -8.2146464     485.6869  0.014979241  0.014457438           73 
 2703000    0.8293243   -8.2301893    485.92585  0.014981066  0.014451783          103 
 2704000   0.80682379   -8.2103054     485.5598  0.014964244  0.014446142           88 
 2705000   0.82874109   -8.2043134    486.24001  0.014979668  0.014440472           83 
 2706000   0.81086344   -8.2059235    487.07285   0.01499978  0.014434802           91 
 2707000    0.8059443   -8.2272424     485.1457  0.014934913  0.014429104          108 
 2708000   0.80821205   -8.2197452    485.80691  0.014949745  0.014423442          142 
 2709000   0.83117337   -8.2352672    485.60955  0.014938155   0.01441775          130 
 2710000   0.81054944   -8.2696641    485.44613  0.014927618  0.014412051           97 
 2711000   0.79850525   -8.2342929    485.57686   0.01492613  0.014406354          100 
 2712000    0.8224433   -8.2643985    484.99191  0.014902652  0.014400651           97 
 2713000   0.80340382   -8.2129626    484.99139  0.014897143  0.014394957          136 
 2714000   0.80962815   -8.2514952    484.15132   0.01486586  0.014389243          131 
 2715000   0.80340915    -8.250145     484.0926  0.014858582  0.014383544          132 
 2716000   0.81903755   -8.2701572    485.63606  0.014900468  0.014377824          151 
 2717000   0.82927525    -8.250817    485.16275  0.014880467  0.014372083          205 
 2718000   0.82516702   -8.2468194     484.0173  0.014839873  0.014366362          157 
 2719000   0.82373962   -8.2701418    484.72308  0.014856046  0.014360649          145 
 2720000   0.80943304    -8.250183    483.90049  0.014825383  0.014354937          154 
 2721000   0.80421844   -8.2515029    485.07049  0.014855766  0.014349228          173 
 2722000   0.82409803   -8.2625158    485.28798  0.014856967  0.014343537          194 
 2723000   0.80727876   -8.2722972     485.1519  0.014847347  0.014337856          195 
 2724000   0.81045655   -8.2434653    485.01565  0.014837728  0.014332167          186 
 2725000   0.82588809   -8.2641038    484.92492  0.014829508  0.014326461          211 
 2726000   0.81300394   -8.2575384     484.9737  0.014825559  0.014320761          155 
 2727000   0.81981381   -8.3041801    482.98027  0.014759206  0.014315053          226 
 2728000   0.81175178   -8.2671404    484.44859   0.01479865  0.014309342          213 
 2729000   0.81689045    -8.257181    484.66154  0.014799729  0.014303633          204 
 2730000   0.80682372   -8.2963764    485.10336  0.014807795  0.014297921          202 
 2731000   0.80706228   -8.3035906    484.21039  0.014775125  0.014292209          271 
 2732000   0.83192948    -8.313112    484.25927  0.014771208  0.014286473          236 
 2733000   0.80604202   -8.2972337    484.27145  0.014766174  0.014280742          187 
 2734000   0.81302977   -8.2774228     486.0651  0.014815444  0.014275011          169 
 2735000   0.80574063   -8.2680451    485.65909  0.014797657  0.014269312          199 
 2736000   0.83199867   -8.2924614    484.85564  0.014767776  0.014263616          168 
 2737000   0.82349688   -8.2837887    484.93869  0.014764909  0.014257952          191 
 2738000   0.80238968   -8.2772502    485.52994  0.014777512  0.014252285          152 
 2739000   0.82935338   -8.2627532    486.23242   0.01479349   0.01424662          153 
 2740000   0.81853272   -8.2642855    485.92634  0.014778782  0.014240982          215 
 2741000   0.81743273   -8.2826152    485.10819  0.014748516   0.01423532          183 
 2742000   0.81525967   -8.3013463    484.49874  0.014724615  0.014229632          187 
 2743000   0.79592762   -8.3241249    484.72887  0.014726239  0.014223927          198 
 2744000   0.81811278   -8.2981662    483.76586  0.014691626   0.01421822          285 
 2745000   0.80400742   -8.3168373     484.1142  0.014696849  0.014212532          320 
 2746000   0.80410221   -8.2686239    485.50413  0.014733677   0.01420684          207 
 2747000   0.79913996   -8.2974621    485.47267  0.014727359  0.014201141          189 
 2748000   0.82043916    -8.323144    483.47045  0.014661282  0.014195443          316 
 2749000   0.81207431   -8.2823428    485.29122  0.014711144  0.014189733          361 
 2750000   0.81443908   -8.2892082    483.92162  0.014664292  0.014184011          352 
 2751000   0.79681746   -8.3014968    485.10389  0.014694774  0.014178281          351 
 2752000   0.81612219   -8.2929562    485.23357  0.014693362   0.01417257          234 
 2753000   0.81259199   -8.3032537    483.97375  0.014649889  0.014166866          257 
 2754000   0.79800286   -8.3171003    484.11829  0.014648944  0.014161131          281 
 2755000   0.81893827   -8.3291754    482.58145   0.01459714  0.014155367          227 
 2756000   0.80465251   -8.3497359     483.8039  0.014628807  0.014149588          250 
 2757000    0.8278745   -8.3504664    483.41151  0.014611641  0.014143839          351 
 2758000   0.82851427   -8.3514991    484.18507  0.014629716  0.014138075          290 
 2759000   0.81875352   -8.3823764    483.58147  0.014606182  0.014132319          220 
 2760000   0.79131849   -8.3647393    483.12136  0.014586998  0.014126549          259 
 2761000   0.80272356   -8.3618503    484.24211  0.014615541    0.0141208          243 
 2762000   0.81559881   -8.3313106    482.96734  0.014571788  0.014115052          271 
 2763000   0.80847126   -8.3677027     483.4077  0.014579795  0.014109297          416 
 2764000    0.7998653   -8.3682138    484.50752   0.01460768  0.014103558          448 
 2765000   0.80684921   -8.3400841    483.97424  0.014586324  0.014097825          418 
 2766000   0.80302273   -8.3399652    483.96489  0.014580769  0.014092087          468 
 2767000   0.80734298    -8.342484    484.18099  0.014582008  0.014086366          475 
 2768000    0.8117917    -8.391632    482.87975  0.014537565  0.014080637          474 
 2769000   0.80363182   -8.3600195    483.24682  0.014543362  0.014074897          489 
 2770000   0.81042193   -8.3499677    484.09405    0.0145636  0.014069172          480 
 2771000    0.8176412   -8.3660736    482.71595    0.0145169  0.014063451          464 
 2772000   0.78813619   -8.3483068    483.41673   0.01453273  0.014057729          486 
 2773000   0.80524176    -8.341858    484.32002  0.014554635  0.014052022          612 
 2774000   0.79947519   -8.3299963    484.68326    0.0145603  0.014046299          546 
 2775000   0.80234294   -8.3574292    483.56025  0.014521329  0.014040581          563 
 2776000   0.80319381   -8.3370245    484.53244  0.014545282  0.014034873          540 
 2777000    0.7928576   -8.3481799    484.04945  0.014525551  0.014029184          572 
 2778000   0.81073365   -8.3558346     483.6726  0.014509017   0.01402347          549 
 2779000   0.81698782   -8.3595306    483.61771   0.01450215  0.014017779          420 
 2780000   0.79535184   -8.3502982    483.35063  0.014488928  0.014012082          369 
 2781000   0.79966096   -8.3526525    484.16314  0.014508065  0.014006392          660 
 2782000   0.81371873   -8.3624876    484.16427  0.014502884  0.014000698          626 
 2783000   0.81123153    -8.380302    483.94427  0.014491085  0.013995007          628 
 2784000   0.79861557   -8.3282988    484.77154  0.014510642  0.013989316          658 
 2785000   0.80129233   -8.3591645    483.38975  0.014464086  0.013983595          720 
 2786000   0.80012891   -8.3489411    484.14172  0.014481387  0.013977892          744 
 2787000   0.80758844   -8.3701854     483.0886  0.014444701  0.013972182          743 
 2788000   0.81995152   -8.3940817    483.81789  0.014461319  0.013966469          729 
 2789000   0.82650755   -8.3986718    483.44355  0.014444949  0.013960759          797 
 2790000   0.80197191   -8.3805083    483.74549   0.01444879   0.01395504          808 
 2791000   0.80191962   -8.4013012      483.417  0.014433805  0.013949301          859 
 2792000   0.80970484   -8.3710511    484.03721  0.014447147  0.013943577          855 
 2793000   0.79660848   -8.3803022    482.49297    0.0143959  0.013937832          575 
 2794000   0.80344579   -8.4308285    483.39603  0.014417682  0.013932106          921 
 2795000   0.81113908   -8.4302847    482.27151  0.014378995   0.01392636          947 
 2796000   0.78978913   -8.4232894    483.97753    0.0144247  0.013920604          944 
 2797000   0.79369062      -8.4205    482.52812  0.014376359   0.01391487         1000 
 2798000   0.80398562   -8.4347788    482.78117  0.014378758  0.013909127          984 
 2799000   0.79648197   -8.4239003    482.02087  0.014350985  0.013903375         1006 
 2800000   0.79396955   -8.4294575    483.03234  0.014375963  0.013897626         1058 
 2801000   0.81806988   -8.4142392    483.12247  0.014373512   0.01389188         1098 
 2802000   0.79278061   -8.4299686    482.76669  0.014357801  0.013886125         1046 
 2803000   0.80717003   -8.4459731    481.94692  0.014328307  0.013880353         1162 
 2804000   0.79307794   -8.4939217    482.36748  0.014335696  0.013874547         1162 
 2805000   0.81240817   -8.4559614    483.07856   0.01435171  0.013868744         1289 
 2806000   0.80964606   -8.4593752    481.73692  0.014306751  0.013862929         1325 
 2807000   0.79160372   -8.4800863     480.3768  0.014261275  0.013857099         1333 
 2808000   0.79260735   -8.5127237    480.47541  0.014259123  0.013851269         1375 
 2809000   0.80509749   -8.4984853     481.0967  0.014272478  0.013845414         1325 
 2810000     0.803094   -8.5108059    481.53573  0.014280419  0.013839569         1398 
 2811000   0.79946638   -8.5210907    481.14281   0.01426369   0.01383373         1351 
 2812000   0.80527605    -8.507775    479.95323  0.014223365   0.01382789         1425 
 2813000   0.80653799   -8.5060594    480.34485   0.01422991  0.013822031         1468 
 2814000   0.79364343   -8.4995661    481.52381  0.014259767  0.013816191         1458 
 2815000    0.8093897   -8.5096865    480.15614  0.014214214  0.013810334         1472 
 2816000   0.79419374   -8.5053213    481.44115  0.014247193  0.013804474         1501 
 2817000   0.79464433   -8.5231564    481.45405  0.014242517  0.013798598         1548 
 2818000   0.79249924   -8.5131815    479.83606  0.014189616  0.013792726         1560 
 2819000   0.78949625   -8.5183399    479.83319  0.014184498  0.013786848         1588 
 2820000   0.77490481   -8.5145465    481.45885  0.014227508  0.013780993         1565 
 2821000   0.80807413   -8.5362299    479.35649   0.01416036  0.013775112         1683 
 2822000   0.78839216   -8.5497954    479.26547  0.014152654  0.013769214         1699 
 2823000   0.81457566   -8.5605679    480.32143  0.014178812  0.013763283         1733 
 2824000   0.80254042   -8.5752753    480.29122    0.0141729  0.013757384         1752 
 2825000   0.78999372   -8.5668681    479.84512  0.014154723  0.013751482         1727 
 2826000   0.78054023   -8.5607235    479.72658  0.014146219   0.01374557         1750 
 2827000   0.80206021   -8.5900866    479.35755  0.014130337  0.013739662         1711 
 2828000   0.80526993   -8.6015817    479.74064  0.014136629  0.013733739         1851 
 2829000   0.79900739   -8.5906764    478.53725  0.014096184  0.013727814         1845 
 2830000   0.80303279    -8.617167    479.18251  0.014110203  0.013721886         1881 
 2831000     0.787051   -8.6005767     478.2999  0.014079239  0.013715956         1874 
 2832000   0.80009249   -8.5721036    478.76866  0.014088061  0.013710026         1897 
 2833000   0.79884341   -8.5996819    479.05918  0.014091634  0.013704103         1826 
 2834000   0.78926595    -8.574523    479.08973   0.01408756  0.013698206         1828 
 2835000   0.78219772   -8.6009678    478.80701   0.01407428  0.013692308         1878 
 2836000    0.8018985   -8.6120642    478.88349  0.014071565  0.013686415         1937 
 2837000   0.81481732   -8.6041492    479.10824  0.014073206  0.013680504         1823 
 2838000   0.80530288   -8.6365514    479.02998  0.014065949  0.013674597         1890 
 2839000   0.79096948   -8.6033831       478.78  0.014053658  0.013668675         1936 
 2840000   0.78976233   -8.6205544    478.21467  0.014032121  0.013662727         1976 
 2841000    0.8008146   -8.6015554    479.14658  0.014054517  0.013656781         2069 
 2842000   0.78928447   -8.6498191    478.53035  0.014031502  0.013650848         2029 
 2843000   0.78841078   -8.6294587    478.71656  0.014032025  0.013644906         2036 
 2844000    0.7852871   -8.6520952    478.67886  0.014025986   0.01363896         2177 
 2845000   0.80333812   -8.6558131    478.21595  0.014007497     0.013633         2172 
 2846000   0.80645418   -8.6782024    478.39095  0.014007699  0.013627034         2190 
 2847000   0.79295524   -8.6680238      478.463  0.014004888  0.013621052         2198 
 2848000   0.79798747   -8.6350021    477.89438  0.013983333  0.013615075         2155 
 2849000   0.79181453   -8.6541037    477.54713  0.013968268  0.013609097         2170 
 2850000   0.78109752    -8.693457    477.55795  0.013963683  0.013603128         2222 
 2851000   0.79637613   -8.6528498    478.14629  0.013975982  0.013597129         2288 
 2852000   0.81184674    -8.687125     476.7572  0.013930493  0.013591133         2255 
 2853000   0.81024099   -8.6922768    476.86649  0.013928803  0.013585139         2212 
 2854000   0.80608308   -8.7048869     477.4233   0.01394018  0.013579136         2282 
 2855000   0.78924085   -8.7028169    476.84491  0.013918415  0.013573144         2266 
 2856000   0.79648177   -8.7147121    476.99087  0.013917801  0.013567144         2343 
 2857000   0.81023072   -8.7075748    476.32003  0.013893362  0.013561144         2369 
 2858000   0.81168376   -8.7241197    476.90206  0.013905472  0.013555144         2452 
 2859000   0.77990763   -8.7228465    477.02206  0.013904106  0.013549123         2530 
 2860000    0.7846864   -8.7200071    476.63488  0.013887963  0.013543114         2503 
 2861000   0.79905051   -8.7667076    475.38627   0.01384674   0.01353708         2582 
 2862000   0.80889708    -8.704581    477.64152  0.013907568  0.013531039         2562 
 2863000   0.79068796   -8.7508103    476.07183  0.013857021  0.013524981         2618 
 2864000    0.7976203   -8.7592415    476.61747   0.01386806  0.013518927         2642 
 2865000   0.77198112   -8.7603031    474.96982  0.013815294  0.013512873         2650 
 2866000   0.80763966   -8.7664607    475.14992  0.013815711   0.01350681         2726 
 2867000   0.78767021   -8.7480744    476.28793   0.01384397  0.013500749         2693 
 2868000   0.78977356    -8.760792    475.22337   0.01380821  0.013494699         2629 
 2869000   0.78151926   -8.7486486    475.97533  0.013825239  0.013488645         2642 
 2870000   0.80433347   -8.7808074    475.24293  0.013799156  0.013482585         2711 
 2871000   0.79237311   -8.7575062    475.92115  0.013814035  0.013476529         2622 
 2872000   0.77140176   -8.7796345    475.73535  0.013803834  0.013470471         2684 
 2873000   0.80118914   -8.7881007    476.11973  0.013810179  0.013464412         2724 
 2874000   0.78010325   -8.7721305    475.02518  0.013773636  0.013458342         2789 
 2875000   0.77908422   -8.7948406    475.00825  0.013768355  0.013452261         2751 
 2876000   0.78796334   -8.7865851    474.68028  0.013754065  0.013446165         2872 
 2877000   0.78914765    -8.760539    474.41217  0.013741518  0.013440066         2856 
 2878000   0.80406428   -8.7902602     474.9507  0.013752337   0.01343398         2894 
 2879000   0.78341146   -8.7934287    474.05412  0.013721608  0.013427889         2813 
 2880000   0.80438824     -8.82532    474.52263    0.0137304  0.013421806         2857 
 2881000   0.79000013   -8.7976282    474.11927  0.013713967  0.013415717         2813 
 2882000    0.7999092   -8.8083365    474.53592  0.013721256  0.013409615         2903 
 2883000   0.78918732    -8.838997    473.35381  0.013682328  0.013403512         2908 
 2884000   0.79166287    -8.832055    473.27358  0.013675265  0.013397393         2949 
 2885000    0.7945987   -8.8291084    473.79289  0.013685526  0.013391273         2936 
 2886000   0.79215708   -8.8591544    472.75634  0.013650853  0.013385144         3043 
 2887000   0.77117472   -8.8625999    473.38839  0.013664369  0.013379015         2960 
 2888000   0.79839073   -8.8577445    473.29498  0.013656942  0.013372874         3043 
 2889000   0.78324313   -8.8545892     473.3457  0.013653678  0.013366735         3083 
 2890000   0.79367855    -8.853201    473.65505  0.013657873  0.013360589         3060 
 2891000   0.77829838   -8.8552166    473.33288  0.013643863  0.013354451         3112 
 2892000   0.78913497   -8.8588486    473.76641  0.013651637   0.01334832         3066 
 2893000   0.77348644    -8.866585     473.0235  0.013625519  0.013342178         3136 
 2894000   0.79137574   -8.8406956    473.34741  0.013630137  0.013336047         3034 
 2895000   0.78629456   -8.8417241    472.98165  0.013614901  0.013329919         3091 
 2896000   0.80932404   -8.8864971    472.60263  0.013599293  0.013323788         3115 
 2897000    0.7860049   -8.8763216     472.3892  0.013588459   0.01331765         3137 
 2898000   0.78077599   -8.8712253    471.06233  0.013545616  0.013311512         3108 
 2899000    0.7914465   -8.8863931    472.38589   0.01357899  0.013305375         3167 
 2900000   0.78116385   -8.8633531    473.09818  0.013594775  0.013299245         3159 
 2901000   0.79157161   -8.8876668    472.17492  0.013563568  0.013293111         3175 
 2902000   0.79615488   -8.8968571    472.85641  0.013578463  0.013286976         3142 
 2903000   0.79493773   -8.8789662     472.3785  0.013560067  0.013280842         3180 
 2904000   0.79821787   -8.9113888    471.94919  0.013543078  0.013274714         3171 
 2905000   0.78618901   -8.9199356    471.75053  0.013532718  0.013268573         3195 
 2906000   0.79033412   -8.8908635    472.74336  0.013556531  0.013262437         3199 
 2907000    0.7911218   -8.8737032    472.83418  0.013554471  0.013256309         3149 
 2908000   0.78520024   -8.8903711    472.86147  0.013550592  0.013250178         3178 
 2909000   0.78435058   -8.8914475    472.33195  0.013530765  0.013244048         3154 
 2910000   0.78390793   -8.9166891    471.83501  0.013511885  0.013237913         3177 
 2911000   0.78806704   -8.9144101    471.75199  0.013504866  0.013231764         3127 
 2912000   0.77576255   -8.9176196    471.58571   0.01349547  0.013225616         3186 
 2913000   0.78215241   -8.8726281    471.38238  0.013485021  0.013219477         3237 
 2914000    0.7709631   -8.9039588    471.82056  0.013492924   0.01321334         3219 
 2915000    0.7919955   -8.8837408    471.16826  0.013469647  0.013207207         3227 
 2916000   0.78700499   -8.9317697    471.45708  0.013473282  0.013201067         3235 
 2917000   0.77147172   -8.9180797    471.96129  0.013483067  0.013194922         3233 
 2918000   0.79667154   -8.9306804    472.13573  0.013483428   0.01318879         3243 
 2919000   0.77090412   -8.9261721    471.69137  0.013466123  0.013182648         3288 
 2920000   0.77292079    -8.952654    471.19976  0.013447482  0.013176512         3312 
 2921000   0.77373204   -8.9390965    470.76803  0.013430561  0.013170375         3301 
 2922000    0.7871588   -8.9306614    472.10384  0.013464061  0.013164237         3282 
 2923000   0.78325348   -8.9379056    471.37549   0.01343869  0.013158093         3262 
 2924000   0.78551655   -8.9454166    471.10753  0.013426457  0.013151964         3262 
 2925000   0.79342359   -8.9585788    471.06688  0.013420709  0.013145836         3303 
 2926000   0.79465987    -8.940885    471.49279  0.013428252  0.013139725         3225 
 2927000   0.77124414   -8.9180944    472.05452  0.013439657  0.013133613         3282 
 2928000   0.78614976   -8.9360179    471.69608  0.013424866  0.013127485         3289 
 2929000    0.7964456   -8.9281128    471.74054  0.013421547  0.013121369         3200 
 2930000   0.75472839   -8.9618251    471.47251  0.013409343  0.013115258         3306 
 2931000   0.78854511   -8.9298645     471.0171   0.01339182  0.013109149         3278 
 2932000   0.78295599   -8.9362519    471.63089  0.013404698  0.013103055         3299 
 2933000   0.77715141   -8.9355541    471.17546  0.013387188  0.013096944         3273 
 2934000   0.76832168   -8.9416481    470.85131  0.013373418   0.01309084         3239 
 2935000   0.77236394   -8.9264281    471.76716  0.013394865  0.013084747         3252 
 2936000   0.78459745   -8.9283055    471.46645  0.013381768  0.013078667         3256 
 2937000   0.79005557   -8.9266581    472.83539  0.013416053  0.013072573         3241 
 2938000    0.7950324    -8.920982    471.41897  0.013371312  0.013066486         3221 
 2939000   0.79100994   -8.9503891      471.657  0.013373511  0.013060399         3282 
 2940000   0.77497519   -8.9699723    471.18479  0.013355578  0.013054316         3350 
 2941000   0.77734661   -8.9356802    471.37907  0.013356542  0.013048225         3293 
 2942000   0.78285606   -8.9704482    470.54003  0.013328236  0.013042144         3310 
 2943000    0.7871229    -8.945627    471.04146  0.013337905  0.013036063         3270 
 2944000   0.77718046   -8.9324638    471.68352  0.013351549  0.013029992         3264 
 2945000    0.7633984   -8.9239734    471.07876  0.013329903   0.01302391         3229 
 2946000   0.78004732   -8.9262818    470.91549   0.01332076  0.013017839         3280 
 2947000   0.77873901   -8.9472377    471.54765  0.013334115  0.013011768         3285 
 2948000   0.78507959   -8.9391697    470.75478  0.013307179  0.013005701         3309 
 2949000   0.79516549   -8.9530907    470.63966  0.013299414  0.012999638         3313 
 2950000   0.79027873   -8.9572504    470.48913  0.013290653  0.012993581         3299 
 2951000   0.79238034   -8.9457597    470.58217  0.013288777  0.012987508         3350 
 2952000     0.783436   -8.9378285      471.372  0.013306572  0.012981445         3331 
 2953000   0.79009623   -8.9535931    470.78732  0.013285566  0.012975374         3278 
 2954000   0.78285904   -8.9410326    471.12631  0.013290632  0.012969312         3289 
 2955000   0.76041511   -8.9348303    470.80386  0.013277041   0.01296326         3309 
 2956000   0.76493513    -8.954335    470.38368  0.013260704  0.012957203         3323 
 2957000   0.77785006   -8.9560255    470.91681  0.013271244  0.012951157         3340 
 2958000   0.76850505    -8.944146    470.23374  0.013247513  0.012945103         3284 
 2959000   0.79087121   -8.9664863    471.10461  0.013267563   0.01293906         3298 
 2960000   0.77350068   -8.9606982    470.45342  0.013244747  0.012933027         3327 
 2961000   0.78467272   -8.9496339    471.19887  0.013261254   0.01292699         3247 
 2962000   0.78985118   -8.9102794    471.56362  0.013267038  0.012920957         3291 
 2963000   0.79428021   -8.9691344    470.01949  0.013219133  0.012914928         3255 
 2964000   0.79287323   -8.9343861    471.09187  0.013244823  0.012908906         3314 
 2965000   0.77260479   -8.9425884    470.74289  0.013230548  0.012902879         3269 
 2966000    0.7738564   -8.9665779    470.54767  0.013220602  0.012896864         3316 
 2967000   0.78047607    -8.934124    471.88142  0.013253607  0.012890848         3245 
 2968000   0.77192791   -8.9373833    470.92154  0.013222191   0.01288483         3267 
 2969000   0.75669576    -8.936799    470.76985   0.01321348  0.012878817         3282 
 2970000   0.76668796   -8.9320143    471.49547   0.01322939  0.012872806         3222 
 2971000   0.77188532   -8.9789185    470.49177  0.013196785  0.012866802         3255 
 2972000   0.79398429   -8.9468875    471.22049  0.013212777  0.012860792         3331 
 2973000   0.77444639   -8.9776475    470.75883  0.013195393  0.012854783         3339 
 2974000   0.78053699   -8.9697084    469.58431  0.013158045  0.012848783         3302 
 2975000   0.76367568   -8.9466754    469.81863  0.013160186  0.012842784         3237 
 2976000   0.76017772   -8.9479362    470.09135    0.0131634  0.012836791         3296 
 2977000   0.77048199   -8.9475403    471.53364  0.013199352  0.012830795         3316 
 2978000   0.77510623    -8.963742    470.42188  0.013163809  0.012824793         3383 
 2979000   0.77347113   -8.9421072    471.08595  0.013177967  0.012818795         3280 
 2980000   0.77912178   -8.9581726    469.64375  0.013133214  0.012812809         3311 
 2981000   0.77168344    -8.956666    470.17074  0.013143541  0.012806819         3298 
 2982000   0.76882249   -8.9573459    470.55587  0.013149896  0.012800834         3311 
 2983000   0.76722255   -8.9438709    470.81232  0.013152652  0.012794837         3343 
 2984000   0.76397873   -8.9585936    470.55316  0.013141007  0.012788863         3308 
 2985000   0.76897264   -8.9832489    469.93216  0.013119268  0.012782889         3370 
 2986000   0.76630925   -8.9959258    470.27491  0.013124439  0.012776913         3272 
 2987000   0.77298787    -8.979309    470.64037  0.013130241  0.012770941         3299 
 2988000   0.78454779   -8.9843566    470.36274  0.013118104   0.01276498         3360 
 2989000   0.77204542   -8.9809024    469.94604  0.013102098  0.012759014         3322 
 2990000   0.76425295   -8.9544597    469.42644  0.013083234  0.012753051         3334 
 2991000   0.76545728   -8.9679164    470.72283  0.013114979  0.012747078         3374 
 2992000   0.76807011    -8.987069     469.7346  0.013083072   0.01274111         3378 
 2993000   0.78379339   -8.9802765    469.66762  0.013076835  0.012735145         3385 
 2994000   0.76248419   -8.9767956     471.8713  0.013133804  0.012729185         3345 
 2995000   0.76666029   -8.9778895    470.38143  0.013087964  0.012723227         3428 
 2996000   0.77245686    -8.990973    470.71596  0.013092901  0.012717264         3408 
 2997000   0.77021088    -8.969998    469.67519  0.013059593  0.012711316         3377 
 2998000   0.75161008   -8.9781838    471.14802  0.013096176  0.012705377         3366 
 2999000   0.76663789   -8.9888455    470.50813  0.013074028  0.012699432         3380 
 3000000   0.78407356   -8.9819348    470.49598  0.013069333  0.012693487         3381 
 3001000   0.77082866   -8.9764431    470.54355  0.013066299   0.01268754         3378 
 3002000    0.7857421   -8.9899201    469.23868  0.013025724  0.012681617         3343 
 3003000   0.76587368   -8.9959247    469.33454  0.013024047  0.012675686         3375 
 3004000   0.76727266   -8.9920352    469.81228  0.013032964   0.01266976         3416 
 3005000   0.77100244   -9.0173587    468.87495  0.013002633  0.012663826         3392 
 3006000   0.78327294   -8.9979727    469.39984  0.013012859  0.012657902         3354 
 3007000   0.78411466   -9.0038032    470.02495  0.013025855   0.01265198         3341 
 3008000   0.77184353   -8.9871311    471.34038  0.013057967   0.01264606         3429 
 3009000   0.76371369    -8.973264    470.60979  0.013033394  0.012640142         3405 
 3010000   0.78756623    -9.008318    470.00425  0.013012299  0.012634226         3407 
 3011000   0.76675301   -8.9853188    469.20176  0.012985768  0.012628303         3411 
 3012000   0.77528662   -8.9832761    468.86675  0.012972188  0.012622387         3360 
 3013000   0.77710559   -9.0004648    469.32239  0.012980484  0.012616472         3371 
 3014000   0.77516399   -8.9845023    469.77629  0.012988727  0.012610572         3396 
 3015000   0.75706967   -8.9932527    470.34625  0.013000173  0.012604662         3387 
 3016000   0.75387081   -8.9938698    470.02922  0.012987103  0.012598764         3373 
 3017000   0.78083465    -8.989919    470.32066  0.012990848  0.012592865         3368 
 3018000   0.76554321   -8.9907927     469.2184  0.012956108  0.012586976         3429 
 3019000   0.77061737   -8.9882177    470.41409  0.012984821  0.012581082         3357 
 3020000   0.76823087   -8.9816568    470.74614  0.012989684    0.0125752         3425 
 3021000   0.77974499   -8.9877607    470.22863  0.012971109  0.012569324         3441 
 3022000   0.76963786   -8.9940388     469.9116  0.012958074  0.012563453         3435 
 3023000   0.76175435   -8.9725886     470.1475  0.012960291  0.012557582         3394 
 3024000    0.7712891   -8.9933921    469.13473  0.012928095  0.012551716         3364 
 3025000   0.75718843     -8.97075    470.19074  0.012952913  0.012545849         3373 
 3026000   0.78540578   -8.9817351     470.0808  0.012945605  0.012539989         3344 
 3027000    0.7656709   -8.9969873    470.31408   0.01294775   0.01253413         3331 
 3028000    0.7638456   -8.9840495    470.21732  0.012940811  0.012528282         3372 
 3029000   0.77480626   -8.9790747    470.55852  0.012945926  0.012522427         3326 
 3030000   0.77804455   -9.0107494    469.48014  0.012911995  0.012516577         3408 
 3031000   0.74713756   -8.9986774    469.57186  0.012910257  0.012510722         3417 
 3032000   0.76375244   -9.0040574    469.30441  0.012898648  0.012504872         3392 
 3033000   0.76802316   -8.9727079    469.80799  0.012908231  0.012499019         3379 
 3034000   0.78278463   -8.9853857    470.24325  0.012915932  0.012493174         3374 
 3035000   0.73764381   -9.0287841    469.65496  0.012895523  0.012487323         3370 
 3036000   0.77767918   -9.0011612    469.29648  0.012881436   0.01248147         3421 
 3037000   0.77132467   -9.0045497    469.52554   0.01288348  0.012475631         3346 
 3038000   0.76819995   -8.9984871    470.31272  0.012900832  0.012469787         3397 
 3039000   0.77192417   -8.9789807    469.36153  0.012870504  0.012463946         3450 
 3040000   0.77577421   -8.9700089    469.80707  0.012878483  0.012458107         3402 
 3041000    0.7636732   -9.0378013    468.67213  0.012843147  0.012452272         3434 
 3042000   0.76160029   -8.9942474    470.39937  0.012886242  0.012446441         3393 
 3043000   0.77000364   -9.0176786    469.56693  0.012859211  0.012440604         3410 
 3044000   0.76431121   -9.0023725    470.18193  0.012871822  0.012434792         3393 
 3045000   0.79651058   -9.0299998    469.04667  0.012836526  0.012428969         3422 
 3046000   0.76408663   -9.0183965    469.36537  0.012841031  0.012423146         3489 
 3047000   0.76530651   -8.9968005     470.3214  0.012862964  0.012417326         3424 
 3048000   0.76163805   -9.0360436    469.45064  0.012834937  0.012411515         3450 
 3049000   0.74924042   -8.9926739    469.61334  0.012835174    0.0124057         3402 
 3050000   0.77097899   -8.9848321    469.88391  0.012838358  0.012399896         3406 
 3051000   0.76989278   -9.0074485    470.26453  0.012844546  0.012394093         3411 
 3052000   0.77622397     -9.01124    469.50389  0.012819569  0.012388294         3437 
 3053000   0.75424074   -9.0239173     468.5558  0.012789491  0.012382495         3440 
 3054000   0.75845741   -9.0135587     469.6402  0.012814893    0.0123767         3405 
 3055000   0.75230188   -9.0171327    469.14877  0.012797293  0.012370915         3436 
 3056000    0.7554629   -9.0060863    469.52624  0.012803399  0.012365133         3473 
 3057000    0.7719997   -9.0362078    469.38945  0.012795482  0.012359342         3394 
 3058000   0.75871706   -9.0507258    469.43895  0.012792646  0.012353556         3465 
 3059000   0.76397377   -9.0235666    470.16833  0.012808334  0.012347778         3363 
 3060000   0.76786486   -8.9997403    469.52941  0.012786749  0.012341996         3407 
 3061000    0.7673933   -9.0273026    470.02157   0.01279597  0.012336222         3415 
 3062000   0.76095466   -9.0164029    471.03062  0.012819253  0.012330466         3314 
 3063000   0.75105487   -9.0224545    469.45606  0.012772229  0.012324699         3431 
 3064000   0.75562619   -9.0346901    469.70329  0.012774785  0.012318926         3455 
 3065000   0.75034875    -9.048918    470.07066  0.012780605  0.012313149         3446 
 3066000   0.76417505   -9.0448119    470.12599  0.012777941  0.012307376         3458 
 3067000   0.77760647   -9.0603381    468.56129   0.01273126  0.012301604         3517 
 3068000   0.77920313   -9.0234656    469.33189  0.012748041  0.012295829         3510 
 3069000   0.74793332   -9.0358341    468.22283  0.012713773  0.012290057         3529 
 3070000   0.74461186   -9.0484488    469.65314  0.012748456  0.012284291         3522 
 3071000   0.76293923    -9.039149    469.83704  0.012749295   0.01227853         3531 
 3072000   0.76633295   -9.0332707     468.9297  0.012720532  0.012272762         3472 
 3073000   0.77002533   -9.0183704    469.07116  0.012720229  0.012267001         3513 
 3074000   0.75881899   -9.0247276    469.43695  0.012726007  0.012261239         3516 
 3075000   0.74283841    -9.030061    469.07185  0.012711974  0.012255476         3516 
 3076000   0.75517553   -9.0470965    468.61925   0.01269558  0.012249721         3517 
 3077000    0.7555846   -9.0764773    468.34986  0.012684158  0.012243964         3529 
 3078000   0.76556149   -9.0525007    468.88159  0.012694433  0.012238201         3558 
 3079000   0.76312008   -9.0442589     468.9556  0.012692314  0.012232432         3493 
 3080000   0.76883762   -9.0850256     468.6092   0.01267882   0.01222668         3583 
 3081000   0.75556478   -9.0696315    468.12244   0.01266154   0.01222093         3509 
 3082000   0.75290034    -9.073775    467.96999  0.012653309  0.012215175         3574 
 3083000   0.76076862   -9.0300166    469.07216  0.012678997  0.012209429         3500 
 3084000    0.7603904   -9.0561137    468.38164  0.012656227   0.01220369         3518 
 3085000   0.77401746   -9.0486147    468.20158   0.01264726  0.012197952         3548 
 3086000   0.76281417   -9.0628454    469.63157  0.012681777  0.012192215         3546 
 3087000   0.76040928    -9.056929    468.78889  0.012654921  0.012186483         3568 
 3088000   0.76610157   -9.0875444    468.01148  0.012629844  0.012180755         3510 
 3089000   0.75938401   -9.0328551     469.0809  0.012654605  0.012175031         3535 
 3090000   0.76244834   -9.0527186    469.20164  0.012653766  0.012169308         3585 
 3091000      0.76111   -9.0736365    468.76078  0.012637787  0.012163598         3553 
 3092000   0.75671065   -9.0717967    468.20979   0.01261885  0.012157875         3537 
 3093000   0.74657764   -9.0590155    468.75405  0.012629434   0.01215216         3569 
 3094000   0.74294982   -9.0792822    468.31653  0.012613567  0.012146441         3500 
 3095000   0.75642812   -9.0727693     468.6542  0.012618584  0.012140731         3580 
 3096000   0.74863188   -9.0770951    469.30654  0.012632067   0.01213502         3531 
 3097000   0.76432068   -9.0881143    468.30301  0.012600985  0.012129313         3601 
 3098000   0.74937324    -9.077655    468.46639  0.012601312  0.012123596         3550 
 3099000   0.76788112   -9.1023857    467.60367  0.012574047  0.012117884         3565 
 3100000   0.75885091   -9.0812678    469.43664  0.012619265   0.01211218         3529 
 3101000   0.77808646   -9.0844547    468.66221  0.012594384  0.012106481         3560 
 3102000   0.76568166   -9.0791735    468.41842  0.012583774  0.012100779         3511 
 3103000   0.75055978   -9.0856589     468.1541  0.012572621  0.012095076         3576 
 3104000    0.7553889   -9.0707155    468.55493  0.012579331  0.012089381         3580 
 3105000    0.7651983   -9.0824008    467.81328  0.012555375  0.012083691         3562 
 3106000   0.74702705   -9.0741794    468.53268  0.012570634  0.012078003         3557 
 3107000   0.74917278   -9.0739678    467.51383  0.012539262  0.012072314         3530 
 3108000   0.77073556   -9.1058872    466.53768  0.012509054  0.012066625         3564 
 3109000   0.75197072   -9.0731268    468.51237   0.01255796  0.012060939         3545 
 3110000   0.75509968   -9.0820669    468.01727  0.012540656  0.012055266         3542 
 3111000   0.75518358   -9.1008035    468.04246  0.012537299  0.012049593         3515 
 3112000   0.76311641   -9.0971341    468.23465  0.012538417  0.012043919         3527 
 3113000   0.75447381   -9.1016561    467.70854  0.012520306  0.012038249         3512 
 3114000   0.73907435   -9.0911893    467.75293  0.012517473  0.012032578         3506 
 3115000   0.75004288   -9.0617315     468.0649    0.0125218  0.012026908         3496 
 3116000   0.75738077   -9.0981506    468.11839  0.012519212  0.012021242         3501 
 3117000   0.75547429   -9.1177596    467.35364   0.01249475  0.012015586         3593 
 3118000   0.75040931   -9.0985514     469.3118  0.012543078  0.012009912         3572 
 3119000   0.74294862   -9.0893635    467.94341  0.012502496  0.012004253         3614 
 3120000   0.75950191   -9.1068756    467.48108   0.01248614  0.011998591         3570 
 3121000   0.75783803   -9.0886509    468.18235  0.012500864  0.011992933         3580 
 3122000   0.75231657   -9.0907084    468.60942  0.012508259  0.011987277         3570 
 3123000   0.75514415    -9.098606    468.01635  0.012488428  0.011981622         3540 
 3124000    0.7466186    -9.102268    468.29179  0.012491779  0.011975964         3641 
 3125000   0.74762776   -9.1088167     468.2088  0.012485568  0.011970302         3595 
 3126000   0.74669708   -9.1373376     467.0402  0.012450421  0.011964649         3624 
 3127000   0.74461719   -9.0984023    467.50398  0.012458799  0.011958999         3618 
 3128000   0.74122497    -9.119109    466.99596  0.012441282  0.011953352         3615 
 3129000   0.73801159   -9.1196563    467.44366  0.012449229  0.011947708         3626 
 3130000   0.74572413    -9.091694    468.12728  0.012463452  0.011942066         3558 
 3131000    0.7425405   -9.1199729    466.95917  0.012428382  0.011936429         3587 
 3132000   0.73043375   -9.1320823    467.04338  0.012426654   0.01193079         3625 
 3133000    0.7529017   -9.1565325    466.59842  0.012410853  0.011925156         3593 
 3134000   0.75591896   -9.1229693    467.75665   0.01243769  0.011919524         3609 
 3135000    0.7429559   -9.1358018     466.4387  0.012398689  0.011913889         3666 
 3136000   0.75622649   -9.1376731    466.56995  0.012398224  0.011908254         3640 
 3137000   0.75853129   -9.1470334    467.23703  0.012411992  0.011902631         3615 
 3138000   0.74770292   -9.1259583    467.51365  0.012415383   0.01189701         3641 
 3139000   0.74661826   -9.1176979     466.7716  0.012391728  0.011891395         3624 
 3140000    0.7453124   -9.1179517    467.48764  0.012406784  0.011885781         3650 
 3141000   0.75257178   -9.1111992    466.80555  0.012384738  0.011880158         3660 
 3142000   0.74744889   -9.1481939    467.48793  0.012398895  0.011874542         3682 
 3143000   0.74641947   -9.1428636    466.50994  0.012369019  0.011868929         3696 
 3144000   0.72947952   -9.1227819     467.6679  0.012395778  0.011863318         3680 
 3145000   0.75033942   -9.1335339     467.4762  0.012386757   0.01185771         3679 
 3146000    0.7652289   -9.1274168    466.99894  0.012370177  0.011852104         3714 
 3147000   0.74680571   -9.1316219    467.87098  0.012389339  0.011846498         3716 
 3148000   0.72283341   -9.1465004    467.40308  0.012373017  0.011840885         3698 
 3149000   0.75105427   -9.1349826    467.27908  0.012365806  0.011835281         3678 
 3150000   0.74333635   -9.1495021    466.46011  0.012340215  0.011829677         3734 
 3151000   0.75619686   -9.1389012     466.5408  0.012338432  0.011824085         3721 
 3152000   0.74867983   -9.1114357    466.80309  0.012341452  0.011818499         3744 
 3153000   0.74171054   -9.1395249    467.47531  0.012355305  0.011812914         3747 
 3154000   0.74058811   -9.1301023    467.22955  0.012344894  0.011807327         3730 
 3155000   0.75788932   -9.1443209    466.76737  0.012328774  0.011801753         3750 
 3156000   0.75731048   -9.1396832    467.56582   0.01234595  0.011796176         3689 
 3157000   0.76572026   -9.1400006    467.05092  0.012328448  0.011790602         3736 
 3158000   0.75708153   -9.1635435    466.90935  0.012320808  0.011785032         3727 
 3159000   0.73700257   -9.1610429    466.64469  0.012309926  0.011779463         3720 
 3160000   0.74475281   -9.1495707    466.07637  0.012291043  0.011773894         3769 
 3161000   0.74485465   -9.1791212     466.4436  0.012296837  0.011768327         3737 
 3162000   0.73278271   -9.1377085    467.65182   0.01232479  0.011762758         3717 
 3163000   0.73106773   -9.1593684    467.40477  0.012314384  0.011757194         3779 
 3164000   0.73786055    -9.161272    466.98952  0.012299555  0.011751637         3765 
 3165000   0.74481631   -9.1545919     467.0743  0.012297901  0.011746084         3707 
 3166000   0.74199496   -9.1651373    466.21473  0.012271392  0.011740538         3758 
 3167000   0.73617766   -9.1546518    466.75402  0.012281708  0.011734989         3744 
 3168000   0.74377454   -9.1416048    467.90239  0.012308038  0.011729446         3738 
 3169000   0.73805236   -9.1809201    466.24712  0.012260627  0.011723901         3802 
 3170000   0.74265673   -9.1424741    467.66107  0.012293929  0.011718356         3743 
 3171000   0.75573433   -9.1467871     466.5871  0.012261829  0.011712821         3757 
 3172000   0.76045792   -9.1423804    466.90716  0.012266371  0.011707289         3788 
 3173000   0.75729251   -9.1583394    466.13714  0.012242282  0.011701752         3781 
 3174000    0.7475887   -9.1561111    466.79543  0.012255709  0.011696217         3787 
 3175000   0.74892621   -9.1634579     466.4222  0.012242052   0.01169069         3758 
 3176000    0.7525845   -9.1703352    467.43744  0.012264836  0.011685162         3797 
 3177000   0.73682125   -9.1600267    466.96489  0.012248581  0.011679638         3803 
 3178000   0.75075882   -9.1447756    465.85802  0.012215702  0.011674113         3785 
 3179000   0.73286136   -9.1453776    466.75369  0.012235338  0.011668585         3798 
 3180000   0.74255471   -9.1277085    467.46156  0.012250041  0.011663066         3806 
 3181000   0.74400824   -9.1800619    466.71262   0.01222657  0.011657549         3789 
 3182000   0.73816119   -9.1365046     466.0466  0.012205285  0.011652024         3759 
 3183000   0.74126271   -9.1476998    466.95861  0.012225327  0.011646512         3779 
 3184000   0.73436936   -9.1787067    467.23141  0.012228628  0.011641008         3788 
 3185000   0.75020571    -9.172539    466.71113  0.012211175  0.011635498         3835 
 3186000   0.73818357    -9.166603    466.47442  0.012201151  0.011629993         3826 
 3187000   0.74907165   -9.1673856    467.06164  0.012212677  0.011624495         3799 
 3188000   0.74496348   -9.1362016    467.28819  0.012214769  0.011619014         3797 
 3189000   0.73420089    -9.138618    466.21559   0.01218291  0.011613519         3829 
 3190000   0.73178922   -9.1624644    465.12576  0.012150621  0.011608025         3825 
 3191000   0.74137485   -9.1663761    466.87094  0.012192388  0.011602539         3793 
 3192000   0.74758949   -9.1600973    466.27388  0.012172981  0.011597057         3840 
 3193000   0.74650798    -9.198423    466.12381  0.012165252  0.011591581         3842 
 3194000   0.74327596   -9.1604797     466.2783  0.012165474  0.011586107         3815 
 3195000   0.72065545   -9.1729859    466.85281  0.012176651  0.011580623         3815 
 3196000   0.74471078   -9.1771986    466.59393  0.012166091  0.011575151         3815 
 3197000   0.73843949   -9.1661736    467.55064  0.012187223  0.011569677         3856 
 3198000   0.74291531   -9.1822786    466.57669  0.012158033  0.011564204         3869 
 3199000   0.74899153   -9.1872691    466.16187  0.012143427  0.011558741         3856 
 3200000    0.7492436   -9.1795849    466.42588  0.012146507  0.011553266         3822 
 3201000    0.7349316   -9.1923761    465.59374  0.012121049  0.011547804         3883 
 3202000   0.73327009   -9.1864927    466.45606  0.012139706  0.011542341         3797 
 3203000   0.73412199   -9.1926115     466.0785  0.012126093  0.011536879         3841 
 3204000   0.73549531   -9.1675628    467.17734  0.012150888  0.011531427         3808 
 3205000   0.73663683   -9.1783178    466.42316  0.012127487  0.011525971         3880 
 3206000   0.73192843   -9.1906294    466.19718  0.012117831  0.011520522         3855 
 3207000   0.74088316   -9.1848162    467.00261  0.012134981  0.011515076         3837 
 3208000   0.74278336   -9.1563688    467.75635  0.012150778  0.011509638         3827 
 3209000   0.74614457   -9.2202162     466.0028  0.012101454  0.011504206         3865 
 3210000   0.73303672   -9.1870324     465.3907  0.012081794  0.011498767         3835 
 3211000    0.7309612   -9.1578804    466.34544  0.012102809  0.011493336         3832 
 3212000   0.72509274   -9.1805325    465.51953  0.012077613  0.011487897         3843 
 3213000   0.74940752   -9.2038601    465.65848  0.012077458  0.011482475         3846 
 3214000   0.73150999   -9.1904814    466.36925  0.012092129  0.011477055         3829 
 3215000   0.72887085   -9.2032461    465.10766  0.012055668  0.011471633         3842 
 3216000   0.72550899   -9.1821634    466.87039  0.012097595  0.011466215         3842 
 3217000   0.73829178   -9.1714531    466.32233  0.012079638  0.011460804         3842 
 3218000   0.75291376   -9.1951079    466.39451  0.012077753  0.011455389         3832 
 3219000   0.73822799   -9.1938982    465.91074  0.012061477  0.011449975         3844 
 3220000   0.74154514   -9.1984888    466.18153  0.012064739  0.011444565         3852 
 3221000   0.73707391   -9.2031128    466.02998  0.012057073  0.011439155         3853 
 3222000   0.74519239   -9.1857904    465.91567  0.012050374  0.011433753         3862 
 3223000   0.74164113   -9.1986913    465.02831  0.012023692  0.011428357         3817 
 3224000    0.7318117   -9.1918369    466.75763  0.012064662  0.011422966         3844 
 3225000   0.73524135   -9.2142793    465.60257  0.012031074  0.011417571         3874 
 3226000   0.72105889   -9.1924515    465.24493  0.012018106  0.011412176         3833 
 3227000    0.7383297   -9.1770901    466.32665  0.012042316  0.011406787         3836 
 3228000   0.74380304   -9.1811182     466.2928  0.012037712  0.011401398         3829 
 3229000   0.74301788   -9.2146694    465.99315   0.01202625  0.011396016         3875 
 3230000   0.71990807   -9.1977772    465.69868   0.01201493  0.011390638         3842 
 3231000   0.73671313   -9.2241965    466.12398   0.01202218  0.011385263         3836 
 3232000   0.74056755   -9.2122654    465.49226  0.012002173  0.011379887         3852 
 3233000   0.73387544   -9.2012217    466.96744  0.012036484  0.011374512         3861 
 3234000   0.72946952   -9.1969142    466.17469  0.012012335  0.011369135         3833 
 3235000   0.73682149   -9.2101075     466.5975  0.012019513  0.011363769         3872 
 3236000   0.72781102   -9.2119001    466.43672  0.012011658  0.011358401         3813 
 3237000   0.71556288   -9.2128197    465.96004  0.011995676  0.011353044         3814 
 3238000   0.75204837    -9.198746    465.99885   0.01199297  0.011347691         3815 
 3239000    0.7436048   -9.1955926    466.58351   0.01200431  0.011342344         3816 
 3240000   0.73238699   -9.2030985    465.82962  0.011981214  0.011336991         3834 
 3241000   0.71871649   -9.2023393    466.04102  0.011982953  0.011331647         3859 
 3242000   0.72376871   -9.2065573    465.68623  0.011970138  0.011326309         3841 
 3243000   0.72505958   -9.1994875    465.62951  0.011964989  0.011320967         3801 
 3244000   0.72990162   -9.2027845    465.95389  0.011969634  0.011315623         3795 
 3245000   0.73007996    -9.181765    466.44374  0.011978524  0.011310287         3846 
 3246000   0.73066618   -9.1956918    465.97387  0.011962771  0.011304955         3819 
 3247000   0.74792081   -9.2131644    466.10247  0.011962388  0.011299622         3817 
 3248000   0.73709955   -9.2100943     464.7424  0.011923809  0.011294289         3814 
 3249000   0.73490334   -9.2043757    465.68114  0.011944217  0.011288956         3786 
 3250000   0.75141439   -9.2125618     465.1459  0.011926818   0.01128363         3827 
 3251000   0.73397173    -9.238353    465.34097   0.01192815  0.011278305         3826 
 3252000   0.72157126   -9.2092384    466.20133  0.011946529  0.011272988         3827 
 3253000   0.74435127   -9.2019147    465.14763  0.011915863  0.011267667         3843 
 3254000   0.75095832   -9.1930055    465.77633  0.011928302  0.011262349         3865 
 3255000   0.72658206   -9.2077523    465.80814  0.011925452   0.01125704         3844 
 3256000   0.73177176    -9.177464    465.81322  0.011921919  0.011251726         3859 
 3257000     0.737399    -9.218451    464.59439  0.011887074  0.011246424         3840 
 3258000   0.72607501   -9.2066522      465.416   0.01190444   0.01124113         3842 
 3259000   0.72777194   -9.2299401    464.82052  0.011885561  0.011235829         3880 
 3260000   0.72960128   -9.2306163    465.31848  0.011894644   0.01123053         3873 
 3261000   0.70775396   -9.2170617    465.07855  0.011884865  0.011225235         3832 
 3262000   0.72740531   -9.2069056     466.0126  0.011905084  0.011219943         3844 
 3263000   0.72473001   -9.2343121     465.1589  0.011879633  0.011214657         3836 
 3264000   0.72274521   -9.2285525     464.8348  0.011867719  0.011209375         3839 
 3265000   0.73033867   -9.2229873    463.81761  0.011838122  0.011204088         3862 
 3266000   0.73178663   -9.2096686    465.62378  0.011880582  0.011198807         3856 
 3267000   0.72310347   -9.2221323    465.55926    0.0118753  0.011193531         3847 
 3268000   0.72105436   -9.2234858    465.94712  0.011881557  0.011188256         3859 
 3269000   0.72992589   -9.1961764    465.65144  0.011870384  0.011182987         3884 
 3270000   0.73080685   -9.2115645    464.76122  0.011844068  0.011177723         3841 
 3271000   0.72748293   -9.2255206     465.7386  0.011865347  0.011172462         3872 
 3272000   0.72653319   -9.2363502    464.27771  0.011824514  0.011167196         3855 
 3273000   0.72975218   -9.2516799    464.81364  0.011834546  0.011161933         3862 
 3274000    0.7186202   -9.2301701    466.15509  0.011865076  0.011156682         3849 
 3275000   0.74861915   -9.2126142    465.51504  0.011845166  0.011151433         3823 
 3276000   0.72864937   -9.2217616    465.42452  0.011839248  0.011146187         3862 
 3277000   0.73651873   -9.2202746    465.06571  0.011826511  0.011140939         3873 
 3278000   0.71906237   -9.2418826    465.01995   0.01182174  0.011135691         3869 
 3279000   0.74296967   -9.2609159    464.90925  0.011815321  0.011130438         3861 
 3280000   0.72418864    -9.222957    464.97591  0.011813412  0.011125195         3898 
 3281000   0.73558829   -9.2303203    465.19597  0.011815401  0.011119949         3861 
 3282000   0.72604355   -9.2169921    465.44477  0.011818118  0.011114711         3858 
 3283000   0.74488872   -9.2394367    465.25264  0.011809642  0.011109473         3890 
 3284000   0.72983282   -9.2333864    465.56143  0.011813881   0.01110424         3865 
 3285000      0.72774   -9.2490408    465.18617  0.011800765   0.01109901         3901 
 3286000   0.71753199   -9.2614292    464.83298  0.011788217  0.011093786         3878 
 3287000   0.73914942   -9.2338542    464.50904  0.011776418  0.011088558         3848 
 3288000   0.73375787   -9.2379647     464.9095  0.011782986  0.011083335         3892 
 3289000   0.71558701   -9.2392298    465.45474  0.011793218  0.011078114         3864 
 3290000   0.71679411    -9.240028    465.07239  0.011779949    0.0110729         3880 
 3291000   0.73304597   -9.2480109    464.60077  0.011764427   0.01106769         3875 
 3292000   0.72201889   -9.2293056    464.44124  0.011756815  0.011062481         3918 
 3293000   0.68878704   -9.2471427        465.3  0.011774977  0.011057273         3880 
 3294000   0.72661058   -9.2105081     465.5485  0.011777689  0.011052069         3913 
 3295000   0.73632136   -9.2110789    464.70356  0.011752746  0.011046875         3894 
 3296000   0.71469939   -9.2129108    464.76991  0.011750857  0.011041678         3883 
 3297000    0.7271748   -9.2387163    464.72629  0.011746191  0.011036483         3896 
 3298000   0.72667354   -9.2321465    464.96587  0.011748683  0.011031291         3907 
 3299000   0.71790594   -9.2030544    465.79004   0.01176594  0.011026102         3859 
 3300000   0.71612465   -9.2395777    465.51705  0.011755481  0.011020916         3876 
 3301000   0.73066975   -9.2455272    464.92935  0.011737083  0.011015727         3882 
 3302000    0.7324907   -9.2616276    464.98845   0.01173502  0.011010541         3921 
 3303000    0.7306552   -9.2407385    465.18109  0.011736328  0.011005364         3886 
 3304000   0.71812636   -9.2385675    465.13112  0.011731515  0.011000189         3892 
 3305000   0.72930774   -9.2497605    465.78465  0.011744444  0.010995021         3872 
 3306000   0.72725214   -9.2412887    464.48148  0.011708043  0.010989845         3897 
 3307000   0.71923171   -9.2672371    464.68356  0.011709595  0.010984671         3914 
 3308000   0.72244903   -9.2440157     464.3879  0.011698607  0.010979505         3911 
 3309000   0.70594954   -9.2600873    463.90097  0.011682809  0.010974339         3885 
 3310000   0.71561811   -9.2268215    464.75672  0.011700824  0.010969178         3892 
 3311000   0.73454063    -9.232964    464.66207  0.011694908   0.01096402         3880 
 3312000   0.71728628   -9.2445196    464.76052  0.011693854  0.010958876         3872 
 3313000   0.72413096   -9.2180862    464.24992  0.011677481  0.010953726         3873 
 3314000   0.70985886   -9.2487132    465.14868  0.011696557  0.010948579         3884 
 3315000   0.71586379   -9.2384297    465.08122  0.011691333  0.010943435         3873 
 3316000   0.71856226   -9.2452918    465.03258  0.011686585  0.010938298         3880 
 3317000   0.72010006   -9.2563161     465.7289  0.011700555  0.010933165         3892 
 3318000   0.71384979   -9.2273601    465.43194  0.011689571  0.010928033         3879 
 3319000   0.71498677   -9.2420746    465.24428  0.011681337  0.010922906         3887 
 3320000   0.73135623   -9.2474343    464.67581   0.01166355  0.010917782         3884 
 3321000   0.71564586   -9.2469546    464.22016  0.011648604  0.010912659         3873 
 3322000   0.73595656   -9.2555808    464.80345  0.011659729  0.010907534         3873 
 3323000   0.71475584   -9.2352946    465.61517  0.011676577   0.01090242         3917 
 3324000   0.71590728   -9.2556272    464.68066  0.011649636  0.010897308         3903 
 3325000   0.72240528   -9.2613924    464.25238  0.011635398  0.010892197         3876 
 3326000   0.71408223   -9.2470929    465.19212  0.011655445  0.010887087         3896 
 3327000     0.707581   -9.2499174    464.63161  0.011637902  0.010881986         3901 
 3328000   0.71625846   -9.2488328    464.92095   0.01164165  0.010876883         3893 
 3329000   0.71587394   -9.2432534    464.51127  0.011627898  0.010871781         3877 
 3330000   0.71594631    -9.259641    464.54807  0.011625327   0.01086668         3884 
 3331000   0.70984515   -9.2456953    465.55037  0.011646912  0.010861588         3905 
 3332000   0.70155988   -9.2586839    464.96499  0.011628776  0.010856494         3867 
 3333000   0.72609961   -9.2528751    465.05463  0.011627528  0.010851407         3843 
 3334000    0.7296503   -9.2394607    464.13416  0.011601034  0.010846322         3874 
 3335000    0.7193881   -9.2440076    464.45781  0.011605642  0.010841238         3894 
 3336000   0.71528125   -9.2249769    465.28771  0.011622894  0.010836162         3875 
 3337000   0.70621902    -9.245207    465.36733    0.0116214  0.010831093         3904 
 3338000   0.69766612   -9.2652792     464.0625  0.011585343  0.010826017         3886 
 3339000   0.72242035   -9.2552057    464.57922  0.011594769  0.010820948         3892 
 3340000      0.70802    -9.238534    464.51267  0.011589638  0.010815885         3890 
 3341000   0.72509161   -9.2540157    464.85892  0.011594805  0.010810822         3886 
 3342000   0.71393291   -9.2563375    464.28604  0.011577051  0.010805765         3893 
 3343000   0.70872068   -9.2172327    464.30284  0.011574006  0.010800703         3904 
 3344000   0.72209531   -9.2624608    464.94306    0.0115865  0.010795645         3864 
 3345000   0.72485395   -9.2696001    463.83266  0.011555373  0.010790591         3899 
 3346000   0.73658724   -9.2508744     465.0458  0.011582133  0.010785545         3883 
 3347000   0.71534219    -9.262269    465.34734   0.01158618  0.010780502         3874 
 3348000   0.71203941   -9.2669382    464.34995  0.011557894  0.010775464         3892 
 3349000   0.71736339   -9.2449404    464.83996  0.011566636  0.010770426         3887 
 3350000   0.71525297   -9.2375961    465.33576  0.011575516  0.010765394         3905 
 3351000    0.7016441   -9.2678008    464.08862  0.011541048  0.010760359         3888 
 3352000   0.72073623    -9.274466    464.12243  0.011538445  0.010755324         3904 
 3353000    0.7023683   -9.2746862    464.44105  0.011542923  0.010750295         3858 
 3354000   0.71541998   -9.2494828    464.31051  0.011536238  0.010745266         3867 
 3355000   0.70961262   -9.2234116    464.73481  0.011543339  0.010740249         3879 
 3356000   0.72408635    -9.244178    465.25198  0.011552741  0.010735236         3871 
 3357000   0.70586332   -9.2294279    465.87519   0.01156477  0.010730225         3878 
 3358000   0.72142434   -9.2706851    465.38161  0.011549077  0.010725212         3904 
 3359000   0.73089441   -9.2316413    463.83639  0.011507303  0.010720203         3880 
 3360000    0.7043973   -9.2780713    463.67652  0.011499914  0.010715197         3879 
 3361000   0.72561227    -9.252705    465.11552  0.011532171  0.010710194         3877 
 3362000   0.71910471    -9.268209    464.53465  0.011514343  0.010705192         3868 
 3363000   0.71599336   -9.2416711    464.49887  0.011510033   0.01070019         3906 
 3364000   0.71784881   -9.2559408    465.30294   0.01152653  0.010695193         3899 
 3365000   0.71162629   -9.2665324    465.02082  0.011516117  0.010690202         3873 
 3366000   0.71217475   -9.2661344    463.64526  0.011478641  0.010685209         3879 
 3367000   0.71976199   -9.2419448    464.87279  0.011505613  0.010680219         3894 
 3368000   0.69652395   -9.2515206    464.11218  0.011483377  0.010675237         3867 
 3369000    0.7056502   -9.2554067    464.24898  0.011483353  0.010670254         3862 
 3370000   0.71589834   -9.2594707    465.37589  0.011507811  0.010665282         3873 
 3371000   0.69717887   -9.2706314    463.97842  0.011469851  0.010660313         3869 
 3372000   0.71673302   -9.2760811    464.56494  0.011480944  0.010655345         3879 
 3373000   0.74472675   -9.2761118    464.52856  0.011476642  0.010650379         3874 
 3374000   0.70570558     -9.24634    464.80613  0.011480096  0.010645419         3864 
 3375000   0.71267046   -9.2595074    464.67253  0.011473396  0.010640451         3856 
 3376000     0.726307   -9.2574002    464.44885  0.011464476  0.010635492         3853 
 3377000   0.71037311   -9.2525982    464.13853  0.011453424  0.010630538         3881 
 3378000   0.72152115   -9.2827599    464.34405  0.011455103  0.010625579         3901 
 3379000   0.71272754   -9.2712011    463.08522  0.011420667  0.010620633         3895 
 3380000   0.70468354    -9.288526      463.763  0.011433999  0.010615683         3881 
 3381000    0.7079367   -9.2398147    464.68165   0.01145326  0.010610734         3868 
 3382000   0.71645048   -9.2544646    464.89022  0.011455012  0.010605793         3857 
 3383000   0.69489682     -9.28757    463.93401  0.011428072  0.010600856         3918 
 3384000   0.71617331   -9.2574015    464.07597  0.011428191  0.010595915         3906 
 3385000   0.70922188   -9.2524424     464.5781  0.011437176  0.010590978         3897 
 3386000   0.68322195   -9.2667297    464.07379  0.011421387  0.010586043         3888 
 3387000    0.7051823   -9.2685793    464.35067  0.011424827  0.010581115         3897 
 3388000     0.713378   -9.2762092     464.8102  0.011432758  0.010576185         3924 
 3389000    0.7219352    -9.289341    463.63644  0.011400522  0.010571261         3871 
 3390000    0.7085613   -9.2727099    464.01307  0.011406418  0.010566341         3916 
 3391000   0.70951105   -9.2612054    463.78267  0.011397392  0.010561422         3890 
 3392000   0.71524092   -9.2708119    463.14795  0.011378438  0.010556507         3895 
 3393000   0.72186595   -9.2795406    464.13392    0.0113993  0.010551587         3883 
 3394000   0.69919633   -9.2788129    464.33449  0.011400867  0.010546674         3902 
 3395000   0.71138459   -9.2704791    463.95632  0.011388226  0.010541754         3915 
 3396000   0.72395776   -9.2638659    464.21229  0.011391154  0.010536846         3901 
 3397000   0.69857071   -9.2863325    464.40306   0.01139248  0.010531938         3869 
 3398000   0.70204885   -9.2683314       464.94  0.011402295  0.010527037         3886 
 3399000   0.72090563   -9.2691942    464.32414  0.011383842  0.010522131         3888 
 3400000   0.70060941   -9.2553455    464.62552   0.01138788  0.010517235         3897 
 3401000    0.7024586   -9.2769676    464.50759  0.011381642  0.010512338         3894 
 3402000    0.7080658    -9.265063    464.78605  0.011385118  0.010507451         3880 
 3403000   0.70188692   -9.2809928    463.66821  0.011354398  0.010502563         3869 
 3404000     0.718631   -9.2684383    464.29138  0.011366318  0.010497674         3895 
 3405000   0.70411927   -9.2565882    463.91991  0.011353889  0.010492789         3866 
 3406000    0.7050862   -9.2772522     464.2295   0.01135813  0.010487912         3884 
 3407000   0.70298483    -9.277785    463.96255  0.011348267  0.010483039         3896 
 3408000   0.71022624   -9.2751572    463.47064  0.011332909  0.010478166         3881 
 3409000   0.71036333   -9.2743356    464.68281  0.011359216    0.0104733         3888 
 3410000   0.70642642   -9.2594129    464.38352  0.011348571  0.010468433         3885 
 3411000   0.71063393   -9.2534147    464.04723  0.011337028  0.010463569         3861 
 3412000   0.71923406   -9.2759028    464.27648  0.011339304  0.010458711         3898 
 3413000   0.70519412   -9.2578179    464.33605  0.011337436  0.010453847         3894 
 3414000   0.70657761   -9.2630322    464.46034   0.01133715  0.010448993         3896 
 3415000   0.70686955   -9.2826873    464.29656  0.011329833  0.010444142         3911 
 3416000   0.70010463   -9.2602505    463.52754  0.011307756   0.01043929         3886 
 3417000   0.69548221   -9.2812197    462.97235  0.011290907  0.010434443         3892 
 3418000   0.71844954   -9.2798872    464.44036  0.011323395  0.010429597         3889 
 3419000   0.70466932   -9.2910562    462.96668  0.011284164  0.010424758         3907 
 3420000   0.69879892   -9.2599101    464.49067  0.011317999  0.010419914         3862 
 3421000   0.69999685   -9.2615029    464.06469  0.011304314  0.010415084         3905 
 3422000   0.70977251    -9.277845    464.07983  0.011301379  0.010410254         3900 
 3423000   0.70134516   -9.2505107    464.01356  0.011296464  0.010405428         3884 
 3424000   0.70580367   -9.2865753    463.77169  0.011287278  0.010400611         3905 
 3425000   0.70547952   -9.2764133    463.79574  0.011284568  0.010395785         3903 
 3426000   0.71006623   -9.2728446     463.3651  0.011270799  0.010390965         3912 
 3427000   0.69875085   -9.2954114    464.23577  0.011288682  0.010386143         3900 
 3428000   0.69081352   -9.2985045    464.13423  0.011282921  0.010381326         3916 
 3429000   0.71525646   -9.2753948    464.12506  0.011279408   0.01037651         3888 
 3430000   0.72045762   -9.2856501    463.77504  0.011267615  0.010371702         3899 
 3431000   0.67759657   -9.2917983    464.35644  0.011278452  0.010366891         3917 
 3432000   0.68031357   -9.2907716    464.09936  0.011268924  0.010362079         3894 
 3433000   0.70346719   -9.2699701    464.09155  0.011265452  0.010357273         3906 
 3434000   0.71295241   -9.2617245    463.80688  0.011255263  0.010352471         3890 
 3435000   0.71078764   -9.2762119    463.89904  0.011254222  0.010347676         3897 
 3436000   0.68700929   -9.2539732     465.1319  0.011280847  0.010342884         3883 
 3437000   0.69771202   -9.2689561    464.31213  0.011257689  0.010338093         3905 
 3438000   0.70284003   -9.3189708    462.66905  0.011214588  0.010333301         3874 
 3439000   0.69579101   -9.2929736    463.33311  0.011227419  0.010328509         3903 
 3440000   0.69298426    -9.289558    464.78506  0.011259328  0.010323723         3894 
 3441000    0.7060547   -9.2772498    464.07783  0.011238928  0.010318938         3892 
 3442000   0.69916391   -9.2837343    463.87129  0.011230663  0.010314164         3893 
 3443000   0.70945501     -9.25497    464.46035  0.011241658  0.010309388         3873 
 3444000   0.68675443   -9.2931685    463.99665  0.011227174  0.010304616         3899 
 3445000   0.67680105    -9.270311    463.87365   0.01122094  0.010299844         3898 
 3446000   0.72024857    -9.281511    464.02665  0.011221384  0.010295074         3913 
 3447000     0.705094   -9.2853291    463.93251  0.011215852  0.010290306         3910 
 3448000   0.69828533   -9.2719016    463.54355  0.011203199  0.010285541         3890 
 3449000   0.68923238   -9.2867034    464.45208  0.011221902  0.010280788         3921 
 3450000   0.69885123    -9.278371    464.17826  0.011212035  0.010276034         3888 
 3451000   0.69267985   -9.3037045    463.85172  0.011200901   0.01027128         3884 
 3452000   0.69217375   -9.3047565    462.97843  0.011176575   0.01026653         3914 
 3453000   0.69444525   -9.2783503    463.40503  0.011183633  0.010261779         3879 
 3454000   0.69954127    -9.268318    464.08854  0.011196886   0.01025704         3879 
 3455000   0.69043296   -9.2602685    463.87916  0.011188595  0.010252298         3894 
 3456000   0.70109333   -9.2594808    463.84715  0.011184586   0.01024756         3911 
 3457000   0.70183405   -9.2918986    463.49556  0.011172875  0.010242817         3901 
 3458000   0.70428926    -9.286654    463.41236  0.011167639   0.01023808         3910 
 3459000   0.71150844   -9.2809535    463.10779  0.011157073  0.010233341         3909 
 3460000   0.69467454   -9.2914033    463.67977  0.011167624  0.010228612         3893 
 3461000   0.70896858   -9.2879511    463.39077  0.011157439  0.010223883         3913 
 3462000   0.70312455   -9.2941551    464.55055  0.011182133  0.010219158         3896 
 3463000   0.68218733    -9.276485    463.79758  0.011160785  0.010214436         3893 
 3464000    0.6912955   -9.2885262    463.69166  0.011155015  0.010209718         3890 
 3465000   0.70905414    -9.285148    464.06142  0.011160688  0.010205002         3905 
 3466000   0.69289429   -9.2860909    464.55133  0.011169247   0.01020029         3927 
 3467000    0.7069793   -9.2913643    462.69497  0.011121406  0.010195573         3918 
 3468000   0.68068679   -9.3039401    464.14856  0.011153128  0.010190863         3914 
 3469000   0.69634135   -9.3204988    463.43588  0.011132792  0.010186155         3917 
 3470000   0.70123976   -9.3210507    463.19073  0.011123697   0.01018145         3901 
 3471000   0.68836599   -9.2940608    463.13584  0.011119174  0.010176748         3919 
 3472000   0.69009337   -9.3047686    463.64564  0.011128208  0.010172051         3902 
 3473000   0.67942954   -9.3003686     463.1788  0.011113802  0.010167349         3896 
 3474000   0.68160486   -9.3159583     462.6269  0.011097364  0.010162653         3913 
 3475000   0.70705943   -9.3035287    463.39563  0.011112605  0.010157958         3909 
 3476000   0.69575742   -9.3012607     463.2815  0.011106672  0.010153269         3918 
 3477000   0.67616261   -9.2966006    463.46881  0.011107967   0.01014858         3929 
 3478000    0.7047506   -9.2940799    462.52333  0.011082119  0.010143893         3882 
 3479000   0.68857461    -9.308404    463.24335  0.011096181  0.010139216         3903 
 3480000   0.70982475   -9.3167811    463.42139  0.011097256  0.010134534         3923 
 3481000   0.69842484   -9.3057315    463.07771   0.01108584  0.010129858         3924 
 3482000   0.70634039   -9.3041228    463.55774  0.011094145  0.010125185         3928 
 3483000   0.67797287   -9.3129776     463.5077  0.011089762  0.010120508         3922 
 3484000   0.71049434   -9.3175001    462.14292  0.011053935  0.010115841         3920 
 3485000   0.69295899    -9.316187    462.63917   0.01106263  0.010111177         3921 
 3486000   0.70392867   -9.2873969    463.66359  0.011083945  0.010106513         3925 
 3487000   0.68579205    -9.305717    463.93591  0.011087274  0.010101853         3895 
 3488000   0.68589428   -9.2873284    463.14201  0.011065128  0.010097196         3935 
 3489000   0.68940651   -9.2945151    462.58045  0.011048544  0.010092542         3926 
 3490000   0.69814395   -9.2940806     463.1664   0.01105937  0.010087888         3908 
 3491000   0.68553577   -9.3212805    463.68121  0.011068491  0.010083238         3912 
 3492000    0.6971049   -9.3137445    463.67067   0.01106507  0.010078591         3908 
 3493000    0.6995788   -9.3027057    463.97773  0.011069227  0.010073953         3889 
 3494000   0.67874428   -9.2910593    463.17353  0.011046879   0.01006931         3925 
 3495000    0.6812044   -9.3130725     463.9397  0.011061986  0.010064671         3905 
 3496000   0.68019157    -9.297253    463.70077  0.011053127  0.010060037         3914 
 3497000   0.70285688   -9.2790875    464.69641  0.011073692  0.010055407         3918 
 3498000   0.69200667   -9.3066249    462.25832  0.011012443  0.010050777         3923 
 3499000   0.68965797   -9.2800012     463.4405  0.011037451  0.010046146         3913 
 3500000   0.68403972   -9.2729752    463.59127  0.011037887  0.010041523         3918 
 3501000   0.69961442   -9.2928545    463.97082  0.011043769  0.010036904         3893 
 3502000   0.69138533   -9.3291269    463.31211  0.011024941  0.010032288         3900 
 3503000   0.69036018   -9.3129214    463.07254  0.011016094  0.010027674         3928 
 3504000   0.69214614   -9.2989807    462.98769  0.011010933  0.010023059         3906 
 3505000   0.69102195   -9.3151303    463.13801  0.011011365  0.010018446         3916 
 3506000   0.68190358   -9.2910786    463.53545  0.011017671  0.010013839         3914 
 3507000   0.68594446   -9.2920445    464.52629  0.011038074  0.010009235         3906 
 3508000   0.68491008   -9.2900751    463.56597  0.011012114  0.010004632         3951 
 3509000   0.68834393   -9.3096327    463.95767  0.011018279  0.010000035         3917 
 3510000    0.6905545   -9.2864884    463.04601  0.010993495 0.0099954397         3925 
 3511000   0.69083737   -9.3061116    462.00577  0.010965674 0.0099908412         3919 
 3512000   0.70040072   -9.2919267    463.74239  0.011003758 0.0099862485         3921 
 3513000   0.69562335   -9.3150754    462.30611  0.010966556 0.0099816596         3913 
 3514000   0.68399008   -9.2936386    463.11299  0.010982569 0.0099770792         3916 
 3515000    0.6890633   -9.2960731    463.75829  0.010994744 0.0099724991         3913 
 3516000   0.69369454   -9.2927203     463.1213  0.010976519 0.0099679202         3907 
 3517000   0.69812935   -9.3052113    462.80522  0.010965909 0.0099633451         3921 
 3518000    0.6914939   -9.3069528        464.1  0.010993462  0.009958774         3936 
 3519000    0.7002244   -9.2973235    463.19952  0.010969014 0.0099542004         3926 
 3520000   0.68506623   -9.3094128    463.28384  0.010967894 0.0099496344         3881 
 3521000   0.69217438   -9.3033287      462.401  0.010943884 0.0099450699         3927 
 3522000   0.69711299   -9.3160573    462.78591  0.010949884 0.0099405126         3922 
 3523000   0.68268094   -9.3162309    463.28682  0.010958625  0.009935953         3920 
 3524000   0.68633898   -9.3160229     463.4711  0.010959873  0.009931397         3925 
 3525000   0.68655714   -9.2768975    463.53303  0.010958228 0.0099268449         3911 
 3526000   0.69281755   -9.3119765    463.44336     0.010953 0.0099222958         3899 
 3527000   0.69332938   -9.3029219    464.24936  0.010968939 0.0099177485         3891 
 3528000   0.69019878   -9.3098718    463.75712  0.010954202 0.0099132014         3920 
 3529000   0.68063891   -9.3092446    462.98315  0.010932822 0.0099086559         3928 
 3530000   0.68198201   -9.3036531    462.85624  0.010926729 0.0099041135         3916 
 3531000   0.69362745   -9.2948321    463.26237  0.010933219 0.0098995738         3894 
 3532000    0.6767996   -9.2731429    464.13444  0.010950699 0.0098950358         3919 
 3533000   0.70205282   -9.3426528    463.54368  0.010933665 0.0098905039         3930 
 3534000   0.68288488   -9.3134195    463.41138  0.010927452  0.009885972         3894 
 3535000   0.68567539    -9.323238    463.85797  0.010934889  0.009881443         3919 
 3536000   0.69765266   -9.3318624    462.50546  0.010899921 0.0098769155         3931 
 3537000   0.70835736   -9.3298882    462.60295  0.010899137 0.0098723878         3905 
 3538000   0.67618755   -9.3117933    463.07738  0.010907231 0.0098678677         3910 
 3539000   0.67971219   -9.3193589    462.97701  0.010901785 0.0098633466         3895 
 3540000   0.70059602   -9.3334716    462.73951  0.010893115 0.0098588328         3916 
 3541000   0.68878559   -9.2861007    464.27505  0.010926175 0.0098543196         3908 
 3542000   0.70304628   -9.2884711    463.69116  0.010909353 0.0098498117         3887 
 3543000    0.6817464   -9.3265891    462.48066  0.010877803 0.0098453047         3933 
 3544000   0.68781023   -9.3308358    462.77174  0.010881578  0.009840797         3923 
 3545000   0.68546771   -9.3422545    463.20232   0.01088863 0.0098362953         3915 
 3546000   0.68722026   -9.3264754    462.41605  0.010867081 0.0098317973         3916 
 3547000   0.68411752   -9.3297744    463.78521  0.010896185 0.0098272972         3928 
 3548000   0.67797906   -9.3352953    462.56167  0.010864376 0.0098227997         3931 
 3549000   0.67573697   -9.3125517    463.32613  0.010879265 0.0098183068         3914 
 3550000   0.68622018   -9.3186923    462.31329  0.010852425 0.0098138169         3936 
 3551000   0.68302077    -9.313025    462.79443   0.01086066 0.0098093323         3903 
 3552000   0.67323863   -9.3086024    462.22747  0.010844301 0.0098048481         3896 
 3553000   0.70409952   -9.3285127    462.21187  0.010840883 0.0098003675         3940 
 3554000   0.68141814   -9.3251406    462.90859  0.010854169 0.0097958891         3918 
 3555000   0.68657212   -9.3314832    462.84421  0.010849606 0.0097914156         3925 
 3556000   0.67689905    -9.319281    463.35248  0.010858466 0.0097869444         3916 
 3557000   0.68658746   -9.3107693    463.05764  0.010848506 0.0097824802         3921 
 3558000   0.68771359   -9.3074924    464.25189  0.010873428 0.0097780181         3916 
 3559000   0.69047713   -9.2987399    463.79855  0.010859758 0.0097735566         3912 
 3560000    0.6881859   -9.3123064    462.78446   0.01083297 0.0097691003         3918 
 3561000   0.68562187   -9.3176408    462.62544  0.010826206 0.0097646421         3914 
 3562000   0.69856616   -9.2808001     464.2592  0.010861389 0.0097601884         3891 
 3563000   0.68951726   -9.3438108    463.00825  0.010829082 0.0097557345         3911 
 3564000   0.67571696   -9.3256184    463.05326  0.010827096 0.0097512861         3906 
 3565000   0.68591721   -9.3319876    463.09693   0.01082508 0.0097468318         3917 
 3566000   0.68762083    -9.298255    462.73461  0.010813577 0.0097423878         3902 
 3567000   0.68571688   -9.3355456    463.30198  0.010823801 0.0097379444         3896 
 3568000   0.68382748    -9.330614    462.55137  0.010803237 0.0097335015         3908 
 3569000   0.67988103   -9.3364658    462.69398  0.010803539 0.0097290576         3907 
 3570000    0.6880757   -9.3514123    462.78611  0.010802664 0.0097246225         3902 
 3571000   0.66942254    -9.313827    463.11495  0.010807312 0.0097201897         3919 
 3572000   0.67105574   -9.3088017    462.70891  0.010794814 0.0097157527         3924 
 3573000   0.69356018   -9.3040147    463.37155  0.010807248 0.0097113193         3876 
 3574000   0.68087908   -9.3118726    462.77397   0.01079029 0.0097068948         3938 
 3575000   0.68183753   -9.3309356    462.61921  0.010783664 0.0097024658         3916 
 3576000   0.66771325   -9.3375872    463.28181   0.01079609 0.0096980437         3923 
 3577000   0.66923173   -9.3437476    461.87863  0.010760382  0.009693622         3920 
 3578000   0.67274294   -9.3277116    461.88946  0.010757627 0.0096892019         3927 
 3579000   0.67944852    -9.345393     462.6884  0.010773224 0.0096847856         3918 
 3580000   0.68956455   -9.3259742    463.38323  0.010786388 0.0096803677         3922 
 3581000   0.68909431   -9.3360871    463.33125  0.010782166 0.0096759577         3912 
 3582000   0.67913682    -9.313393    463.43552  0.010781582 0.0096715447         3918 
 3583000   0.68936982   -9.3231257    461.99448  0.010745057 0.0096671356         3917 
 3584000   0.68618489    -9.324443    462.78532  0.010760447 0.0096627284         3924 
 3585000   0.66398627   -9.3401242    462.79251  0.010757613 0.0096583301         3938 
 3586000   0.68260215   -9.3376954    462.10052  0.010738532 0.0096539314         3930 
 3587000   0.67430888   -9.3309136    462.13458   0.01073633 0.0096495365         3913 
 3588000    0.6819456   -9.3358204    462.66048  0.010745552 0.0096451428         3908 
 3589000   0.68128573   -9.3406817    462.36692  0.010735742 0.0096407467         3923 
 3590000   0.69692842   -9.3421171    463.05658   0.01074876 0.0096363555         3928 
 3591000   0.66745163    -9.323128    462.70402  0.010737585  0.009631968         3927 
 3592000   0.66585659   -9.3276613    462.93029  0.010739845 0.0096275839         3923 
 3593000   0.67610588   -9.3570257    461.98012  0.010714819 0.0096232019         3948 
 3594000   0.68379046   -9.3164732    463.12793  0.010738451 0.0096188253         3921 
 3595000   0.65951737   -9.3357502    463.48113  0.010743652 0.0096144477         3936 
 3596000   0.68562081   -9.3454305    462.35851  0.010714648 0.0096100748         3938 
 3597000   0.66439343   -9.3217795    462.74969  0.010720732 0.0096057028         3934 
 3598000   0.67699209   -9.3305209    462.55532  0.010713251 0.0096013336         3933 
 3599000     0.674866   -9.3431188    463.34385  0.010728532 0.0095969628         3925 
 3600000   0.67319236   -9.3240364    462.38085   0.01070326 0.0095925992         3927 
 3601000   0.69057208   -9.3447885    462.87428  0.010711707  0.009588242         3928 
 3602000   0.67638756    -9.360371    462.02808  0.010689156 0.0095838807         3924 
 3603000   0.68128593   -9.3714236    462.33868  0.010693373 0.0095795227         3934 
 3604000   0.68193993   -9.3501942      462.249  0.010688332 0.0095751693         3941 
 3605000    0.6875609   -9.3628364    462.92515  0.010700997 0.0095708202         3918 
 3606000   0.67283189   -9.3537666    462.10379  0.010679049 0.0095664672         3925 
 3607000   0.66835593   -9.3525808    462.12878  0.010676665 0.0095621175         3910 
 3608000   0.66610645   -9.3283612    463.00931  0.010694043 0.0095577723         3921 
 3609000   0.67596002     -9.33893    462.37788    0.0106765 0.0095534285         3915 
 3610000   0.66749633   -9.3186791    463.68004  0.010703602 0.0095490876         3930 
 3611000   0.66450185   -9.3266024    462.32308  0.010669323 0.0095447521         3896 
 3612000   0.66548593   -9.3225694     462.5131  0.010670752 0.0095404203         3883 
 3613000   0.66769089   -9.3469886    462.23384  0.010661358 0.0095360883         3927 
 3614000   0.68969327    -9.343585    462.01682  0.010653404 0.0095317616         3929 
 3615000   0.66643227   -9.3591263    461.10373  0.010629408 0.0095274311         3940 
 3616000   0.68377088   -9.3493573    462.64715  0.010662038 0.0095231109         3919 
 3617000   0.65626487   -9.3488178    461.93137  0.010642599   0.00951879         3924 
 3618000   0.69483328   -9.3155261    462.94648  0.010663038 0.0095144748         3913 
 3619000    0.6547263   -9.3571682    462.59248  0.010651941  0.009510161         3944 
 3620000   0.67113305   -9.3351639    462.01498  0.010635704 0.0095058486         3935 
 3621000   0.66597123    -9.337332    461.72972  0.010626202 0.0095015414         3939 
 3622000   0.68539063   -9.3391742    461.71394  0.010622905  0.009497235         3929 
 3623000   0.66596213    -9.328355     462.5224  0.010638568 0.0094929312         3925 
 3624000   0.69543538   -9.3395626    462.79283  0.010641851 0.0094886321         3931 
 3625000   0.65153045   -9.3587929    462.58627  0.010634167 0.0094843327         3925 
 3626000    0.6708439   -9.3580951     462.2069  0.010622516 0.0094800327         3934 
 3627000   0.69113577   -9.3525796    462.37829  0.010623525   0.00947574         3921 
 3628000   0.68085265   -9.3391679    461.27974  0.010595363 0.0094714491         3952 
 3629000   0.66657105   -9.3536686    462.45786  0.010619497 0.0094671606         3934 
 3630000   0.69358544   -9.3213317    462.22694  0.010611271 0.0094628786         3920 
 3631000   0.67108734   -9.3479483    462.50051  0.010614627 0.0094585951         3930 
 3632000   0.66297517   -9.3529356    462.56322  0.010613143  0.009454314         3936 
 3633000   0.67107584   -9.3359276    461.91316  0.010595311 0.0094500311         3924 
 3634000   0.65578966   -9.3567131    463.05535  0.010618587  0.009445753         3932 
 3635000   0.66904313   -9.3358576    462.78763  0.010609528 0.0094414782         3934 
 3636000   0.67704356   -9.3529537    462.48703  0.010599721 0.0094372097         3928 
 3637000   0.67983191   -9.3731689    461.98444  0.010585291  0.009432942         3930 
 3638000   0.66575329   -9.3529274    462.11894  0.010585462 0.0094286754         3947 
 3639000   0.65804583   -9.3576365    462.72324  0.010596392 0.0094244121         3912 
 3640000   0.65671417   -9.3530864    462.93858  0.010598411 0.0094201545         3923 
 3641000   0.67181746   -9.3354565    462.63275    0.0105885 0.0094158916         3911 
 3642000   0.67886121      -9.3458    461.95148  0.010570005 0.0094116403         3930 
 3643000   0.67226231   -9.3513115    462.50968  0.010579872 0.0094073874         3911 
 3644000   0.67084178    -9.371611     462.2942  0.010572041 0.0094031376         3914 
 3645000   0.68370987   -9.3456477    462.36168  0.010570683 0.0093988905         3940 
 3646000   0.66254254   -9.3578151    461.78393  0.010554579 0.0093946445         3944 
 3647000   0.67861201   -9.3451484    463.02538  0.010580052 0.0093904038         3929 
 3648000   0.66828062   -9.3344324    461.47827   0.01054181 0.0093861643         3942 
 3649000   0.66822336   -9.3659571    461.57076  0.010541033 0.0093819241         3946 
 3650000   0.65603309   -9.3433225    462.79375  0.010566067 0.0093776873         3930 
 3651000   0.66613606   -9.3426426     462.5853  0.010558415 0.0093734487         3926 
 3652000   0.66769848   -9.3540762    461.86033  0.010538982 0.0093692124         3923 
 3653000   0.65265785   -9.3697293    462.03677  0.010540122 0.0093649859         3924 
 3654000   0.67508106   -9.3474938    461.91483  0.010534456 0.0093607633         3914 
 3655000   0.65701549   -9.3679143     462.3425  0.010541325 0.0093565413         3924 
 3656000   0.66544456   -9.3584392    462.30662  0.010537624 0.0093523184         3931 
 3657000     0.671249   -9.3527022    461.80346  0.010523276 0.0093480986         3939 
 3658000   0.67312694   -9.3476158    462.75961  0.010542182 0.0093438885         3939 
 3659000   0.66140676   -9.3466269    461.99737  0.010521941 0.0093396731         3923 
 3660000   0.66104063   -9.3569919     462.6647   0.01053426 0.0093354666         3903 
 3661000   0.66288146   -9.3597431    462.15901  0.010519872 0.0093312604         3926 
 3662000   0.67006197   -9.3554039     462.1963  0.010517848 0.0093270506         3918 
 3663000   0.66462618    -9.347102    462.65491   0.01052541   0.00932285         3934 
 3664000   0.66560401   -9.3670407    461.63697  0.010499385 0.0093186487         3920 
 3665000   0.67015759   -9.3727002    462.28808  0.010511325 0.0093144546         3918 
 3666000   0.65513243   -9.3625403    462.20754  0.010506627 0.0093102547         3932 
 3667000   0.66597652   -9.3173951    462.07189  0.010500679 0.0093060604         3945 
 3668000   0.66583536   -9.3446522    461.66207  0.010488506 0.0093018675         3942 
 3669000    0.6564041   -9.3771787      462.661  0.010508336 0.0092976809         3920 
 3670000   0.64172101   -9.3460994    463.83052  0.010532028 0.0092934968         3928 
 3671000   0.66792268   -9.3527658    461.92065  0.010485804 0.0092893169         3942 
 3672000   0.66050712   -9.3604443     461.8042  0.010480306 0.0092851345         3947 
 3673000   0.66772919   -9.3603745    461.32519  0.010466585 0.0092809566         3938 
 3674000   0.66757141   -9.3770271    461.90628  0.010476916 0.0092767812         3931 
 3675000   0.66870589   -9.3593457    461.69215   0.01046921 0.0092726082         3945 
 3676000   0.65113838   -9.3778279      462.428  0.010483043  0.009268431         3920 
 3677000   0.66009587   -9.3488228    461.91124  0.010468481 0.0092642604         3936 
 3678000   0.66750977   -9.3577227    462.05255  0.010468836 0.0092600935         3928 
 3679000   0.66257258    -9.337558    461.95504  0.010463782  0.009255929         3920 
 3680000   0.65847284   -9.3715464    461.43607  0.010449186 0.0092517674         3919 
 3681000   0.67577296   -9.3584864    462.62843  0.010473341 0.0092476088         3927 
 3682000    0.6534066    -9.358793    462.57849  0.010469367 0.0092434526         3932 
 3683000   0.66810718   -9.3655996    462.71063  0.010469514 0.0092392986         3924 
 3684000   0.65090417   -9.3723209    461.86082  0.010447449 0.0092351482         3944 
 3685000   0.65554955   -9.3536501    462.47997  0.010458615 0.0092309941         3914 
 3686000   0.66062306   -9.3473267     461.7488  0.010439248 0.0092268474         3914 
 3687000   0.66667759   -9.3495961    461.71878  0.010435738 0.0092227024         3931 
 3688000   0.65417776    -9.358797    460.47876  0.010404889 0.0092185552         3921 
 3689000   0.67363795   -9.3747529    460.87051  0.010410918 0.0092144119         3933 
 3690000   0.65519842   -9.3603434    462.05834  0.010434922 0.0092102751         3928 
 3691000   0.64304733   -9.3612277    461.84424  0.010427261 0.0092061371         3923 
 3692000   0.65441553   -9.3698195     461.9689   0.01042725 0.0092020009         3931 
 3693000   0.64998559   -9.3547016    462.18981  0.010429412 0.0091978717         3933 
 3694000   0.66497759   -9.3823792    461.54463  0.010412034 0.0091937404         3931 
 3695000   0.66572356   -9.3721962    461.30692  0.010403855 0.0091896145         3924 
 3696000   0.64484979   -9.3772094    461.37053  0.010402474 0.0091854896         3924 
 3697000     0.662553   -9.3538884    461.70799  0.010407267  0.009181369         3917 
 3698000    0.6574693   -9.3609427    461.55097  0.010400914 0.0091772493         3925 
 3699000    0.6685078   -9.3496857    461.90909   0.01040617 0.0091731328         3930 
 3700000   0.66088172   -9.3605142    462.22427  0.010410456 0.0091690186         3929 
 3701000   0.64580141   -9.3547254    462.28623  0.010409039 0.0091649032         3937 
 3702000   0.66491409   -9.3538052    461.54786  0.010389606 0.0091607924         3923 
 3703000   0.67128856   -9.3655665    462.01281  0.010397264 0.0091566846         3919 
 3704000   0.66814721   -9.3441708    461.48012  0.010382472 0.0091525775         3929 
 3705000   0.64540758   -9.3669364    461.88265  0.010388724 0.0091484754         3934 
 3706000   0.65195379   -9.3760953    461.34466  0.010373823 0.0091443717         3928 
 3707000   0.64739449   -9.3604322    461.70542  0.010379134 0.0091402715         3942 
 3708000   0.67958969   -9.3768159    461.18761  0.010364698 0.0091361707         3921 
 3709000   0.65535338    -9.373164    461.80531  0.010375782 0.0091320759         3937 
 3710000   0.66394892   -9.3988422    461.40076  0.010363898 0.0091279854         3906 
 3711000   0.67598008   -9.3779605    461.58736  0.010365296 0.0091238962         3938 
 3712000   0.65830942   -9.3713211    461.49802  0.010360498  0.009119812         3947 
 3713000    0.6659404   -9.3816617    461.23249  0.010351748  0.009115728         3909 
 3714000   0.65724051   -9.3591546    460.95383  0.010342708 0.0091116422         3938 
 3715000   0.66301549   -9.3804409    461.25414  0.010346661 0.0091075633         3919 
 3716000   0.65331241   -9.3457814    462.08947  0.010362609   0.00910349         3956 
 3717000   0.65753537   -9.3443929    462.17029  0.010361633  0.009099418         3936 
 3718000   0.65089099    -9.356217    461.72287  0.010348818 0.0090953488         3941 
 3719000   0.65925919   -9.3677468    461.95121  0.010351152 0.0090912787         3934 
 3720000   0.66313439   -9.3787091    461.45069  0.010337157 0.0090872061         3948 
 3721000   0.66479015   -9.3731042    461.53558   0.01033628 0.0090831438         3940 
 3722000   0.65828991    -9.374466    461.06197  0.010322899 0.0090790852         3953 
 3723000   0.65243936   -9.3655481    462.12165  0.010343846  0.009075027         3930 
 3724000   0.66173808   -9.3809626     461.6758  0.010331091 0.0090709713         3935 
 3725000   0.65405467   -9.3866449    461.20694  0.010317829  0.009066918         3944 
 3726000   0.67023973   -9.3805482    461.57553  0.010323303 0.0090628687         3928 
 3727000   0.65334418   -9.3711908    461.59536  0.010320977  0.009058819         3921 
 3728000    0.6611083   -9.3872126    461.11105  0.010307382 0.0090547752         3936 
 3729000   0.64830306   -9.3738957     462.0041  0.010324575 0.0090507289         3935 
 3730000     0.652294   -9.3879152    461.11041  0.010301841  0.009046687         3935 
 3731000   0.64994114   -9.3743273    461.06813  0.010298136 0.0090426445         3924 
 3732000   0.64248826   -9.3442731    461.26168  0.010299698 0.0090386038         3940 
 3733000   0.64983818   -9.3696813     462.0033  0.010313494 0.0090345681         3929 
 3734000   0.65508245   -9.3778752    462.35603  0.010318604 0.0090305343         3940 
 3735000   0.65308376   -9.3397317    461.86999  0.010304997 0.0090265026         3921 
 3736000   0.66370353   -9.3733789    461.79995  0.010300677 0.0090224767         3927 
 3737000    0.6612413   -9.3788076    461.71301  0.010295982 0.0090184515         3928 
 3738000   0.65018454   -9.3688202    461.13321  0.010280302  0.009014421         3919 
 3739000   0.63380722   -9.3857689    461.38816  0.010283234 0.0090103964         3921 
 3740000    0.6491755   -9.3536838    462.26304  0.010299979  0.009006379         3905 
 3741000    0.6567218   -9.3660222    462.65626  0.010305985 0.0090023626         3906 
 3742000   0.65470178   -9.3667054    462.06821  0.010290135  0.008998351         3922 
 3743000   0.63627826   -9.4016948    461.44276  0.010273461 0.0089943359         3926 
 3744000   0.64211501   -9.3887494     461.7323  0.010277161 0.0089903217         3931 
 3745000   0.64888299   -9.3735344    461.66789  0.010272984 0.0089863175         3947 
 3746000   0.65805154    -9.371035    461.92992   0.01027607 0.0089823101         3938 
 3747000    0.6453434   -9.3802894    461.53059  0.010264447 0.0089783073         3938 
 3748000   0.64653817   -9.3660911     462.2207  0.010277052 0.0089743032         3924 
 3749000   0.64922429   -9.3666886    461.48301  0.010257913 0.0089703086         3947 
 3750000   0.64746976    -9.367117    462.55702  0.010279045 0.0089663111         3931 
 3751000   0.65305228   -9.4036821    461.12672  0.010244529 0.0089623192         3923 
 3752000   0.66056277   -9.3697569    462.28682  0.010267565  0.008958329         3910 
 3753000   0.67066903   -9.3827268     461.2351  0.010241476 0.0089543394         3920 
 3754000   0.66208963   -9.3944255    461.77918  0.010250825 0.0089503536         3936 
 3755000   0.66389846    -9.384278    461.20322  0.010235313 0.0089463663         3932 
 3756000   0.65074557   -9.3682766    462.65936  0.010264895 0.0089423864         3937 
 3757000   0.64213431   -9.3958412    461.28139  0.010231599 0.0089384097         3926 
 3758000   0.64650787   -9.3912135    461.22667  0.010227663 0.0089344308         3934 
 3759000   0.64787092   -9.3910783    461.56883  0.010232527 0.0089304554         3926 
 3760000   0.64809169   -9.3621511    461.61957   0.01023093 0.0089264846         3913 
 3761000   0.64936069   -9.3700401     461.6989  0.010229968 0.0089225131         3931 
 3762000   0.65518168   -9.3552346    462.24283  0.010239297 0.0089185489         3937 
 3763000   0.63458098   -9.3849562    461.28408  0.010215344 0.0089145857         3931 
 3764000   0.63365488   -9.3881889     461.8648  0.010225487 0.0089106222         3936 
 3765000   0.65819192   -9.3713061    461.19382   0.01020792 0.0089066643         3954 
 3766000   0.66673171   -9.3732723    462.08914  0.010225021 0.0089027088         3931 
 3767000   0.64733309   -9.3570667    460.50419  0.010187244 0.0088987523         3936 
 3768000   0.64974588   -9.3921017    460.49549  0.010184348 0.0088947994         3943 
 3769000   0.64700874   -9.4026315    461.47976  0.010203408 0.0088908477         3949 
 3770000   0.62943541   -9.3901458    460.83796  0.010186515 0.0088868971         3923 
 3771000   0.64461058   -9.3687794    462.35073  0.010217244  0.008882949         3926 
 3772000   0.65091911   -9.3759713    461.65036  0.010199062 0.0088790068         3956 
 3773000   0.64251263   -9.3937961    461.61613  0.010195603 0.0088750669         3942 
 3774000   0.65813919   -9.3789538    461.66994   0.01019409 0.0088711284         3919 
 3775000   0.64627215   -9.4113065    461.53292  0.010188365 0.0088671909         3925 
 3776000   0.64332707     -9.38791    462.11538  0.010198521 0.0088632555         3933 
 3777000   0.64844182    -9.386462    461.79963  0.010188854  0.008859323         3958 
 3778000   0.64694449   -9.3912927    461.34679  0.010176169 0.0088553922         3935 
 3779000   0.62820383   -9.3702994    461.61849  0.010179468 0.0088514618         3936 
 3780000   0.66735364   -9.3851213    461.35448  0.010170954 0.0088475376         3949 
 3781000    0.6532654   -9.3836126    461.52378  0.010171996 0.0088436161         3951 
 3782000    0.6418931   -9.3484792    461.65856  0.010172276 0.0088396966         3930 
 3783000   0.66388525   -9.4026576    461.39632   0.01016381 0.0088357778         3942 
 3784000   0.65430457   -9.3954078    461.17421  0.010156233 0.0088318656         3930 
 3785000   0.65311636   -9.4070399    461.89221  0.010169357 0.0088279518         3947 
 3786000   0.65488974   -9.3961897    460.98834  0.010146776  0.008824039         3932 
 3787000   0.65667656   -9.3848449    461.94431  0.010165133  0.008820131         3954 
 3788000   0.64678455    -9.385471    461.87436  0.010160911 0.0088162238         3946 
 3789000    0.6429929   -9.3858909    460.68814   0.01013214 0.0088123181         3939 
 3790000   0.65138136   -9.3851591    461.06583  0.010137771 0.0088084163         3936 
 3791000    0.6321741   -9.3654988    461.30831  0.010140427 0.0088045187         3953 
 3792000   0.64131196   -9.3839979    460.96563  0.010130222 0.0088006232         3922 
 3793000    0.6469845   -9.3753653    461.12866  0.010131133 0.0087967276         3930 
 3794000   0.64507581   -9.3866769    461.30534  0.010132344 0.0087928357         3931 
 3795000   0.63947915   -9.3731316    462.00109  0.010144951 0.0087889482         3918 
 3796000   0.63340517   -9.3928405    461.02017  0.010120745 0.0087850619         3920 
 3797000    0.6371829   -9.3674226      460.958  0.010116715 0.0087811747         3901 
 3798000   0.64081797   -9.3949528    460.87585  0.010112249 0.0087772945         3944 
 3799000   0.64565869   -9.3825167    460.53351  0.010102078 0.0087734158         3914 
 3800000    0.6310765   -9.3715892    460.91211  0.010107722 0.0087695387         3943 
 3801000   0.64742622   -9.3849529    461.42902  0.010116395 0.0087656623         3931 
 3802000   0.64849752    -9.399726    461.01369  0.010104631  0.008761785         3952 
 3803000   0.65398801   -9.3980563     460.2673  0.010085619 0.0087579124         3937 
 3804000   0.65832362   -9.4023814    460.38086  0.010085455 0.0087540463         3935 
 3805000   0.63187769   -9.3866722      461.122  0.010099036 0.0087501842         3938 
 3806000   0.64975753    -9.388569    460.49964  0.010082756 0.0087463206         3936 
 3807000   0.63716784   -9.3687926    461.61348  0.010104489 0.0087424593         3937 
 3808000   0.64533786   -9.3898522    461.49767  0.010099301 0.0087386007         3938 
 3809000   0.65018479   -9.3933549    461.18198  0.010089743 0.0087347411         3946 
 3810000   0.64624945   -9.3892149    461.33445   0.01009043  0.008730887         3935 
 3811000   0.63090184   -9.3893757    461.83653  0.010098761 0.0087270334         3931 
 3812000   0.62545186    -9.406514    461.28121  0.010083972 0.0087231838         3939 
 3813000   0.65799808    -9.414524    461.78561  0.010092351 0.0087193334         3942 
 3814000   0.64237179   -9.3785296    461.91945  0.010092629 0.0087154894         3922 
 3815000   0.63960158   -9.4094996    461.33511   0.01007722 0.0087116462         3942 
 3816000   0.64084603   -9.3904254    460.65361  0.010059696 0.0087078052         3930 
 3817000   0.65532275   -9.3825934    461.05837  0.010065898 0.0087039651         3945 
 3818000   0.63133117   -9.3977794    461.31352   0.01006883  0.008700126         3915 
 3819000   0.64175414   -9.4127794    460.85976  0.010056292 0.0086962917         3926 
 3820000   0.65592128   -9.3967231     461.5839  0.010069457 0.0086924598         3934 
 3821000   0.64487308   -9.3669995    461.54004  0.010065865 0.0086886288         3941 
 3822000   0.63863433   -9.4016274    461.42689  0.010060764 0.0086848022         3937 
 3823000   0.66620628   -9.3869226     461.8143  0.010066577 0.0086809743         3941 
 3824000   0.64562091   -9.4027636     460.8543  0.010043024 0.0086771482         3933 
 3825000   0.64518352   -9.4217736    461.01559  0.010043913  0.008673324         3939 
 3826000   0.62903858   -9.3878519    461.43212   0.01005036  0.008669508         3925 
 3827000   0.63460591     -9.39132    460.81581  0.010034313 0.0086656924         3924 
 3828000   0.65179099    -9.406264    460.83062  0.010032014 0.0086618757         3919 
 3829000   0.63692194   -9.3953389    461.25761  0.010038687 0.0086580635         3944 
 3830000   0.64120023   -9.4103929    460.63569  0.010022535 0.0086542547         3937 
 3831000   0.63867793   -9.4058666    461.40441   0.01003664 0.0086504498         3935 
 3832000   0.65229751   -9.3871566    461.63478  0.010039031 0.0086466438         3934 
 3833000   0.62793445   -9.3953404    461.50736  0.010033641 0.0086428433         3925 
 3834000   0.65488515   -9.3989523    461.15877  0.010023447  0.008639041         3936 
 3835000   0.63383229   -9.3973353    460.57956  0.010008248 0.0086352409         3931 
 3836000   0.65051924   -9.4154634    460.73282  0.010008968 0.0086314478         3923 
 3837000   0.65045728   -9.3985882    461.44766  0.010021885  0.008627653         3938 
 3838000   0.63401172   -9.4155546    461.29878  0.010016041 0.0086238611         3933 
 3839000   0.64364467   -9.3924023    460.56466 0.0099974963 0.0086200697         3929 
 3840000   0.63722391    -9.400498    461.25902  0.010009961 0.0086162806         3945 
 3841000   0.62972908   -9.3954099    461.91508  0.010021589 0.0086124905         3926 
 3842000    0.6401021    -9.412401    460.83705  0.009995598 0.0086087065         3946 
 3843000   0.64102669   -9.3834258    460.09142 0.0099768284 0.0086049238         3943 
 3844000   0.63516322   -9.3987085     460.5631 0.0099844584 0.0086011458         3943 
 3845000   0.62768427   -9.4070145    460.80956 0.0099872033 0.0085973672         3941 
 3846000   0.63635752   -9.4054235     460.6278 0.0099806682  0.008593593         3940 
 3847000   0.64443481   -9.3942459     461.5589 0.0099982433 0.0085898218         3927 
 3848000   0.62326324   -9.3949908    461.79533  0.010000765 0.0085860526         3945 
 3849000   0.63040483   -9.4116261    461.15965 0.0099844039 0.0085822834         3935 
 3850000   0.62347496     -9.38277    461.91617 0.0099981855 0.0085785171         3939 
 3851000   0.64245622   -9.4223125    461.25233  0.009981224 0.0085747506         3931 
 3852000   0.63762492   -9.4111107    460.30367 0.0099581098 0.0085709909         3943 
 3853000     0.628566   -9.4043772    460.89631  0.009968343  0.008567229         3948 
 3854000   0.64056236    -9.407056    461.56243 0.0099801599 0.0085634673         3952 
 3855000   0.61883887   -9.4279214    460.87958 0.0099628099 0.0085597113         3946 
 3856000   0.62919717    -9.406082     461.4084 0.0099716546 0.0085559569         3922 
 3857000   0.62583885   -9.4165875    461.11873 0.0099628106 0.0085522105         3955 
 3858000   0.62180962   -9.4020372    461.16616 0.0099612529  0.008548461         3936 
 3859000   0.62344461   -9.4204752    460.38632 0.0099418311 0.0085447151         3940 
 3860000   0.63663838   -9.4045093    460.60399 0.0099439548 0.0085409694         3949 
 3861000   0.63085676    -9.399438    461.51517 0.0099610456 0.0085372241         3937 
 3862000   0.63535531   -9.4017785    461.40919 0.0099561797 0.0085334846         3940 
 3863000   0.61674997    -9.391618    461.42456  0.009953934 0.0085297438         3924 
 3864000   0.63422897   -9.3994984    460.25263 0.0099260832 0.0085260082         3948 
 3865000    0.6399077   -9.4171454    461.86259 0.0099582275 0.0085222755         3937 
 3866000   0.64158247   -9.3996217    460.98936 0.0099368288 0.0085185419         3944 
 3867000   0.63845369   -9.4109101    461.35554 0.0099421503  0.008514814         3945 
 3868000   0.63074319   -9.4021812    461.22102 0.0099366818 0.0085110878         3929 
 3869000   0.63773968   -9.4114624    461.15938 0.0099327859 0.0085073642         3931 
 3870000    0.6379211   -9.3968983    459.92519 0.0099036431 0.0085036408         3938 
 3871000   0.62751103   -9.4259533    460.54833 0.0099144994 0.0084999195         3908 
 3872000   0.63176734   -9.4012204    460.81029 0.0099175768  0.008496202         3922 
 3873000   0.63051002   -9.4001503    461.38329  0.009927345 0.0084924834         3944 
 3874000   0.62802062   -9.3820672    461.21789 0.0099212246 0.0084887658         3924 
 3875000   0.61998561   -9.4323496    461.08572 0.0099158219 0.0084850552         3947 
 3876000   0.62156899   -9.4238173    461.14961 0.0099146374 0.0084813445         3911 
 3877000   0.63696944   -9.4111988    460.69796 0.0099023721 0.0084776388         3933 
 3878000   0.63974409   -9.4114187    460.92457 0.0099046882 0.0084739298         3944 
 3879000   0.63683179   -9.4027802    460.51939 0.0098934302 0.0084702267         3928 
 3880000   0.64121978   -9.3986573    461.11922 0.0099037633 0.0084665268         3944 
 3881000   0.62488354   -9.4294747    461.14796 0.0099018285 0.0084628269         3946 
 3882000   0.62164852   -9.4165862    461.17517 0.0098998621 0.0084591317         3926 
 3883000   0.63628298   -9.3981477    461.23185 0.0098985288 0.0084554364         3944 
 3884000   0.64096556   -9.4181496    460.17957 0.0098734031 0.0084517443         3933 
 3885000   0.63822364   -9.3867832    461.02348 0.0098889636 0.0084480557         3929 
 3886000   0.64226857   -9.3910098    461.55066 0.0098977239 0.0084443666         3903 
 3887000   0.63179329   -9.4168375    460.49783 0.0098726059  0.008440681         3945 
 3888000   0.62492833   -9.4217173    461.06204 0.0098821596 0.0084369971         3933 
 3889000    0.6393275   -9.4157696    461.18221 0.0098821935 0.0084333154         3947 
 3890000   0.62531975   -9.3901241    461.20337 0.0098801064 0.0084296372         3950 
 3891000   0.63623569    -9.428577    461.41507 0.0098821012 0.0084259636         3936 
 3892000   0.63824978   -9.4142452    460.17135 0.0098529324 0.0084222892         3930 
 3893000   0.62135555   -9.3902571    460.70322 0.0098617865 0.0084186159         3933 
 3894000   0.63632981   -9.4178561    460.65692 0.0098582631 0.0084149445         3927 
 3895000   0.64300527   -9.4229196    461.26514  0.009868745 0.0084112742         3922 
 3896000   0.62221538   -9.4326272    460.42277 0.0098481941 0.0084076027         3943 
 3897000   0.62429412   -9.4358514    460.94656 0.0098568678 0.0084039367         3941 
 3898000   0.62821781   -9.3924562     461.2208 0.0098602018 0.0084002723         3937 
 3899000    0.6386856   -9.4122756    459.74373 0.0098261036 0.0083966127         3920 
 3900000   0.62837761   -9.3999445    460.71914 0.0098444261 0.0083929547         3951 
 3901000   0.62196608    -9.406301    460.91305 0.0098460449 0.0083892983         3930 
 3902000   0.63521396   -9.3956211    459.85757 0.0098209802 0.0083856437         3926 
 3903000   0.64783076   -9.4264125    460.91233  0.009840984 0.0083819924         3937 
 3904000   0.62854855   -9.4080474    460.56751 0.0098311028 0.0083783413         3943 
 3905000   0.61986624   -9.4343918    460.17939 0.0098203029 0.0083746927         3936 
 3906000   0.63134117   -9.4351251    459.74164 0.0098084494 0.0083710472         3926 
 3907000   0.62531681   -9.4296972    460.52432 0.0098226329 0.0083674028         3938 
 3908000   0.61875028   -9.4102045     460.2522 0.0098143169 0.0083637592         3923 
 3909000   0.61803267   -9.4208754    460.68619  0.009821058 0.0083601194         3947 
 3910000   0.62673803   -9.4180718     459.8606 0.0098009505 0.0083564826         3929 
 3911000   0.62663921    -9.418422    460.43805 0.0098107485  0.008352846         3937 
 3912000   0.61998296   -9.4495377    460.10456 0.0098011367 0.0083492115         3916 
 3913000   0.62782404   -9.4251037    461.31895 0.0098244941 0.0083455781         3928 
 3914000   0.61707721    -9.454241    460.29838  0.009800255 0.0083419473         3955 
 3915000   0.60579448   -9.4130187    460.77216 0.0098078366 0.0083383183         3961 
 3916000   0.61860569    -9.418035    460.93443  0.009808785 0.0083346891         3946 
 3917000   0.63312286   -9.4228779    460.58484 0.0097988435 0.0083310624         3950 
 3918000   0.62004954   -9.4003473    460.56609 0.0097959437 0.0083274383         3938 
 3919000   0.63116292   -9.4288943    460.79391 0.0097982885 0.0083238196         3940 
 3920000   0.61762356   -9.4112009     460.2451 0.0097841221 0.0083201998         3930 
 3921000   0.62165849   -9.4347512    460.80214 0.0097934655 0.0083165825         3931 
 3922000   0.62509262   -9.4166717    461.26562 0.0098008163 0.0083129684         3934 
 3923000   0.62269842   -9.4614279     460.6407 0.0097850434 0.0083093543         3952 
 3924000   0.62958008   -9.4304586    460.08479  0.009770744 0.0083057446         3949 
 3925000   0.61618665   -9.4078907    459.90837 0.0097645089 0.0083021391         3962 
 3926000    0.6230618   -9.4168795    460.56059 0.0097758659 0.0082985313         3944 
 3927000   0.61737787   -9.4237907     460.4605 0.0097712525 0.0082949299         3960 
 3928000   0.62321568    -9.418709    460.80589 0.0097760924 0.0082913257         3930 
 3929000   0.62614136   -9.4200382    460.63746 0.0097700319 0.0082877271         3948 
 3930000   0.60624184   -9.4131017    460.82104 0.0097714386 0.0082841309         3934 
 3931000   0.61984216   -9.4176993    461.35885 0.0097803537 0.0082805372         3947 
 3932000   0.63374257   -9.4327586     460.7573 0.0097651174 0.0082769459         3945 
 3933000   0.62684183   -9.4352328    459.86968 0.0097438275 0.0082733533         3934 
 3934000   0.63427466   -9.4155708    459.69225 0.0097375922 0.0082697656         3944 
 3935000   0.62659262   -9.4242114    460.80572 0.0097586981 0.0082661788         3954 
 3936000   0.62014756   -9.4094555    460.65042 0.0097529305 0.0082625938         3923 
 3937000   0.62136882   -9.4351681    460.59439 0.0097492675  0.008259014         3947 
 3938000   0.63006587   -9.4167322    460.73524 0.0097497723 0.0082554343         3935 
 3939000   0.63639159   -9.4307277    460.69848 0.0097465193 0.0082518585         3941 
 3940000   0.62686257    -9.438018     460.5864  0.009741675 0.0082482854         3922 
 3941000    0.6198896   -9.4048835     461.0461 0.0097489237 0.0082447131         3929 
 3942000   0.62514886    -9.407986    461.09333  0.009747449 0.0082411453         3923 
 3943000   0.64059545   -9.4311183    460.59375 0.0097344186 0.0082375782         3938 
 3944000   0.62363928   -9.4406112     460.0559 0.0097205862 0.0082340137         3927 
 3945000   0.61169387   -9.4241183    460.38552 0.0097250849 0.0082304489         3941 
 3946000   0.61551124    -9.415336    460.93705 0.0097342679 0.0082268888         3943 
 3947000   0.60832738   -9.4426688    459.58941 0.0097033488 0.0082233281         3937 
 3948000   0.62650924   -9.4187485    460.12068 0.0097121049 0.0082197666         3941 
 3949000   0.61653231   -9.4452426    460.44874 0.0097165683 0.0082162095         3910 
 3950000   0.61622227   -9.4262249    460.23539 0.0097096075 0.0082126578         3943 
 3951000    0.6045559   -9.4200388     460.8453  0.009720014 0.0082091029         3926 
 3952000   0.61547789   -9.4290187    459.38577 0.0096867782 0.0082055526         3928 
 3953000   0.61364969   -9.4311847    460.28892 0.0097033671 0.0082020062         3950 
 3954000   0.61553618   -9.4297555    460.50431 0.0097054524 0.0081984602         3925 
 3955000   0.61982015   -9.4434416    461.02355  0.009713939 0.0081949138         3945 
 3956000   0.61095818   -9.4150855    460.47399 0.0096999071  0.008191369         3916 
 3957000   0.62883451   -9.4278348     460.4643 0.0096972518 0.0081878299         3926 
 3958000   0.61507551   -9.4451241    460.60456 0.0096977547 0.0081842887         3938 
 3959000   0.61888368   -9.4194933    459.57262 0.0096735838  0.008180753         3925 
 3960000   0.62721962    -9.422582    460.13654  0.009683008 0.0081772204         3931 
 3961000   0.61364359   -9.4302064     460.0415 0.0096785639  0.008173689         3934 
 3962000   0.60822754   -9.4196929    460.59177  0.009687695 0.0081701592         3936 
 3963000   0.62238505    -9.421507     460.0981 0.0096748696 0.0081666302         3949 
 3964000   0.62380318   -9.4539211    460.36847 0.0096781128 0.0081631037         3950 
 3965000   0.60512933   -9.4390298    460.30794 0.0096743997 0.0081595801         3936 
 3966000   0.61507015   -9.4379029    460.50737 0.0096761508 0.0081560577         3950 
 3967000   0.61879448    -9.432905    460.39213 0.0096712908 0.0081525395         3944 
 3968000    0.6086069   -9.4314534    460.80625 0.0096775507 0.0081490207         3947 
 3969000   0.61358694   -9.4278626    460.41703 0.0096669403 0.0081455026         3954 
 3970000   0.62363732     -9.43704    459.69002 0.0096492448  0.008141988         3958 
 3971000   0.62292809   -9.4187592     460.1193 0.0096558235 0.0081384771         3938 
 3972000   0.62053713   -9.4396885    460.13963  0.009653819 0.0081349661         3940 
 3973000   0.60933593   -9.4523431    459.68311 0.0096418138 0.0081314592         3943 
 3974000   0.61531799   -9.4226168    460.27898 0.0096518828 0.0081279515         3940 
 3975000   0.60456618   -9.4503247    460.77311 0.0096598137 0.0081244484         3954 
 3976000   0.62208831   -9.4373586    459.98607 0.0096408885 0.0081209463         3932 
 3977000   0.61188952   -9.4181473    459.80215 0.0096346105 0.0081174475         3923 
 3978000   0.59935619   -9.4380618    459.94507 0.0096351824 0.0081139516         3940 
 3979000   0.61361419   -9.4479645    459.99948 0.0096339005 0.0081104568         3940 
 3980000   0.61372087   -9.4504945     460.0687 0.0096329293 0.0081069644         3926 
 3981000   0.60674632   -9.4303761    459.75345 0.0096239104 0.0081034726         3918 
 3982000   0.62722473    -9.453678    460.25984 0.0096320912 0.0080999824         3937 
 3983000    0.6183676   -9.4501145    459.43055 0.0096123221 0.0080964957         3949 
 3984000   0.61336789   -9.4402796    460.47369 0.0096317289 0.0080930089         3948 
 3985000   0.62208154   -9.4382996    460.35329  0.009626794 0.0080895252         3945 
 3986000   0.60203217   -9.4460031    460.63457 0.0096302594 0.0080860427         3934 
 3987000   0.61692028   -9.4552705    460.07673 0.0096161845 0.0080825635         3946 
 3988000   0.61620395   -9.4522675    460.70254 0.0096268501 0.0080790877         3915 
 3989000   0.61810437   -9.4247524    460.76136 0.0096256655 0.0080756119         3943 
 3990000   0.61393951   -9.4660192     460.0326 0.0096080325   0.00807214         3951 
 3991000   0.60490616   -9.4253186     460.4976 0.0096153345  0.008068666         3946 
 3992000   0.61294368   -9.4514721     460.1211 0.0096050664 0.0080651936         3942 
 3993000   0.61331359   -9.4217382    460.43791 0.0096092727 0.0080617279         3945 
 3994000   0.60469016    -9.431879    459.11325 0.0095792282   0.00805826         3949 
 3995000   0.60000536   -9.4339463    459.73084  0.009589713 0.0080547955         3946 
 3996000   0.61553315    -9.423234    459.57699 0.0095841047 0.0080513307         3939 
 3997000   0.62521331    -9.452685     459.5997 0.0095821804 0.0080478707         3938 
 3998000   0.62021168   -9.4269853    460.95908 0.0096081181 0.0080444157         3955 
 3999000   0.60631508   -9.4298783    459.35805 0.0095723524 0.0080409583         3950 
 4000000   0.63317124   -9.4620925    459.22181 0.0095671209 0.0080375033         3952 
 4001000   0.60447749   -9.4198662    461.23608 0.0096066833   0.00803405         3924 
 4002000   0.59463328   -9.4313385    459.81208  0.009574631  0.008030605         3949 
 4003000   0.60267557   -9.4192984    460.57208 0.0095880606 0.0080271592         3937 
 4004000     0.617968   -9.4314614    460.77458 0.0095898805 0.0080237136         3939 
 4005000   0.60663552   -9.4202233    460.59782 0.0095838082 0.0080202702         3914 
 4006000    0.5989789   -9.4295543    460.58371 0.0095811223 0.0080168312         3935 
 4007000   0.59413452    -9.439505     459.2566 0.0095511313 0.0080133904         3949 
 4008000   0.61983117    -9.443753     460.0959 0.0095661988  0.008009951         3939 
 4009000   0.60049642   -9.4459271    459.62323 0.0095539876  0.008006514         3945 
 4010000   0.59848216   -9.4394486    459.40887 0.0095471502 0.0080030789         3956 
 4011000   0.60990211   -9.4338699    459.85024 0.0095539399 0.0079996446         3938 
 4012000   0.61086866   -9.4419576    460.14859 0.0095577558 0.0079962136         3928 
 4013000    0.5848487   -9.4536315    460.11219 0.0095546181 0.0079927826         3935 
 4014000   0.61473656   -9.4237176    460.17612 0.0095535651 0.0079893562         3963 
 4015000   0.59572517   -9.4499825    459.65628  0.009540396 0.0079859336         3946 
 4016000   0.60114857   -9.4352594    460.32317 0.0095518586 0.0079825132         3938 
 4017000   0.60279695   -9.4539316    459.82301 0.0095391049 0.0079790937         3947 
 4018000   0.60287038     -9.46004     459.2305 0.0095244421 0.0079756752         3938 
 4019000   0.62122994   -9.4394003    459.78251 0.0095335181 0.0079722607         3950 
 4020000   0.62169431   -9.4366895    459.84325 0.0095324056  0.007968846         3945 
 4021000   0.60537112   -9.4312898      460.084 0.0095350245 0.0079654358         3941 
 4022000   0.60471172    -9.431975    459.99225 0.0095307526 0.0079620242         3937 
 4023000   0.60688343   -9.4565335     459.2054 0.0095120846 0.0079586154         3954 
 4024000   0.60035956    -9.440541    460.65916 0.0095398268 0.0079552065         3932 
 4025000   0.60390025   -9.4327863    460.11844 0.0095262618 0.0079517998         3940 
 4026000   0.59441839   -9.4498165    460.67525 0.0095354208 0.0079483996         3945 
 4027000    0.6064386   -9.4550027    460.06958 0.0095205193 0.0079449949         3944 
 4028000   0.61208336   -9.4488041    459.84508 0.0095135113 0.0079415955         3937 
 4029000   0.61998753   -9.4464383    459.95511 0.0095134259  0.007938198         3945 
 4030000   0.61634766   -9.4680008    458.98986 0.0094911054 0.0079348036         3958 
 4031000   0.59139748   -9.4500264    460.06907 0.0095110616 0.0079314077         3954 
 4032000   0.59963167   -9.4347062    460.10995 0.0095095475  0.007928017         3933 
 4033000   0.60910517   -9.4493681    459.24224 0.0094892603 0.0079246285         3949 
 4034000   0.59600984   -9.4379018    460.42373 0.0095113148  0.007921244         3940 
 4035000   0.59101663   -9.4582621    459.61627 0.0094922815 0.0079178566         3951 
 4036000   0.59949575   -9.4562817     459.6822 0.0094912909 0.0079144723         3927 
 4037000   0.60922415   -9.4644909    459.82726 0.0094919341 0.0079110901         3958 
 4038000   0.60043425   -9.4500184    460.15743 0.0094963973 0.0079077104         3941 
 4039000   0.61158878   -9.4522414    460.22461 0.0094954323  0.007904333         3934 
 4040000   0.60074841    -9.464059    459.77565 0.0094838212 0.0079009563         3943 
 4041000   0.61540733   -9.4573669    459.91444 0.0094843364 0.0078975816         3951 
 4042000   0.60701974   -9.4394375    459.94589 0.0094826383 0.0078942119         3951 
 4043000   0.61468002    -9.465708    460.03501 0.0094821298 0.0078908436         3925 
 4044000   0.60206784   -9.4652243    460.19023 0.0094829836 0.0078874781         3928 
 4045000   0.60500452   -9.4648946    459.67471 0.0094700188 0.0078841106         3942 
 4046000   0.61132364   -9.4582579    460.11299 0.0094767051 0.0078807476         3945 
 4047000   0.59738804   -9.4578983    459.55149 0.0094628015 0.0078773852         3958 
 4048000   0.61454893   -9.4597308    459.95755 0.0094688231 0.0078740275         3947 
 4049000   0.60450509   -9.4664813    459.77021 0.0094626289 0.0078706708         3957 
 4050000   0.60855735   -9.4506041    459.36543 0.0094519637 0.0078673157         3920 
 4051000    0.6085712    -9.443572    459.41119 0.0094505716 0.0078639594         3928 
 4052000   0.59762548     -9.46938    459.71686 0.0094545257 0.0078606065         3947 
 4053000   0.59491222   -9.4737343    459.50176 0.0094477703 0.0078572557         3939 
 4054000   0.60211324    -9.441492    460.45695 0.0094650746 0.0078539098         3942 
 4055000   0.59557892    -9.465626    460.16264 0.0094566921 0.0078505628         3934 
 4056000   0.60479117   -9.4545442    460.50636 0.0094614226 0.0078472191         3957 
 4057000   0.60407868     -9.45364    459.87209 0.0094460621 0.0078438782         3947 
 4058000   0.60893529   -9.4629669    460.36861 0.0094539307 0.0078405379         3953 
 4059000   0.60744346   -9.4471921    459.59132 0.0094356435 0.0078371987         3944 
 4060000   0.59865916   -9.4740805     459.4379 0.0094301704 0.0078338577         3943 
 4061000   0.61102673   -9.4633789    460.00268 0.0094394377 0.0078305263         3944 
 4062000   0.59946512   -9.4384284    460.58418 0.0094490437 0.0078271944         3956 
 4063000   0.60201117    -9.459583    460.23605 0.0094395778 0.0078238635         3947 
 4064000   0.60995066    -9.434077    460.39992 0.0094406151  0.007820533         3946 
 4065000   0.59837722   -9.4619967    460.16545  0.009433486 0.0078172096         3950 
 4066000   0.60931652   -9.4484439    459.93453 0.0094264331 0.0078138844         3948 
 4067000   0.60465107   -9.4493823    460.27211 0.0094310324 0.0078105625         3946 
 4068000   0.60699197   -9.4477258    460.32412 0.0094297796 0.0078072433         3936 
 4069000   0.60031774   -9.4628487     459.6895 0.0094144651 0.0078039227         3933 
 4070000    0.5951647   -9.4598369     459.2669 0.0094034991 0.0078006031         3957 
 4071000   0.59884353   -9.4596154    460.58055 0.0094280797 0.0077972905         3940 
 4072000   0.59893073   -9.4474723    459.70288 0.0094078029 0.0077939757         3940 
 4073000   0.60373987   -9.4331571    459.65357 0.0094044843 0.0077906649         3936 
 4074000   0.60744078   -9.4617468    459.02033 0.0093892229 0.0077873561         3938 
 4075000    0.6032317    -9.454681    460.06695  0.009408322 0.0077840464         3942 
 4076000   0.59891268   -9.4668882    460.13133   0.00940733 0.0077807413         3946 
 4077000   0.60539844   -9.4672159    460.03495 0.0094030527 0.0077774372         3953 
 4078000   0.57776291   -9.4521663    459.42758 0.0093883354 0.0077741321         3946 
 4079000    0.6063358   -9.4594062    460.36989 0.0094052851 0.0077708312         3935 
 4080000   0.60628351   -9.4592656    459.85169 0.0093923957 0.0077675314         3944 
 4081000   0.60924644   -9.4394582    459.83706 0.0093897954 0.0077642375         3945 
 4082000   0.59363948   -9.4648376     459.5081 0.0093807794 0.0077609452         3908 
 4083000   0.60345606   -9.4806278    459.26114 0.0093734416 0.0077576534         3938 
 4084000    0.5985148   -9.4433122    459.94167 0.0093850325 0.0077543627         3924 
 4085000   0.61670002   -9.4761559    459.32586 0.0093701725 0.0077510725         3943 
 4086000   0.59397185   -9.4546628    459.45784  0.009370571 0.0077477865         3953 
 4087000    0.6092864   -9.4747838    459.77167 0.0093746771 0.0077444997         3943 
 4088000   0.59301189   -9.4371568    460.28936 0.0093829372 0.0077412163         3941 
 4089000    0.5854141   -9.4632195    459.96127  0.009373956 0.0077379329         3946 
 4090000    0.5903079   -9.4670138    459.47317 0.0093617191 0.0077346493         3941 
 4091000   0.61821257   -9.4677446    459.45589 0.0093590786 0.0077313722         3925 
 4092000   0.60063748   -9.4619733    459.39668 0.0093555856 0.0077280954         3948 
 4093000   0.60006937   -9.4613286    460.14847 0.0093686063 0.0077248189         3948 
 4094000   0.59526462   -9.4659077    459.70195  0.009357229 0.0077215457         3932 
 4095000   0.59802388   -9.4688296    459.92906 0.0093595656 0.0077182747         3956 
 4096000   0.60847011   -9.4572409    459.54701 0.0093495079 0.0077150029         3945 
 4097000   0.60697871   -9.4544816    459.00987 0.0093363004 0.0077117369         3961 
 4098000    0.5944125   -9.4711567    459.71018  0.009348263 0.0077084716         3938 
 4099000   0.58815225   -9.4571347    459.76408 0.0093470782 0.0077052075         3926 
 4100000    0.6002882   -9.4616548    459.77665 0.0093450538 0.0077019454         3950 
 4101000    0.6019804   -9.4531704    460.05909 0.0093485145 0.0076986855         3953 
 4102000   0.58513566   -9.4559654    459.53964 0.0093356826 0.0076954269         3953 
 4103000   0.59420468   -9.4736126    459.24464 0.0093274158 0.0076921737         3949 
 4104000   0.59692333   -9.4755197    459.29892 0.0093262452 0.0076889206         3943 
 4105000    0.5786313   -9.4677565     459.3704 0.0093254243 0.0076856661         3922 
 4106000   0.58521787   -9.4526503    459.84007 0.0093326854 0.0076824172         3935 
 4107000    0.5935626   -9.4704196    459.90618 0.0093317544 0.0076791687         3944 
 4108000   0.60870608   -9.4583572    459.89037  0.009329162 0.0076759223         3944 
 4109000   0.59936178   -9.4740287    459.47884 0.0093185454 0.0076726774         3947 
 4110000   0.58053715   -9.4525213    459.02079 0.0093069908 0.0076694346         3938 
 4111000   0.59929829    -9.470224    459.44237 0.0093132727 0.0076661938         3932 
 4112000   0.60124908   -9.4463739    459.55785 0.0093133482 0.0076629567         3928 
 4113000   0.60079136   -9.4609445    459.67778 0.0093135137 0.0076597209         3933 
 4114000   0.58130422   -9.4575266    459.87347 0.0093152137 0.0076564864         3933 
 4115000   0.59564002   -9.4588264     459.2045 0.0092994026 0.0076532561         3939 
 4116000   0.59401573   -9.4621896    459.05334 0.0092940829 0.0076500241         3947 
 4117000   0.58764376   -9.4659522    459.33479 0.0092975222 0.0076467948         3951 
 4118000   0.58502981   -9.4757392     459.2476    0.0092935 0.0076435651         3955 
 4119000   0.57925101   -9.4553843    459.46117 0.0092955647 0.0076403371         3947 
 4120000   0.60087918   -9.4494273    459.31999 0.0092904529 0.0076371121         3941 
 4121000   0.57563786   -9.4633457    459.56471 0.0092931472 0.0076338876         3937 
 4122000   0.57876997    -9.477668    459.59887 0.0092915832 0.0076306655         3932 
 4123000   0.59277332   -9.4773687    458.90276   0.00927526 0.0076274457         3952 
 4124000   0.58373466   -9.4657169    459.00678 0.0092751127 0.0076242259         3927 
 4125000   0.59761392   -9.4671928    459.39436 0.0092806941 0.0076210081         3934 
 4126000   0.60051819   -9.4771507    459.35522 0.0092776543 0.0076177924         3955 
 4127000   0.58113723   -9.4739916    459.47198 0.0092777639 0.0076145797         3956 
 4128000   0.58218296   -9.4830964    459.10444 0.0092680966 0.0076113706         3932 
 4129000   0.58270223   -9.4686084    459.50272 0.0092738903 0.0076081638         3952 
 4130000   0.59032977   -9.4775294    459.17829 0.0092650987 0.0076049566         3941 
 4131000   0.59308541   -9.4790487    459.53322 0.0092700157 0.0076017536         3941 
 4132000    0.5815604   -9.4832721    458.98391  0.009256694 0.0075985501         3957 
 4133000   0.58663188   -9.4709648    459.52493 0.0092653627  0.007595349         3955 
 4134000   0.59044922   -9.4568461    459.86433 0.0092699632 0.0075921517         3934 
 4135000   0.58734254   -9.4748748    458.87219 0.0092477266 0.0075889556         3946 
 4136000   0.59401061   -9.4865769    458.85328 0.0092451096 0.0075857623         3946 
 4137000   0.60844652   -9.4664787    458.85958 0.0092430018 0.0075825688         3946 
 4138000   0.58565301   -9.4670511    459.97548 0.0092632407 0.0075793779         3943 
 4139000   0.58534976   -9.4792001     459.6323 0.0092540933 0.0075761872         3934 
 4140000   0.58319403   -9.4473455    459.04882 0.0092401131 0.0075730019         3956 
 4141000   0.60048971   -9.4817019    459.77377 0.0092524707 0.0075698135         3943 
 4142000   0.59640035   -9.4732771    459.75839 0.0092499275 0.0075666295         3939 
 4143000   0.58783559    -9.482526    458.98418 0.0092321221 0.0075634453         3932 
 4144000   0.58137969   -9.4609683    459.10282   0.00923228 0.0075602666         3952 
 4145000   0.59686909   -9.4704483    459.63485  0.009240749 0.0075570866         3935 
 4146000   0.57779537   -9.4503742    459.67673 0.0092393619 0.0075539116         3940 
 4147000   0.58957977   -9.4690089    459.41702 0.0092319151 0.0075507364         3961 
 4148000    0.5916976     -9.48486     458.8663 0.0092186254 0.0075475625         3946 
 4149000   0.58778861   -9.4933232    459.73038 0.0092337588 0.0075443921         3953 
 4150000   0.58420767   -9.4711447    459.55326 0.0092279772 0.0075412219         3930 
 4151000   0.58382908   -9.4787773    459.20969 0.0092188566 0.0075380521         3927 
 4152000   0.58353278   -9.4875833    459.48161 0.0092220939 0.0075348857         3942 
 4153000   0.59728778   -9.4747423    459.80249 0.0092263121 0.0075317208         3933 
 4154000   0.59546017   -9.4694386    458.90441 0.0092060746 0.0075285579         3929 
 4155000   0.57666113    -9.480472    458.64111 0.0091985783 0.0075253982         3950 
 4156000   0.58948365   -9.4881581    459.12978 0.0092061634   0.00752224         3958 
 4157000    0.5800267   -9.4749835    458.33758 0.0091880678 0.0075190846         3952 
 4158000   0.58673446   -9.4776822    458.98265 0.0091987866  0.007515929         3942 
 4159000   0.59478546   -9.4758994    459.07065  0.009198338 0.0075127716         3932 
 4160000   0.58232225   -9.4924926    458.87291 0.0091921656 0.0075096174         3928 
 4161000   0.59134392   -9.4893018     459.8504  0.009209533 0.0075064654         3956 
 4162000   0.57588944   -9.4556466    460.16346 0.0092135884 0.0075033173         3951 
 4163000   0.59574057   -9.4804233    459.39569 0.0091960063 0.0075001702         3940 
 4164000   0.57274928   -9.4838009    459.00035  0.009185886 0.0074970238         3943 
 4165000   0.57766088   -9.4798502    458.94538 0.0091825806 0.0074938779         3940 
 4166000   0.58000789   -9.4940688    458.53388 0.0091721451  0.007490736         3940 
 4167000   0.59007867   -9.4883994    458.78713 0.0091750087 0.0074875976         3926 
 4168000   0.57701964    -9.489856    458.81966 0.0091734578 0.0074844587         3955 
 4169000   0.58968172    -9.464316    459.31241 0.0091811067 0.0074813204         3951 
 4170000   0.58635852   -9.4730175     458.9335 0.0091713329 0.0074781876         3947 
 4171000   0.57956762   -9.4696879    459.41321 0.0091787183 0.0074750569         3922 
 4172000   0.57554994   -9.4769157    459.58861 0.0091800219 0.0074719242         3935 
 4173000   0.58474989   -9.4864681    459.01781 0.0091664232 0.0074687977         3942 
 4174000   0.58600968   -9.4966668    458.63416 0.0091565677 0.0074656708         3937 
 4175000   0.59838378   -9.4972017    458.74246 0.0091565362  0.007462543         3931 
 4176000   0.57170274   -9.4761288    459.38348 0.0091671351 0.0074594182         3930 
 4177000   0.58775666   -9.4799342    458.78416 0.0091529838  0.007456296         3937 
 4178000   0.59616334   -9.4860554     459.0759  0.009156612 0.0074531763         3950 
 4179000   0.57545159   -9.4936657    458.52161 0.0091433678 0.0074500558         3955 
 4180000   0.59515458   -9.4752441     459.2131 0.0091549662 0.0074469395         3946 
 4181000   0.57764729   -9.4789585    459.46662 0.0091578295 0.0074438279         3955 
 4182000   0.57771574   -9.4841388    459.55673 0.0091574352 0.0074407129         3939 
 4183000   0.57734757    -9.488256    458.98854 0.0091439266 0.0074376012         3951 
 4184000    0.5951874   -9.5081318    458.96781 0.0091413282 0.0074344916         3959 
 4185000   0.57397192    -9.464462    458.97832 0.0091393531 0.0074313852         3938 
 4186000   0.59630397   -9.4810781    458.52047 0.0091280551 0.0074282793         3940 
 4187000   0.58400542   -9.4680761    458.87528 0.0091329369 0.0074251766         3929 
 4188000   0.58263929   -9.4806761    459.61747 0.0091455244 0.0074220733         3955 
 4189000   0.56610428   -9.4879445    458.65039 0.0091241025  0.007418973         3945 
 4190000   0.58499258   -9.4893396    459.28344 0.0091345156 0.0074158731         3951 
 4191000   0.58077583   -9.4883752    459.25311 0.0091317329 0.0074127764         3956 
 4192000   0.59657066   -9.4791341      459.087 0.0091262524 0.0074096795         3938 
 4193000   0.57223347   -9.4913104    458.49289 0.0091122683 0.0074065841         3932 
 4194000    0.5780211   -9.5062648    459.32889 0.0091267065 0.0074034911         3943 
 4195000    0.5832906   -9.4791784    458.84201 0.0091148591 0.0074003974         3959 
 4196000   0.57705984   -9.4910696    458.71247 0.0091101142 0.0073973082         3950 
 4197000   0.57226112   -9.4842259    458.50722 0.0091038683 0.0073942238         3953 
 4198000   0.58978157   -9.4817742    459.01584 0.0091117961 0.0073911385         3931 
 4199000   0.56718964   -9.4749299    459.35789 0.0091164144 0.0073880578         3948 
 4200000   0.57422318    -9.487668    458.65501 0.0091002978 0.0073849755         3934 
 4201000   0.57842361   -9.4928162    458.76626 0.0091003384 0.0073818968         3946 
 4202000   0.58184528   -9.4955271    459.37389 0.0091102231 0.0073788179         3964 
 4203000   0.57498508   -9.4818462    459.49204 0.0091103981 0.0073757416         3931 
 4204000   0.57973669   -9.4801255    458.71766 0.0090928809 0.0073726667         3956 
 4205000   0.57222991   -9.4988667    458.79765 0.0090923038 0.0073695925         3937 
 4206000   0.56994947   -9.4991689    459.10687 0.0090962686 0.0073665199         3954 
 4207000   0.57577139   -9.5057073     458.9912 0.0090918152 0.0073634483         3942 
 4208000   0.57963803   -9.4867672    459.08402 0.0090914929 0.0073603794         3941 
 4209000   0.58865087   -9.4974402    458.51906 0.0090781473  0.007357313         3947 
 4210000   0.57805745   -9.4730017    459.45187  0.009094455 0.0073542493         3950 
 4211000   0.58450151   -9.4760237    459.21948 0.0090876964 0.0073511867         3935 
 4212000   0.58112878   -9.4793926    459.48724 0.0090908366 0.0073481253         3950 
 4213000   0.56932286   -9.4904625    459.15299 0.0090820673 0.0073450674         3953 
 4214000   0.58369948   -9.4925965    458.91832 0.0090752714 0.0073420096         3945 
 4215000   0.58018465   -9.5064306    457.49229 0.0090449247 0.0073389515         3965 
 4216000   0.58089315   -9.4842114    458.99665 0.0090725144 0.0073358978         3939 
 4217000    0.5717669   -9.4870099    458.59939 0.0090625126 0.0073328427         3957 
 4218000   0.59111392   -9.5000772    458.58253 0.0090600309 0.0073297913         3953 
 4219000   0.59302765   -9.4860114    458.98239 0.0090657817 0.0073267434         3956 
 4220000   0.57398041   -9.4996399    459.07066 0.0090653764 0.0073236957         3947 
 4221000   0.58861769   -9.4746716    459.07527 0.0090633198 0.0073206525         3947 
 4222000   0.57238617   -9.5054632    458.53546 0.0090505182 0.0073176099         3955 
 4223000   0.57095345   -9.4799627    458.89351 0.0090554407  0.007314567         3938 
 4224000   0.56566094   -9.4921679    459.27148 0.0090607535 0.0073115266         3952 
 4225000   0.56879777   -9.4889595    458.86114 0.0090505156 0.0073084885         3936 
 4226000   0.56569748   -9.4971618    459.14272 0.0090539265  0.007305452         3945 
 4227000   0.58921383   -9.4941504    459.81265 0.0090649919 0.0073024174         3954 
 4228000   0.57404083   -9.4913968    459.46591 0.0090560136 0.0072993844         3941 
 4229000   0.56354253   -9.4697994    459.12553 0.0090471649  0.007296353         3932 
 4230000   0.57471606   -9.4979555    459.56114 0.0090536079 0.0072933227         3945 
 4231000   0.57884667   -9.4911517    458.86251 0.0090377081  0.007290296         3945 
 4232000   0.57156267   -9.4937791    458.46754 0.0090277951 0.0072872676         3945 
 4233000    0.5692007   -9.5052746    458.52304 0.0090267548 0.0072842432         3948 
 4234000    0.5779776   -9.4932092    459.17163 0.0090373885 0.0072812205         3947 
 4235000   0.57766709   -9.4934408    459.15109 0.0090348503 0.0072781975         3956 
 4236000   0.56944261   -9.4735493    458.84772 0.0090267492 0.0072751795         3948 
 4237000   0.57858022    -9.496335    458.75765 0.0090228473 0.0072721629         3949 
 4238000   0.58297022   -9.4675806    459.02184 0.0090259133 0.0072691475         3938 
 4239000   0.56632119   -9.4796809    459.42292 0.0090316686 0.0072661357         3939 
 4240000   0.58200696   -9.4824156    458.47996 0.0090110055 0.0072631224         3956 
 4241000   0.57873598   -9.5084148    458.63138 0.0090118561 0.0072601125         3958 
 4242000   0.56661065    -9.506605    459.00049 0.0090169827 0.0072571023         3951 
 4243000   0.57281442   -9.4954718    459.06606 0.0090161455  0.007254094         3944 
 4244000   0.57454973   -9.4987468    458.58964 0.0090046661 0.0072510887         3938 
 4245000   0.56442364   -9.4917766    459.39046 0.0090182659 0.0072480822         3945 
 4246000   0.56035533    -9.494696    458.82683 0.0090050799 0.0072450777         3935 
 4247000   0.57724756   -9.4924624    458.80397  0.009002511 0.0072420744         3936 
 4248000   0.56916793   -9.4751096    458.24165 0.0089893606  0.007239074         3943 
 4249000   0.57900244   -9.4954843    458.92016 0.0090005522 0.0072360747         3940 
 4250000   0.57292469   -9.4923231    459.09925  0.009001946 0.0072330771         3948 
 4251000   0.56243231    -9.497744    459.22755 0.0090023436 0.0072300835         3955 
 4252000    0.5704407   -9.5237678    458.92382 0.0089942737 0.0072270902         3952 
 4253000   0.57491088   -9.5116508    458.69437  0.008987663 0.0072240984         3945 
 4254000   0.58213706    -9.506169    458.97283 0.0089910051  0.007221109         3949 
 4255000   0.56299007   -9.4752518     458.5798 0.0089811946 0.0072181218         3951 
 4256000   0.57056622   -9.5088441    459.10168 0.0089893028 0.0072151321         3951 
 4257000   0.59068825   -9.5167728    458.64638 0.0089782785 0.0072121491         3938 
 4258000   0.56367499    -9.513974    458.58541 0.0089749766 0.0072091655         3962 
 4259000   0.57199252   -9.5091012    458.03655 0.0089621302 0.0072061825         3952 
 4260000   0.59001088   -9.5256412    458.55752 0.0089702176 0.0072032019         3952 
 4261000   0.56386988    -9.505816    459.12751 0.0089792598 0.0072002242         3945 
 4262000   0.57724246    -9.495085    458.97995 0.0089742678 0.0071972471         3955 
 4263000   0.55948908   -9.5250369     457.4404 0.0089420674 0.0071942705         3952 
 4264000   0.57569867     -9.49787    459.23509 0.0089750448 0.0071912974         3947 
 4265000    0.5878281   -9.4925516    458.36517 0.0089559432 0.0071883262         3948 
 4266000   0.57628545   -9.4813651    459.08156  0.008967838 0.0071853578         3932 
 4267000   0.57911009   -9.5174514    459.35637 0.0089711033 0.0071823891         3948 
 4268000   0.57205382   -9.4998742    459.02248 0.0089624821 0.0071794236         3957 
 4269000    0.5848655   -9.5128561    458.98739 0.0089596976 0.0071764579         3949 
 4270000   0.57089895   -9.5032163    458.02177 0.0089387543 0.0071734957         3948 
 4271000   0.57468787   -9.5152878    458.20697 0.0089402749 0.0071705357         3941 
 4272000    0.5847704   -9.5232779    457.95734 0.0089333126 0.0071675738         3948 
 4273000   0.56533576   -9.5163789    458.25686 0.0089370634 0.0071646163         3959 
 4274000   0.57920307   -9.5011689    458.49716 0.0089396577 0.0071616569         3946 
 4275000   0.56835921   -9.4997094    458.33915 0.0089344863 0.0071587019         3939 
 4276000   0.57326254    -9.510242    458.80383 0.0089414529  0.007155746         3952 
 4277000   0.57580437   -9.5227444    458.75483 0.0089384077 0.0071527924         3947 
 4278000    0.5474709   -9.5100195    458.18491 0.0089252165 0.0071498416         3935 
 4279000   0.57430779   -9.5074268    458.13199    0.0089221 0.0071468914         3956 
 4280000   0.56576085   -9.5128441    458.76904 0.0089324191 0.0071439457         3943 
 4281000    0.5692302   -9.5143495    458.44165 0.0089239595 0.0071409983         3944 
 4282000   0.57437619   -9.5137158     458.4497 0.0089220321 0.0071380564         3958 
 4283000   0.57849069   -9.5194971    458.29871 0.0089170113 0.0071351144         3944 
 4284000   0.57387696   -9.5244417    457.84693 0.0089061416 0.0071321726         3946 
 4285000    0.5788523   -9.4985862    458.32965 0.0089134509 0.0071292321         3946 
 4286000   0.57070742   -9.5097662    458.23502 0.0089095314 0.0071262936         3949 
 4287000   0.56533062   -9.5114856    458.22813 0.0089073191 0.0071233612         3957 
 4288000   0.56254673   -9.5074036     458.0958 0.0089026702 0.0071204281         3947 
 4289000   0.56104983   -9.5128692    459.14667 0.0089210125 0.0071174948         3946 
 4290000   0.56032381   -9.5193071    459.22471 0.0089204488 0.0071145638         3955 
 4291000   0.55141727   -9.4989012    458.57166 0.0089056875 0.0071116354         3952 
 4292000   0.56320543   -9.5140794    459.04778 0.0089128569 0.0071087085         3936 
 4293000   0.57840098   -9.5140474    458.75686 0.0089051335 0.0071057814         3958 
 4294000   0.56747677    -9.513557    458.69342 0.0089018284  0.007102859         3942 
 4295000   0.55817574   -9.5289407    457.49305 0.0088764659 0.0070999356         3950 
 4296000   0.57553209   -9.5008347    458.54589 0.0088948226 0.0070970144         3943 
 4297000   0.57206104   -9.5234332    458.54835 0.0088928001 0.0070940951         3958 
 4298000   0.55816982   -9.5285499    458.08162 0.0088816818 0.0070911769         3935 
 4299000   0.56596926   -9.5135135    458.79955 0.0088935325 0.0070882603         3951 
 4300000   0.56241238   -9.4999602    458.41008 0.0088839163 0.0070853467         3959 
 4301000   0.56874526   -9.5171417    458.62259 0.0088859683 0.0070824325         3944 
 4302000   0.56215494   -9.5235713    458.12101 0.0088741867 0.0070795216         3957 
 4303000   0.56519872   -9.4916076    458.61423 0.0088816761 0.0070766127         3930 
 4304000    0.5802417    -9.520081    458.15011 0.0088706263 0.0070737049         3955 
 4305000   0.55811077   -9.5072859    458.39584 0.0088733225 0.0070707969         3941 
 4306000   0.58580474   -9.5137921     458.7487 0.0088780906 0.0070678939         3954 
 4307000   0.56128873   -9.5099436    457.94232 0.0088604273 0.0070649912         3924 
 4308000   0.55462104   -9.5176503    457.91566 0.0088578548 0.0070620906         3955 
 4309000   0.57200112   -9.5250923    457.90079 0.0088555115 0.0070591883         3953 
 4310000   0.55251157   -9.5053903    458.77663 0.0088703911 0.0070562927         3941 
 4311000   0.55390568   -9.5149667    458.77237 0.0088682512 0.0070533938         3956 
 4312000   0.56491704   -9.5152562    458.18158 0.0088547769 0.0070505003         3954 
 4313000     0.555253   -9.5075633     458.7015 0.0088627694 0.0070476074         3942 
 4314000   0.55793776   -9.5172307    458.69242 0.0088605396  0.007044716         3964 
 4315000   0.55211268   -9.5127043    457.81007 0.0088414459 0.0070418278         3950 
 4316000   0.56767536   -9.5121273    458.67062 0.0088560129 0.0070389427         3941 
 4317000   0.55187068   -9.5042079    458.74257 0.0088553503 0.0070360565         3927 
 4318000   0.57386105   -9.5264471    458.84035 0.0088551866  0.007033172         3948 
 4319000    0.5618104   -9.5115066    457.86521 0.0088343213 0.0070302884         3948 
 4320000   0.56973103   -9.5086472    458.89498 0.0088521409 0.0070274081         3952 
 4321000   0.56713979   -9.5103372    458.11861 0.0088351194 0.0070245293         3945 
 4322000   0.56401637    -9.497728    458.71721 0.0088446169 0.0070216522         3946 
 4323000   0.56196466   -9.5226724     458.5411 0.0088391761 0.0070187763         3923 
 4324000   0.55475041    -9.527235    458.53036 0.0088369249  0.007015901         3948 
 4325000   0.55805374   -9.5382957     458.2299 0.0088290925 0.0070130274         3941 
 4326000   0.55790081   -9.5041378    458.73934  0.008836865 0.0070101548         3941 
 4327000   0.55330338   -9.5164717    458.73891 0.0088348145 0.0070072839         3950 
 4328000   0.56989862    -9.532484    458.77457 0.0088334598 0.0070044135         3937 
 4329000   0.56181024   -9.5225075    457.95088 0.0088155632 0.0070015474         3937 
 4330000   0.57332911    -9.521445    458.93406 0.0088324491 0.0069986824         3952 
 4331000   0.57488876     -9.52601     458.6576 0.0088250904 0.0069958195         3948 
 4332000   0.56277014   -9.5334802     458.5528 0.0088210373  0.006992957         3953 
 4333000   0.56443515   -9.5016804    458.10891 0.0088104644 0.0069900959         3948 
 4334000   0.56198437   -9.5110613    458.37716 0.0088135894 0.0069872362         3949 
 4335000   0.54745314   -9.5368587    458.53009 0.0088144961  0.006984377         3946 
 4336000   0.55831353   -9.5436999    457.96163 0.0088015381 0.0069815185         3939 
 4337000   0.55471558   -9.5457477    456.66276 0.0087745515 0.0069786603         3936 
 4338000   0.55228909   -9.5271115    457.50464 0.0087887014 0.0069758067         3935 
 4339000   0.55462239   -9.5251021    458.47384 0.0088052899 0.0069729535         3936 
 4340000   0.55539485   -9.5349888    458.80019 0.0088095274 0.0069701024         3951 
 4341000   0.56133437   -9.5323622    458.30365 0.0087979662 0.0069672552         3947 
 4342000   0.54598441   -9.5242277    458.00798 0.0087902653 0.0069644096         3945 
 4343000   0.56792695   -9.5280893    457.66331 0.0087816278 0.0069615654         3928 
 4344000   0.56652984   -9.5169843    458.43417 0.0087943941 0.0069587231         3951 
 4345000   0.55747482   -9.5348679    457.78323 0.0087798856 0.0069558797         3947 
 4346000   0.55514602   -9.5246796    458.63668   0.00879423 0.0069530372         3953 
 4347000   0.55057142   -9.5220418    458.22721 0.0087843573 0.0069501981         3943 
 4348000   0.56190495   -9.5271657    457.96855 0.0087773795  0.006947358         3932 
 4349000   0.55679686   -9.5271882      458.037 0.0087766728 0.0069445211         3948 
 4350000   0.55713201   -9.5191738    458.11577 0.0087761642 0.0069416876         3937 
 4351000   0.55400318    -9.522581    458.19533  0.008775671 0.0069388519         3939 
 4352000   0.54423094   -9.5332255    458.11744 0.0087721629 0.0069360184         3945 
 4353000   0.55587288   -9.5175216    458.43271 0.0087761834 0.0069331887         3938 
 4354000    0.5570635   -9.5218903    457.66488 0.0087594717 0.0069303608         3944 
 4355000    0.5626511   -9.5231062    458.01888 0.0087642342 0.0069275335         3940 
 4356000   0.55621964    -9.537184     457.9936 0.0087617386 0.0069247076         3954 
 4357000   0.55012902   -9.5106959    458.58563  0.008771051 0.0069218838         3946 
 4358000   0.56201722   -9.5162071    457.75367 0.0087531297 0.0069190617         3947 
 4359000   0.54523614   -9.5234876      458.576 0.0087668425 0.0069162412         3954 
 4360000   0.55094782   -9.5198849    458.24283 0.0087584639 0.0069134206         3941 
 4361000   0.55335148   -9.5288892    457.75263 0.0087470884 0.0069106032         3938 
 4362000   0.55031735    -9.536435    457.92904 0.0087484532 0.0069077864         3937 
 4363000   0.56485309   -9.5365613    457.45101 0.0087373177 0.0069049714         3950 
 4364000   0.54370629    -9.554091    457.89376 0.0087437702 0.0069021591         3953 
 4365000   0.54703788   -9.5092858    457.81602  0.008740283 0.0068993471         3930 
 4366000   0.55856787   -9.5360916    457.79984 0.0087379723 0.0068965354         3959 
 4367000   0.54952569   -9.5276454    459.13514 0.0087614522 0.0068937258         3931 
 4368000   0.54780186   -9.5440119    457.84223   0.00873478 0.0068909164         3943 
 4369000   0.55630817   -9.5289886    457.89306 0.0087337502  0.006888113         3952 
 4370000   0.55134617   -9.5297048    458.53399 0.0087439739 0.0068853091         3948 
 4371000   0.53720428   -9.5128908    458.45751 0.0087405154 0.0068825076         3939 
 4372000   0.55496086   -9.5289757    458.22879 0.0087341566  0.006879707         3920 
 4373000   0.55077046   -9.5395266    458.29084 0.0087333417 0.0068769062         3950 
 4374000   0.55255163   -9.5309988    457.76814 0.0087213866 0.0068741099         3931 
 4375000   0.54873354   -9.5265899    458.20706 0.0087277536 0.0068713144         3962 
 4376000   0.55371893   -9.5228947    458.39358 0.0087293111 0.0068685186         3940 
 4377000   0.54676802    -9.551554    458.72655 0.0087336561 0.0068657224         3956 
 4378000   0.55227561    -9.516752    458.67093 0.0087306024 0.0068629338         3931 
 4379000   0.55104345   -9.5424745    457.75982 0.0087112701 0.0068601451         3940 
 4380000   0.56766933   -9.5292151    457.58758 0.0087060041 0.0068573561         3949 
 4381000   0.56019446   -9.5403554    458.10202 0.0087138025  0.006854569         3949 
 4382000   0.54896927   -9.5433669     458.0722 0.0087112467 0.0068517823         3931 
 4383000   0.53643188   -9.5287863    458.12773 0.0087103151 0.0068489969         3950 
 4384000   0.54917945   -9.5410678    458.49667 0.0087153412  0.006846215         3955 
 4385000   0.55270366   -9.5216695     457.7827 0.0086997853 0.0068434352         3939 
 4386000   0.56676035   -9.5382026    458.00772 0.0087020771 0.0068406571         3941 
 4387000   0.55388595   -9.5430803     457.3019  0.008686686 0.0068378797         3938 
 4388000   0.54799653   -9.5315676    457.52764 0.0086889935 0.0068351022         3948 
 4389000   0.54488944   -9.5442561    458.53079 0.0087060604  0.006832329         3943 
 4390000   0.55056028   -9.5369879    458.87572 0.0087106248 0.0068295556         3955 
 4391000   0.54408192   -9.5266993    457.88677 0.0086898727 0.0068267835         3942 
 4392000   0.55064667   -9.5337012    458.08425 0.0086916411 0.0068240129         3935 
 4393000   0.55267711   -9.5204355    457.75164 0.0086833531 0.0068212446         3939 
 4394000   0.54941349   -9.5323179    457.94777 0.0086850966 0.0068184765         3942 
 4395000   0.54276706   -9.5325792    457.45835 0.0086738405 0.0068157094         3937 
 4396000   0.54896284   -9.5357674    457.93088  0.008680825 0.0068129462         3939 
 4397000   0.53983555   -9.5302029    458.08096 0.0086816951 0.0068101841         3952 
 4398000   0.55034653   -9.5437253    458.57396 0.0086890624 0.0068074234         3934 
 4399000   0.54762935   -9.5405225    458.18729 0.0086797623 0.0068046643         3942 
 4400000   0.55368932    -9.526234    458.17025 0.0086774669 0.0068019064         3940 
 4401000   0.54976636   -9.5502039    457.67729  0.008666161 0.0067991523         3960 
 4402000   0.55152165   -9.5250385    458.11925 0.0086725588 0.0067963974         3961 
 4403000   0.52626777   -9.5267068    457.92424 0.0086668983  0.006793643         3955 
 4404000   0.54629627   -9.5406615    458.07386 0.0086677614 0.0067908889         3954 
 4405000   0.55530922   -9.5386308    458.35936 0.0086711949 0.0067881385         3965 
 4406000   0.53966257   -9.5371617    457.90797 0.0086606894 0.0067853886         3942 
 4407000   0.54950909   -9.5435031    457.84604 0.0086575532 0.0067826426         3942 
 4408000   0.54664343   -9.5233268     456.8743 0.0086372184 0.0067798957         3940 
 4409000    0.5547669   -9.5241848    457.77989 0.0086523757 0.0067771523         3951 
 4410000   0.54379405   -9.5252894    457.49464 0.0086450234 0.0067744087         3940 
 4411000   0.55764701   -9.5420665    457.20445 0.0086375813 0.0067716677         3943 
 4412000   0.54049327   -9.5365716    457.36435 0.0086386436 0.0067689289         3953 
 4413000   0.54611144    -9.539321    458.31138 0.0086545694 0.0067661916         3949 
 4414000   0.54006877   -9.5465698    458.31264 0.0086526325 0.0067634557         3935 
 4415000   0.54941394   -9.5444028    458.31646 0.0086507447 0.0067607197         3933 
 4416000   0.53800771   -9.5449765    458.50117 0.0086522715 0.0067579849         3953 
 4417000   0.55271276   -9.5363524    457.90642 0.0086390918 0.0067552511         3950 
 4418000   0.54432231   -9.5406041    458.39058 0.0086462686 0.0067525197         3930 
 4419000   0.53753276    -9.553946    457.74924 0.0086322178 0.0067497884         3941 
 4420000   0.55086773   -9.5409191    457.99128  0.008634828 0.0067470588         3935 
 4421000   0.53861054   -9.5361882     458.2329 0.0086374293 0.0067443325         3954 
 4422000    0.5381922   -9.5522001    458.61598 0.0086426951 0.0067416068         3951 
 4423000    0.5333385   -9.5053284    457.77335 0.0086248653  0.006738884         3954 
 4424000   0.54636228   -9.5316959    458.17816  0.008630541 0.0067361633         3956 
 4425000   0.55390638   -9.5411714    457.36085 0.0086131986 0.0067334424         3959 
 4426000   0.53626921   -9.5167717    458.55378 0.0086337133 0.0067307238         3940 
 4427000   0.55447664   -9.5332555    457.64295 0.0086146177  0.006728007         3950 
 4428000   0.54638876   -9.5641846    457.43743 0.0086088044 0.0067252919         3955 
 4429000   0.53731636   -9.5439568    457.73962 0.0086125464 0.0067225786         3948 
 4430000    0.5476382    -9.532051    457.99053 0.0086153222 0.0067198669         3941 
 4431000   0.54596325    -9.532336    457.63214 0.0086066378 0.0067171559         3958 
 4432000   0.55123713    -9.522325    457.83217 0.0086084569 0.0067144468         3951 
 4433000   0.53908651   -9.5306909    457.52719 0.0086007819 0.0067117383         3945 
 4434000   0.54029049   -9.5469365     457.8144   0.00860424  0.006709032         3969 
 4435000   0.53587219   -9.5466805    457.29041 0.0085924542 0.0067063283         3939 
 4436000   0.54262248   -9.5442746    457.54348 0.0085952712 0.0067036264         3948 
 4437000   0.53658461   -9.5497465    457.93577 0.0086007018 0.0067009233         3962 
 4438000    0.5518055   -9.5517807    458.01914 0.0086003294 0.0066982207         3958 
 4439000   0.54322963   -9.5444198    457.05781 0.0085803449 0.0066955222         3959 
 4440000    0.5391229   -9.5552052     457.3519 0.0085839321  0.006692822         3952 
 4441000   0.54648637   -9.5393399    457.96059 0.0085934209 0.0066901257         3935 
 4442000    0.5391099    -9.548559    457.84588 0.0085893344 0.0066874291         3949 
 4443000   0.53515035   -9.5515828    457.97271   0.00858978 0.0066847335         3942 
 4444000   0.54050163   -9.5339371    457.59181 0.0085807046 0.0066820418         3951 
 4445000   0.54268913   -9.5315453    457.75822 0.0085818938 0.0066793525         3946 
 4446000   0.54765757   -9.5452172    457.55334 0.0085761234 0.0066766612         3937 
 4447000   0.53224145   -9.5540246    458.00647 0.0085826862 0.0066739726         3952 
 4448000   0.52626855   -9.5472379    458.73546 0.0085944144 0.0066712855         3951 
 4449000   0.54246679   -9.5514899    457.73452 0.0085737342 0.0066685993         3962 
 4450000   0.53743007    -9.547422    458.22542 0.0085810005 0.0066659165         3944 
 4451000   0.54092181   -9.5605352    457.52199 0.0085659025 0.0066632337         3939 
 4452000   0.52448862   -9.5647958    458.10216 0.0085748383 0.0066605512         3954 
 4453000   0.54131803   -9.5621376     457.6343 0.0085641571 0.0066578733         3959 
 4454000   0.55370466   -9.5448094    457.06823 0.0085516433 0.0066551948         3952 
 4455000   0.53945218   -9.5594619    457.87501 0.0085648151 0.0066525202         3943 
 4456000   0.54284062   -9.5315334     457.8352 0.0085621485 0.0066498455         3934 
 4457000   0.52973198   -9.5631981    457.19909 0.0085483338 0.0066471719         3948 
 4458000   0.53621709   -9.5554167    457.10537 0.0085446644  0.006644499         3949 
 4459000    0.5401333   -9.5534089    457.59935 0.0085519801 0.0066418282         3949 
 4460000   0.52748817   -9.5509228    457.34644  0.008545337 0.0066391599         3944 
 4461000    0.5367042   -9.5560233    456.70373 0.0085314153 0.0066364925         3940 
 4462000   0.53736485   -9.5723067    457.75031 0.0085490495 0.0066338249         3937 
 4463000   0.52898153   -9.5548256    457.97979 0.0085514189 0.0066311606         3952 
 4464000   0.54261506    -9.542734    457.86924 0.0085474395 0.0066284989         3953 
 4465000   0.54650334   -9.5519265    457.72276 0.0085427913  0.006625837         3952 
 4466000   0.54558293   -9.5415735    457.29427 0.0085328831 0.0066231774         3953 
 4467000   0.53556692   -9.5474882    457.05324 0.0085264765 0.0066205187         3963 
 4468000    0.5356614      -9.5531    457.71448  0.008536901 0.0066178634         3945 
 4469000   0.54487599   -9.5582228    457.32699 0.0085277651 0.0066152061         3938 
 4470000   0.54632666   -9.5395461    457.22837 0.0085240189 0.0066125519         3943 
 4471000    0.5270724   -9.5543972    457.68131 0.0085305545 0.0066099002         3946 
 4472000    0.5483768   -9.5522224    457.16673  0.008519058  0.006607249         3948 
 4473000   0.53138232   -9.5506381    457.02749 0.0085145595 0.0066045971         3951 
 4474000   0.54274586   -9.5550487     457.6737 0.0085246926 0.0066019492         3936 
 4475000   0.52853779   -9.5466417    457.61772 0.0085217452 0.0065993018         3940 
 4476000   0.54540526   -9.5465575     457.6768 0.0085209413 0.0065966547         3943 
 4477000   0.53630899   -9.5345096    457.20456 0.0085102479 0.0065940111         3957 
 4478000   0.53306909   -9.5587444    457.32857 0.0085106552  0.006591368         3932 
 4479000   0.54133513   -9.5575998    457.28763 0.0085079934 0.0065887267         3945 
 4480000   0.53564093   -9.5649068    457.89865   0.00851746 0.0065860862         3951 
 4481000   0.53498949   -9.5304887    457.83175 0.0085143151 0.0065834503         3939 
 4482000   0.54392663   -9.5577958    458.12093 0.0085177921 0.0065808132         3941 
 4483000    0.5360235   -9.5542077    458.49534 0.0085228519 0.0065781773         3950 
 4484000   0.53305636   -9.5539251     458.0205 0.0085121265 0.0065755442         3930 
 4485000   0.53800294   -9.5601462     457.4322 0.0084992976   0.00657291         3954 
 4486000   0.52610844    -9.538335    457.52814 0.0084991853 0.0065702771         3948 
 4487000   0.53095995   -9.5683604    457.93463 0.0085048405 0.0065676459         3954 
 4488000   0.53076563   -9.5459332    457.71469 0.0084988616 0.0065650166         3942 
 4489000   0.54467803   -9.5578107    458.10211 0.0085041604 0.0065623896         3944 
 4490000   0.52937068   -9.5747838    457.05026 0.0084827442 0.0065597618         3956 
 4491000    0.5281973    -9.562999       457.17 0.0084830773 0.0065571386         3934 
 4492000   0.52622359   -9.5480581    457.87405 0.0084942501 0.0065545159         3957 
 4493000   0.52209638    -9.573633    457.49409 0.0084853122 0.0065518928         3943 
 4494000   0.54616553   -9.5763069     457.6491 0.0084862984 0.0065492723         3932 
 4495000   0.52312807    -9.559106    457.23594 0.0084767509 0.0065466536         3942 
 4496000   0.53819978   -9.5596299    457.36968 0.0084773443  0.006544037         3952 
 4497000    0.5262087   -9.5553878     457.5392 0.0084786005 0.0065414201         3930 
 4498000   0.53488302    -9.551461    457.52802 0.0084765085 0.0065388045         3953 
 4499000   0.52735985   -9.5664421    457.55622 0.0084751467 0.0065361907         3936 
 4500000   0.52668587   -9.5554748    457.31084 0.0084687193 0.0065335787         3950 
 4501000   0.53869881   -9.5489806    457.57406 0.0084717112 0.0065309694         3954 
 4502000   0.52727791    -9.559885    457.25306 0.0084638875 0.0065283604         3938 
 4503000   0.52655271    -9.565788    457.36915 0.0084641564 0.0065257533         3964 
 4504000   0.53515701   -9.5506192    457.64966 0.0084674671 0.0065231487         3942 
 4505000   0.52753125   -9.5790154    457.40711 0.0084611008 0.0065205454         3944 
 4506000   0.52691171   -9.5686008    457.57382 0.0084623063  0.006517942         3949 
 4507000   0.53416129   -9.5570868    456.96738 0.0084492156 0.0065153389         3953 
 4508000   0.53299657    -9.565484    457.93788 0.0084652817  0.006512739         3957 
 4509000   0.53127189   -9.5624219    456.62661   0.00843917 0.0065101392         3951 
 4510000   0.53431565   -9.5791128    457.34943 0.0084506546 0.0065075413         3946 
 4511000   0.52899066   -9.5562763    457.33953 0.0084485984 0.0065049449         3949 
 4512000   0.53323706   -9.5656219    457.75771 0.0084544495 0.0065023489         3956 
 4513000    0.5289337   -9.5611028    456.82236 0.0084353047 0.0064997554         3947 
 4514000   0.54097152   -9.5875945    457.12042 0.0084389385 0.0064971621         3957 
 4515000   0.53401993   -9.5567327     457.8654 0.0084508195  0.006494574         3947 
 4516000   0.53080614    -9.582131    457.76203 0.0084470407 0.0064919854         3942 
 4517000   0.53237295   -9.5688032    456.44236 0.0084208242  0.006489398         3940 
 4518000    0.5256523   -9.5717845    457.45748  0.008437684 0.0064868121         3944 
 4519000   0.53178011   -9.5653436    457.44025 0.0084354991 0.0064842269         3950 
 4520000   0.52268142   -9.5648999     457.1047 0.0084274466 0.0064816448         3948 
 4521000   0.52488176   -9.5507817    456.61758 0.0084166037  0.006479064         3941 
 4522000   0.52911898   -9.5722046    457.40839 0.0084293158 0.0064764827         3955 
 4523000   0.53782354   -9.5631157    457.86253 0.0084358193 0.0064739036         3944 
 4524000   0.52670756   -9.5809331    456.41273  0.008407249 0.0064713242         3964 
 4525000   0.53417381   -9.5514144     457.0329 0.0084168121 0.0064687473         3930 
 4526000    0.5254321   -9.5790124    457.50134 0.0084235775 0.0064661713         3947 
 4527000   0.52758259   -9.5826678    457.23474 0.0084168091 0.0064635964         3952 
 4528000   0.52289642   -9.5645353    457.94335 0.0084279916 0.0064610254         3935 
 4529000   0.52445512   -9.5713935    456.42117 0.0083981226 0.0064584545         3947 
 4530000   0.52042063   -9.5662849    457.96422 0.0084246545 0.0064558847         3953 
 4531000   0.52589212   -9.5562251    457.19424 0.0084086338 0.0064533168         3950 
 4532000    0.5260462   -9.5707034    457.75859 0.0084171557 0.0064507505         3933 
 4533000     0.531697    -9.577905    457.68095 0.0084138715 0.0064481868         3947 
 4534000    0.5226702   -9.5614185    456.87953 0.0083972858 0.0064456206         3955 
 4535000   0.52171802   -9.5699585    457.30437 0.0084032409 0.0064430571         3960 
 4536000    0.5426582   -9.5719571    456.74751 0.0083911579  0.006440495         3945 
 4537000   0.54649725   -9.5806853    456.89753  0.008392064 0.0064379343         3942 
 4538000   0.53862678   -9.5669593    457.41196 0.0083996614  0.006435377         3929 
 4539000   0.52772066   -9.5550655      457.645 0.0084020894 0.0064328181         3951 
 4540000   0.52793534   -9.5763273    457.61888 0.0083997593 0.0064302622         3952 
 4541000   0.51948045   -9.5540016    457.37922 0.0083935114 0.0064277069         3950 
 4542000   0.52297662   -9.5687897    457.02861 0.0083852306 0.0064251526         3964 
 4543000   0.51558384   -9.5552255    457.31342 0.0083886093    0.0064226         3953 
 4544000    0.5131573   -9.5628603    457.49441 0.0083900823  0.006420051         3948 
 4545000   0.53135393   -9.5667746    458.15293 0.0084003104 0.0064175025         3955 
 4546000   0.53178636   -9.5724732    457.70206 0.0083901976 0.0064149541         3943 
 4547000   0.52835631   -9.5628871    456.58006 0.0083677895 0.0064124069         3956 
 4548000   0.51727641   -9.5683738    456.66958 0.0083675897 0.0064098633         3952 
 4549000   0.52385291   -9.5731821    457.27328 0.0083768096 0.0064073198         3951 
 4550000   0.52632457   -9.5712569    456.78299 0.0083659887 0.0064047775         3952 
 4551000   0.51464875   -9.5827278    457.05947 0.0083692131 0.0064022361         3943 
 4552000   0.50964073   -9.5862259    456.92019 0.0083648247 0.0063996967         3949 
 4553000    0.5321957    -9.569463    456.30057 0.0083516468  0.006397157         3956 
 4554000   0.52685578   -9.5838915    457.15298 0.0083654109 0.0063946201         3958 
 4555000   0.51073636   -9.5726695    456.88252 0.0083586265 0.0063920848         3951 
 4556000   0.51822579   -9.5651234     457.3007 0.0083644406 0.0063895498         3949 
 4557000   0.51869928   -9.5689386     457.8801 0.0083732006  0.006387017         3935 
 4558000   0.52055741   -9.5646943     457.3271 0.0083612531  0.006384487         3954 
 4559000   0.52250892   -9.5886545    456.83321 0.0083503914 0.0063819562         3946 
 4560000    0.5152993   -9.5672183    457.15522 0.0083544449 0.0063794264         3941 
 4561000   0.50815653   -9.5923982     457.2075 0.0083535683 0.0063768989         3948 
 4562000    0.5217028   -9.5675509    457.75065 0.0083616587 0.0063743723         3947 
 4563000   0.51915734   -9.5479072    457.17387 0.0083492927 0.0063718473         3949 
 4564000   0.52081341   -9.5742342    457.47716  0.008353001 0.0063693252         3949 
 4565000   0.51222671    -9.570234    456.88939 0.0083404416 0.0063668028         3945 
 4566000   0.52326641   -9.5617303     456.9928 0.0083405023 0.0063642819         3963 
 4567000   0.52638907    -9.583048    457.16604 0.0083418372 0.0063617634         3943 
 4568000   0.53293501   -9.5784268     456.9996 0.0083369745 0.0063592432         3955 
 4569000    0.5235519   -9.5640354    457.47838 0.0083438823 0.0063567264         3958 
 4570000   0.51978343    -9.581393    457.52271 0.0083428649 0.0063542116         3934 
 4571000   0.51354046   -9.5646742    456.94227 0.0083304579 0.0063516967         3937 
 4572000   0.52065315   -9.5771672    457.02876 0.0083302122 0.0063491821         3947 
 4573000   0.51448341   -9.5734604    457.07846 0.0083292963 0.0063466697         3954 
 4574000   0.51383956   -9.5759416     456.9725 0.0083255448 0.0063441594         3954 
 4575000   0.51680338   -9.5882747    457.08724 0.0083258149  0.006341652         3946 
 4576000   0.52680049   -9.5685934    457.30643 0.0083279871  0.006339146         3940 
 4577000   0.51407982   -9.5752578    456.96432 0.0083199389 0.0063366418         3951 
 4578000   0.52859078   -9.5755502    456.28353 0.0083057291 0.0063341394         3942 
 4579000   0.51442725   -9.5693679    457.28442 0.0083221304 0.0063316364         3956 
 4580000   0.53892881   -9.5826532    457.52058 0.0083246103  0.006329136         3941 
 4581000   0.51968576   -9.5646827    456.67816 0.0083074685 0.0063266347         3956 
 4582000   0.53016045   -9.5715193    456.31336 0.0082990208 0.0063241362         3957 
 4583000   0.51926285    -9.591502     456.9629 0.0083090206 0.0063216373         3940 
 4584000   0.52260911   -9.5719336    457.19586  0.008311443 0.0063191419         3934 
 4585000   0.52483276   -9.5993392    457.30138 0.0083115481 0.0063166492         3951 
 4586000   0.51776698   -9.5786847     456.9933 0.0083041376 0.0063141553         3949 
 4587000   0.51798205   -9.5819469    457.02939 0.0083029829 0.0063116628         3954 
 4588000   0.51399653   -9.5753386    456.70421 0.0082952668 0.0063091717         3957 
 4589000   0.51286163   -9.5851384    456.89987 0.0082970123 0.0063066822         3944 
 4590000   0.51549744   -9.5938778    456.57963 0.0082893906 0.0063041942         3957 
 4591000   0.52700475   -9.5948087    456.93087 0.0082939604 0.0063017072         3954 
 4592000   0.51109115   -9.5858188    456.72176 0.0082883595 0.0062992212         3952 
 4593000   0.51014006    -9.582434    457.45448  0.008299849 0.0062967366         3952 
 4594000    0.5104873   -9.5907628    456.76806  0.008285591 0.0062942529         3952 
 4595000   0.50830646   -9.5779818    456.70422 0.0082826301 0.0062917707         3952 
 4596000   0.51372109   -9.5894754    456.82982 0.0082831053 0.0062892896         3957 
 4597000   0.50824476   -9.5813857    456.55709 0.0082763594 0.0062868105         3944 
 4598000   0.50736359   -9.5958596    457.16103 0.0082855051 0.0062843316         3951 
 4599000    0.5137774   -9.5813344    456.54465 0.0082725348 0.0062818551         3941 
 4600000   0.51212495   -9.6006103    457.10588 0.0082809037 0.0062793802         3962 
 4601000   0.51232903   -9.5712586    456.86611  0.008274761 0.0062769035         3959 
 4602000   0.51534455   -9.5924872    456.89991 0.0082735751 0.0062744309         3959 
 4603000   0.52569261   -9.5884083     456.9398 0.0082724999 0.0062719608         3954 
 4604000   0.51114864   -9.5819422    456.83584 0.0082688214 0.0062694917         3952 
 4605000   0.52238265   -9.5849757    456.24636 0.0082563583 0.0062670233         3955 
 4606000   0.52345619   -9.5961948    457.07689 0.0082695921 0.0062645573         3961 
 4607000   0.50450373    -9.591177    456.95453 0.0082655837 0.0062620904         3962 
 4608000   0.51222009   -9.5860519    457.61538 0.0082757411 0.0062596277         3943 
 4609000    0.5105444   -9.5788478    457.16374 0.0082657796 0.0062571635         3965 
 4610000    0.5096773   -9.5744545    456.94153 0.0082599698 0.0062547021         3942 
 4611000    0.5215538    -9.590105    456.77603 0.0082551874 0.0062522416         3947 
 4612000   0.51962822   -9.5985051    457.03074 0.0082579997 0.0062497826         3945 
 4613000   0.52223911   -9.5852932    457.01816 0.0082559824  0.006247326         3955 
 4614000   0.51401443   -9.5899294    456.43059 0.0082435809 0.0062448698         3943 
 4615000   0.51161532    -9.598383    457.25883 0.0082567503 0.0062424157         3951 
 4616000   0.51094189   -9.5878246    456.39437 0.0082393554 0.0062399626         3948 
 4617000   0.50317931     -9.60659    457.29979 0.0082539129 0.0062375098         3953 
 4618000   0.50761671   -9.5691511    456.72348 0.0082417258 0.0062350566         3955 
 4619000   0.50724243   -9.5889945    456.91187 0.0082433404 0.0062326054         3960 
 4620000   0.52205405   -9.5969363    456.32311 0.0082309364 0.0062301554         3949 
 4621000   0.52006099    -9.573052    457.04452 0.0082421648 0.0062277084         3936 
 4622000   0.50009575   -9.5922634    457.19183 0.0082430375 0.0062252626         3958 
 4623000    0.5085221   -9.5855513    457.02835 0.0082383075 0.0062228172         3944 
 4624000   0.50544882   -9.5999259     456.6171 0.0082291144 0.0062203728         3949 
 4625000   0.50723303   -9.5795079    457.37615 0.0082410118 0.0062179303         3940 
 4626000   0.52110772   -9.5832174    456.91585 0.0082309383 0.0062154905         3950 
 4627000    0.5225499   -9.6126732    456.93058 0.0082294247 0.0062130518         3947 
 4628000   0.51111301   -9.6057858    457.07245 0.0082302012 0.0062106149         3954 
 4629000   0.51970215   -9.5916302    456.70232 0.0082217599 0.0062081779         3959 
 4630000   0.51756676   -9.5839749    456.35541 0.0082137402 0.0062057414         3957 
 4631000   0.50541304   -9.5958593    456.74304  0.008218942 0.0062033057         3948 
 4632000   0.49770613   -9.6066597    456.93486 0.0082206185  0.006200872         3955 
 4633000   0.50008141   -9.6045227    456.69871 0.0082145966 0.0061984396         3940 
 4634000   0.51066151   -9.5917208    456.41028  0.008207637 0.0061960101         3944 
 4635000   0.51554018   -9.5786839    456.86526 0.0082140465  0.006193581         3946 
 4636000   0.50408778   -9.6042459    456.10674 0.0081986399 0.0061911522         3947 
 4637000   0.50596537   -9.5911284    456.85546 0.0082103274 0.0061887251         3969 
 4638000   0.52104034   -9.5861268    456.50185 0.0082022037 0.0061862997         3929 
 4639000   0.50288471   -9.5930628    457.08638 0.0082109359 0.0061838768         3955 
 4640000   0.50847868   -9.6033827    456.25295 0.0081941981  0.006181454         3946 
 4641000   0.51506955   -9.6031756    456.13417 0.0081902997  0.006179031         3954 
 4642000   0.50545635   -9.5880328    456.76926 0.0081999365 0.0061766113         3946 
 4643000   0.50041099   -9.5968507    456.94741 0.0082013677 0.0061741912         3952 
 4644000   0.50708141   -9.5826426    456.95232   0.00819969 0.0061717745         3962 
 4645000   0.51747096   -9.5874096    457.59278 0.0082094148 0.0061693579         3949 
 4646000   0.51366414   -9.6021089     456.2297 0.0081831988 0.0061669457         3939 
 4647000    0.5187298   -9.5779918      456.817 0.0081919698 0.0061645326         3958 
 4648000   0.50329963     -9.58394     457.4064 0.0082007746 0.0061621202         3941 
 4649000   0.50960157   -9.6004405    456.60604  0.008184664 0.0061597094         3951 
 4650000   0.49280714   -9.6072918     455.8388  0.008169154 0.0061572983         3954 
 4651000   0.49720136   -9.6090216     456.2525   0.00817481 0.0061548894         3946 
 4652000   0.51114039   -9.5975342    456.29984 0.0081739008 0.0061524815         3957 
 4653000   0.51440125   -9.5976781    456.37467 0.0081734843 0.0061500753         3950 
 4654000   0.50652282    -9.598041    456.73285 0.0081781416 0.0061476692         3948 
 4655000   0.51292717   -9.5992113    455.93381 0.0081620804 0.0061452649         3955 
 4656000   0.49886844   -9.6088829    456.53669 0.0081711178 0.0061428619         3953 
 4657000   0.52042921    -9.600473    456.55583 0.0081697057 0.0061404608         3950 
 4658000   0.51322263   -9.6041219    456.77631 0.0081718963 0.0061380615         3954 
 4659000    0.5029287   -9.5859664    456.80722  0.008170695 0.0061356637         3945 
 4660000   0.50681732   -9.6056092    457.08219  0.008173859 0.0061332676         3953 
 4661000   0.50447668   -9.5991968    456.68377  0.008164982 0.0061308704         3966 
 4662000   0.49784276   -9.5932389    456.72702 0.0081640037 0.0061284754         3941 
 4663000   0.50830377   -9.6024185    457.16062 0.0081700017 0.0061260827         3957 
 4664000    0.4977833   -9.5920419    456.65888 0.0081592853 0.0061236897         3956 
 4665000   0.50658095   -9.6034396    455.79009 0.0081420166  0.006121298         3938 
 4666000   0.50290912   -9.6076422    456.28079 0.0081490355 0.0061189083         3942 
 4667000   0.50531822   -9.5999605    456.95951 0.0081594085 0.0061165198         3956 
 4668000   0.51022395   -9.5795657    456.86498  0.008155973 0.0061141331         3946 
 4669000   0.50428004   -9.6063896    456.97647  0.008156216 0.0061117483         3956 
 4670000   0.50097546   -9.5890146    456.29519 0.0081423125 0.0061093635         3960 
 4671000   0.51751257   -9.5966445    456.91629   0.00815165 0.0061069814         3950 
 4672000   0.50592465   -9.5878937    456.12936  0.008135869 0.0061045986         3956 
 4673000   0.49939671   -9.5866707    456.73141 0.0081448642  0.006102219         3949 
 4674000   0.50991452   -9.6083166     456.9647 0.0081472811 0.0060998393         3972 
 4675000   0.49461017   -9.5882558    456.49674 0.0081371969  0.006097459         3953 
 4676000   0.51114193   -9.6166662    456.31557 0.0081322279 0.0060950818         3949 
 4677000   0.49888279   -9.6145786     456.1215 0.0081270312 0.0060927057         3953 
 4678000   0.51046153   -9.6111085     456.5717 0.0081333137 0.0060903302         3946 
 4679000    0.4953047   -9.6155016    456.47054 0.0081297738 0.0060879572         3942 
 4680000   0.50383926    -9.599676    456.25317 0.0081241661  0.006085585         3938 
 4681000   0.51143538   -9.6135096    455.66033 0.0081118766 0.0060832151         3964 
 4682000   0.50678737    -9.608719    456.24261 0.0081205079 0.0060808465         3926 
 4683000   0.49174216   -9.6072219    455.69911 0.0081091022 0.0060784789         3948 
 4684000   0.49487305   -9.5970773    457.10092 0.0081323107 0.0060761113         3940 
 4685000   0.49110133   -9.6010931    456.48578 0.0081196332 0.0060737444         3949 
 4686000   0.50627309   -9.5941885    457.02172 0.0081274313 0.0060713819         3972 
 4687000   0.51449922   -9.6216241    456.56546 0.0081175852 0.0060690184         3963 
 4688000   0.50835521   -9.6139035    457.14844 0.0081262166 0.0060666558         3953 
 4689000   0.49963173   -9.5931035    456.74531 0.0081173192 0.0060642956         3948 
 4690000   0.50461485   -9.5984384    456.29517 0.0081075901 0.0060619375         3951 
 4691000   0.49411918   -9.6005393    456.75331 0.0081140004 0.0060595798         3945 
 4692000   0.50431773   -9.6050587    456.09167 0.0081005199 0.0060572213         3953 
 4693000   0.49299659   -9.6122023    456.65198 0.0081087431 0.0060548674         3946 
 4694000   0.50975923   -9.6249779    456.17798 0.0080986006  0.006052513         3951 
 4695000   0.50439187   -9.6182906    456.77248 0.0081074278 0.0060501616         3961 
 4696000   0.49227406   -9.6033904    456.24505 0.0080963417 0.0060478094         3947 
 4697000   0.49558614   -9.6063528    456.07293 0.0080915643 0.0060454588         3959 
 4698000    0.4952014   -9.6079702     456.4129 0.0080958724 0.0060431107         3939 
 4699000   0.49795374   -9.6019815    456.19936 0.0080903624 0.0060407619         3939 
 4700000   0.51544998   -9.6063379    456.20558 0.0080887514 0.0060384161         3948 
 4701000   0.50785583   -9.6199892    455.92205 0.0080820047 0.0060360713         3936 
 4702000   0.49769731   -9.6051472    456.16973 0.0080846756 0.0060337266         3947 
 4703000    0.4892644    -9.602462    456.56037 0.0080898782 0.0060313825         3952 
 4704000   0.49513407   -9.5930977    456.67314 0.0080901562 0.0060290405         3952 
 4705000   0.50052354   -9.6136766    456.40878 0.0080837545 0.0060266991         3945 
 4706000   0.49872879   -9.5894822    456.38449 0.0080816066 0.0060243611         3946 
 4707000   0.49609593   -9.5871448     456.6903 0.0080853038 0.0060220233         3955 
 4708000   0.49895047   -9.6097138    456.34583 0.0080774893 0.0060196861         3951 
 4709000   0.48776433   -9.6187532    455.40012  0.008059038 0.0060173509         3955 
 4710000   0.51802988   -9.6094037    456.41501 0.0080752833 0.0060150174         3956 
 4711000   0.49842517   -9.5945859    455.86296 0.0080638039 0.0060126851         3942 
 4712000   0.50375395   -9.6070712    456.02998 0.0080650464 0.0060103534         3945 
 4713000   0.49459303   -9.6097379    456.37746 0.0080694791 0.0060080229         3953 
 4714000   0.49941583    -9.590838    456.95123 0.0080779103 0.0060056934         3947 
 4715000   0.48869156   -9.6187461    457.01512 0.0080773263 0.0060033654         3954 
 4716000     0.504641    -9.608475    456.67151 0.0080695419 0.0060010381         3950 
 4717000   0.49590458   -9.6058985    457.22613 0.0080776292 0.0059987118         3950 
 4718000   0.49628021   -9.6148535    456.37312 0.0080608507 0.0059963861         3956 
 4719000   0.49775032   -9.6283595    456.11053 0.0080545053 0.0059940636         3952 
 4720000    0.4934884   -9.6023516    455.56479 0.0080431637 0.0059917409         3956 
 4721000   0.50251938   -9.6069097    456.86168 0.0080643521 0.0059894214         3947 
 4722000   0.49075176    -9.609949    455.67926 0.0080417771 0.0059871017         3943 
 4723000   0.49912788   -9.6052984    456.77934 0.0080594845 0.0059847843         3959 
 4724000   0.50029422   -9.6289197    455.75837  0.008039768 0.0059824663         3955 
 4725000   0.48836198   -9.6235376    456.57697 0.0080525039 0.0059801508         3959 
 4726000   0.48965404   -9.6082447    456.08435 0.0080421137 0.0059778366         3949 
 4727000   0.49260798   -9.6313592    456.87181 0.0080542946  0.005975523         3956 
 4728000   0.51163564   -9.6148116    455.76745 0.0080331262 0.0059732095         3955 
 4729000   0.49450372   -9.5971249    455.44637 0.0080257695 0.0059708983         3945 
 4730000   0.48883923   -9.6247347    456.19113  0.008037194 0.0059685891         3955 
 4731000    0.4910183   -9.6149922     456.1803 0.0080353043 0.0059662799         3950 
 4732000   0.49285772   -9.6125935    456.14829 0.0080330427 0.0059639728         3954 
 4733000   0.48711705   -9.6027833     455.9659  0.008028134 0.0059616655         3962 
 4734000   0.48926908   -9.6210386    456.04998 0.0080279182  0.005959359         3933 
 4735000   0.49396771   -9.6155629    456.56795 0.0080353388 0.0059570535         3968 
 4736000   0.48712783   -9.6144292    456.06037 0.0080247109 0.0059547505         3948 
 4737000   0.49082466   -9.6128166    456.11568 0.0080239898 0.0059524486         3959 
 4738000   0.47875595   -9.6033414    456.76942 0.0080337944  0.005950149         3941 
 4739000   0.49917855   -9.6052444    456.09244 0.0080201948 0.0059478497         3946 
 4740000   0.49238669   -9.6059114    456.47964 0.0080253101 0.0059455527         3950 
 4741000   0.49786636   -9.6373493    455.11844 0.0079996913 0.0059432556         3945 
 4742000   0.48836522   -9.6165149    456.61995 0.0080243911  0.005940959         3943 
 4743000   0.50257898   -9.6335772    455.60763 0.0080049131 0.0059386652         3969 
 4744000    0.5001042   -9.6078706    455.63197 0.0080036532 0.0059363707         3957 
 4745000   0.49349491   -9.6215289    456.10621 0.0080102951 0.0059340781         3953 
 4746000   0.50995631    -9.631045    456.04501 0.0080075328 0.0059317876         3960 
 4747000   0.49404817   -9.6190223    456.48693 0.0080136039 0.0059295001         3950 
 4748000   0.48074183   -9.6178292    456.12853 0.0080056257 0.0059272104         3948 
 4749000   0.49732092   -9.6256519     455.8778 0.0079995403 0.0059249233         3950 
 4750000   0.49393657   -9.5994508    456.33068 0.0080058014 0.0059226381         3954 
 4751000   0.49697482    -9.625338    456.74514 0.0080113861 0.0059203526         3941 
 4752000   0.49227227   -9.6208702    456.47214 0.0080049126 0.0059180701         3969 
 4753000   0.48521932   -9.6096922    455.74877 0.0079905458 0.0059157879         3966 
 4754000   0.49613266   -9.6282342     455.6712 0.0079875053  0.005913507         3938 
 4755000   0.50097973   -9.6134407    456.07961  0.007992983 0.0059112265         3954 
 4756000   0.48896981   -9.6054232    456.16141 0.0079927358 0.0059089473         3942 
 4757000   0.49520503   -9.6069749    455.94891 0.0079873328 0.0059066698         3960 
 4758000   0.49473255   -9.6260724    455.62425  0.007979968 0.0059043929         3953 
 4759000   0.48736759    -9.618513    456.48652 0.0079933901 0.0059021187         3943 
 4760000   0.48207965   -9.6288428    456.07544  0.007984514  0.005899844         3956 
 4761000   0.48209569   -9.6145861    456.41215 0.0079887305 0.0058975702         3948 
 4762000   0.49135464   -9.6106608    455.80533 0.0079764337 0.0058952978         3949 
 4763000   0.49378268   -9.6197203    455.88499 0.0079761528 0.0058930268         3952 
 4764000   0.48964767   -9.6099719    456.11517 0.0079785049 0.0058907567         3946 
 4765000   0.49803449   -9.6092955    456.03044 0.0079753487 0.0058884885         3939 
 4766000   0.48988853   -9.6333419    455.93512 0.0079720086 0.0058862221         3949 
 4767000   0.49097037   -9.6288297    455.54333 0.0079634873 0.0058839562         3947 
 4768000   0.48571618   -9.6343093    455.51841 0.0079613816 0.0058816904         3950 
 4769000    0.4910933   -9.6344372    456.14286 0.0079706238 0.0058794261         3961 
 4770000   0.49839195   -9.6233868    456.09894 0.0079681855 0.0058771637         3955 
 4771000   0.47804955   -9.6099158    455.85663  0.007962283 0.0058749019         3954 
 4772000   0.48800701   -9.6262242    456.04195 0.0079638508 0.0058726435         3961 
 4773000   0.48476641   -9.6247447    456.45875 0.0079694593  0.005870384         3960 
 4774000   0.49031147   -9.6253134     455.6209 0.0079531646 0.0058681273         3930 
 4775000   0.47472288   -9.6385111    456.27948 0.0079629927  0.005865871         3959 
 4776000   0.47592968   -9.6326063    455.64309 0.0079502213 0.0058636144         3962 
 4777000   0.49870867   -9.6210004    456.62273 0.0079656467 0.0058613617         3947 
 4778000   0.49993822   -9.6280696    455.79995 0.0079496293  0.005859109         3955 
 4779000   0.49737756   -9.6294874    456.21775 0.0079552513 0.0058568567         3946 
 4780000   0.49451331    -9.619656     456.3681 0.0079562082 0.0058546073         3960 
 4781000   0.48425388   -9.6177404     456.0529   0.00794905 0.0058523569         3931 
 4782000   0.49528043   -9.6287147    455.86541 0.0079441205 0.0058501095         3952 
 4783000   0.48651137   -9.6191702     455.9639 0.0079441755 0.0058478622         3947 
 4784000   0.48966906   -9.6168748    455.99496 0.0079430561 0.0058456176         3947 
 4785000   0.47526536   -9.6360014    456.28769  0.007946494 0.0058433718         3942 
 4786000   0.48040794   -9.6404804    455.66437 0.0079339806 0.0058411273         3964 
 4787000   0.49057175   -9.6428411    455.27794 0.0079255961 0.0058388839         3962 
 4788000   0.48135909    -9.641194    456.24797 0.0079408237 0.0058366414         3950 
 4789000   0.48319815   -9.6426242    455.87853 0.0079327369 0.0058344003         3955 
 4790000   0.48640823   -9.6112049    455.97702 0.0079327943 0.0058321602         3960 
 4791000   0.48374244   -9.6311911    456.15655 0.0079342612 0.0058299212         3951 
 4792000    0.4863799   -9.6220304     455.5166 0.0079214767 0.0058276845         3956 
 4793000   0.47930587   -9.6314451    455.88558 0.0079262393 0.0058254477         3956 
 4794000   0.48700175   -9.6142776    455.65284 0.0079205402 0.0058232133         3948 
 4795000   0.48922334   -9.6149146    455.24098 0.0079117306  0.005820981         3960 
 4796000   0.48183269   -9.6283169    455.78036  0.007919453 0.0058187507         3958 
 4797000   0.48129795   -9.6322719    455.97551 0.0079211922 0.0058165198         3948 
 4798000   0.48770093    -9.616621    455.57421 0.0079125715 0.0058142901         3948 
 4799000   0.49172499   -9.6351693    456.32728 0.0079239995 0.0058120624         3956 
 4800000   0.48142033   -9.6253215    456.13255 0.0079189679 0.0058098352         3961 
 4801000   0.49537951   -9.6298033    456.01861 0.0079153407 0.0058076082         3946 
 4802000   0.48516191   -9.6225774    455.93388 0.0079122219 0.0058053849         3960 
 4803000   0.48778706   -9.6324104    455.95351 0.0079109152 0.0058031603         3953 
 4804000    0.4736385   -9.6458231    454.52591 0.0078845044  0.005800937         3951 
 4805000   0.48490057   -9.6127914    455.54333 0.0079005087  0.005798717         3947 
 4806000   0.47870217   -9.6446976    455.84043 0.0079040163 0.0057964971         3946 
 4807000   0.47817172   -9.6322327    455.30386 0.0078930702 0.0057942771         3942 
 4808000   0.48453599   -9.6376883    454.88844 0.0078842285 0.0057920567         3955 
 4809000   0.48100446   -9.6298493    455.74171 0.0078973748 0.0057898397         3956 
 4810000   0.48807858   -9.6355769    455.25455  0.007887293 0.0057876251         3941 
 4811000   0.48457294   -9.6447993    455.73907 0.0078940462 0.0057854098         3956 
 4812000   0.47820868   -9.6459318    455.39282 0.0078864094 0.0057831968         3958 
 4813000    0.4754753   -9.6435127    455.62143 0.0078887289 0.0057809823         3954 
 4814000   0.46803668   -9.6346737    456.04233 0.0078943763 0.0057787706         3950 
 4815000   0.47006786   -9.6339164    455.36127 0.0078809497 0.0057765601         3940 
 4816000   0.47816678   -9.6276161    456.29424 0.0078954568 0.0057743497         3952 
 4817000   0.47439401   -9.6338832    455.59676 0.0078817514 0.0057721445         3958 
 4818000   0.48017718    -9.626995    455.71316 0.0078821288 0.0057699381         3958 
 4819000    0.4851221   -9.6461442    455.83465  0.007882594 0.0057677334         3950 
 4820000   0.46895265   -9.6303708    456.07865 0.0078851772 0.0057655301         3962 
 4821000   0.48512258   -9.6402306     455.3831 0.0078715188 0.0057633263         3959 
 4822000   0.47510338    -9.632901     455.4931 0.0078717873  0.005761125         3955 
 4823000   0.49050103   -9.6339966    455.84216 0.0078761864 0.0057589245         3948 
 4824000   0.47899528   -9.6401442    455.25971 0.0078644919 0.0057567243         3949 
 4825000   0.48373196   -9.6396445    456.05532 0.0078766032  0.005754525         3949 
 4826000   0.48899813   -9.6419595    455.80473  0.007870644 0.0057523261         3960 
 4827000    0.4839535    -9.634484    455.91771 0.0078709638 0.0057501294         3956 
 4828000   0.47094169   -9.6409597    456.16323 0.0078735713 0.0057479346         3946 
 4829000   0.46712771   -9.6334238    455.19918 0.0078553043 0.0057457398         3962 
 4830000   0.47561982    -9.628086    455.36097 0.0078564694 0.0057435472         3949 
 4831000   0.47144103    -9.637223    456.33076 0.0078715718 0.0057413558         3960 
 4832000   0.46804058   -9.6384253    455.29778 0.0078521278  0.005739165         3959 
 4833000   0.48430629    -9.630388    455.89742 0.0078608425 0.0057369756         3965 
 4834000   0.47918368    -9.646947    456.22155  0.007864804 0.0057347887         3957 
 4835000   0.47725882   -9.6413801    455.62889 0.0078529626 0.0057326024         3950 
 4836000   0.47488605   -9.6239036    455.58657 0.0078506096 0.0057304155         3951 
 4837000   0.47374774   -9.6327652    455.29315 0.0078439313 0.0057282297         3949 
 4838000   0.46834743   -9.6266764    456.28288 0.0078593579 0.0057260468         3946 
 4839000   0.48860831   -9.6305303    456.06255 0.0078539394 0.0057238645         3944 
 4840000   0.47652734   -9.6316009    455.42182 0.0078412848  0.005721682         3953 
 4841000   0.47582956   -9.6416141    455.67904 0.0078440928 0.0057195019         3943 
 4842000   0.47336699   -9.6406969    455.19985 0.0078342257 0.0057173222         3952 
 4843000   0.47324734   -9.6511058    455.60464 0.0078395733 0.0057151434         3961 
 4844000   0.47119927   -9.6274179    455.64721 0.0078386873 0.0057129661         3959 
 4845000   0.47963484   -9.6464567      455.528 0.0078350189 0.0057107914         3943 
 4846000   0.47331675   -9.6311712    455.35727 0.0078304661 0.0057086162         3958 
 4847000   0.48030554   -9.6298876    456.28606 0.0078448191 0.0057064431         3954 
 4848000   0.48601441   -9.6367549    455.69056 0.0078329649 0.0057042701         3955 
 4849000   0.47905471    -9.641431    455.25567 0.0078238755 0.0057020989         3950 
 4850000    0.4698787   -9.6336571    455.20452 0.0078213835 0.0056999283         3955 
 4851000   0.48404549   -9.6432323    456.06041 0.0078344741 0.0056977589         3957 
 4852000   0.48205887   -9.6375179    456.21136  0.007835452  0.005695591         3962 
 4853000    0.4698036   -9.6389733    455.29161  0.007818044 0.0056934246         3963 
 4854000   0.47873654   -9.6558844    454.69981 0.0078062734 0.0056912579         3957 
 4855000   0.48289445   -9.6481677    455.39706 0.0078166334 0.0056890918         3960 
 4856000   0.46694858   -9.6341139    455.82533 0.0078223732 0.0056869295         3956 
 4857000   0.48093784   -9.6304139    455.88265 0.0078217461 0.0056847672         3937 
 4858000    0.4853683   -9.6438305    455.34184 0.0078108591 0.0056826057         3951 
 4859000   0.49060587   -9.6486432    455.71807  0.007815704 0.0056804451         3950 
 4860000   0.46667078   -9.6339365    455.45197 0.0078095331 0.0056782862         3951 
 4861000   0.47302209   -9.6422123    455.86656 0.0078150339 0.0056761268         3971 
 4862000   0.47410598   -9.6418418    455.70223 0.0078106099 0.0056739692         3951 
 4863000   0.46555693   -9.6556711     455.0519 0.0077978596 0.0056718141         3951 
 4864000   0.46686208   -9.6445872    455.29396 0.0078004037 0.0056696578         3955 
 4865000   0.47388465   -9.6502905    455.89422 0.0078090823  0.005667503         3952 
 4866000   0.47364898   -9.6401938    455.88147  0.007807259 0.0056653498         3957 
 4867000   0.48345404   -9.6302326     455.3145 0.0077959471 0.0056631971         3954 
 4868000   0.48079273    -9.652395    455.08867 0.0077904798 0.0056610482         3955 
 4869000   0.48034646   -9.6432895    455.87336 0.0078023098 0.0056588979         3946 
 4870000   0.47981839   -9.6498426    455.28301  0.007790606 0.0056567502         3942 
 4871000   0.47248411   -9.6513953    455.53421 0.0077933041 0.0056546018         3947 
 4872000   0.46675679   -9.6349101      455.058 0.0077835591 0.0056524569         3961 
 4873000   0.46569855   -9.6474987    455.82359 0.0077950542  0.005650312         3956 
 4874000   0.47067417   -9.6421719    455.64105 0.0077903339 0.0056481677         3957 
 4875000   0.46216682   -9.6487308    455.58793 0.0077878279  0.005646025         3936 
 4876000   0.46993646   -9.6548087    454.96457 0.0077755771 0.0056438841         3940 
 4877000   0.46866541   -9.6550948    455.99565 0.0077916009 0.0056417451         3956 
 4878000   0.48027219   -9.6443299    455.55298 0.0077824413 0.0056396067         3948 
 4879000    0.4682612   -9.6453816    454.97403 0.0077709577 0.0056374677         3952 
 4880000   0.47225461   -9.6284529     455.8211 0.0077838303 0.0056353319         3933 
 4881000   0.46343734   -9.6395626    455.36007 0.0077743644 0.0056331948         3964 
 4882000   0.46706621   -9.6492751    455.20868 0.0077701878 0.0056310607         3956 
 4883000    0.4682534   -9.6437121    455.31097 0.0077703422 0.0056289265         3961 
 4884000    0.4547546   -9.6438781    455.27079 0.0077680657 0.0056267939         3961 
 4885000   0.47270889   -9.6478688    455.91411 0.0077774499 0.0056246625         3950 
 4886000   0.47284924     -9.65156    455.49997 0.0077687947 0.0056225311         3959 
 4887000   0.47332898   -9.6403926    456.02634 0.0077761807 0.0056204017         3948 
 4888000   0.47220854   -9.6463479    455.73673 0.0077696523 0.0056182739         3960 
 4889000   0.46984128   -9.6440718    455.31288 0.0077608385 0.0056161472         3955 
 4890000   0.46213328   -9.6589278    454.92792 0.0077526911 0.0056140205         3954 
 4891000   0.48027876   -9.6422738    456.04117 0.0077700738 0.0056118958         3947 
 4892000   0.47496976   -9.6527951    455.70309 0.0077627264 0.0056097719         3958 
 4893000   0.46741233   -9.6519694    454.60015 0.0077423556 0.0056076496         3961 
 4894000   0.46407836   -9.6580018    454.61447 0.0077410174 0.0056055273         3956 
 4895000   0.46606874   -9.6525698    454.65926 0.0077401984 0.0056034061         3968 
 4896000    0.4766708   -9.6506946    455.22401   0.00774823 0.0056012861         3946 
 4897000    0.4678102   -9.6440795    455.29087 0.0077477856 0.0055991673         3946 
 4898000    0.4722445   -9.6558682    455.85617 0.0077558216 0.0055970516         3945 
 4899000   0.47311456   -9.6608164    455.32017 0.0077451209 0.0055949356         3962 
 4900000   0.46833735   -9.6571039    455.17964 0.0077411503  0.005592821         3951 
 4901000    0.4597076   -9.6327632    455.20403 0.0077399856 0.0055907061         3940 
 4902000   0.47159561   -9.6566347    455.33914 0.0077407035 0.0055885944         3954 
 4903000   0.46649406   -9.6460521    455.57012 0.0077430505 0.0055864816         3948 
 4904000   0.47700009    -9.664729    455.19215 0.0077350487 0.0055843696         3956 
 4905000   0.46754792   -9.6500126    455.66236 0.0077414603  0.005582261         3951 
 4906000   0.46160659   -9.6562157    455.55959 0.0077381368 0.0055801513         3942 
 4907000   0.46846035   -9.6502723    456.04402 0.0077447867 0.0055780449         3958 
 4908000    0.4672218   -9.6412676    456.00992 0.0077426297 0.0055759389         3955 
 4909000    0.4793786   -9.6587974    454.78905 0.0077203274 0.0055738341         3962 
 4910000    0.4618941   -9.6559422    455.26205  0.007726783 0.0055717305         3954 
 4911000    0.4566187   -9.6533858    455.26994 0.0077253435 0.0055696278         3952 
 4912000   0.45827566   -9.6527366    455.77228 0.0077322931  0.005567527         3944 
 4913000   0.45720278   -9.6547281    454.88029 0.0077155894 0.0055654268         3946 
 4914000   0.47264119   -9.6578855    455.76193 0.0077289704 0.0055633263         3963 
 4915000   0.45712924   -9.6536701    455.09832 0.0077161464 0.0055612271         3953 
 4916000   0.47666342   -9.6642742    455.65947 0.0077240892 0.0055591309         3953 
 4917000   0.47082258   -9.6664215     454.6484 0.0077053827 0.0055570352         3967 
 4918000   0.47498193   -9.6551067    455.01114 0.0077099623 0.0055549396         3957 
 4919000   0.46447176   -9.6640142    455.56012 0.0077176952 0.0055528436         3961 
 4920000   0.46353498   -9.6532269    455.10896 0.0077084851 0.0055507497         3952 
 4921000   0.47585971    -9.661695     455.3139 0.0077103892 0.0055486578         3962 
 4922000    0.4595084    -9.650258    454.91502 0.0077020693 0.0055465676         3944 
 4923000   0.46319141   -9.6520831    455.43194 0.0077092549 0.0055444756         3947 
 4924000    0.4640116   -9.6740117    455.72888 0.0077127146 0.0055423857         3954 
 4925000   0.46501353   -9.6666117    454.86614 0.0076965505 0.0055402963         3958 
 4926000   0.46322733   -9.6555095    454.80212 0.0076939051 0.0055382089         3962 
 4927000   0.46336549   -9.6725509    455.53906 0.0077048079  0.005536122         3956 
 4928000    0.4605319   -9.6635104    455.51999 0.0077029218 0.0055340357         3947 
 4929000   0.46428878    -9.651905    455.34045 0.0076983236 0.0055319524         3948 
 4930000   0.46591517   -9.6576157    455.21138 0.0076945804 0.0055298682         3947 
 4931000   0.45883418   -9.6693265    455.41753 0.0076965039  0.005527786         3949 
 4932000   0.46235532   -9.6578267    454.37769 0.0076773737 0.0055257052         3952 
 4933000    0.4618913   -9.6632006    455.48926 0.0076945953 0.0055236265         3943 
 4934000   0.45692135   -9.6740492    455.46376 0.0076926051 0.0055215469         3956 
 4935000   0.45663256   -9.6656646    454.88709 0.0076813085 0.0055194679         3935 
 4936000   0.46051044    -9.661178    455.25361 0.0076859402 0.0055173911         3946 
 4937000   0.47036882   -9.6506738    454.93388 0.0076789865 0.0055153165         3961 
 4938000   0.45203165    -9.655711     455.3129 0.0076838278 0.0055132429         3945 
 4939000   0.46619624   -9.6621057    455.10124 0.0076787009   0.00551117         3946 
 4940000   0.46059671   -9.6461658    454.99782 0.0076754018 0.0055090975         3943 
 4941000   0.46171403   -9.6560993    454.89482 0.0076721113 0.0055070269         3957 
 4942000   0.46875705   -9.6683624    455.57972 0.0076821078 0.0055049558         3964 
 4943000   0.46022491   -9.6582534    454.33915  0.007659639 0.0055028865         3956 
 4944000   0.46348614   -9.6647325    455.09066 0.0076707568  0.005500818         3958 
 4945000    0.4613055   -9.6551121    454.47308 0.0076587982 0.0054987509         3957 
 4946000   0.45871564   -9.6556333    455.51648 0.0076748294  0.005496685         3954 
 4947000   0.46190302   -9.6513867    454.80911 0.0076613623 0.0054946198         3950 
 4948000    0.4522846    -9.654787    454.48899 0.0076544225 0.0054925546         3959 
 4949000   0.45724402   -9.6696462    455.42141 0.0076685762  0.005490492         3960 
 4950000   0.45506411   -9.6797878    454.64368 0.0076539341 0.0054884296         3952 
 4951000   0.45673001   -9.6641267    455.63587 0.0076690883 0.0054863687         3944 
 4952000   0.46093125   -9.6698622    454.81569 0.0076537374  0.005484308         3968 
 4953000   0.45594112   -9.6540571    455.19995 0.0076586573 0.0054822501         3956 
 4954000   0.46405211   -9.6610812     454.8178 0.0076506829  0.005480193         3944 
 4955000   0.46821274   -9.6530521    455.61539 0.0076625528 0.0054781378         3960 
 4956000   0.45450511   -9.6684844    454.61649 0.0076442105 0.0054760832         3958 
 4957000   0.46195912   -9.6584157    454.79217 0.0076456218 0.0054740288         3958 
 4958000   0.45987969   -9.6755649    454.66435 0.0076419314 0.0054719733         3949 
 4959000   0.46309736   -9.6806933    454.89575  0.007644279 0.0054699212         3959 
 4960000   0.46516299    -9.660189      454.818 0.0076414315 0.0054678696         3959 
 4961000    0.4614666   -9.6504419     455.6349 0.0076536131 0.0054658196         3955 
 4962000   0.45053802   -9.6579911    455.25508  0.007645692 0.0054637704         3952 
 4963000   0.45333887    -9.675672    454.84537 0.0076372719 0.0054617229         3957 
 4964000   0.45540875   -9.6738974    455.11873 0.0076403226 0.0054596759         3947 
 4965000   0.44761539   -9.6685427    454.97454 0.0076363635 0.0054576303         3953 
 4966000    0.4598177   -9.6782273    455.20842 0.0076387506 0.0054555863         3962 
 4967000   0.46239341   -9.6685312    454.85653 0.0076313088 0.0054535417         3968 
 4968000   0.47336033   -9.6648438    454.91631 0.0076307755 0.0054514986         3954 
 4969000   0.45560419   -9.6706514    455.37636 0.0076369552 0.0054494578         3967 
 4970000   0.46317291   -9.6674987    455.37089 0.0076353268 0.0054474172         3954 
 4971000   0.45595508   -9.6624533     454.7502 0.0076233857  0.005445378         3960 
 4972000    0.4620785   -9.6725223    455.61878 0.0076364103 0.0054433406         3954 
 4973000   0.45596213    -9.676872    454.65526 0.0076187287 0.0054413027         3965 
 4974000   0.45986712   -9.6756711    454.71572 0.0076182101  0.005439266         3951 
 4975000   0.45027854   -9.6662376    455.83683 0.0076354577   0.00543723         3954 
 4976000   0.44949745   -9.6712882    454.82816 0.0076170311 0.0054351941         3958 
 4977000   0.45499916    -9.657816    455.35359 0.0076242983 0.0054331619         3952 
 4978000   0.45844649   -9.6643047    454.63945 0.0076108117 0.0054311302         3963 
 4979000   0.44735452   -9.6825352    454.96725 0.0076147695 0.0054290984         3949 
 4980000   0.45817312   -9.6743105    454.37662 0.0076033571 0.0054270668         3944 
 4981000   0.45951095   -9.6643521     455.0982 0.0076139028 0.0054250384         3957 
 4982000   0.44918196   -9.6660012    454.49702 0.0076023186 0.0054230114         3947 
 4983000   0.45374552   -9.6823248    454.89185 0.0076073961 0.0054209836         3944 
 4984000   0.44774308   -9.6853727    455.38247 0.0076140729 0.0054189569         3958 
 4985000   0.45105843    -9.673309    454.39222 0.0075959916 0.0054169319         3958 
 4986000   0.44736051   -9.6764815    454.86582 0.0076023837 0.0054149085         3952 
 4987000   0.46030989   -9.6697433    454.88053 0.0076011051 0.0054128851         3951 
 4988000   0.45436063   -9.6659794    455.64711 0.0076123883 0.0054108637         3963 
 4989000   0.45427556   -9.6617806    454.58657 0.0075931477 0.0054088426         3954 
 4990000   0.44420987   -9.6688246     455.6254 0.0076089746  0.005406823         3952 
 4991000    0.4569485   -9.6690952    455.29463 0.0076019274 0.0054048037         3943 
 4992000   0.45782614   -9.6785795    454.98586 0.0075952501 0.0054027856         3956 
 4993000   0.45506811   -9.6639871     454.9972 0.0075939181 0.0054007678         3957 
 4994000   0.45060046   -9.6662826    455.12407 0.0075945146 0.0053987513         3963 
 4995000   0.44723325   -9.6671234    454.34763 0.0075800405  0.005396735         3962 
 4996000    0.4517654   -9.6689367    454.81925 0.0075863899 0.0053947223         3953 
 4997000    0.4558982   -9.6653482    455.73958 0.0076002199 0.0053927089         3958 
 4998000   0.45590427     -9.66642    454.12266 0.0075717397 0.0053906973         3966 
 4999000   0.44675644   -9.6783987    454.36493 0.0075742636 0.0053886861         3957 
 5000000   0.44792432   -9.6816466    454.50958 0.0075751597 0.0053866761         3954 
 5001000   0.45202309   -9.6724053    454.89243 0.0075800245 0.0053846675         3961 
 5002000   0.45330127   -9.6615739    455.40248 0.0075870065 0.0053826608         3947 
 5003000   0.44965766   -9.6973219    454.61339 0.0075723464 0.0053806531         3958 
 5004000   0.45295364   -9.6743977    454.27794 0.0075652468 0.0053786459         3951 
 5005000   0.44849388   -9.6688528    454.91898 0.0075744086 0.0053766414         3960 
 5006000   0.45425537   -9.6839104    454.33565  0.007563185 0.0053746378         3960 
 5007000   0.45411683   -9.6754979    454.86922 0.0075705549 0.0053726346         3952 
 5008000   0.44317385   -9.6709834    454.42539 0.0075616578 0.0053706315         3974 
 5009000   0.44335657   -9.6832276     454.6078 0.0075631829  0.005368629         3947 
 5010000   0.44482852   -9.6705206    454.98051 0.0075678728 0.0053666296         3962 
 5011000   0.43857844   -9.6754024    455.01153 0.0075668784 0.0053646311         3953 
 5012000   0.45249682   -9.6811844    454.40185 0.0075552316 0.0053626332         3959 
Loop time of 13202.9 on 48 procs for 5000000 steps with 4000 atoms

Performance: 65440.400 tau/day, 378.706 timesteps/s
99.4% CPU use with 48 MPI tasks x no OpenMP threads

MPI task timing breakdown:
Section |  min time  |  avg time  |  max time  |%varavg| %total
---------------------------------------------------------------
Pair    | 968.51     | 1080.3     | 1185.3     | 170.0 |  8.18
Neigh   | 91.879     | 96.186     | 99.819     |  19.3 |  0.73
Comm    | 829.92     | 950.54     | 1087.7     | 200.7 |  7.20
Output  | 20.032     | 20.036     | 20.122     |   0.3 |  0.15
Modify  | 10867      | 10928      | 10996      |  31.8 | 82.77
Other   |            | 127.4      |            |       |  0.97

Nlocal:        83.3333 ave          88 max          76 min
Histogram: 1 0 3 2 5 14 7 5 6 5
Nghost:        2441.52 ave        2471 max        2419 min
Histogram: 1 5 9 11 7 5 2 4 1 3
Neighs:        16869.4 ave       19064 max       13836 min
Histogram: 1 3 1 6 9 9 3 3 7 6
FullNghs:      33739.5 ave       36118 max       30280 min
Histogram: 1 2 2 4 7 4 10 9 7 2

Total # of neighbors = 1619497
Ave neighs/atom = 404.87425
Neighbor list builds = 265873
Dangerous builds = 1

#clear
#
#next RN
#
#jump SELF
Total wall time: 3:40:06
