
units lj                  # Use reduced LJ style units
atom_style atomic         # Uncharged point particles
atom_modify map hash      # Needed for indexing of clusters etc
                          # Used to be able to find where atoms are in relation to each other.

lattice fcc 1.0 spacing 1 1 1
Lattice spacing in x,y,z = 1.5874011 1.5874011 1.5874011
region box block 0 10 0 10 0 10 units lattice
create_box 2 box
Created orthogonal box = (0.0000000 0.0000000 0.0000000) to (15.874011 15.874011 15.874011)
  3 by 4 by 4 MPI processor grid
create_atoms 1 box
Created 4000 atoms
  using lattice units in orthogonal box = (0.0000000 0.0000000 0.0000000) to (15.874011 15.874011 15.874011)
  create_atoms CPU = 0.002 seconds
set type 1 type/fraction 2 0.47 78393
Setting atom values ...
  1873 settings made for type/fraction
mass 1 1.0
mass 2 1.0
pair_style lj/cut  3.5
pair_modify tail  yes
pair_coeff 1  1  1.0  1.0   # Intearaction between 1 and 1 set with epsilon = 1 and sigma = 1
pair_coeff 1  2  1.5  0.8
pair_coeff 2  2  0.5  0.88

write_data data.0
System init for write_data ...
Neighbor list info ...
  update every 1 steps, delay 10 steps, check yes
  max neighbors/atom: 2000, page size: 100000
  master list distance cutoff = 3.8
  ghost atom cutoff = 3.8
  binsize = 1.9, bins = 9 9 9
  1 neighbor lists, perpetual/occasional/extra = 1 0 0
  (1) pair lj/cut, perpetual
      attributes: half, newton on
      pair build: half/bin/atomonly/newton
      stencil: half/bin/3d
      bin: standard
WARNING: Not all mixed pair coeffs generated from mixing. Use write_data with 'pair ij' option to store all pair coeffs. (../write_data.cpp:312)


#############################
#   M E L T   S Y S T E M   #
#############################

velocity all create 2.4 1741580 mom yes dist gaussian # Assign velocities
                                                    # Temperature 2.4, random number seed, zero linear momentum
                                                                                # Gaussian distribution

timestep 0.002   # simulation timestep
thermo 1000       # output thermodynamic data every 1000 steps bf 100

# Define a fix  in this case with index 1 applied to all
# particles in the simulation. This fix is for simulations
# in the anisotropic NPT ensemble. Note that we use the MTK
# correction.
fix 1 all npt temp 2.4 2.4 0.1 iso 5.68 5.68 0.5 mtk yes tchain 5 pchain 5 # Use NPT ensemble
                                                                         # Set temperature and pressure and damping
                                                                         # Numbers of thermostats in chain and in barostat
run 10000          # run for 10000 steps
Per MPI rank memory allocation (min/avg/max) = 3.642 | 3.644 | 3.648 Mbytes
Step Temp E_pair E_mol TotEng Press Volume 
       0          2.4   -5.4815223            0   -1.8824223   -4.2035566         4000 
    1000     2.345151    -4.935014            0    -1.418167    5.4794784    3771.4082 
    2000     2.409942   -4.9732832            0   -1.3592739    5.5623217    3764.5704 
    3000    2.3593104   -5.0323848            0    -1.494304    5.4954771    3732.4593 
    4000    2.4234414   -4.9092628            0   -1.2750095    5.4960336    3791.6165 
    5000    2.4059874   -5.0017565            0   -1.3936776     5.481943    3754.5404 
    6000    2.3651196   -5.0148912            0   -1.4680986    5.4214834    3739.8576 
    7000    2.4242192   -4.9817797            0     -1.34636    5.6561275     3753.397 
    8000     2.422031   -4.9408586            0   -1.3087203    5.5648771    3766.9857 
    9000    2.4191436   -4.9762827            0   -1.3484744    5.6712034    3741.5035 
   10000    2.4008116   -4.9887603            0   -1.3884433    5.2609058    3770.6904 
Loop time of 2.61833 on 48 procs for 10000 steps with 4000 atoms

Performance: 659962.796 tau/day, 3819.229 timesteps/s
99.6% CPU use with 48 MPI tasks x no OpenMP threads

MPI task timing breakdown:
Section |  min time  |  avg time  |  max time  |%varavg| %total
---------------------------------------------------------------
Pair    | 1.1552     | 1.2411     | 1.3389     |   3.1 | 47.40
Neigh   | 0.20956    | 0.22198    | 0.23723    |   0.9 |  8.48
Comm    | 0.78364    | 0.88174    | 0.98946    |   4.6 | 33.68
Output  | 0.00027363 | 0.00027772 | 0.00034559 |   0.0 |  0.01
Modify  | 0.22196    | 0.25753    | 0.30689    |   4.7 |  9.84
Other   |            | 0.01571    |            |       |  0.60

Nlocal:        83.3333 ave          92 max          75 min
Histogram: 2 4 6 3 8 10 4 8 2 1
Nghost:        1708.56 ave        1731 max        1682 min
Histogram: 2 2 5 5 10 6 5 2 8 3
Neighs:        10125.8 ave       11187 max        8987 min
Histogram: 2 3 5 4 7 9 6 6 2 4

Total # of neighbors = 486038
Ave neighs/atom = 121.50950
Neighbor list builds = 905
Dangerous builds = 185

# Equilibrate just above the melting temperature to avoid step fn in T

fix 1 all npt temp 1.25 1.25 0.1 iso 5.68 5.68 0.5 mtk yes tchain 5 pchain 5
run 2000
Per MPI rank memory allocation (min/avg/max) = 3.644 | 3.646 | 3.649 Mbytes
Step Temp E_pair E_mol TotEng Press Volume 
   10000    2.4008116   -4.9887603            0   -1.3884433    5.2609058    3770.6904 
   11000    1.2456247   -7.0401041            0   -5.1721342    5.7725318    2937.6644 
   12000    1.2470685   -7.1464719            0   -5.2763368    5.6494947    2915.8968 
Loop time of 0.643647 on 48 procs for 2000 steps with 4000 atoms

Performance: 536940.348 tau/day, 3107.294 timesteps/s
99.6% CPU use with 48 MPI tasks x no OpenMP threads

MPI task timing breakdown:
Section |  min time  |  avg time  |  max time  |%varavg| %total
---------------------------------------------------------------
Pair    | 0.29215    | 0.31365    | 0.33447    |   1.7 | 48.73
Neigh   | 0.040829   | 0.04337    | 0.045303   |   0.5 |  6.74
Comm    | 0.20916    | 0.23453    | 0.25926    |   2.2 | 36.44
Output  | 5.3429e-05 | 5.4769e-05 | 7.0356e-05 |   0.0 |  0.01
Modify  | 0.04366    | 0.047109   | 0.050535   |   0.8 |  7.32
Other   |            | 0.004929   |            |       |  0.77

Nlocal:        83.3333 ave          93 max          74 min
Histogram: 1 2 4 9 11 8 6 3 3 1
Nghost:        2031.48 ave        2055 max        2000 min
Histogram: 4 1 2 1 9 3 13 5 8 2
Neighs:        13108.7 ave       14560 max       11570 min
Histogram: 4 1 5 5 9 7 5 4 4 4

Total # of neighbors = 629216
Ave neighs/atom = 157.30400
Neighbor list builds = 143
Dangerous builds = 10

#############################
# L I N E A R  Q U E N C H  #
#############################

# Define solid atoms. This closely follows ten Wolde  Ruiz-Montero and Frenkel  Faraday Discuss  1996  104  93-110
# Compute components of the per-atom q6 vector
compute q6 all orientorder/atom degrees 1 6 components 6 nnn NULL cutoff 1.3 # compute the Q6 parameter.
                                                                             # Use all neighbours within 1.3 unit cell.

# get number of connections
compute coord_number all coord/atom orientorder q6 0.5

# An atom is solid if it has 8 or more connections (of a possible 14)
variable is_solid atom c_coord_number>=8
group solid dynamic all var is_solid    # Must be dynamic to update
dynamic group solid defined

# do clustering
compute cluster solid cluster/atom 1.3 # Create a cluster where all atoms within are solid and max 1.3 units from another member

# define chunks one chunk per cluster
compute clus_chunks solid chunk/atom c_cluster nchunk every compress yes  # Says which atoms are in which chunk

# count the size of each chunk
compute size_chunks solid property/chunk clus_chunks count


# Find the maximum entry in the vector of chunk sizes
variable max_n equal max(c_size_chunks)


# Thermo style which includes this variable
# thermo_style custom step temp pe vol v_max_n

thermo ${N}  # Print the thermo information every 100 steps
thermo 1000  

# Reset the npt fix at a lower temperature (below freezing)
fix 1  all npt temp  ${temp} ${temp}  0.1  iso  5.68  5.68  0.5  mtk yes tchain  5  pchain  5
fix 1  all npt temp  0.45 ${temp}  0.1  iso  5.68  5.68  0.5  mtk yes tchain  5  pchain  5
fix 1  all npt temp  0.45 0.45  0.1  iso  5.68  5.68  0.5  mtk yes tchain  5  pchain  5

dump dmp2 all dcd ${N} traj.dcd
dump dmp2 all dcd 1000 traj.dcd


compute msd all msd com yes
variable twopoint equal c_msd[4]/6/(step*dt+1.0e-6)
fix 9 all vector 10 c_msd[4]
variable fit equal slope(f_9)/6/(10*dt)
thermo_style custom step temp pe c_msd[4] v_twopoint v_fit v_max_n

fix 1 all npt temp 1.25 ${temp} 0.1 iso 5.68 5.68 0.5 mtk yes tchain 5 pchain 5
fix 1 all npt temp 1.25 0.45 0.1 iso 5.68 5.68 0.5 mtk yes tchain 5 pchain 5
run 500000 # 5000000  # Run for this many steps
Neighbor list info ...
  update every 1 steps, delay 10 steps, check yes
  max neighbors/atom: 2000, page size: 100000
  master list distance cutoff = 3.8
  ghost atom cutoff = 3.8
  binsize = 1.9, bins = 8 8 8
  4 neighbor lists, perpetual/occasional/extra = 1 3 0
  (1) pair lj/cut, perpetual
      attributes: half, newton on
      pair build: half/bin/atomonly/newton
      stencil: half/bin/3d
      bin: standard
  (2) compute orientorder/atom, occasional
      attributes: full, newton on
      pair build: full/bin/atomonly
      stencil: full/bin/3d
      bin: standard
  (3) compute coord/atom, occasional
      attributes: full, newton on
      pair build: full/bin/atomonly
      stencil: full/bin/3d
      bin: standard
  (4) compute cluster/atom, occasional
      attributes: full, newton on
      pair build: full/bin/atomonly
      stencil: full/bin/3d
      bin: standard
Per MPI rank memory allocation (min/avg/max) = 9.834 | 9.838 | 9.842 Mbytes
Step Temp PotEng c_msd[4] v_twopoint v_fit v_max_n 
   12000    1.2470685   -7.1464719 2.9079385e-30 2.0194017e-32 8.3333333e+20            1 
   13000     1.294495   -7.1875565   0.45907541  0.002942791  0.037238505            1 
   14000    1.2373925    -7.146539    0.8693323 0.0051745968  0.035519138            3 
   15000    1.2303411   -7.1367631    1.2830182 0.0071278786  0.034647906            3 
   16000    1.2317475   -7.1509442    1.6898272 0.0088011832  0.034615672            1 
   17000    1.2507207   -7.1228201      2.09708  0.010279804  0.034345836            1 
   18000     1.234828   -7.1313332    2.4415862  0.011303639  0.033926805            1 
   19000    1.2343084   -7.1460503    2.8277939  0.012402604  0.033354389            1 
   20000    1.2216562   -7.1860297    3.2448585  0.013520243  0.033202937            1 
   21000    1.2409047   -7.2180347    3.6229551  0.014376806  0.033054478            3 
   22000    1.2247418   -7.2135883    3.9286379  0.014881204  0.032758429            1 
   23000    1.2497978   -7.1371008    4.3335512  0.015701272  0.032534495            1 
   24000    1.2150885   -7.1865535    4.6596155   0.01617922  0.032270191            2 
   25000    1.2598751   -7.1831476    4.9881636  0.016627212  0.031898985            3 
   26000    1.2350594   -7.1551708    5.3908397  0.017278332  0.031698831            2 
   27000    1.2338499   -7.1697801    5.7115572  0.017628263  0.031492352            1 
   28000    1.2315448     -7.17072    6.0214149  0.017920877  0.031200308            2 
   29000    1.2507726   -7.1729881    6.4756218  0.018608108  0.031035772            2 
   30000    1.2360502   -7.2255246    6.8511002  0.019030834  0.030949763            2 
   31000    1.2289607   -7.1558421    7.2471073  0.019481471  0.030970183            2 
   32000     1.236211   -7.2082302    7.6177633  0.019837925  0.030984779            4 
   33000    1.2023848    -7.242529    7.9073106  0.019967956  0.030985948            1 
   34000    1.2281445   -7.2366411    8.3579666  0.020485212  0.030950679            3 
   35000    1.1852604   -7.2238537    8.7412254  0.020812441  0.030957329            2 
   36000     1.214753   -7.1931761    9.0741062  0.021004875  0.030932954            4 
   37000    1.2172372   -7.2581389    9.3978493  0.021166327  0.030922278            2 
   38000    1.1794053   -7.2572749    9.8054188  0.021503111  0.030890327            1 
   39000    1.1936531   -7.2505841    10.236086  0.021871978  0.030926182            2 
   40000    1.2037971   -7.2134711    10.639953  0.022166569  0.030939824            1 
   41000    1.2058836   -7.2869199    11.001484   0.02236074  0.030959006            2 
   42000    1.2270848   -7.2845593    11.268307  0.022357752  0.030962098            2 
   43000    1.1961764    -7.240439    11.801729  0.022871567  0.030995929            2 
   44000    1.1973715    -7.247886    12.242752  0.023187031  0.031061487            2 
   45000     1.193834   -7.2510189    12.614387  0.023359975  0.031110107            2 
   46000    1.2017841   -7.2598634    12.802596  0.023193109  0.031133197            2 
   47000    1.2082619   -7.2273112    13.278631  0.023543672  0.031135551            1 
   48000    1.2091266   -7.3104992    13.605576  0.023620792  0.031135805            1 
   49000    1.1967261   -7.2892245    13.873755  0.023594822  0.031124524            2 
   50000    1.1760491   -7.2676173    14.317008   0.02386168  0.031104119            1 
   51000    1.1877844    -7.295047     14.54165  0.023760866  0.031071056            2 
   52000    1.1769051   -7.3090187    14.877513  0.023842169  0.031012585            1 
   53000     1.181335   -7.3071125    15.215354  0.023923513  0.030958715            3 
   54000    1.2014411   -7.3192696    15.344663  0.023680035  0.030884758            2 
   55000    1.1807551    -7.307633    15.754902  0.023871064   0.03079806            1 
   56000    1.1849416   -7.3416963    16.052492  0.023887636  0.030698558            2 
   57000    1.2049514   -7.3078313    16.363431  0.023923145  0.030599343            1 
   58000    1.1636275   -7.3107091    16.677069  0.023961305   0.03049177            3 
   59000     1.177338   -7.3164073    17.089879  0.024138247  0.030401736            2 
   60000     1.155633   -7.2731685    17.325259   0.02406286  0.030318107            4 
   61000    1.1790723   -7.3216018    17.672162  0.024142297   0.03022142            2 
   62000    1.1551744   -7.3527622    17.968946  0.024151809  0.030134502            2 
   63000    1.1768839   -7.3330277    18.254634  0.024146342  0.030045211            4 
   64000    1.1758212   -7.3121969    18.652037  0.024286506  0.029950358            4 
   65000    1.1866915   -7.3380385    18.835846  0.024148521  0.029855144            2 
   66000    1.1742127   -7.3226577     19.24485  0.024299053  0.029765825            2 
   67000    1.1690667   -7.3827967    19.380806   0.02410548  0.029671182            4 
   68000    1.1648404   -7.3436571    19.733718  0.024183478  0.029562384            2 
   69000    1.1566699    -7.360098    19.908629  0.024044238  0.029457425            1 
   70000     1.160483   -7.3126696    20.211815  0.024061684  0.029345822            3 
   71000    1.1611036   -7.3708062    20.419953  0.023967081  0.029228898            6 
   72000    1.1614175   -7.4315169    20.871183  0.024156461  0.029134601            3 
   73000    1.1483956   -7.3662831    21.277612  0.024289511  0.029050687            3 
   74000    1.1528737   -7.3639276    21.627252  0.024355013  0.028973752            3 
   75000       1.1363   -7.4086597    21.746529  0.024162809   0.02889005            1 
   76000    1.1498333   -7.3736226    22.029677  0.024155347  0.028796029            2 
   77000    1.1658778   -7.3856435    22.230119   0.02405857  0.028697782            3 
   78000    1.1504965   -7.4203952    22.474677  0.024011407  0.028599315            2 
   79000    1.1213569   -7.4201878    22.738956   0.02398624  0.028499768            1 
   80000    1.1510141   -7.4018569    22.945452  0.023901513  0.028404325            1 
   81000    1.1564154    -7.426792    23.386637  0.024060326  0.028307203            5 
   82000    1.1229766    -7.407865    23.593349  0.023976981  0.028217476            1 
   83000     1.113011   -7.4501774    23.907332  0.024003345  0.028127969            2 
   84000    1.1483064   -7.4449567    24.236856    0.0240445  0.028047886            1 
   85000    1.1044984   -7.4140005     24.59348  0.024111255  0.027969788            1 
   86000    1.1279761   -7.4466758    24.839945  0.024069714   0.02789535            3 
   87000    1.1444418   -7.3774121     25.36562  0.024296571  0.027833414            4 
   88000    1.1072562   -7.4756516    25.619033  0.024260448  0.027776729            1 
   89000     1.110723    -7.463766    25.933859   0.02428264  0.027720476            1 
   90000    1.1167453   -7.4893879    26.288563  0.024341262   0.02767092            3 
   91000    1.1345011   -7.4732949    26.479057  0.024248221  0.027619634            3 
   92000    1.1232769   -7.4785326    26.705526  0.024189788  0.027569483            2 
   93000    1.1107128   -7.4729392    27.031502  0.024221775  0.027514326            2 
   94000    1.1150475   -7.5464082    27.017364  0.023951563  0.027447334            2 
   95000    1.1076346   -7.4767126    27.294221  0.023942299  0.027376533            4 
   96000    1.1076778   -7.4916637    27.465428  0.023841517  0.027302561            2 
   97000    1.1330814   -7.4748127    27.734337   0.02382675  0.027226651            1 
   98000    1.1053637   -7.5063854    28.028363  0.023833642  0.027149371            4 
   99000     1.110616   -7.4947039    28.175626  0.023716857  0.027070788            3 
  100000    1.1200786   -7.5095904     28.35766  0.023631383  0.026986037            2 
  101000    1.1217404   -7.5081273    28.610266   0.02360583  0.026903041            2 
  102000    1.1215114   -7.4798626    28.819166   0.02354507  0.026822064            2 
  103000    1.1173247   -7.5064839    29.031355  0.023488151  0.026735625            2 
  104000    1.0945574   -7.4959949    29.345058  0.023513668  0.026648487            3 
  105000    1.0819103    -7.539144    29.403668  0.023336244  0.026560967            5 
  106000    1.1050847   -7.5185888    29.719287  0.023364219  0.026472771            2 
  107000     1.121961    -7.504276    29.979213  0.023348297  0.026387336            2 
  108000    1.0963523   -7.5384954    30.020684  0.023164108  0.026297819            2 
  109000    1.0901735   -7.5222355    30.278882  0.023148992  0.026207598            1 
  110000    1.0730561   -7.5325071    30.375445  0.023011701  0.026114752            1 
  111000    1.0839631   -7.5689602    30.636984  0.023000739  0.026019768            2 
  112000    1.0865621   -7.5402861    30.857706  0.022959603  0.025929909            4 
  113000    1.0873892   -7.5585658    31.164163  0.022982421  0.025840051            1 
  114000    1.1082902   -7.5999926    31.259106  0.022850224  0.025752133            3 
  115000    1.0728866   -7.5790739     31.69298  0.022965927  0.025667133            7 
  116000    1.0709951    -7.607386     31.95476  0.022956006  0.025589385            1 
  117000    1.0769795   -7.6005031    32.302593  0.023007545  0.025513185            1 
  118000     1.081546   -7.5587076    32.615172  0.023033314  0.025441723            1 
  119000    1.0727619   -7.5870801    32.714682  0.022909441  0.025369699            2 
  120000    1.0783436   -7.5954987    33.050662  0.022951849  0.025296699            2 
  121000    1.0754694   -7.6007598    33.164668   0.02284068  0.025227373            1 
  122000    1.0661745   -7.5764222     33.42504  0.022831311  0.025157366            2 
  123000     1.049727   -7.5739241    33.602099   0.02276565  0.025084565            3 
  124000    1.0650704   -7.5771176    33.895202  0.022779033  0.025016022            2 
  125000    1.0644416   -7.5857246    34.124594  0.022749729  0.024948611            3 
  126000     1.070112   -7.6177962    34.258859  0.022657976  0.024878573            5 
  127000    1.0716502   -7.6244301    34.469983  0.022618099  0.024810491            3 
  128000     1.045371   -7.6241147    34.718555  0.022603226  0.024744769            3 
  129000    1.0577175   -7.6180483    35.104121  0.022677081  0.024681777            2 
  130000    1.0400128   -7.6365322    35.242419  0.022591294  0.024616922            2 
  131000    1.0699778   -7.6352258    35.491583  0.022577343  0.024553703            2 
  132000    1.0337802   -7.5881859    35.676195   0.02252285  0.024487191            3 
  133000    1.0632089   -7.6282709    35.773228  0.022414303  0.024421761            2 
  134000    1.0692394   -7.6381439    36.033603  0.022408957   0.02435873            5 
  135000    1.0628767   -7.6213301    36.269397  0.022388517  0.024293793            2 
  136000    1.0507615   -7.5920836    36.568585  0.022407221  0.024229744            2 
  137000    1.0503208   -7.6598461    36.354276  0.022113307  0.024164072            3 
  138000    1.0504767    -7.649858    36.699803  0.022161717  0.024093492            5 
  139000     1.040155   -7.6158221    36.986917   0.02217441  0.024025264            2 
  140000    1.0601517   -7.6449351    37.041827  0.022048706  0.023956259            3 
  141000    1.0467222   -7.6531445    37.179543  0.021973725  0.023888229            4 
  142000    1.0298364   -7.6901309    37.330557  0.021907604  0.023818699            1 
  143000    1.0267612   -7.6639194    37.693839  0.021966107  0.023748831            4 
  144000    1.0419823   -7.7200102    37.622893  0.021772508  0.023679551            7 
  145000    1.0521909   -7.6679371    37.823495  0.021737641  0.023608044            3 
  146000    1.0405548   -7.6759749      38.0866  0.021738927  0.023537262            3 
  147000    1.0613569    -7.711477    38.141515  0.021622174  0.023466299            2 
  148000    1.0497617   -7.6775271    38.409329  0.021626874  0.023395389            4 
  149000    1.0317609   -7.6737157    38.552281  0.021561678  0.023325614            4 
  150000    1.0275692   -7.6818887    38.673461  0.021485256  0.023256602           10 
  151000    1.0443955   -7.6367597    39.110614  0.021584224  0.023188395            2 
  152000    1.0265518    -7.659368    39.308224  0.021550561  0.023122453            2 
  153000    1.0389646   -7.7273527    39.587739  0.021561949  0.023059091            2 
  154000    1.0251819    -7.736933    39.584992   0.02142045  0.022997969            3 
  155000    1.0471239   -7.7571276    39.778943  0.021386528   0.02293615            6 
  156000    1.0203463   -7.7389855    39.971527  0.021352311   0.02287208            3 
  157000    1.0257061   -7.7466288    40.180007  0.021326967  0.022808931            2 
  158000    1.0192506   -7.7734943    40.198351  0.021201662  0.022745837            4 
  159000    1.0277575   -7.7600554    40.492097  0.021222273  0.022681795            3 
  160000    1.0154541    -7.759358    40.508172  0.021098006  0.022616829            6 
  161000    1.0056903   -7.7398744    40.681449   0.02105665  0.022552068            6 
  162000   0.99820827   -7.7312889    40.993799  0.021087345  0.022490137            3 
  163000    1.0059036   -7.7157923      41.1459  0.021035736  0.022427888            3 
  164000    1.0080367    -7.735869    41.336976  0.021004561  0.022365427            2 
  165000    1.0011154   -7.7945547    41.305311  0.020861268  0.022301293            3 
  166000    1.0014792   -7.7749038    41.422286   0.02079432  0.022237354            2 
  167000    1.0031808   -7.7687517    41.498308  0.020707738  0.022170912            3 
  168000   0.99636908   -7.7901217    41.618028  0.020643863   0.02210397            2 
  169000   0.98074959    -7.778769    41.817901  0.020620267  0.022036469            3 
  170000   0.98611204    -7.794281    41.841891  0.020510731  0.021969918            3 
  171000    1.0101229   -7.8280104    42.043271  0.020488923  0.021902335            1 
  172000    0.9896019   -7.8166759    42.389036  0.020537323  0.021836897            3 
  173000   0.98657243   -7.8182055    42.386051  0.020417173  0.021771482            3 
  174000    1.0093003   -7.8262921    42.404892  0.020308856  0.021703759            5 
  175000    0.9732646   -7.8366512    42.668374  0.020318273  0.021638606            2 
  176000   0.99493599   -7.7624301     42.92712  0.020325341  0.021573433            1 
  177000    0.9620823   -7.7900352    43.041926   0.02026456  0.021509199            2 
  178000   0.98932194   -7.8354659    43.222791  0.020235389  0.021445357            1 
  179000   0.98383111   -7.8411285    43.213693  0.020118106  0.021380604            5 
  180000   0.98888421   -7.8340864    43.389358  0.020087666  0.021315116            5 
  181000   0.99418976   -7.8060829    43.705023  0.020122018  0.021250879            2 
  182000   0.97937975   -7.8133233     43.70561  0.020011726  0.021187252            6 
  183000   0.99146323   -7.8487748      43.8164  0.019952823   0.02112356            3 
  184000   0.97270199   -7.8508411    43.918746  0.019890736  0.021061311            3 
  185000   0.96028673   -7.8306642    44.087187  0.019859093  0.020999022            2 
  186000   0.99738816   -7.7978917    44.440842  0.019910771  0.020938495            3 
  187000   0.96886599   -7.8648014    44.576298   0.01986466  0.020879365            4 
  188000   0.95775339   -7.8467172    44.717058  0.019821391  0.020819854            1 
  189000    0.9392005   -7.8885604    44.824225  0.019763768  0.020759698            3 
  190000   0.96469806   -7.8981049    44.777364  0.019639195  0.020699758            3 
  191000   0.95599435   -7.8918809    44.880819  0.019581509  0.020639933            6 
  192000   0.97357737   -7.9137584    44.895526  0.019485905  0.020578423            2 
  193000   0.95603063   -7.9080242    45.053002  0.019452937  0.020516989            2 
  194000   0.96092616   -7.8802384    45.410171  0.019506087   0.02045595            3 
  195000   0.95010474    -7.900593    45.299817  0.019358896  0.020395734            5 
  196000   0.94437925   -7.9051805    45.479669  0.019336594  0.020334258            4 
  197000   0.95348791   -7.8643674    45.648877  0.019310015  0.020272762            4 
  198000   0.93127218   -7.9178717    45.709299   0.01923792  0.020212159            3 
  199000   0.95594685   -7.8956032    45.829874   0.01919174  0.020150642            3 
  200000   0.95450661   -7.8941882    45.935602  0.019139834  0.020088843            2 
  201000    0.9572745   -7.9464682    45.852203  0.019010034  0.020024811            6 
  202000   0.94636359   -7.9717952    45.804939  0.018896427  0.019959636           16 
  203000   0.95415197   -7.9330828    46.020433  0.018891803   0.01989553            6 
  204000   0.94103694   -7.9306618    46.037282  0.018806079   0.01983238            3 
  205000   0.92491376   -7.9495974    46.213007  0.018785775   0.01976816            2 
  206000   0.91714738   -7.9584515    46.158422  0.018672501  0.019703301            2 
  207000   0.93275035   -7.9639613    46.298808  0.018638812  0.019638352            3 
  208000   0.94721029    -7.964905    46.359694  0.018573595  0.019573584            2 
  209000   0.93571033   -7.9738518    46.435516  0.018514959  0.019509568            2 
  210000   0.95703965    -7.950327    46.757324  0.018554494  0.019446097            2 
  211000   0.91269704   -7.9978256    46.688534  0.018439389  0.019383731            4 
  212000   0.92707874   -7.9664433    46.964033  0.018460705  0.019321502            2 
  213000   0.94913625   -7.9501714    47.142522  0.018443866  0.019260178            3 
  214000    0.9398381   -7.9721832    47.119586  0.018348748   0.01919926            5 
  215000    0.9040112   -8.0037829    47.315045  0.018339165  0.019138355            4 
  216000   0.92521512   -7.9930295    47.499206  0.018325311  0.019078414            5 
  217000   0.92640527   -8.0392764    47.620869  0.018287584  0.019018942            8 
  218000   0.91539607   -7.9805681    47.629343  0.018206935  0.018960289            2 
  219000   0.92422175   -8.0299288    47.883265   0.01822042  0.018902121            4 
  220000   0.91538063   -8.0038611    47.955419  0.018164932  0.018843894            2 
  221000   0.90483256    -8.016099    48.019293  0.018106822  0.018785251            3 
  222000    0.9133416   -8.0178603    48.056275  0.018039142    0.0187271            2 
  223000   0.90161556   -8.0123788    48.137712  0.017988682  0.018668256            3 
  224000   0.92001058   -8.0365765    47.958642  0.017841757  0.018609744            3 
  225000   0.90035171   -8.0166942    48.373378  0.017916066  0.018551061            5 
  226000   0.90928098   -8.0647152    48.326262  0.017819418  0.018492645            4 
  227000   0.91247271   -8.0529796    48.481576  0.017797935  0.018434216            4 
  228000   0.89498447    -8.030576    48.613507  0.017768095   0.01837728            7 
  229000   0.89423098   -8.0002501    48.791385  0.017755235  0.018320846            9 
  230000   0.90565206   -8.0726337    48.734999  0.017657608  0.018263907           18 
  231000   0.89064344   -8.0620709    48.827791  0.017614643  0.018206962            3 
  232000    0.8919387   -8.0765327    48.906412  0.017566958  0.018149871            6 
  233000    0.8956385   -8.0863691    48.849657  0.017471265  0.018092652            9 
  234000   0.91075722   -8.0921616    49.075883  0.017477166  0.018035918           22 
  235000   0.88889577   -8.1004953    49.036823  0.017388944  0.017978999           25 
  236000   0.90998022   -8.0596537    49.122626   0.01734556  0.017921818           16 
  237000   0.90215919   -8.0710357    49.231369  0.017310608  0.017864895            4 
  238000   0.88885824   -8.0794842    49.375065  0.017288188   0.01780827            4 
  239000   0.89630155   -8.1414161    49.265049  0.017177493  0.017751531            4 
  240000   0.87555665   -8.1228896    49.417811  0.017158962  0.017694175            3 
  241000   0.89954719   -8.0720065    49.643021  0.017165636  0.017637929            5 
  242000   0.89026996   -8.1041994    49.680766  0.017107702  0.017582746            5 
  243000   0.86266068   -8.1598264    49.696617  0.017042736  0.017527489            5 
  244000   0.86282756   -8.1290085    49.865285  0.017030493  0.017472489            5 
  245000   0.85999173   -8.0815477    50.012224  0.017010961  0.017419051            3 
  246000   0.86832926   -8.1144849     50.12593  0.016980328  0.017365621            4 
  247000   0.87704798   -8.1023032    50.146304  0.016918456  0.017312088            3 
  248000   0.88365976   -8.1350532    50.156778  0.016853756  0.017259037            8 
  249000   0.86851941   -8.1212676    50.272206  0.016824701  0.017205612            3 
  250000   0.85382933   -8.1650995    50.107464  0.016702488  0.017151196            4 
  251000   0.86341187   -8.1512284    50.308716  0.016702761  0.017096393            4 
  252000   0.88226354   -8.1115294    50.412049  0.016670651  0.017042691            2 
  253000   0.86824667   -8.1637349    50.365823  0.016589533  0.016988634            2 
  254000   0.86284053   -8.1603441     50.38596  0.016530827  0.016934544            8 
  255000   0.85296779   -8.1804818    50.478322  0.016496183  0.016880562            5 
  256000   0.84235188   -8.2045664    50.572516  0.016462408  0.016826926            4 
  257000   0.85446038    -8.192625    50.679862  0.016433159  0.016773586            3 
  258000   0.85204446   -8.1752478    50.585964  0.016339136  0.016720111            3 
  259000   0.84367286   -8.2008774    50.832387  0.016355337  0.016666389            3 
  260000   0.85797106   -8.2206938    50.631069  0.016227907   0.01661243            3 
  261000   0.83549218   -8.1856734    50.714052  0.016192226  0.016557824            4 
  262000   0.86486297   -8.1910688    51.005469  0.016223114  0.016503429            4 
  263000   0.84134487   -8.2507104     50.80854   0.01609903  0.016449659            3 
  264000   0.82517175   -8.2447039     50.87412   0.01605875  0.016395405            5 
  265000    0.8581098   -8.2328288    50.921373   0.01601301  0.016340958            4 
  266000   0.83108395   -8.2622081    50.874853  0.015938237  0.016286658            9 
  267000   0.84683545   -8.2614263    50.846207  0.015869603  0.016232552            6 
  268000     0.833539   -8.2459561    50.987981  0.015854472   0.01617851            5 
  269000    0.8510058   -8.2958681    50.875663  0.015760738  0.016124352           11 
  270000   0.83451437   -8.2689045    51.058045  0.015758656  0.016070212           12 
  271000   0.83737592   -8.2925024    51.092717  0.015711168  0.016016416            6 
  272000   0.82772645   -8.2673263    51.153085  0.015671901  0.015962357           15 
  273000   0.83877226   -8.2687456    51.190913  0.015626042  0.015908352            8 
  274000   0.83939027   -8.3047526    51.189601  0.015568613  0.015854941            4 
  275000     0.823241   -8.2560724    51.076107  0.015477608  0.015800991            5 
  276000   0.82480095   -8.2665297    51.293705   0.01548723  0.015747216            2 
  277000   0.83943651   -8.2609282    51.329551  0.015442103  0.015693798            3 
  278000   0.82217644   -8.2880834    51.197177  0.015346876  0.015640182           13 
  279000   0.81989489   -8.2919793    51.276568  0.015315582  0.015586586            5 
  280000   0.80501738   -8.2826416    51.225021  0.015245542  0.015533134            6 
  281000   0.82553939   -8.3017477    51.209995  0.015186831  0.015479594           13 
  282000   0.80296911   -8.3005992    51.404132  0.015190346  0.015426324           13 
  283000   0.79330312   -8.2957955    51.445265  0.015148782  0.015372893            6 
  284000   0.81043015   -8.3328829    51.276594  0.015045949  0.015319729            4 
  285000   0.80119571   -8.3042087     51.53783  0.015069541  0.015266593            9 
  286000   0.80777707   -8.3328717    51.446939  0.014990367  0.015213731           14 
  287000   0.79755257   -8.3133231    51.579375   0.01497659    0.0151606            5 
  288000    0.8059373   -8.3347573    51.491601   0.01489919  0.015107702            5 
  289000   0.79259229   -8.3105209    51.590916  0.014876273  0.015055365           10 
  290000   0.80862722   -8.3490612    51.452452  0.014785187  0.015002906            3 
  291000   0.81775134   -8.3351186    51.767056  0.014824472  0.014950799            4 
  292000   0.80680702   -8.3437683    51.673702  0.014747061  0.014898861           10 
  293000   0.80606464   -8.3293953    51.779197  0.014726734  0.014846955           14 
  294000    0.7929327   -8.3410197    51.736151  0.014664442  0.014795281            5 
  295000   0.79288355   -8.3803451    51.681565  0.014599312  0.014743435           10 
  296000   0.79366175   -8.3998097    51.705234  0.014556654  0.014692024            8 
  297000   0.80361766   -8.3876306    51.703897  0.014507266  0.014640455            5 
  298000   0.78408902    -8.359595    51.798005  0.014484901   0.01458927            2 
  299000   0.79345805   -8.3666555    51.846286  0.014449913  0.014538125            6 
  300000   0.80579158   -8.3589801    51.843619  0.014401005  0.014487302            5 
  301000   0.77600675   -8.3676865    51.898995  0.014368493  0.014436112            7 
  302000   0.79253139   -8.3712386    51.853144  0.014308263  0.014385328            4 
  303000   0.79117315   -8.3730785    51.923408  0.014280365  0.014334781            6 
  304000    0.7877026   -8.3723454    51.908046  0.014229179  0.014284116            7 
  305000   0.78060789   -8.3886202    51.824407  0.014159674  0.014233448            6 
  306000   0.77299327   -8.3869451    51.799684  0.014106668  0.014182776            4 
  307000   0.76994316   -8.3732871     51.83422  0.014070092  0.014132116            7 
  308000   0.77718408   -8.4266997    51.881481  0.014037197  0.014081803            5 
  309000   0.78725017   -8.3970401    51.858901   0.01398568  0.014031737            4 
  310000   0.77029871   -8.4004692    51.898955  0.013951332   0.01398161           10 
  311000   0.77544063   -8.3909758    51.973794  0.013926526    0.0139321            6 
  312000   0.75122736   -8.3895228    51.854133  0.013849929  0.013882179            3 
  313000   0.77068962   -8.4388367    51.963315  0.013834748  0.013832244            4 
  314000   0.77143433   -8.4375658    51.976224  0.013794115  0.013782708            5 
  315000   0.75091823   -8.4359382    52.012352  0.013759882   0.01373342            5 
  316000   0.76163547    -8.422545    52.147351  0.013751939  0.013684565            4 
  317000   0.76625354   -8.4169882    52.121503  0.013701762  0.013636044            9 
  318000   0.75645226   -8.4428742    52.114837  0.013656928  0.013587342            5 
  319000   0.75429345   -8.4172383    52.038333  0.013594131  0.013538577            7 
  320000   0.75190136   -8.4575202     52.02741  0.013548805  0.013489762            7 
  321000   0.76440966   -8.4523699    52.046457  0.013511541  0.013440873            3 
  322000   0.75531626   -8.4529202     52.07635  0.013477316  0.013392209            7 
  323000   0.75044598    -8.474496    51.950669  0.013403165  0.013343704            4 
  324000   0.74240394   -8.5041994    52.024381  0.013380756  0.013295296            4 
  325000   0.75426619   -8.4571199    52.048197  0.013345692   0.01324703            8 
  326000   0.73220901   -8.4586087    52.069221  0.013310128  0.013198964            4 
  327000   0.73302176   -8.5010902    52.027227  0.013258723  0.013151086            5 
  328000   0.72445891   -8.4737791    52.125683  0.013243314  0.013103589            5 
  329000    0.7546399    -8.500736    52.194796  0.013220566  0.013056435            5 
  330000   0.74585384   -8.4965069    52.282562  0.013202667  0.013009618            6 
  331000   0.73080279   -8.4941452    52.099952  0.013116806  0.012963085            5 
  332000   0.74680788   -8.4830872    52.254611  0.013116117  0.012916368            7 
  333000   0.75273499   -8.5130178    52.149632  0.013050458  0.012869768           10 
  334000   0.74550507   -8.5117425    52.218712  0.013028621  0.012823367            8 
  335000   0.71180338   -8.5089229    52.159861   0.01297509  0.012776984            6 
  336000   0.73586348   -8.4976127    52.222944  0.012952119  0.012730756           15 
  337000   0.73327116   -8.5157209    52.136387  0.012892282  0.012684633           14 
  338000   0.74111957   -8.5294348    52.158273  0.012859535   0.01263827            9 
  339000   0.72105905   -8.5162585    52.104883  0.012808477  0.012592323           13 
  340000   0.73682891   -8.5270399      52.1277  0.012776397  0.012546219           11 
  341000   0.71569019   -8.5061628     52.18615  0.012753214  0.012500506            7 
  342000   0.70960613   -8.5538676    52.093046  0.012693237   0.01245468            9 
  343000   0.73703655   -8.5524836    52.142634  0.012668278  0.012408897            6 
  344000   0.73755859    -8.523502    52.110279  0.012623614  0.012363487           10 
  345000   0.70487306   -8.5681841    52.060343  0.012574962  0.012318214            6 
  346000    0.7193271   -8.5402757    52.111461   0.01255093  0.012273171            3 
  347000   0.71766691   -8.5585096    52.174655  0.012529936  0.012228241            8 
  348000   0.71589195   -8.5632569    51.991756  0.012450133  0.012183183            7 
  349000   0.70043454   -8.5771028    52.012367  0.012419381  0.012138148           15 
  350000   0.68802132   -8.5760352    52.068273  0.012397208  0.012093413            9 
  351000   0.70494821   -8.5794459    52.038122   0.01235473  0.012048876            2 
  352000   0.69624917   -8.5807917    52.149373  0.012345969  0.012004595           10 
  353000   0.69884369   -8.5818318    52.188559  0.012320245  0.011960719            8 
  354000   0.70220632   -8.5898899    52.226176  0.012294297  0.011916913            5 
  355000   0.69682959   -8.6213918    52.132184  0.012237602  0.011873433            6 
  356000   0.71336249   -8.5929858    52.165678  0.012211067  0.011830155            6 
  357000   0.69115884   -8.6068736    52.197574  0.012184308  0.011786937            5 
  358000   0.70757014   -8.6046954    52.110798  0.012130074  0.011743908            5 
  359000   0.67553654   -8.6184294      52.0297  0.012077461  0.011700775            6 
  360000   0.69254636   -8.6279589    52.038158   0.01204587  0.011657921            6 
  361000   0.70365684   -8.6314858    52.093568  0.012025293  0.011615229            5 
  362000   0.68763522   -8.6184646    52.149918  0.012005046  0.011572621            7 
  363000   0.69995496   -8.6133127    52.308301  0.012008334  0.011530431            8 
  364000   0.69099972    -8.607201    52.182574   0.01194656  0.011488226            6 
  365000   0.68355841   -8.6318622    52.151754  0.011906793  0.011446229            5 
  366000   0.67494948   -8.6342298    52.051445  0.011851422  0.011404349            9 
  367000   0.68117175   -8.6395613    52.056141  0.011820196  0.011362658            7 
  368000   0.67831845     -8.66208    52.041477  0.011784755  0.011320819           11 
  369000   0.66688329   -8.6619945    52.136232  0.011774217  0.011279292            5 
  370000   0.68457472   -8.6688731    52.134877  0.011742089   0.01123818            8 
  371000   0.66542844     -8.69099    52.011624  0.011682755  0.011197259            6 
  372000   0.65723096   -8.6999869    52.115891  0.011674707  0.011156336           20 
  373000   0.67696254   -8.7092994    52.108343  0.011641721  0.011115667            7 
  374000   0.67419209   -8.6923407    52.081369  0.011604583  0.011075156           15 
  375000   0.66802108   -8.6706821    52.143363  0.011587414  0.011034622            9 
  376000     0.658775   -8.6709698    52.103584   0.01154778  0.010994279           12 
  377000   0.65899382   -8.6908662    52.177628  0.011533516   0.01095419            8 
  378000   0.64834954   -8.6704194    52.161429  0.011499433  0.010914214           16 
  379000   0.65733874   -8.7106556    52.044671  0.011443419  0.010874232           11 
  380000    0.6651666   -8.7262257    52.060289   0.01141673  0.010834487           10 
  381000   0.65347962   -8.7067566    52.194078  0.011416028  0.010794921           11 
  382000   0.64770661   -8.7058962    52.091026  0.011363662  0.010755462            8 
  383000   0.66417584   -8.7189635     52.15585  0.011348096   0.01071619            5 
  384000   0.66970263   -8.7168843     51.96133   0.01127633  0.010677173           13 
  385000   0.66970085   -8.7041905    52.099173  0.011276877  0.010638203           10 
  386000   0.65508583   -8.7336567    52.199088  0.011269233   0.01059945           14 
  387000   0.64186963   -8.7038611    52.080945  0.011214674  0.010560771           14 
  388000   0.63640721   -8.7344032    52.112313  0.011192507  0.010522229            8 
  389000   0.64511129   -8.7455554    52.037937  0.011147801  0.010483749            9 
  390000     0.644988   -8.7417267    52.077007  0.011127566  0.010445549           31 
  391000   0.64801684   -8.7237274     52.04927  0.011093195  0.010407479           10 
  392000   0.63312033   -8.7516725    52.090857  0.011073737  0.010369552           12 
  393000   0.65688228   -8.7394676    52.079149  0.011043077  0.010331788           14 
  394000   0.62788626   -8.7479197    51.998986  0.010998094  0.010294222           17 
  395000   0.63758414   -8.7859708    51.953832  0.010960724  0.010256734           15 
  396000   0.63165075   -8.7622259    51.931203  0.010928284  0.010219298           33 
  397000   0.63065683   -8.7697652    51.965845  0.010908028  0.010182032           27 
  398000   0.63893692    -8.783687    51.871094  0.010860782  0.010144904           19 
  399000   0.63720232   -8.7494053    52.068802  0.010874854   0.01010808           19 
  400000   0.61696857   -8.7937499    52.020053  0.010837511  0.010071337           21 
  401000   0.63015394   -8.7887617    51.959684  0.010797939  0.010034778           17 
  402000   0.62735199   -8.7944312    51.991742  0.010777724 0.0099983703           29 
  403000   0.61089812   -8.7983461    52.000205  0.010752731 0.0099621408           26 
  404000    0.6238907   -8.7871511    52.047313  0.010735832 0.0099260738           25 
  405000   0.61602249   -8.7826584    51.975001  0.010694445 0.0098900458           23 
  406000   0.61501088   -8.7903238    51.985578  0.010670275 0.0098542569           21 
  407000   0.62002601   -8.7966659    51.963637  0.010639565 0.0098186518           20 
  408000   0.60331208   -8.7986352    52.028258  0.010626687 0.0097830794           24 
  409000   0.60021323   -8.8074556    51.925558   0.01057978 0.0097476972           26 
  410000   0.60646171   -8.8309181    51.956476  0.010560259 0.0097124045           25 
  411000   0.62192167   -8.8365262    51.833954  0.010509723 0.0096773031           11 
  412000   0.61860955   -8.8264769     51.92816  0.010503269  0.009642289           22 
  413000   0.60901812   -8.8361582    51.876113  0.010467335  0.009607425           19 
  414000   0.60277199   -8.8527755    51.904307  0.010447727 0.0095727018           20 
  415000   0.60211447   -8.8408373    51.838392  0.010409316  0.009538148           22 
  416000   0.59921857   -8.8446961     51.89406  0.010395445 0.0095037216           34 
  417000   0.59081204   -8.8480722    51.915287  0.010374758 0.0094695384           23 
  418000   0.58907852   -8.8320089    51.865497  0.010340011  0.009435415           23 
  419000    0.5801054   -8.8472865    51.936759  0.010329507 0.0094015794           18 
  420000   0.60415292   -8.8621607    51.871765  0.010292017 0.0093678261           27 
  421000   0.59769304   -8.8402872    51.841094  0.010261499 0.0093342171           26 
  422000   0.59863935   -8.8454155    51.909311  0.010250654 0.0093006902           31 
  423000   0.59910043   -8.8542844    51.922368  0.010228993 0.0092672851           19 
  424000   0.59301831   -8.8466885    51.841393  0.010188953 0.0092339907           23 
  425000   0.59031309   -8.8700764    51.833931  0.010163516 0.0092009548           26 
  426000   0.59857219   -8.8315639    51.967824   0.01016585 0.0091680606           19 
  427000   0.57557403   -8.8540093    51.882093  0.010125311 0.0091353824           26 
  428000   0.58421315   -8.8717673    51.887567  0.010102719 0.0091027977           32 
  429000   0.57127843   -8.8674719    51.876245  0.010076971 0.0090703392           21 
  430000    0.5822899    -8.862646    51.813427  0.010041362 0.0090380344           23 
  431000   0.57419086    -8.877557    51.848248  0.010024796 0.0090057456           23 
  432000    0.5796858   -8.8862494    51.775186 0.0099874974 0.0089735944           24 
  433000    0.5783444   -8.8775779    51.683897 0.0099468625 0.0089416073           28 
  434000   0.58557355   -8.8678346    51.859084 0.0099575813 0.0089097511           29 
  435000   0.56248121   -8.8997445    51.827934 0.0099287231 0.0088780699           20 
  436000   0.56696458   -8.9096143    51.735915 0.0098883629 0.0088463457           28 
  437000   0.56809808   -8.8877727    51.791069 0.0098762527 0.0088147222           17 
  438000   0.55549991   -8.8774266    51.758268 0.0098474634 0.0087833142           17 
  439000   0.56290667   -8.8920157    51.748948 0.0098232626 0.0087519823           19 
  440000    0.5766595   -8.8932556    51.711459 0.0097938369 0.0087208697           21 
  441000    0.5643275   -8.9141822     51.74238 0.0097774717 0.0086898409           17 
  442000   0.56142714   -8.8891974    51.707218 0.0097487214 0.0086589403           19 
  443000   0.55793333   -8.9018322    51.640632 0.0097141897 0.0086281331           24 
  444000   0.56313247   -8.9102024    51.658179 0.0096956041 0.0085975457           25 
  445000   0.56444398   -8.9223285    51.689566  0.009679694  0.008567048           23 
  446000   0.56039599   -8.9318666    51.639683 0.0096486702 0.0085366107           27 
  447000   0.55048606   -8.9066828    51.742651 0.0096462809 0.0085063264           26 
  448000   0.54141398   -8.9276438    51.625109 0.0096028848 0.0084761761           24 
  449000   0.54504699   -8.9312498    51.580209 0.0095731642 0.0084461851           25 
  450000   0.55137219   -8.9334287    51.717716 0.0095773548 0.0084163522           24 
  451000   0.54468903   -8.9161949    51.703827 0.0095535527  0.008386685           16 
  452000    0.5390787   -8.9301471    51.693591 0.0095305292  0.008357123           28 
  453000   0.53001524   -8.9236904    51.661307 0.0095035516 0.0083276966           16 
  454000   0.53341731   -8.9575905    51.645242 0.0094796699 0.0082983874           32 
  455000   0.54182938   -8.9413971    51.652803 0.0094602202 0.0082691625           29 
  456000   0.54099905   -8.9314419    51.733198 0.0094541663 0.0082400872           32 
  457000   0.53777558   -8.9421431    51.621615 0.0094131318 0.0082111097           24 
  458000    0.5296903   -8.9579592    51.693381  0.009405637 0.0081822389           31 
  459000   0.53764469   -8.9477291    51.654641 0.0093781121  0.008153567           25 
  460000   0.52876884   -8.9604428    51.667425 0.0093600408 0.0081250069           34 
  461000    0.5306704   -8.9792719    51.631663 0.0093332725 0.0080965547           29 
  462000   0.53682536   -8.9563411     51.57895 0.0093035624 0.0080682003           29 
  463000   0.52608353   -8.9502617    51.676049 0.0093009447 0.0080400587           44 
  464000   0.52402429   -8.9625862    51.657824 0.0092776265 0.0080120159           28 
  465000   0.51931448   -8.9578208    51.636375 0.0092538306  0.007984104           21 
  466000    0.5245221   -8.9623648    51.585104  0.009224804 0.0079563143           31 
  467000   0.52142463   -8.9761658    51.646449 0.0092159972 0.0079286422           37 
  468000   0.51609857   -8.9649215     51.56221 0.0091813052 0.0079011165           39 
  469000   0.52531458   -8.9912768    51.513797 0.0091531266 0.0078736848           24 
  470000    0.5192601   -8.9953116    51.487055 0.0091289104 0.0078463261           41 
  471000   0.51593061   -8.9777509    51.498912 0.0091116263 0.0078190992           43 
  472000   0.50903431   -8.9870897     51.53801 0.0090992248 0.0077919237           38 
  473000   0.49999346   -8.9709149    51.602912 0.0090914222 0.0077648793           46 
  474000    0.5160657   -9.0050008    51.579644 0.0090681511 0.0077379876           41 
  475000   0.51110163   -8.9818538    51.577065 0.0090486078 0.0077111861           41 
  476000   0.50729378   -8.9765972    51.507192 0.0090173655 0.0076845464           34 
  477000   0.49186616   -8.9862438    51.412086 0.0089818458 0.0076579551           38 
  478000   0.49249908   -9.0230062    51.529816 0.0089835801  0.007631535           38 
  479000   0.50863117   -8.9884519    51.544346 0.0089673532 0.0076053122           38 
  480000   0.50075695   -9.0055355    51.539769 0.0089478766   0.00757919           40 
  481000   0.50230357   -9.0216111     51.51781 0.0089254695 0.0075531784           45 
  482000   0.49890423   -9.0100744    51.496466 0.0089032618  0.007527259           16 
  483000   0.49815986   -9.0226565     51.44214 0.0088754554 0.0075014294           36 
  484000   0.49806686   -9.0197517    51.497208 0.0088665991 0.0074757276           24 
  485000   0.48412093   -9.0233292     51.50138 0.0088490343 0.0074500915           26 
  486000   0.49522691   -9.0232834    51.466897 0.0088249138 0.0074245711           28 
  487000   0.49349152   -9.0248849     51.45803 0.0088052755 0.0073991328           29 
  488000   0.48428146   -9.0109515    51.424194 0.0087814539 0.0073738046           37 
  489000   0.48689249    -9.039011     51.45787 0.0087692348 0.0073486238           31 
  490000   0.48197009   -9.0375634    51.396765 0.0087409464 0.0073235452           42 
  491000   0.48227284   -9.0289171    51.426072 0.0087281181  0.007298557           36 
  492000    0.4849101   -9.0217965    51.396743 0.0087054103 0.0072736896           26 
  493000   0.47846382   -9.0403567     51.41092 0.0086901487 0.0072489253           36 
  494000   0.47828169   -9.0304855    51.392914 0.0086695198 0.0072242646           37 
  495000   0.49111043   -9.0562723    51.277101 0.0086325086 0.0071997184           27 
  496000   0.47441962   -9.0489206    51.424545 0.0086398765 0.0071752285           35 
  497000   0.46676005   -9.0575624    51.377874  0.008614667 0.0071508843           41 
  498000   0.46303052   -9.0438075    51.337581  0.008590626 0.0071266783           28 
  499000   0.46498503   -9.0581149    51.393421 0.0085827356 0.0071025805           33 
  500000   0.46922611   -9.0670219    51.417071 0.0085695119  0.007078593           32 
  501000   0.46556934   -9.0492215    51.350429 0.0085413222 0.0070547454           40 
  502000   0.47504302   -9.0643567    51.460917 0.0085426489 0.0070309062           43 
  503000   0.45861173   -9.0752306    51.453648 0.0085244612 0.0070072247           29 
  504000   0.45733963    -9.060605    51.339917 0.0084887428 0.0069836347           32 
  505000   0.45445485   -9.0720733    51.341163 0.0084721391 0.0069601422           51 
  506000   0.46040887   -9.0763725    51.344005 0.0084558639 0.0069367764           49 
  507000   0.45373807   -9.0730375    51.316156 0.0084346081 0.0069135012           37 
  508000     0.452808   -9.0889852    51.339401 0.0084218178 0.0068903352           44 
  509000    0.4586588   -9.0834373    51.351404 0.0084072371 0.0068672755           36 
  510000   0.44829879   -9.0824694    51.320467 0.0083856972 0.0068442843           37 
  511000   0.45119442    -9.082917    51.333655 0.0083714376  0.006821438           37 
  512000   0.44553027   -9.0826582    51.348653 0.0083575282 0.0067986449           64 
Loop time of 1257.68 on 48 procs for 500000 steps with 4000 atoms

Performance: 68697.945 tau/day, 397.558 timesteps/s
99.4% CPU use with 48 MPI tasks x no OpenMP threads

MPI task timing breakdown:
Section |  min time  |  avg time  |  max time  |%varavg| %total
---------------------------------------------------------------
Pair    | 86.123     | 92.914     | 99.432     |  27.4 |  7.39
Neigh   | 8.452      | 8.7475     | 9.0951     |   5.9 |  0.70
Comm    | 78.913     | 85.791     | 92.627     |  30.9 |  6.82
Output  | 0.88922    | 0.88992    | 0.91211    |   0.3 |  0.07
Modify  | 1056       | 1058.1     | 1060.6     |   3.4 | 84.13
Other   |            | 11.24      |            |       |  0.89

Nlocal:        83.3333 ave          92 max          76 min
Histogram: 2 5 0 13 6 9 6 5 1 1
Nghost:        2271.12 ave        2290 max        2245 min
Histogram: 1 0 2 6 9 5 11 4 6 4
Neighs:        15336.0 ave       17397 max       13773 min
Histogram: 2 2 10 7 10 11 1 3 1 1
FullNghs:      30671.5 ave       33965 max       27915 min
Histogram: 2 5 3 8 15 2 6 4 2 1

Total # of neighbors = 1472231
Ave neighs/atom = 368.05775
Neighbor list builds = 26607
Dangerous builds = 0

#clear
#
#next RN
#
#jump SELF
Total wall time: 0:21:01
