
units lj                  # Use reduced LJ style units
atom_style atomic         # Uncharged point particles
atom_modify map hash      # Needed for indexing of clusters etc
                          # Used to be able to find where atoms are in relation to each other.

lattice fcc 1.0 spacing 1 1 1
Lattice spacing in x,y,z = 1.5874011 1.5874011 1.5874011
region box block 0 10 0 10 0 10 units lattice
create_box 2 box
Created orthogonal box = (0.0000000 0.0000000 0.0000000) to (15.874011 15.874011 15.874011)
  3 by 4 by 4 MPI processor grid
create_atoms 1 box
Created 4000 atoms
  using lattice units in orthogonal box = (0.0000000 0.0000000 0.0000000) to (15.874011 15.874011 15.874011)
  create_atoms CPU = 0.018 seconds
set type 1 type/fraction 2 1.0 78393
Setting atom values ...
  4000 settings made for type/fraction
mass 1 1.0
mass 2 1.0
pair_style lj/cut  3.5
pair_modify tail  yes
pair_coeff 1  1  1.0  1.0   # Intearaction between 1 and 1 set with epsilon = 1 and sigma = 1
pair_coeff 1  2  1.5  0.8
pair_coeff 2  2  0.5  0.88

write_data data.0
System init for write_data ...
Neighbor list info ...
  update every 1 steps, delay 10 steps, check yes
  max neighbors/atom: 2000, page size: 100000
  master list distance cutoff = 3.8
  ghost atom cutoff = 3.8
  binsize = 1.9, bins = 9 9 9
  1 neighbor lists, perpetual/occasional/extra = 1 0 0
  (1) pair lj/cut, perpetual
      attributes: half, newton on
      pair build: half/bin/atomonly/newton
      stencil: half/bin/3d
      bin: standard
WARNING: Not all mixed pair coeffs generated from mixing. Use write_data with 'pair ij' option to store all pair coeffs. (../write_data.cpp:312)


#############################
#   M E L T   S Y S T E M   #
#############################

velocity all create 2.4 6229865 mom yes dist gaussian # Assign velocities
                                                    # Temperature 2.4, random number seed, zero linear momentum
                                                                                # Gaussian distribution

timestep 0.002   # simulation timestep
thermo 1000       # output thermodynamic data every 1000 steps bf 100

# Define a fix  in this case with index 1 applied to all
# particles in the simulation. This fix is for simulations
# in the anisotropic NPT ensemble. Note that we use the MTK
# correction.
fix 1 all npt temp 2.4 2.4 0.1 iso 5.68 5.68 0.5 mtk yes tchain 5 pchain 5 # Use NPT ensemble
                                                                         # Set temperature and pressure and damping
                                                                         # Numbers of thermostats in chain and in barostat
run 10000          # run for 10000 steps
Per MPI rank memory allocation (min/avg/max) = 3.642 | 3.644 | 3.648 Mbytes
Step Temp E_pair E_mol TotEng Press Volume 
       0          2.4   -2.7016284            0   0.89747158   -1.6956087         4000 
    1000    2.4023229   -1.4048613            0    2.1977222    5.7756978    4268.7914 
    2000    2.3823766   -1.4403394            0    2.1323321    5.6257608    4261.7355 
    3000    2.4440216   -1.4797156            0    2.1854004    5.4864262    4261.4242 
    4000    2.3711931   -1.4305978            0    2.1253026    5.7024142    4256.3987 
    5000    2.3845191   -1.4308771            0    2.1450073    5.6894967    4256.9012 
    6000    2.3683934   -1.4704551            0    2.0812468    5.7197837    4205.6622 
    7000    2.3903319   -1.4351149            0    2.1494866    5.5623511    4293.0656 
    8000    2.3891029   -1.4268796            0    2.1558789    5.7695825    4243.5849 
    9000    2.4033275   -1.4538629            0    2.1502272    5.5647319    4266.7232 
   10000    2.4543456   -1.4260738            0    2.2545242    5.7862071    4260.1081 
Loop time of 2.42459 on 48 procs for 10000 steps with 4000 atoms

Performance: 712698.287 tau/day, 4124.411 timesteps/s
99.6% CPU use with 48 MPI tasks x no OpenMP threads

MPI task timing breakdown:
Section |  min time  |  avg time  |  max time  |%varavg| %total
---------------------------------------------------------------
Pair    | 0.9984     | 1.0801     | 1.2503     |   3.7 | 44.55
Neigh   | 0.20432    | 0.20948    | 0.23643    |   1.2 |  8.64
Comm    | 0.63325    | 0.82942    | 0.90709    |   5.0 | 34.21
Output  | 0.00024191 | 0.00024661 | 0.00031581 |   0.0 |  0.01
Modify  | 0.25846    | 0.29048    | 0.32946    |   3.7 | 11.98
Other   |            | 0.01483    |            |       |  0.61

Nlocal:        83.3333 ave          94 max          74 min
Histogram: 2 3 7 7 2 11 6 6 2 2
Nghost:        1569.75 ave        1593 max        1543 min
Histogram: 1 1 7 4 7 7 11 4 4 2
Neighs:        8961.42 ave       10681 max        7723 min
Histogram: 3 6 5 9 8 8 6 0 2 1

Total # of neighbors = 430148
Ave neighs/atom = 107.53700
Neighbor list builds = 907
Dangerous builds = 219

# Equilibrate just above the melting temperature to avoid step fn in T

fix 1 all npt temp 1.25 1.25 0.1 iso 5.68 5.68 0.5 mtk yes tchain 5 pchain 5
run 2000
Per MPI rank memory allocation (min/avg/max) = 3.643 | 3.645 | 3.649 Mbytes
Step Temp E_pair E_mol TotEng Press Volume 
   10000    2.4543456   -1.4260738            0    2.2545242    5.7862071    4260.1081 
   11000      1.24279   -2.2154203            0  -0.35170125    5.7240727     3341.554 
   12000     1.244018   -2.2479157            0  -0.38235512    5.7191496    3322.1263 
Loop time of 0.605048 on 48 procs for 2000 steps with 4000 atoms

Performance: 571194.388 tau/day, 3305.523 timesteps/s
99.4% CPU use with 48 MPI tasks x no OpenMP threads

MPI task timing breakdown:
Section |  min time  |  avg time  |  max time  |%varavg| %total
---------------------------------------------------------------
Pair    | 0.24101    | 0.26852    | 0.29293    |   2.3 | 44.38
Neigh   | 0.036632   | 0.038988   | 0.041389   |   0.6 |  6.44
Comm    | 0.20393    | 0.2274     | 0.25636    |   3.1 | 37.58
Output  | 5.1223e-05 | 5.3151e-05 | 7.1342e-05 |   0.0 |  0.01
Modify  | 0.047932   | 0.065423   | 0.081327   |   4.2 | 10.81
Other   |            | 0.004672   |            |       |  0.77

Nlocal:        83.3333 ave          91 max          75 min
Histogram: 1 4 2 6 8 9 7 6 4 1
Nghost:        1858.67 ave        1875 max        1836 min
Histogram: 1 0 4 5 5 7 12 7 5 2
Neighs:        11501.2 ave       12854 max       10244 min
Histogram: 3 3 4 10 5 8 5 6 3 1

Total # of neighbors = 552057
Ave neighs/atom = 138.01425
Neighbor list builds = 141
Dangerous builds = 9

#############################
# L I N E A R  Q U E N C H  #
#############################

# Define solid atoms. This closely follows ten Wolde  Ruiz-Montero and Frenkel  Faraday Discuss  1996  104  93-110
# Compute components of the per-atom q6 vector
compute q6 all orientorder/atom degrees 1 6 components 6 nnn NULL cutoff 1.3 # compute the Q6 parameter.
                                                                             # Use all neighbours within 1.3 unit cell.

# get number of connections
compute coord_number all coord/atom orientorder q6 0.5

# An atom is solid if it has 8 or more connections (of a possible 14)
variable is_solid atom c_coord_number>=8
group solid dynamic all var is_solid    # Must be dynamic to update
dynamic group solid defined

# do clustering
compute cluster solid cluster/atom 1.3 # Create a cluster where all atoms within are solid and max 1.3 units from another member

# define chunks one chunk per cluster
compute clus_chunks solid chunk/atom c_cluster nchunk every compress yes  # Says which atoms are in which chunk

# count the size of each chunk
compute size_chunks solid property/chunk clus_chunks count


# Find the maximum entry in the vector of chunk sizes
variable max_n equal max(c_size_chunks)


# Thermo style which includes this variable
# thermo_style custom step temp pe vol v_max_n

thermo ${N}  # Print the thermo information every 100 steps
thermo 1000  

# Reset the npt fix at a lower temperature (below freezing)
fix 1  all npt temp  ${temp} ${temp}  0.1  iso  5.68  5.68  0.5  mtk yes tchain  5  pchain  5
fix 1  all npt temp  0.45 ${temp}  0.1  iso  5.68  5.68  0.5  mtk yes tchain  5  pchain  5
fix 1  all npt temp  0.45 0.45  0.1  iso  5.68  5.68  0.5  mtk yes tchain  5  pchain  5

dump dmp2 all dcd ${N} traj.dcd
dump dmp2 all dcd 1000 traj.dcd


compute msd all msd com yes
variable twopoint equal c_msd[4]/6/(step*dt+1.0e-6)
fix 9 all vector 10 c_msd[4]
variable fit equal slope(f_9)/6/(10*dt)
thermo_style custom step temp pe c_msd[4] v_twopoint v_fit v_max_n

fix 1 all npt temp 1.25 ${temp} 0.1 iso 5.68 5.68 0.5 mtk yes tchain 5 pchain 5
fix 1 all npt temp 1.25 0.45 0.1 iso 5.68 5.68 0.5 mtk yes tchain 5 pchain 5
run 500000 # 5000000  # Run for this many steps
Neighbor list info ...
  update every 1 steps, delay 10 steps, check yes
  max neighbors/atom: 2000, page size: 100000
  master list distance cutoff = 3.8
  ghost atom cutoff = 3.8
  binsize = 1.9, bins = 8 8 8
  4 neighbor lists, perpetual/occasional/extra = 1 3 0
  (1) pair lj/cut, perpetual
      attributes: half, newton on
      pair build: half/bin/atomonly/newton
      stencil: half/bin/3d
      bin: standard
  (2) compute orientorder/atom, occasional
      attributes: full, newton on
      pair build: full/bin/atomonly
      stencil: full/bin/3d
      bin: standard
  (3) compute coord/atom, occasional
      attributes: full, newton on
      pair build: full/bin/atomonly
      stencil: full/bin/3d
      bin: standard
  (4) compute cluster/atom, occasional
      attributes: full, newton on
      pair build: full/bin/atomonly
      stencil: full/bin/3d
      bin: standard
Per MPI rank memory allocation (min/avg/max) = 9.808 | 9.816 | 9.819 Mbytes
Step Temp PotEng c_msd[4] v_twopoint v_fit v_max_n 
   12000     1.244018   -2.2479157 2.1198665e-30 1.4721294e-32 8.3333333e+20            1 
   13000    1.2429482   -2.2359193    1.2369743 0.0079293221   0.10539482            1 
   14000    1.2640052    -2.218341    2.5384228  0.015109659   0.10765323       -1e+20 
   15000    1.2557006   -2.2088271    3.8390787  0.021328214   0.10869385            2 
   16000    1.2336613   -2.2113668    5.1285107  0.026710993   0.10848238            1 
   17000    1.2446892   -2.2463848    6.4220982  0.031480872   0.10822574            1 
   18000     1.255875   -2.2420587    7.5884764  0.035131834   0.10783188            2 
   19000    1.2552489   -2.2250603    8.9506654  0.039257303    0.1077198            1 
   20000    1.2552292   -2.2468882    10.348791  0.043119961   0.10811328            2 
   21000    1.2254661    -2.260327    11.693096  0.046401174   0.10844866            1 
   22000    1.2046118   -2.2563614    13.059238  0.049466808   0.10906332            1 
   23000     1.233235   -2.2377152    14.251336  0.051635273   0.10897595            2 
   24000    1.2354246   -2.2413448    15.488178  0.053778395   0.10869177            1 
   25000    1.2278209   -2.2679866    16.731835  0.055772784   0.10819581            3 
   26000    1.2071639   -2.2423198    17.766011  0.056942343   0.10769491            1 
   27000    1.2080329    -2.257445    18.904895   0.05834844   0.10705405            1 
   28000    1.2308679   -2.2464406    20.111338   0.05985517   0.10632138            2 
   29000    1.2148354   -2.2736762    21.267553  0.061113656   0.10549493            1 
   30000    1.2434905   -2.2294709    22.698438  0.063051216   0.10507423            1 
   31000    1.2125948   -2.2606453    23.901874  0.064252348   0.10482563            4 
   32000    1.2304093   -2.2348502    25.258195  0.065776547   0.10468884            1 
   33000    1.2021101   -2.2566999     26.69994  0.067424091   0.10481064            1 
   34000    1.1943414   -2.2688308    28.106059  0.068887397   0.10501889            2 
   35000    1.1829321   -2.2619547    29.326328  0.069824588   0.10523181            1 
   36000    1.2218859   -2.2877523    30.343158   0.07023879   0.10527429       -1e+20 
   37000     1.211681   -2.2490813    31.657505  0.071300687    0.1053114            1 
   38000    1.2141599   -2.2413649    32.853105  0.072046282    0.1051483            1 
   39000    1.2003805   -2.2465648    34.189036  0.073053494   0.10501815            1 
   40000    1.2249945   -2.2810757    35.192053  0.073316776   0.10489768            2 
   41000    1.1643056   -2.2484951    36.727468  0.074649324   0.10491071            1 
   42000     1.208705   -2.2410064     38.10783  0.075610772   0.10496548            1 
   43000     1.200426   -2.2689692    39.158186  0.075887957   0.10497315            2 
   44000    1.2099649   -2.2831722    40.304333  0.076333963   0.10490703       -1e+20 
   45000      1.19103   -2.2732237    41.584813  0.077008912   0.10488103            1 
   46000     1.200553   -2.2641152    42.824187  0.077580049    0.1048815            2 
   47000    1.2107824   -2.2825033    44.119615  0.078226267    0.1047986            2 
   48000    1.1962047   -2.2886347    44.826309  0.077823452   0.10463731            1 
   49000    1.1957757   -2.2718913    46.044775  0.078307439   0.10443139            2 
   50000    1.1900212   -2.2973181    47.272034  0.078786723   0.10423772            2 
   51000    1.1798097   -2.2752396    48.296124  0.078915235   0.10401281            2 
   52000    1.1821927   -2.2816283    49.431162  0.079216605   0.10378912            1 
   53000    1.1843267   -2.2653891    50.764064  0.079817709   0.10361486            1 
   54000    1.1841364   -2.2943602    52.012128  0.080265629   0.10348049            1 
   55000    1.1844807   -2.3013034    52.933366  0.080202069    0.1033173            2 
   56000    1.1906089   -2.2859752    54.101135  0.080507641   0.10312916            1 
   57000    1.1925266   -2.3057676     55.52192  0.081172397   0.10294684            2 
   58000      1.18412   -2.2869309    56.405597  0.081042524   0.10276523            1 
   59000     1.172225   -2.2989816    57.698392  0.081494904   0.10257568            1 
   60000     1.182634   -2.3150165    58.889408  0.081790843    0.1024002            1 
   61000    1.1713787   -2.3157732    59.707568  0.081567715   0.10218367            1 
   62000    1.1808661   -2.3238683    60.587238   0.08143446   0.10194061            2 
   63000    1.1932062   -2.2976579    61.930921  0.081919207   0.10170084            3 
   64000    1.1898268   -2.3093786    62.833772  0.081814807   0.10145531            1 
   65000     1.171368   -2.2914364    63.669675  0.081627788   0.10119974            1 
   66000    1.1689074   -2.2736497    65.314727  0.082468089   0.10096427            2 
   67000    1.1749039   -2.3058853    66.406186  0.082594758   0.10074933            3 
   68000    1.1702038    -2.308668    66.990809  0.082096579   0.10051101            2 
   69000    1.1664437   -2.3009021      68.0421  0.082176448   0.10028544            1 
   70000     1.154286   -2.3423041    69.356947  0.082567794   0.10009049            2 
   71000    1.1470902   -2.3222974    70.310182  0.082523687  0.099895034            2 
   72000    1.1660183   -2.3109527    71.731873  0.083023001  0.099732776            2 
   73000    1.1565058   -2.3038866    72.873426  0.083188842  0.099606994            2 
   74000    1.1631885   -2.2995502    73.783748  0.083089806  0.099457177            1 
   75000    1.1490218   -2.3399494    75.009426  0.083343806  0.099303466            1 
   76000    1.1097338     -2.35198    76.137551  0.083484157  0.099162978            1 
   77000    1.1383874   -2.3288876    77.675178  0.084064045  0.099015375            1 
   78000    1.1385018   -2.3720299    78.470524  0.083836029   0.09889867            1 
   79000    1.1460484   -2.3401342    79.502219    0.0838631  0.098799625            4 
   80000    1.1349892   -2.3519878    81.336139  0.084725144  0.098707149            2 
   81000    1.1297541   -2.3310771    81.979176  0.084340715  0.098608879            2 
   82000    1.1229168   -2.3250083    82.980109  0.084329378  0.098528426            3 
   83000    1.1533252   -2.3254305    84.302642  0.084641206  0.098443717            1 
   84000    1.1472544   -2.3528529    85.385751  0.084708086    0.0983711            2 
   85000    1.1153842   -2.3421988    86.343752  0.084650737  0.098278178            2 
   86000    1.1172743   -2.3399147    87.694081  0.084974884  0.098184497            1 
   87000    1.1211647    -2.321656    88.804035  0.085061336  0.098087271            2 
   88000    1.1171203   -2.3392885    89.465078  0.084720718   0.09800272            2 
   89000    1.1557312   -2.3434678    90.902695  0.085114883  0.097900839            2 
   90000    1.0951089   -2.3317673    91.513111  0.084734362  0.097791375            1 
   91000    1.1241469   -2.3394017    93.167098  0.085317855  0.097676656            2 
   92000    1.1337229    -2.369428    93.176426  0.084398936   0.09754849            2 
   93000    1.1574128   -2.3564081    94.819955  0.084964117  0.097416573            2 
   94000    1.1244074   -2.3563856    96.060595  0.085160102  0.097301827            2 
   95000    1.1252694    -2.393015    97.287836  0.085340207  0.097184235            2 
   96000    1.1434048   -2.3525872    98.097543  0.085154116  0.097052998            4 
   97000    1.0948657   -2.3437269    98.825743  0.084901841  0.096918112            2 
   98000     1.139571   -2.3680951    100.27464  0.085267549  0.096807124            1 
   99000    1.0981229   -2.3508464    101.02876  0.085041043  0.096688172            1 
  100000    1.0965336   -2.3601215     102.5152  0.085429335  0.096576985            1 
  101000    1.1126222   -2.3658403    103.57274  0.085456058   0.09647937            1 
  102000    1.1193154   -2.3730109     104.3034  0.085215197  0.096379233            2 
  103000    1.0970083   -2.3752739     105.8905  0.085671925  0.096278115            2 
  104000    1.0898765   -2.4028938    106.60705  0.085422313  0.096185052            1 
  105000    1.0800824   -2.3855377    108.10418  0.085796966  0.096093908            1 
  106000    1.0859018   -2.3590509    109.09327  0.085765145  0.095997564            2 
  107000    1.1027748   -2.4044621    109.55862  0.085326031  0.095902797            2 
  108000    1.0949403   -2.3923282      110.566  0.085313271  0.095809159            2 
  109000    1.0985953   -2.3709032    111.93397   0.08557643  0.095710394            1 
  110000    1.1239861    -2.373988    113.40684  0.085914269  0.095633294            2 
  111000    1.0852326   -2.4088777    114.39474  0.085881935  0.095553493            2 
  112000    1.0662735    -2.397142    115.13667  0.085667163  0.095460788            3 
  113000    1.1113731   -2.3669281    116.69454  0.086057918  0.095381981            6 
  114000    1.0879223   -2.3905758    117.27708  0.085728862  0.095313422            4 
  115000    1.0790394   -2.3918263    118.86959  0.086137385  0.095244715            3 
  116000     1.081696   -2.3900591     119.5172  0.085860059  0.095167146            4 
  117000    1.0686051   -2.4012217    121.22954  0.086345829  0.095097909            1 
  118000    1.0967191   -2.3955484    122.00438  0.086161288   0.09502255            1 
  119000    1.0824025   -2.3883835    123.06716  0.086181482  0.094954346            2 
  120000    1.0861793    -2.429333    124.08486  0.086170039  0.094888263            1 
  121000     1.077227   -2.3984243    125.29409  0.086290695  0.094816699            2 
  122000    1.0632327   -2.4293855    125.80313    0.0859311  0.094739927            2 
  123000    1.0678579   -2.4156567     127.3555  0.086284216  0.094673347            2 
  124000    1.0791256   -2.4219923    128.82989  0.086579227  0.094606306            1 
  125000    1.0702755   -2.4413975    128.24062   0.08549375  0.094523488            1 
  126000    1.0777275   -2.4106518    129.66721  0.085758735  0.094429056            1 
  127000    1.0731809   -2.4198932    130.79513  0.085823577  0.094340804            2 
  128000    1.0826363   -2.4173048    131.74676  0.085772627  0.094245762            1 
  129000     1.058957   -2.3843274    132.44861  0.085561117  0.094152524            4 
  130000    1.0439659   -2.4100668    133.21048  0.085391334  0.094062927            8 
  131000      1.07432   -2.4318695     134.3828  0.085485242  0.093968543            3 
  132000    1.0644783   -2.4013802    135.88357  0.085785083   0.09388128            2 
  133000    1.0622736   -2.4354192    136.47671  0.085511723  0.093788739            2 
  134000    1.0644716   -2.4101428    138.13663  0.085905861  0.093705758            2 
  135000    1.0637164   -2.4157554    138.69117  0.085611833  0.093620087            3 
  136000    1.0187728   -2.4201709    140.41549  0.086038906  0.093541198            2 
  137000    1.0599478   -2.4337971     141.3477   0.08597792  0.093462885            4 
  138000     1.014702   -2.4439508    141.27977   0.08531387  0.093381679            2 
  139000    1.0434901   -2.4178355     142.6693  0.085533152  0.093297555            2 
  140000    1.0638594   -2.4392831    144.27123  0.085875732  0.093214674            2 
  141000    1.0490399   -2.4169524     145.0274  0.085713594  0.093129249            1 
  142000    1.0716101   -2.4421086    145.09319  0.085148588  0.093042615            1 
  143000    1.0532729   -2.4538367    146.64339  0.085456523  0.092955112            2 
  144000    1.0459567   -2.4246198    146.98857  0.085062827  0.092854337            2 
  145000      1.03337   -2.4414235    147.72678  0.084900447  0.092747402            2 
  146000    1.0300093     -2.42175    149.22811  0.085175862   0.09264363            3 
  147000    1.0268286   -2.4476667    149.09344  0.084520091   0.09253495            2 
  148000    1.0540787   -2.4417496     150.7849  0.084901405  0.092425004            1 
  149000    1.0188047   -2.4284825    150.81387  0.084347804  0.092312061            1 
  150000    1.0231426   -2.4228338    152.43302  0.084685013  0.092189978            2 
  151000    1.0247142   -2.4651932    153.18292  0.084538033  0.092071788            2 
  152000    1.0263225   -2.4587772    153.75965  0.084298055  0.091951358            3 
  153000    1.0201218   -2.4570382    154.25032  0.084014334  0.091825903            3 
  154000    1.0145442   -2.4543113    156.07684  0.084457165  0.091702623            1 
  155000    1.0240533   -2.4708409    156.99312  0.084404901  0.091576522            2 
  156000    1.0337971   -2.4550711    157.60734  0.084191953  0.091457471            3 
  157000    1.0179584   -2.4660695    158.66289  0.084215969  0.091339087            1 
  158000   0.98243412   -2.4493556    159.42978  0.084087435  0.091229864            3 
  159000    1.0329495   -2.4570984      159.997   0.08385587  0.091112888            3 
  160000    1.0375685   -2.4835712    160.78943  0.083744493  0.090988962            2 
  161000    1.0220281   -2.4843484    161.01361  0.083340376  0.090863023            2 
  162000   0.99760915   -2.4777223    162.74598  0.083717069  0.090728988            2 
  163000    0.9975598    -2.462315    162.56903  0.083112999  0.090592788            2 
  164000   0.99503338   -2.4910603    163.70566  0.083183768  0.090460132            3 
  165000    1.0133591   -2.4668552    164.39199  0.083026259  0.090325676            2 
  166000   0.98507918   -2.4868913    166.19919  0.083433326  0.090191126            2 
  167000    1.0251625   -2.4699278    166.34079  0.083004384  0.090058682            3 
  168000    1.0041277   -2.4564241     167.2977  0.082984969  0.089930956            1 
  169000   0.98602784   -2.4801087    167.82661  0.082754736   0.08980089            1 
  170000   0.99856031   -2.4810174    168.14785  0.082425417  0.089663967            2 
  171000   0.98386125   -2.4819553    168.97469  0.082346341  0.089522199            2 
  172000   0.96605035   -2.5150072    169.98624  0.082357675  0.089379963            5 
  173000    0.9897961   -2.4949352    171.13408  0.082434528  0.089240609            2 
  174000   0.98273811   -2.4743429    171.64144  0.082203753  0.089101283            3 
  175000   0.98524691   -2.5075229     171.9317  0.081872236  0.088960351            1 
  176000   0.98761418   -2.4892455    173.52084  0.082159487  0.088817496            2 
  177000   0.96632214   -2.5001888    174.60452  0.082205517  0.088679018            2 
  178000   0.98374669   -2.4853902    175.18094  0.082013548  0.088543726            3 
  179000   0.96920552   -2.5108719    175.73798  0.081814703   0.08840057            5 
  180000   0.98349087   -2.4932252    176.68762  0.081799825  0.088257086            1 
  181000   0.97621024   -2.4887673    177.81946  0.081868994  0.088120351            2 
  182000   0.96695826   -2.4845676    177.46367  0.081256258  0.087979991            2 
  183000   0.97953551   -2.5183982    179.38869  0.081688838  0.087844638            1 
  184000   0.98142975    -2.506909    180.22953  0.081625695  0.087709043            2 
  185000   0.95729798   -2.5091369    180.60287  0.081352645  0.087570901            2 
  186000   0.97274658   -2.5049139    181.29016  0.081223192   0.08742691            2 
  187000   0.94081002   -2.5189346    181.44963  0.080859907  0.087285962            4 
  188000   0.98322147    -2.502641    182.57685  0.080929454  0.087143496            2 
  189000    0.9654393   -2.5191743    183.09532  0.080729859  0.087001784            3 
  190000   0.95826969   -2.5098752    183.56369  0.080510391   0.08685627            3 
  191000   0.96418103   -2.4999804    185.78694  0.081058874  0.086717484            2 
  192000   0.97862562    -2.513867     185.7992  0.080642015  0.086579504            3 
  193000   0.97486142   -2.5535496    186.37474  0.080472685  0.086437576            5 
  194000   0.95961862   -2.5426499    186.87454  0.080272569  0.086289394            2 
  195000   0.93576922   -2.5332837     187.1812  0.079991967   0.08614685            5 
  196000   0.96071561   -2.5355029    187.67398  0.079793359  0.086003867            3 
  197000   0.93073359   -2.5331044    188.75496  0.079845583  0.085859675            4 
  198000   0.95871697   -2.5669243    189.18595  0.079623717  0.085712082            2 
  199000   0.95195535   -2.5497338    190.67736  0.079848141  0.085561675            2 
  200000   0.96134322   -2.5494944    190.60806  0.079420026   0.08541157            9 
  201000   0.92117188   -2.5485308    191.55358  0.079416906  0.085264573            3 
  202000    0.9425148   -2.5716315    192.14668  0.079268432  0.085117386            3 
  203000   0.96103005   -2.5347006    193.57754   0.07946533  0.084975648            3 
  204000   0.95937245   -2.5602801    194.65754  0.079516967  0.084838508            2 
  205000    0.9443543   -2.5271784     194.2176  0.078950243  0.084695615            4 
  206000   0.96072635   -2.5427068    195.47427  0.079075353  0.084555959            2 
  207000   0.92965584   -2.5611484     196.4185  0.079073471  0.084417461            1 
  208000   0.95547423   -2.5198807    197.30794  0.079049655  0.084281461            1 
  209000   0.94709385   -2.5590974    198.25217  0.079047914  0.084148795            2 
  210000   0.94224158   -2.5414497    198.44029  0.078746146  0.084014405            2 
  211000   0.92787301    -2.543154    199.66111  0.078855097   0.08388663            1 
  212000   0.91353019   -2.5574584    200.78565  0.078925177  0.083757553            2 
  213000   0.94028277   -2.5759549     200.9903  0.078634703  0.083629608            2 
  214000   0.92302622   -2.5678993    202.37853   0.07880784  0.083497452            2 
  215000   0.93343837   -2.5725197     202.6755  0.078556396  0.083366824            3 
  216000   0.94012305   -2.5938561    202.98556  0.078312329  0.083238086            2 
  217000   0.91643621   -2.5734167    204.08049  0.078371925     0.083107            3 
  218000   0.92026084   -2.5665943     204.5373  0.078187042  0.082977644            2 
  219000    0.9035073   -2.6052552    205.11419   0.07804954  0.082847734            5 
  220000   0.91389631   -2.5738985    206.46349  0.078205869  0.082722259            8 
  221000    0.9101014   -2.5851306    206.76205  0.077964575  0.082596078            2 
  222000   0.90470796   -2.5689172    207.72995  0.077976706  0.082470128            2 
  223000    0.9205986   -2.6164318    207.55546  0.077561829  0.082340657            2 
  224000   0.92407827   -2.5722472    209.73218  0.078025364  0.082216748            5 
  225000   0.91437744   -2.5812259     209.9211  0.077748556  0.082091984            2 
  226000   0.91997632   -2.5864645      210.026  0.077443216  0.081965288            3 
  227000   0.90620552   -2.5629887    211.53335  0.077655416  0.081842226            3 
  228000   0.90752737   -2.6016393    212.49371  0.077665831  0.081718613            6 
  229000   0.90074419   -2.5985164    212.61926  0.077372364  0.081595518            3 
  230000   0.90665575   -2.5926068    213.18607  0.077241328  0.081470263            7 
  231000   0.89029053   -2.5952283    214.11577  0.077242342  0.081345116            3 
  232000   0.89642948   -2.6064005    214.30157   0.07697614  0.081219372            3 
  233000   0.87855183   -2.6096766    215.54474  0.077090393  0.081092463            2 
  234000   0.89182958   -2.6172176    214.32209  0.076325529  0.080963897            1 
  235000   0.89923845   -2.6019481    215.73365  0.076501294  0.080836206            3 
  236000   0.88108224    -2.613364    216.56177   0.07646955  0.080710098            1 
  237000   0.89047991   -2.6271739    218.45886  0.076813944  0.080586918            3 
  238000   0.88816311    -2.620299    218.48634   0.07650082  0.080463461            2 
  239000   0.90329045   -2.6362421    218.57973  0.076213295  0.080338983            5 
  240000    0.8989695   -2.6100337    219.24645   0.07612724  0.080215829            8 
  241000   0.86686058   -2.6127937    219.50008   0.07589906  0.080091555            2 
  242000   0.87122939   -2.6157437    220.38864  0.075891406  0.079965114            5 
  243000   0.87158588   -2.6563622    222.47808  0.076295638  0.079842917            3 
  244000   0.88612862   -2.6306079    221.68053  0.075710565  0.079721068            2 
  245000   0.88788133   -2.6471902    222.71752   0.07575426  0.079600899            1 
  246000   0.87711762   -2.6057481    223.96405   0.07586858  0.079481954            4 
  247000    0.8686182   -2.6318342    223.13909  0.075283094  0.079359407            2 
  248000   0.86714311   -2.6319551    223.98111  0.075262469  0.079234068            4 
  249000   0.86593844   -2.6350414    224.71004  0.075204163  0.079104474            2 
  250000   0.85478056   -2.6144828     225.0654  0.075021798  0.078976449            2 
  251000   0.86479717   -2.6679274    225.09711  0.074733437  0.078850387            4 
  252000   0.86817638   -2.6634561    225.73595   0.07464813  0.078722991            3 
  253000   0.85305481   -2.6331085     227.8303  0.075042919  0.078597043            3 
  254000   0.88288761   -2.6461064    227.02331  0.074482713  0.078470886            5 
  255000   0.85336048   -2.6244695    227.85109  0.074461142  0.078342667            2 
  256000   0.86251416   -2.6449986    229.17077  0.074599861  0.078216342            7 
  257000   0.86401623   -2.6686428    230.01839  0.074584431  0.078093472            3 
  258000   0.84312982    -2.626234    231.35353  0.074726591  0.077976762            6 
  259000    0.8475621   -2.6644174     232.0285  0.074655243   0.07785799            4 
  260000    0.8618659   -2.6404896    232.62619  0.074559676  0.077738603            3 
  261000   0.84902619   -2.6485901    233.29622  0.074487936  0.077623234            4 
  262000   0.84173865   -2.6583657    232.98098  0.074103365  0.077506035            3 
  263000   0.84627496    -2.667487    234.17097  0.074198659   0.07738698            3 
  264000   0.83647123   -2.6410201     233.9132  0.073836238  0.077266537            7 
  265000    0.8368414    -2.684362     234.0496  0.073600504  0.077144983            2 
  266000   0.83455939    -2.691305    235.48828  0.073774523  0.077020553            4 
  267000   0.83175147   -2.6740399    234.96276  0.073334194  0.076895479            9 
  268000   0.84449144   -2.6766815    235.73471  0.073300595  0.076773692            6 
  269000   0.84192332   -2.6924335    234.99428  0.072798724  0.076644429            3 
  270000   0.82156434   -2.6816207    235.63557  0.072727029  0.076514777            4 
  271000   0.83039574   -2.6797861     237.2736  0.072962361  0.076386344            3 
  272000   0.84010032   -2.7021884    237.78069  0.072849477  0.076262555            7 
  273000   0.82609682   -2.6751944    239.00999  0.072957872   0.07613954            4 
  274000   0.83269236   -2.6797815    239.39316  0.072808138  0.076018876            2 
  275000   0.82760417   -2.6671505    240.27401  0.072810307  0.075895824            3 
  276000   0.82517753   -2.6821508     241.4964   0.07291558  0.075774924            7 
  277000   0.82512193   -2.7047579    241.16047  0.072551284  0.075653392            3 
  278000   0.82235209   -2.7060141    242.24101  0.072614212  0.075534894            5 
  279000    0.8155025   -2.6894041    242.08334  0.072306853  0.075416464            4 
  280000   0.82030056   -2.7018054    241.52625  0.071882814  0.075294077            4 
  281000   0.83190882   -2.6781967    242.19136  0.071824248  0.075169906            9 
  282000   0.83090141    -2.687601    244.23596  0.072173747  0.075047586            3 
  283000   0.81330841    -2.694142    244.29081  0.071934867  0.074926475            3 
  284000   0.79141267   -2.6973191    244.16846  0.071645674  0.074805151            3 
  285000   0.78828214   -2.7037894    244.69464   0.07154814  0.074684128            3 
  286000   0.82249485   -2.6810203    245.53001  0.071541379   0.07456271            4 
  287000   0.80683971   -2.7096176    246.30386  0.071516801  0.074440789            3 
  288000    0.7939761    -2.724236    245.80536  0.071124236  0.074319421            2 
  289000   0.79589394   -2.7110743    247.15515  0.071267345  0.074198238            4 
  290000   0.81738387   -2.7137145    248.45455  0.071394985  0.074077796            2 
  291000   0.80430724   -2.6907778      248.863  0.071266611  0.073958833            4 
  292000   0.81373361   -2.7312502    249.40685  0.071177753  0.073840599            3 
  293000   0.79493845   -2.7298254    249.42921  0.070941185  0.073722643            5 
  294000     0.829078   -2.7309837    250.16279   0.07090782  0.073602593            7 
  295000   0.77528447   -2.7311083    249.48534  0.070476086  0.073486071            2 
  296000   0.79856687   -2.7461753    250.69554  0.070578699  0.073364837            7 
  297000   0.80371084   -2.7406062    250.23384  0.070211514  0.073243658            4 
  298000   0.78456983   -2.7286378    252.58791  0.070634203  0.073122149            5 
  299000   0.78117018   -2.7422401    251.00942  0.069958033   0.07300181            4 
  300000     0.805461   -2.7473154    252.65435  0.070181764  0.072880675            3 
  301000   0.78576356   -2.7505189    252.13936  0.069806026  0.072760404            5 
  302000   0.78853295   -2.7341601    253.02094   0.06981814  0.072639751            7 
  303000   0.77877034   -2.7525217    253.73315  0.069783594  0.072519787            4 
  304000   0.78092949   -2.7432334    254.00571  0.069628758  0.072399462            2 
  305000   0.79276222   -2.7539564     254.0175   0.06940369  0.072278702            5 
  306000   0.78666624   -2.7671218    255.54829   0.06959376  0.072159902            3 
  307000   0.78757044   -2.7519538    255.98516  0.069485657  0.072042121            3 
  308000   0.78430912   -2.7752443    256.53373  0.069408475  0.071926263            2 
  309000   0.75822054   -2.7629554    256.88286  0.069278009  0.071809833            4 
  310000   0.76750008   -2.7469548    258.01578  0.069359082  0.071692326            3 
  311000   0.77176648   -2.7738101    257.19544  0.068916249  0.071573753            5 
  312000   0.75852835    -2.764934    258.57817  0.069064682  0.071457727            6 
  313000   0.76717466   -2.7664623    258.23495  0.068752649  0.071339935            9 
  314000   0.75973035   -2.7669991    259.16652  0.068780923  0.071222247            3 
  315000   0.76227804   -2.7922144    259.14506  0.068556893  0.071103767            2 
  316000    0.7587995   -2.7592533    259.91485  0.068542946   0.07098396            4 
  317000   0.76264908   -2.7621285    260.34942  0.068440961  0.070867337            3 
  318000   0.75677356   -2.7793155    261.26217  0.068464928  0.070751686            6 
  319000   0.75794487   -2.7804293    260.79732  0.068128872  0.070635478            6 
  320000   0.75590499   -2.7781005    261.93284  0.068211678  0.070519702            4 
  321000    0.7611613   -2.7742768    263.11762  0.068306756  0.070403475            6 
  322000   0.74593273   -2.7756282    262.30999  0.067885609  0.070285528            3 
  323000   0.74307282   -2.8102457     262.8281  0.067809106  0.070167348           20 
  324000   0.74409565    -2.787627    262.94405  0.067629642  0.070046917            8 
  325000   0.74597198   -2.8121478    263.25286  0.067500734  0.069927515            3 
  326000   0.75226256   -2.7929738    262.56705  0.067118367  0.069804906            6 
  327000   0.75944017   -2.7892168    263.65613  0.067190654   0.06968344            7 
  328000   0.73214599   -2.8158003    263.29861  0.066894973  0.069561183            7 
  329000   0.74606631   -2.8006882     264.2951  0.066944048  0.069437955            2 
  330000   0.74215615   -2.8128583    263.72327  0.066596786  0.069313427            3 
  331000   0.72397364   -2.8239764    264.51436  0.066594754  0.069188777            5 
  332000   0.74166236   -2.8208217    263.98859  0.066262197  0.069064418            4 
  333000   0.73416743   -2.8346515     264.5612  0.066206507  0.068940385            2 
  334000   0.73545197   -2.8053741    265.36503   0.06620884  0.068815168            7 
  335000   0.72874272   -2.8047726    265.50742  0.066046622     0.068691            2 
  336000   0.73717594   -2.8186431    265.13476   0.06575763  0.068565141            2 
  337000   0.72291911   -2.8168954    266.67637  0.065943713  0.068440093            8 
  338000   0.72772081   -2.8188713    267.37444  0.065920719  0.068315616            7 
  339000   0.73000663   -2.8172949    267.44391  0.065743339  0.068192665            4 
  340000   0.71172678   -2.8158926    267.13071  0.065473213  0.068068613            4 
  341000   0.73335239   -2.8415812    267.28367  0.065318589  0.067943438            6 
  342000   0.73560849    -2.832549    268.41863   0.06540415  0.067818278            3 
  343000   0.72331094    -2.827392    268.55652  0.065246967  0.067693352            6 
  344000   0.74027372   -2.8298558    268.45918  0.065033715  0.067568367            5 
  345000   0.71371848   -2.8547074    269.19478  0.065022895  0.067442154            4 
  346000   0.71764696   -2.8751175    268.71281  0.064718884  0.067314692            6 
  347000   0.71735634    -2.853652    269.08551  0.064621881  0.067187808            4 
  348000   0.72597658   -2.8531591    269.52351  0.064541071  0.067061514            7 
  349000   0.70964711   -2.8555334    270.18807  0.064514821  0.066936776            5 
  350000   0.70875776   -2.8337779    269.63694  0.064199271  0.066812035            6 
  351000   0.69797144   -2.8307089    270.71544  0.064272422   0.06668595            6 
  352000   0.70702783    -2.863242    271.71347  0.064326105  0.066559409            8 
  353000   0.70710185   -2.8585565    269.99374  0.063737899  0.066433203            7 
  354000   0.70193918   -2.8829161    270.57353  0.063694333  0.066305731            4 
  355000   0.69399182   -2.8558916    270.02723  0.063386673  0.066177781            6 
  356000   0.69286673   -2.8616584    271.84054  0.063633085  0.066049579            5 
  357000     0.695747   -2.8758737    271.34541  0.063339265  0.065920637            4 
  358000   0.68142698   -2.8589767    272.57026  0.063447453  0.065792327            3 
  359000   0.69842591   -2.8470564     271.6901  0.063066412  0.065664244            5 
  360000   0.69004535   -2.8801816    271.82428  0.062922287  0.065533109            5 
  361000   0.69016859   -2.8554392    272.33252   0.06286531   0.06540182            4 
  362000   0.68767684   -2.8926266    273.23245  0.062898814  0.065271576            3 
  363000   0.68539351   -2.8911102    271.99006  0.062440327  0.065140294            9 
  364000   0.70419324   -2.8759835    273.24761  0.062556688  0.065009947            9 
  365000   0.68973202   -2.8757026    273.14712  0.062362357  0.064880441            9 
  366000   0.68791212   -2.9115307    273.07512  0.062175573  0.064750146            7 
  367000   0.68164912   -2.9008823    273.61431  0.062128591  0.064619614            4 
  368000   0.67550066   -2.8958247    273.41275  0.061914118  0.064490172            5 
  369000    0.7034525   -2.8845131    273.99279  0.061877324   0.06435944            8 
  370000   0.67210672   -2.8799038    275.01112  0.061939441  0.064231308            4 
  371000   0.68222606   -2.8915025    274.39209  0.061633442  0.064101974            7 
  372000   0.66707407   -2.9017128    274.35027  0.061458393  0.063971796            6 
  373000   0.67219066   -2.9168292    274.33125  0.061289377   0.06384231            5 
  374000   0.66560575   -2.9046193    276.06264  0.061511283  0.063713004            2 
  375000   0.66585277   -2.8896137    275.83488   0.06129664    0.0635834            9 
  376000   0.66721867   -2.9193564    275.96377  0.061162182  0.063453913           10 
  377000   0.66984134   -2.9117742    276.02928   0.06101443  0.063324416            4 
  378000   0.66035418   -2.9286904    276.40907  0.060936743  0.063196124           11 
  379000   0.65746634   -2.8962571    276.46351  0.060787932  0.063068162            4 
  380000   0.66110812   -2.9208074    276.72793  0.060685948  0.062939843            4 
  381000    0.6387238   -2.9324092    277.78373  0.060757597  0.062812955           14 
  382000   0.66133462   -2.9433174    277.44206  0.060524011  0.062685399           13 
  383000   0.64362628   -2.9304605    277.61281  0.060403135  0.062558076            4 
  384000   0.64876353   -2.9285398    277.86009  0.060299499  0.062430143            4 
  385000   0.64520554   -2.9249087    277.39286  0.060041744   0.06230264            6 
  386000   0.64558513   -2.9457914    277.06482  0.059815376   0.06217472            7 
  387000   0.64395382    -2.942602    278.32643  0.059932479  0.062046676            6 
  388000   0.64896008   -2.9346815    278.07717  0.059724477  0.061918671            6 
  389000   0.65632414   -2.9456058    278.33085  0.059625289   0.06179032            3 
  390000    0.6365156   -2.9463904    279.09027  0.059634673  0.061662805            3 
  391000   0.63069181   -2.9585156      279.593  0.059589302  0.061536523            4 
  392000   0.64805874   -2.9359105    279.78747   0.05947863  0.061411082            3 
  393000   0.64968708   -2.9547127     280.5104  0.059480578  0.061286319            6 
  394000   0.63685349   -2.9432148    279.25529  0.059064148  0.061161129            9 
  395000    0.6378302   -2.9595733     280.0129  0.059074452  0.061036452            5 
  396000   0.63178446   -2.9659769     280.9666  0.059125968  0.060911507            5 
  397000   0.63590165   -2.9416341    279.99288  0.058772644    0.0607871            8 
  398000   0.62818684   -2.9731234    280.63828  0.058760109   0.06066219            3 
  399000   0.62615494   -2.9584257    280.75033  0.058636243  0.060537659            4 
  400000   0.62419773   -2.9633212    281.40618  0.058626286  0.060412475            7 
  401000   0.63340285   -2.9565249    281.91487  0.058585801  0.060288072            4 
  402000   0.63369823   -2.9922814     280.7041  0.058189075  0.060163588            9 
  403000    0.6299704   -2.9851439    281.91572  0.058295228  0.060038191            7 
  404000   0.63178186   -2.9752554    282.38948  0.058248655  0.059914747            5 
  405000   0.62690034    -2.989748    282.26911  0.058080063  0.059790587            6 
  406000   0.60436879   -2.9795961    282.01589  0.057885035  0.059666519            7 
  407000   0.62102577   -2.9887809    282.62628  0.057867789  0.059543642           14 
  408000   0.61483245   -2.9687219    282.40114  0.057679971  0.059421538            6 
  409000    0.6220997   -2.9947597    283.76545  0.057816922  0.059298282            8 
  410000   0.61208544   -2.9923501    282.89556  0.057499097  0.059176091            8 
  411000   0.60989683   -2.9945885    283.34353  0.057450026  0.059054911           16 
  412000   0.61247097    -2.981818    283.25651  0.057292982  0.058934203            8 
  413000   0.61099668   -2.9851978    283.20128  0.057143115  0.058812443            6 
  414000   0.60691498   -3.0046831    283.09994  0.056984689  0.058689811            8 
  415000   0.59172848   -2.9868988    283.18435  0.056864327  0.058567246            6 
  416000   0.59673218   -2.9989154    283.75144  0.056841235  0.058444596            8 
  417000   0.60533787   -2.9959432    284.08543  0.056771668  0.058321588            7 
  418000   0.61662306   -3.0207134    283.71812  0.056562624  0.058198576           10 
  419000   0.60966769   -3.0255029    283.69662  0.056423354  0.058075937            8 
  420000   0.59436903   -2.9981796    284.68878   0.05648587  0.057953386            7 
  421000   0.60946479   -3.0055149    283.70476   0.05615692  0.057831271            8 
  422000    0.5836729    -3.027442     284.4584   0.05617267  0.057709106            7 
  423000   0.59498947   -3.0199929    284.64314  0.056076269  0.057586685            4 
  424000   0.58906693    -3.034182    285.03351  0.056020737  0.057464648            4 
  425000   0.59441999   -3.0179698    284.41074  0.055766812  0.057342587            7 
  426000   0.58489846    -3.036226    284.74287  0.055700873  0.057220576           13 
  427000   0.58823007   -3.0390951    284.59529  0.055541625  0.057097846            6 
  428000   0.58555155   -3.0237159    284.84219  0.055459928  0.056974215           25 
  429000   0.57906089   -3.0320307    284.56343  0.055276502  0.056851781           11 
  430000   0.58001657   -3.0274531    285.03731  0.055239788  0.056729092            6 
  431000   0.58198502   -3.0303249    285.88772  0.055276047  0.056607364            7 
  432000   0.58502276   -3.0410991    285.41786  0.055057457  0.056485706            8 
  433000    0.5639497   -3.0569348    285.58647  0.054962754  0.056364026            8 
  434000   0.57113567   -3.0276596    284.98934  0.054721455  0.056241729            6 
  435000   0.58049852   -3.0655515    285.74024   0.05473951  0.056120252            7 
  436000   0.57628001   -3.0762612    285.17431  0.054505793  0.055998156            8 
  437000    0.5533219   -3.0651342    286.24472  0.054585187   0.05587646           15 
  438000   0.57953152   -3.0666979    285.78991  0.054374032  0.055755938            8 
  439000    0.5708634   -3.0716945     286.7547  0.054433315  0.055635265            5 
  440000   0.55470082   -3.0856987    286.25237  0.054214464  0.055514839            6 
  441000   0.56863096   -3.0776275     286.0883  0.054060525  0.055394734           10 
  442000   0.56109347   -3.0779114    286.15766  0.053951294  0.055274096            8 
  443000   0.55132704   -3.0650474    286.08304   0.05381547  0.055153733           14 
  444000   0.55913682    -3.066753    286.31838  0.053738435  0.055033695            9 
  445000   0.56280614   -3.0873624    286.98562  0.053742625  0.054914214            7 
  446000   0.56520554   -3.0695553    286.91649  0.053609209  0.054795174            5 
  447000   0.55737395   -3.0819648    286.86075  0.053478887  0.054675755            7 
  448000   0.55883865   -3.0903625    286.73957  0.053336973  0.054555778            9 
  449000   0.54931007   -3.0646658     287.1729  0.053298608  0.054435146            9 
  450000   0.54804235   -3.0901378    287.41444  0.053224897  0.054314867            8 
  451000   0.54082051   -3.0876368    286.89195  0.053010337  0.054195089           18 
  452000    0.5553505   -3.1102466    286.98473  0.052910164  0.054075762           27 
  453000   0.54309884   -3.0966569    287.10805  0.052816049  0.053956054           18 
  454000   0.53560347   -3.1011949    287.67107  0.052803059  0.053836634           10 
  455000    0.5440055   -3.0976005    287.54749  0.052664375  0.053717341           13 
  456000   0.55389655   -3.1168196    287.22971   0.05249081  0.053598485            6 
  457000   0.53526999   -3.1214658    287.27864  0.052384872  0.053479988            9 
  458000   0.53435805   -3.1066777    287.60918  0.052330637  0.053361976           25 
  459000   0.53169814    -3.116131    287.62634  0.052219743  0.053243679           10 
  460000   0.54770237    -3.102996    287.97652   0.05216966  0.053125723            6 
  461000   0.53864978   -3.1125607    289.08054  0.052256063  0.053008116            9 
  462000   0.52972529   -3.1108041    287.37138  0.051834664  0.052890783            6 
  463000   0.53637098   -3.1188914    287.69363  0.051780712  0.052773904           17 
  464000   0.52120734   -3.1159918    287.55068  0.051643442  0.052656609            6 
  465000   0.51937608   -3.1274099    287.55616  0.051533362  0.052539423            3 
  466000   0.53007176   -3.1356124    288.14877  0.051528749  0.052422146            5 
  467000   0.51707318   -3.1367854    288.78263  0.051531518  0.052305166            8 
  468000   0.52003294   -3.1407353    288.36662  0.051347333  0.052188656           14 
  469000   0.52091902   -3.1449324    288.60157  0.051279596   0.05207148           20 
  470000   0.51751639   -3.1411052    289.02842  0.051246173  0.051955316           17 
  471000   0.52121304   -3.1272538    288.49407   0.05104283   0.05183978           21 
  472000   0.52155158   -3.1385267    288.59427  0.050952379  0.051724285           13 
  473000   0.51016544   -3.1431317    288.44072  0.050817605  0.051608291           14 
  474000   0.52124315   -3.1592008    288.29703  0.050685131  0.051492643           10 
  475000   0.50044316   -3.1577498     288.6474  0.050639895    0.0513759           21 
  476000   0.51163106   -3.1562418    288.83198  0.050565823  0.051259938           16 
  477000   0.51007918   -3.1534204    287.29356  0.050191049  0.051143852           46 
  478000   0.50328931   -3.1594582     288.5053  0.050297297  0.051027807           23 
  479000   0.50887308   -3.1653932     288.0713  0.050116788  0.050911936           13 
  480000   0.50108145   -3.1707376    287.93207  0.049988207  0.050796092            9 
  481000   0.49944724   -3.1736681    287.80706  0.049862623  0.050680256           14 
  482000   0.51022022   -3.1785078    287.46953  0.049700818  0.050563908           17 
  483000   0.49707819   -3.1705493     288.0297  0.049694565  0.050447578           12 
  484000   0.49578002   -3.1835638    287.88384  0.049566776  0.050330938           29 
  485000   0.48809438   -3.1886111     287.8692  0.049462062  0.050214835           16 
  486000   0.48798808   -3.1711354    288.17411   0.04941257  0.050098827           19 
  487000   0.49913827   -3.1737106    288.77389   0.04941374  0.049983658           26 
  488000   0.48958082   -3.1812382    288.14576  0.049205218  0.049868168           10 
  489000   0.48703773   -3.1887175     288.4355  0.049153971  0.049752911           19 
  490000   0.48047876   -3.2126173    288.01663   0.04898242  0.049636887           34 
  491000    0.4786803   -3.1841511    287.85272  0.048854841  0.049521862           70 
  492000   0.48435143   -3.2115693    288.43881  0.048854812  0.049407202           14 
  493000   0.48346479   -3.1989149    287.81197  0.048649758  0.049293031            7 
  494000   0.47036156   -3.2057041    288.18754  0.048614633  0.049178542           18 
  495000   0.47800174   -3.2056305    288.73277   0.04860821  0.049064641           11 
  496000   0.47495856   -3.2266615    288.06892  0.048398676  0.048950383           20 
  497000   0.47245638   -3.2176088    288.18185   0.04832023   0.04883683           25 
  498000   0.46999906   -3.2100516    288.38429  0.048257076  0.048723948           13 
  499000   0.47338554   -3.2272808    287.83995  0.048069463  0.048610956           11 
  500000   0.45654806    -3.235268    288.36569  0.048060948  0.048497911           15 
  501000   0.46399182   -3.2313232    288.27947  0.047950677  0.048384654           20 
  502000   0.45954253   -3.2392896    288.63336  0.047913904  0.048271221           22 
  503000   0.46426776   -3.2434698    287.77719  0.047676804  0.048158307           28 
  504000   0.47209947   -3.2361938    287.49287  0.047535197  0.048045257           22 
  505000   0.46177155   -3.2393265    288.01873  0.047527843  0.047932754           15 
  506000   0.47594382   -3.2498183    288.23461  0.047469468  0.047820505           34 
  507000   0.44074079   -3.2475627    288.16951   0.04736514  0.047708949          104 
  508000   0.44847935   -3.2551267    288.01306  0.047246237  0.047597101           56 
  509000   0.46320989   -3.2490131     287.8455  0.047125983  0.047485839           37 
  510000   0.45965075   -3.2441953    288.90922   0.04720739  0.047375065           29 
  511000   0.45297058   -3.2502794    288.39077  0.047030458  0.047264326           36 
  512000   0.45865909   -3.2556567     289.1179   0.04705695  0.047153717           11 
Loop time of 1196.85 on 48 procs for 500000 steps with 4000 atoms

Performance: 72189.611 tau/day, 417.764 timesteps/s
99.4% CPU use with 48 MPI tasks x no OpenMP threads

MPI task timing breakdown:
Section |  min time  |  avg time  |  max time  |%varavg| %total
---------------------------------------------------------------
Pair    | 76.529     | 81.554     | 87.082     |  25.2 |  6.81
Neigh   | 8.0329     | 8.3625     | 8.6474     |   5.2 |  0.70
Comm    | 76.264     | 81.317     | 86.171     |  26.1 |  6.79
Output  | 0.83539    | 0.83588    | 0.844      |   0.1 |  0.07
Modify  | 1012.3     | 1014.2     | 1016.6     |   3.2 | 84.74
Other   |            | 10.53      |            |       |  0.88

Nlocal:        83.3333 ave          88 max          76 min
Histogram: 1 0 0 7 6 11 6 5 5 7
Nghost:        2147.17 ave        2164 max        2130 min
Histogram: 4 2 5 4 9 9 3 3 4 5
Neighs:        14154.5 ave       15654 max       12904 min
Histogram: 1 3 12 8 5 6 4 5 1 3
FullNghs:      28309.7 ave       30240 max       25843 min
Histogram: 1 0 6 7 6 7 7 7 3 4

Total # of neighbors = 1358864
Ave neighs/atom = 339.71600
Neighbor list builds = 27169
Dangerous builds = 1

#clear
#
#next RN
#
#jump SELF
Total wall time: 0:20:00
