
units lj                  # Use reduced LJ style units
atom_style atomic         # Uncharged point particles
atom_modify map hash      # Needed for indexing of clusters etc
                          # Used to be able to find where atoms are in relation to each other.

lattice fcc 1.0 spacing 1 1 1
Lattice spacing in x,y,z = 1.5874011 1.5874011 1.5874011
region box block 0 10 0 10 0 10 units lattice
create_box 2 box
Created orthogonal box = (0.0000000 0.0000000 0.0000000) to (15.874011 15.874011 15.874011)
  3 by 4 by 4 MPI processor grid
create_atoms 1 box
Created 4000 atoms
  using lattice units in orthogonal box = (0.0000000 0.0000000 0.0000000) to (15.874011 15.874011 15.874011)
  create_atoms CPU = 0.002 seconds
set type 1 type/fraction 2 0.69 78393
Setting atom values ...
  2781 settings made for type/fraction
mass 1 1.0
mass 2 1.0
pair_style lj/cut  3.5
pair_modify tail  yes
pair_coeff 1  1  1.0  1.0   # Intearaction between 1 and 1 set with epsilon = 1 and sigma = 1
pair_coeff 1  2  1.5  0.8
pair_coeff 2  2  0.5  0.88

write_data data.0
System init for write_data ...
Neighbor list info ...
  update every 1 steps, delay 10 steps, check yes
  max neighbors/atom: 2000, page size: 100000
  master list distance cutoff = 3.8
  ghost atom cutoff = 3.8
  binsize = 1.9, bins = 9 9 9
  1 neighbor lists, perpetual/occasional/extra = 1 0 0
  (1) pair lj/cut, perpetual
      attributes: half, newton on
      pair build: half/bin/atomonly/newton
      stencil: half/bin/3d
      bin: standard
WARNING: Not all mixed pair coeffs generated from mixing. Use write_data with 'pair ij' option to store all pair coeffs. (../write_data.cpp:312)


#############################
#   M E L T   S Y S T E M   #
#############################

velocity all create 2.4 6583654 mom yes dist gaussian # Assign velocities
                                                    # Temperature 2.4, random number seed, zero linear momentum
                                                                                # Gaussian distribution

timestep 0.002   # simulation timestep
thermo 1000       # output thermodynamic data every 1000 steps bf 100

# Define a fix  in this case with index 1 applied to all
# particles in the simulation. This fix is for simulations
# in the anisotropic NPT ensemble. Note that we use the MTK
# correction.
fix 1 all npt temp 2.4 2.4 0.1 iso 5.68 5.68 0.5 mtk yes tchain 5 pchain 5 # Use NPT ensemble
                                                                         # Set temperature and pressure and damping
                                                                         # Numbers of thermostats in chain and in barostat
run 10000          # run for 10000 steps
Per MPI rank memory allocation (min/avg/max) = 3.642 | 3.644 | 3.648 Mbytes
Step Temp E_pair E_mol TotEng Press Volume 
       0          2.4    -4.227286            0  -0.62818599   -3.7882121         4000 
    1000    2.3849411   -3.7959591            0  -0.21944181    5.9555514      3660.56 
    2000    2.3957253   -3.8980385            0  -0.30534897    5.5050796     3646.398 
    3000     2.360888   -3.8856967            0  -0.34525005    5.5756206     3638.755 
    4000    2.3262089   -3.8654637            0  -0.37702267    5.6147604    3640.7336 
    5000    2.4075721    -3.870941            0  -0.26048565    5.8075992    3638.5776 
    6000     2.395218   -3.8574937            0  -0.26556492    5.4554327    3683.2378 
    7000    2.4074337   -3.8778697            0  -0.26762194     5.708962    3634.0369 
    8000    2.3683463   -3.8915269            0  -0.33989555    5.8814081    3607.0789 
    9000    2.4475212   -3.8683587            0  -0.19799469    5.9178196    3633.6793 
   10000    2.4518745   -3.8039349            0  -0.12704266    5.5751476    3696.8209 
Loop time of 2.68793 on 48 procs for 10000 steps with 4000 atoms

Performance: 642874.455 tau/day, 3720.338 timesteps/s
99.6% CPU use with 48 MPI tasks x no OpenMP threads

MPI task timing breakdown:
Section |  min time  |  avg time  |  max time  |%varavg| %total
---------------------------------------------------------------
Pair    | 1.2052     | 1.2704     | 1.3484     |   2.9 | 47.26
Neigh   | 0.2186     | 0.22686    | 0.23643    |   0.8 |  8.44
Comm    | 0.80103    | 0.90597    | 0.99958    |   4.1 | 33.71
Output  | 0.00026207 | 0.00026536 | 0.00033816 |   0.0 |  0.01
Modify  | 0.23167    | 0.26864    | 0.30724    |   4.0 |  9.99
Other   |            | 0.01581    |            |       |  0.59

Nlocal:        83.3333 ave          93 max          75 min
Histogram: 3 4 6 6 4 11 8 2 3 1
Nghost:        1727.00 ave        1758 max        1698 min
Histogram: 2 7 4 5 4 7 7 8 3 1
Neighs:        10325.8 ave       11961 max        9083 min
Histogram: 5 3 5 6 8 12 5 0 3 1

Total # of neighbors = 495640
Ave neighs/atom = 123.91000
Neighbor list builds = 910
Dangerous builds = 249

# Equilibrate just above the melting temperature to avoid step fn in T

fix 1 all npt temp 1.25 1.25 0.1 iso 5.68 5.68 0.5 mtk yes tchain 5 pchain 5
run 2000
Per MPI rank memory allocation (min/avg/max) = 3.644 | 3.646 | 3.649 Mbytes
Step Temp E_pair E_mol TotEng Press Volume 
   10000    2.4518745   -3.8039349            0  -0.12704266    5.5751476    3696.8209 
   11000    1.2414776    -5.686935            0   -3.8251841    5.6236781    2791.5921 
   12000    1.2462892   -5.7070384            0   -3.8380719    5.5278066    2784.6771 
Loop time of 0.673614 on 48 procs for 2000 steps with 4000 atoms

Performance: 513053.294 tau/day, 2969.058 timesteps/s
99.6% CPU use with 48 MPI tasks x no OpenMP threads

MPI task timing breakdown:
Section |  min time  |  avg time  |  max time  |%varavg| %total
---------------------------------------------------------------
Pair    | 0.29954    | 0.3282     | 0.38646    |   2.5 | 48.72
Neigh   | 0.041825   | 0.044868   | 0.052069   |   0.8 |  6.66
Comm    | 0.1861     | 0.24998    | 0.28507    |   3.3 | 37.11
Output  | 5.2386e-05 | 5.3906e-05 | 7.2317e-05 |   0.0 |  0.01
Modify  | 0.040087   | 0.045498   | 0.051852   |   1.7 |  6.75
Other   |            | 0.005024   |            |       |  0.75

Nlocal:        83.3333 ave          89 max          73 min
Histogram: 1 0 0 3 4 12 10 4 8 6
Nghost:        2097.96 ave        2120 max        2078 min
Histogram: 2 3 4 8 9 10 3 5 3 1
Neighs:        13707.3 ave       15169 max       12145 min
Histogram: 2 2 5 6 8 7 5 6 5 2

Total # of neighbors = 657949
Ave neighs/atom = 164.48725
Neighbor list builds = 144
Dangerous builds = 12

#############################
# L I N E A R  Q U E N C H  #
#############################

# Define solid atoms. This closely follows ten Wolde  Ruiz-Montero and Frenkel  Faraday Discuss  1996  104  93-110
# Compute components of the per-atom q6 vector
compute q6 all orientorder/atom degrees 1 6 components 6 nnn NULL cutoff 1.3 # compute the Q6 parameter.
                                                                             # Use all neighbours within 1.3 unit cell.

# get number of connections
compute coord_number all coord/atom orientorder q6 0.5

# An atom is solid if it has 8 or more connections (of a possible 14)
variable is_solid atom c_coord_number>=8
group solid dynamic all var is_solid    # Must be dynamic to update
dynamic group solid defined

# do clustering
compute cluster solid cluster/atom 1.3 # Create a cluster where all atoms within are solid and max 1.3 units from another member

# define chunks one chunk per cluster
compute clus_chunks solid chunk/atom c_cluster nchunk every compress yes  # Says which atoms are in which chunk

# count the size of each chunk
compute size_chunks solid property/chunk clus_chunks count


# Find the maximum entry in the vector of chunk sizes
variable max_n equal max(c_size_chunks)


# Thermo style which includes this variable
# thermo_style custom step temp pe vol v_max_n

thermo ${N}  # Print the thermo information every 100 steps
thermo 1000  

# Reset the npt fix at a lower temperature (below freezing)
fix 1  all npt temp  ${temp} ${temp}  0.1  iso  5.68  5.68  0.5  mtk yes tchain  5  pchain  5
fix 1  all npt temp  0.45 ${temp}  0.1  iso  5.68  5.68  0.5  mtk yes tchain  5  pchain  5
fix 1  all npt temp  0.45 0.45  0.1  iso  5.68  5.68  0.5  mtk yes tchain  5  pchain  5

dump dmp2 all dcd ${N} traj.dcd
dump dmp2 all dcd 1000 traj.dcd


compute msd all msd com yes
variable twopoint equal c_msd[4]/6/(step*dt+1.0e-6)
fix 9 all vector 10 c_msd[4]
variable fit equal slope(f_9)/6/(10*dt)
thermo_style custom step temp pe c_msd[4] v_twopoint v_fit v_max_n

fix 1 all npt temp 1.25 ${temp} 0.1 iso 5.68 5.68 0.5 mtk yes tchain 5 pchain 5
fix 1 all npt temp 1.25 0.45 0.1 iso 5.68 5.68 0.5 mtk yes tchain 5 pchain 5
run 5000000 # 5000000  # Run for this many steps
Neighbor list info ...
  update every 1 steps, delay 10 steps, check yes
  max neighbors/atom: 2000, page size: 100000
  master list distance cutoff = 3.8
  ghost atom cutoff = 3.8
  binsize = 1.9, bins = 8 8 8
  4 neighbor lists, perpetual/occasional/extra = 1 3 0
  (1) pair lj/cut, perpetual
      attributes: half, newton on
      pair build: half/bin/atomonly/newton
      stencil: half/bin/3d
      bin: standard
  (2) compute orientorder/atom, occasional
      attributes: full, newton on
      pair build: full/bin/atomonly
      stencil: full/bin/3d
      bin: standard
  (3) compute coord/atom, occasional
      attributes: full, newton on
      pair build: full/bin/atomonly
      stencil: full/bin/3d
      bin: standard
  (4) compute cluster/atom, occasional
      attributes: full, newton on
      pair build: full/bin/atomonly
      stencil: full/bin/3d
      bin: standard
Per MPI rank memory allocation (min/avg/max) = 9.845 | 9.849 | 9.853 Mbytes
Step Temp PotEng c_msd[4] v_twopoint v_fit v_max_n 
   12000    1.2462892   -5.7070384 7.7387255e-31 5.3741147e-33 8.3333333e+20            1 
   13000    1.2194783   -5.7307838   0.62202534 0.0039873418  0.052421498            1 
   14000    1.2419259   -5.7403881    1.2150634 0.0072325202   0.05040818            2 
   15000    1.2337217   -5.7363535    1.7738806 0.0098548921  0.048995433            4 
   16000    1.2662846   -5.7436273     2.382286  0.012407739  0.049115698            3 
   17000    1.2301887   -5.7407564    2.8701682  0.014069451  0.048164265            7 
   18000    1.2336101   -5.7639466    3.5384739  0.016381823  0.047832568            2 
   19000    1.2521752   -5.7295733    4.1360535  0.018140585  0.048328395            5 
   20000    1.2338581   -5.8008999    4.7605336  0.019835556  0.048756692            4 
   21000    1.2595009   -5.7715992    5.3461982  0.021215072  0.049013623            3 
   22000    1.2451363    -5.743604     6.007519  0.022755753  0.049407172            5 
   23000    1.2300073   -5.7506588    6.5282876  0.023653216  0.049496985            2 
   24000    1.2416309   -5.7710653    7.1359246  0.024777515  0.049496574            3 
   25000    1.2459753    -5.772694    7.6260882  0.025420294  0.049396766            2 
   26000    1.2319006   -5.7556177    8.3282723   0.02669318  0.049381301            2 
   27000    1.2594812   -5.7104823     8.963351  0.027664663  0.049488468            1 
   28000      1.28112   -5.7266823    9.6118083  0.028606572  0.049633987            2 
   29000    1.2381924   -5.7231478    10.212376  0.029345907  0.049782267            3 
   30000    1.2677164   -5.7548103    10.765151  0.029903196  0.049876293            2 
   31000    1.2560824   -5.7698832    11.364123  0.030548716  0.049918226            3 
   32000    1.2567718   -5.7408124     11.85236  0.030865521   0.04987406            3 
   33000    1.2534395   -5.7813832    12.477578  0.031509035  0.049796044            3 
   34000    1.2725639   -5.7576141    13.189322   0.03232677  0.049773436            2 
   35000    1.2143819    -5.790273    13.645127  0.032488396  0.049810624            2 
   36000    1.2488641   -5.7743729    14.332392  0.033176832  0.049774633            3 
   37000    1.2620728   -5.7642856    14.724717  0.033163777  0.049687247            2 
   38000    1.2459192   -5.7665252    15.235526   0.03341124   0.04955691            2 
   39000    1.2284011   -5.7329819    15.834851  0.033835152  0.049398728            1 
   40000    1.2390593   -5.7819985    16.271019  0.033897957  0.049203268            1 
   41000    1.2459135   -5.7794733    16.878017  0.034304912  0.049065928            2 
   42000    1.2391865   -5.7726513    17.358075  0.034440625  0.048938392            2 
   43000    1.2088284   -5.7205578    18.274421  0.035415543  0.048877181            2 
   44000    1.2483754   -5.7561338     18.76423  0.035538314  0.048859498            2 
   45000    1.2368451   -5.7776229    19.093409  0.035358165  0.048800267            2 
   46000    1.2347099   -5.7372822     19.68233  0.035656395  0.048648679            1 
   47000    1.2269445   -5.7829863    20.157825  0.035740823  0.048514321            3 
   48000    1.2336274   -5.7685113    20.871094  0.036234537  0.048425588            2 
   49000    1.2370818   -5.7605977    21.423533   0.03643458  0.048365508            4 
   50000    1.2142006   -5.7929097    22.225657  0.037042761  0.048339346            4 
   51000    1.2232795   -5.7562146    22.887225  0.037397426  0.048338853            2 
   52000    1.2391567   -5.7691261    23.372293  0.037455598  0.048347232            4 
   53000    1.2627385   -5.7887669    23.976766  0.037699317  0.048356638            1 
   54000    1.2616344   -5.7670218    24.623682  0.037999509    0.0483687            4 
   55000     1.237092   -5.7459186    25.136549   0.03808568  0.048380488            1 
   56000    1.2435309   -5.7651538    25.520624  0.037977119   0.04838972            3 
   57000    1.2515058   -5.7649123    26.335514  0.038502213  0.048395527            3 
   58000    1.2313904   -5.7388775    26.914214  0.038669848  0.048393147            3 
   59000     1.231201   -5.7707686    27.372277  0.038661409  0.048389418            2 
   60000    1.2293084   -5.7453157     27.89517  0.038743291  0.048382285            1 
   61000    1.2514641   -5.7595342    28.436559  0.038847758   0.04835396            3 
   62000    1.2416537    -5.735703    28.950777  0.038912334   0.04831365            3 
   63000    1.2375277   -5.7931012    29.624636  0.039186026  0.048307287            5 
   64000    1.2751956   -5.7905528    30.345525  0.039512402  0.048310558            4 
   65000    1.2438781   -5.7971284    31.063125  0.039824519  0.048338791            2 
   66000    1.2758214   -5.7489433    31.713875  0.040042771  0.048368741            5 
   67000      1.24976   -5.7411557    32.283336  0.040153403  0.048393718            4 
   68000    1.2637472   -5.8005173    32.559158  0.039900929  0.048392672            4 
   69000    1.2610272   -5.7469806    33.216756  0.040116855  0.048375084            3 
   70000    1.2280571   -5.7377654    33.759023  0.040189313  0.048363753            1 
   71000    1.2524513   -5.7435679     34.38605  0.040359213  0.048346237            3 
   72000     1.241331   -5.7861913    34.836789  0.040320357  0.048335529            6 
   73000    1.2522925   -5.7861178    35.441941  0.040458837  0.048318061            2 
   74000    1.2324789   -5.7628398    35.859821  0.040382681  0.048294991            1 
   75000     1.218893    -5.789937    36.290916  0.040323239  0.048252847            1 
   76000    1.2433328   -5.7715072    36.886281  0.040445483  0.048208832            1 
   77000    1.2445397   -5.7259535    37.565428  0.040655225  0.048173979            2 
   78000    1.2509854   -5.7434471    37.973517  0.040569997  0.048127261            2 
   79000    1.2412743   -5.7982132     38.30699  0.040408217  0.048079998            5 
   80000    1.2300317    -5.740665    39.076519  0.040704707  0.048036237            2 
   81000    1.2091802   -5.7371318    39.551762  0.040691113  0.047991819            2 
   82000      1.24274   -5.7919614     39.83503  0.040482754  0.047947754            2 
   83000    1.2384968   -5.7979872    40.603262  0.040766327  0.047906952            3 
   84000    1.2514991   -5.7935644    41.155569  0.040828937  0.047854837            2 
   85000    1.2504398   -5.7868472    41.943313  0.041120895   0.04782516            2 
   86000    1.2190657    -5.768745    42.574049  0.041253923  0.047801214            5 
   87000    1.2258689   -5.7623679    43.243491  0.041420968  0.047788399            5 
   88000    1.2692968   -5.7978148    43.797612  0.041475011  0.047772161            2 
   89000    1.2538051   -5.7700069     44.29902  0.041478483  0.047759389            3 
   90000    1.2547021   -5.7502883    44.944433  0.041615216  0.047748984            2 
   91000    1.2392291   -5.7694892    45.735325  0.041882165  0.047745544            2 
   92000    1.2188544   -5.7550581    46.268006  0.041909425  0.047756466            3 
   93000    1.2508096   -5.7305522    46.985643   0.04210183  0.047760796            3 
   94000    1.2162294   -5.7768854    47.474905  0.042087681  0.047774045            1 
   95000    1.2368861    -5.816274    47.845597  0.041969822  0.047776796            2 
   96000    1.2231402   -5.7738544    48.516294  0.042114838  0.047783886            2 
   97000    1.2025201   -5.7924654    49.058063  0.042146102  0.047789333            3 
   98000    1.2383481   -5.7846594    49.663167  0.042230584   0.04779381            2 
   99000    1.2359077    -5.778043    50.030263  0.042113016  0.047791818            1 
  100000    1.2384468   -5.7610007    50.764281  0.042303568  0.047785669            1 
  101000    1.2043178   -5.7908198     51.12361  0.042181196  0.047776778            2 
  102000    1.2152524   -5.7581676    51.483476  0.042061663  0.047752573            2 
  103000    1.2425173   -5.7858562    51.955142  0.042034904  0.047724063            2 
  104000    1.2242399   -5.7892035    52.406669  0.041992523  0.047691447            3 
  105000     1.215085   -5.7543734    53.003384  0.042066177  0.047658297            3 
  106000    1.2185633   -5.7827034    53.540804  0.042091826  0.047628761            1 
  107000    1.2328412   -5.7793837    54.262526  0.042260534  0.047603724            2 
  108000    1.2482805   -5.7574951    54.800687   0.04228448  0.047590855            4 
  109000    1.2668685   -5.8035126    55.286045  0.042267618  0.047571855            2 
  110000    1.2377302   -5.7903353    55.805735  0.042277072   0.04754701            2 
  111000     1.236814   -5.7723771    56.230209  0.042214871  0.047521964            4 
  112000    1.2544312   -5.7765736    56.383968  0.041952357  0.047480105            6 
  113000     1.264699   -5.7677122    57.176587  0.042165624  0.047443135            2 
  114000    1.2400498   -5.8187529    57.520301  0.042047003   0.04740483            1 
  115000    1.2207053   -5.7616889    58.443602  0.042350436  0.047376347            2 
  116000     1.239267   -5.7580339    58.612193   0.04210646  0.047336969            2 
  117000    1.2447619    -5.761555    59.058672  0.042064581    0.0473006            4 
  118000    1.2406615   -5.7874694      60.1626  0.042487711  0.047264474            2 
  119000    1.2454131   -5.8238374    60.194666  0.042153127  0.047228897            5 
  120000    1.2142969   -5.7911751    60.891741  0.042285931  0.047198062            3 
  121000    1.2107774   -5.7758601    61.498601  0.042354408  0.047164232            5 
  122000    1.2449064   -5.7798472    62.099091  0.042417412  0.047131776            1 
  123000    1.2318089   -5.7689826    62.982839    0.0426713  0.047111394            1 
  124000    1.2569276   -5.7717591    63.673674  0.042791448  0.047097215            1 
  125000    1.2451047   -5.7844787     63.79828  0.042532187  0.047079624            2 
  126000    1.2205629   -5.7974068    64.382309  0.042580892  0.047057167            2 
  127000    1.2417658    -5.806969    64.760426  0.042493717  0.047034602            2 
  128000    1.2157614   -5.8236539    65.434943  0.042600874  0.047014999            3 
  129000    1.2387205   -5.8070138    65.857715  0.042543743  0.046994115            3 
  130000    1.2441212   -5.7717782    66.690717  0.042750459  0.046974922            3 
  131000    1.2165134   -5.7621206    66.664108  0.042407193  0.046947849            3 
  132000     1.214313   -5.7481894    67.875922  0.042850961  0.046918773            1 
  133000    1.2523186   -5.8122007    67.966256  0.042585373   0.04689595            4 
  134000    1.2477594   -5.7688401    68.742046  0.042750029  0.046868189            4 
  135000    1.2146089   -5.7538776     69.16043  0.042691623  0.046842422            1 
  136000    1.2367417   -5.7819588    69.685914  0.042699702  0.046820706            2 
  137000    1.2370779   -5.7675951    70.196302   0.04269848  0.046802273            2 
  138000    1.2195992   -5.8190677    70.648994  0.042662436  0.046780947            3 
  139000    1.2018122   -5.7640698    71.361924  0.042782928  0.046753138            2 
  140000    1.2177377   -5.7802024    71.448548  0.042528898  0.046721558            2 
  141000    1.2614827   -5.7827383    71.993154  0.042549145  0.046689733            5 
  142000    1.2746616   -5.7698002    73.080809  0.042887798  0.046661596            2 
  143000    1.2233818   -5.8240972    73.137594  0.042620975  0.046634227            4 
  144000    1.2256012   -5.8105846    73.733558  0.042669883   0.04660887            1 
  145000    1.2036945   -5.7838761    74.744095  0.042956376  0.046587272            1 
  146000    1.2210857   -5.8081373    74.496187  0.042520654  0.046561844            6 
  147000    1.2253149   -5.7609183    75.528643  0.042816691  0.046537687            5 
  148000    1.2198302   -5.7956826    76.179435  0.042893826  0.046519109            3 
  149000     1.205272    -5.819607    76.988904  0.043058671  0.046503951            2 
  150000    1.2034017   -5.7821136    77.192689  0.042884827  0.046487058            1 
  151000    1.2462594   -5.7940319    77.612071  0.042832268  0.046475263            3 
  152000    1.2477771   -5.7935727    78.444447  0.043006824  0.046461422            2 
  153000     1.240036   -5.7981265     78.77962   0.04290829   0.04644632            4 
  154000    1.2334665   -5.8044172    79.016774  0.042757994   0.04642757            1 
  155000    1.2376194   -5.7969596    79.762331  0.042882974  0.046407461            3 
  156000    1.1986752   -5.8008633    80.245207   0.04286603  0.046386645            4 
  157000    1.2378763   -5.8018074    80.534542  0.042746572  0.046361342            2 
  158000    1.2200203   -5.7395431    81.588211  0.043031757  0.046340875            3 
  159000    1.2543202   -5.7949612    81.572569  0.042752919  0.046320511            3 
  160000    1.2499553   -5.8132596    82.445898  0.042940572  0.046302223            3 
  161000     1.218919   -5.7818686    83.243965  0.043086938  0.046282984            1 
  162000    1.2362706   -5.7595308     83.53862  0.042972541  0.046263161            2 
  163000    1.2044567   -5.8229072    84.339515  0.043118361  0.046245289            5 
  164000    1.2339563   -5.7839909    84.954911  0.043168146   0.04623123            4 
  165000    1.2448959   -5.7863425    85.318687  0.043090246  0.046222661            2 
  166000    1.2226089   -5.7987046    86.109237  0.043227528  0.046211868            3 
  167000    1.2716605   -5.8172864    86.257543  0.043042686  0.046199959            2 
  168000    1.2114434    -5.795159    86.946215  0.043128083  0.046187421            2 
  169000    1.2246856   -5.8108275    87.514711  0.043153211  0.046174509            3 
  170000    1.2224549    -5.813721    87.555248  0.042919239  0.046159235            3 
  171000    1.2357548   -5.7984001    88.133286  0.042949944  0.046145841            6 
  172000    1.2232414   -5.8092419    88.679057  0.042964659  0.046127302            4 
  173000    1.1998903   -5.7867633     89.27336  0.043002582  0.046104716            2 
  174000    1.2481845   -5.8108971      89.5728   0.04289885  0.046083498            4 
  175000    1.2208298   -5.7999411    89.983482  0.042849277  0.046059474            3 
  176000    1.2108084   -5.7903236    90.767413  0.042976995  0.046038048            2 
  177000    1.2162527   -5.7775293    91.746151  0.043194986  0.046022683            4 
  178000    1.2347562   -5.7794651    92.031478  0.043085898  0.046010273            2 
  179000     1.211039   -5.7683473    92.526511  0.043075657  0.045996671            3 
  180000    1.2210009   -5.8220697    92.905759  0.043011925   0.04598233            3 
  181000     1.223992   -5.7953866    93.785791  0.043179461  0.045967391            2 
  182000     1.247953     -5.82246     94.06519  0.043070142  0.045950876            2 
  183000    1.2441468   -5.7876924    95.021671  0.043270342  0.045933067            3 
  184000     1.227689   -5.8134849    94.812718  0.042940543  0.045913977            1 
  185000    1.2386135   -5.7770426    95.498445  0.043017317  0.045894842            6 
  186000    1.2365789    -5.782807    96.174559   0.04308896  0.045875229            2 
  187000     1.221464   -5.7720443      96.7448  0.043112656  0.045857894            3 
  188000    1.2266565   -5.7830026    97.421627  0.043183345  0.045837792            3 
  189000    1.2667706   -5.7878107    97.956313  0.043190614   0.04582455            4 
  190000    1.2119524   -5.8161805    97.633286  0.042821616  0.045809872            3 
  191000    1.2013564   -5.8339184    98.581046  0.043010927   0.04579011            4 
  192000    1.2155177   -5.8204971    98.943256  0.042944121  0.045770967            3 
  193000    1.2348777   -5.8250055    99.609166  0.043009139  0.045753741            3 
  194000    1.2299869   -5.8790688    99.652264  0.042805955   0.04573964            1 
  195000    1.2334992   -5.8083986    100.81019  0.043081278  0.045725413            3 
  196000    1.2130247   -5.7831674    101.82955  0.043294875  0.045715918            2 
  197000    1.2289836   -5.8306172    101.65131  0.042999706  0.045703792       -1e+20 
  198000     1.217719   -5.7801849    102.61742   0.04318915  0.045690253            2 
  199000    1.2075093   -5.8538022     102.9576  0.043114573  0.045677728            2 
  200000    1.2247658    -5.862283     103.5004  0.043125165   0.04566591            2 
  201000    1.2511391   -5.8476979    104.19193  0.043197319  0.045655145            2 
  202000    1.1963111   -5.8330383    104.65475  0.043174401   0.04564492            2 
  203000    1.2072534   -5.8140782    105.60414  0.043351452  0.045635028            2 
  204000    1.2260116   -5.8131922     105.8945  0.043257558  0.045626397            2 
  205000    1.1964633   -5.8341818    106.35631  0.043234273  0.045618868            2 
  206000    1.2129391   -5.8038482    107.07161  0.043313756   0.04560855            9 
  207000    1.1998419   -5.8086155    107.61652  0.043323881  0.045600515            4 
  208000    1.2192784   -5.7927411    108.32428  0.043399151  0.045593928            2 
  209000    1.2255981   -5.8590988     108.1363  0.043116549  0.045584976            5 
  210000    1.1950757   -5.7901391    109.57864  0.043483588  0.045577204            6 
  211000    1.2484106   -5.8858158    109.70556   0.04332763  0.045571808            2 
  212000    1.2050155   -5.8285246    110.51027  0.043439571  0.045564947            2 
  213000    1.2340549   -5.8241363    111.28316  0.043538012  0.045559881            4 
  214000    1.1987886   -5.8205161    111.64006  0.043473542  0.045555522            1 
  215000    1.2012776   -5.7806272    112.27646  0.043518009  0.045550634            2 
  216000    1.2157551   -5.8107071    112.31593  0.043331765  0.045547376            2 
  217000    1.2185232   -5.8118679    112.74489   0.04329681  0.045542969            2 
  218000    1.2202391   -5.8081796    114.07881  0.043608108  0.045537549            2 
  219000    1.1926075   -5.8297336    113.86455  0.043327453   0.04553307            3 
  220000    1.1905981   -5.7864593    115.45892  0.043734438  0.045531944            4 
  221000    1.1972632   -5.8169871    115.97073  0.043729536   0.04553183            3 
  222000    1.2231998   -5.8705647    115.63239  0.043405551  0.045530005            2 
  223000    1.2320408    -5.833403    116.53129  0.043546822  0.045526714            3 
  224000    1.2204566   -5.8051721    117.32568  0.043647948  0.045525772            2 
  225000    1.2296581   -5.8307242     117.3149  0.043449963  0.045522126            2 
  226000    1.2058811   -5.7959516    118.13688  0.043560797  0.045516348            1 
  227000    1.2037982   -5.8311495    118.44237  0.043481047  0.045512022            3 
  228000    1.2254887   -5.8046151    119.49974  0.043676805  0.045509567            5 
  229000    1.2215624   -5.7952803    119.45708  0.043470554  0.045506952            4 
  230000    1.2087625   -5.8230783    120.23881  0.043564786  0.045502097            2 
  231000    1.2267795   -5.8503013    120.67844  0.043534792   0.04549644            3 
  232000    1.2207673   -5.8188782    121.26994  0.043559606  0.045492391            6 
  233000    1.2002378   -5.8218465    122.21618  0.043711079  0.045490531            2 
  234000    1.2195963   -5.8286931    122.46713  0.043613651  0.045488255            3 
  235000    1.2253641   -5.8225026    122.90562  0.043583553  0.045485478            3 
  236000    1.1724626   -5.7899807    123.76989  0.043704058  0.045481935            4 
  237000    1.2289314   -5.8026001    123.92034  0.043572552  0.045478716            1 
  238000     1.220486   -5.8854542    124.17285  0.043477887  0.045474954            2 
  239000    1.2128554   -5.8615196     124.9107  0.043553244  0.045468906            1 
  240000    1.1883705   -5.7698812     125.7337  0.043657536  0.045464055            4 
  241000    1.2189767   -5.8317594    125.68797   0.04346057  0.045460421            1 
  242000    1.1899808   -5.8715773    126.25408  0.043475921   0.04545553            3 
  243000    1.2096339   -5.8401338    126.68482  0.043444726   0.04544858            3 
  244000    1.2293515   -5.8736823    127.32492  0.043485286   0.04544276            1 
  245000    1.2378631   -5.8255965     128.1331  0.043582687  0.045435196            2 
  246000    1.2139002   -5.8238054    129.08509  0.043728011  0.045429405            2 
  247000    1.2077817   -5.7981536    129.38511  0.043652195  0.045426671            2 
  248000    1.2508929   -5.8126106    130.00027  0.043682888  0.045422457            2 
  249000    1.2050175   -5.8333254    130.50588  0.043676667  0.045421415            4 
  250000    1.1895391   -5.8268851    131.01811  0.043672703  0.045417745            2 
  251000    1.2239081   -5.7707828    132.64258  0.044038041  0.045417177            3 
  252000    1.2148646   -5.8451664    132.33578  0.043761833  0.045418852            3 
  253000    1.2020328   -5.8314135    133.39796  0.043938723  0.045420591            2 
  254000    1.1649109   -5.8018107    134.13504   0.04400756  0.045423254            6 
  255000    1.2081619   -5.8160281    134.47267  0.043945317  0.045425921            2 
  256000    1.1718986   -5.8131831    134.92077  0.043919523  0.045426515            2 
  257000     1.196155   -5.8668314    134.82645  0.043718044  0.045425581            2 
  258000    1.2237151   -5.7727709    135.99712  0.043926718  0.045427121            1 
  259000    1.1929913   -5.8273044    136.63091  0.043961038  0.045428181            5 
  260000     1.193176    -5.816899    136.93348  0.043888936  0.045428843            4 
  261000    1.1996219   -5.8273479    137.62615  0.043941937  0.045427543            2 
  262000    1.2073201   -5.8422883    137.81223  0.043833406   0.04542852            2 
  263000    1.2054132   -5.8672723     138.9667  0.044032542  0.045428967            3 
  264000    1.2090709     -5.85565    138.53376   0.04372909  0.045426598            3 
  265000    1.1929726    -5.864957    139.21776   0.04377917   0.04542317            1 
  266000     1.197397   -5.8308041    139.45613  0.043689264  0.045417793            2 
  267000    1.2171838   -5.8756901    139.64598  0.043584888  0.045413281            2 
  268000    1.2078228    -5.876234    141.06909  0.043864766  0.045407637            3 
  269000    1.2029456   -5.8137896    141.56068  0.043853989  0.045405117            5 
  270000    1.2019907   -5.8605934    142.13872  0.043869976  0.045405478            7 
  271000    1.2189757   -5.8179846    142.57232  0.043841427  0.045404642            1 
  272000    1.1928922   -5.8392447    143.09471   0.04384029  0.045402561            2 
  273000    1.2134541   -5.8843503    143.36146  0.043761129  0.045401098            2 
  274000    1.2295831   -5.8334167    145.02477   0.04410729  0.045400725            5 
  275000     1.215298   -5.8100459    145.15865   0.04398747  0.045402275            2 
  276000    1.1861871   -5.8337367    145.50128  0.043931545  0.045405234            2 
  277000    1.1926364   -5.8845621    145.10258  0.043653003  0.045403527            2 
  278000    1.2108048   -5.8212961    146.57275  0.043936676  0.045401371            3 
  279000    1.2294091    -5.840498    146.41426  0.043731858  0.045399463            3 
  280000    1.2042867    -5.853692    147.09368  0.043777881  0.045396686            1 
  281000    1.1999321   -5.8275555    147.39713   0.04371208  0.045392689            3 
  282000    1.2305696   -5.8756366    147.66719  0.043636876  0.045389426            1 
  283000    1.2078942   -5.8241996    148.54731  0.043741848  0.045385608            2 
  284000    1.2015038   -5.8585274    149.05502  0.043736801  0.045382412            3 
  285000    1.2066995   -5.8014293    150.25833  0.043935183  0.045379696            6 
  286000     1.207371   -5.8554394     150.4648  0.043841726  0.045377766            3 
  287000     1.199564    -5.819033    151.33546   0.04394177   0.04537595            1 
  288000    1.2452262   -5.8680323    151.20431  0.043751247  0.045371939            2 
  289000     1.216349   -5.8562776    152.63868  0.044013461  0.045368836            7 
  290000    1.2098431   -5.8259052    153.16866  0.044013984  0.045366137            4 
  291000    1.1909531   -5.8233272    153.49046  0.043954884   0.04536345            2 
  292000    1.2099313   -5.8619171    153.21862  0.043726774  0.045360951            2 
  293000    1.2120381   -5.8121285    154.68594  0.043994862  0.045359996            2 
  294000    1.2022134   -5.8367548    154.89643  0.043904884  0.045359427            2 
  295000    1.2086514   -5.8278438    155.50447  0.043927816  0.045356123            2 
  296000    1.1989063   -5.8579214    155.50964  0.043780866  0.045352064            3 
  297000    1.1968699   -5.8280305    156.01984   0.04377661  0.045348477            4 
  298000    1.2101737   -5.8294099     156.6292  0.043800111  0.045342665            3 
  299000    1.2264426   -5.8895391    156.31981  0.043567394  0.045336513            3 
  300000    1.2142875   -5.8816899    156.80592  0.043557201   0.04532982            3 
  301000    1.2084343   -5.8684694     158.1381  0.043781312  0.045322877            1 
  302000    1.2116894   -5.8751391    158.69275  0.043789389  0.045316613            5 
  303000    1.2188308   -5.8869705    158.54198  0.043603406   0.04531057            3 
  304000    1.2021553     -5.89799    158.17773  0.043360123  0.045302678            2 
  305000    1.2238991   -5.8239657    159.80441  0.043662406  0.045294092            3 
  306000    1.1910472   -5.8196079    160.10221  0.043600821  0.045287343            7 
  307000    1.2089322   -5.8655317    160.55258  0.043581048  0.045279342            2 
  308000    1.1996667   -5.8543243    161.69591  0.043748894  0.045270382            2 
  309000    1.2234315   -5.8450121     162.0337  0.043698408  0.045262852            2 
  310000    1.2244847   -5.8655499    162.01688  0.043552924  0.045254505            4 
  311000    1.2109201   -5.8563146    162.28458  0.043484615  0.045245058            2 
  312000    1.1961976   -5.8763049    163.40059  0.043643319  0.045236263            5 
  313000    1.2130218   -5.8761303    163.84042  0.043620986  0.045228113            3 
  314000    1.2149956   -5.8767821    164.73369  0.043719133  0.045219843            2 
  315000    1.1830836   -5.8453624    164.93148  0.043632666   0.04521219            2 
  316000    1.2115659   -5.8207408    165.88666  0.043746483  0.045204501            2 
  317000    1.2105559   -5.8703849    166.02982  0.043646114  0.045197442            2 
  318000    1.2304853     -5.87141    166.13172  0.043535567  0.045189976            1 
  319000    1.1972681   -5.8450581    167.69508  0.043807491  0.045182796            3 
  320000    1.2144805   -5.8113662    168.54098   0.04389088  0.045177461            2 
  321000    1.1944971   -5.8774884    167.90188  0.043588236  0.045172393            2 
  322000    1.1855611   -5.8741303     168.5342  0.043616511  0.045165523            4 
  323000    1.2065324   -5.8540346    169.77092  0.043800548   0.04516061            2 
  324000    1.2129928   -5.8568126    170.18673  0.043772308   0.04515606            2 
  325000    1.2175433   -5.8701374    170.70961  0.043771694  0.045154829            2 
  326000    1.1943669   -5.8566253    171.57706  0.043859166  0.045152653            3 
  327000    1.1796767   -5.8772211     172.2171  0.043888149  0.045150677            1 
  328000    1.2070092   -5.8431099    172.55519  0.043840242  0.045148726            3 
  329000    1.1912574   -5.8307903    173.50107  0.043946574  0.045148357            3 
  330000    1.2300274   -5.8726106     173.0178  0.043691365  0.045147044            4 
  331000    1.1890856    -5.906629    173.84894  0.043768615  0.045143444            3 
  332000    1.1684911   -5.9071806    174.18508  0.043721155  0.045140223           12 
  333000     1.201478   -5.8392303    175.55305  0.043932194  0.045136774            3 
  334000    1.1977512   -5.8669217    175.20914  0.043714856  0.045133214            3 
  335000    1.1660345   -5.8217704    176.46639  0.043897111  0.045129229            2 
  336000    1.1784769   -5.8772437    176.06735  0.043667497  0.045125752            1 
  337000     1.214119   -5.8584238    176.99507  0.043767328  0.045122891            2 
  338000    1.1879362   -5.8546651    177.14939  0.043675885  0.045117915            3 
  339000    1.2089921   -5.9064515     177.6013  0.043658137  0.045113082            2 
  340000    1.2068622   -5.8483697    179.11204  0.043900009   0.04510916            1 
  341000    1.2121068   -5.8464488    179.18023  0.043787935  0.045105789            2 
  342000    1.1983125   -5.8653272    179.02604  0.043622329  0.045102194            2 
  343000    1.2000311   -5.8026626    180.22676  0.043786872  0.045097395            3 
  344000    1.1912781   -5.8350155    180.68005  0.043769393  0.045091655            2 
  345000    1.1744949    -5.855914    180.64731  0.043634616  0.045086257            6 
  346000    1.1837678   -5.8661458    181.23985  0.043651216  0.045079689            3 
  347000    1.1918701   -5.8811224    181.79315  0.043658296   0.04507395            6 
  348000    1.2002094   -5.8410671    182.36336  0.043669388  0.045066368            2 
  349000    1.1762048   -5.8491622    183.18676  0.043740869  0.045059857            2 
  350000    1.1727809   -5.8569659    182.98615  0.043568131  0.045051763            3 
  351000    1.1757311   -5.8926065    183.44864  0.043553809  0.045041973            2 
  352000    1.2061288   -5.8789658    184.18721  0.043604928  0.045033164            4 
  353000    1.1918798   -5.8904323    183.61827   0.04334709  0.045024859            2 
  354000    1.1941354   -5.8521256    184.86838  0.043518922  0.045014569            2 
  355000     1.179225   -5.8933887    185.24532  0.043484816  0.045003541            2 
  356000     1.210867   -5.8732141    185.11948  0.043333211  0.044992445            2 
  357000     1.170996   -5.8401877    186.72202  0.043585906  0.044982571            2 
  358000    1.2017285   -5.8737637    186.71278  0.043462007  0.044972715            1 
  359000    1.2050159   -5.8938518    187.16944  0.043446946  0.044963512            1 
  360000    1.1935708   -5.8668192    187.46096   0.04339374  0.044954058            7 
  361000    1.1942588   -5.8792182    188.45977  0.043504101  0.044944729            2 
  362000     1.199228   -5.8746462     188.4034  0.043370949  0.044935066            1 
  363000    1.1727825   -5.8843807    189.83728  0.043580642  0.044926169            3 
  364000    1.2168763   -5.8822646    189.26635  0.043330209  0.044919428            2 
  365000    1.2049796   -5.8872654    189.82558  0.043339174  0.044908774            2 
  366000    1.1721462   -5.8662294    190.05322   0.04327259  0.044897825            3 
  367000    1.2035152    -5.851761    191.48796  0.043480464  0.044887362            5 
  368000    1.2076192   -5.9310241     190.9842  0.043248235  0.044877111            6 
  369000    1.1974001   -5.8753347    192.23987  0.043414605  0.044867467            5 
  370000    1.1627824   -5.8722956    193.26574   0.04352832  0.044856773           13 
  371000    1.1825006   -5.8392397    193.18964  0.043393898  0.044847462            1 
  372000    1.1860171   -5.8075742    194.49545  0.043569768   0.04483925            2 
  373000    1.1894345   -5.8721403    193.78676   0.04329463  0.044831144            6 
  374000    1.1726819   -5.8394725    195.65535   0.04359522  0.044823327            1 
  375000     1.174012   -5.9112374    195.46829  0.043437398  0.044815471            4 
  376000    1.1752855   -5.8734769    195.53139  0.043335859  0.044806323            9 
  377000    1.2124629   -5.8947304    196.11662   0.04335027  0.044797363            3 
  378000    1.1968157   -5.8569888    196.79721  0.043385629  0.044789265            1 
  379000    1.2094132   -5.9057278    196.95106  0.043304981  0.044781373            2 
  380000    1.2300319   -5.8766715    198.16436  0.043457096   0.04477209            2 
  381000    1.2015234    -5.814306    199.24876  0.043580219  0.044764247            3 
  382000    1.1669186   -5.9136816     198.6449  0.043334403  0.044756803            2 
  383000    1.1904622   -5.8741009    199.29774  0.043363304  0.044747381            2 
  384000    1.2050608   -5.8845353    199.70692  0.043339175  0.044738221            3 
  385000    1.2067685   -5.8842039    199.65427   0.04321521  0.044727762            3 
  386000    1.1716537    -5.893699    200.29901  0.043242445   0.04471694            2 
  387000    1.1990722   -5.8992898    200.35995   0.04314383  0.044705713            5 
  388000    1.1743678   -5.8574155    201.58714  0.043296207  0.044694528            3 
  389000    1.1980501   -5.8938396    201.32955  0.043129724  0.044683808            1 
  390000    1.1843576   -5.9213676    202.62832  0.043296649  0.044673906            4 
  391000    1.1994349   -5.8916593    202.21407  0.043097627     0.044663            2 
  392000    1.1937675    -5.886637    202.84505  0.043121821   0.04465113            7 
  393000    1.1961496   -5.8885872    204.13112    0.0432848  0.044641129            1 
  394000    1.1803811   -5.8974751    203.60679  0.043064041  0.044631377            3 
  395000     1.196657   -5.9002672    205.15985  0.043282668  0.044621269            3 
  396000    1.1707417   -5.8854615    205.91183  0.043331614  0.044610998            2 
  397000    1.2069874   -5.8921679    206.62665  0.043372512  0.044602258            2 
  398000    1.1952723   -5.8796906    207.03668  0.043349389  0.044594517            2 
  399000    1.2037149    -5.871436    207.66356   0.04337167  0.044585476            1 
  400000    1.1795399   -5.8929934     206.4057  0.043001188  0.044575041            5 
  401000    1.1845967    -5.892562    207.44349   0.04310962  0.044564755            2 
  402000    1.1836273   -5.8709826    208.83673  0.043291197  0.044555067            2 
  403000    1.1994596   -5.9086938    208.40485  0.043094469  0.044545231            1 
  404000    1.1918522   -5.8843645    209.42919  0.043199091  0.044535283            4 
  405000    1.1727217   -5.9028432    209.53061  0.043113294   0.04452485            3 
  406000    1.1826963   -5.8269888     209.9584  0.043094909  0.044515366            2 
  407000    1.1932887   -5.8615699    210.53731  0.043107557  0.044504693            3 
  408000    1.1695068   -5.8808929    210.44535  0.042983119  0.044493711            2 
  409000    1.1661453    -5.882035    210.80488   0.04295128  0.044481758            3 
  410000     1.194438   -5.8540997    211.99102  0.043087605   0.04447124            3 
  411000    1.1821948   -5.9017101    211.58909  0.042901276  0.044460243            2 
  412000    1.1935659   -5.8837657    213.11062  0.043104899  0.044450057            2 
  413000    1.2143044   -5.8787819    213.03002  0.042984266  0.044439727            3 
  414000    1.1675395   -5.9288744    213.77721  0.043030839  0.044429572            3 
  415000    1.1970428   -5.8873928    214.47242   0.04306675  0.044417572            1 
  416000    1.1731807   -5.9194242     214.0234  0.042873276  0.044406277            4 
  417000     1.175933   -5.8772071    214.63354  0.042892393  0.044393937            2 
  418000     1.215839   -5.8842309    215.36967  0.042936537  0.044381228            1 
  419000    1.1596887   -5.8795184    216.08313  0.042975961  0.044369537            2 
  420000    1.1847603   -5.8917383    215.63384  0.042784492  0.044357322            3 
  421000    1.1806689   -5.8963882     217.5562  0.043063381  0.044344311            2 
  422000    1.2058213   -5.8873945    217.19286  0.042889586  0.044332757            2 
  423000    1.1620371   -5.8789126    217.88708  0.042924957  0.044320988            2 
  424000    1.1959074   -5.9144564    217.48967  0.042745612  0.044308906            4 
  425000    1.1965109   -5.8702075     219.5656  0.043052077   0.04429628            5 
  426000    1.1671689   -5.8713445     218.9042  0.042821635  0.044284762            2 
  427000     1.173501   -5.8857283    219.40372  0.042818837  0.044272929            2 
  428000    1.1882799   -5.8933568    219.74152  0.042784563  0.044261828            8 
  429000    1.1795509   -5.9164935    221.75602  0.043076149  0.044250857            2 
  430000    1.1876744   -5.8709342    221.87875  0.042999759   0.04424058            1 
  431000    1.1925903   -5.9028658    222.03044  0.042929319  0.044230471            3 
  432000    1.1824257   -5.8882505    222.49678  0.042919904  0.044220117            2 
  433000    1.2033191   -5.9063605    223.31423  0.042978104  0.044208819            6 
  434000    1.1724098   -5.9044151    223.54527  0.042923439  0.044198561            4 
  435000    1.1867428   -5.8876063    224.21773  0.042953589  0.044187784            6 
  436000    1.1920434   -5.9099651    224.43868  0.042897302  0.044177097            2 
  437000    1.2091088    -5.912179    224.70184  0.042849321  0.044166441            2 
  438000    1.1574434   -5.9362694    225.37388  0.042879353  0.044155104            2 
  439000    1.1802887   -5.9070509    226.40282  0.042976997  0.044144892            4 
  440000    1.2194456   -5.9379663    225.46851   0.04270237  0.044135252            5 
  441000    1.1712449   -5.8674376    227.48252  0.042986114  0.044124761            2 
  442000    1.1918697   -5.8741202    228.06888  0.042999413  0.044115717            2 
  443000    1.1832519   -5.9063993    228.16811  0.042921013  0.044107642            2 
  444000    1.1826794   -5.8835875    228.27568  0.042844534  0.044098444            5 
  445000    1.1960207     -5.89782    229.45639  0.042969362  0.044090112            3 
  446000    1.1868567   -5.8636436    230.16047  0.043004572  0.044082712            2 
  447000    1.1586001   -5.9325014    229.83468  0.042847628   0.04407449            3 
  448000    1.1694841   -5.8631699    231.13889  0.042994585  0.044065691            4 
  449000    1.1902667   -5.8766498    231.70423  0.043003754   0.04405768            2 
  450000    1.1618749   -5.9536702    231.82118  0.042929848  0.044049683            2 
  451000    1.1722221   -5.9049603    232.16008  0.042897279  0.044041214            3 
  452000    1.1886787   -5.8984443    233.10861   0.04297725  0.044032482            3 
  453000    1.1485449   -5.8909889    233.37024  0.042930508  0.044024061            5 
  454000    1.1729124    -5.898705    233.11449  0.042789004  0.044015357            3 
  455000    1.1823152    -5.910992    233.36137  0.042740178  0.044006454            3 
  456000    1.1946786   -5.8599002    234.97352  0.042941067  0.043997112            6 
  457000     1.175277   -5.8675326    234.80991   0.04281727  0.043988975            1 
  458000    1.1909887   -5.9141702    234.95296   0.04274981  0.043980244            3 
  459000    1.1774415   -5.8912669     236.1703  0.042877688  0.043970608            3 
  460000    1.1818909   -5.8997159    236.57855  0.042858434  0.043962212            2 
  461000    1.1522739   -5.9248033    236.70994  0.042789215  0.043953591            1 
  462000    1.1675345   -5.9061997      237.866  0.042905123   0.04394487            1 
  463000    1.2037447   -5.9106368    239.16706  0.043046627  0.043936894            7 
  464000    1.1677281   -5.9210623    239.07431  0.042937196  0.043928569            2 
  465000    1.1792969   -5.8990805    239.48215  0.042917949  0.043921125            3 
  466000    1.1650743   -5.9081973    239.83874  0.042889616  0.043912897            5 
  467000    1.1720978   -5.9016991    239.86435  0.042802347  0.043904463            5 
  468000    1.1576766   -5.8998615    239.57691  0.042659707  0.043894597            3 
  469000    1.1683114   -5.9167007     240.5558  0.042742679   0.04388537            2 
  470000    1.1772665   -5.9319934    240.86145   0.04270593  0.043875604            3 
  471000    1.1870089   -5.8830162    241.38925  0.042708643  0.043866185            1 
  472000    1.1741437   -5.8994031    242.68923  0.042847675  0.043857081            3 
  473000    1.1743513   -5.9108516    242.69928  0.042758858  0.043848334            2 
  474000    1.1692678   -5.8685266    242.94655  0.042712123  0.043840312            2 
  475000    1.1653778   -5.8965037    242.85287  0.042605766  0.043831054            3 
  476000     1.166827    -5.910321    243.39079  0.042610432  0.043821588            1 
  477000     1.198556   -5.8908299    245.22273  0.042841148   0.04381214            6 
  478000    1.1818598   -5.9287624    245.17778  0.042743685  0.043803391            2 
  479000    1.1673807    -5.889206    245.39153  0.042691637  0.043795002            2 
  480000    1.2091665   -5.9138612    246.56404  0.042806256  0.043786072            2 
  481000    1.1803363   -5.9179539    247.07149  0.042805178  0.043777096            3 
  482000    1.1930571   -5.8938269     246.1578  0.042558402  0.043768254            2 
  483000    1.1771945   -5.9272617    246.51817  0.042532466   0.04375806            3 
  484000    1.1647953   -5.9165261     247.2004  0.042562052   0.04374764            2 
  485000     1.180796   -5.9231553    247.98533  0.042609163  0.043737847            3 
  486000     1.163341   -5.9322516    248.79328  0.042660028  0.043728001            7 
  487000    1.2029052   -5.9175928     249.0688  0.042619576  0.043718686            3 
  488000    1.2045617   -5.8963681    249.65858  0.042632954  0.043709351            2 
  489000    1.1767594   -5.9185199    250.74432  0.042730798  0.043699539            3 
  490000    1.1906935   -5.9221028     251.2951  0.042737263  0.043689972            4 
  491000    1.1884046   -5.9676517    250.47604  0.042511208  0.043681209            6 
  492000      1.17793   -5.9587038    250.28694  0.042392775  0.043671919            1 
  493000     1.154023   -5.9739115     251.0814  0.042441074  0.043662197            1 
  494000    1.1679177   -5.9598178    251.87798  0.042489537  0.043652526            3 
  495000    1.1673037    -5.917861     252.6512  0.042533871  0.043641955            2 
  496000    1.1785095   -5.9052122    252.82036  0.042476539  0.043631608            2 
  497000    1.1867482   -5.8751616    254.20791  0.042623727  0.043621691            4 
  498000    1.1642246   -5.9041894    253.52685  0.042424172  0.043611831            5 
  499000    1.1606581   -5.9316241     253.7524  0.042376821   0.04360069            6 
  500000    1.1637383   -5.9205515    253.82495  0.042304158  0.043588488            2 
  501000    1.1630365   -5.9025582    254.98019  0.042411875  0.043577601            2 
  502000    1.1478723   -5.9505712    255.11307  0.042349447  0.043566099            3 
  503000    1.1579043    -5.906479    256.37639  0.042474552  0.043555257            2 
  504000    1.1716678   -5.9499441     255.4832  0.042242592  0.043543867            2 
  505000    1.1643151   -5.9525691    255.05577  0.042088411  0.043531392            1 
  506000    1.1488105    -5.963196    256.56016  0.042252991  0.043519039            2 
  507000    1.1707727   -5.9139037    257.94771  0.042397717  0.043508099            2 
  508000    1.1839704   -5.9270508    257.39106  0.042222943  0.043497092            3 
  509000    1.1814565   -5.9274373    258.05658  0.042248949  0.043486074            5 
  510000    1.1607931   -5.9676335    258.28695   0.04220375  0.043474673            3 
  511000    1.1640024   -5.8623117    259.27725  0.042282656  0.043462728            3 
  512000    1.2048149   -5.8900427    259.73943  0.042275297  0.043451553            3 
  513000    1.1738063   -5.9421041    260.17796  0.042264126  0.043441157            2 
  514000    1.1568969   -5.9156555    261.27092  0.042359099  0.043429885            5 
  515000    1.1806637   -5.9467014    260.66883  0.042179423  0.043418154            1 
  516000    1.1853514   -5.9363836    261.33261  0.042204879  0.043406054            1 
  517000    1.1628103   -5.9300884    262.31466  0.042281538  0.043394834            2 
  518000    1.1662043    -5.919709    262.53476  0.042235322  0.043382712            1 
  519000    1.1729174   -5.9016514    262.88297  0.042209853  0.043371267            4 
  520000    1.1566158    -5.947188    262.00308  0.041987672  0.043360314            2 
  521000    1.1390748   -5.9032668    263.94207  0.042217222  0.043348019            3 
  522000    1.1633569    -5.917768     265.0154  0.042307694  0.043335659            3 
  523000     1.154301   -5.9266509    265.23295  0.042261464  0.043324788            3 
  524000    1.1638826   -5.9241257    264.92009  0.042131058  0.043313495            3 
  525000    1.1810637   -5.9096721     266.2227  0.042257572  0.043302054            4 
  526000     1.163725   -5.9359086    265.51208  0.042064652  0.043290385            2 
  527000    1.1532836   -5.9338825    266.80159   0.04218874  0.043279438            2 
  528000    1.1768782   -5.9252571    266.82506  0.042112541  0.043268895            2 
  529000    1.1827304   -5.9280919    268.61079  0.042314239  0.043259838            2 
  530000     1.147326   -5.9275937    269.75476   0.04241427  0.043250713            3 
  531000    1.1622391   -5.9617541     268.3924   0.04212059   0.04324101            3 
  532000    1.1417048   -5.9109428    270.19437  0.042323679  0.043230712            3 
  533000    1.1700786   -5.9790018       268.46  0.041973109  0.043219839            3 
  534000    1.1479356   -5.9828058    270.15355  0.042158793  0.043209453            2 
  535000    1.1755215   -5.9445517    270.96096  0.042205756  0.043199434            3 
  536000    1.1657457   -5.9019398    271.16353  0.042158509  0.043189754            2 
  537000    1.1426996   -5.9415786    271.84538  0.042185813  0.043179972            5 
  538000    1.1756879   -5.9326281    272.52714  0.042213002  0.043170366            2 
  539000    1.1532506   -5.8987275    273.56907  0.042295774   0.04316091            4 
  540000    1.1758554   -5.9458204    272.88756  0.042112278  0.043151456            5 
  541000    1.1605944   -5.9461858     274.1233  0.042224784  0.043141175            2 
  542000    1.1553815   -5.9136494    274.80814  0.042252174  0.043131146            3 
  543000    1.1621067   -5.9076702     274.9028  0.042188888  0.043121026            3 
  544000    1.1795745   -5.9434039     274.8677  0.042105959  0.043109948            4 
  545000    1.1984829   -5.9302279    274.54118  0.041978774  0.043099675            2 
  546000    1.1608182   -5.8808075    275.33433  0.042022943  0.043089025            5 
  547000    1.1406282   -5.9365908    275.03532  0.041900566  0.043078542            2 
  548000     1.160172   -5.9020377     276.8247  0.042096213  0.043068199            4 
  549000    1.1564332   -5.9453514    276.71134  0.042002329  0.043058161            5 
  550000    1.1540498   -5.9397622    276.47573  0.041890263  0.043047097            2 
  551000    1.1478334   -5.9182235    278.49896   0.04212023  0.043036604            3 
  552000    1.1507923    -5.919482    278.69659  0.042073761  0.043026319            3 
  553000    1.1745834   -5.9569223    278.55067  0.041975689   0.04301563            5 
  554000    1.1488163   -5.9799962    277.82368  0.041790566  0.043004597            4 
  555000    1.1653892   -5.9356242    279.10037  0.041906962  0.042992771            3 
  556000    1.1575864   -5.9012308    281.49532  0.042190546  0.042981681            3 
  557000    1.2071468   -5.9414246    279.87584  0.041872507  0.042970519            3 
  558000    1.1531163   -5.9851094    280.51192  0.041892462   0.04296016            2 
  559000    1.1738071   -5.9475247     281.0162  0.041892695  0.042948924            3 
  560000    1.1460586   -5.9405267    282.57448  0.042049773  0.042938745            2 
  561000    1.1603616   -5.9253214    282.83757  0.042013899  0.042929075            3 
  562000    1.1618148   -5.9580003    283.74613  0.042073862    0.0429193            5 
  563000    1.1704078   -5.9396567    283.72784  0.041996424  0.042910021            4 
  564000    1.1759277   -5.9386126    284.95619  0.042103456  0.042900755            1 
  565000    1.1774136   -5.9681781    284.67763  0.041987851  0.042891808            4 
  566000    1.1587406   -5.9308675    285.78432  0.042076608  0.042882498            4 
  567000    1.1576949   -5.9329632    287.51236  0.042256373  0.042873987            3 
  568000    1.1532478   -5.9491374    286.14591    0.0419815  0.042865568            2 
  569000    1.1753812    -5.951228    287.78587  0.042147901  0.042857355            1 
  570000      1.15863    -5.922314    287.41138  0.042019207  0.042849324            4 
  571000     1.166325   -5.9411023    287.41079  0.041945533  0.042840859            2 
  572000     1.162725   -5.9186845     288.9687   0.04209917  0.042832661            3 
  573000    1.1627923    -5.910244    290.06514  0.042185157  0.042824002            2 
  574000    1.1742101   -5.9474148    288.84143  0.041934006  0.042815727            3 
  575000    1.1631772   -5.9869329    289.92207  0.042017691  0.042807451            3 
  576000    1.1595677   -5.9234221    291.72645  0.042205795  0.042799004            2 
  577000    1.1497361   -5.9344423    292.26736  0.042210768   0.04279126            3 
  578000    1.1427399   -5.9848304    290.95898  0.041949103  0.042783357            3 
  579000    1.1569432   -5.9252303    291.19772  0.041911014  0.042775315            2 
  580000    1.1659511   -5.9236734    292.94908  0.042090385  0.042767268            3 
  581000    1.1586851   -5.9176886    294.04773   0.04217552  0.042759279            3 
  582000    1.1557303   -5.9472887    293.36441  0.042005214  0.042752018            5 
  583000     1.144019   -5.9488766    293.44588  0.041944809   0.04274389            2 
  584000    1.1464943   -5.9698792    293.00888  0.041810628  0.042735284            3 
  585000    1.1487138   -5.9312712    295.41147  0.042081406  0.042727039            2 
  586000    1.1747267   -5.9576706    295.07458  0.041961687  0.042718471            4 
  587000    1.1823554   -5.9789806    294.35307  0.041787772  0.042708443            5 
  588000    1.1599222   -5.9899369    295.26083  0.041845356   0.04269832            4 
  589000    1.1683009   -5.9461979    295.82102  0.041853568  0.042688111            3 
  590000    1.1460356    -5.934681    296.87434  0.041931404  0.042678528            3 
  591000     1.162492   -5.9304728    295.99487  0.041736445  0.042669395            4 
  592000    1.1441902   -5.9085294    297.95847  0.041942352  0.042660746            6 
  593000    1.1626654   -5.9689783    296.10054  0.041610531  0.042651464            3 
  594000    1.1314561    -5.956909    297.03473  0.041671539  0.042641159            4 
  595000    1.1658373   -6.0153601    295.93993  0.041448169  0.042630468            2 
  596000    1.1407213   -5.9494507    297.63134  0.041615121  0.042619299            4 
  597000    1.1586173   -5.9477472    298.64714  0.041687206  0.042608575            2 
  598000    1.1714972   -5.9188258    299.88264  0.041789666  0.042598114            2 
  599000    1.1311425   -5.9764721    298.52336  0.041530796   0.04258787            3 
  600000    1.1515783   -5.9220182    300.91412  0.041793628  0.042577485            3 
  601000    1.1498631   -5.9269098    300.64568  0.041686867  0.042567048            5 
  602000    1.1708992   -5.9742138     300.6183  0.041613829  0.042556017            4 
  603000    1.1409392     -5.96628    300.19865  0.041486823  0.042545468            5 
  604000    1.1532597   -5.9140859    302.74871  0.041769965  0.042535541            2 
  605000    1.1514608    -5.948663    302.51497  0.041668729  0.042525239            3 
  606000    1.1467332   -5.9911105    301.60895  0.041475378  0.042515271            3 
  607000    1.1467322   -5.9477725    302.55761  0.041537289  0.042505116            2 
  608000    1.1750494   -5.9656171    303.63575  0.041616741  0.042495097            3 
  609000    1.1689965   -5.9932989    303.57657  0.041540308  0.042484468            1 
  610000    1.1714477    -5.929987    304.61429  0.041613974  0.042473691            4 
  611000    1.1426363   -5.9514448    304.84049  0.041576718  0.042463813            2 
  612000    1.1633286   -6.0028543    305.12529  0.041547562  0.042453568            4 
  613000     1.140618   -5.9573675     305.9238  0.041588336  0.042443292            3 
  614000    1.1676629   -5.9993876    303.78512  0.041230337  0.042432914            3 
  615000    1.1492585    -5.997308    305.27219  0.041364795  0.042421628            5 
  616000    1.1559571    -5.953922    307.06954  0.041540792  0.042411121            2 
  617000    1.1770099   -5.9887333    305.78375  0.041299804  0.042400623            4 
  618000    1.1526685   -5.9738097     307.9715   0.04152798  0.042390288            3 
  619000    1.1504165   -5.9991723     307.6495  0.041417542  0.042379776            4 
  620000    1.1391879   -5.9927576    307.68662  0.041355728   0.04236964            4 
  621000    1.1661601   -5.9268834    310.23122  0.041630598  0.042359469            3 
  622000    1.1304771   -5.9849446    309.12474  0.041415426  0.042349483            2 
  623000    1.1292611   -5.9935609    309.27379  0.041368886  0.042338559            2 
  624000    1.1505177   -5.9179158    311.69692  0.041626192  0.042328409            2 
  625000    1.1607662   -5.9830681     312.2286   0.04163048  0.042318241            4 
  626000    1.1335337   -5.9586382    312.05365  0.041540688  0.042308723            4 
  627000    1.1591382   -5.9702665    311.82273  0.041443744  0.042298689            3 
  628000    1.1576572    -5.932041    312.48481  0.041465606  0.042288579            3 
  629000    1.1752513   -5.9846885    312.55851  0.041409447  0.042278118            3 
  630000    1.1286521   -5.9581544    313.04932   0.04140864   0.04226791            1 
  631000    1.1711923   -5.9574154    314.77283  0.041570632  0.042258617            2 
  632000     1.106317   -5.9328071    314.40673  0.041456584  0.042249103            8 
  633000    1.1420463    -5.977157    315.52896  0.041538832  0.042239783            6 
  634000    1.1629695   -5.9396152    314.45406  0.041332026  0.042230205            3 
  635000    1.1459802   -5.9762268    315.10173  0.041351933  0.042220279            1 
  636000    1.1323551   -5.9829789    315.33559  0.041317557  0.042210586            3 
  637000    1.1669553   -5.9777553    316.44208  0.041397446  0.042200848            2 
  638000    1.1508666   -5.9661154     316.0671  0.041283581  0.042191088            2 
  639000    1.1413489   -5.9935144    318.17082  0.041493326  0.042181244            5 
  640000    1.1495998   -5.9966124    317.51454  0.041343039  0.042171684            4 
  641000    1.1239075   -5.9394643    317.75981  0.041310427  0.042161654            3 
  642000    1.1400347   -5.9421226    318.77478  0.041377827  0.042151636            3 
  643000    1.1641127   -5.9657716    319.34708  0.041387646  0.042142119            8 
  644000    1.1517344   -5.9502652    318.77466  0.041249308  0.042131807            2 
  645000    1.1353352   -6.0069891    319.89048  0.041329519  0.042122239            3 
  646000    1.1594648   -5.9970468    320.53158  0.041348244  0.042112602            3 
  647000    1.1630496   -5.9536325    320.92761  0.041335343  0.042103378            3 
  648000    1.1144191   -5.9622258    321.70029  0.041370922  0.042094671            2 
  649000    1.1375901   -5.9988367    323.70772  0.041564936  0.042085196            5 
  650000     1.187109   -5.9993798    323.41563  0.041463542  0.042076433            3 
  651000    1.1805476   -5.9770431    324.08586  0.041485646  0.042068025            2 
  652000    1.1529623   -5.9755892    323.56916  0.041355976  0.042060321            4 
  653000    1.1448988    -5.979207    324.40498  0.041399308  0.042052387            3 
  654000    1.1400616   -5.9788248    326.08173  0.041549659  0.042044173            5 
  655000     1.140404   -5.9731628    325.06535  0.041356914  0.042036012            3 
  656000    1.1487036   -5.9905793    325.71083  0.041375868  0.042027718            1 
  657000    1.1436672   -6.0113219    326.55204  0.041419589  0.042019868            5 
  658000    1.1607427   -5.9799165    328.01859  0.041542374  0.042012075            3 
  659000    1.1323293   -5.9785185    329.29301  0.041640492  0.042004439            2 
  660000    1.1474362   -6.0051711    327.88241  0.041399294  0.041996975            3 
  661000    1.1530171   -5.9741324    328.69471  0.041439071  0.041988602            2 
  662000    1.1309332    -5.980245    330.05149  0.041547267  0.041980998            3 
  663000    1.1360542   -6.0202523    328.77772    0.0413245  0.041973138            3 
  664000    1.1401319   -5.9509287    329.87431  0.041399889  0.041965331            4 
  665000     1.160602    -5.998878    329.84304  0.041333714  0.041957191            4 
  666000    1.1291236   -5.9848959     329.7005  0.041253816  0.041949293            3 
  667000     1.131967   -6.0079704    329.70061  0.041191981  0.041941321            8 
  668000    1.1304742   -5.9508826    332.37965  0.041464527  0.041932488            4 
  669000    1.1604254   -5.9951064    332.26835  0.041388683  0.041924506            4 
  670000    1.1399157   -5.9987533    330.81008  0.041145533  0.041915835            4 
  671000    1.1425288   -5.9458866    333.76217   0.04145084  0.041907156            3 
  672000    1.1507036   -5.9959986    333.27112  0.041328264  0.041899856            2 
  673000    1.1372532   -6.0012006     332.5023  0.041171657  0.041891744            2 
  674000    1.1544761   -5.9530704    335.37489  0.041465738  0.041885053            2 
  675000    1.1480731   -5.9965213    334.41548  0.041285862  0.041877316            4 
  676000    1.1395552   -5.9587202    336.06963  0.041428702  0.041869688            3 
  677000    1.1476327   -5.9864992    336.24091  0.041388591  0.041862139            5 
  678000     1.131047   -5.9961173    335.44515  0.041229738  0.041854882            4 
  679000    1.1366866   -5.9683815    336.42704  0.041289524  0.041847346            4 
  680000    1.1501219    -6.036909    337.00925  0.041300153  0.041840101            4 
  681000    1.1420193   -6.0030825    337.86928  0.041344748  0.041832865            1 
  682000    1.1390708   -5.9889303    338.64836   0.04137932  0.041825619            2 
  683000    1.1471155   -5.9951143    338.64192  0.041317951  0.041819162            2 
  684000    1.1560187   -5.9521806    341.03707  0.041549351  0.041812983            2 
  685000    1.1283272   -5.9757163    341.60055  0.041557245   0.04180735            2 
  686000    1.1495094   -6.0008523    340.29422  0.041337976  0.041801465            3 
  687000    1.1355043   -5.9496726    342.75648  0.041576478   0.04179596            2 
  688000     1.145752   -6.0118913    341.05322  0.041309741  0.041789892            3 
  689000    1.1572003   -5.9939798    341.27069  0.041276088  0.041783267            3 
  690000    1.1397432   -6.0028759    342.24836  0.041334342  0.041776731            4 
  691000    1.1422243   -5.9647757    342.53876  0.041309546  0.041769671            5 
  692000    1.1511473   -6.0149104    344.09182  0.041436876  0.041762522            4 
  693000    1.1231746   -6.0067227    342.69373  0.041208962  0.041754841            5 
  694000    1.1509304   -5.9992321    342.75995  0.041157535  0.041747701            2 
  695000    1.1613719   -5.9851209     344.0369  0.041251427  0.041740148            2 
  696000    1.1547375   -6.0143593    344.77816   0.04128091  0.041733081            2 
  697000    1.1501624   -5.9755572    345.64065  0.041324803  0.041725999            4 
  698000    1.0986862   -6.0072301    346.40083  0.041356355  0.041718548            2 
  699000    1.1278315   -5.9661895    346.16177   0.04126869  0.041711799            3 
  700000    1.1576408    -5.944003    345.80371  0.041167108  0.041704882            4 
  701000    1.1707962   -6.0317979    346.99408  0.041249891  0.041697676            3 
  702000    1.1080858    -5.983149    347.32753  0.041230713  0.041690718            4 
  703000    1.1262368    -5.990373      347.029  0.041136677  0.041683693            4 
  704000    1.1396068   -6.0173109    348.20002  0.041216858  0.041676496            3 
  705000    1.1282555   -6.0084083    348.44561  0.041187425   0.04166959            6 
  706000     1.151551   -5.9828166    350.03102  0.041316221  0.041662514            3 
  707000    1.1188357    -5.999704    349.49923  0.041195101  0.041655881            2 
  708000    1.1525961    -6.007051    351.17115  0.041333704  0.041649058            4 
  709000    1.1310695   -6.0204632    350.13046  0.041153087  0.041642404            5 
  710000    1.1410104   -5.9946308    351.04878  0.041202908  0.041635178            2 
  711000    1.1422873   -5.9733956    349.94025  0.041015032   0.04162786            3 
  712000     1.123019   -5.9991243    351.40456  0.041128811  0.041619801            5 
  713000     1.157602   -5.9835377    351.97599  0.041137913  0.041611982            1 
  714000     1.122574   -5.9665418    351.44746  0.041018611  0.041604267            2 
  715000    1.1367737   -5.9782009    351.69746   0.04099038  0.041596714            2 
  716000    1.1324331   -5.9957242    353.36525   0.04112724  0.041589257            5 
  717000    1.1290344   -6.0218545    353.01181  0.041028801  0.041581329            3 
  718000     1.139053   -5.9784495    354.73537  0.041171701  0.041573474            3 
  719000    1.1332482   -5.9859164    353.87738  0.041014995  0.041566113            3 
  720000     1.136774   -5.9603229    356.93098  0.041311456  0.041559136            3 
  721000    1.1429765   -6.0068471    356.07731  0.041155491  0.041552071            5 
  722000    1.1272106   -6.0061787    356.50184  0.041147488  0.041544906            4 
  723000    1.1424295   -5.9764967      357.482   0.04120355     0.041538            2 
  724000    1.1377855   -6.0169839    355.23678  0.040888212  0.041530766            3 
  725000    1.1249915   -6.0086376    357.06912  0.041042427  0.041523067            4 
  726000    1.1009509    -6.010833    357.93567  0.041085362  0.041515813            1 
  727000    1.1341333   -6.0639063    355.47211  0.040746459  0.041507814            3 
  728000    1.1463715   -5.9983965    359.10934  0.041106839  0.041500128            2 
  729000     1.142368     -6.01567    358.21515  0.040948234  0.041492821            4 
  730000     1.103713   -6.0125024    359.44162  0.041032149  0.041485126            1 
  731000     1.113861     -5.96506    359.39324  0.040970502  0.041477402            4 
  732000    1.1272003   -6.0275931    358.59314  0.040823445  0.041468982            1 
  733000    1.1416386    -5.990778    360.36545  0.040969241  0.041460658            3 
  734000    1.1326589   -6.0399806    360.50011  0.040928714  0.041452579            4 
  735000    1.1309368    -5.971525    361.39395  0.040974371   0.04144394            4 
  736000    1.1213484   -6.0070111    360.71166  0.040841447  0.041435153            2 
  737000    1.1450134    -6.026517    360.78934  0.040794815  0.041426422            4 
  738000    1.1278595   -6.0349621     360.6478  0.040723555  0.041417249            3 
  739000     1.126834   -5.9897094    363.26724   0.04096383   0.04140876            4 
  740000    1.1330792    -6.021861    360.42836   0.04058878   0.04140077           11 
  741000    1.1617845   -5.9657445    364.21941  0.040960347   0.04139252            2 
  742000     1.126351   -6.0177894    364.33004  0.040917569  0.041384749            5 
  743000    1.1084403   -6.0025868    364.91775  0.040928416  0.041377354           10 
  744000     1.144892   -6.0145158    364.80214  0.040860455  0.041369988            3 
  745000    1.1506802   -6.0206745    364.67964  0.040791905  0.041362346            4 
  746000     1.120431   -5.9991147    365.01879  0.040775111  0.041354815            4 
  747000    1.1325052   -6.0401558    366.61269  0.040898337  0.041347193            3 
  748000    1.1270833   -6.0178461    367.46746  0.040938888   0.04133959            4 
  749000     1.117339   -6.0815273     366.2833  0.040752482  0.041332114            6 
  750000    1.1196214   -5.9919377     368.7461  0.040971789  0.041324946            3 
  751000    1.1102344   -6.0640237    367.20086  0.040745768  0.041317335            3 
  752000    1.1458402   -6.0144151    368.02943  0.040783403   0.04130978            2 
  753000    1.1345698   -6.0668644    367.98522  0.040724349  0.041302256            1 
  754000    1.1121682   -5.9864971    370.40376  0.040937639  0.041294598            2 
  755000    1.1127765   -5.9715497    369.06153  0.040735268  0.041286676            3 
  756000    1.1203213   -5.9807449    370.63179  0.040854474  0.041278823            3 
  757000    1.1391464   -6.0278616    370.02936  0.040734188  0.041270828            2 
  758000    1.1212106   -5.9898596    370.19531  0.040698693  0.041262998            5 
  759000    1.1074931   -5.9676733    373.02431  0.040955678  0.041254588            3 
  760000    1.1356644   -6.0194089    370.81544  0.040659588  0.041246516            4 
  761000    1.1252906   -6.0040873    373.08632  0.040854831  0.041238417            4 
  762000    1.1087371   -6.0150322    372.46111  0.040732843  0.041230638            5 
  763000    1.1523612   -6.0123159    372.37302  0.040669836  0.041222228            2 
  764000    1.1209235   -6.0993214    371.63999  0.040536648  0.041213795            4 
  765000    1.1326954    -5.999015    373.64193  0.040701735  0.041205417            3 
  766000    1.1490007    -5.999381    373.94088  0.040681123  0.041197336            7 
  767000    1.1210925   -6.0330837    374.32036  0.040669314  0.041189464            6 
  768000    1.1081043   -6.0130293    374.93189  0.040682714  0.041181398            3 
  769000    1.1473375   -5.9878081    375.12495  0.040650731  0.041173315            3 
  770000    1.1375795    -6.002428    375.01677  0.040586231   0.04116539            2 
  771000    1.1236981   -6.0422259    375.06634  0.040538947  0.041156664            4 
  772000     1.146324   -6.0028831    376.53246  0.040644696  0.041148308            1 
  773000    1.1311608     -5.98855    377.20855  0.040665001  0.041140144            5 
  774000    1.1162209    -5.993436    376.80667  0.040569194   0.04113206            3 
  775000    1.1271554    -6.032747    378.20775    0.0406675  0.041123557            4 
  776000    1.1319362   -6.0658404    376.59243  0.040441627  0.041114598            3 
  777000    1.1224885    -6.065529    376.83762  0.040415875  0.041105544            2 
  778000      1.14023     -5.98508    379.06128  0.040602107   0.04109642            3 
  779000    1.1494853   -6.0562675    376.99442  0.040328885  0.041087364            4 
  780000    1.1448445   -6.0306294    377.21691  0.040300952  0.041078157            4 
  781000     1.153371   -6.0120825    379.27667  0.040469128  0.041069429            5 
  782000    1.1131148   -6.0181008    380.38544  0.040535532  0.041061133            3 
  783000    1.1072998   -5.9787033    380.44636  0.040490247  0.041052555            2 
  784000    1.1126088   -6.0144656    379.72614  0.040362047  0.041044126            4 
  785000    1.1395851   -6.0019285    382.35504  0.040589707  0.041035375            5 
  786000    1.1385819   -6.0365907     381.5022  0.040447647  0.041026492            2 
  787000    1.1275633   -6.0278741    381.81946  0.040429846  0.041017961            2 
  788000    1.1500072    -6.055199    383.38064  0.040543638  0.041009537            1 
  789000    1.1339671   -6.0263687    382.54663  0.040404165   0.04100126            4 
  790000    1.1199922   -6.0437526    383.33298  0.040435968  0.040992435            3 
  791000     1.131549   -6.0353532    383.21734  0.040372666  0.040983801            6 
  792000    1.1320108   -6.0186358    384.14743  0.040419553  0.040975171            4 
  793000    1.1116113   -6.0587432    384.69802  0.040426441  0.040966602            3 
  794000    1.1200305   -6.0447588    384.82582   0.04038894  0.040958221            2 
  795000    1.1111922    -6.033231    383.47463  0.040196502  0.040949797            3 
  796000    1.1228494   -6.0232664    386.45412  0.040457927  0.040941289            2 
  797000    1.1372581   -6.0079229    387.43697   0.04050993  0.040933039            2 
  798000    1.1139612   -6.0776432    386.22187  0.040332275  0.040924838            4 
  799000    1.1280354   -6.0080096    387.61886  0.040427498  0.040916884            2 
  800000    1.1408334   -6.0622298       388.36  0.040454167   0.04090865            2 
  801000    1.1214483   -6.0144045    389.57909  0.040530492  0.040900296            4 
  802000    1.1560209   -6.0038935    389.99232  0.040522893  0.040892635            4 
  803000    1.1399934   -6.0729474    387.98473  0.040264086    0.0408845            2 
  804000    1.1124827   -6.0387635    389.61274  0.040382746  0.040876532            3 
  805000    1.1199967   -6.0089233    390.10699  0.040383746  0.040868867            2 
  806000    1.1019229   -6.0749836      389.377  0.040258168  0.040861113            2 
  807000    1.1411009   -5.9909919    392.42104  0.040522619  0.040853532            2 
  808000    1.1258913   -6.0343244    393.09458  0.040541933  0.040846213            2 
  809000    1.1122511    -6.062651     391.4369  0.040321065  0.040839297            4 
  810000    1.1048686   -6.0684046    393.86479  0.040521069  0.040832187            2 
  811000    1.1356012   -6.0381201    393.51771   0.04043544  0.040825452            4 
  812000    1.1317285   -6.0704285    394.19767  0.040455426  0.040818468            5 
  813000    1.1307335   -6.0291693    395.06216  0.040494276   0.04081188            3 
  814000    1.1149334   -6.0516731    393.79287  0.040314586  0.040804934            4 
  815000    1.1362188   -6.0961001    392.93725  0.040177633  0.040797504            2 
  816000    1.1260439    -6.056751    395.11087  0.040350375  0.040789784            2 
  817000    1.0823849   -6.0508657    394.71636  0.040260747  0.040782186            5 
  818000    1.1192211   -6.0458688    396.14063  0.040356625  0.040774911            7 
  819000    1.0995551   -6.0562772    395.57074  0.040249363  0.040767516            3 
  820000     1.118335   -6.0014483    397.40197  0.040386379  0.040760094            3 
  821000    1.1195471   -6.0336121    397.07158  0.040303652   0.04075264            2 
  822000    1.1303783   -6.0138378     398.0018  0.040348926  0.040745761            4 
  823000     1.119548   -6.0392562    397.96629  0.040296303  0.040738332            4 
  824000    1.1471268   -6.0834445    397.59956  0.040210311  0.040730565            3 
  825000    1.0894442   -6.0142338    398.39237  0.040241654  0.040723067            4 
  826000    1.1047121   -6.0646042    399.37647  0.040292219  0.040715507            5 
  827000    1.1100327   -6.0716746    398.06163  0.040111006  0.040707421            2 
  828000    1.1243748   -6.0475805    398.35601  0.040092191  0.040698677            4 
  829000    1.1171656   -6.0191942    399.64108  0.040173007   0.04069041            2 
  830000    1.1024215   -6.0157752    402.50677  0.040412326  0.040682158            7 
  831000    1.1246207   -6.0579946    399.98799   0.04011111  0.040673892            2 
  832000    1.1158878   -6.0138399    400.98557  0.040162817  0.040665295            3 
  833000    1.1286699   -6.0077271    402.60389    0.0402765  0.040656826            5 
  834000    1.1197498   -6.0485864    400.20253  0.039988263  0.040647827            3 
  835000    1.1030147   -6.0449014    401.38057  0.040057941  0.040638661            2 
  836000    1.1164488   -6.0854589    402.21562  0.040093264  0.040629869            6 
  837000    1.1404355   -6.0582188    401.48961   0.03997308  0.040620657            2 
  838000    1.1179582   -6.0889999    401.42371  0.039918825   0.04061181            4 
  839000    1.1110744   -6.0761098    403.99058    0.0401262  0.040602771            4 
  840000    1.1280512   -6.0203794    405.27487   0.04020584  0.040593934            4 
  841000    1.1094547   -6.0507502    403.80512  0.040012398  0.040584917            3 
  842000    1.1131704   -6.0678645    404.26787  0.040010676  0.040576119            4 
  843000    1.0997221   -6.0093721    405.83866  0.040118491  0.040567062            2 
  844000    1.1263693   -6.0557666    405.86862  0.040073916  0.040557806            3 
  845000    1.1160544   -6.0653176    405.22824  0.039963338  0.040548796            9 
  846000    1.1045134   -6.0382502    405.77887  0.039970337  0.040539907            3 
  847000    1.0942083    -6.031946    406.25481  0.039969973  0.040530972            2 
  848000    1.1166471   -5.9984727    406.61594  0.039958328  0.040521529            3 
  849000    1.1142963   -6.0404795    406.78566  0.039927922  0.040512482            2 
  850000    1.1083394   -6.0503418    406.92434  0.039894543  0.040503478            5 
  851000    1.1030425   -6.0628641     407.7304  0.039926596  0.040494307            2 
  852000     1.131729   -6.0552156    407.59998  0.039866978  0.040485127            3 
  853000    1.1022061   -6.0531271    406.92848  0.039754638  0.040475946            6 
  854000    1.0937127   -6.0219999     407.1407  0.039728796  0.040466336            3 
  855000    1.1145437   -6.0564917    408.06887  0.039772794  0.040456785            2 
  856000    1.1308787   -6.0219708    409.05321  0.039822159  0.040447302            3 
  857000     1.114374   -6.0554757    409.68904  0.039837518  0.040437705            5 
  858000    1.1057958    -6.069926    408.39625  0.039665525   0.04042811            6 
  859000    1.1147464   -6.0146705    410.56893  0.039830125   0.04041843            2 
  860000    1.1113803   -6.0028834    412.72909  0.039993129  0.040409084            5 
  861000     1.125056   -6.0663536    411.36552  0.039814704  0.040399609            7 
  862000    1.1237315   -6.0746807     410.7727  0.039711205  0.040390142            3 
  863000    1.1009326    -6.053778    411.82379  0.039766685  0.040380743            2 
  864000     1.139908   -6.0174051    414.86572  0.040014055  0.040371793            2 
  865000    1.1013436   -6.0404307    414.30092  0.039913383   0.04036297            3 
  866000     1.095996   -6.0488378    412.74448  0.039717521  0.040353661            7 
  867000    1.0907646   -6.1052097    412.69076  0.039666548  0.040344108            3 
  868000    1.1108588   -6.0797375    413.02539  0.039652975  0.040334514            7 
  869000    1.1095519   -6.0630149    413.43403  0.039646532  0.040325182            3 
  870000    1.1129558   -6.0324474     413.9425  0.039649665  0.040316053            2 
  871000    1.1256318   -6.0865884    414.49576  0.039657076  0.040307179            2 
  872000    1.1167962   -6.0446371    416.34426  0.039788251   0.04029783            3 
  873000    1.1338051   -6.0336857    415.57542  0.039669284  0.040288397            5 
  874000    1.0913382   -6.0513485    416.26411  0.039689561  0.040278443            2 
  875000    1.1263493   -6.0393153    415.61775  0.039582642  0.040268738            3 
  876000    1.1341815   -6.0793017    415.81841  0.039556546  0.040258568            3 
  877000    1.1347161   -6.0168483    417.22619   0.03964521  0.040248558            5 
  878000    1.0865904   -6.0304723    416.31957  0.039514006   0.04023839            3 
  879000    1.0888528   -6.0576269    416.90534  0.039524587  0.040228408            9 
  880000    1.0976273   -6.0632553    416.86803   0.03947614  0.040217913            2 
  881000    1.1162331   -6.0243409    419.57819  0.039687684  0.040207651            2 
  882000    1.0861332   -6.0748836    417.51335  0.039447596  0.040197596            9 
  883000    1.1352954   -6.0500082    418.07893  0.039456298  0.040187059            9 
  884000    1.1347579   -6.0020708    419.39771  0.039535983  0.040177328            3 
  885000    1.1013662   -6.0853393    417.55834  0.039318111  0.040166745            3 
  886000    1.1253724   -6.0745962    419.32824  0.039440203  0.040155959            3 
  887000    1.1130939   -6.0212097    420.98072  0.039550988   0.04014554            6 
  888000    1.1039781   -6.0392834    422.06238  0.039607956  0.040135321            3 
  889000    1.1326628   -6.0535171    421.12798  0.039475813  0.040125108            2 
  890000    1.0978716   -6.0198257    420.97147  0.039416805  0.040114544            6 
  891000    1.1139089   -6.0729278    420.21003  0.039301349  0.040104075            4 
  892000    1.1147855   -6.0140903    423.69476  0.039582844  0.040093743            4 
  893000    1.1174325   -6.0650722    421.39372  0.039323789  0.040083695            4 
  894000    1.1002284   -6.0776306    422.08912  0.039344624  0.040073285            2 
  895000    1.0818939   -6.0821043    421.72286   0.03926656  0.040063184           12 
  896000    1.1179709   -6.0507233    423.60613  0.039397892  0.040053131            7 
  897000    1.1248668   -6.0663171    423.80578  0.039372518  0.040042981            2 
  898000    1.1272981    -6.033799    425.91225  0.039524151  0.040033057            1 
  899000    1.1064126   -6.0974065    423.45119  0.039252057   0.04002254            3 
  900000    1.1201168   -6.0559635    424.51772  0.039307196  0.040012143            3 
  901000    1.1097318   -6.1061104    424.10391  0.039225297  0.040001689            5 
  902000    1.0939524   -6.0757111    425.16161  0.039279528  0.039991427            4 
  903000    1.1159507   -6.0338243    425.13358  0.039233442  0.039981216            2 
  904000    1.1113452   -6.0949142    425.86635  0.039257591  0.039970619            3 
  905000    1.1294167   -6.1140152    425.60442  0.039190094  0.039960235            2 
  906000    1.1048384   -6.0665597    426.82434  0.039259045  0.039949914            3 
  907000    1.1266321   -6.0798326    425.30154  0.039075849  0.039939465            1 
  908000     1.117664   -6.0700238     427.1058  0.039198403  0.039928828            2 
  909000     1.108674   -6.0558266    426.88315  0.039134869  0.039918026            2 
  910000    1.0901876   -6.0403954    428.86694  0.039273529  0.039907358            3 
  911000    1.0966434   -6.0613418    428.82448  0.039226535  0.039896676            4 
  912000    1.0938516   -6.1269222    426.57539  0.038978014  0.039885683            3 
  913000    1.1194711   -6.0779251    428.01029  0.039066291  0.039874565            4 
  914000    1.1291949   -6.0340798    427.61991  0.038987956   0.03986349            3 
  915000    1.1028021   -6.0901847    428.20122   0.03899829  0.039852338            1 
  916000    1.1197952   -6.1017645    428.23284  0.038958591   0.03984075            2 
  917000    1.1102742   -6.1287061    427.95785  0.038891117  0.039829326            2 
  918000    1.0872623   -6.1081429    431.96861  0.039212837  0.039818068            2 
  919000    1.1021593   -6.0714002    430.13809   0.03900418  0.039807152            2 
  920000    1.0989472   -6.0522111    429.35233   0.03889061  0.039796111            3 
  921000    1.1061883   -6.0772913    430.94827  0.038992786  0.039784753            4 
  922000      1.09188   -6.0710252    431.46777  0.038997448  0.039773581            2 
  923000    1.1161353   -6.1019578    430.58271   0.03887529  0.039762607            2 
  924000    1.0912137    -6.056685    431.90513  0.038952482   0.03975101            3 
  925000     1.124213   -6.0480785    432.57968  0.038971142  0.039739597            3 
  926000     1.094409   -6.1061201    429.64023  0.038664527   0.03972803            3 
  927000    1.1075516   -6.0836063    432.00697  0.038835578  0.039715985            3 
  928000     1.092177   -6.0815021    432.76342  0.038861657  0.039704445            4 
  929000     1.091894   -6.0591869    433.23331  0.038861976  0.039692464            8 
  930000    1.1261143   -6.0719341    432.57899  0.038761558  0.039680466            6 
  931000    1.0834179   -6.0916165    430.25251  0.038511682  0.039668549            3 
  932000    1.0978515   -6.0860207    433.96614  0.038802409  0.039656536            3 
  933000    1.1058722   -6.0388756    432.50228  0.038630071  0.039644387            2 
  934000    1.1004184   -6.0781879    432.58083   0.03859572  0.039632762            2 
  935000    1.1060708   -6.0691796    435.00166  0.038770201  0.039620692            2 
  936000    1.1149743   -6.0803547    434.84206  0.038714571  0.039609172            3 
  937000    1.1153407   -6.1146904    434.47437  0.038640553  0.039597354            2 
  938000     1.092457   -6.0572181    436.39797  0.038770253  0.039585163            5 
  939000    1.0908821   -6.1157498    435.22494  0.038624861  0.039572991            2 
  940000    1.0912124   -6.0583958    435.86152  0.038640205   0.03956083            3 
  941000    1.1091754    -6.099206    435.75805  0.038589979  0.039548805            3 
  942000    1.1033342   -6.0677321    438.06884  0.038753436  0.039537146            4 
  943000    1.1014822   -6.0658867    437.09801  0.038626547  0.039525722            3 
  944000    1.0849956      -6.1014    437.99241  0.038664584  0.039514138            2 
  945000     1.113767   -6.0992027    438.14189  0.038636851  0.039502658            2 
  946000    1.1068859   -6.1336076    436.72991  0.038471627  0.039490713            6 
  947000    1.0998281   -6.0779463    439.40283  0.038666212  0.039478975            5 
  948000    1.1092614   -6.0951021    438.78871  0.038571441  0.039467238            3 
  949000    1.1185495   -6.0845283    439.97426  0.038634902  0.039455805            3 
  950000    1.0784428   -6.0783557    439.37033  0.038541257  0.039444074            2 
  951000    1.0995452   -6.0759017    440.12101   0.03856651  0.039432169            2 
  952000     1.096093   -6.0889428    439.43889   0.03846629  0.039420503            3 
  953000    1.1002514   -6.0611556    441.98622  0.038648673  0.039409069            3 
  954000    1.1224273   -6.1013784    440.57873  0.038485214   0.03939741            4 
  955000    1.0954627   -6.0492213    442.19489  0.038585941  0.039386052            2 
  956000    1.0711503   -6.0971631    441.18204  0.038457291  0.039374142            9 
  957000    1.1085211   -6.1136862    441.34831  0.038431584  0.039362667            4 
  958000    1.0933502   -6.1075603    441.93168  0.038442213  0.039350981            3 
  959000    1.1208191   -6.1120275    441.77732  0.038388714  0.039338982            5 
  960000    1.0997269     -6.08303    443.84085  0.038527852  0.039327392            5 
  961000    1.0794192   -6.0867136    444.83879  0.038574297  0.039315899            5 
  962000    1.1012145    -6.117852    444.18707  0.038477743  0.039304616            3 
  963000    1.0894512   -6.0736766    444.86036  0.038496051  0.039293484            3 
  964000    1.1041483   -6.0945554    445.04529  0.038472103  0.039282466            4 
  965000    1.0766008   -6.0883582    445.37813  0.038460979    0.0392711            5 
  966000    1.0974966   -6.0990384    446.08911  0.038482497  0.039260133            2 
  967000    1.0827383   -6.0842964    447.14075  0.038533329  0.039249483            5 
  968000    1.0861628   -6.0956611    447.04642  0.038485401  0.039238189            2 
  969000    1.1065933   -6.1309082    445.71436  0.038331128  0.039226775            4 
  970000    1.0959231   -6.1167071     447.2027  0.038419476  0.039215426            4 
  971000    1.0934011   -6.0711569    449.19486   0.03855088  0.039204699            3 
  972000    1.0838406   -6.0868572    447.94246  0.038403846  0.039194191            4 
  973000    1.1048703   -6.1146341    449.14562  0.038467422  0.039183224            5 
  974000    1.0913075   -6.1176462    450.10574  0.038510074  0.039172472            3 
  975000    1.1025004   -6.0861439    450.80864  0.038530653  0.039161989            4 
  976000    1.1129626   -6.0854257    451.36024  0.038538272  0.039151485            3 
  977000    1.0826165   -6.1414935    451.62096  0.038521065  0.039141044            3 
  978000    1.0880135   -6.0891724     452.6624  0.038570415   0.03913102            2 
  979000    1.1061679   -6.0673468    453.54963   0.03860654   0.03912073            2 
  980000    1.1010409   -6.1298242    452.97281  0.038518096  0.039110671            5 
  981000    1.0998981   -6.0585902    453.90175  0.038557743  0.039100512            2 
  982000    1.1083192   -6.0785383    455.25406  0.038633237  0.039090962            3 
  983000     1.078872   -6.0853267     453.2296  0.038422313  0.039081395            2 
  984000    1.1075683   -6.1193493    453.14147  0.038375802  0.039071443            2 
  985000    1.0958953   -6.0834474    455.66112   0.03855001  0.039061246            3 
  986000    1.1105436   -6.0833448    456.15637   0.03855277  0.039051503            6 
  987000    1.0950023   -6.1138587    457.24275  0.038605434  0.039041735            2 
  988000      1.08635   -6.1070197    457.48063  0.038586423   0.03903206            5 
  989000    1.0782789   -6.0810951    457.67936  0.038564153  0.039022864            3 
  990000    1.1055394   -6.1500957    458.58307  0.038601268  0.039013373            5 
  991000    1.0951335   -6.1033954    458.16123  0.038526844  0.039003945            6 
  992000    1.0843467    -6.112602    458.50427  0.038516824  0.038994441            3 
  993000    1.0894475   -6.1214964    458.79012  0.038502024  0.038984521            3 
  994000    1.1083681   -6.1255753    457.55562  0.038359794  0.038974683            4 
  995000     1.071496   -6.1305089    459.14513  0.038454366  0.038965045            2 
  996000    1.0953044     -6.07554    460.51205  0.038530125  0.038955311            1 
  997000    1.0796723   -6.0919345    461.09743  0.038540407  0.038945729            4 
  998000    1.1002737     -6.10958    460.99772  0.038493463  0.038936404            4 
  999000    1.1193821   -6.0952248    460.86718  0.038444042   0.03892691            4 
 1000000    1.0844072   -6.1311388    460.51947  0.038376622  0.038917562            3 
 1001000    1.0814421   -6.1138751    461.98634  0.038460401  0.038908258            7 
 1002000    1.0928181   -6.1195294    462.00606  0.038423658  0.038898616            4 
 1003000    1.0952287   -6.1190512     463.7002  0.038526105   0.03888929            6 
 1004000    1.1011172   -6.0855202    463.33413  0.038457348  0.038880093            4 
 1005000    1.0852356   -6.1078797    464.28522  0.038497946  0.038870952            4 
 1006000    1.0729419   -6.1368012    464.43719  0.038472266  0.038861762            3 
 1007000    1.0810245   -6.1174296    464.78716  0.038463022  0.038852455            3 
 1008000    1.0857482   -6.1224191    464.57031  0.038406937  0.038843493            4 
 1009000    1.0888788   -6.1304626    463.70852  0.038297698  0.038834356            3 
 1010000    1.0878014   -6.0895648    467.21435  0.038549039  0.038825051            3 
 1011000      1.09428   -6.1136409    463.99189  0.038245293  0.038815639            4 
 1012000    1.0927401   -6.1300436    465.22193  0.038308788  0.038806357            3 
 1013000    1.1117739    -6.126016    465.54423  0.038297485  0.038797316            2 
 1014000    1.1035082   -6.1170563      467.323  0.038405901  0.038788403            3 
 1015000    1.0739086    -6.124947    466.85497  0.038329636  0.038779381            5 
 1016000    1.0859686   -6.1258981    467.24764  0.038324118  0.038770732            4 
 1017000    1.0817198   -6.1105578    468.26081  0.038369454  0.038761796            4 
 1018000    1.0695741   -6.1581827    467.35284  0.038257436  0.038752216           10 
 1019000    1.0705532   -6.1128392    468.84484  0.038341907  0.038742933            4 
 1020000    1.0962575   -6.1227208    469.51863  0.038359365  0.038733868            3 
 1021000    1.0824395   -6.1006431    471.42914  0.038477729  0.038725145            3 
 1022000    1.0841347   -6.0879609     471.4554  0.038442221  0.038716795            3 
 1023000    1.0694392   -6.0884993    471.23292   0.03838652  0.038708624            5 
 1024000    1.0910177   -6.0851408    472.34414  0.038439465  0.038700059            4 
 1025000    1.1174364   -6.0915532    473.92976  0.038530875  0.038691733            2 
 1026000    1.0908424   -6.0983404    473.98355  0.038497689  0.038683659            6 
 1027000    1.0820819   -6.1484048     470.8358  0.038204788  0.038675441            2 
 1028000     1.081395   -6.0904021    474.78265  0.038487569  0.038667032            2 
 1029000    1.0856162   -6.1066481    474.38549  0.038418002  0.038659027            2 
 1030000     1.093772   -6.1735017    473.88241      0.03834  0.038650736            2 
 1031000    1.0932641   -6.1343678    475.07009  0.038398811  0.038642334            2 
 1032000    1.0674497   -6.1139581    476.31499  0.038462128  0.038633932            3 
 1033000    1.0637836   -6.1392041    474.72723  0.038296808  0.038625428            2 
 1034000    1.0800949   -6.1361074    477.54441  0.038486816  0.038617274           10 
 1035000    1.0955991   -6.1259693    477.25079   0.03842599  0.038609297            4 
 1036000    1.0943073   -6.1091957    476.99134  0.038368029  0.038601183            2 
 1037000    1.1053785   -6.1272633    476.55682  0.038296112  0.038593043           10 
 1038000    1.0875587   -6.1034608    476.86375  0.038283859  0.038584912            2 
 1039000    1.0933844   -6.1049796     477.5999  0.038306056  0.038576768            5 
 1040000    1.0786069   -6.1174225    478.64667  0.038353099  0.038568876            4 
 1041000     1.082578   -6.1030109    478.49043  0.038303748  0.038560617            5 
 1042000    1.0692449   -6.1211113     479.2468  0.038327479   0.03855251            3 
 1043000    1.1062083   -6.0962427    480.16397  0.038364012  0.038544724            4 
 1044000     1.078109   -6.0865566     478.4918   0.03819379  0.038536365            3 
 1045000    1.0892836    -6.134602    480.16937  0.038291019  0.038528028            7 
 1046000    1.1086038   -6.1565381    480.18587  0.038255725  0.038519377            2 
 1047000    1.1028982   -6.1292837    480.55442  0.038248521  0.038510922            8 
 1048000    1.0762826   -6.1324947    480.32309   0.03819363  0.038502251            3 
 1049000    1.0535148   -6.1278507    480.53436  0.038174004  0.038493408            2 
 1050000    1.0859324   -6.1883067    479.95762  0.038091874  0.038484773            4 
 1051000    1.0887361   -6.0983856    482.71781  0.038274485  0.038475889            3 
 1052000    1.0733553   -6.1403092    482.67963  0.038235079  0.038467148            5 
 1053000    1.0800388   -6.1533919    482.24718  0.038164544  0.038458253            4 
 1054000    1.0873921   -6.1287766    482.12483  0.038118662   0.03844973            2 
 1055000    1.0905122   -6.1439617    483.75135  0.038211007   0.03844148            2 
 1056000    1.0780704   -6.1318436    484.18247  0.038208844  0.038433156            2 
 1057000    1.0713263   -6.1340517    484.20333   0.03817434  0.038424757            2 
 1058000    1.0780147   -6.1032175    485.13852  0.038211919  0.038416513            2 
 1059000    1.0806193   -6.1176881    486.12312  0.038253314  0.038408126            3 
 1060000    1.0921947   -6.1601709    484.81811  0.038114631  0.038399487            4 
 1061000    1.1070108    -6.150469    484.80346  0.038077558    0.0383907            2 
 1062000    1.1092212     -6.11653    486.04493  0.038139119  0.038382126            4 
 1063000    1.0531823   -6.1058807    486.44425  0.038134545  0.038373834            6 
 1064000    1.0809611   -6.1439385    486.84095  0.038129774  0.038365642            3 
 1065000    1.0864606   -6.1580793    485.55776  0.037993565  0.038357074            4 
 1066000    1.0657307    -6.138534    486.71502  0.038048391  0.038348509            2 
 1067000    1.0890226   -6.1525374    486.44052  0.037991293  0.038339576            3 
 1068000    1.0915324   -6.1216211    487.96505  0.038074676  0.038330646            5 
 1069000     1.087662   -6.1225528    487.24186  0.037982683  0.038321804            2 
 1070000    1.1043016   -6.1893489    485.27685  0.037794147  0.038312904            3 
 1071000    1.0835386   -6.1044077    489.54402  0.038090882  0.038304021            4 
 1072000    1.0854919   -6.1305068    487.51422  0.037897561  0.038295373            2 
 1073000    1.0827457   -6.1372171     489.5438  0.038019867  0.038286398            5 
 1074000    1.0893113   -6.0960423    490.48328  0.038057362  0.038277707            2 
 1075000    1.1033421   -6.1271797    489.47615  0.037943888  0.038269034            4 
 1076000    1.0626735   -6.1557818    488.28146  0.037816098  0.038260019            4 
 1077000    1.0677302   -6.1197601    489.13702  0.037847185  0.038251268            5 
 1078000    1.0622996   -6.1401847    489.17988  0.037815389    0.0382424            3 
 1079000    1.0628256   -6.1169539     492.6999  0.038052201  0.038233369            6 
 1080000    1.0798345   -6.1531578    490.65844  0.037859447  0.038224328            3 
 1081000    1.0675293   -6.1328533    490.75067  0.037831535  0.038215362            3 
 1082000    1.0811064   -6.1157624    490.53587  0.037780027  0.038206461            8 
 1083000    1.0853355   -6.1378505    491.39969  0.037811611  0.038197538            3 
 1084000    1.0858337   -6.1430128     491.6329  0.037794657  0.038188568            3 
 1085000    1.0727107    -6.177103    491.72184  0.037766654  0.038179533            3 
 1086000    1.0655837   -6.1402642    491.80974  0.037738623  0.038170415            3 
 1087000    1.0811653   -6.1487551    492.00545  0.037718909  0.038161344            8 
 1088000    1.1087361   -6.1560153    492.46492  0.037719433  0.038152676            3 
 1089000    1.0741359   -6.1506762    495.84765  0.037943652  0.038143715            2 
 1090000     1.074057   -6.1871249    491.32691   0.03756322  0.038134569            4 
 1091000    1.0928267   -6.1442727    495.36217  0.037837013    0.0381253            4 
 1092000    1.0841289   -6.1214489     496.2998  0.037873917  0.038116419            3 
 1093000    1.0977783   -6.1310902    495.67146  0.037791358  0.038107689            2 
 1094000    1.0830288   -6.1274505    495.70776  0.037759579  0.038098688            3 
 1095000    1.0923586   -6.1254348    495.88719  0.037738751  0.038089615            3 
 1096000    1.0758814   -6.1240021    495.99846  0.037712779  0.038080429            3 
 1097000    1.0438877   -6.1357156    495.51618  0.037641764  0.038071022            3 
 1098000    1.0897392   -6.1665314      495.348  0.037594718  0.038061872            4 
 1099000    1.0600084   -6.1469529    497.51656  0.037724944  0.038052214            3 
 1100000    1.0793245   -6.1707212    496.53413  0.037616222   0.03804272            5 
 1101000    1.0667113   -6.1268213    499.41872  0.037800388  0.038033604            4 
 1102000    1.0710517   -6.1520574    497.50431  0.037621318  0.038024333            5 
 1103000    1.0704747   -6.1584748    497.94901  0.037620807  0.038014947            7 
 1104000    1.0881455   -6.1256757    498.69903  0.037643345  0.038005817            3 
 1105000    1.0475356   -6.1613628     498.5514  0.037598145  0.037996572            4 
 1106000    1.0496879   -6.1689422     497.5431  0.037488178  0.037987477            4 
 1107000    1.0768573    -6.127588    498.19275  0.037503218  0.037978394            3 
 1108000    1.0904495   -6.1618521    498.80335  0.037515294  0.037969153            7 
 1109000    1.0433282   -6.1208257    501.07507   0.03765217  0.037960347            4 
 1110000    1.0802877   -6.1023504    500.74896  0.037593765  0.037951339            6 
 1111000    1.0820058    -6.131389    502.19581  0.037668453  0.037942539            3 
 1112000    1.1006673   -6.1687656    502.08586  0.037626339  0.037933776            4 
 1113000    1.0860524   -6.1272283    503.70842  0.037714018  0.037925102            3 
 1114000    1.0753567   -6.1021732    502.74546  0.037608128  0.037916121            4 
 1115000    1.1037205   -6.1292673    503.33553    0.0376185  0.037907383            7 
 1116000    1.0862437   -6.1369276    503.36697   0.03758714  0.037898545            4 
 1117000    1.0728738   -6.1142496    502.75988  0.037508197  0.037889439            5 
 1118000    1.0851122   -6.1387133    502.82529  0.037479524  0.037880136            4 
 1119000    1.0965624   -6.1654369    502.81917  0.037445574  0.037870862            3 
 1120000    1.0623322   -6.1494889    502.97834  0.037423984  0.037861642            2 
 1121000    1.0656812   -6.1489879    504.48009  0.037502237  0.037852624            8 
 1122000    1.0623944    -6.156109    505.03141   0.03750976  0.037843601            3 
 1123000    1.0677251   -6.1641695    504.16008  0.037411701  0.037834577            4 
 1124000    1.0804196   -6.1660468    502.78558  0.037276511  0.037825363            3 
 1125000    1.0624114   -6.1754987    506.08324  0.037487647  0.037816265            3 
 1126000    1.0876445   -6.1426346    506.15492  0.037459659  0.037806842            2 
 1127000    1.0865708   -6.1716582    504.11934  0.037275905  0.037797582            7 
 1128000    1.0726833   -6.1340082    504.90968  0.037301247   0.03778802            3 
 1129000    1.0679571   -6.1288897    507.62719  0.037468792  0.037778754            3 
 1130000    1.0702438   -6.1357614    506.59324  0.037359384   0.03776928            3 
 1131000    1.0636893   -6.1361293     507.8708  0.037420484  0.037760074            3 
 1132000    1.0861053    -6.168823    507.12642  0.037332628  0.037750957            6 
 1133000    1.0539919   -6.1622716    507.70163  0.037341985   0.03774162            3 
 1134000    1.0728297   -6.1293152    508.86688  0.037394686  0.037732589            2 
 1135000    1.0629828   -6.1759447    507.47725   0.03725971  0.037723575            6 
 1136000    1.0867125    -6.167173    508.62267  0.037310935  0.037714033            3 
 1137000    1.0847365   -6.1578845    509.62844  0.037351835  0.037704444            5 
 1138000    1.0664857   -6.1270499    510.52743  0.037384844  0.037694862            4 
 1139000    1.0653099   -6.1650583    508.25364  0.037185663  0.037685179            3 
 1140000    1.0886757    -6.179966    509.00044  0.037207635  0.037675495            4 
 1141000    1.0609609   -6.1234154    510.61719  0.037293105  0.037665926            3 
 1142000    1.0559702   -6.2177175    507.19462  0.037010699  0.037656087            5 
 1143000    1.0554316   -6.1510078    510.67378  0.037231976  0.037646436            5 
 1144000    1.0543757   -6.1537432    511.50836  0.037260224  0.037636736            5 
 1145000    1.0522056   -6.1709938    510.11187  0.037126046  0.037627175            4 
 1146000    1.0553306   -6.1549844    511.95382   0.03722759  0.037617587            5 
 1147000    1.0697489   -6.1003792    513.80854  0.037329885  0.037608181            6 
 1148000    1.0547971   -6.1446365    512.87105  0.037229316   0.03759907            4 
 1149000    1.0514856   -6.2065625    511.18281  0.037074472  0.037589249            3 
 1150000    1.0671264   -6.1472573    512.34279  0.037126289   0.03757954            3 
 1151000    1.0615412   -6.2048047    511.79025  0.037054029  0.037570033            3 
 1152000    1.0401678   -6.1434061    514.22452  0.037197954  0.037560378            1 
 1153000    1.0610183   -6.1717824    513.13586  0.037087009  0.037550817            2 
 1154000     1.055482   -6.1754803     513.8935  0.037109582  0.037541333            5 
 1155000     1.078248   -6.1706253     513.1296  0.037022338  0.037531866            4 
 1156000    1.0584054   -6.1707015    515.77038  0.037180679  0.037522591            3 
 1157000    1.0510929   -6.1513299    515.74799  0.037146931  0.037512988            6 
 1158000    1.0730079   -6.1816242    514.61485  0.037033308  0.037503466            4 
 1159000    1.0601655   -6.1812294    513.70675  0.036936062  0.037493932            2 
 1160000    1.0779325   -6.1499717     516.7034  0.037119497  0.037484294            3 
 1161000    1.0767996    -6.122254     519.3063  0.037274354  0.037474826            4 
 1162000    1.0723788   -6.1683628    518.73568  0.037201354   0.03746549            2 
 1163000    1.0691951   -6.1436506    518.87977  0.037179691  0.037456213            3 
 1164000    1.0734305   -6.1768861    517.98055  0.037083373  0.037447104            9 
 1165000    1.0554764   -6.1418099    517.03021  0.036983563  0.037437631            3 
 1166000    1.0427109   -6.1926158    515.77847  0.036862383  0.037428193            2 
 1167000    1.0614754   -6.1882961    517.18633  0.036931329  0.037418374           11 
 1168000    1.0669921    -6.210112    516.75957  0.036869262  0.037408341            5 
 1169000    1.0558939   -6.1904011    517.16736  0.036866792  0.037398241            7 
 1170000    1.0724246   -6.1451592    517.97458  0.036892777  0.037388434            7 
 1171000    1.0736307   -6.1553518    518.88282  0.036925905  0.037378701            1 
 1172000    1.0712237   -6.2150601    517.06852  0.036765395  0.037368399            3 
 1173000    1.0714987   -6.1913646    519.74904  0.036924484   0.03735848            2 
 1174000    1.0479847   -6.1487114    519.58651  0.036881496  0.037348645            3 
 1175000     1.088138   -6.1506088    520.63544  0.036924499  0.037339111            4 
 1176000    1.0726273   -6.1793288    520.13629   0.03685773  0.037329557            3 
 1177000     1.043497   -6.1310177    521.34117  0.036911722  0.037319809            1 
 1178000    1.0459268   -6.1541856     520.5675  0.036825658  0.037309974            3 
 1179000    1.0612392       -6.178    521.10065  0.036832107  0.037300054            4 
 1180000     1.095017   -6.1756791     520.0973  0.036730035  0.037290088            4 
 1181000    1.0771453   -6.1769467    522.68079   0.03688123  0.037280444            3 
 1182000    1.0552395   -6.1947008    520.81035  0.036718158  0.037270718            6 
 1183000    1.0903697    -6.207401    522.04788  0.036774294  0.037260833           10 
 1184000    1.0500713   -6.1792081    522.49015  0.036774363  0.037251017            6 
 1185000    1.0729053   -6.1714546    523.14419  0.036789324  0.037241011            3 
 1186000    1.0608244   -6.1937318    522.17162  0.036689968  0.037231104            3 
 1187000    1.0676423   -6.1740473    524.12804  0.036796408   0.03722134            6 
 1188000    1.0857283   -6.1738145    525.24088  0.036843496  0.037211526            5 
 1189000    1.0639137   -6.1643348    526.15021  0.036876241  0.037201837            2 
 1190000    1.0437252    -6.166328    525.97577  0.036833037  0.037192207            8 
 1191000    1.0763602    -6.228959    522.94128   0.03658979  0.037182286            4 
 1192000    1.0450002   -6.1672063     526.0884  0.036779111  0.037172285            8 
 1193000    1.0536907   -6.1818526    525.93918  0.036737858  0.037162513            3 
 1194000    1.0859748   -6.1935072    525.89087  0.036703718   0.03715277            1 
 1195000    1.0457121   -6.1334414    527.18051  0.036762937  0.037143336            2 
 1196000    1.0737012   -6.1897314    526.07935  0.036655473  0.037133555            3 
 1197000    1.0658037   -6.1649961    525.17135  0.036561637  0.037124022            6 
 1198000    1.0675409   -6.1869752     526.7056  0.036637841  0.037114108            2 
 1199000    1.0459318   -6.1678704     527.7915  0.036682756  0.037104388            1 
 1200000    1.0752488   -6.2379132    526.05046  0.036531282   0.03709444            3 
 1201000    1.0707096   -6.1646514    528.80988  0.036692331  0.037084417            3 
 1202000    1.0739044   -6.1976994    525.97439  0.036465224  0.037074518            9 
 1203000    1.0567211   -6.1918291    526.96865  0.036503786  0.037064661            4 
 1204000    1.0426942   -6.1889657    527.57778  0.036515627  0.037054634            3 
 1205000    1.0611414   -6.1587938    529.07567  0.036588912  0.037044542            3 
 1206000     1.081258   -6.1776129     528.4905  0.036518139  0.037034384            6 
 1207000    1.0624958   -6.2067728    529.12584  0.036531748  0.037024187            3 
 1208000    1.0731629   -6.1799319     528.2535  0.036441329  0.037014167            5 
 1209000    1.0614656   -6.2129029    528.14653  0.036403814  0.037003835            3 
 1210000    1.0535872    -6.205237    528.33867   0.03638696  0.036993704            2 
 1211000    1.0483771   -6.2167157    527.86557  0.036324358  0.036983312            3 
 1212000    1.0692441   -6.1797313    529.01475  0.036373402  0.036973268            3 
 1213000    1.0564958   -6.2177639    530.80233  0.036466222   0.03696323            3 
 1214000    1.0634342   -6.2008889    530.76444  0.036433583  0.036953174            1 
 1215000    1.0689735   -6.2167227    531.57218  0.036458997  0.036943162            5 
 1216000    1.0600007   -6.1789418    531.81153  0.036445418  0.036933023            7 
 1217000    1.0709055   -6.1862279    530.55769  0.036329615  0.036922927            4 
 1218000    1.0576295   -6.1733226    533.73252  0.036517003   0.03691281            2 
 1219000     1.070723   -6.1754447    534.24094  0.036521803  0.036902736            2 
 1220000    1.0528958   -6.1537439    534.13734  0.036484791  0.036892778            2 
 1221000    1.0538055    -6.187676    532.92786  0.036372363  0.036882844           13 
 1222000     1.065712   -6.1437281    533.99228  0.036415186  0.036872812            4 
 1223000    1.0730375   -6.1582609    533.94837  0.036382418  0.036862971            2 
 1224000    1.0597717   -6.1786444    533.39607  0.036315092  0.036852872            4 
 1225000     1.082232   -6.1919309    534.79022  0.036380287  0.036842879            3 
 1226000    1.0443635   -6.1956548    534.81998  0.036352636  0.036832778            2 
 1227000    1.0724196    -6.176458    534.86133  0.036325817  0.036822854            3 
 1228000     1.073261   -6.1569267    537.62334  0.036483668  0.036812974            2 
 1229000    1.0619579   -6.1888935    535.73831  0.036326167  0.036803077           11 
 1230000    1.0655414   -6.2039545    535.54667  0.036283649  0.036793062            3 
 1231000    1.0434916   -6.2003739    535.03314  0.036219411  0.036782983            2 
 1232000    1.0728386    -6.219395    535.30856  0.036208642  0.036772829            5 
 1233000    1.0769701   -6.2179036    536.29439  0.036245904  0.036762624            1 
 1234000    1.0402019   -6.1980046    536.34675  0.036220067  0.036752432            8 
 1235000     1.067329    -6.156784     538.6617  0.036346944  0.036742497            5 
 1236000     1.063869   -6.1844828     538.1191  0.036280954  0.036732498            4 
 1237000    1.0701638   -6.1459752    538.58042  0.036282701  0.036722438            2 
 1238000    1.0608446    -6.172437    537.89384  0.036207178  0.036712504            3 
 1239000    1.0432829   -6.1680616    539.53645  0.036288435   0.03670285            1 
 1240000    1.0448333   -6.1664592    540.05337  0.036293909  0.036692902            3 
 1241000    1.0411297    -6.193451    539.30117  0.036214153    0.0366831            6 
 1242000    1.0308426    -6.169202    540.13844  0.036241173  0.036673274            2 
 1243000    1.0524977    -6.161103    539.66501  0.036180277  0.036663296            2 
 1244000    1.0552533   -6.1813361     541.1139  0.036248252  0.036653624            2 
 1245000    1.0521534   -6.1856124    540.75945  0.036195412  0.036643822            4 
 1246000    1.0453457   -6.1991389    542.38852  0.036275316  0.036633919            2 
 1247000    1.0475485    -6.194773     539.6198    0.0360612  0.036624017            3 
 1248000    1.0770923   -6.2034348    542.30733  0.036211761  0.036614257            5 
 1249000    1.0455808   -6.2106957    542.04638  0.036165358  0.036604599            5 
 1250000    1.0518427   -6.2353489    542.03292  0.036135528  0.036594754            6 
 1251000     1.073681   -6.2212232    542.92424  0.036166016  0.036585015            7 
 1252000    1.0514452   -6.2009385    544.33322  0.036230912  0.036575512            4 
 1253000     1.066182   -6.2376534    542.29639  0.036066533  0.036565877            1 
 1254000    1.0638196   -6.1816281    544.24016  0.036166943  0.036556246            6 
 1255000    1.0513377   -6.2153869    543.31826   0.03607691  0.036546418           13 
 1256000    1.0175361   -6.1972193    547.26733    0.0363102  0.036536907            3 
 1257000    1.0445742   -6.1834621    545.28888  0.036150151  0.036527121            7 
 1258000    1.0681899   -6.2303714    545.78742  0.036154439   0.03651754            2 
 1259000    1.0222329    -6.192893    546.62631  0.036181249  0.036508212            4 
 1260000     1.013007   -6.2018227    546.51881  0.036145424  0.036499039            3 
 1261000    1.0592969   -6.1963865    546.62863  0.036124017    0.0364895            3 
 1262000     1.067379   -6.1626041    547.99257  0.036185457  0.036480488            3 
 1263000    1.0698717   -6.1875248     548.6362  0.036199274  0.036471254            2 
 1264000    1.0349115   -6.1759022    550.31472  0.036281298  0.036461917            8 
 1265000    1.0463077   -6.2243864    548.25326  0.036116816  0.036452534            4 
 1266000    1.0657065   -6.1893982    549.75195  0.036186937  0.036443228            4 
 1267000     1.074366   -6.2122462    547.97144  0.036041268  0.036433956            2 
 1268000    1.0474707   -6.2038489    549.23375  0.036095804  0.036424532            2 
 1269000    1.0371714   -6.2199096    548.43285  0.036014765  0.036414958            2 
 1270000     1.029656    -6.225379    546.92795  0.035887661  0.036405258            2 
 1271000    1.0710709   -6.2254579    546.69494  0.035844147  0.036395118            2 
 1272000     1.041868   -6.2150327    548.91832   0.03596163  0.036385151            5 
 1273000    1.0398061   -6.2206338     547.2173  0.035822028  0.036375017            3 
 1274000     1.038602   -6.1982302    549.16516  0.035921321  0.036364764            3 
 1275000    1.0405474   -6.1480255    551.21715  0.036027264  0.036354673            3 
 1276000    1.0299583   -6.2092316    548.41242  0.035815858  0.036344831            2 
 1277000    1.0396782   -6.2214868    548.12462   0.03576903  0.036334364            2 
 1278000    1.0564304   -6.2247376    547.98506  0.035731942  0.036323953            1 
 1279000    1.0581342   -6.2347542    547.75064  0.035688731  0.036313573            3 
 1280000    1.0668016   -6.2390717    549.37661  0.035766706  0.036303175            2 
 1281000    1.0409287   -6.2232425    550.61517  0.035819358  0.036292719            2 
 1282000    1.0433831   -6.2246587     547.5534  0.035592395   0.03628239            3 
 1283000    1.0353862   -6.2314528    547.97308  0.035591912  0.036272064            5 
 1284000     1.042614   -6.2291582    549.48381  0.035662241  0.036261678            4 
 1285000    1.0494908   -6.2552252    552.09693  0.035803952  0.036251352            7 
 1286000    1.0628006   -6.2217879    551.85305  0.035760307  0.036241077            4 
 1287000    1.0637372   -6.1993868    551.81851  0.035730284  0.036230824            4 
 1288000    1.0509388   -6.1940685    553.65266  0.035821213  0.036220747            3 
 1289000    1.0386678   -6.2088328     552.5648  0.035723093  0.036210574            5 
 1290000    1.0429452   -6.2224187    550.54112  0.035564672  0.036200313            5 
 1291000    1.0503797   -6.2430062    553.53803  0.035730573  0.036190173            4 
 1292000    1.0641588   -6.2366085    552.24409  0.035619459  0.036179865            4 
 1293000    1.0389724   -6.2641608    552.28437  0.035594507  0.036169423            4 
 1294000     1.082128   -6.2227705     553.4184  0.035640031  0.036159096            7 
 1295000    1.0342857   -6.2535084    553.00034  0.035585608  0.036148493            2 
 1296000    1.0316054   -6.2109902    554.47997   0.03565329  0.036138193            3 
 1297000    1.0540974   -6.2223312      555.333  0.035680609  0.036127835            5 
 1298000    1.0407211   -6.2379887    553.34043  0.035525194  0.036117555            4 
 1299000    1.0540812   -6.2384408    554.97961  0.035603003  0.036107299            1 
 1300000    1.0601765   -6.2625761    553.97921  0.035511488   0.03609716            5 
 1301000    1.0497538   -6.2133062    556.92537  0.035672903   0.03608714            3 
 1302000    1.0680545   -6.2169908    556.52905  0.035620139  0.036077219            3 
 1303000     1.016857   -6.2093992    557.40186  0.035648623  0.036066868            6 
 1304000    1.0543622   -6.2374312    555.67106  0.035510676  0.036056799            2 
 1305000    1.0249838   -6.2401992    556.31579  0.035524636  0.036046545            2 
 1306000    1.0264714   -6.2044162    557.88266  0.035597414  0.036036412            3 
 1307000    1.0274572   -6.2691227    556.99678  0.035513694  0.036026356            3 
 1308000    1.0397776   -6.2486327    557.50725  0.035519066  0.036016374            3 
 1309000    1.0407166   -6.2591128     558.8403  0.035576795   0.03600662            3 
 1310000    1.0529185   -6.2393789    558.31327  0.035516111  0.035996865            6 
 1311000    1.0133197   -6.2134446    559.87864  0.035588523  0.035987065            9 
 1312000    1.0386403   -6.1851572    560.25749   0.03558546  0.035977299            5 
 1313000    1.0314748     -6.20953    560.48244  0.035572635  0.035967614            3 
 1314000    1.0390388   -6.2213074    560.66238  0.035556975  0.035957879            4 
 1315000    1.0735668   -6.2007516    560.53025  0.035521562  0.035948249            5 
 1316000    1.0608918   -6.2307504    562.04782  0.035590667  0.035938536            7 
 1317000    1.0519126   -6.2292233    562.05045   0.03556381  0.035928814            3 
 1318000    1.0351904   -6.2049391    562.39395  0.035558545  0.035919228            3 
 1319000    1.0442015   -6.2389608    561.77324  0.035492371  0.035909568            4 
 1320000    1.0453773   -6.2450147    562.88596   0.03553573  0.035899954            3 
 1321000    1.0274326   -6.2261868    563.85984  0.035570265  0.035890213            5 
 1322000    1.0460773   -6.2788011    560.99114  0.035362528  0.035880586            3 
 1323000    1.0657332   -6.2428499    563.15168  0.035471887  0.035870938            4 
 1324000    1.0522406   -6.1799116    564.56687  0.035534168  0.035861452            2 
 1325000     1.055451   -6.1904466    564.02036  0.035472979  0.035851879            4 
 1326000    1.0414394   -6.2301689    564.36175  0.035467682  0.035842267            5 
 1327000    1.0460514    -6.237157    562.81749  0.035343977  0.035832588            2 
 1328000    1.0341444   -6.2671255    564.80385  0.035442009  0.035822737            5 
 1329000    1.0592803   -6.2044238    565.08086   0.03543271  0.035813115            7 
 1330000    1.0260194   -6.2347901    566.89528  0.035519754   0.03580341            3 
 1331000    1.0417255    -6.236605    566.20041  0.035449562  0.035793644            2 
 1332000    1.0252844   -6.2413503    566.41829   0.03543658  0.035783839            5 
 1333000    1.0538497   -6.2148072    568.21438  0.035522279  0.035774347            8 
 1334000    1.0413018   -6.2023406    567.19818   0.03543217  0.035764615            3 
 1335000    1.0485353   -6.2485822    567.73805  0.035439329  0.035754806            4 
 1336000    1.0494788   -6.2799369     565.9372  0.035300474  0.035745111            5 
 1337000    1.0299045   -6.2264018    566.83233  0.035329863  0.035735328            9 
 1338000    1.0345605   -6.2243079    567.45653  0.035342335  0.035725832            3 
 1339000    1.0475976   -6.2036237    569.48715  0.035442317  0.035716397            3 
 1340000    1.0562885   -6.2133609     568.5336  0.035356567  0.035706757            2 
 1341000    1.0207086    -6.221905    567.99952  0.035297012  0.035697171            3 
 1342000    1.0522999   -6.2716677    566.26075  0.035162739  0.035687379            6 
 1343000    1.0212638   -6.1832065    569.10244  0.035312884  0.035677529            4 
 1344000    1.0614966   -6.2371394    570.99746  0.035404108  0.035667842            3 
 1345000    1.0352637   -6.2298272    569.25826  0.035270028  0.035658086            3 
 1346000     1.052839   -6.2829903    568.68408  0.035208277  0.035648527            4 
 1347000    1.0405936   -6.2499297    569.39321  0.035226009   0.03563875            4 
 1348000     1.054431   -6.1994285    572.45717  0.035389291  0.035629229            3 
 1349000    1.0439352    -6.211114    572.11295  0.035341793  0.035619895            5 
 1350000    1.0339259   -6.2446631    573.58973  0.035406773  0.035610353            2 
 1351000    1.0321709     -6.24659    571.78819  0.035269442  0.035600897            2 
 1352000    1.0272764   -6.2714297    570.55368  0.035167263  0.035591248            6 
 1353000    1.0398201    -6.240518    571.68127  0.035210721  0.035581766            8 
 1354000      1.02524    -6.252273    572.00254  0.035204489  0.035572128            6 
 1355000    1.0260723   -6.2415933    572.47669  0.035207669  0.035562443            6 
 1356000     1.029052   -6.2582645    572.11761  0.035159637  0.035552962            4 
 1357000    1.0580522   -6.2748371    575.05839   0.03531432  0.035543341            3 
 1358000    1.0433758   -6.2434766    573.58676  0.035198009  0.035533728            3 
 1359000    1.0401307   -6.2350469    573.07465  0.035140707  0.035524146            2 
 1360000    1.0347494   -6.2469871    573.32781  0.035130381  0.035514397            3 
 1361000    1.0230931   -6.2803454    572.06018  0.035026952   0.03550468            3 
 1362000    1.0434228   -6.2301153     575.4254  0.035207134  0.035494976            2 
 1363000    1.0364028    -6.254937    573.37726  0.035056081  0.035485276            3 
 1364000    1.0482324   -6.2623848    574.71385  0.035112039  0.035475457            4 
 1365000    1.0306024   -6.2377233    574.99723  0.035103616   0.03546557            3 
 1366000    1.0292985   -6.2601951    573.06922  0.034960299  0.035455798            3 
 1367000    1.0379588   -6.2902328    573.17516  0.034941182  0.035445835            3 
 1368000    1.0630756   -6.2331005    573.48832  0.034934718  0.035435948            3 
 1369000    1.0213934   -6.2743395    572.61049  0.034855764  0.035425804            5 
 1370000    1.0447244    -6.264083    574.88818  0.034968867  0.035415591            6 
 1371000    1.0398842   -6.2997467    575.06131  0.034953885  0.035405471            4 
 1372000    1.0343383   -6.2635771    577.05113  0.035049267  0.035395529            6 
 1373000    1.0484657   -6.2951243    576.12214  0.034967355  0.035385575            5 
 1374000    1.0435984   -6.2672749    575.59075  0.034909677  0.035375572            5 
 1375000    1.0333712   -6.2375172    575.61046  0.034885483  0.035365419            8 
 1376000    1.0312814    -6.248076    575.31456  0.034842209  0.035355324            6 
 1377000    1.0311924   -6.2181802    578.85131  0.035030944  0.035345392            3 
 1378000    1.0535025   -6.2301952    578.69909  0.034996316  0.035335679            3 
 1379000    1.0451381   -6.2569548    577.87729  0.034921277  0.035325744            4 
 1380000     1.033225   -6.2585354    578.78597  0.034950844  0.035315825            2 
 1381000    1.0577137   -6.2521982    576.03392  0.034759469  0.035306033            4 
 1382000    1.0430334   -6.2398492    578.80358  0.034901325   0.03529588            6 
 1383000    1.0345701   -6.2233793    579.55446  0.034921334  0.035285942            3 
 1384000    1.0427063   -6.2746222    579.03715  0.034864954  0.035275867            4 
 1385000    1.0371596   -6.2910893    575.66108  0.034636648  0.035265688            4 
 1386000    1.0300094    -6.261182     579.9284   0.03486823  0.035255733            4 
 1387000    1.0495374   -6.2297243    581.80718  0.034955971  0.035245954            3 
 1388000    1.0454843   -6.2676961    578.88503  0.034755345  0.035236091            2 
 1389000    1.0253767   -6.2202744    582.44743   0.03494405  0.035226407            2 
 1390000    1.0252724   -6.2736941    580.19286  0.034783744  0.035216464            3 
 1391000    1.0139147   -6.2880736    580.39338  0.034770751  0.035206564            4 
 1392000    1.0302086   -6.2652913    582.48666  0.034871088  0.035196697            2 
 1393000    1.0169599   -6.2530862    581.22919   0.03477083  0.035186705            2 
 1394000    1.0102348   -6.2400116    582.55229  0.034824982  0.035176961            4 
 1395000    1.0172575   -6.2166429    582.70479  0.034809127  0.035167215            4 
 1396000    1.0383246   -6.2324058    583.46435  0.034829534  0.035157537            3 
 1397000    1.0450657   -6.2148504    584.09696  0.034842338   0.03514795            6 
 1398000    1.0411693   -6.2127893    583.23553  0.034766067  0.035138357            6 
 1399000    1.0164305   -6.2251592    583.67355  0.034767307  0.035128686            3 
 1400000    1.0166985   -6.2921167    583.11373  0.034709151  0.035118843            2 
 1401000    1.0393849     -6.28195    583.71273  0.034720006  0.035108825            3 
 1402000    1.0293498   -6.2488647    585.15073  0.034780714  0.035099175            4 
 1403000    1.0286553   -6.2709712    583.80555  0.034676025   0.03508941            4 
 1404000    1.0348769   -6.2972855    582.57247  0.034578138  0.035079535            2 
 1405000    1.0038905   -6.2921268    584.47676  0.034666474  0.035069665            3 
 1406000     1.037922   -6.2829575    585.17259   0.03468306  0.035059763            8 
 1407000    1.0257735   -6.2894663    584.29047  0.034606164  0.035049563            3 
 1408000    1.0268373   -6.2592159    585.81074  0.034671564  0.035039457            3 
 1409000    1.0469444   -6.2106835    586.83567  0.034707574  0.035029662            3 
 1410000    1.0272147   -6.2321524    584.63544  0.034552922  0.035019652            2 
 1411000    1.0319668   -6.2972783     582.7778  0.034418722  0.035009495            9 
 1412000    1.0103582   -6.3108267    583.40879  0.034431586   0.03499929            4 
 1413000    1.0176664   -6.2826446    583.77549  0.034428845  0.034988962            2 
 1414000    1.0307997   -6.2568688    586.08194  0.034540425  0.034978815            2 
 1415000      1.01666    -6.286776    586.72028  0.034553609  0.034968709            4 
 1416000    1.0181195   -6.2018048    586.88965  0.034539174   0.03495849            2 
 1417000    1.0434794   -6.2910136    584.01877  0.034345964  0.034948216            5 
 1418000    1.0257467   -6.3075968    584.48449  0.034349112   0.03493805           11 
 1419000    1.0240417   -6.2809535    587.30572  0.034490587  0.034928019            4 
 1420000    1.0416228   -6.2516911    589.19341  0.034577078   0.03491805            3 
 1421000    1.0272284    -6.274306    588.73759  0.034526014  0.034908191            4 
 1422000    1.0302563   -6.2517389    589.63758  0.034554476  0.034898264            3 
 1423000    1.0360826   -6.2532244    589.20836  0.034505058  0.034888365            2 
 1424000    1.0202637   -6.2588908    590.80873  0.034574481  0.034878485            4 
 1425000    1.0214869   -6.2454273    589.28197  0.034460934  0.034868496            3 
 1426000    1.0427109   -6.2644622    590.23039  0.034492192  0.034858897            3 
 1427000    1.0397443   -6.2632619    591.66076  0.034551551  0.034849194            5 
 1428000    1.0203188   -6.2479307    591.14394  0.034497195  0.034839458            3 
 1429000    1.0265408   -6.2770185    590.30631  0.034424208  0.034829515            5 
 1430000    1.0292795   -6.2958761    589.60287  0.034359142  0.034819665            5 
 1431000    1.0001026   -6.2661156    590.95113  0.034413646  0.034809596            4 
 1432000    1.0095722   -6.2154079    590.46746  0.034361468  0.034799573            4 
 1433000     1.013052    -6.286077    589.71706  0.034293851  0.034789494            3 
 1434000    1.0097628   -6.2744504    592.31772  0.034421067  0.034779627            4 
 1435000     1.025904   -6.2685676    591.22237  0.034333471  0.034769464            6 
 1436000    1.0151555   -6.2703997    590.37902  0.034260621  0.034759437            4 
 1437000    1.0297085   -6.2628995    591.62952  0.034309297  0.034749445            7 
 1438000    1.0264001   -6.2552613    592.33201  0.034326148  0.034739608            5 
 1439000    1.0352258   -6.2700479    593.56199  0.034373523   0.03472941            3 
 1440000    1.0308182   -6.2542778    591.94291  0.034255955  0.034719384            3 
 1441000     1.030372   -6.2807583     592.9913  0.034292812  0.034709178            6 
 1442000    1.0176042   -6.2861175     593.8619  0.034319342  0.034699101            6 
 1443000    1.0041009   -6.2429467    594.24839  0.034317879   0.03468899            2 
 1444000    1.0104352   -6.3155172    592.67423  0.034203268  0.034678871            5 
 1445000    1.0141925   -6.2946505    591.14753  0.034091553  0.034668754            8 
 1446000    1.0254193   -6.2828795    593.65031  0.034212212  0.034658482            5 
 1447000    1.0048333   -6.2734217    594.91877   0.03426162  0.034648342            6 
 1448000    1.0301259   -6.2706331    595.28298  0.034258919   0.03463814            3 
 1449000    1.0039731   -6.2706354    595.88412  0.034269848  0.034628005            3 
 1450000    1.0353567   -6.2709027    595.69834  0.034235537  0.034617952            4 
 1451000    1.0355006    -6.290389    594.45032  0.034140266  0.034607836            4 
 1452000    1.0079564   -6.2505234    597.50642   0.03429215  0.034597851            5 
 1453000   0.99858075   -6.3000901    596.83733  0.034230175  0.034587818            7 
 1454000    1.0523867   -6.3225247    594.49373  0.034072314  0.034577549            4 
 1455000    1.0103154   -6.2968466    594.60571   0.03405531  0.034567217            4 
 1456000    1.0071031   -6.2873024    596.82761  0.034159089  0.034557042            6 
 1457000     1.022362   -6.3290151    595.61898  0.034066517  0.034546999            4 
 1458000    1.0175189   -6.3085017    596.89704    0.0341162  0.034536594            6 
 1459000    1.0234092   -6.2731105    596.39244  0.034063996  0.034526318            2 
 1460000    1.0492207   -6.2646158    597.51465  0.034104717  0.034516129            3 
 1461000    1.0269073    -6.310628    597.32597  0.034070612   0.03450624            2 
 1462000    1.0051162   -6.2975468    597.46755  0.034055378  0.034496159            6 
 1463000      1.04024   -6.3060378    598.49477  0.034090611  0.034486223            9 
 1464000    1.0113506   -6.2549921    600.35187  0.034173034  0.034476286            2 
 1465000    1.0281714   -6.2856291    599.62635  0.034108439  0.034466613            2 
 1466000    1.0244595   -6.2746127    599.92609   0.03410221  0.034456772            4 
 1467000   0.98977503   -6.3007725    599.31938    0.0340445  0.034446825            5 
 1468000    1.0350603    -6.257877    601.64632  0.034153402  0.034436811            4 
 1469000    1.0123267   -6.2727311    600.96246  0.034091358  0.034426996            3 
 1470000    1.0266565   -6.2814695    600.44603  0.034038891  0.034416859            3 
 1471000    1.0018444   -6.3098703     599.3393  0.033953054  0.034406787            6 
 1472000    1.0226192   -6.2832667    602.67721  0.034118954   0.03439692            6 
 1473000    1.0098965   -6.2903157    601.87052  0.034050154  0.034387053            4 
 1474000    1.0288032   -6.3138097    600.39803  0.033943805  0.034377149            3 
 1475000    1.0062615   -6.2950541    600.30627  0.033915609  0.034367082            7 
 1476000   0.99470305   -6.3160755    600.93371  0.033928055  0.034357014            4 
 1477000    1.0072007   -6.3137789    600.71125  0.033892533  0.034346846            3 
 1478000    1.0258966   -6.3063802    602.69029  0.033981184   0.03433694            2 
 1479000    1.0142769   -6.3000314    601.80499  0.033908327  0.034327027            6 
 1480000    1.0138433   -6.2815502    601.14203  0.033848087  0.034316789            3 
 1481000    1.0298651   -6.2670488    605.04503  0.034044847  0.034306724            4 
 1482000    1.0145891   -6.2526978    604.44976  0.033988403  0.034296642            2 
 1483000    1.0050394   -6.3242312    600.93168  0.033767795  0.034286399            5 
 1484000    1.0029089     -6.30078    602.06934  0.033808925  0.034276068            6 
 1485000   0.99814644   -6.3036175    602.42222  0.033805961  0.034265905            3 
 1486000   0.99941383   -6.2689474    603.44046  0.033840313  0.034255764            4 
 1487000     1.003044   -6.2771272    604.75499  0.033891223  0.034245869            3 
 1488000    1.0129898   -6.2828298    606.30556  0.033955284  0.034235896            5 
 1489000    1.0254828   -6.2817786    604.55055   0.03383426  0.034226072            3 
 1490000    1.0105769   -6.2829665    605.06234  0.033840176  0.034216085            7 
 1491000    1.0059535   -6.3163992     605.0098  0.033814543  0.034205885            3 
 1492000    1.0130577   -6.3137734    604.63229  0.033770793  0.034195942            5 
 1493000   0.99933793    -6.308931    604.84082  0.033759814  0.034185864            3 
 1494000    1.0285767   -6.3129799    606.03421  0.033803782  0.034175824            6 
 1495000    1.0120968   -6.3198641    604.90449  0.033718199  0.034165871            9 
 1496000    1.0121798   -6.2830189     607.1603  0.033821318  0.034155978           11 
 1497000    1.0193546   -6.2942845     607.4184  0.033813093  0.034146168            3 
 1498000   0.99067495    -6.260147    608.15392  0.033831437  0.034136309            3 
 1499000    1.0217099   -6.2990316    608.28472   0.03381614  0.034126436            1 
 1500000    1.0304999    -6.285963    607.38954  0.033743863  0.034116577            5 
 1501000    1.0111293   -6.3189602    607.66203   0.03373651  0.034106515            5 
 1502000    1.0209967      -6.2648    610.07341  0.033847837  0.034096561            5 
 1503000    1.0210035   -6.2990918     607.2085  0.033666472  0.034086568            7 
 1504000   0.99833264   -6.2848872    610.50651  0.033826824  0.034076733            4 
 1505000   0.98619198   -6.3099388    608.97799  0.033719711  0.034066945            5 
 1506000    1.0169739   -6.3230396    608.14037  0.033650972  0.034057121            4 
 1507000    1.0392884   -6.3143577    609.31579   0.03369364  0.034047401            2 
 1508000    1.0517426    -6.309661    610.09036    0.0337141  0.034037661            2 
 1509000    1.0098893   -6.3181091    607.60584  0.033554553  0.034027758            3 
 1510000    1.0218578    -6.323817    610.23217  0.033677272  0.034017759            5 
 1511000    1.0044928   -6.3200184    610.43084  0.033665941  0.034007914            4 
 1512000    1.0116422   -6.3221014    611.12956  0.033682185  0.033997972            9 
 1513000   0.99615706   -6.2877688    613.51668  0.033791401  0.033988177            3 
 1514000    1.0065827   -6.3150482    611.35129  0.033649895  0.033978599            4 
 1515000    1.0016053   -6.3293205    611.06963  0.033612191  0.033968832            2 
 1516000     1.014714   -6.2757607    612.96219  0.033694052  0.033959263            5 
 1517000    1.0167556   -6.2686459    614.10582  0.033734664  0.033949716            6 
 1518000    1.0002071   -6.3004443    612.77003   0.03363911  0.033940154            4 
 1519000    1.0209061   -6.3044736    612.90608  0.033624429   0.03393045            9 
 1520000   0.99594869   -6.3415087    612.56923  0.033583839  0.033920767            8 
 1521000    1.0210484   -6.3067772    613.77136  0.033627622  0.033911236            3 
 1522000   0.99891284   -6.3113966      615.038   0.03367488  0.033901705            5 
 1523000    1.0076266   -6.3065422     614.9947    0.0336504  0.033892184            3 
 1524000     1.008336   -6.3374015    613.74829  0.033560164  0.033882514            3 
 1525000    1.0181217    -6.326956    613.27561  0.033512329  0.033872738            3 
 1526000    1.0038856   -6.3197615     614.1831  0.033539925  0.033863047            2 
 1527000   0.99205842   -6.3036959    613.43417  0.033477088  0.033853516            5 
 1528000    1.0199502   -6.2833417    614.15879  0.033494699  0.033843751            4 
 1529000    1.0005955   -6.2901565    616.34011  0.033591678   0.03383426            3 
 1530000     1.014126   -6.2702521    618.26782  0.033674718  0.033824744            3 
 1531000    1.0131383   -6.2599272    619.72959  0.033732288   0.03381543            4 
 1532000    1.0171135   -6.2993557    617.90363  0.033610946  0.033806106            4 
 1533000    1.0121674   -6.2620536    618.87053  0.033641582   0.03379692            6 
 1534000    1.0078648   -6.2977463    619.27905  0.033641843  0.033787567            7 
 1535000   0.99960785   -6.3124481    618.02321  0.033551748  0.033778249            3 
 1536000    1.0004835   -6.2812655    618.84523  0.033574502  0.033769017            3 
 1537000    1.0116265   -6.3080633    617.77854  0.033494824  0.033759916            5 
 1538000    1.0015244   -6.3207856    620.82709  0.033638225  0.033750793            6 
 1539000   0.99837993   -6.3668311    617.50173  0.033436308  0.033741463            2 
 1540000    1.0031266   -6.3152885    618.36288  0.033461195  0.033732137            3 
 1541000   0.97034811   -6.2836764    620.93241  0.033578434  0.033722989           10 
 1542000   0.99823111   -6.3115854    619.96354  0.033504299  0.033713676            5 
 1543000    1.0187823   -6.3214437    620.53316  0.033513348  0.033704594            4 
 1544000    1.0009281   -6.3485739    622.01017  0.033571361  0.033695614            2 
 1545000   0.98303557   -6.3320178    621.60127  0.033527576  0.033686551            3 
 1546000   0.99939473   -6.3166455     622.3471  0.033546092  0.033677456            5 
 1547000    1.0091541    -6.311823    624.64079  0.033647963  0.033668499            2 
 1548000   0.99981482    -6.343658    622.22194  0.033496013  0.033659246            2 
 1549000     0.994319   -6.3259337    622.82705  0.033506943  0.033650262            4 
 1550000     1.002808   -6.3169409    623.18162  0.033504388  0.033641293            2 
 1551000    1.0194778   -6.2793181    623.88512  0.033520585  0.033632413            6 
 1552000    1.0163009   -6.3589362    622.38075  0.033418211  0.033623406            4 
 1553000    1.0002704   -6.3259951    622.28053  0.033391314  0.033614148            3 
 1554000    1.0115351   -6.3191528    623.55948   0.03343841  0.033605023            5 
 1555000    1.0083163   -6.3405174    623.04319  0.033389238  0.033595845            4 
 1556000    1.0068985   -6.3511981    624.56292  0.033449171  0.033586729            4 
 1557000    1.0033525   -6.3391627    626.39048  0.033525502  0.033577645            7 
 1558000    1.0180629   -6.2780012    627.63915  0.033570772  0.033568572            3 
 1559000   0.98501423   -6.3258763    626.21476    0.0334731  0.033559512            8 
 1560000    0.9974099   -6.3172802    627.69931  0.033530946  0.033550627            5 
 1561000    1.0177866   -6.2892842     627.1681  0.033481107   0.03354164            3 
 1562000   0.99094926   -6.3533121    624.40058  0.033312024  0.033532554            4 
 1563000    1.0205499   -6.3306813    624.60845  0.033301794   0.03352341            3 
 1564000    1.0006464   -6.3596302    626.05668  0.033357666  0.033514433            9 
 1565000    1.0040777   -6.3335934    626.80824  0.033376371  0.033505426            5 
 1566000    1.0118729   -6.3014639    626.24732  0.033325208   0.03349655            4 
 1567000   0.97757737   -6.3681343    626.74646  0.033330486  0.033487429            4 
 1568000    1.0062167   -6.3468575    627.73664  0.033361854   0.03347817           10 
 1569000    1.0112316   -6.3350405    626.78312  0.033289947  0.033469061            6 
 1570000   0.99293919    -6.336651    629.29565  0.033402105  0.033460095            5 
 1571000    0.9990439   -6.3180403    629.04311  0.033367447  0.033451232            4 
 1572000    1.0054537   -6.3162223    630.48314  0.033422559   0.03344243            8 
 1573000   0.98380606   -6.2893253    630.81994  0.033419153  0.033433798            4 
 1574000    1.0075272   -6.3560797    629.47708  0.033326825  0.033425082           11 
 1575000   0.98987649   -6.2921511    631.38476  0.033406601   0.03341619            6 
 1576000    1.0032011   -6.3598923    627.83848  0.033197889  0.033407351            4 
 1577000    1.0145524   -6.3310108     630.0572  0.033294081  0.033398403            5 
 1578000    1.0316299   -6.3277448     630.5921  0.033301231  0.033389569            2 
 1579000    1.0000789   -6.2536008    633.16869  0.033416123  0.033380596            5 
 1580000    1.0246141   -6.3217467    629.96753  0.033226135  0.033371703            3 
 1581000   0.98578972    -6.359578     629.6028  0.033185895  0.033362749            4 
 1582000   0.98069624   -6.3574818    630.34534  0.033204032  0.033353642            3 
 1583000     1.000698    -6.341464    630.10584  0.033170448  0.033344497            3 
 1584000    1.0120248   -6.3091926    633.50899  0.033328545  0.033335502            5 
 1585000    1.0180031     -6.33511    631.49949  0.033201866  0.033326622            4 
 1586000   0.99309608    -6.340032    632.48423  0.033232673  0.033317695            4 
 1587000   0.98972103   -6.3910192    628.58314  0.033006886  0.033308548            4 
 1588000   0.99814779   -6.3451907    632.14452  0.033172991  0.033299505            3 
 1589000   0.98857233   -6.3412726    633.09342  0.033201879  0.033290482            7 
 1590000   0.99789339   -6.3199868    631.03369  0.033073045  0.033281662            4 
 1591000    1.0067092   -6.3288632    633.74849  0.033194452  0.033272693            6 
 1592000   0.99735153   -6.3290222    633.53311  0.033162328  0.033263771            5 
 1593000    1.0324865   -6.3523577     633.6713  0.033148739  0.033254743            4 
 1594000    1.0128058   -6.3114194    635.21053  0.033208413   0.03324575            4 
 1595000    1.0060358   -6.3417021    633.28592  0.033087039  0.033236749            4 
 1596000   0.98620789   -6.3239457    635.87169  0.033201321  0.033227901            4 
 1597000   0.98773066   -6.3255969    636.28193  0.033201938  0.033218913            4 
 1598000   0.99778023   -6.3860572    633.34453  0.033027979  0.033209744            6 
 1599000   0.99848332   -6.3593908    633.46509  0.033013607  0.033200705            4 
 1600000   0.99607682   -6.3516611    636.80716   0.03316704  0.033191608            3 
 1601000    1.0080909   -6.3495488    636.80611  0.033146269  0.033182682            4 
 1602000   0.98812888   -6.3351929    636.33066  0.033100846  0.033173691            5 
 1603000   0.98784021   -6.3098705    637.26106  0.033128564  0.033164825            5 
 1604000   0.98488911   -6.3586139    636.64287  0.033075793  0.033155957            5 
 1605000   0.97925888   -6.3363629    636.58899  0.033052388  0.033147091            4 
 1606000   0.98947146   -6.3207242    637.05518  0.033055997  0.033138301            4 
 1607000    1.0071419    -6.392273    635.39755  0.032949469  0.033129345            3 
 1608000   0.99206192   -6.3399312    637.41204  0.033033377  0.033120225            5 
 1609000   0.99660571   -6.3564969    635.29985  0.032903452  0.033111018            5 
 1610000   0.98639201   -6.3002371    636.79533  0.032960421  0.033102026            5 
 1611000   0.98740625    -6.309169    638.33546  0.033019629  0.033093005            2 
 1612000   0.98380892   -6.3446439    638.03384  0.032983553  0.033083989            4 
 1613000   0.99839253   -6.3372603    637.71446  0.032946604  0.033074833            3 
 1614000    1.0094493   -6.3400925    636.91874  0.032885107  0.033065798            4 
 1615000   0.97513728   -6.3443592     638.9004  0.032966997  0.033056847            6 
 1616000   0.99562657   -6.3346593     639.1305  0.032958462  0.033047746            4 
 1617000   0.96667651   -6.3360204    638.10354  0.032885155   0.03303878            2 
 1618000    0.9920834   -6.3593386    637.59609  0.032838694  0.033029705            6 
 1619000   0.99363834   -6.3655339    638.96811  0.032889032  0.033020514            4 
 1620000      1.00503    -6.338384    640.06728  0.032925272  0.033011528            5 
 1621000    1.0019535   -6.3417049    640.30686  0.032917277  0.033002407            3 
 1622000    0.9791995   -6.3120496    640.16674  0.032889783  0.032993379            8 
 1623000    1.0062804   -6.3423303    640.99299  0.032911943  0.032984391            7 
 1624000   0.97308171   -6.3534889    638.58587  0.032768158  0.032975378            7 
 1625000    1.0019639    -6.371887    639.86133  0.032813401  0.032966322            3 
 1626000    1.0032284   -6.3443072     641.2239  0.032863053   0.03295726            9 
 1627000   0.99369418   -6.3195863     643.4675   0.03295777  0.032948113            2 
 1628000   0.99756623   -6.3378146    642.24352  0.032874873  0.032939087            4 
 1629000    1.0173851    -6.340419    643.04408  0.032895645  0.032930141            3 
 1630000    1.0167879   -6.3784231    640.49836  0.032745315  0.032921102            5 
 1631000    1.0086368   -6.3732998     640.4374  0.032722124  0.032911915            4 
 1632000   0.98396849   -6.3805987    641.77637  0.032770444  0.032902822            5 
 1633000   0.98365306   -6.4279189    641.71899  0.032747448  0.032893712            2 
 1634000   0.96539553   -6.3745887    640.63375   0.03267206  0.032884613            4 
 1635000   0.98146373    -6.356482     643.3165  0.032788812  0.032875492            5 
 1636000   0.97195317   -6.3373268    641.04777  0.032653207  0.032866375            6 
 1637000   0.98325049   -6.3657953    643.45408  0.032755756  0.032857158            4 
 1638000   0.98126445   -6.3276888    642.80477  0.032702725  0.032848071            2 
 1639000    1.0016193    -6.358403    643.46585  0.032716384  0.032839128            4 
 1640000   0.99239397   -6.3466603    643.88522  0.032717745  0.032830109            2 
 1641000   0.99627256   -6.3735422    645.60982  0.032785386  0.032821251            7 
 1642000   0.99580568   -6.3844985    643.17017  0.032641604  0.032812316            5 
 1643000    0.9922171   -6.3849913    644.21275  0.032674617  0.032803111            7 
 1644000    1.0227084   -6.3663952    643.61437   0.03262441  0.032794072            4 
 1645000   0.99387581   -6.3633685    645.18037  0.032683909  0.032784859           10 
 1646000   0.99786941   -6.3980949     642.4854  0.032527613  0.032775705            3 
 1647000   0.99212329   -6.3469669    645.40774  0.032655724  0.032766635            4 
 1648000      0.97729   -6.3796244    645.02941  0.032616778  0.032757601            4 
 1649000   0.98013213   -6.3588341    645.12711  0.032601936  0.032748345            6 
 1650000   0.99364203   -6.3644678    644.49209  0.032550106  0.032739164            3 
 1651000    0.9693804   -6.3124746    648.71132  0.032743354   0.03273004            5 
 1652000   0.96883605   -6.3833344    646.06663  0.032590124  0.032720995            8 
 1653000    0.9935253   -6.3664734    647.12516  0.032623773  0.032712097            6 
 1654000   0.97429265   -6.3550445    646.83739   0.03258955    0.0327032            4 
 1655000   0.98051952   -6.3556385    647.39258  0.032597814   0.03269437           12 
 1656000   0.97618231    -6.341868    647.52961  0.032585024   0.03268559            5 
 1657000   0.99544531   -6.3799856    647.59262  0.032568528  0.032676776            6 
 1658000   0.97024215   -6.3676892    649.09712  0.032624503  0.032667896            7 
 1659000    1.0066945   -6.3468916     649.7163   0.03263594  0.032659113            5 
 1660000   0.98075521   -6.3676542     648.3794  0.032549167  0.032650406            2 
 1661000   0.98805984   -6.3916287     648.7688  0.032549107  0.032641517            3 
 1662000    1.0020257   -6.3545102    650.18324  0.032600443  0.032632758            6 
 1663000   0.98812684    -6.368281    650.90141  0.032616828  0.032623968            5 
 1664000   0.96621404   -6.3546455    651.69068  0.032636753  0.032615335            2 
 1665000   0.98937246   -6.3659471     649.5511  0.032510065  0.032606745            3 
 1666000   0.97840332   -6.3348186    651.77102  0.032601591  0.032597935            2 
 1667000   0.97620985   -6.3893736    649.77315  0.032482161  0.032588893            6 
 1668000    1.0031432   -6.3690492    649.73256  0.032460659   0.03257994            8 
 1669000     1.015585   -6.3591721    651.16235    0.0325126  0.032570983            4 
 1670000   0.96830036    -6.368276    649.84487  0.032427389  0.032562264            4 
 1671000   0.98502764   -6.3805327    650.45605  0.032438462  0.032553312            5 
 1672000   0.99054749   -6.3523981    652.65474  0.032528645  0.032544395            4 
 1673000   0.98652685   -6.3611177    651.02042  0.032427795  0.032535619            4 
 1674000   0.97748604   -6.3766062    652.26266  0.032470264  0.032526731            2 
 1675000   0.98458555   -6.3613191    653.81224  0.032527972  0.032517736            3 
 1676000   0.97977084   -6.4017661    652.10711  0.032423782  0.032508804            5 
 1677000   0.95668142   -6.3945259    651.94345  0.032396315  0.032499883            7 
 1678000    0.9997895   -6.3967804    651.61147  0.032360522  0.032491024            5 
 1679000   0.96963739   -6.3896069    652.09475  0.032365235   0.03248219            4 
 1680000   0.98543986    -6.361076     653.0399  0.032392852   0.03247337            2 
 1681000   0.98779701   -6.3483415    654.93259   0.03246741  0.032464461            4 
 1682000   0.99002231   -6.3869949    653.65935  0.032385025  0.032455679            3 
 1683000   0.99221192   -6.3783955    654.57715  0.032411227  0.032446768            6 
 1684000   0.99622443   -6.3243368     655.6407  0.032444611  0.032437988            3 
 1685000   0.97961352   -6.3625589    656.31142  0.032458527  0.032429358            5 
 1686000   0.99003521   -6.3939565     654.5321   0.03235133  0.032420608            5 
 1687000   0.98289958   -6.3529378    658.88787  0.032547316  0.032412141            5 
 1688000   0.98736621    -6.336375      657.055   0.03243755   0.03240368            6 
 1689000   0.98124079   -6.3530046     656.2611  0.032379174  0.032395264            2 
 1690000   0.97927859   -6.3837675    656.69615  0.032381467  0.032386682            3 
 1691000   0.96807279   -6.3656066    655.57892   0.03230726  0.032378003            3 
 1692000    0.9773376   -6.4102349    656.48785  0.032332932  0.032369284            3 
 1693000    0.9955309   -6.3910013     656.6788  0.032323233  0.032360523            6 
 1694000   0.96859877   -6.4027637    655.12042   0.03222749  0.032351722            6 
 1695000   0.99691913   -6.3837084    655.87672   0.03224566  0.032342883            3 
 1696000    0.9868314   -6.4244926    655.90054  0.032227818  0.032334019            5 
 1697000   0.98751499   -6.3880061    658.72707  0.032347627   0.03232525            4 
 1698000   0.97932641   -6.3704454    656.37833  0.032213306  0.032316447            2 
 1699000   0.97060977   -6.4167326    657.11877  0.032230664  0.032307551            4 
 1700000    1.0024766   -6.4083397    657.68146  0.032239287  0.032298834            4 
 1701000   0.95409701   -6.4087019     659.5217  0.032310489  0.032290344            5 
 1702000   0.98354827   -6.3704688     659.6771  0.032299114  0.032281931            6 
 1703000   0.97592358   -6.3846496    661.14891  0.032352168  0.032273463            6 
 1704000   0.97356498   -6.3901401    661.04211  0.032327959  0.032264977            6 
 1705000    0.9578104   -6.3531651    661.92211  0.032352009  0.032256623            6 
 1706000   0.98117415    -6.398113    661.07266  0.032291552  0.032248288            4 
 1707000   0.98422251   -6.3818067    662.25608  0.032330408  0.032239808            3 
 1708000   0.98859811   -6.3944091    662.14822  0.032306217  0.032231323            4 
 1709000   0.99481177   -6.4405831    659.54816   0.03216053  0.032222719            4 
 1710000   0.98200146   -6.3801521    660.85939  0.032205623  0.032214191            5 
 1711000   0.97591876   -6.3797951    662.18615   0.03225142  0.032205781            7 
 1712000   0.97509817   -6.3893485    662.15202   0.03223092   0.03219742            3 
 1713000   0.97027159   -6.3880927    662.71301  0.032239395  0.032188885            5 
 1714000   0.97079668   -6.3869983    663.58078  0.032262776  0.032180381            3 
 1715000   0.98907162    -6.366479    664.38907   0.03228324  0.032172045            5 
 1716000   0.96944931   -6.3845209     662.5993  0.032177511  0.032163644            4 
 1717000   0.98464399   -6.3960578    663.04604  0.032180452  0.032155215            4 
 1718000    0.9636748   -6.3852585    661.38756  0.032081275  0.032146773            3 
 1719000   0.96636723   -6.3512948    665.54664  0.032264235   0.03213817            5 
 1720000   0.95688608   -6.3748966    664.02171  0.032171594  0.032129712            5 
 1721000   0.96913891   -6.4203468    662.60633  0.032084366  0.032121302            5 
 1722000   0.98020799   -6.3948433    664.02635  0.032134454  0.032112795            4 
 1723000    1.0022476   -6.4281911    661.04973  0.031971838   0.03210428            4 
 1724000   0.96714537   -6.4163199    662.76905    0.0320364  0.032095617            5 
 1725000   0.96143933   -6.3884252    663.89499  0.032072222  0.032087049            8 
 1726000   0.98945089   -6.4040742    664.39053  0.032077565  0.032078344            8 
 1727000   0.96160944   -6.3698574    665.45745  0.032110473  0.032069618            8 
 1728000   0.97374335   -6.3750607    665.12776  0.032075991  0.032061126            2 
 1729000   0.96902507   -6.3782432      663.443  0.031976239  0.032052464            3 
 1730000    0.9826762   -6.4059046    663.46645  0.031958885  0.032043667            2 
 1731000    0.9696254   -6.3722842    663.87446  0.031960064  0.032034963            5 
 1732000    1.0097582   -6.3979328    666.76407  0.032080642  0.032026462            7 
 1733000   0.97600395   -6.4173432    664.42996  0.031949892  0.032017862            4 
 1734000   0.96232874   -6.3592196    667.39005  0.032073724  0.032009253           12 
 1735000   0.95641321      -6.3957    667.97804  0.032083479  0.032000681            7 
 1736000   0.96642357   -6.4633117    666.58906  0.031998323   0.03199221            5 
 1737000    0.9749923   -6.3909603    667.33378   0.03201563  0.031983602            7 
 1738000   0.97026209   -6.4261895    668.28567  0.032042849  0.031975131            6 
 1739000   0.97245117   -6.3749737    667.58142  0.031990676  0.031966787            4 
 1740000   0.98935088   -6.4394286     665.8951  0.031891528  0.031958255            2 
 1741000   0.98204209    -6.377485    668.80953   0.03201271  0.031949636            3 
 1742000   0.96883824   -6.4722703    664.57704   0.03179186  0.031941167            4 
 1743000   0.95770104   -6.3947441    669.04827  0.031987391  0.031932658            4 
 1744000    0.9634367   -6.4032248    668.03778  0.031920765  0.031924104            3 
 1745000    0.9777029   -6.4072063    666.65974  0.031836664  0.031915515            3 
 1746000   0.97730189   -6.3662507    669.83606  0.031970029  0.031906984            3 
 1747000   0.96079149   -6.3815083    671.05094   0.03200968  0.031898383            1 
 1748000   0.96717257    -6.386294    670.84797  0.031981692  0.031889768            7 
 1749000   0.96736558   -6.4242073    668.47099  0.031850152  0.031881243            3 
 1750000   0.96340317   -6.3921516    670.28281  0.031918229  0.031872713            4 
 1751000   0.97459143   -6.3637385    672.66758  0.032013496  0.031864218            3 
 1752000   0.98610892   -6.4074339    669.96677   0.03186676  0.031855818           10 
 1753000   0.96729937   -6.4378025    669.02153  0.031803647  0.031847212            7 
 1754000   0.96640213   -6.4281396    670.77303   0.03186873   0.03183877            3 
 1755000   0.97107231   -6.4161119    672.28451  0.031922342  0.031830228            6 
 1756000   0.97771323   -6.4191606    672.59801   0.03191904  0.031821723            6 
 1757000   0.96998777   -6.4103536    670.19698  0.031786994  0.031813252            4 
 1758000   0.96335944    -6.413953    670.52615  0.031784516  0.031804671            4 
 1759000   0.98607123   -6.3822171    672.73588  0.031871133  0.031796171            5 
 1760000   0.96906946   -6.4001663    671.85125  0.031811139  0.031787745            5 
 1761000   0.96123446   -6.4189725    671.67877  0.031784912  0.031779323            4 
 1762000   0.94435612   -6.4405308    673.36664  0.031846701  0.031770749            4 
 1763000   0.95855174   -6.4009505     673.7833  0.031848332  0.031762344            5 
 1764000    0.9594294   -6.4201881     673.2394  0.031804583  0.031753975            5 
 1765000    0.9608297   -6.4146901     673.1684  0.031783211  0.031745523            5 
 1766000   0.97924277   -6.3795253    676.83544  0.031938252  0.031737332            3 
 1767000   0.97751618   -6.4005515    676.48274  0.031903544  0.031729306            6 
 1768000   0.94538831    -6.413423    676.02886  0.031864105  0.031721261            3 
 1769000   0.94075165   -6.4256695    676.97084  0.031890468  0.031713066            5 
 1770000   0.95352478    -6.374837    677.18728   0.03188264  0.031704894            5 
 1771000   0.97908422   -6.3893743    677.34701  0.031872154  0.031696956            4 
 1772000   0.96549578    -6.395029    677.64996  0.031868414  0.031688994            5 
 1773000   0.97813825   -6.3806926    679.85945  0.031954289  0.031680943            7 
 1774000   0.96977854   -6.4214273    677.24147  0.031813297  0.031672815            5 
 1775000   0.96688895   -6.3881749     676.1395  0.031743639  0.031664779            4 
 1776000   0.94560389   -6.4422735    676.88939  0.031760951  0.031656701            3 
 1777000   0.96619142   -6.4044833    678.44755  0.031816148  0.031648377            5 
 1778000   0.96820844   -6.3747667    679.23244  0.031835041  0.031640447            4 
 1779000   0.97181212   -6.4333444    677.12319  0.031718343  0.031632315            9 
 1780000   0.94581273    -6.423699    677.58098  0.031721956  0.031624145            6 
 1781000   0.95884488   -6.3921646    680.28073  0.031830467  0.031615999            8 
 1782000   0.96003865   -6.4044285    676.19125  0.031621364  0.031607971            8 
 1783000   0.96990644   -6.3953902    681.35616  0.031845025  0.031599819            4 
 1784000   0.96177037   -6.3922996    680.51447  0.031787858   0.03159171            4 
 1785000   0.98091156   -6.3888199     680.6157  0.031774776  0.031583631            5 
 1786000   0.95981873   -6.4303988    678.20576  0.031644539  0.031575339            3 
 1787000   0.97196691   -6.4313785    679.96008   0.03170864    0.0315671           10 
 1788000   0.96771217   -6.4243691    679.35648  0.031662774  0.031558815            3 
 1789000   0.96801747   -6.3908476    679.22862   0.03163912  0.031550546           13 
 1790000   0.96923006   -6.4145912    680.64909  0.031687574  0.031542529            5 
 1791000   0.98015353   -6.4202692    680.40471   0.03165851  0.031534339           11 
 1792000   0.98309931   -6.4336539    677.88523  0.031523681  0.031526235            5 
 1793000   0.95093191   -6.4297479    680.14366  0.031611064  0.031517957            4 
 1794000   0.97604375   -6.4406697    682.29549  0.031693399  0.031509795            3 
 1795000   0.96916195   -6.4240758    684.02268  0.031755928  0.031501783            4 
 1796000   0.96182022   -6.3934538    684.46113   0.03175859  0.031493913            8 
 1797000   0.95095763   -6.4086292    682.00879  0.031627193   0.03148595            3 
 1798000   0.94895115   -6.4294961    680.43498   0.03153666  0.031477829           10 
 1799000   0.95818605   -6.4140376    681.50582  0.031568734  0.031469613            3 
 1800000   0.96149195   -6.4230943     682.4344  0.031594185  0.031461415            8 
 1801000    0.9729247   -6.4313556    680.26082   0.03147607  0.031453178            9 
 1802000   0.95656224   -6.4288712     681.5822   0.03151971  0.031444883            7 
 1803000   0.96732861    -6.415357    684.31879  0.031628711  0.031436683            8 
 1804000   0.97108242   -6.4247262    684.51091  0.031620053  0.031428507            5 
 1805000    0.9581221   -6.4152252    686.33167  0.031686596  0.031420345           11 
 1806000   0.96345482    -6.448542    683.07595  0.031518824  0.031412195            5 
 1807000   0.97586595   -6.4069316    683.77377  0.031533562  0.031404036            3 
 1808000   0.96492035   -6.4058869    685.37792  0.031590059  0.031395946            2 
 1809000   0.97762578   -6.4544741    683.12757  0.031468932  0.031387654            3 
 1810000   0.94931793   -6.4185811    684.03729   0.03149343  0.031379445            3 
 1811000   0.95215017   -6.4118783    685.42469  0.031539881  0.031371338            4 
 1812000   0.99404461   -6.4204373    684.42725  0.031476603  0.031363212            3 
 1813000   0.96743436   -6.4103447    686.46193  0.031552764   0.03135507            4 
 1814000   0.94962658   -6.4138391    686.49158  0.031536732  0.031347064            2 
 1815000     0.952129   -6.4203302    686.00288  0.031496918  0.031339017            3 
 1816000   0.96305633   -6.4300227    686.36919  0.031496384  0.031331006            3 
 1817000   0.95819861   -6.4291088    686.79334  0.031498502  0.031322948            4 
 1818000   0.96209619   -6.4505057    684.39525  0.031371253  0.031314692            4 
 1819000   0.94736795   -6.4306236    687.51903  0.031497115  0.031306593            6 
 1820000   0.94949682   -6.4579819    686.09564  0.031414636  0.031298534            3 
 1821000   0.97312986   -6.4551152    684.68794  0.031332965   0.03129038            5 
 1822000   0.96890733   -6.4496036    683.89777  0.031279627  0.031282036            6 
 1823000   0.95835637   -6.4679418    684.83714   0.03130541  0.031273726           11 
 1824000   0.92935066   -6.4384413    686.30667  0.031355385  0.031265548            6 
 1825000   0.96536811   -6.4201919    688.78879  0.031451543  0.031257379            4 
 1826000   0.98363114   -6.4594623    687.67225  0.031383363  0.031249394           11 
 1827000   0.95511143    -6.429797    689.47891  0.031448591  0.031241189            4 
 1828000   0.95714781     -6.44373    687.70187  0.031350377  0.031233171            4 
 1829000   0.93970443   -6.4532233    686.01267  0.031256272  0.031224991            5 
 1830000   0.97467181   -6.4375841    689.14254  0.031381719  0.031216854           10 
 1831000   0.96174093   -6.4401395    689.53061  0.031382241  0.031208608            2 
 1832000   0.95609421   -6.4053273    689.67944  0.031371881    0.0312005            6 
 1833000   0.95426344   -6.4480368    684.67956  0.031127458  0.031192228            4 
 1834000   0.96156476   -6.4400622    689.21184  0.031316423  0.031183975            3 
 1835000   0.95145079   -6.4336781    688.38933  0.031262004   0.03117574            4 
 1836000    0.9837358   -6.3976134    688.74764   0.03126124  0.031167385            4 
 1837000   0.95145149   -6.4483853    687.90204  0.031205863  0.031159135            5 
 1838000   0.96337548   -6.4160184    688.10098  0.031197904  0.031150807            4 
 1839000   0.95188465    -6.442462    688.79552  0.031212413  0.031142337            8 
 1840000   0.96517743   -6.4489468     689.7431  0.031238365  0.031134016            6 
 1841000   0.95937411   -6.4545539    690.21174   0.03124261  0.031125548            4 
 1842000   0.96497891   -6.4396691    689.35693  0.031186977  0.031117165            4 
 1843000   0.94460952   -6.4257803    688.03569  0.031110313  0.031108921            3 
 1844000    0.9606651   -6.4496174    689.86521  0.031176121  0.031100607            5 
 1845000   0.95499871   -6.4384981    690.31162  0.031179386  0.031092279            7 
 1846000   0.93972626    -6.428288    691.02363  0.031194638  0.031083881            5 
 1847000    0.9700119   -6.4252084    691.73475  0.031209833  0.031075621            2 
 1848000   0.96364864   -6.4441624    690.76946  0.031149416  0.031067329            8 
 1849000   0.95867822   -6.4367527    690.85903  0.031136607  0.031059045            2 
 1850000   0.97047673   -6.4294755    692.41889   0.03119004   0.03105088            6 
 1851000   0.96700473   -6.4445486    693.61424  0.031227005  0.031042648            6 
 1852000   0.96077625   -6.4388749    692.12536   0.03114315  0.031034281           14 
 1853000   0.94702912   -6.4459101    693.49833  0.031188088  0.031026105            4 
 1854000   0.95539685   -6.4452689    691.71371  0.031091052  0.031017883            5 
 1855000   0.95048306   -6.4520956    691.98038  0.031086271  0.031009488            8 
 1856000   0.94097228   -6.4876826    690.04411  0.030982584  0.031001189           14 
 1857000     0.963208    -6.431409    691.97823  0.031052694  0.030992683            2 
 1858000    0.9546848   -6.4227519    691.41288  0.031010624  0.030984262            4 
 1859000    0.9413269   -6.4264335    694.22124  0.031119833  0.030976129            8 
 1860000   0.94061176   -6.4117342      695.092  0.031142114  0.030967881            2 
 1861000   0.95587388   -6.4643715    692.68074  0.031017407  0.030959509            6 
 1862000   0.96960854   -6.4532246    693.49031  0.031036981  0.030951169            4 
 1863000   0.97480403   -6.4585108     691.9435  0.030951132  0.030942837            4 
 1864000   0.95739848   -6.4526145    694.26265  0.031038209  0.030934633            3 
 1865000   0.93422127   -6.4542232    696.25323  0.031110511  0.030926386           12 
 1866000   0.93994905   -6.4202969    693.56573  0.030973818  0.030918185            4 
 1867000    0.9406473   -6.4432576     694.8255  0.031013457  0.030909846            5 
 1868000   0.96037188   -6.4679092    691.94505  0.030868355  0.030901668            4 
 1869000   0.95181404   -6.4371459    695.92459  0.031029275  0.030893476            4 
 1870000   0.95668533   -6.4553543    695.38796  0.030988768  0.030885259            4 
 1871000   0.95052221   -6.4542436    695.64541  0.030983672  0.030876946            6 
 1872000   0.96595832   -6.4191832    697.88876  0.031066985  0.030868788            2 
 1873000   0.93077713   -6.4423709    696.25911  0.030977892  0.030860653            3 
 1874000   0.95644448   -6.4585614     695.9586  0.030947999  0.030852427            8 
 1875000   0.96212725   -6.5043411    694.87497  0.030883332  0.030844212           13 
 1876000   0.94896134   -6.4743067    696.82077  0.030953304  0.030835957            8 
 1877000   0.94717894   -6.4851395     697.4717  0.030965712  0.030827715            2 
 1878000   0.96112998   -6.4509097    698.03002  0.030973998  0.030819544            5 
 1879000   0.94530001    -6.435896     697.7617  0.030945614  0.030811387            4 
 1880000   0.93122702   -6.4635027    696.92659  0.030892136   0.03080326            7 
 1881000    0.9518592   -6.4558705    699.11639  0.030972727  0.030794901            4 
 1882000   0.96447084   -6.4425365     698.1807  0.030914838  0.030786765            5 
 1883000    0.9376472   -6.4358555    699.40318  0.030952522  0.030778646            4 
 1884000   0.94032073   -6.4404138    696.70692  0.030816831  0.030770456            9 
 1885000   0.96450336   -6.4429777    698.68244  0.030887818  0.030762279            2 
 1886000   0.97213514   -6.4735002    699.18142  0.030893488  0.030754058            6 
 1887000   0.94832274   -6.4811496     697.2482  0.030791742  0.030745785            9 
 1888000   0.96486937   -6.4399009    699.56771  0.030877812  0.030737576            3 
 1889000   0.95735951   -6.4547697    699.79247  0.030871381  0.030729516            3 
 1890000   0.95874272   -6.4834442    699.03585  0.030821686  0.030721328            2 
 1891000   0.95649801   -6.4485114    699.65826  0.030832816  0.030713248            8 
 1892000    0.9303245    -6.474843    700.17449  0.030839257  0.030705085            3 
 1893000   0.94415601   -6.4718165    700.98163  0.030858498  0.030696803            5 
 1894000   0.95231305   -6.4844056    701.60015  0.030869419  0.030688769            4 
 1895000   0.96124813   -6.4477556    700.25769  0.030794093  0.030680607            6 
 1896000   0.96418728   -6.4750339    699.55525  0.030746978  0.030672481            3 
 1897000   0.95470786   -6.4418308    700.08683  0.030754122  0.030664327            4 
 1898000   0.93469115   -6.4522207    702.11784  0.030827092  0.030656088            4 
 1899000   0.94900174   -6.4587277    701.87583  0.030800238  0.030648035            5 
 1900000   0.93440545   -6.4721242    698.97675  0.030656875  0.030639876            4 
 1901000   0.93817918    -6.484719    701.04595  0.030731455  0.030631556            6 
 1902000   0.95581875   -6.4765232    700.89335  0.030708611  0.030623421            4 
 1903000   0.95939482   -6.4651728    699.14344  0.030615845  0.030615264            3 
 1904000   0.93886334   -6.4349309    700.26676   0.03064893    0.0306071            3 
 1905000    0.9456596   -6.4785202    702.86903  0.030746677  0.030599025            4 
 1906000   0.96104662   -6.4760388    703.89548  0.030775423  0.030591007            4 
 1907000   0.95621799   -6.4509663    704.79758  0.030798705  0.030582892           10 
 1908000   0.94813368   -6.4406593    704.77091  0.030781399  0.030574919            3 
 1909000   0.93696131    -6.437158    704.45371  0.030751428   0.03056674            5 
 1910000   0.94095126   -6.4942818    701.61802  0.030611607   0.03055848            7 
 1911000   0.95100538   -6.5082422    702.77768  0.030646157  0.030550201           10 
 1912000   0.95465502   -6.4707812    704.82762  0.030719474  0.030541937           10 
 1913000   0.94843108   -6.4798015    702.27619  0.030592272   0.03053367            5 
 1914000   0.94169946   -6.4619318    704.16213    0.0306584   0.03052545            5 
 1915000   0.95308412   -6.4480262    704.58067  0.030660603  0.030517181            4 
 1916000   0.95058089   -6.4405974    702.43571  0.030551309  0.030508913            4 
 1917000   0.95529339   -6.4917647    704.33551  0.030617958  0.030500586            6 
 1918000   0.94224698   -6.4713826    702.58034  0.030525736  0.030492227            4 
 1919000   0.95533714   -6.4569056    702.94458  0.030525646  0.030483795            4 
 1920000   0.94407412   -6.4675097    703.34944   0.03052732  0.030475369            5 
 1921000    0.9534842   -6.4456286    704.93469  0.030580197  0.030467089            3 
 1922000   0.92874718   -6.4850654    703.37115  0.030496494  0.030458786            7 
 1923000   0.96049742   -6.4971294    704.20316  0.030516691  0.030450325            6 
 1924000   0.94928792   -6.4849205    704.81649  0.030527395  0.030441895            3 
 1925000   0.94016336   -6.4433392    707.08786  0.030609864   0.03043373            4 
 1926000   0.93219472   -6.4454643    706.30279  0.030560003  0.030425509            7 
 1927000   0.92555835   -6.4522155    703.93064   0.03044156  0.030417095            5 
 1928000    0.9234347   -6.5078524    704.09999  0.030433091  0.030408631            2 
 1929000   0.95122884    -6.461055    704.43866  0.030431945  0.030400251            7 
 1930000   0.93332498   -6.4702894    705.05332  0.030442717  0.030391743            5 
 1931000    0.9207475   -6.4704422    704.95325  0.030422633  0.030383261            4 
 1932000    0.9513473   -6.4739581    704.76589  0.030398805   0.03037472            5 
 1933000   0.93768834   -6.4532492    706.78095   0.03046995  0.030366305            9 
 1934000   0.93921629   -6.4722263    705.00895  0.030377842  0.030357902            4 
 1935000   0.92686435   -6.4718606    704.93495  0.030358956  0.030349477            7 
 1936000   0.93768017   -6.4885365    705.77367  0.030379376  0.030341023            2 
 1937000   0.94122118   -6.4661769    706.22481  0.030383101  0.030332568            5 
 1938000   0.94827975   -6.4950355     706.0176  0.030358514  0.030324094            9 
 1939000   0.94599219   -6.4592603    706.58433  0.030367214   0.03031547            9 
 1940000   0.92690734    -6.466331    705.73503  0.030315079  0.030306965            3 
 1941000   0.94801855   -6.4590633    707.15315  0.030360345  0.030298518            5 
 1942000   0.94102249   -6.5140104    705.90311  0.030291071   0.03028995            4 
 1943000   0.94876365   -6.4776598    706.85774  0.030316424  0.030281441            7 
 1944000   0.94973709   -6.4739689    706.50327  0.030285634  0.030272964            7 
 1945000   0.93000913    -6.456933       707.01  0.030291774  0.030264569            5 
 1946000   0.94117587   -6.5250262    705.72916  0.030221358  0.030256102            7 
 1947000   0.92493221   -6.5140243    706.71441  0.030248006  0.030247617            7 
 1948000   0.94655465   -6.4512578    709.78104  0.030363665  0.030239167            4 
 1949000   0.94084356   -6.5003401    708.21367   0.03028107  0.030230819            8 
 1950000   0.95844523   -6.4409732    710.62298  0.030368503  0.030222423            6 
 1951000   0.93406695   -6.4768668    708.73057  0.030272107  0.030214016            6 
 1952000   0.95678394   -6.4860473    706.47203  0.030160179  0.030205549            4 
 1953000   0.95154662   -6.4772779    709.89847   0.03029094  0.030197054           10 
 1954000   0.95504758   -6.5217579    706.93865  0.030149209  0.030188517            3 
 1955000   0.94147423   -6.5061904    707.65966  0.030164521   0.03017989            9 
 1956000    0.9129322   -6.5121784    708.63791  0.030190777  0.030171228            3 
 1957000   0.96227092   -6.4698328    709.12505  0.030196093  0.030162779            4 
 1958000   0.96049944   -6.4712322    711.17036   0.03026772   0.03015458            5 
 1959000   0.94511349   -6.4766623    708.64708  0.030144933  0.030146136            4 
 1960000    0.9184152   -6.4560214    712.24346   0.03028246  0.030137664            7 
 1961000   0.92866521   -6.4832722    707.62526  0.030070766  0.030129138            4 
 1962000   0.92290528    -6.479418    711.91694  0.030237722  0.030120762            5 
 1963000   0.93555192   -6.4719338    711.94951  0.030223701  0.030112263            3 
 1964000   0.93127479   -6.5046321    710.34825   0.03014037  0.030103834            3 
 1965000    0.9349504   -6.4853274    710.25137  0.030120923  0.030095444            3 
 1966000   0.94856005    -6.467467    710.41158  0.030112393  0.030087145            4 
 1967000   0.92683451   -6.5113371    711.39805  0.030138877   0.03007874            3 
 1968000   0.92919732   -6.4766719    714.47847     0.030254  0.030070388            4 
 1969000   0.92956436   -6.4587022    714.43832  0.030236936  0.030062126            5 
 1970000   0.90817592   -6.4756702    712.63488    0.0301453   0.03005386            3 
 1971000    0.9428765   -6.4944824    714.35856  0.030202882  0.030045564            7 
 1972000   0.93833663   -6.4795229    714.93075  0.030211746   0.03003721            5 
 1973000   0.93141873   -6.4871654     712.4228  0.030090505  0.030028786            8 
 1974000   0.93217118   -6.4893911    711.95036  0.030055318  0.030020472            3 
 1975000   0.93001711   -6.5107195    712.85331  0.030078199  0.030012156            2 
 1976000   0.92931965   -6.5247406     713.3317  0.030083152  0.030003755            3 
 1977000   0.93091305   -6.5338266    712.49156  0.030032522  0.029995345            5 
 1978000   0.96220989    -6.536056    710.36882  0.029927908  0.029986897            9 
 1979000   0.93257754   -6.5409414    713.88759  0.030060956  0.029978542            5 
 1980000   0.94171216   -6.4986878    715.43774  0.030111016  0.029970229            4 
 1981000   0.93011821   -6.5176067    715.25382  0.030088079  0.029961992            6 
 1982000   0.92702774   -6.4998169    715.36913  0.030077747  0.029953613            9 
 1983000   0.94346364    -6.518496    716.49495   0.03010989  0.029945337            6 
 1984000    0.9378644   -6.4676002     717.0188  0.030116717  0.029937019            4 
 1985000   0.92442711   -6.5005095    716.20901  0.030067549  0.029928776            6 
 1986000   0.93142561   -6.5082266    715.49754  0.030022555  0.029920531            5 
 1987000   0.95341089   -6.4623552    717.27867  0.030082145  0.029912249            5 
 1988000   0.93979454   -6.4954335    714.93168  0.029968632  0.029904034            4 
 1989000   0.95405117   -6.5129318    715.24158  0.029966548  0.029895838            4 
 1990000   0.94109069   -6.4832327    714.99333  0.029941094  0.029887571            4 
 1991000   0.93709164   -6.5047538    714.95002  0.029924243  0.029879241            5 
 1992000   0.93323859   -6.4888643    717.93398  0.030034052  0.029870862            3 
 1993000   0.93443438   -6.5109259    715.53995  0.029918881   0.02986249            5 
 1994000   0.95857351   -6.4891605    716.35004  0.029937732  0.029854156            2 
 1995000   0.93718988   -6.4840734    719.43004   0.03005138  0.029845892            4 
 1996000   0.91878356   -6.4854406    717.61897  0.029960712  0.029837705            3 
 1997000   0.94269198   -6.4970953       717.01  0.029920297  0.029829385            6 
 1998000   0.92356154   -6.5050395    717.00474  0.029905103   0.02982106            5 
 1999000   0.94077742    -6.513209    716.56317  0.029871735  0.029812763            7 
 2000000   0.92844368   -6.5248855    716.29129  0.029845471  0.029804378            4 
 2001000   0.95071691    -6.495347    718.09252  0.029905569  0.029796074            5 
 2002000   0.92797723   -6.4771003    718.74083  0.029917617  0.029787904            4 
 2003000   0.91615268   -6.5070785    718.78452  0.029904498  0.029779768            4 
 2004000   0.92686279   -6.5238483    719.33207  0.029912345  0.029771414            4 
 2005000   0.92858901   -6.5256642    719.06161  0.029886185  0.029763188            8 
 2006000   0.93853437   -6.4979022     721.0738  0.029954877   0.02975492            4 
 2007000   0.93698848   -6.4876331     719.0056  0.029854077  0.029746827            3 
 2008000   0.93218106   -6.5096336    718.62495  0.029823413  0.029738648           11 
 2009000   0.92353673    -6.509365    718.53903  0.029805004  0.029730343            3 
 2010000    0.9122983   -6.5030787    720.54778  0.029873457  0.029722025            9 
 2011000   0.92194871   -6.5167144     718.9251   0.02979136  0.029713638            5 
 2012000   0.91774747   -6.5263535    717.01486  0.029697434  0.029705187            6 
 2013000   0.91027585   -6.5079705    718.94579  0.029762618  0.029696716            5 
 2014000   0.91596415   -6.5278035    718.47664  0.029728428  0.029688236            4 
 2015000   0.92624942   -6.5261413    717.43109  0.029670434  0.029679695            4 
 2016000     0.932642   -6.5081951    719.33551  0.029734438  0.029671253            4 
 2017000   0.91416848   -6.5297493    719.70648  0.029735022  0.029662834            5 
 2018000   0.93625207   -6.5176191    718.84755  0.029684818  0.029654469            2 
 2019000   0.94907075   -6.4827722    719.09004  0.029680124   0.02964629            4 
 2020000   0.93238778   -6.5139575    721.41155  0.029761203  0.029638104            5 
 2021000   0.93024784   -6.5080656    721.78741  0.029761975  0.029629863            5 
 2022000   0.93537109   -6.4995158    719.10755   0.02963681  0.029621687            3 
 2023000   0.93359702   -6.4749558     722.7796  0.029773422  0.029613414            5 
 2024000   0.92091904   -6.5085312    722.03133  0.029727904  0.029605191            4 
 2025000   0.91911338   -6.5094193    722.63121   0.02973791  0.029596925            4 
 2026000   0.93941535   -6.4802937    724.57077   0.02980301  0.029588873            6 
 2027000   0.92618914    -6.483572    725.29167  0.029817944  0.029580807            3 
 2028000   0.92983362   -6.5109029    723.08483  0.029712559   0.02957277            4 
 2029000   0.91935186    -6.489885    722.60953  0.029678394  0.029564614            8 
 2030000   0.94024002   -6.5081351     724.5354  0.029742833  0.029556505            9 
 2031000   0.92042275   -6.4976467    723.46899  0.029684433  0.029548354            6 
 2032000   0.92810259   -6.4880382    723.74093  0.029680976  0.029540166            5 
 2033000   0.91078744   -6.5227137      722.636  0.029621086  0.029531989            3 
 2034000   0.90966564   -6.5324734    721.51351  0.029560534  0.029523616            4 
 2035000   0.91486248   -6.5392463    721.92928  0.029563034  0.029515235            5 
 2036000   0.93550801    -6.566669    723.57211  0.029615754  0.029506806            3 
 2037000   0.91268014   -6.5182302    723.81492  0.029611149  0.029498463            4 
 2038000    0.9139507   -6.5273843    723.54708  0.029585667  0.029490021            4 
 2039000   0.92164908   -6.5049803    725.39738  0.029646779    0.0294817            5 
 2040000   0.89994242   -6.5083413    725.33062  0.029629519   0.02947338            6 
 2041000   0.92746687    -6.537113    723.62709  0.029545447  0.029464999            4 
 2042000   0.93172451   -6.5345744    721.68315  0.029451647  0.029456557           20 
 2043000   0.92820681   -6.5306148    722.32841  0.029463551  0.029448228            9 
 2044000   0.91346304   -6.5437744    725.85446  0.029592892  0.029439956            6 
 2045000   0.92658549    -6.535622    724.07591  0.029505946  0.029431716            6 
 2046000   0.91045867   -6.5162599    723.39444  0.029463768  0.029423453           14 
 2047000   0.92372282   -6.5599742    726.87853  0.029591212  0.029415177            3 
 2048000   0.93050131   -6.5062298    726.60776  0.029565745   0.02940701            7 
 2049000   0.91941322   -6.5362363    726.56756  0.029549681  0.029398742            3 
 2050000   0.91420609   -6.5262086    725.03748  0.029473068  0.029390424            6 
 2051000    0.9075942   -6.5433009    723.95313  0.029414641  0.029382089            5 
 2052000   0.92180347   -6.5024383    726.00919  0.029483804  0.029373724           11 
 2053000   0.95713402   -6.5747028    724.59596  0.029412078  0.029365421            4 
 2054000   0.90398688   -6.4840309     726.0533  0.029456885  0.029357244            6 
 2055000   0.92306423   -6.5526157    727.31291   0.02949363  0.029348927            4 
 2056000   0.93656344   -6.5073648    729.12528  0.029552743  0.029340737            3 
 2057000   0.91517003   -6.5159106    727.68045  0.029479843  0.029332558            5 
 2058000   0.92442663   -6.5132447    727.99401  0.029478216  0.029324402            9 
 2059000   0.93510655   -6.5108464    727.15424  0.029429911  0.029316212            4 
 2060000    0.9191153   -6.4990109    730.33443  0.029544273  0.029308179            4 
 2061000   0.91107992   -6.5102385    730.59743  0.029540572  0.029300117            4 
 2062000   0.91569894   -6.5324328    726.80861  0.029373125  0.029291968            7 
 2063000   0.93201249   -6.5622626    726.60395   0.02935062   0.02928368            4 
 2064000   0.92457594    -6.545235     726.9252   0.02934937  0.029275445            2 
 2065000   0.93829857    -6.521327    728.41993  0.029395478  0.029267268            3 
 2066000   0.92082569   -6.5278145    729.51869  0.029425568   0.02925914            5 
 2067000   0.91505151   -6.5229841    729.73563  0.029420078  0.029250954            5 
 2068000   0.91448897    -6.501876    730.92869  0.029453929  0.029242828            5 
 2069000   0.93668679   -6.5732479    727.94362  0.029319463   0.02923465            3 
 2070000   0.89853409   -6.5413473    729.35095  0.029361955  0.029226486            4 
 2071000   0.92471086   -6.5386066    727.53761  0.029274811  0.029218257            4 
 2072000   0.90744268   -6.5576727    729.46448  0.029338179   0.02921001            5 
 2073000   0.92587443    -6.596219    728.41131  0.029281689  0.029201766            5 
 2074000   0.91239542   -6.5425538    729.58072  0.029314558  0.029193442            4 
 2075000   0.92778535   -6.5375582    729.91389  0.029313811   0.02918534            7 
 2076000   0.90603382   -6.5256613    731.81191   0.02937588  0.029177098            5 
 2077000   0.92259347   -6.5311994    730.05609  0.029291289  0.029168954            5 
 2078000   0.91471699   -6.5196722    731.07386  0.029318009  0.029160843            3 
 2079000   0.92822151   -6.5390705    732.25349   0.02935119  0.029152729            6 
 2080000   0.90049886   -6.5013626    732.37984  0.029342141  0.029144628            5 
 2081000   0.92830535   -6.5411216    731.24351  0.029282537  0.029136541            8 
 2082000   0.92826173   -6.5379009    731.25999  0.029269132  0.029128406            5 
 2083000   0.92741301   -6.5376228    732.34878  0.029298639  0.029120299            4 
 2084000   0.92651703   -6.5201223    733.20833  0.029318951  0.029112186            7 
 2085000   0.92526433   -6.5341266    730.69169  0.029204304   0.02910403            7 
 2086000   0.91917333   -6.5494827    729.65481  0.029148882  0.029095809            6 
 2087000   0.91791128   -6.5411315     732.2723  0.029239431  0.029087665            9 
 2088000   0.93680328   -6.5606911    732.27957  0.029225717  0.029079411            3 
 2089000   0.93766404   -6.5480031    732.32996  0.029213737  0.029071198            6 
 2090000   0.90678235   -6.5261572    731.65653  0.029172908  0.029062969            5 
 2091000   0.93246614   -6.5351909    730.11234  0.029097415   0.02905467           10 
 2092000   0.91846656   -6.5067886    732.33889  0.029172199  0.029046462            5 
 2093000   0.91210757   -6.5369062    732.72144  0.029173493  0.029038341            8 
 2094000   0.91736822   -6.5189131    732.52122  0.029151593  0.029030133            5 
 2095000   0.92183656   -6.5343766    733.69773  0.029184476  0.029021872            5 
 2096000   0.89723201   -6.5449873    732.42653  0.029120012  0.029013539            4 
 2097000   0.90822076   -6.5385221    732.64902  0.029114967  0.029005096            5 
 2098000   0.91052122   -6.5661751    729.72299  0.028984866   0.02899683            7 
 2099000   0.92731992    -6.566832    731.70999  0.029049944  0.028988527           17 
 2100000   0.90903917   -6.5370304    732.65759  0.029073714  0.028980218            4 
 2101000   0.91554486   -6.5594991    732.40713  0.029049942  0.028971906            6 
 2102000   0.91376307   -6.5218354    735.45598  0.029156992  0.028963682            4 
 2103000   0.90621075   -6.5159603    734.65996  0.029111585  0.028955502            8 
 2104000   0.92143649   -6.5411542    732.85838  0.029026393  0.028947185            3 
 2105000   0.90956007   -6.5234426    734.38659  0.029073103  0.028938934            7 
 2106000   0.89799824   -6.5452479     736.0676  0.029125815  0.028930756            4 
 2107000    0.9171059   -6.5191034     734.7985  0.029061798  0.028922566            4 
 2108000   0.90996591   -6.5526341    735.07071  0.029058773  0.028914371            4 
 2109000   0.92875603   -6.5536493    732.83594  0.028956691  0.028906039            5 
 2110000    0.8923749   -6.5542596    735.19734   0.02903623  0.028897639            3 
 2111000   0.94737365   -6.5404055    734.42485  0.028991981  0.028889438            5 
 2112000   0.91885765   -6.5449132    734.81533  0.028993661  0.028881188            5 
 2113000   0.91851955   -6.5571098     734.0037  0.028947929  0.028872997            5 
 2114000   0.89343067   -6.5264188    733.71667  0.028922921  0.028864748            3 
 2115000   0.89544567   -6.5277578    733.86808  0.028915212   0.02885645           11 
 2116000   0.91876214   -6.5223865    733.45675  0.028885348  0.028848201            7 
 2117000   0.91147791   -6.5535008    733.36209  0.028867977  0.028839915            7 
 2118000   0.90844931   -6.5501497    734.88143  0.028914126  0.028831546           10 
 2119000   0.93069776   -6.5582421    734.96111  0.028903615  0.028823165            7 
 2120000   0.90714883   -6.5645658    734.65001  0.028877752  0.028814794            3 
 2121000   0.90945165   -6.5778707    735.45202  0.028895647  0.028806354           11 
 2122000   0.88508247   -6.5798704    735.40487  0.028880179   0.02879792            5 
 2123000   0.89557892   -6.6007066    732.49675  0.028752424  0.028789619            4 
 2124000   0.91527083   -6.5602698    734.63832   0.02882291  0.028781228            7 
 2125000   0.89969862   -6.5410822    736.56196  0.028884783  0.028772971            4 
 2126000   0.90870834   -6.5384808     735.3511  0.028823734  0.028764713            5 
 2127000   0.91775432   -6.5649881    736.46594  0.028853861  0.028756487            6 
 2128000   0.91350699   -6.5688631    736.83566   0.02885478  0.028748148            5 
 2129000   0.89558236    -6.545883    736.25931  0.028818667  0.028739804            5 
 2130000   0.90047902   -6.5553145    735.75918   0.02878557  0.028731465            5 
 2131000   0.91919251   -6.5931691    736.49478  0.028800828  0.028723093            6 
 2132000   0.92402613   -6.5818777    734.17187  0.028696524  0.028714705            6 
 2133000   0.91498112   -6.5739879    736.10006  0.028758402  0.028706417            6 
 2134000   0.91210664   -6.6071976    736.69204  0.028768043  0.028698218            2 
 2135000   0.91126283   -6.5357256     737.7019  0.028793985  0.028689979            7 
 2136000   0.90986061   -6.5706219    736.41152  0.028730162  0.028681758            4 
 2137000   0.91439935   -6.5959682    735.85323  0.028694948  0.028673443            6 
 2138000   0.90744437   -6.5600658    738.90291  0.028800394  0.028665104            3 
 2139000   0.90843212   -6.5747044    737.33453  0.028725827  0.028656969            5 
 2140000   0.88005934   -6.5626115    737.97298  0.028737266  0.028648831            8 
 2141000   0.90659429   -6.5644216    739.40925  0.028779747  0.028640689            4 
 2142000   0.91630917   -6.5717522    739.17493  0.028757195  0.028632699            3 
 2143000   0.90745307   -6.5258302    741.35647  0.028828607  0.028624636            5 
 2144000   0.90603206   -6.5338569    742.26433  0.028850448  0.028616622            7 
 2145000   0.92705807   -6.5428781    743.53075  0.028886198  0.028608661            3 
 2146000   0.93732793   -6.5487083    739.99578  0.028735468  0.028600628            4 
 2147000   0.88933415   -6.5549074    740.40514  0.028737973  0.028592512            8 
 2148000   0.91543722    -6.557853    741.05031  0.028749624  0.028584331            6 
 2149000   0.90200865   -6.5334682      742.743  0.028801884  0.028576241            6 
 2150000   0.90172925   -6.5716736    740.52458  0.028702503  0.028568144            3 
 2151000   0.90070632   -6.5455175    743.10214  0.028789018  0.028559969            4 
 2152000   0.88991038   -6.5691252    741.59602  0.028717318  0.028551751            7 
 2153000    0.9079163    -6.567435    743.29135  0.028769598  0.028543645           12 
 2154000   0.89469054   -6.5431804    742.05059   0.02870824  0.028535487            6 
 2155000   0.89551221   -6.5560185    741.95241  0.028691122  0.028527367           11 
 2156000   0.92440579   -6.5717945    741.78338  0.028671281  0.028519191            8 
 2157000   0.89570596   -6.5710471    740.71813  0.028616834  0.028510996           11 
 2158000     0.911498   -6.5519761    744.60892   0.02875382   0.02850285            8 
 2159000   0.89590395   -6.5230605    743.93676  0.028714558  0.028494791            5 
 2160000   0.91143712   -6.5610149    740.72924  0.028577517  0.028486625            4 
 2161000   0.90237409      -6.5584    742.09423   0.02861693  0.028478459            7 
 2162000   0.90442185   -6.5822793     740.5498  0.028544164  0.028470168            2 
 2163000   0.91139239   -6.5543265    740.72674  0.028537785  0.028461858            7 
 2164000   0.91626057   -6.5684526    741.88914   0.02856936  0.028453559            6 
 2165000   0.92131733    -6.573279    741.45055  0.028539282  0.028445307            6 
 2166000   0.88786128   -6.5865866    743.49609  0.028604805  0.028437005           13 
 2167000   0.90095035   -6.5994325    741.32214  0.028508004  0.028428633            6 
 2168000   0.90232417   -6.5969265    740.27533  0.028454617  0.028420377            5 
 2169000   0.91451111   -6.6051696    743.55378  0.028567457  0.028412035            3 
 2170000   0.90195436   -6.5741979    739.95475  0.028416081  0.028403753            5 
 2171000    0.9017356   -6.5724204    743.40998   0.02853562  0.028395451            9 
 2172000   0.90328005   -6.5734449    741.14244  0.028435484  0.028387114            4 
 2173000   0.91529479   -6.5736169    742.78083  0.028485229  0.028378879            7 
 2174000   0.89412156   -6.5698539    743.77306   0.02851016  0.028370613            7 
 2175000   0.88201227   -6.5786259    743.25287  0.028477122  0.028362394            7 
 2176000   0.87172356   -6.6235041    739.60504  0.028324335  0.028354093           13 
 2177000   0.89462962   -6.5711858    742.54913  0.028424021  0.028345719            8 
 2178000   0.91606489   -6.5994664    742.35941  0.028403712   0.02833748            6 
 2179000   0.90107851   -6.6114185    741.15712  0.028344696   0.02832911            5 
 2180000   0.89974852   -6.6021799    742.64773  0.028388675  0.028320745            6 
 2181000   0.87797322   -6.6330662    740.50581  0.028293818  0.028312381            4 
 2182000   0.88856615    -6.590168    743.15021  0.028381844  0.028303995            6 
 2183000   0.92998402   -6.6383415    740.83297  0.028280385  0.028295593           12 
 2184000   0.89068558   -6.5987879    742.01106  0.028312388  0.028287205           10 
 2185000   0.92581523   -6.5964822    743.13668   0.02834236   0.02827882            6 
 2186000   0.90289321   -6.5914348    745.17235  0.028406997  0.028270548           12 
 2187000   0.88545173   -6.5981571    744.64481  0.028373907  0.028262259            6 
 2188000   0.91955026   -6.5985458    743.79674  0.028328639   0.02825395            4 
 2189000    0.8919402   -6.5572849    747.06529  0.028440128  0.028245678            8 
 2190000   0.89556283   -6.5538575    745.30101  0.028360008  0.028237504            3 
 2191000   0.88278694    -6.534298    748.78019  0.028479393  0.028229332            4 
 2192000   0.90640953   -6.5570967    746.23869   0.02836978  0.028221124            5 
 2193000   0.89954312   -6.5651252    744.49867  0.028290723   0.02821286            7 
 2194000   0.90838915   -6.5889583    744.56243   0.02828025  0.028204457            8 
 2195000   0.90595762   -6.5684505    745.52437  0.028303887  0.028196153            5 
 2196000   0.89208773   -6.5497461    745.34232  0.028284089   0.02818782           20 
 2197000   0.91363092   -6.5902713     745.8303  0.028289724  0.028179522           11 
 2198000   0.90217683   -6.5747098     746.0553  0.028285384  0.028171216            3 
 2199000   0.89687812   -6.5775456    745.50418  0.028251636  0.028162909            5 
 2200000   0.90516462   -6.6100755     745.0828  0.028222833  0.028154547            6 
 2201000    0.9029377   -6.5891997    746.46527  0.028262353  0.028146168            8 
 2202000   0.92958582   -6.5865381    743.87893   0.02815164  0.028137708            9 
 2203000   0.90841232   -6.5971603    741.37715  0.028044226  0.028129164            3 
 2204000   0.90539254   -6.5952958    744.15764  0.028136632  0.028120617            5 
 2205000   0.89817814   -6.5943018    743.96435  0.028116567  0.028112212            4 
 2206000    0.8967955   -6.5834957    745.09168  0.028146407  0.028103802            5 
 2207000   0.90491163   -6.6002402    746.06047  0.028170234  0.028095384            6 
 2208000   0.88387371   -6.5641456    746.43188  0.028171493  0.028087002            7 
 2209000   0.89935279   -6.5890423    746.48714  0.028160825  0.028078545            6 
 2210000   0.89720005   -6.5928024    746.26782  0.028139812  0.028070075           14 
 2211000   0.90706765   -6.5967163    745.11417  0.028083603  0.028061597            6 
 2212000   0.88573385   -6.5990846     746.1981  0.028111743  0.028053189            2 
 2213000    0.8841724   -6.5749772    746.38596  0.028106114  0.028044791            5 
 2214000   0.91159427   -6.5779086      747.716  0.028143481  0.028036417            4 
 2215000   0.91568583   -6.5954141    745.77917  0.028057907  0.028028016            7 
 2216000   0.89973882     -6.59228    747.25001  0.028100557  0.028019613            6 
 2217000   0.88885606   -6.5683605    749.80127   0.02818378   0.02801125            5 
 2218000   0.91172443   -6.5832744    747.53315  0.028085856  0.028002914            6 
 2219000   0.90080788   -6.5978118     746.2008  0.028023164  0.027994554            4 
 2220000   0.89294771   -6.6105137    748.88464  0.028111285  0.027986084            4 
 2221000     0.925162   -6.5948649    747.34182  0.028040741  0.027977701            8 
 2222000    0.9007121   -6.6210665       748.07   0.02805543  0.027969317            9 
 2223000   0.90890251   -6.5912157    748.01679  0.028040815   0.02796091            7 
 2224000   0.89729207   -6.5693432    749.54532  0.028085481  0.027952528            7 
 2225000   0.89778976   -6.6194195    747.15294  0.027983256  0.027944121           14 
 2226000   0.91510985   -6.5713839    746.92717  0.027962233  0.027935708            5 
 2227000   0.88835439   -6.5985113    746.35146  0.027928134   0.02792733            5 
 2228000   0.88892517   -6.6346845    746.06902  0.027905035  0.027918887            5 
 2229000   0.89146194   -6.6232419    747.22553  0.027935753  0.027910404            8 
 2230000   0.88989773   -6.6179994    747.14109  0.027920071  0.027901977            4 
 2231000    0.9023703   -6.5781855    748.45343  0.027956575  0.027893562            3 
 2232000   0.86364036   -6.5737632    749.33691  0.027977035  0.027885223            3 
 2233000   0.90279471   -6.5917388    749.03591  0.027953273  0.027876953            5 
 2234000   0.90105374   -6.6145928    749.54591  0.027959785  0.027868708            5 
 2235000   0.89192594   -6.6028578    751.45256  0.028018365  0.027860368            8 
 2236000   0.88231119   -6.6064019    750.87784  0.027984415  0.027852018            7 
 2237000   0.89323692   -6.6006627    750.66269  0.027963891  0.027843664           14 
 2238000   0.88165559   -6.5975734    749.35486  0.027902698  0.027835346            7 
 2239000    0.8924861   -6.6076887    750.83591  0.027945359  0.027826971            4 
 2240000   0.88822959   -6.6139289    749.12625   0.02786928  0.027818778            3 
 2241000   0.89839061   -6.5953741    750.33291  0.027901715  0.027810555            4 
 2242000   0.89073037   -6.6014842    751.05677  0.027916175  0.027802354            7 
 2243000   0.90322343   -6.6108872    748.85243  0.027821832  0.027794058            6 
 2244000   0.89660873   -6.5619302    752.10219  0.027930117  0.027785759            4 
 2245000   0.88509214   -6.6389218    747.90932  0.027762039  0.027777405           21 
 2246000   0.89876073   -6.6487181    746.90479  0.027712407  0.027769064           11 
 2247000   0.89638869   -6.6337008    749.17922  0.027784424  0.027760687            9 
 2248000   0.90028039   -6.6113083    750.18371  0.027809301  0.027752418            4 
 2249000   0.87802264   -6.6111394    752.71486  0.027890724  0.027744153            4 
 2250000   0.88048927   -6.6182998    750.77387   0.02780644   0.02773586            9 
 2251000   0.89677297   -6.5845646    751.86765  0.027834579  0.027727574            4 
 2252000   0.90572022   -6.6121709    751.09188  0.027793513  0.027719225            4 
 2253000   0.89306674   -6.5860422    753.01138  0.027852174    0.0277109            1 
 2254000   0.89711026   -6.5972579    752.78721  0.027831529  0.027702532            5 
 2255000   0.90733021   -6.6042397    751.82537  0.027783643  0.027694204           12 
 2256000   0.88179335   -6.6218557    752.76284  0.027805956  0.027685942            3 
 2257000   0.88935671   -6.5948504    753.30778  0.027813756  0.027677693            7 
 2258000   0.89356854   -6.6210854      751.202  0.027723723  0.027669356            5 
 2259000   0.90572531   -6.5856823    753.39846  0.027792477  0.027661009            4 
 2260000   0.88121262    -6.616706    752.26649   0.02773844   0.02765276            7 
 2261000   0.88465715    -6.591127    753.16107  0.027759143  0.027644546           11 
 2262000   0.88409565     -6.59397    754.00099  0.027777814  0.027636315            5 
 2263000   0.89800788    -6.576602    755.39576  0.027816901  0.027628125            6 
 2264000   0.87504879   -6.5894965    751.67775  0.027667762  0.027619929            5 
 2265000   0.89014783   -6.6041839    752.72765  0.027694174  0.027611636           11 
 2266000   0.87564695    -6.616021    753.53619  0.027711687  0.027603439            5 
 2267000   0.90103956   -6.6131812    754.68888  0.027741835  0.027595218            5 
 2268000   0.88285637   -6.6494736    751.51607  0.027613024  0.027586964            4 
 2269000    0.8984407   -6.6628365    751.66696  0.027606396  0.027578709           10 
 2270000   0.89337301   -6.6540052    751.84749  0.027600862  0.027570368            6 
 2271000   0.88406772    -6.603059    753.95302   0.02766597  0.027561963            7 
 2272000   0.88648493   -6.5919456    752.78289  0.027610875  0.027553592           11 
 2273000   0.90009059   -6.6287776    754.86509  0.027675066  0.027545288            6 
 2274000   0.89342618   -6.6137777    753.42943  0.027610284  0.027536998            5 
 2275000   0.90267271   -6.6214694    754.85066  0.027650207  0.027528823            5 
 2276000   0.87139825   -6.5950035    755.49311  0.027661582  0.027520625            5 
 2277000   0.89734334   -6.5915516    754.64338  0.027618335   0.02751239            5 
 2278000    0.8912753   -6.6626043    753.30023  0.027557076  0.027504075            5 
 2279000   0.88422879   -6.6417941    753.65447  0.027557937  0.027495795            6 
 2280000   0.88044984   -6.6240301    753.82274  0.027552001  0.027487591            3 
 2281000   0.87545881   -6.6309256     754.9688  0.027581791   0.02747937           11 
 2282000   0.89311078   -6.5860669    757.71814  0.027670104  0.027471156            6 
 2283000   0.86891092   -6.6466375    755.78431  0.027587396  0.027462952            4 
 2284000   0.88536104   -6.6889682      754.854  0.027541375  0.027454531            5 
 2285000   0.88705653   -6.6159569    755.51409  0.027553395  0.027446182            4 
 2286000   0.90245903   -6.6337347    753.42569  0.027465212  0.027437857            5 
 2287000   0.86218962   -6.6043733    755.44135  0.027526649  0.027429612            5 
 2288000   0.90172339   -6.6140401    754.36406  0.027475381  0.027421329            9 
 2289000   0.88802072   -6.6302876    757.56281  0.027579831  0.027412994            6 
 2290000   0.87063772   -6.6559324    756.08649  0.027514064  0.027404763            9 
 2291000   0.88623457   -6.6426346    755.22775  0.027470819  0.027396429            7 
 2292000   0.88257298   -6.6404983    755.23888  0.027459238  0.027388017            8 
 2293000   0.88344369    -6.635989    754.54529  0.027422056  0.027379705           16 
 2294000   0.87692116   -6.6152159    753.79429  0.027382821  0.027371344           11 
 2295000   0.87736357   -6.6584042    753.97674  0.027377514  0.027362983            7 
 2296000   0.88250727   -6.6284804    755.52019   0.02742161  0.027354626            4 
 2297000   0.87144232   -6.6623499    755.18483  0.027397505  0.027346217           10 
 2298000   0.88262218   -6.6075404    757.05051  0.027453239  0.027337884            2 
 2299000   0.89607731   -6.6558887    753.83255  0.027324654  0.027329484            7 
 2300000   0.88936234   -6.6277433    754.95466   0.02735343    0.0273211            7 
 2301000   0.89448676   -6.6940335    754.30348  0.027317959  0.027312694            7 
 2302000   0.88660828   -6.6477431    755.31697  0.027342781  0.027304256            5 
 2303000   0.88101754   -6.6363599    756.64501  0.027378963  0.027295818            5 
 2304000   0.86596893   -6.6168938    756.20663  0.027351224  0.027287379            5 
 2305000   0.89920427   -6.6264646    757.72319  0.027394186  0.027278975            4 
 2306000    0.8841403   -6.6490354    755.82596  0.027313745  0.027270583            4 
 2307000   0.87166848   -6.6552103    754.25671  0.027245222   0.02726213           13 
 2308000   0.86277891   -6.6398208    756.59081  0.027317693    0.0272537            7 
 2309000   0.87599172   -6.6496927    755.57872  0.027269334  0.027245318            5 
 2310000    0.8912006   -6.6421937    757.03371  0.027310018  0.027236922            3 
 2311000   0.89524951   -6.6278107    756.76988  0.027288688  0.027228521            6 
 2312000   0.89429323   -6.6441782    755.12181  0.027217482  0.027220124            4 
 2313000   0.89092463   -6.6473155    757.50619  0.027291619  0.027211727           12 
 2314000   0.88009088   -6.6448061    754.99994  0.027189569   0.02720331            5 
 2315000    0.8798919   -6.6317313    754.88563  0.027173709   0.02719491           10 
 2316000   0.88483794   -6.6470053    758.33028   0.02728592   0.02718659           11 
 2317000   0.87681051   -6.6136327    760.25237  0.027343273   0.02717828            8 
 2318000   0.87692797   -6.6388861    757.79873  0.027243267  0.027169914            5 
 2319000   0.87567461   -6.6484798    755.66094  0.027154698  0.027161508            6 
 2320000   0.87677452   -6.5834689    761.87941  0.027366358   0.02715317            4 
 2321000   0.87728872   -6.6517248     758.4468  0.027231323  0.027144822            9 
 2322000   0.89747558   -6.6414664    758.11054  0.027207527  0.027136414            7 
 2323000    0.8847906   -6.6369495    759.43117   0.02724319   0.02712799            5 
 2324000   0.86941629   -6.6433581    758.36478  0.027193229  0.027119701            4 
 2325000   0.87007171   -6.5973099    760.21966  0.027248016  0.027111332            3 
 2326000   0.88109556   -6.6001352    759.14515  0.027197805  0.027103083            5 
 2327000   0.88476182   -6.6134296    760.26336  0.027226163  0.027094775            9 
 2328000   0.87642477   -6.6557244    758.28729  0.027143732  0.027086397            9 
 2329000   0.87465402   -6.6392558    757.73058  0.027112158  0.027077979            6 
 2330000   0.87940755   -6.6880817    755.40698  0.027017417  0.027069495            6 
 2331000    0.8553593   -6.6684581    756.92513    0.0270601  0.027061067           10 
 2332000   0.87145904   -6.6514915    758.88839  0.027118653  0.027052698            6 
 2333000   0.86999178   -6.6242334    759.21491  0.027118692   0.02704439            6 
 2334000   0.87724275   -6.6659535    760.48365  0.027152373  0.027036032            5 
 2335000   0.86120978   -6.6655178    758.80034  0.027080669  0.027027667            4 
 2336000   0.87326316   -6.6883211    756.90835  0.027001582  0.027019243            9 
 2337000   0.88536448   -6.6388875    758.47776  0.027045991  0.027010858           12 
 2338000   0.86591154   -6.6261942    760.80025  0.027117203  0.027002544            4 
 2339000    0.8826646   -6.6547949    759.67952   0.02706568  0.026994179            4 
 2340000   0.86945038   -6.6513506    759.73549  0.027056107  0.026985867           15 
 2341000   0.87012146    -6.662227     761.4867  0.027106888  0.026977416            6 
 2342000   0.87394212   -6.6371827    761.27099  0.027087639  0.026969068            7 
 2343000   0.87220077   -6.6480669    758.76845   0.02698707  0.026960765            5 
 2344000   0.88801713   -6.6714213     759.0727  0.026986373  0.026952299           13 
 2345000   0.88720612   -6.6685741    759.03305  0.026973456  0.026943826            6 
 2346000   0.85654877   -6.6759586    757.12239  0.026894089  0.026935354            5 
 2347000   0.87682925   -6.6231102    762.70738  0.027080932  0.026926979            5 
 2348000   0.85931537   -6.6411216    762.63251  0.027066742  0.026918692            5 
 2349000   0.86829614   -6.6601216    759.83197  0.026955867  0.026910345            4 
 2350000   0.86633511   -6.6613152    759.25257   0.02692385  0.026902045            7 
 2351000   0.89370291   -6.6563833    762.24823  0.027018582  0.026893782            3 
 2352000   0.85813245   -6.6425293    761.54551  0.026982196  0.026885558            5 
 2353000   0.86844008   -6.6775201    757.46436  0.026826192  0.026877257            7 
 2354000   0.88016566   -6.6830737     758.9963  0.026869028  0.026868901           11 
 2355000    0.8868768   -6.6686164    761.90411  0.026960514  0.026860607            7 
 2356000   0.89751057   -6.6307765    762.03993  0.026953874   0.02685229           25 
 2357000   0.86890651   -6.6689784    761.85682  0.026935964  0.026843933            4 
 2358000   0.87221415   -6.6713001     760.0418  0.026860397  0.026835598           12 
 2359000   0.85942328   -6.6463997    761.25516  0.026891874  0.026827366            6 
 2360000    0.8900986   -6.6742962     763.3858  0.026955713  0.026819138           15 
 2361000   0.87978426   -6.6616554    760.92277  0.026857362  0.026810852            7 
 2362000   0.87982317   -6.6682178    761.21795  0.026856405  0.026802602           11 
 2363000   0.85344099    -6.655682    763.13132  0.026912516  0.026794269            4 
 2364000   0.84218542   -6.6859157    761.20944  0.026833384   0.02678589           10 
 2365000   0.86930685   -6.6561974    762.92845  0.026882609  0.026777572           10 
 2366000   0.86067201   -6.6517445    763.79883  0.026901903  0.026769236            7 
 2367000   0.86337968   -6.6592173     763.3927  0.026876239  0.026760864            8 
 2368000   0.86524245    -6.658989    761.99303  0.026815633  0.026752508           12 
 2369000   0.88127324   -6.6947443    759.58123  0.026719475  0.026744085           10 
 2370000   0.87997852   -6.6455046    765.81945  0.026927547  0.026735785            2 
 2371000   0.88448457   -6.6248435    763.42236   0.02683194  0.026727529            8 
 2372000   0.87518017   -6.6282211    764.42001  0.026855678  0.026719225            6 
 2373000   0.88196159   -6.6601923    764.25509  0.026838569  0.026710914            8 
 2374000   0.87621587   -6.6911742    763.49012  0.026800411  0.026702547           14 
 2375000   0.86738527   -6.6548711    763.87099  0.026802491  0.026694194            8 
 2376000   0.86846764   -6.6548448    762.12906  0.026730116  0.026685848            4 
 2377000   0.87204564   -6.6483811     762.7562  0.026740857  0.026677495            3 
 2378000   0.86295076   -6.6988008    762.10942  0.026706946   0.02666922           11 
 2379000   0.86480644   -6.6540383    763.20978  0.026734264    0.0266609            6 
 2380000   0.88160094   -6.6909197    763.44304  0.026731199  0.026652578           10 
 2381000   0.87143471   -6.6614994    763.01103  0.026704852  0.026644253            5 
 2382000   0.88224114   -6.6711276    763.65417  0.026716141  0.026635965            5 
 2383000   0.86793486   -6.6690889    762.59109  0.026667754  0.026627649            3 
 2384000   0.85263377   -6.6318312    763.99524   0.02670565  0.026619289            5 
 2385000   0.85758811    -6.678921    761.36976  0.026602717  0.026610962            6 
 2386000   0.87046846   -6.6724483    764.15643  0.026688895  0.026602624           14 
 2387000   0.87265792   -6.6603543    762.69085  0.026626548  0.026594276            4 
 2388000    0.8950826   -6.7064233    762.63395  0.026613412  0.026585934            6 
 2389000   0.85293045   -6.6836377    763.07807  0.026617764  0.026577546            4 
 2390000    0.8714111   -6.6811946    763.41456   0.02661836  0.026569213            4 
 2391000    0.8757113   -6.6823444    764.84354  0.026657031  0.026560861            3 
 2392000   0.87545806   -6.6446254    766.14696  0.026691296  0.026552462           13 
 2393000   0.86894093   -6.6514671    766.93548  0.026707601  0.026544099            4 
 2394000   0.87188465    -6.677522    765.54532  0.026648055  0.026535812            7 
 2395000   0.88825524   -6.6734053    763.18307  0.026554734  0.026527485            5 
 2396000   0.86301456   -6.6738581    764.44687  0.026587607   0.02651911            4 
 2397000   0.85462215   -6.6811624    764.41246  0.026575318  0.026510718            5 
 2398000   0.85397626   -6.6996305    765.02999  0.026585696  0.026502363           19 
 2399000   0.87553339   -6.7003635    763.24502   0.02651261  0.026493916            7 
 2400000   0.86028279    -6.669824    765.14996  0.026567707  0.026485524            4 
 2401000   0.86069465   -6.6956586    765.22955  0.026559404  0.026477239            4 
 2402000   0.85572808   -6.6752788    764.80399  0.026533583  0.026468905            7 
 2403000   0.86430564   -6.6880199    763.58065  0.026480117  0.026460541            7 
 2404000   0.86312702   -6.7031156    764.06987   0.02648606  0.026452076            5 
 2405000   0.87816858   -6.6810506    764.12651   0.02647701  0.026443683            9 
 2406000   0.89622659   -6.7152275    763.07365  0.026429539  0.026435392           13 
 2407000   0.84854949   -6.6988039    763.93979  0.026448546  0.026427063            4 
 2408000   0.86368636   -6.7216695    764.81471   0.02646784  0.026418732            5 
 2409000   0.86950155   -6.6350643    767.45425  0.026548161  0.026410482           14 
 2410000   0.87021256   -6.6574335     767.7332  0.026546791  0.026402214            7 
 2411000   0.85866625   -6.6594682    766.61477  0.026497123  0.026393995            5 
 2412000   0.86172731   -6.6988356    765.77869  0.026457252  0.026385764            6 
 2413000   0.85609928   -6.6890503    764.35993   0.02639729  0.026377496            8 
 2414000   0.85519796   -6.7187251    765.09667  0.026411788  0.026369137            9 
 2415000   0.86850472   -6.6502326     766.2707  0.026441363  0.026360798            6 
 2416000   0.86776351    -6.684114    767.83976  0.026484539  0.026352552            6 
 2417000   0.87058884   -6.6521078    768.75295  0.026505067  0.026344293            7 
 2418000    0.8746472   -6.6797122    767.76393   0.02646002  0.026336031            4 
 2419000   0.86969489   -6.6566499    769.16556  0.026497367  0.026327779            5 
 2420000   0.88381992   -6.6836099    767.22247  0.026419506  0.026319437           13 
 2421000   0.90692247   -6.6927235    765.62809  0.026353714  0.026311067            4 
 2422000   0.87665438   -6.6995141    765.42387  0.026335806  0.026302696            8 
 2423000   0.86935889   -6.6739619    764.30957  0.026286613  0.026294273            6 
 2424000    0.8452013   -6.6866137    766.65784  0.026356499  0.026285919            4 
 2425000   0.85939754   -6.6930978    767.44466  0.026372669  0.026277522            6 
 2426000   0.87200456    -6.665778    766.98566  0.026346031  0.026269232            5 
 2427000   0.85451488   -6.6944923    768.91158  0.026401304  0.026261001            5 
 2428000   0.88275887   -6.6795548    769.81872  0.026421565  0.026252815            8 
 2429000   0.85605909   -6.6700054    770.86871   0.02644671  0.026244589            5 
 2430000   0.87015722   -6.6913894    768.80404  0.026365022  0.026236354            6 
 2431000   0.84710332   -6.6700214     768.2351  0.026334673  0.026228136            8 
 2432000   0.85521195    -6.678028    768.54711  0.026334536  0.026219838            9 
 2433000   0.86476389   -6.6674332    769.22583  0.026346959  0.026211589           11 
 2434000   0.86778273   -6.6864152    770.60133  0.026383228  0.026203358            9 
 2435000   0.84740451   -6.6971432    768.23173  0.026291298  0.026195079            8 
 2436000   0.86401849   -6.6914519    769.40746  0.026320726  0.026186799            6 
 2437000   0.86603555   -6.6832832    770.43043  0.026344906  0.026178536            4 
 2438000   0.86660087   -6.7257121    767.17107  0.026222692  0.026170262            4 
 2439000   0.86741146   -6.7322295    767.48763  0.026222756  0.026161983            5 
 2440000   0.86894599     -6.71036    765.98752  0.026160776  0.026153615           10 
 2441000   0.86497341   -6.7160808     769.8452  0.026281756  0.026145376           10 
 2442000   0.85051607   -6.6998154     768.6788   0.02623119  0.026137154            4 
 2443000   0.86562005   -6.6980704    771.09194  0.026302768  0.026129017            7 
 2444000   0.85851216   -6.6829973    771.38705  0.026302068  0.026120864            9 
 2445000   0.88225978   -6.6707153    772.79117  0.026339167  0.026112677            7 
 2446000   0.85122795   -6.7164785    771.51175   0.02628481  0.026104532            4 
 2447000   0.85498806    -6.715528    770.43209  0.026237301  0.026096349            7 
 2448000   0.85225196   -6.7067552    768.08941  0.026146834   0.02608811            9 
 2449000   0.86597194   -6.7207078    770.70853   0.02622528  0.026079963            3 
 2450000   0.86563371   -6.6886737    769.36918   0.02616902  0.026071686            4 
 2451000   0.84514121   -6.6876254     770.5397   0.02619814  0.026063492            6 
 2452000   0.85956223   -6.6702088    772.72606  0.026261761  0.026055348            8 
 2453000   0.88648988   -6.6569622    774.88299  0.026324331  0.026047373            4 
 2454000   0.86816231   -6.6730674    773.11921  0.026253709  0.026039339            5 
 2455000   0.87230988   -6.6826506    772.25088   0.02621354  0.026031229            9 
 2456000   0.85761443   -6.7068662    771.32189  0.026171345  0.026023124            9 
 2457000   0.85868477   -6.6914092    772.42459  0.026198094  0.026015007            3 
 2458000   0.85844346   -6.6726172    771.71611  0.026163416  0.026006852            8 
 2459000   0.88369215    -6.707486    774.33531  0.026241538   0.02599872            6 
 2460000   0.86760974   -6.6782804    774.69557  0.026243075  0.025990605            8 
 2461000   0.87111475   -6.7178938    771.60732  0.026127838  0.025982451            4 
 2462000   0.83245823   -6.7426032    769.49565   0.02604575  0.025974247           16 
 2463000   0.87141379   -6.7146643    771.62753  0.026107306  0.025966073            4 
 2464000   0.85887153   -6.6886643    773.25735  0.026151831  0.025957958           14 
 2465000   0.85619984   -6.7169559    771.05826  0.026066878  0.025949813            4 
 2466000    0.8713861   -6.6814874    773.90643  0.026152556  0.025941722            8 
 2467000   0.83551395   -6.7341284    772.54351  0.026095917  0.025933639            9 
 2468000   0.86935595   -6.6993401    773.14831  0.026105764  0.025925543            2 
 2469000   0.84663506   -6.6882582    774.18129  0.026130056   0.02591749           14 
 2470000   0.83346035   -6.7123769    772.65734  0.026068062  0.025909398            9 
 2471000   0.87767325   -6.7170936    774.63774    0.0261243  0.025901382            8 
 2472000   0.87478595   -6.6668372    777.13206  0.026197818  0.025893381            8 
 2473000   0.85928502   -6.7078397    773.51198  0.026065237  0.025885436           20 
 2474000   0.85484188   -6.7104792    774.26427  0.026080041  0.025877439            5 
 2475000   0.85134227   -6.6794671     773.9365  0.026058468  0.025869424            8 
 2476000   0.84300075   -6.6652745    776.23411  0.026125273  0.025861441           11 
 2477000   0.86854671    -6.715951    776.06156  0.026108921  0.025853449            6 
 2478000   0.85869249   -6.6781413    774.61244  0.026049652  0.025845451            4 
 2479000   0.87989488   -6.6797636    774.61893  0.026039362  0.025837458            6 
 2480000   0.84835384   -6.6812841    775.81389  0.026069015    0.0258294           11 
 2481000   0.86121301    -6.709539    773.64367  0.025985613  0.025821344           18 
 2482000   0.85367992   -6.6952385      774.621  0.026007957  0.025813342            9 
 2483000   0.84783231   -6.6969263     776.4837  0.026059998   0.02580531            5 
 2484000   0.86465901   -6.7047736    775.90749  0.026030176  0.025797323            5 
 2485000   0.84646239   -6.7199888    775.22295  0.025996746  0.025789224            8 
 2486000   0.83547329   -6.7061411    774.61839  0.025966023  0.025781155            7 
 2487000   0.84450221   -6.7012033    776.99057  0.026035068  0.025773104            5 
 2488000   0.84519399   -6.7170629    777.08027  0.026027608  0.025765065           17 
 2489000   0.85072024   -6.7084212    777.24515  0.026022671   0.02575698            8 
 2490000   0.85088031   -6.7104598     773.6871  0.025893142  0.025748967           18 
 2491000    0.8398356   -6.6935442    774.89356  0.025923109  0.025740892            4 
 2492000    0.8526361   -6.7584369    774.53687  0.025900778  0.025732806            9 
 2493000   0.84840753   -6.7450778    775.82098  0.025933313  0.025724782           19 
 2494000   0.85867239   -6.7123284    774.74987  0.025887125  0.025716739            4 
 2495000   0.85256189   -6.6976596    777.63071   0.02597297  0.025708778            6 
 2496000   0.83991143   -6.7198015    776.73095  0.025932524  0.025700808            7 
 2497000   0.85173837   -6.7031034    778.71021  0.025988193  0.025692833            7 
 2498000   0.84237627   -6.7406983    774.00085  0.025820685  0.025684831            5 
 2499000    0.8515372   -6.7306136    775.76417  0.025869153  0.025676794            4 
 2500000   0.84925337   -6.7430315    776.66783  0.025888928  0.025668821           10 
 2501000   0.85333201   -6.7364967    775.05332  0.025824781  0.025660867            5 
 2502000   0.87699469   -6.7107575    776.86788  0.025874896  0.025652851            9 
 2503000   0.85977272    -6.745314    775.37932  0.025814999  0.025644894            5 
 2504000   0.84509965   -6.7460111    778.34134  0.025903266  0.025636834           13 
 2505000   0.85689709   -6.7598731    773.86228  0.025743921   0.02562883            7 
 2506000   0.84738656   -6.7519455    776.17766  0.025810643  0.025620823           11 
 2507000   0.85365874   -6.7342435    779.00161  0.025894217  0.025612829            8 
 2508000    0.8644449   -6.7457365    776.68733  0.025806995  0.025604805           10 
 2509000   0.85206952   -6.7383158    777.53547  0.025824879   0.02559685            9 
 2510000   0.85631279   -6.7298713     777.5405  0.025814758  0.025588885           18 
 2511000    0.8453943   -6.7000414    779.14706  0.025857795  0.025580942            7 
 2512000   0.83789188   -6.7558925     777.0874  0.025779173  0.025572944            9 
 2513000   0.83588746   -6.7382581    774.77209  0.025692137  0.025564982            5 
 2514000   0.85299716   -6.7145581    778.29781  0.025798787  0.025556999            5 
 2515000   0.83758035   -6.7420777    777.21515  0.025752656  0.025549039            8 
 2516000   0.86174227   -6.7449411    777.35114  0.025746924  0.025541138            8 
 2517000   0.84306261   -6.7378985    780.04493  0.025825882   0.02553318            5 
 2518000   0.87394122   -6.6969328    778.49883  0.025764457  0.025525252            9 
 2519000   0.86088804   -6.7197155    778.85569  0.025766034  0.025517394            5 
 2520000   0.83903643   -6.7228101    781.33694  0.025837862  0.025509503            5 
 2521000   0.84590884   -6.7445896    778.93106  0.025748085  0.025501599            8 
 2522000   0.84944307   -6.7461762    779.08019  0.025742803  0.025493733           10 
 2523000   0.86785963     -6.70952    781.74071  0.025820475  0.025485877            9 
 2524000    0.8512325   -6.7256207    780.27293  0.025761785   0.02547803            9 
 2525000   0.84758379    -6.719239    781.62537  0.025796217  0.025470231            3 
 2526000   0.83697025   -6.7167512    780.87757  0.025761334  0.025462437           12 
 2527000   0.86479644   -6.6819807    783.63812  0.025842175   0.02545469            9 
 2528000   0.86265605    -6.700188    782.60262  0.025797818  0.025446891           13 
 2529000   0.86140907   -6.7093215    781.58832  0.025754195  0.025439097            8 
 2530000   0.85067626   -6.6925213    781.57188  0.025743474  0.025431305            7 
 2531000   0.83370061   -6.7509857    779.57126  0.025667432  0.025423494            6 
 2532000   0.83251255   -6.7446412    779.88882  0.025667747  0.025415648            5 
 2533000   0.86005315   -6.7084534    781.64347   0.02571534  0.025407837            5 
 2534000   0.86081311   -6.7380972    781.31431  0.025694367  0.025400005            6 
 2535000   0.86507551   -6.7412462    783.65927  0.025761317  0.025392219            7 
 2536000   0.83704668   -6.7075486    781.69419  0.025686586  0.025384463            5 
 2537000   0.86320063   -6.7111781    781.72639  0.025677519  0.025376714            6 
 2538000    0.8525637   -6.7328818    778.59196  0.025564485  0.025368898            5 
 2539000   0.84029234    -6.695599    782.99566  0.025698952  0.025361094            8 
 2540000   0.86217876   -6.7136309      784.558  0.025740092  0.025353346            4 
 2541000   0.85260391   -6.6987419    783.52947  0.025696231  0.025345646            7 
 2542000   0.82951866   -6.7146943    783.37853  0.025681174  0.025337854            4 
 2543000   0.84598868   -6.7447192    782.07094  0.025628226  0.025330133            9 
 2544000   0.84706305   -6.7071667    783.19705   0.02565504   0.02532235            6 
 2545000   0.85251018   -6.7615897    780.31327  0.025550533  0.025314597           11 
 2546000   0.85027978   -6.7280311    782.46384  0.025610888   0.02530683            7 
 2547000   0.85598908    -6.749241    781.69379  0.025575638  0.025299098            7 
 2548000   0.83527358   -6.7294759    783.42851  0.025622335  0.025291346            4 
 2549000    0.8453766   -6.7244632    782.68062  0.025587833  0.025283617            6 
 2550000   0.82865683   -6.7570202    781.96624  0.025554452  0.025275856            5 
 2551000   0.84922741   -6.7641786    782.80195  0.025571735  0.025268047            7 
 2552000   0.86064422   -6.7527239    782.90071  0.025564939  0.025260248           11 
 2553000   0.82743373   -6.7607957    784.11019  0.025594405  0.025252456            9 
 2554000   0.84398815   -6.7051405     783.1466  0.025552943  0.025244716            7 
 2555000   0.86796098   -6.7489304    782.17198  0.025511154  0.025236956            5 
 2556000   0.84979096   -6.6730103    785.50669  0.025609895  0.025229222            7 
 2557000   0.85068812   -6.7113047    782.14565  0.025490342  0.025221542            5 
 2558000   0.84991248   -6.7128048    785.48929  0.025589305  0.025213843           16 
 2559000   0.84688593   -6.7528762    781.28164  0.025442284  0.025206061            6 
 2560000   0.85164098   -6.7774085    782.00459  0.025455879  0.025198213            6 
 2561000   0.82373258   -6.7696577    783.37415  0.025490503  0.025190349           12 
 2562000   0.85034734   -6.7327763    782.96941  0.025467389  0.025182525            9 
 2563000   0.83733728   -6.7530003    782.36454  0.025437786  0.025174773            8 
 2564000   0.84305383   -6.7642826    780.02569  0.025351849  0.025166952            8 
 2565000   0.84372732   -6.7724813    784.20713  0.025477815  0.025159122            5 
 2566000   0.84266663   -6.7525842    782.99394  0.025428486  0.025151268            7 
 2567000   0.84124394   -6.7512585    782.50817   0.02540281  0.025143422           10 
 2568000    0.8462887   -6.7676649    784.86593  0.025469429  0.025135645            9 
 2569000   0.83005811   -6.7603209    782.46704    0.0253817  0.025127838            8 
 2570000   0.83440033   -6.7725274    784.12954  0.025425731  0.025120043            8 
 2571000   0.84273063   -6.7466534    786.99311  0.025508658  0.025112223            3 
 2572000    0.8341364   -6.7655473    784.17705  0.025407499  0.025104435            8 
 2573000   0.86239558   -6.8090793    782.13013   0.02533133  0.025096626           10 
 2574000    0.8391195   -6.7733703    782.65113  0.025338356  0.025088868            6 
 2575000   0.85461021   -6.7826224    782.11692  0.025311227  0.025081049           11 
 2576000   0.84067364    -6.765883    782.30399  0.025307453  0.025073227            5 
 2577000   0.84694677   -6.7563074    782.25789  0.025296142  0.025065502            8 
 2578000   0.84533324   -6.7340941    786.50467  0.025423606  0.025057752            6 
 2579000   0.83937672   -6.7376989     786.7147  0.025420534  0.025049978            7 
 2580000   0.83008495   -6.7383357    784.85792  0.025350708  0.025042312           10 
 2581000   0.83305524   -6.6960899    789.83337  0.025501529   0.02503463            7 
 2582000   0.84266583   -6.7285826    786.07795  0.025370448  0.025026915            6 
 2583000   0.83620468   -6.7526453    783.33941  0.025272274  0.025019156            4 
 2584000   0.83281564   -6.7254894    784.68588  0.025305917  0.025011343            7 
 2585000   0.83823894   -6.7562058    784.96789  0.025305219  0.025003599            7 
 2586000   0.82891634   -6.7308716      782.971  0.025231084  0.024995858            6 
 2587000    0.8236126   -6.7706648    784.77496  0.025279441  0.024988108            9 
 2588000   0.85650925   -6.7496337    784.65677  0.025265867  0.024980356            4 
 2589000   0.83819594   -6.7383587    785.94195  0.025297475  0.024972613           13 
 2590000   0.81939231   -6.7090649    786.41631   0.02530297  0.024964896            6 
 2591000   0.83406391   -6.7679692    785.46335  0.025262555  0.024957084            5 
 2592000   0.84581284   -6.7756671    782.45848  0.025156201  0.024949256            4 
 2593000   0.85056059   -6.7465257    784.37761  0.025208176  0.024941361           11 
 2594000   0.84959359   -6.7887507    782.28107  0.025131106  0.024933431           21 
 2595000    0.8343549   -6.7864662    783.18632  0.025150492   0.02492555           10 
 2596000   0.85002534   -6.7789764    783.78126  0.025159902  0.024917682            6 
 2597000   0.83621935   -6.7735549    782.90708  0.025122163  0.024909826            4 
 2598000   0.83954162   -6.7392141    785.04239  0.025180985  0.024901962           15 
 2599000   0.83881257   -6.7879441     784.1758   0.02514351  0.024894114            7 
 2600000   0.85031525   -6.7535872    784.29656   0.02513771  0.024886272            8 
 2601000   0.85639253   -6.7724311    785.17405   0.02515616  0.024878403           11 
 2602000   0.82182706   -6.7593293     787.3182  0.025215161  0.024870579            5 
 2603000   0.83400614   -6.7447032    784.43171  0.025113065  0.024862708            9 
 2604000   0.83307467   -6.7717614    785.95425  0.025152146   0.02485486            6 
 2605000   0.82350847   -6.8080988     783.5542  0.025065713  0.024847029            4 
 2606000   0.83116374   -6.7861037    786.39526  0.025146945  0.024839177            9 
 2607000   0.83661853   -6.7559166    784.82397  0.025087072  0.024831349            9 
 2608000   0.83581264   -6.7711436    784.30264  0.025060795  0.024823511            9 
 2609000   0.84677051   -6.7589071    786.25195  0.025113452  0.024815748           14 
 2610000   0.82546066   -6.7405864    787.76797  0.025152234  0.024807974            4 
 2611000    0.8457258   -6.7739624    786.40362  0.025099056  0.024800244           10 
 2612000   0.85082397   -6.7662987    785.33281  0.025055284  0.024792514            5 
 2613000   0.84670268   -6.7550859    787.52149  0.025115496   0.02478471            5 
 2614000    0.8287532   -6.7611821    787.12602  0.025093281  0.024776913            8 
 2615000   0.83811389   -6.7499878    787.48258  0.025095047  0.024769102           18 
 2616000   0.81248817   -6.7848808    785.84217  0.025033199   0.02476128            7 
 2617000    0.8335181   -6.7616958    787.24187  0.025068204  0.024753473            7 
 2618000   0.82945598    -6.764307    787.44823  0.025065197   0.02474569            4 
 2619000   0.83204537   -6.7783772    785.91156  0.025006732  0.024737868           10 
 2620000   0.82934279   -6.7814466    785.27933  0.024977078   0.02473001           14 
 2621000   0.82107402   -6.7997937    786.49845   0.02500631   0.02472218            7 
 2622000   0.81955341   -6.7738498    786.00752   0.02498117  0.024714346            7 
 2623000   0.81718316    -6.784346    786.45094  0.024985733  0.024706533           15 
 2624000   0.84493394   -6.7804843    785.39971  0.024942826  0.024698728           17 
 2625000   0.82566182   -6.7987584    785.22427  0.024927755  0.024690925            7 
 2626000   0.81933056   -6.7846176    787.45394  0.024989018  0.024683164            8 
 2627000   0.84131824   -6.7914513    785.42784  0.024915234  0.024675441            9 
 2628000   0.83264695   -6.7651036    786.87189  0.024951544  0.024667683           12 
 2629000   0.84497408   -6.7526431     787.1004  0.024949296  0.024659904           10 
 2630000   0.82093688   -6.7980389    786.54552  0.024922228   0.02465211            8 
 2631000   0.82844374   -6.8608095    782.98592   0.02480001  0.024644235           11 
 2632000   0.82653585   -6.7699387    788.36201  0.024960803  0.024636334           20 
 2633000   0.81994576   -6.7788387    787.11944  0.024911996  0.024628531           10 
 2634000   0.83631358   -6.7542817    788.65876  0.024951239  0.024620811            7 
 2635000   0.86092003   -6.7701647     787.4526  0.024903624  0.024613034           11 
 2636000   0.82212734   -6.7681813    790.53368  0.024991581  0.024605263            4 
 2637000   0.81484785   -6.7951071    787.35716   0.02488172  0.024597553            7 
 2638000   0.84059075   -6.7887067    786.03592  0.024830551  0.024589786            4 
 2639000   0.84023829    -6.794743    786.79165  0.024845006  0.024582069            7 
 2640000   0.82316721    -6.802006    787.38312  0.024854265  0.024574315            5 
 2641000   0.83159001   -6.8166606    787.50589  0.024848728  0.024566589           13 
 2642000   0.82910262   -6.8171876     787.1395  0.024827766  0.024558809            5 
 2643000   0.80910642   -6.7695318     790.1855  0.024914412  0.024551118           11 
 2644000   0.83282567   -6.7570731     790.1692  0.024904475  0.024543459           10 
 2645000   0.84456962   -6.7579877    790.34669  0.024900652   0.02453578           20 
 2646000   0.81573306   -6.7695745    791.75534  0.024935605  0.024528152            5 
 2647000   0.82594206    -6.805222    788.79671  0.024833041  0.024520503            8 
 2648000   0.82638296    -6.795684    790.47756   0.02487656  0.024512847           15 
 2649000   0.80791558   -6.8006763    789.06968  0.024822879  0.024505155            4 
 2650000    0.8505136   -6.7873596    788.51739  0.024796144  0.024497431            4 
 2651000   0.82388142   -6.7906247    790.42311  0.024846696  0.024489716           14 
 2652000   0.82635519   -6.7643274     791.1487  0.024860128  0.024482018            8 
 2653000   0.82996245   -6.7984251    790.18912  0.024820616  0.024474379            5 
 2654000   0.84595587   -6.8009413    788.80554   0.02476782  0.024466753            7 
 2655000   0.81074016   -6.7727856    790.09855  0.024799076  0.024459117            5 
 2656000    0.8247135   -6.7937983    789.62403   0.02477485  0.024451467            7 
 2657000   0.83301277   -6.8079025    788.52094  0.024730929  0.024443754            5 
 2658000   0.82861517   -6.8122641    789.26592  0.024744981  0.024436004            4 
 2659000   0.81415462   -6.7798336    791.25255  0.024797936  0.024428322           10 
 2660000   0.82251009   -6.8161484    788.58357  0.024704999  0.024420587            6 
 2661000   0.82573771    -6.799659    791.35803  0.024782601  0.024412905           10 
 2662000   0.81665412   -6.8073135    789.41429  0.024712443  0.024405214            9 
 2663000   0.83994389   -6.7439189    792.77607  0.024808364  0.024397571            9 
 2664000   0.81956476   -6.8126658    788.70477  0.024671696  0.024389955           15 
 2665000   0.82158137   -6.8037102    791.46252  0.024748672  0.024382287           16 
 2666000   0.81537813   -6.7894502    792.32141  0.024766236  0.024374675            9 
 2667000   0.81914753   -6.7914246    793.47998   0.02479315  0.024367033           11 
 2668000   0.82961024   -6.7814089     793.5198  0.024785101  0.024359483           11 
 2669000   0.80126296   -6.8107855    791.34066  0.024707776  0.024351878           11 
 2670000   0.82452278   -6.7853485    793.25869  0.024758386  0.024344209            5 
 2671000   0.81610006   -6.7822028     790.7269  0.024670127  0.024336556           10 
 2672000   0.82631421   -6.8036456    792.63868  0.024720518  0.024328932            9 
 2673000   0.84027228   -6.8033587    790.64278  0.024649045  0.024321313            5 
 2674000   0.84038422   -6.8152825    790.85229  0.024646357   0.02431371            4 
 2675000   0.83252454   -6.7882974    791.39725   0.02465412  0.024306023           10 
 2676000   0.81362795    -6.811021    791.73221  0.024655338  0.024298351           14 
 2677000   0.83632796   -6.7919218    791.51023  0.024639218  0.024290751           24 
 2678000    0.8041299   -6.8075029    791.21833  0.024620934  0.024283181            8 
 2679000   0.82733748   -6.7711273    793.47318  0.024681883  0.024275633            5 
 2680000   0.83479106   -6.7977035    792.29442  0.024636021  0.024268008            6 
 2681000   0.82950538   -6.7794932     793.4664   0.02466326  0.024260407           15 
 2682000   0.82553383   -6.8075728    791.42482  0.024590629  0.024252791            5 
 2683000   0.82795826   -6.8023002    793.19157  0.024636339  0.024245137            8 
 2684000   0.81526122   -6.7849346    793.42363  0.024634365  0.024237507            9 
 2685000   0.83240042   -6.7826592    793.48712  0.024627161  0.024229894           13 
 2686000   0.81305134   -6.8026775     793.7765   0.02462697  0.024222318            8 
 2687000   0.80599502    -6.782853    794.15788  0.024629633  0.024214676            5 
 2688000   0.81015707   -6.8328944    790.41792  0.024504524  0.024207009           12 
 2689000   0.82060938   -6.8141235    790.69217   0.02450391  0.024199316            7 
 2690000   0.80731744   -6.8274978    790.82074  0.024498784  0.024191617            6 
 2691000   0.83162096   -6.7908917    792.85627  0.024552715  0.024183958            7 
 2692000   0.84416791   -6.8021991    791.31551  0.024495899  0.024176321            9 
 2693000   0.81343524    -6.839021    791.27327  0.024485496   0.02416868            8 
 2694000   0.82167841   -6.8173159    791.56997  0.024485584  0.024161017            6 
 2695000   0.82126571   -6.8015197    792.79169  0.024514276   0.02415342           11 
 2696000    0.7978963   -6.8131431    793.93623  0.024540561  0.024145855           18 
 2697000   0.80783433   -6.7814957     792.9049  0.024499595  0.024138267            9 
 2698000    0.8029165   -6.8076897    793.71954  0.024515676  0.024130651            9 
 2699000    0.8222703   -6.7831065    792.04511  0.024454894  0.024123082            7 
 2700000    0.8335914   -6.8079987    793.34877  0.024486073  0.024115431           16 
 2701000   0.82705809   -6.8011922    793.31846  0.024476072  0.024107894            5 
 2702000   0.79196908   -6.8155987    794.38071  0.024499775  0.024100319            9 
 2703000   0.82363007    -6.833257    791.99664  0.024417211  0.024092718            5 
 2704000   0.81423038   -6.8095105    792.80107  0.024432972  0.024085138           15 
 2705000   0.82689806   -6.8283061    793.12629  0.024433958  0.024077527           10 
 2706000   0.82568668    -6.823927    793.63125  0.024440479  0.024069896           10 
 2707000   0.81731401   -6.8073343      794.931  0.024471463   0.02406226            7 
 2708000   0.83429496   -6.8278016    792.52148  0.024388278  0.024054656            6 
 2709000   0.82044936    -6.817127    793.63641  0.024413572  0.024047102            7 
 2710000   0.82870479   -6.8117392    792.03629  0.024355359  0.024039545            6 
 2711000    0.8309529   -6.8037528    793.41868  0.024388869  0.024031979            9 
 2712000   0.82948329   -6.7814532    795.78435  0.024452567  0.024024433           13 
 2713000   0.81235243   -6.7867435    794.83672  0.024414446  0.024016925           10 
 2714000   0.81990322   -6.8279727    794.81077  0.024404654  0.024009371            6 
 2715000   0.81375823   -6.8155718    793.29832  0.024349243  0.024001773           14 
 2716000    0.8223236   -6.8282018    795.20382  0.024398743  0.023994218            9 
 2717000   0.81802078   -6.7910186    796.73983  0.024436874  0.023986677            3 
 2718000   0.83372837   -6.8187106    794.50109  0.024359244   0.02397919            7 
 2719000   0.83396468   -6.8213757    795.72993  0.024387947  0.023971698            4 
 2720000   0.82854163   -6.8181422    796.15985  0.024392152   0.02396425            6 
 2721000   0.81500728   -6.8188869    796.66647  0.024398704  0.023956744            5 
 2722000   0.80867117   -6.7813885    798.62035  0.024449558  0.023949225            4 
 2723000   0.81094827   -6.8258806    794.57598  0.024316807  0.023941756            4 
 2724000   0.81458925   -6.8162825    794.84249  0.024316033  0.023934173            5 
 2725000    0.8096063    -6.848029    794.26512  0.024289453  0.023926618           12 
 2726000   0.82144031   -6.8290937    795.01262  0.024303394  0.023919065            9 
 2727000    0.8188207   -6.8245629    793.31496  0.024242604  0.023911523            6 
 2728000   0.82679218   -6.8090124    793.30868  0.024233525   0.02390396            9 
 2729000   0.78845309   -6.8056061    797.60028  0.024355694  0.023896476            6 
 2730000    0.7955721   -6.8002597    796.97319  0.024327631  0.023889022            6 
 2731000   0.83432772   -6.8308318    796.01341  0.024289436  0.023881522            5 
 2732000   0.81834081   -6.8102183     796.9286  0.024308461  0.023874037            9 
 2733000   0.80141022    -6.779236     796.7292  0.024293487  0.023866551           10 
 2734000   0.82894702   -6.8003267    796.95094   0.02429136  0.023859097            7 
 2735000   0.83268445   -6.8179392    794.82152  0.024217596  0.023851598           16 
 2736000   0.81229966   -6.8172286    796.99021  0.024274799  0.023844011            7 
 2737000   0.81524602   -6.8192454    797.76577  0.024289544  0.023836505            4 
 2738000   0.80020275   -6.8022874    796.39229  0.024238869  0.023829017            4 
 2739000   0.81620584    -6.798359    797.59549  0.024266627  0.023821475           13 
 2740000   0.81236747   -6.8779102    794.13831  0.024152625  0.023813904           17 
 2741000   0.82261565   -6.8070329    796.39708  0.024212486  0.023806304            6 
 2742000   0.80003578    -6.869925    795.52661  0.024177201  0.023798718           11 
 2743000   0.81298238   -6.8123457    795.78289  0.024176172  0.023791177            6 
 2744000    0.8156864   -6.8504589    796.50001   0.02418914  0.023783633           10 
 2745000   0.80525345   -6.8327098    796.20735  0.024171444  0.023776096           13 
 2746000   0.82178505   -6.8269745     796.1485  0.024160855  0.023768593            9 
 2747000   0.80974049   -6.8332185    796.17117  0.024152747  0.023761059           13 
 2748000   0.80902583   -6.8310444     797.0814  0.024171561  0.023753543           13 
 2749000   0.80403972   -6.8326706    797.89449  0.024187416  0.023746025           17 
 2750000   0.81246229   -6.8112123    798.21876  0.024188447   0.02373852            8 
 2751000   0.80831858   -6.8312718    796.80839  0.024136932  0.023731068           15 
 2752000    0.8072907   -6.8085858    798.87401   0.02419071  0.023723607           10 
 2753000   0.82347704    -6.835841    796.26027  0.024102805  0.023716117            9 
 2754000   0.81639001   -6.8485942    796.27805  0.024094591  0.023708646            8 
 2755000   0.81031803   -6.8416137    796.49261  0.024092335  0.023701158            8 
 2756000    0.8153903   -6.8013865    796.61387   0.02408726  0.023693738            5 
 2757000   0.81940026   -6.7980965    799.08945  0.024153351  0.023686282            8 
 2758000   0.80366809    -6.816911     797.4417  0.024094806  0.023678873            8 
 2759000   0.82224385    -6.854818    797.17173  0.024077919   0.02367145           13 
 2760000    0.8350308    -6.827545    800.52333   0.02417039  0.023664012           20 
 2761000   0.79937503   -6.8248272    798.55866  0.024102338  0.023656524            7 
 2762000   0.81854877   -6.8541801    797.44573  0.024060033  0.023649048            6 
 2763000   0.81242257    -6.830422    797.45487  0.024051601  0.023641569            7 
 2764000     0.790116   -6.8396379     798.6643  0.024079363  0.023634105            7 
 2765000   0.83043845   -6.8280646    797.67579  0.024040862  0.023626683           10 
 2766000   0.79967059   -6.8007191    800.28327  0.024110728  0.023619275           10 
 2767000   0.81934617      -6.8174    798.46301  0.024047193  0.023611827            6 
 2768000   0.79698681   -6.8607946    795.25921  0.023942052  0.023604339           16 
 2769000    0.8240281   -6.8068696    799.70594  0.024067231  0.023596866            8 
 2770000   0.79594667   -6.7824475    799.37843  0.024048689  0.023589486           15 
 2771000    0.8160244   -6.8516972    798.52322  0.024014291  0.023582066           14 
 2772000   0.81821022   -6.8233883    799.56638  0.024036988  0.023574631            6 
 2773000   0.80343517   -6.8325882    798.76778  0.024004321  0.023567203            9 
 2774000   0.82637093    -6.820508    799.86549  0.024028644  0.023559759            5 
 2775000   0.80195057   -6.8331415    797.02069  0.023934555  0.023552274            8 
 2776000   0.80254694   -6.8536109    797.84265  0.023950608  0.023544799           11 
 2777000   0.83109312   -6.8328274    799.14295  0.023981003  0.023537338           10 
 2778000   0.81596262   -6.8606464    797.38508  0.023919639  0.023529908            7 
 2779000   0.80216434   -6.8197309    798.40552  0.023941631  0.023522496           15 
 2780000   0.80999991    -6.843711    798.84502  0.023946194  0.023515073            8 
 2781000   0.81454914   -6.8531392    796.53907  0.023868485  0.023507645            6 
 2782000   0.80901662   -6.8201135    798.14041  0.023907872  0.023500237            7 
 2783000   0.80541077   -6.8519144    798.91566  0.023922496  0.023492832           10 
 2784000   0.79036534   -6.8258824     800.5061  0.023961509  0.023485382            6 
 2785000   0.78885334   -6.8532667    797.26285   0.02385586  0.023477984            6 
 2786000   0.82444171   -6.8417049     801.0646  0.023961013  0.023470567            5 
 2787000   0.81880406   -6.8076949    801.44691  0.023963847  0.023463148            8 
 2788000   0.81735288    -6.853299    798.74144  0.023874386  0.023455824           11 
 2789000   0.79704165   -6.8291449    797.69597  0.023834587  0.023448462            8 
 2790000   0.81944152   -6.8388672    800.74687   0.02391717  0.023441099           12 
 2791000      0.80865   -6.7987916     803.3497  0.023986316  0.023433757            5 
 2792000   0.80973088   -6.8145365    801.19068  0.023913284  0.023426458            8 
 2793000   0.80996403   -6.8525705    801.12337  0.023902714  0.023419118            6 
 2794000   0.78970524   -6.8448618    801.22991  0.023897337  0.023411759            8 
 2795000   0.78481831    -6.835361    799.93113  0.023850064  0.023404384            9 
 2796000   0.80934998   -6.8754535    800.44109  0.023856732  0.023397031            7 
 2797000   0.78761213    -6.855291     801.5418  0.023880997  0.023389696            5 
 2798000   0.79455183   -6.8112234    802.62945  0.023904856   0.02338234            8 
 2799000   0.80245516   -6.8876623    799.41732  0.023800682  0.023374961            8 
 2800000   0.79628746   -6.8761577    797.16592  0.023725176   0.02336759           12 
 2801000    0.8137487    -6.851125    800.95915  0.023829559  0.023360221           16 
 2802000    0.8256236   -6.8344537    801.18867  0.023827881  0.023352895           10 
 2803000   0.80348357   -6.8581259    800.36148  0.023794788  0.023345605           15 
 2804000    0.8083962   -6.8549092    801.37217  0.023816339  0.023338321            8 
 2805000   0.79366681   -6.8796958    799.47197  0.023751395  0.023330989            5 
 2806000   0.82183607   -6.8754277    800.03418  0.023759628  0.023323649           11 
 2807000   0.79083653   -6.8918367    801.19611  0.023785658   0.02331634            5 
 2808000   0.81074172   -6.8725713    799.87274  0.023737914  0.023308983           18 
 2809000   0.80304702   -6.8328309    802.70458  0.023813474  0.023301651           22 
 2810000   0.79197879   -6.8845129     801.4706  0.023768404  0.023294332           12 
 2811000    0.7798743   -6.8539315    801.80501  0.023769863  0.023287003           10 
 2812000   0.81889177   -6.8197937    802.93996  0.023795044   0.02327972            7 
 2813000   0.78055432   -6.8610744    803.07762  0.023790663  0.023272394            7 
 2814000   0.80159228   -6.8559693    802.94591  0.023778308  0.023265095            6 
 2815000   0.79961592   -6.8521776    801.49074  0.023726783  0.023257801            8 
 2816000    0.7952685   -6.8389051    801.45678  0.023717353  0.023250546            8 
 2817000   0.83022391   -6.8379524    806.00156  0.023843378    0.0232433            9 
 2818000   0.78161951    -6.830308    802.90765  0.023743425  0.023236078            8 
 2819000    0.8020662   -6.8613886    802.36312  0.023718905  0.023228806            8 
 2820000   0.80635048   -6.8609951    802.79154  0.023723154  0.023221534            6 
 2821000   0.79730447   -6.8605595    803.25331  0.023728386  0.023214283            9 
 2822000    0.8030034    -6.862599     804.5692  0.023758835  0.023207005           11 
 2823000   0.81169226   -6.8519189    803.18074  0.023709433  0.023199777           15 
 2824000   0.78859748   -6.8460236    803.55615  0.023712115   0.02319252           10 
 2825000    0.7895327   -6.8425919    803.79388  0.023710734  0.023185281           27 
 2826000   0.79700883   -6.8698534    804.59934  0.023726095  0.023178027           12 
 2827000   0.80502825   -6.8766005    801.67486  0.023631496  0.023170761           16 
 2828000   0.81057867   -6.8702003    804.00134  0.023691694  0.023163491           11 
 2829000   0.79461391   -6.8920203    802.57448  0.023641289  0.023156272           11 
 2830000   0.81028588   -6.8338238    805.20433  0.023710375  0.023149079           14 
 2831000   0.82041901   -6.8788153    802.15032  0.023612102  0.023141885            8 
 2832000     0.803256   -6.8618046    802.87696  0.023625146   0.02313461            7 
 2833000   0.78833379    -6.853656    803.50621  0.023635316  0.023127385            9 
 2834000    0.8056696   -6.8345297    802.64126  0.023601543  0.023120162           11 
 2835000   0.81809049   -6.8681934    803.37958   0.02361492  0.023112923           10 
 2836000   0.79706298   -6.8799596    802.46528  0.023579727  0.023105697           25 
 2837000   0.80065973   -6.8498877    805.32984  0.023655559  0.023098488            9 
 2838000   0.79878953   -6.8571032    805.42012  0.023649874  0.023091305            7 
 2839000   0.80634914   -6.8773926    803.46526  0.023584163  0.023084077            4 
 2840000   0.81104282   -6.8776328    803.83802  0.023586796  0.023076837            6 
 2841000   0.80914279   -6.8420451    804.61031  0.023601147  0.023069641            9 
 2842000   0.80581227   -6.8315827    806.46539  0.023647237  0.023062475            8 
 2843000   0.78375343   -6.8260017    806.03612  0.023626337  0.023055314            8 
 2844000   0.79285703   -6.8811008    803.08391  0.023531526  0.023048113            7 
 2845000    0.7908208   -6.8935921    803.72384  0.023541999  0.023040854            5 
 2846000   0.77775282   -6.8724264     803.1143  0.023515879  0.023033597            5 
 2847000   0.80273841   -6.8618088    805.27773  0.023570944  0.023026371            6 
 2848000   0.78833474   -6.8750808    804.32167  0.023534693  0.023019164           13 
 2849000    0.7876962   -6.8522747    803.37754  0.023498817  0.023011908            8 
 2850000   0.81941717   -6.8694473    803.65391  0.023498652  0.023004693            9 
 2851000   0.79447682   -6.8975837    803.29963  0.023480055  0.022997483           13 
 2852000   0.80039006   -6.8370373     806.3298  0.023560361  0.022990253            6 
 2853000   0.78451221    -6.879695    802.61148  0.023443494  0.022983059           11 
 2854000   0.78846153   -6.8863496    803.54829  0.023462634  0.022975806            9 
 2855000    0.7982853   -6.9216359    802.98089  0.023437854  0.022968484            7 
 2856000   0.79637478    -6.866969    804.54521  0.023475292  0.022961171            6 
 2857000   0.79241587   -6.8701128    804.47085  0.023464906    0.0229539            9 
 2858000   0.79271853   -6.8816306      805.507  0.023486908  0.022946609            8 
 2859000   0.80149932   -6.9039542    802.90921  0.023402973   0.02293934           12 
 2860000   0.81551097   -6.8709687    805.99337  0.023484655  0.022932033           14 
 2861000    0.7994122   -6.8569975    805.61547  0.023465439  0.022924786            6 
 2862000    0.7830897   -6.9005884    804.35383  0.023420505  0.022917544            6 
 2863000   0.78719316   -6.8859554    804.68765  0.023422041   0.02291032           19 
 2864000   0.79789239   -6.9065236    805.21771  0.023429286  0.022903039            5 
 2865000   0.78700954   -6.8982964    803.64604  0.023375394  0.022895776            8 
 2866000   0.78831968   -6.9065156    803.90839  0.023374866  0.022888533            9 
 2867000   0.77516771   -6.8808925    805.24142  0.023405459  0.022881293           15 
 2868000   0.80195908   -6.8669011    804.61589  0.023379123  0.022874061           18 
 2869000    0.7991832   -6.8776658    805.28533  0.023390419  0.022866811           14 
 2870000   0.79036504   -6.8810052    804.75032  0.023366734  0.022859561           28 
 2871000   0.78512872   -6.8849869     804.2019  0.023342677  0.022852364           11 
 2872000   0.79365127   -6.9030115    806.01029  0.023387021   0.02284517           12 
 2873000   0.78791041   -6.8549169    805.02989  0.023350444  0.022837912           12 
 2874000   0.79286602   -6.9110468    805.43703  0.023354124  0.022830687           13 
 2875000   0.79729189   -6.8530145    807.56681  0.023407734  0.022823511            9 
 2876000   0.81980812   -6.8597752    805.01661  0.023325701  0.022816308           12 
 2877000   0.78402055   -6.8742197    805.96116  0.023344953  0.022809066           10 
 2878000   0.77324573    -6.862084    805.67245  0.023328482  0.022801796            6 
 2879000   0.78492605   -6.8974968    803.30342  0.023251807   0.02279453           10 
 2880000   0.80296453   -6.8397537    807.41246  0.023362629    0.0227873           11 
 2881000   0.79109195   -6.8832154    805.14392  0.023288902  0.022780039           17 
 2882000    0.7852418    -6.868459    805.61799  0.023294529    0.0227728           10 
 2883000   0.79731794    -6.880817     807.1905  0.023331902  0.022765546           13 
 2884000   0.81610063   -6.8828306    804.68877  0.023251525  0.022758329            6 
 2885000    0.7921988   -6.8842459    805.21913  0.023258785  0.022751026           14 
 2886000   0.78846442   -6.8652307    804.13135  0.023219316  0.022743751           11 
 2887000   0.78867935   -6.8871167    807.05116  0.023295554  0.022736506           10 
 2888000    0.7951597   -6.8713548    803.99035  0.023199168  0.022729263            9 
 2889000   0.78188833   -6.8972008    806.08287  0.023251496  0.022722016           17 
 2890000   0.78967706   -6.8713001    803.74971  0.023176174  0.022714719            9 
 2891000   0.79820118    -6.864205    805.31398  0.023213247  0.022707477           15 
 2892000    0.7782332    -6.858473    805.00763  0.023196393  0.022700168            8 
 2893000   0.79203504   -6.8707038    805.63951  0.023206576  0.022692899           37 
 2894000   0.80682573   -6.8821518    804.57577  0.023167927  0.022685603           20 
 2895000   0.78528515    -6.906893    805.04356   0.02317339  0.022678324           11 
 2896000    0.7952239   -6.8989354    803.83726  0.023130676  0.022671046           16 
 2897000   0.78785351   -6.8816898    804.02832  0.023128188  0.022663809           15 
 2898000   0.79704218   -6.8667728    805.97597  0.023176212  0.022656544            7 
 2899000   0.78302224   -6.9203288    804.56956   0.02312779  0.022649256           10 
 2900000   0.79857303   -6.8694358    805.32033  0.023141389  0.022641956           10 
 2901000   0.78632133   -6.8841941     804.8694  0.023120458  0.022634657            4 
 2902000   0.78957863   -6.9122822    803.11516  0.023062117  0.022627379            4 
 2903000   0.79058759   -6.9158053    804.27228  0.023087389  0.022620073            8 
 2904000   0.77587758   -6.9073064    805.97759  0.023128374  0.022612778           10 
 2905000   0.80317618   -6.9196973    803.73735  0.023056149  0.022605488           15 
 2906000   0.77746817   -6.9211695    803.37182  0.023037733  0.022598173           15 
 2907000   0.80463626   -6.9042119    803.79523  0.023041946  0.022590878           12 
 2908000    0.7919894   -6.8802406    807.10964  0.023129002  0.022583612            7 
 2909000   0.78172872   -6.8764288    805.39877   0.02307204  0.022576383           15 
 2910000   0.79458587   -6.9175518    805.49951  0.023066996  0.022569113           13 
 2911000   0.79671434   -6.9220156    803.49805  0.023001776  0.022561849            7 
 2912000   0.79267599   -6.9185172     804.6163  0.023025878  0.022554555           15 
 2913000   0.77100145   -6.9197389    804.36527  0.023010793  0.022547289            9 
 2914000   0.77703443   -6.8965576    805.72782  0.023041862  0.022540031           10 
 2915000   0.77778968   -6.9097594    804.13833  0.022988517  0.022532813           11 
 2916000   0.78446485   -6.9228617     802.7383  0.022940624  0.022525526           10 
 2917000   0.77999474   -6.9090011     804.4002  0.022980237  0.022518248            8 
 2918000   0.78156177   -6.8927567    803.90117   0.02295811  0.022510954            7 
 2919000   0.79607037   -6.9241608    803.78426  0.022946907   0.02250367           14 
 2920000   0.79307485   -6.9360042    803.07541  0.022918819  0.022496352           14 
 2921000   0.77011251   -6.8806201    806.13634  0.022998298  0.022489059           37 
 2922000   0.77929628   -6.9328054    803.49944  0.022915225  0.022481807           14 
 2923000   0.78824107   -6.9406802    805.58042  0.022966713  0.022474521           13 
 2924000   0.78762487   -6.9109924    807.33635  0.023008902  0.022467219           12 
 2925000   0.78602432   -6.9485606    805.33308  0.022943962  0.022459971            8 
 2926000   0.78306963   -6.9338006    806.32437  0.022964353  0.022452697           10 
 2927000   0.78383848   -6.9297834    805.93082  0.022945303   0.02244544            9 
 2928000   0.79004594   -6.9384732    803.85719  0.022878449   0.02243818            9 
 2929000    0.7639141   -6.9059433    804.12135  0.022878154  0.022430897            9 
 2930000     0.775377   -6.9229602    805.10996  0.022898463  0.022423613            9 
 2931000   0.77025151   -6.9363664    805.13034   0.02289123  0.022416342           25 
 2932000   0.78527764   -6.9016573    805.31545  0.022888684  0.022409087           14 
 2933000   0.77362844   -6.9090852    804.58746  0.022860196  0.022401855            7 
 2934000   0.76603328   -6.9149525    805.34125  0.022873814  0.022394644           17 
 2935000   0.76948257   -6.8948919    806.26652  0.022892292  0.022387379           13 
 2936000   0.78050288   -6.9345236    807.25521  0.022912557   0.02238015           10 
 2937000   0.78857416   -6.8938645    807.53063   0.02291257  0.022372977            7 
 2938000   0.76199772   -6.9007323    807.22131  0.022895998  0.022365776           12 
 2939000   0.78456089   -6.9045426    807.07956  0.022884189  0.022358594           13 
 2940000   0.77876149   -6.8900906    809.25471  0.022938059  0.022351383            8 
 2941000   0.78827286   -6.9162658    806.47697  0.022851552  0.022344182           19 
 2942000   0.78015003     -6.95121    805.85143  0.022826066  0.022337003           14 
 2943000   0.77656589   -6.9065231    806.77926  0.022844582  0.022329793            8 
 2944000    0.7924683   -6.9156917    808.54953  0.022886932  0.022322573            6 
 2945000   0.77962405   -6.9211639    807.43693  0.022847678  0.022315383           11 
 2946000   0.76608377   -6.9201773    805.62673  0.022788717  0.022308121           11 
 2947000   0.77392963    -6.935731    807.40427  0.022831249  0.022300849           19 
 2948000   0.78244016   -6.9230465    806.86303  0.022808204  0.022293626            8 
 2949000   0.79570476     -6.93404    807.08355  0.022806701  0.022286361            8 
 2950000   0.77727977   -6.9197849    807.56873  0.022812676  0.022279099           10 
 2951000   0.78564079   -6.9294873    805.91973  0.022758379  0.022271853           11 
 2952000   0.77609489   -6.9326074    807.08293  0.022783506  0.022264598            4 
 2953000   0.77290217   -6.9634351    804.64245  0.022706921  0.022257337           10 
 2954000    0.7967179   -6.9484263    807.35664  0.022775802  0.022250079           16 
 2955000   0.76981308    -6.926201    807.91891  0.022783951  0.022242858            9 
 2956000   0.78200583   -6.9326808    804.91514  0.022691563  0.022235643           20 
 2957000    0.7833321   -6.9421995    805.89551  0.022711518  0.022228394           27 
 2958000   0.77949014    -6.915717    806.07341  0.022708852  0.022221172            8 
 2959000   0.77443602   -6.9314254    806.18432  0.022704301  0.022213985           16 
 2960000   0.77878435    -6.904244    807.55619  0.022735253  0.022206784           12 
 2961000   0.78234511   -6.9084936    809.47471  0.022781569  0.022199593            6 
 2962000   0.78461863   -6.9243972    809.03786  0.022761587  0.022192421           16 
 2963000   0.77750099   -6.9282517    808.02506  0.022725421  0.022185258           18 
 2964000   0.77476406   -6.9390522    806.41491  0.022672484  0.022178025           11 
 2965000   0.76992003   -6.9682139    806.34215  0.022662792  0.022170747           31 
 2966000   0.77297807   -6.9772083    805.18249  0.022622569  0.022163444           24 
 2967000   0.78141616   -6.9362941    806.23466  0.022644497  0.022156156           13 
 2968000   0.77432173   -6.9404072    805.34217  0.022611808  0.022148892           13 
 2969000   0.76997119    -6.954917     806.6998  0.022642298  0.022141623           10 
 2970000   0.77069071   -6.9545013    807.70403  0.022662852  0.022134399            7 
 2971000   0.77864852   -6.9410269    806.49254  0.022621243   0.02212717           10 
 2972000   0.78162502   -6.9426585    807.19352  0.022633286  0.022119945           11 
 2973000   0.77993978   -6.9545481    808.33214  0.022657589  0.022112714           10 
 2974000   0.76056032   -6.9591544    805.11113  0.022559715  0.022105465           13 
 2975000   0.77159079   -6.9667732    805.40099  0.022560252  0.022098209           19 
 2976000   0.79419224   -6.9631763    802.93539   0.02248363  0.022090956           22 
 2977000   0.77687849   -6.9693186    805.98924  0.022561562  0.022083707           26 
 2978000   0.76082854   -6.9265158    806.35534   0.02256423  0.022076504           14 
 2979000   0.78324839   -6.9334255    807.12404  0.022578159  0.022069302           11 
 2980000     0.796049   -6.9337395    808.35771  0.022605081   0.02206214           18 
 2981000    0.7750025   -6.9175014    807.58413  0.022575873  0.022054988            5 
 2982000   0.77404593    -6.926887     806.7935  0.022546208  0.022047801           14 
 2983000   0.78710662   -6.9235334    807.74022  0.022565097   0.02204057           13 
 2984000   0.76501622   -6.9666451    806.34164  0.022518477  0.022033344           25 
 2985000   0.79254126     -6.95221    805.59351  0.022490048  0.022026095           17 
 2986000   0.76256924   -6.9458645    806.47724  0.022507179  0.022018879           16 
 2987000   0.77336384    -6.939189    808.94417  0.022568468  0.022011686           14 
 2988000   0.78481101   -6.9504537    807.41828  0.022518359  0.022004506           11 
 2989000   0.76131954   -6.9175121    806.47485  0.022484522  0.021997319           19 
 2990000   0.78641427   -6.9426596    807.38979  0.022502503  0.021990167           20 
 2991000   0.76397534   -6.9483696    804.78511  0.022422409  0.021982992           13 
 2992000   0.75198655   -6.9482815    806.52436  0.022463357  0.021975766           12 
 2993000    0.7647707    -6.915881    807.23548  0.022475651  0.021968581           15 
 2994000   0.78837575     -6.94749    806.86023  0.022457699  0.021961368           18 
 2995000   0.77476875   -6.9402012    806.77598  0.022447857  0.021954162           24 
 2996000    0.7613767   -6.9510135    806.22534  0.022425048  0.021946917           10 
 2997000   0.76477196   -6.9039657    808.40405  0.022478146  0.021939724           10 
 2998000   0.76426278   -6.9553134    808.27701  0.022467117  0.021932546           16 
 2999000   0.76885452    -6.939687    808.66288  0.022470348  0.021925336           15 
 3000000   0.77870862   -6.9099581    808.89697   0.02246936  0.021918169           13 
 3001000   0.78036743   -6.9543792    805.12083  0.022357015   0.02191098            7 
 3002000   0.77060881   -6.9391018    809.26312  0.022464555  0.021903815           17 
 3003000   0.76925221   -6.9335697    806.18041  0.022371529   0.02189666           12 
 3004000   0.77755367   -6.9521165     808.4653  0.022427466  0.021889508           28 
 3005000   0.78783091   -6.9702431    810.16635  0.022467175  0.021882307           16 
 3006000   0.76508808   -6.9652579    806.53179  0.022358943  0.021875119           11 
 3007000   0.76219311   -6.9462279    808.68418  0.022411157  0.021867958           15 
 3008000   0.77047353   -6.9351037    806.29256  0.022337449  0.021860776            7 
 3009000   0.77194581    -6.959176    809.46307  0.022417832  0.021853625           15 
 3010000    0.7673275   -6.9610731    809.31675  0.022406333  0.021846448           16 
 3011000   0.77206656   -6.9348869    807.94121  0.022360822  0.021839291            8 
 3012000   0.76819718   -6.9106305     808.6793  0.022373819  0.021832169           17 
 3013000    0.7588191   -6.9872324    806.75221  0.022313093  0.021825038           26 
 3014000   0.76448647   -6.9744925     807.7636  0.022333654  0.021817895           13 
 3015000   0.76176818   -6.9628238    808.03257  0.022333681  0.021810747           18 
 3016000   0.77559306   -6.9344318    811.00958  0.022408532  0.021803652            8 
 3017000   0.77932905   -6.9214918    811.80056  0.022422952  0.021796605           14 
 3018000   0.77348181   -6.9347633    811.55328  0.022408695  0.021789548            8 
 3019000   0.74653454   -6.9488143    810.48797  0.022371866   0.02178251            7 
 3020000   0.77230335   -6.9515316    810.23785  0.022357556  0.021775453           15 
 3021000   0.76146964   -6.9360755    810.55217  0.022358826   0.02176842           15 
 3022000    0.7777842   -6.9359836    812.01828  0.022391856  0.021761382           11 
 3023000   0.78571023   -6.9547458    809.49797  0.022314973  0.021754357            7 
 3024000   0.73750949   -6.9699061    811.59279  0.022365322  0.021747293            8 
 3025000   0.77348369   -6.9396997     809.7681  0.022307661  0.021740278            7 
 3026000   0.75225091   -6.9247225    812.54845  0.022376858  0.021733296           13 
 3027000   0.77202702   -6.9425562    811.99213   0.02235415  0.021726311            9 
 3028000   0.76131868   -6.9688264    810.60657  0.022308635  0.021719285            9 
 3029000    0.7568779   -6.9737118    811.01929  0.022312625  0.021712247           13 
 3030000   0.76663224   -6.9342095    812.06111  0.022333914  0.021705203           18 
 3031000   0.76584886   -6.9766641    812.02678  0.022325602  0.021698172           15 
 3032000   0.77977005   -7.0124194    811.91375  0.022315132  0.021691124           15 
 3033000   0.76847643   -6.9688755    812.46391   0.02232289  0.021684065            5 
 3034000   0.78916053   -6.9689755    811.52022  0.022289613  0.021677034            7 
 3035000    0.7585153   -6.9841519    810.28297  0.022248297  0.021670004            5 
 3036000   0.76987958   -6.9350763    813.50566  0.022329426  0.021663009           13 
 3037000   0.75724275   -6.9364895    814.42291  0.022347243   0.02165603            9 
 3038000   0.77012381   -6.9521457    810.32178  0.022227391  0.021649052           17 
 3039000   0.75891005   -6.9483384    812.80335  0.022288125  0.021642067           14 
 3040000   0.78205293   -6.9542477    811.13931  0.022235178  0.021635043            8 
 3041000   0.77016354   -6.9461775    812.73385  0.022271562  0.021628041            8 
 3042000   0.76025102   -6.9619532    811.38118  0.022227186  0.021621012           13 
 3043000   0.75912623   -6.9836886     809.5604  0.022170019  0.021613995           11 
 3044000   0.76769373   -6.9568874    811.74358  0.022222503  0.021606985           13 
 3045000   0.76115617   -6.9807132    812.06602  0.022224029  0.021599979           12 
 3046000   0.76288205   -6.9489573    814.30385  0.022277956  0.021593017           10 
 3047000   0.77976974    -6.965059    810.40131  0.022163913  0.021586039           15 
 3048000   0.76450314   -6.9542434    811.33649  0.022182209  0.021579014           18 
 3049000   0.74897617   -6.9575736    811.57347  0.022181411  0.021572056           17 
 3050000   0.77732845   -6.9364841     811.7314  0.022178454  0.021565091           20 
 3051000    0.7643629   -6.9657066    812.34695  0.022187997  0.021558106            6 
 3052000   0.76565823   -6.9550606    811.39066  0.022154616  0.021551138            9 
 3053000   0.76978824   -6.9620283    810.23636  0.022115852   0.02154416           42 
 3054000   0.77666466   -6.9643667    812.14023  0.022160561  0.021537175            6 
 3055000   0.77376063   -6.9841324    812.01959  0.022150016  0.021530194            8 
 3056000   0.75885976   -6.9458559     811.2513  0.022121818  0.021523197           22 
 3057000   0.75567576   -6.9500295    810.84259   0.02210344  0.021516181           11 
 3058000   0.74477758   -7.0030889    810.08926  0.022075683   0.02150916            8 
 3059000   0.76607574   -6.9455405    810.01111  0.022066337  0.021502159            9 
 3060000   0.76753382   -6.9682561    811.93393  0.022111491  0.021495158            8 
 3061000   0.77438341    -6.982332    811.77415  0.022099917   0.02148815            8 
 3062000   0.76038752   -6.9422962     812.2782  0.022106417  0.021481131            7 
 3063000    0.7587025   -6.9477496    811.81024  0.022086469  0.021474127           17 
 3064000   0.76771226   -6.9696771    811.15008  0.022061305  0.021467111           33 
 3065000   0.76293121   -6.9794004    812.75705  0.022097799  0.021460108           12 
 3066000   0.77053152   -6.9810168      811.208  0.022048489  0.021453133           33 
 3067000   0.74619864   -7.0042463    810.75405  0.022028966  0.021446082           16 
 3068000    0.7594545   -6.9888702    810.82591  0.022023737  0.021439055           37 
 3069000   0.75260928   -6.9877369    810.74578  0.022014385  0.021432024           37 
 3070000    0.7648052   -6.9571095    811.40811  0.022025193  0.021425011           22 
 3071000    0.7542984    -6.977286    809.59716   0.02196888  0.021417977           12 
 3072000   0.75437059   -6.9851322    811.06915  0.022001659  0.021410946           26 
 3073000   0.76602967   -6.9780136    812.54623  0.022034554  0.021403936           15 
 3074000   0.76503672   -6.9945866    812.42599  0.022024127   0.02139694           20 
 3075000   0.75907121   -6.9769058    811.34672  0.021987716   0.02138993           20 
 3076000   0.75847523   -7.0040389    811.77095  0.021992061  0.021382879            9 
 3077000   0.75910823   -6.9981915    812.11763  0.021994303  0.021375863            7 
 3078000   0.75386231   -6.9962321     810.3773  0.021940039  0.021368875           20 
 3079000   0.76085407   -6.9788094    812.16644  0.021981337   0.02136188           14 
 3080000   0.75549895   -7.0161804    811.70556   0.02196173  0.021354889           21 
 3081000   0.75101606   -6.9759064    814.87546   0.02204034  0.021347946           16 
 3082000   0.74835424   -6.9907524    812.17696  0.021960225  0.021340986           15 
 3083000   0.73855823   -6.9847453    813.10109  0.021978081  0.021334031           21 
 3084000   0.76236343   -6.9626064    813.98254  0.021994772  0.021327061            7 
 3085000   0.75759351   -7.0013917    811.19949  0.021912466  0.021320095           17 
 3086000    0.7621797   -6.9804245    812.07128  0.021928907  0.021313115           16 
 3087000   0.75777522   -7.0344708    809.89228  0.021862981  0.021306111            7 
 3088000   0.76635538   -6.9622495    811.98768  0.021912448  0.021299094           13 
 3089000   0.73538718   -6.9957634    812.41551  0.021916896   0.02129212           11 
 3090000   0.74778376   -7.0012515    811.22649  0.021877737  0.021285105           17 
 3091000   0.74726134   -7.0002383    811.72292  0.021884043  0.021278109           14 
 3092000   0.77413028   -6.9828441    813.44023  0.021923249  0.021271125           14 
 3093000   0.74790739   -7.0067066    811.85459   0.02187344  0.021264146           24 
 3094000   0.74472133   -6.9764191    813.01955  0.021897747  0.021257188           23 
 3095000   0.76762892   -6.9930906    812.59547  0.021879253  0.021250239           29 
 3096000    0.7620971   -6.9871611    812.51174  0.021869933  0.021243297           43 
 3097000    0.7489075   -6.9850683    811.38464  0.021832543  0.021236366           30 
 3098000   0.74742171   -6.9740459    813.75262  0.021889193  0.021229417           45 
 3099000     0.749246   -6.9785265    813.17517  0.021866601  0.021222465           56 
 3100000   0.74137616   -7.0040418    811.82815  0.021823337  0.021215555           53 
 3101000   0.75720437   -7.0048311    810.79212  0.021788459  0.021208629           15 
 3102000   0.76795627     -6.98664    811.11225  0.021790035  0.021201691           27 
 3103000   0.75262559   -6.9878045    812.49631  0.021820182  0.021194768           41 
 3104000   0.76782619    -6.984524    812.58711   0.02181559  0.021187827           26 
 3105000   0.74933731   -6.9882235    811.45546  0.021778193  0.021180869           19 
 3106000   0.75332703   -6.9920415    811.47401  0.021771679  0.021173915           13 
 3107000   0.76393273    -7.003141     813.3557  0.021815141  0.021166912           11 
 3108000   0.75194019   -7.0139461    811.58329  0.021760599  0.021159925            8 
 3109000   0.74485517   -6.9810592    811.26222  0.021744994  0.021152988           10 
 3110000   0.73958983   -6.9910885    812.06139  0.021759416  0.021146048           16 
 3111000   0.75745409   -6.9886141    813.15268  0.021781653  0.021139172            7 
 3112000   0.76178826   -6.9840559    814.53614    0.0218117  0.021132306           13 
 3113000   0.76546057   -6.9908873    811.81292  0.021731795   0.02112543           24 
 3114000   0.76027531   -6.9951197    812.55976  0.021744802  0.021118532           16 
 3115000   0.75941159    -6.936868    815.60735  0.021819351  0.021111662            8 
 3116000    0.7596404   -7.0019462    812.34808  0.021725184  0.021104777           11 
 3117000    0.7576007   -6.9666682    813.05113   0.02173701  0.021097864           16 
 3118000   0.75024085   -6.9893679     813.2695  0.021735875  0.021090942            8 
 3119000   0.73298559   -7.0078343    812.03897  0.021696029  0.021084005            8 
 3120000   0.75262456   -7.0126888    812.79429  0.021709249  0.021077081            9 
 3121000    0.7533173    -7.004841      813.226   0.02171382  0.021070187            6 
 3122000   0.76292751   -7.0340845    812.16281  0.021678486  0.021063258           14 
 3123000   0.74119264    -6.995702    812.62726  0.021683938  0.021056357           13 
 3124000    0.7538543   -7.0194359     811.1452  0.021637463  0.021049413           10 
 3125000   0.75209714   -7.0024933     814.7686  0.021727163   0.02104249           11 
 3126000   0.76556837   -6.9898187     815.1651  0.021730782  0.021035619            7 
 3127000   0.74162275   -7.0152177    812.81264  0.021661141  0.021028732           14 
 3128000   0.75927236   -6.9978531    813.50528  0.021672668  0.021021846           12 
 3129000   0.74996658   -7.0035906    814.86202  0.021701875  0.021014978            9 
 3130000   0.75445953   -6.9860043    815.99009  0.021724976  0.021008129            9 
 3131000   0.74712223   -7.0260225    815.25528   0.02169848  0.021001275            7 
 3132000   0.76171008    -6.973496    816.14366  0.021715189  0.020994404           10 
 3133000   0.74187175    -6.971913    814.29272  0.021659026  0.020987561            8 
 3134000   0.75538682   -6.9839144    815.01015  0.021671191  0.020980706           10 
 3135000   0.75310923   -7.0188295    813.69546  0.021629332  0.020973876           15 
 3136000   0.76314832   -6.9982006     814.7521  0.021650513  0.020967014            7 
 3137000    0.7357164   -7.0012343    814.37351  0.021633554  0.020960149           14 
 3138000   0.76760953    -7.011706    811.66818  0.021554817  0.020953287           10 
 3139000   0.74617183   -7.0028469    814.75628  0.021629932  0.020946405            9 
 3140000   0.78049178    -7.025109    812.62067  0.021566366  0.020939541            8 
 3141000   0.74946856   -6.9998708    813.84366  0.021591947  0.020932665           13 
 3142000   0.76582956   -6.9828318    815.86924  0.021638798  0.020925854            9 
 3143000   0.75185481   -6.9713806    816.60186  0.021651338  0.020919052            7 
 3144000   0.73309692   -6.9992583      815.267   0.02160907  0.020912259           10 
 3145000   0.75034299   -6.9767488    815.61397  0.021611393  0.020905439           19 
 3146000   0.75644343   -7.0102167    814.88899   0.02158532  0.020898631           10 
 3147000   0.74990244   -6.9769725    815.40819  0.021592209  0.020891815           12 
 3148000   0.75837774   -7.0003438    814.30253  0.021556081  0.020885011           29 
 3149000   0.76035962   -6.9807495    816.40569  0.021604893  0.020878227           11 
 3150000   0.74177143   -6.9727095    815.12955  0.021564274  0.020871451           10 
 3151000   0.76361614   -7.0238057    814.08369  0.021529771  0.020864648            7 
 3152000    0.7504758   -7.0052004    813.12845  0.021497685  0.020857825           21 
 3153000   0.75809538   -7.0236446    813.85845  0.021510161  0.020851016           14 
 3154000   0.74505629   -7.0299992     813.0198  0.021481183  0.020844181           11 
 3155000   0.74648386   -7.0174955    814.50211  0.021513526  0.020837349            5 
 3156000   0.74794162   -7.0338249    814.28753  0.021501044  0.020830539           16 
 3157000   0.74454073   -7.0211221    815.29503  0.021520828  0.020823733            7 
 3158000   0.74877395   -7.0310957    816.73917  0.021552121   0.02081691            8 
 3159000   0.74247722   -7.0275035    814.75817   0.02149304  0.020810089           10 
 3160000   0.72931855   -7.0131063    815.08484  0.021494853  0.020803242            8 
 3161000   0.75432239    -7.029742    812.80641  0.021427987   0.02079643           12 
 3162000   0.73564861   -7.0226477     815.6475  0.021496086  0.020789631            8 
 3163000   0.74362549    -7.003942    815.30406  0.021480242  0.020782843            9 
 3164000   0.74424216   -7.0333841    816.29895  0.021499656  0.020776045           19 
 3165000   0.74325188   -7.0296874    814.94313  0.021457165  0.020769211           25 
 3166000   0.73917098   -7.0302845    815.87296  0.021474862  0.020762411           19 
 3167000   0.74927948   -7.0056296    816.16611  0.021475795  0.020755618           13 
 3168000   0.74936865   -7.0382093    814.27296  0.021419217  0.020748844           10 
 3169000   0.73553809   -6.9776465    816.50681  0.021471201  0.020742112           15 
 3170000   0.73853433   -7.0009104    815.51471  0.021438347  0.020735386           14 
 3171000   0.72994584   -6.9907581    814.30699  0.021399847  0.020728661           12 
 3172000   0.77160691   -6.9863165    814.93409  0.021409576  0.020721954           10 
 3173000   0.73746313   -7.0270086    813.73263  0.021371274  0.020715202           14 
 3174000   0.73732243   -7.0074666    816.15085  0.021428031  0.020708476            7 
 3175000    0.7462239   -7.0237136    815.41028  0.021401845  0.020701761           19 
 3176000   0.76126938   -7.0150495    815.93755  0.021408941  0.020695079            8 
 3177000    0.7242336   -6.9931172    816.22562  0.021409758  0.020688367           18 
 3178000   0.73457264   -7.0030265    816.81594  0.021418501  0.020681671           12 
 3179000   0.74535648   -7.0285477    817.01716  0.021417038  0.020674969           15 
 3180000   0.73149487   -7.0216408    816.07607  0.021385641  0.020668228           12 
 3181000   0.74762843   -7.0646979    814.71714  0.021343318  0.020661469           10 
 3182000   0.73007533   -7.0581465    815.43716  0.021355467  0.020654659           14 
 3183000   0.75410337   -7.0410599     814.8978  0.021334637  0.020647879           10 
 3184000   0.74016019   -7.0447776    815.21817  0.021336321  0.020641144            8 
 3185000   0.74220961   -7.0297694    816.14845  0.021353962  0.020634428           10 
 3186000   0.75271851   -7.0412332     816.0078  0.021343581  0.020627701            7 
 3187000   0.75347996   -7.0297991    816.51509  0.021350149   0.02062101           17 
 3188000   0.73053635   -7.0093079    817.68624  0.021374065  0.020614301           20 
 3189000   0.74823261   -7.0275943    814.46685  0.021283235  0.020607598           34 
 3190000   0.76883022   -7.0101403    818.03302  0.021369723  0.020600898           12 
 3191000   0.75973313   -7.0016444    817.94462  0.021360718  0.020594224           13 
 3192000   0.74770198   -7.0180704    818.52048   0.02136906  0.020587533           28 
 3193000   0.74052307   -6.9898444    818.95128  0.021373611  0.020580866           18 
 3194000   0.74838408   -7.0098176    814.91557  0.021261625  0.020574192           15 
 3195000   0.74926996   -6.9863748    816.89005   0.02130647  0.020567504           12 
 3196000   0.77591611   -7.0399579    814.92934  0.021248679  0.020560825           10 
 3197000   0.72912626   -7.0302489    817.58957  0.021311374  0.020554141           23 
 3198000   0.74370717   -6.9982927    818.47532  0.021327791  0.020547487            8 
 3199000    0.7284222   -7.0316277    816.75334  0.021276267  0.020540849           18 
 3200000   0.72911505   -7.0222932    817.84582  0.021298068  0.020534203            6 
 3201000   0.74377112   -7.0087705    816.75063  0.021262903  0.020527582           10 
 3202000   0.73461792   -7.0233998    817.04216   0.02126385  0.020520935           13 
 3203000   0.72972947    -7.027131    818.04145   0.02128321  0.020514271           20 
 3204000   0.73951103   -7.0229771    818.04161  0.021276571  0.020507619           17 
 3205000   0.74135906   -7.0451821    816.12236   0.02122003  0.020500957           12 
 3206000   0.75227128    -7.045191    815.59881  0.021199803  0.020494249           12 
 3207000   0.74561404    -7.015926    818.78311  0.021275936  0.020487557           11 
 3208000   0.74972257   -7.0262776    817.67771  0.021240589  0.020480866           14 
 3209000   0.73433605   -7.0358416    816.97966  0.021215843  0.020474204           21 
 3210000   0.75180097   -7.0522089     817.6524  0.021226698  0.020467535           18 
 3211000    0.7421718   -7.0512298    815.64508  0.021167992  0.020460845           23 
 3212000   0.73643394   -7.0676602    815.00653  0.021144835  0.020454161           30 
 3213000     0.735298   -7.0657875    816.18635  0.021168854  0.020447468           15 
 3214000   0.73259927   -7.0361677    817.44288  0.021194848  0.020440824           12 
 3215000   0.74898292   -7.0156444    819.36309  0.021238027  0.020434171           27 
 3216000   0.73918621   -7.0396878    816.66245  0.021161444   0.02042752           21 
 3217000   0.74376335     -7.05642    816.52956  0.021151424  0.020420866           35 
 3218000   0.73342353   -7.0494493    815.67469  0.021122713  0.020414188           41 
 3219000   0.75584172   -7.0393981    816.31178  0.021132644  0.020407548           65 
 3220000   0.72616402   -7.0516396    816.99915   0.02114387   0.02040086           51 
 3221000   0.72130483   -7.0504773    817.71163  0.021155739  0.020394191           42 
 3222000   0.73910561   -7.0579947    814.90904  0.021076687   0.02038747           46 
 3223000   0.73613222   -7.0531768    817.34643  0.021133169  0.020380773           27 
 3224000   0.75471822   -7.0838517    815.75119   0.02108538  0.020374083           79 
 3225000   0.73794939   -7.0923314    815.48034  0.021071843  0.020367344           79 
 3226000   0.72690872   -7.0795695    815.47455  0.021065162  0.020360635           73 
 3227000   0.74298353   -7.0719205    817.40429  0.021108467  0.020353963           38 
 3228000   0.72946807   -7.0384596    817.82718  0.021112845   0.02034731           52 
 3229000    0.7339762   -7.0512421     818.8605  0.021132975  0.020340644           65 
 3230000   0.71231984   -7.0904046    817.43303  0.021089603  0.020333977           51 
 3231000   0.72650927    -7.076438    817.29361   0.02107948   0.02032731           75 
 3232000   0.72242969   -7.0565941    819.01495  0.021117341  0.020320661           45 
 3233000   0.71978605   -7.0468699    817.66642   0.02107605  0.020314001           36 
 3234000   0.73558218   -7.0807906    816.12128  0.021029718  0.020307328           77 
 3235000   0.73604884   -7.0576138    816.92957  0.021044038   0.02030066           53 
 3236000   0.73530498    -7.062826    817.75725   0.02105885   0.02029402           38 
 3237000   0.73930357   -7.0728278    818.07476  0.021060518  0.020287376           29 
 3238000   0.72030949   -7.0508734    818.44065   0.02106343  0.020280737           33 
 3239000   0.72340018   -7.0490526    817.47429  0.021032065  0.020274092           59 
 3240000   0.73941719   -7.0511234    819.18663  0.021069615  0.020267455           22 
 3241000   0.72014241   -7.0957007    814.94471  0.020954045  0.020260781           68 
 3242000   0.74056831   -7.0783353    817.43882  0.021011691  0.020254127           40 
 3243000   0.72203172   -7.0842199    817.14031  0.020997541  0.020247508           25 
 3244000   0.73047678   -7.0952416    816.93016   0.02098567   0.02024086           49 
 3245000   0.73852747   -7.0727974    818.28043  0.021013878  0.020234226           53 
 3246000   0.72839262   -7.0568343    818.79272  0.021020557  0.020227633           50 
 3247000   0.73139405   -7.0765338      819.876  0.021041885  0.020221065           58 
 3248000   0.72564295   -7.0610039    817.21381  0.020967103  0.020214477           26 
 3249000   0.73212895   -7.0621323    817.46551  0.020967105  0.020207847           47 
 3250000   0.73015664   -7.0645983    818.97165  0.020999273  0.020201247           33 
 3251000   0.73978066   -7.0671334    817.06596  0.020943965  0.020194651           62 
 3252000   0.73368482   -7.0662986    815.69459  0.020902383   0.02018805           47 
 3253000   0.72876918   -7.0643695    818.39136  0.020965041   0.02018146           68 
 3254000   0.71113155   -7.0595139    820.58426  0.021014758   0.02017485           47 
 3255000   0.73991218   -7.0732938    816.92413  0.020914596  0.020168216           42 
 3256000    0.7249652   -7.0743709    817.58374  0.020925055  0.020161608           39 
 3257000   0.72749259   -7.0939294    815.73036   0.02087121  0.020155007           19 
 3258000   0.73746043   -7.0637976    817.95115  0.020921607  0.020148413           33 
 3259000   0.72447047   -7.0803899    816.83367  0.020886613  0.020141812           53 
 3260000   0.72325326    -7.079509    817.40677  0.020894856  0.020135211           36 
 3261000   0.72512656   -7.0855417    818.09417  0.020906015  0.020128631           18 
 3262000   0.72390946   -7.0715098     819.0114  0.020923038  0.020122035           34 
 3263000   0.72838529   -7.0544194    817.89714  0.020888169  0.020115476           63 
 3264000   0.74690369   -7.0573937    818.78579  0.020904458  0.020108925           32 
 3265000   0.71425988   -7.0941377    818.12509  0.020881192  0.020102339           34 
 3266000   0.73011951   -7.0436097    818.27997   0.02087875  0.020095747           27 
 3267000   0.73811358   -7.0956806    817.24978  0.020846081  0.020089145           47 
 3268000   0.73033482    -7.072412    817.02827  0.020834054  0.020082539           43 
 3269000   0.72777513   -7.0587075    817.68732  0.020844481  0.020075958           23 
 3270000   0.71787307   -7.0741321    818.81902  0.020866948  0.020069388           14 
 3271000   0.72638045   -7.0553496    819.04139  0.020866233  0.020062839           29 
 3272000   0.71853475   -7.0773601    817.12839  0.020811135  0.020056275           41 
 3273000   0.71996803   -7.0896576    819.29822  0.020860022   0.02004969           35 
 3274000   0.72221697   -7.0750489    817.19027  0.020799997  0.020043096           29 
 3275000   0.72967641   -7.0685918    818.15695  0.020818243  0.020036535           32 
 3276000   0.72902403   -7.1025678     817.3608  0.020791636  0.020029964           48 
 3277000   0.71008163   -7.0782421    817.11253  0.020778978  0.020023397           57 
 3278000   0.71867043   -7.0936364    818.04456  0.020796333  0.020016829           39 
 3279000   0.72691327   -7.0686455    818.45442  0.020800407  0.020010262           33 
 3280000   0.73687213   -7.0575044    819.32022  0.020816063  0.020003733           10 
 3281000   0.72957355   -7.0600489    817.34043  0.020759434  0.019997211           12 
 3282000   0.71950409   -7.0423853    819.70068  0.020813038  0.019990698           14 
 3283000   0.72279635   -7.0853221    817.69327  0.020755743  0.019984156           18 
 3284000   0.73371215   -7.0762059    817.52259  0.020745092  0.019977623           23 
 3285000    0.7162009   -7.0918073    818.96471   0.02077536  0.019971102           19 
 3286000   0.72558573   -7.0954202    817.54662  0.020733075  0.019964561           38 
 3287000   0.72194233   -7.0866372    818.16724  0.020742502  0.019958011           34 
 3288000   0.71798291   -7.0668526    819.44216  0.020768506  0.019951472           23 
 3289000   0.72469077   -7.0898778    820.12108  0.020779393  0.019944915           17 
 3290000   0.73459394   -7.0992836    820.54953  0.020783929  0.019938352           31 
 3291000   0.72767763   -7.1167086    817.07794  0.020689708  0.019931806           25 
 3292000   0.72756643   -7.0881424    819.00454  0.020732193  0.019925257           27 
 3293000   0.71399821   -7.1081806    816.00942  0.020650102  0.019918698           89 
 3294000   0.72508989   -7.0949181    817.08277  0.020670987  0.019912115           23 
 3295000   0.71761969   -7.0916194     818.9995  0.020713189  0.019905546           53 
 3296000   0.73910005   -7.1092496    817.37082  0.020665727  0.019898971           49 
 3297000   0.71492515   -7.1005072    820.52286  0.020739128  0.019892428           29 
 3298000   0.73156808   -7.0825021     819.5678  0.020708707  0.019885875           46 
 3299000   0.70713681   -7.1046503    816.78712   0.02063219  0.019879376           26 
 3300000   0.72170712   -7.0830342    819.25846  0.020688345  0.019872856           52 
 3301000   0.73387612   -7.0942503    820.40068  0.020710913  0.019866368           22 
 3302000   0.71504531   -7.0764802    818.41202  0.020654452  0.019859879           22 
 3303000   0.70528229   -7.0941327    819.66096  0.020679709  0.019853401           14 
 3304000   0.71842746    -7.080446    816.60815  0.020596453  0.019846894           27 
 3305000   0.71377394   -7.0993813    818.05284  0.020626647  0.019840388           24 
 3306000   0.73892325   -7.0792704     820.3367  0.020677977  0.019833891           15 
 3307000   0.71606092   -7.0673177    821.68001  0.020705574  0.019827439           23 
 3308000   0.72448917   -7.1092391    818.92082  0.020629807  0.019820979           15 
 3309000   0.72041269   -7.0729809    820.48653  0.020663003  0.019814495           10 
 3310000   0.72284782   -7.0815468      821.003  0.020669763  0.019808017           17 
 3311000   0.71102418   -7.0877257    821.33332  0.020671834  0.019801553           22 
 3312000   0.72195719   -7.0959676    819.64018  0.020622992  0.019795091           16 
 3313000   0.72513118   -7.0919099    822.69867  0.020693698  0.019788618           34 
 3314000   0.71955802   -7.1135225    820.23401  0.020625478   0.01978216           27 
 3315000   0.70949519   -7.0694006    818.94196  0.020586776  0.019775694           32 
 3316000   0.71978739   -7.0852032    821.56306  0.020646438  0.019769236           17 
 3317000   0.71996641   -7.0848408    819.82198  0.020596472  0.019762788           22 
 3318000   0.72907756   -7.0665882    819.31726  0.020577588  0.019756359           14 
 3319000   0.72646147   -7.1029807    820.13009  0.020591797  0.019749916           15 
 3320000   0.72041325   -7.0624466    819.99617  0.020582233  0.019743463           13 
 3321000   0.71924439   -7.0844695    817.73376  0.020519265  0.019736992           13 
 3322000   0.72446432   -7.0772075    818.22351  0.020525374  0.019730527           14 
 3323000   0.72074703   -7.0854301    819.57208  0.020553016  0.019724069           12 
 3324000   0.70690115   -7.0747179    820.35907  0.020566563  0.019717629           25 
 3325000   0.70319103    -7.105152    819.86719   0.02054805  0.019711163           12 
 3326000    0.7170897   -7.1004525     819.3439  0.020528761  0.019704706           14 
 3327000   0.71825413   -7.0784049    820.37686  0.020548464  0.019698262           11 
 3328000   0.73213249   -7.0852998    817.53946  0.020471241  0.019691811           42 
 3329000   0.73022214   -7.0875902    819.77098  0.020520952  0.019685372           43 
 3330000   0.71495986   -7.0954575    819.45558  0.020506896  0.019678931           14 
 3331000   0.70074778    -7.122956    819.47426  0.020501207  0.019672463           10 
 3332000   0.71575839   -7.1211665    819.28614   0.02049035  0.019665962           33 
 3333000    0.7285381   -7.1204215    819.28125   0.02048408  0.019659443           22 
 3334000   0.71906658   -7.1020827    819.35753  0.020479842  0.019652925           17 
 3335000   0.70609163    -7.138095    817.17684  0.020419211  0.019646404           13 
 3336000   0.72859287   -7.1116179    820.33568  0.020491998  0.019639903           22 
 3337000   0.72623271   -7.1121561    819.19299  0.020457322  0.019633424           28 
 3338000   0.72832195   -7.1211628    815.98255  0.020371044  0.019626914           26 
 3339000   0.70326045   -7.1248188    818.05871  0.020416759  0.019620408           68 
 3340000   0.72363969   -7.1222821    820.73351  0.020477383  0.019613913           12 
 3341000   0.71885656   -7.1327937     818.7674  0.020422214  0.019607448           38 
 3342000    0.7116309   -7.1147056    819.46227   0.02043343   0.01960093           42 
 3343000   0.73080427   -7.1475109    819.16126  0.020419814   0.01959443           17 
 3344000   0.69986119   -7.1472698    818.86304  0.020406276  0.019587942           30 
 3345000   0.71774406   -7.1186509    820.33617  0.020436875  0.019581453           24 
 3346000   0.69845331   -7.1271761     818.9202  0.020395502  0.019574985           15 
 3347000   0.73559342   -7.1300234    817.99075  0.020366267  0.019568521            7 
 3348000   0.72790676   -7.1389946    817.50606   0.02034812  0.019562063           27 
 3349000   0.72794154   -7.1072352    820.85183  0.020425297  0.019555609           28 
 3350000   0.71733369   -7.1160841    820.32947  0.020406206  0.019549153           14 
 3351000   0.70998574   -7.1438324    820.03017  0.020392673  0.019542708           26 
 3352000   0.73411737   -7.1222171    818.22007  0.020341589  0.019536267           31 
 3353000   0.71880787   -7.1066699    820.83525  0.020400518  0.019529807           21 
 3354000   0.70879098   -7.0947562    821.47833  0.020410414   0.01952335           27 
 3355000   0.71942174   -7.0911786    821.95244  0.020416106  0.019516939            7 
 3356000   0.73173311   -7.0904318    818.95188  0.020335515  0.019510525           21 
 3357000   0.72417103   -7.1063153    821.40692  0.020390401  0.019504118           20 
 3358000   0.73924593   -7.1185091    818.76646  0.020318802  0.019497701           14 
 3359000   0.70611383   -7.0993352    820.52172    0.0203563  0.019491299           26 
 3360000     0.715124   -7.1211476    818.98702  0.020312178  0.019484871           10 
 3361000   0.69983623   -7.1022575    821.20607  0.020361154  0.019478475           12 
 3362000    0.7170098   -7.0977847    820.64063  0.020341082  0.019472063           11 
 3363000   0.72481776   -7.1114573    819.38789  0.020303992  0.019465654           22 
 3364000   0.72210439   -7.1024341     820.2677  0.020319751  0.019459267           14 
 3365000   0.69832995   -7.0819658    820.27067  0.020313786  0.019452876           16 
 3366000    0.7023094   -7.1284207    820.91048  0.020323591  0.019446519           12 
 3367000    0.7190037   -7.1163694    818.85105  0.020266584  0.019440111            8 
 3368000   0.69602073   -7.1018597    822.16787  0.020342633  0.019433686           17 
 3369000   0.72523696   -7.1293954     819.9535  0.020281822  0.019427287           12 
 3370000   0.70696797   -7.1138423    821.02637  0.020302334  0.019420906           32 
 3371000   0.71899474   -7.1311821    821.37275  0.020304874  0.019414556           16 
 3372000   0.71877054   -7.1013425    819.32594  0.020248269  0.019408206           29 
 3373000   0.70379113   -7.1049274    821.23824  0.020289511  0.019401861           15 
 3374000   0.71945913   -7.1170317    822.04176  0.020303343  0.019395519           20 
 3375000   0.70374931   -7.1272865    819.38586   0.02023175  0.019389149           17 
 3376000   0.70990599   -7.1336723    819.73241  0.020234311  0.019382781           28 
 3377000   0.71364929   -7.1007796    820.47271  0.020246587  0.019376419           20 
 3378000   0.71509151   -7.1206148    821.30685  0.020261172  0.019370098           21 
 3379000    0.7046595   -7.1364182    820.19548  0.020227767  0.019363747           18 
 3380000   0.71753535   -7.1043244    819.84858  0.020213229  0.019357399           16 
 3381000   0.70682837   -7.0775562    822.77972  0.020279496   0.01935106           25 
 3382000    0.7198789   -7.1267576    820.86819  0.020226399  0.019344713           23 
 3383000   0.72273608   -7.1103528    822.18065   0.02025275  0.019338365           47 
 3384000   0.71473668   -7.1263666    822.52546  0.020255257  0.019332042           15 
 3385000   0.72065666    -7.125521    817.77838  0.020132407  0.019325685           19 
 3386000   0.70320962    -7.124907     821.3461  0.020214267  0.019319335           12 
 3387000   0.69854847   -7.1297113    820.36135   0.02018407  0.019312979           17 
 3388000   0.69660067   -7.1414386    819.52835  0.020157624  0.019306594           13 
 3389000   0.70745121   -7.1393927    819.41188  0.020148812  0.019300219           21 
 3390000   0.71430297   -7.1209901    822.28136  0.020213406  0.019293873           24 
 3391000   0.72057048   -7.1149827    820.32851  0.020159454  0.019287537           15 
 3392000   0.70482833   -7.1298111    820.02823  0.020146134  0.019281188           23 
 3393000   0.71517031   -7.1187914    821.25529  0.020170333  0.019274856           13 
 3394000   0.70491652   -7.1423887    818.77519  0.020103496  0.019268498           16 
 3395000   0.69896222   -7.1482259    819.92899  0.020125896  0.019262136           21 
 3396000   0.71489047   -7.1299076    819.74468  0.020115447  0.019255807            6 
 3397000   0.70612999   -7.1255783    820.13423  0.020119081  0.019249484           19 
 3398000   0.71425236   -7.1001265    820.52649   0.02012278  0.019243152           20 
 3399000   0.71717596   -7.1049313    821.60813  0.020143379  0.019236835           11 
 3400000   0.70502707    -7.126321    821.22592  0.020128086  0.019230517            9 
 3401000   0.70767134   -7.1326772    818.62463   0.02005843  0.019224175            9 
 3402000   0.70116351   -7.1312071    822.11958  0.020138144  0.019217832           14 
 3403000   0.71187492   -7.1309683    820.97225   0.02010413  0.019211501            6 
 3404000    0.6983716   -7.1335072    818.96561  0.020049099  0.019205166           40 
 3405000   0.70304834   -7.1432619     821.3728  0.020102124   0.01919886           10 
 3406000   0.69948419   -7.1419975    821.78259  0.020106249  0.019192539           19 
 3407000   0.71995291   -7.1338024    821.50419  0.020093538  0.019186214           45 
 3408000   0.69883485   -7.1317858    823.47336  0.020135792  0.019179895           11 
 3409000   0.71623132   -7.1156111    821.51752  0.020082075    0.0191736           35 
 3410000   0.71195501   -7.1448863    821.86872  0.020084768  0.019167309           15 
 3411000   0.72692839   -7.1571743    820.69448  0.020050193   0.01916099           43 
 3412000   0.70886956   -7.1478514    818.74737  0.019996761  0.019154677           18 
 3413000   0.72788918   -7.1381269    820.81017  0.020041268  0.019148381           18 
 3414000   0.70725198   -7.1383737    821.25567  0.020046272  0.019142067           27 
 3415000   0.70170611    -7.125929    822.78025  0.020077605  0.019135797           17 
 3416000   0.71410444   -7.1468748    822.01287  0.020053007  0.019129517           13 
 3417000   0.71144545   -7.1241697    822.09397  0.020049117  0.019123236           14 
 3418000   0.70200741   -7.1244279    822.13423  0.020044232  0.019116947           49 
 3419000   0.70523665   -7.1812943    820.86329  0.020007392  0.019110628           28 
 3420000   0.69364433   -7.1552316    821.30733  0.020012362  0.019104313           18 
 3421000   0.70326721   -7.1536976    820.30833  0.019982177   0.01909801           50 
 3422000   0.69734391   -7.1383832    821.18327  0.019997644  0.019091684           32 
 3423000   0.69798782   -7.1497722    820.07808  0.019964896  0.019085387           19 
 3424000   0.71682032   -7.1704898    819.65408  0.019948746  0.019079081           34 
 3425000   0.71540369    -7.146093    820.35133  0.019959886  0.019072796           20 
 3426000   0.70307957   -7.1641155    821.72653  0.019987511   0.01906651           37 
 3427000   0.67228403   -7.1276033    821.79705  0.019983393   0.01906025           13 
 3428000   0.71145559   -7.1651705    819.54588  0.019922838   0.01905399           42 
 3429000   0.70497312   -7.1608924     821.7211  0.019969892  0.019047721           23 
 3430000   0.70235156   -7.1581494    823.35488  0.020003763  0.019041449           28 
 3431000   0.70593629   -7.1525829    820.24409  0.019922376  0.019035157           18 
 3432000   0.70848782   -7.1539519     819.8808  0.019907751  0.019028867           15 
 3433000   0.70287752   -7.1437522    820.08953  0.019907018  0.019022577           49 
 3434000   0.70931339    -7.123428    820.26221  0.019905412  0.019016297           16 
 3435000    0.7157719   -7.1436011    823.48445  0.019977789  0.019010035           13 
 3436000   0.70392647   -7.1571507    821.04176  0.019912732  0.019003776           20 
 3437000   0.69574713    -7.134458    821.67781   0.01992236  0.018997498           30 
 3438000   0.69676364    -7.149016    819.80719  0.019871223  0.018991263           14 
 3439000   0.68619829   -7.1587951    819.26432   0.01985229  0.018984987           22 
 3440000   0.69756484    -7.149824     820.8696  0.019885407  0.018978703           22 
 3441000   0.69375248   -7.1765842    818.93421  0.019832757  0.018972415           24 
 3442000   0.69898619    -7.146145    820.10899  0.019855437  0.018966129           28 
 3443000   0.70544972   -7.1509137    821.62855   0.01988645  0.018959842           57 
 3444000   0.70356959   -7.1649862    821.74514  0.019883496  0.018953573           72 
 3445000   0.68922256   -7.1364867     821.7629  0.019878154  0.018947321           35 
 3446000   0.69372083   -7.1642151    820.41632  0.019839822  0.018941052           26 
 3447000    0.6992256   -7.1627428     821.7207  0.019865601  0.018934795            9 
 3448000   0.70506279   -7.1365136    823.57644   0.01990469  0.018928559           21 
 3449000    0.6873483   -7.1465215    820.34213  0.019820772  0.018922313           28 
 3450000   0.69972755   -7.1726936    820.47292  0.019818186  0.018916044           52 
 3451000   0.70447458   -7.1322479    819.75494  0.019795106  0.018909775           25 
 3452000   0.70030657   -7.1683182    821.43329  0.019829888  0.018903527           22 
 3453000   0.69042543   -7.1462932    821.17302  0.019817864  0.018897279           30 
 3454000   0.70195626   -7.1474057    820.82244  0.019803668  0.018891034           19 
 3455000   0.70092352   -7.1519619    822.18573  0.019830818  0.018884765           25 
 3456000   0.70229254   -7.1534574    820.70564  0.019789391  0.018878492           50 
 3457000   0.69054906   -7.1753406    820.84537  0.019787035  0.018872205           33 
 3458000   0.70164301   -7.1683911    820.38292  0.019770169  0.018865918           18 
 3459000   0.69387115   -7.1770218    819.84914  0.019751593  0.018859617           12 
 3460000   0.70069899   -7.1614661    820.56737  0.019763183  0.018853346           16 
 3461000   0.69212352    -7.180252    818.92585  0.019717949   0.01884709           14 
 3462000   0.68153295   -7.1748059    821.39463  0.019771679  0.018840825           17 
 3463000    0.6937054   -7.1706158    820.26948  0.019738894  0.018834547           32 
 3464000   0.70831251   -7.1637109    820.96689  0.019749973  0.018828288           19 
 3465000   0.70224287   -7.1965408    820.44854  0.019731807  0.018822016           18 
 3466000   0.70465315   -7.1799194     820.4799  0.019726868  0.018815731           22 
 3467000   0.69750373   -7.1766842    819.62449  0.019700618  0.018809445           22 
 3468000   0.67805138   -7.1705149    821.59299  0.019742238   0.01880317           42 
 3469000   0.69328205   -7.1624787    822.10132  0.019748759  0.018796926           36 
 3470000   0.70939933   -7.1463012    821.02937  0.019717324  0.018790691           61 
 3471000   0.70933079   -7.1861883    820.80116  0.019706164  0.018784466           49 
 3472000   0.68652214   -7.1456223    820.03831  0.019682179   0.01877826           64 
 3473000   0.68295825   -7.1887518    822.29212  0.019730591  0.018772062           31 
 3474000   0.69173593   -7.1733494     819.1636  0.019649866  0.018765819           27 
 3475000   0.69251259   -7.1612092    820.24613  0.019670171  0.018759601           78 
 3476000   0.69407727   -7.1849139    819.02291  0.019635187   0.01875338           12 
 3477000   0.68726281   -7.1792786      820.347  0.019661274  0.018747142           30 
 3478000   0.69385358   -7.1900526    820.01368  0.019647635   0.01874092           29 
 3479000    0.6785722   -7.1700878    821.33197  0.019673564  0.018734689           46 
 3480000   0.69691243   -7.1852003    820.35257  0.019644458  0.018728451           69 
 3481000   0.70088029   -7.1833043    820.34016  0.019638518  0.018722207          116 
 3482000   0.68760616   -7.2063065     819.5507  0.019613984  0.018715953           14 
 3483000   0.71904231   -7.1781433    820.27131  0.019625594  0.018709691           33 
 3484000   0.70124885   -7.1813942    821.31023   0.01964481  0.018703445           20 
 3485000   0.69522042   -7.1909735    820.17383     0.019612  0.018697208           19 
 3486000   0.69057497   -7.1907615    819.62225  0.019593188  0.018690942           64 
 3487000   0.69795377   -7.1797765    820.34472  0.019604835  0.018684692           59 
 3488000   0.69311805   -7.2026216    821.74454  0.019632658  0.018678444           22 
 3489000   0.68600261   -7.2173767    820.10178  0.019587795  0.018672207           20 
 3490000   0.69221472   -7.1895396    818.90859  0.019553691  0.018665953           36 
 3491000   0.69130358   -7.1707904    820.98911  0.019597754   0.01865972           21 
 3492000   0.68107157   -7.1945309    820.19307  0.019573145  0.018653514           39 
 3493000   0.68598887   -7.1735349    821.66088  0.019602559  0.018647286           14 
 3494000   0.69294202    -7.188833    820.18548   0.01956176  0.018641065           27 
 3495000   0.68574612   -7.1955986    820.38092  0.019560823  0.018634844           44 
 3496000   0.69723932   -7.1809054    820.37184  0.019555011  0.018628619           36 
 3497000     0.684418   -7.2074731    818.52018  0.019505294  0.018622382           38 
 3498000   0.68394076   -7.2199923    820.30695  0.019542285  0.018616152           52 
 3499000    0.7121873   -7.1995239    820.36777  0.019538148  0.018609928           78 
 3500000    0.6936557   -7.2203236    818.16449  0.019480107   0.01860371           33 
 3501000   0.67530941   -7.2017508    822.05403  0.019567124   0.01859748           28 
 3502000   0.70943755   -7.2074649    821.36202   0.01954507  0.018591254           30 
 3503000   0.68728977   -7.1882633    822.25066   0.01956063  0.018585033           31 
 3504000   0.69755909   -7.1875143    822.13937  0.019552401  0.018578822           37 
 3505000   0.68256991   -7.1818422    821.12634  0.019522738  0.018572623           42 
 3506000   0.69561906   -7.1956824    821.17565  0.019518341  0.018566421           39 
 3507000   0.67693919   -7.2081377    818.95075  0.019459908  0.018560218           48 
 3508000   0.68743455    -7.201298     818.7566  0.019449748  0.018553987           41 
 3509000   0.69183682   -7.2265958    819.24754  0.019455864  0.018547774           71 
 3510000   0.68189884   -7.2190145    818.34934  0.019428997  0.018541554           53 
 3511000   0.70393838   -7.2083345    819.65304  0.019454406  0.018535346           55 
 3512000   0.68194805   -7.2164941    820.09372  0.019459323  0.018529133           31 
 3513000   0.70842098   -7.2085659    819.39554  0.019437222   0.01852291           38 
 3514000    0.6906858   -7.1737479    820.99468  0.019469614  0.018516714           40 
 3515000   0.69702645   -7.2047973    819.86735  0.019437348  0.018510536           95 
 3516000   0.70632973   -7.1834401    821.01343  0.019458984   0.01850436           62 
 3517000   0.68187045   -7.2055413    820.85644  0.019449731  0.018498166           19 
 3518000   0.69762513   -7.2056134    819.76997  0.019418466  0.018491991           27 
 3519000   0.68535293   -7.1731978    819.73344  0.019412083  0.018485817           38 
 3520000   0.69557206    -7.202316    819.34956   0.01939748  0.018479636           22 
 3521000   0.69563644   -7.1652097    820.67829  0.019423419  0.018473493           30 
 3522000   0.67456054   -7.1762684    821.82039  0.019444927  0.018467341           34 
 3523000   0.69326084   -7.1580862    822.80832  0.019462776  0.018461201           21 
 3524000   0.69462649   -7.1850235     822.2926  0.019445058  0.018455077           39 
 3525000   0.69444518   -7.1876419    821.60102  0.019423192  0.018448955           49 
 3526000   0.66613182   -7.1900942    820.32642   0.01938756  0.018442824           51 
 3527000   0.69037263   -7.2029899    820.99185  0.019397785  0.018436697           27 
 3528000   0.68838717   -7.1725153    821.06594  0.019394037  0.018430565           45 
 3529000    0.6957795   -7.1780164    821.73082  0.019404242  0.018424437           28 
 3530000   0.67951818   -7.1709805    822.69412  0.019421485  0.018418342           16 
 3531000    0.6778724   -7.1955438    822.41899  0.019409492  0.018412257           21 
 3532000    0.6828477   -7.1914256    821.38942  0.019379705  0.018406168           30 
 3533000   0.68586637   -7.2128508    821.44064  0.019375428  0.018400085           26 
 3534000   0.69421905   -7.2171445    821.70302  0.019376132  0.018393973           35 
 3535000   0.68650186   -7.2159901    821.63426   0.01936903  0.018387862           35 
 3536000   0.69345158   -7.1897077    820.43912  0.019335387  0.018381733           21 
 3537000    0.6852332   -7.2145725    821.81334  0.019362297  0.018375593           35 
 3538000   0.67235649   -7.1929525    820.62305  0.019328789  0.018369473           17 
 3539000   0.67427102   -7.2179678    820.84224  0.019328488  0.018363338           61 
 3540000   0.67504218   -7.2092629    821.26598  0.019333003  0.018357214           30 
 3541000   0.67763886   -7.2086972    822.84176  0.019364628  0.018351077           25 
 3542000   0.69349216    -7.209892    820.24994  0.019298182  0.018344946           47 
 3543000   0.67061672   -7.1949443     822.0339  0.019334695   0.01833882           45 
 3544000    0.6826733   -7.1918033    821.56082  0.019318116  0.018332697           44 
 3545000   0.67302918   -7.1995001    819.88565  0.019273287   0.01832656           18 
 3546000   0.67974876   -7.2277722    821.51471  0.019306136  0.018320425           35 
 3547000   0.69233352   -7.1881565    821.39617  0.019297908  0.018314308           34 
 3548000   0.67813802   -7.2149913    819.57847  0.019249776  0.018308188           34 
 3549000   0.67124891   -7.2158299    821.66554  0.019293358  0.018302051           67 
 3550000   0.68878562   -7.2098084    820.74567   0.01926633  0.018295924          132 
 3551000   0.69369989     -7.21216    819.65238  0.019235248  0.018289807          112 
 3552000   0.69607442    -7.204928    820.19443  0.019242549  0.018283696          133 
 3553000   0.69261532   -7.2151613    821.08522  0.019258027  0.018277571          117 
 3554000   0.68160283   -7.1764735    820.79882  0.019245892  0.018271461           68 
 3555000   0.69669663   -7.1977331    820.42825  0.019231792  0.018265334           72 
 3556000   0.68247997   -7.2177726    817.71253  0.019162742  0.018259196           67 
 3557000   0.68719051   -7.2018676     820.0386   0.01921185  0.018253069           71 
 3558000   0.66934893    -7.190919    821.09455  0.019231182  0.018246945           82 
 3559000   0.67525143   -7.1935028    818.89542  0.019174286   0.01824082          145 
 3560000   0.68060952   -7.1933884    819.50764  0.019183231    0.0182347          104 
 3561000   0.68153556   -7.2238365    820.56605  0.019202613  0.018228582           63 
 3562000   0.67105187   -7.2261374    819.49658  0.019172201  0.018222457           57 
 3563000   0.67531675   -7.2264876    820.05277  0.019179829  0.018216322           76 
 3564000   0.69129782   -7.2196153    819.09504  0.019152054  0.018210159           94 
 3565000   0.67533045   -7.1939665    820.17531  0.019171933  0.018204019           97 
 3566000   0.67996337   -7.2256998     820.2821  0.019169053  0.018197881          141 
 3567000    0.6866575   -7.2175649    819.54225  0.019146394  0.018191756          127 
 3568000   0.67942613   -7.2069532    822.02974  0.019199125  0.018185617          100 
 3569000   0.68986649   -7.2046623    822.38778  0.019202106    0.0181795          102 
 3570000   0.68541751   -7.1932945    822.05428  0.019188942  0.018173396          125 
 3571000   0.66491125   -7.1913334    822.19124  0.019186765  0.018167313          130 
 3572000   0.68850818   -7.2320871     819.1471  0.019110375  0.018161197          117 
 3573000   0.69067404   -7.2365814    820.89026  0.019145682  0.018155084           91 
 3574000   0.68537252   -7.2462344    819.22215   0.01910143  0.018148976           53 
 3575000    0.6765638   -7.2393185    820.12938  0.019117235  0.018142866          104 
 3576000    0.6676407   -7.2116835    820.60985  0.019123086  0.018136765           69 
 3577000   0.68783754   -7.2430569    819.56661  0.019093435  0.018130646           54 
 3578000   0.69214726   -7.2233478    822.20048  0.019149443  0.018124538          101 
 3579000   0.67760601   -7.2243183    820.90074  0.019113829  0.018118429           79 
 3580000   0.69907396   -7.2196255     820.9315  0.019109206  0.018112342           78 
 3581000   0.68998262   -7.2374951    819.92714  0.019080498  0.018106245           55 
 3582000   0.67864881   -7.2303402    821.09361  0.019102308  0.018100141          151 
 3583000   0.67753213   -7.2198429    819.18967  0.019052695  0.018094029           62 
 3584000   0.70050438   -7.2550415    818.20724  0.019024536  0.018087924          135 
 3585000   0.68098824   -7.2189383    819.75734  0.019055261  0.018081822          150 
 3586000   0.68103614   -7.2279387    821.58494  0.019092418  0.018075713          120 
 3587000   0.68581345   -7.2410338    819.07559  0.019028798  0.018069584           99 
 3588000   0.68170221   -7.2518431    821.09863  0.019070481  0.018063486          173 
 3589000   0.67066697   -7.2358741    819.98415   0.01903929  0.018057379          169 
 3590000   0.67898871   -7.2472553    818.98748  0.019010851   0.01805129          191 
 3591000   0.68447632   -7.2618725     817.0263  0.018960046  0.018045186          201 
 3592000   0.65734227   -7.2507213    817.76405  0.018971883  0.018039108          134 
 3593000   0.68848182   -7.2586742    818.32366  0.018979582  0.018033012          141 
 3594000   0.66621807   -7.2490762    818.49333  0.018978235  0.018026896          225 
 3595000   0.66647279   -7.2532784    817.67615  0.018954014   0.01802078          244 
 3596000   0.66437703   -7.2521406    818.53739  0.018968701  0.018014674          239 
 3597000   0.68602713   -7.2350444    817.69568  0.018943927  0.018008569          160 
 3598000    0.6732698   -7.2484563    819.29565  0.018975719  0.018002475          149 
 3599000   0.67407317   -7.2687306    819.42107  0.018973351  0.017996393          176 
 3600000   0.67307102    -7.245163    819.80304  0.018976922  0.017990277          163 
 3601000   0.66761051   -7.2388408    819.19782  0.018957646  0.017984204          211 
 3602000   0.66953581   -7.2402252    820.02617  0.018971547  0.017978127          202 
 3603000    0.6944648   -7.2255745    818.25135  0.018925233  0.017972054          155 
 3604000   0.67633453   -7.2801762    817.30785  0.018898165  0.017965968          167 
 3605000    0.6684502   -7.2495492    818.09385  0.018911092  0.017959879          164 
 3606000    0.6726139   -7.2382528    821.07218  0.018974676    0.0179538          153 
 3607000    0.6771493   -7.2199539    820.80193  0.018963172  0.017947724          135 
 3608000   0.69088131   -7.2201452    821.53009  0.018974734  0.017941682          109 
 3609000   0.67592946   -7.2355466    820.71582  0.018950675  0.017935642           77 
 3610000   0.66582487   -7.2269025    820.78951  0.018947126  0.017929585          130 
 3611000   0.66836522   -7.2572138    819.12013  0.018903354  0.017923516          159 
 3612000   0.67311024   -7.2544621     818.8166  0.018891118   0.01791744          107 
 3613000   0.68009466   -7.2427597    821.20646  0.018941011  0.017911365           63 
 3614000   0.67230773   -7.2490847    819.50613  0.018896563   0.01790531           54 
 3615000   0.67204617    -7.237017    817.60471  0.018847504  0.017899257          113 
 3616000   0.67021529   -7.2700649    818.51631    0.0188633  0.017893189          177 
 3617000   0.66336816   -7.2397979    820.25352  0.018898109  0.017887116           91 
 3618000   0.66936649   -7.2647743    819.00502  0.018864129  0.017881059           93 
 3619000   0.66964789   -7.2318207    819.83499  0.018878028  0.017875005           86 
 3620000   0.66045385   -7.2592111    820.32702   0.01888414  0.017868949           72 
 3621000    0.6745972   -7.2292436    819.12273  0.018851209  0.017862888           92 
 3622000   0.67484279    -7.238473    818.64131  0.018834928  0.017856859           52 
 3623000   0.66257466   -7.2478975    819.66245  0.018853217  0.017850817          102 
 3624000    0.6686183   -7.2544388    818.53289   0.01882204  0.017844754          178 
 3625000   0.65704026    -7.267385    817.87781  0.018801789  0.017838675          110 
 3626000   0.66851077   -7.2584126     819.3516  0.018830474  0.017832615          105 
 3627000   0.66219196   -7.2666401     819.0844  0.018819144  0.017826542           68 
 3628000   0.66728592    -7.275436    818.14044  0.018792274  0.017820468          111 
 3629000   0.67640692   -7.2719891    817.45584  0.018771375  0.017814406          132 
 3630000   0.67278045   -7.2212762     821.0857  0.018849534  0.017808333          117 
 3631000   0.67780225    -7.277598    819.55895  0.018809303  0.017802273           87 
 3632000   0.67991738   -7.2736333    817.29152    0.0187521  0.017796202          144 
 3633000   0.68244814   -7.2320013    819.89807  0.018806727  0.017790143          125 
 3634000   0.65657945   -7.2271294    820.97464  0.018826239  0.017784114          124 
 3635000   0.66528123   -7.2608552    818.72711  0.018769535  0.017778077          104 
 3636000   0.67720452   -7.2346073     821.0347   0.01881726  0.017772026          110 
 3637000   0.67043734   -7.2709491     819.6272  0.018779837  0.017765971          142 
 3638000   0.67121934   -7.2591815    818.10147  0.018739726  0.017759932           94 
 3639000    0.6596187   -7.2636368    819.36673  0.018763551  0.017753876          111 
 3640000   0.67317419   -7.2604384     817.0244  0.018704771   0.01774782          117 
 3641000   0.66711477   -7.2734979    819.29877  0.018751688  0.017741755          128 
 3642000   0.65543153   -7.2731788    817.95434  0.018715777   0.01773568          145 
 3643000   0.67865745   -7.2668527    818.53379  0.018723895  0.017729639          172 
 3644000   0.66785834   -7.2698844    819.19702  0.018733924  0.017723582          107 
 3645000   0.68612146   -7.2800426    818.53987   0.01871376  0.017717534          198 
 3646000   0.66333311    -7.259016    816.08306  0.018652474  0.017711487          117 
 3647000   0.67152125   -7.2850785    819.16652  0.018717816  0.017705453           93 
 3648000   0.67680677   -7.2568604    819.20562  0.018713579  0.017699415          164 
 3649000   0.66549947   -7.2567999    817.41175  0.018667483  0.017693392          129 
 3650000   0.66769894   -7.2764544    818.83598  0.018694885  0.017687376          277 
 3651000   0.65678489    -7.270282    818.69005  0.018686434  0.017681364          167 
 3652000   0.67489223    -7.243639      819.953  0.018710136  0.017675353           88 
 3653000   0.66950565   -7.2565191     819.5085  0.018694874  0.017669351          219 
 3654000    0.6649957   -7.2770348    817.56954  0.018645538  0.017663321          219 
 3655000   0.65312253   -7.2687288    819.19809  0.018677567  0.017657301          146 
 3656000   0.67635885   -7.2596071    820.23787  0.018696159  0.017651278          107 
 3657000   0.67067098   -7.2726755     819.7789  0.018680587  0.017645279          161 
 3658000   0.65507616    -7.266078    820.02499  0.018681087  0.017639295          208 
 3659000   0.65432244   -7.2847331    818.24561  0.018635456  0.017633304          136 
 3660000   0.66358844   -7.2638576    817.06324  0.018603444  0.017627303          133 
 3661000   0.66717661   -7.2538927    819.21933   0.01864744  0.017621325          140 
 3662000   0.67367567   -7.2726537    819.66586  0.018652509  0.017615354          114 
 3663000   0.68326727   -7.2787102    816.67198  0.018579306  0.017609365          154 
 3664000   0.66834241    -7.277336    818.36959  0.018612845  0.017603349          157 
 3665000   0.66414618   -7.2650082    818.26579  0.018605407  0.017597356          140 
 3666000   0.68120807   -7.2853176    819.97099  0.018639093  0.017591347          171 
 3667000   0.68016922   -7.2525438    817.11678  0.018569148  0.017585343          132 
 3668000   0.66115472   -7.2558204    818.94354  0.018605587  0.017579339          206 
 3669000   0.65316249   -7.3121521    817.85047   0.01857569  0.017573331          250 
 3670000   0.66670813    -7.277314    818.36227  0.018582249  0.017567315          155 
 3671000   0.67531866   -7.2878909    818.56762  0.018581849  0.017561312          161 
 3672000   0.65567421   -7.2709411     817.7807   0.01855893  0.017555307          188 
 3673000   0.66028098   -7.2714067    817.61427  0.018550101  0.017549305          235 
 3674000   0.68190511   -7.2702641    818.58416  0.018567051  0.017543283          266 
 3675000   0.66257246   -7.2900602    816.76312  0.018520706  0.017537275          231 
 3676000   0.65028617    -7.282288     817.2592  0.018526913  0.017531268          190 
 3677000   0.66162948   -7.2852083    816.65286  0.018508133  0.017525267          120 
 3678000   0.65881379   -7.2906346    816.90759  0.018508872  0.017519252          207 
 3679000   0.66963113   -7.3053176     818.5475  0.018540987  0.017513247          143 
 3680000   0.66367377   -7.3014624    816.79473  0.018496257  0.017507239          159 
 3681000   0.67113592   -7.3104979     817.4703  0.018506527  0.017501236          249 
 3682000   0.66504537   -7.2590716    819.63362  0.018550462  0.017495255          253 
 3683000   0.65816549   -7.2849626    818.25964  0.018514337  0.017489294          237 
 3684000   0.67380507   -7.2966113    818.57086  0.018516351  0.017483317          172 
 3685000   0.64670238   -7.2855745      819.527  0.018532949   0.01747733          148 
 3686000   0.66456855   -7.2751133    819.10921  0.018518476  0.017471349          162 
 3687000   0.65199214    -7.289825    819.66467  0.018526007  0.017465375          219 
 3688000   0.66867867   -7.2897093    816.55375   0.01845069   0.01745941          212 
 3689000     0.661733    -7.289117    819.45033  0.018511122  0.017453431          188 
 3690000   0.66441658   -7.3033415    817.40132  0.018459831  0.017447448          256 
 3691000   0.66047443   -7.3055615    816.93018  0.018444193  0.017441464          198 
 3692000   0.64605391   -7.2923943    817.32138  0.018448027  0.017435485          195 
 3693000   0.65176596   -7.3002891    817.14479  0.018439047  0.017429509          201 
 3694000   0.66736254   -7.3032069    818.34164  0.018461055  0.017423536          139 
 3695000   0.65833174   -7.2748566    818.52068  0.018460097  0.017417568          229 
 3696000   0.65362535   -7.3093223    818.13724  0.018446456  0.017411598          221 
 3697000   0.66326058    -7.285994    819.08676   0.01846287  0.017405638          161 
 3698000   0.64520896   -7.2979047    818.75343  0.018450366  0.017399681          202 
 3699000   0.65113321   -7.2851472    818.14489  0.018431668  0.017393715          308 
 3700000   0.65112233    -7.278994    818.98693  0.018445651  0.017387763          219 
 3701000   0.65838759   -7.3009637    815.97649  0.018372883  0.017381821          337 
 3702000   0.65013038   -7.2752525    818.06273  0.018414882  0.017375898          238 
 3703000   0.64524567    -7.280883    818.22234  0.018413501  0.017369979          206 
 3704000     0.658303   -7.2489106    820.61848  0.018462439  0.017364083          308 
 3705000    0.6678989   -7.2710996    818.96331  0.018420227  0.017358182          264 
 3706000   0.66458194   -7.2680569    817.36573  0.018379334  0.017352287          250 
 3707000   0.66047502   -7.2878535    818.95319  0.018410062  0.017346379           78 
 3708000   0.68019484   -7.2940684    818.79072  0.018401445  0.017340467          112 
 3709000   0.66150377   -7.2853424    820.76269   0.01844079  0.017334585          168 
 3710000   0.66448933   -7.2823508    818.91429  0.018394301  0.017328685          141 
 3711000   0.66145087   -7.3049741    819.89626  0.018411395  0.017322805           83 
 3712000   0.68436138   -7.3094464    819.64591  0.018400815  0.017316912          232 
 3713000   0.66716093   -7.3022007     818.1886  0.018363152  0.017311005          269 
 3714000   0.64577281   -7.2947693    819.55954  0.018388968  0.017305089          277 
 3715000   0.65509475   -7.3071771    817.20848   0.01833128  0.017299195          232 
 3716000    0.6677928   -7.2852376    820.11789  0.018391592  0.017293284          284 
 3717000    0.6528783   -7.2890658    818.80487  0.018357207  0.017287376          212 
 3718000    0.6711982   -7.3066351     818.1577  0.018337764  0.017281463          311 
 3719000   0.66205613   -7.2859772    819.89451  0.018371751  0.017275548          207 
 3720000   0.64817697   -7.3221811    817.05434  0.018303189  0.017269624          311 
 3721000   0.65612678    -7.315638    818.43159  0.018329114  0.017263711          158 
 3722000   0.66893774   -7.3080926    817.01483  0.018292469    0.0172578          163 
 3723000   0.65718136   -7.3100917    819.57328  0.018344822  0.017251909          208 
 3724000   0.65418359   -7.3026928    817.83421   0.01830098  0.017246011          288 
 3725000   0.63745622   -7.3129365    817.97073  0.018299121  0.017240108          337 
 3726000   0.67642423    -7.292006    818.92487   0.01831555  0.017234205          323 
 3727000     0.649237   -7.3148961     818.7087  0.018305802  0.017228301          182 
 3728000   0.65607749   -7.3036935    817.74942  0.018279449  0.017222416          132 
 3729000   0.66269261    -7.302449    818.04468  0.018281145   0.01721651          182 
 3730000   0.67667743   -7.3229295    817.42011   0.01826229  0.017210609          144 
 3731000   0.65500076   -7.3331732    817.64854  0.018262498  0.017204701          287 
 3732000   0.64850141   -7.3304429    817.19366  0.018247447  0.017198793          252 
 3733000   0.67507519   -7.3399497    815.88869  0.018213427  0.017192895          279 
 3734000   0.65865145   -7.3421205    817.53563  0.018245305  0.017187001          293 
 3735000   0.65608031   -7.3260249    818.45774  0.018260994    0.0171811          319 
 3736000    0.6442355   -7.3427445    818.07167  0.018247495  0.017175182          314 
 3737000   0.66254725   -7.3347982    817.75557  0.018235563  0.017169273          204 
 3738000    0.6516979   -7.3435191    818.00715  0.018236293  0.017163373          274 
 3739000   0.65779957   -7.3362232    815.69174  0.018179811  0.017157462          252 
 3740000   0.65645665   -7.3409764    815.39774  0.018168399  0.017151555          248 
 3741000   0.65766778   -7.3226026    816.88738  0.018196725  0.017145665          205 
 3742000   0.66758845    -7.315627     817.7251  0.018210518  0.017139768          253 
 3743000    0.6449167   -7.3066467    818.30505  0.018218565  0.017133874          360 
 3744000   0.65791547   -7.3394775    817.13337  0.018187619  0.017127965          288 
 3745000   0.64799089   -7.3370968    816.86439  0.018176778  0.017122071          232 
 3746000   0.64269232   -7.3396678    818.16218  0.018200796  0.017116195          251 
 3747000    0.6484135    -7.318202    817.72518   0.01818622  0.017110313          343 
 3748000   0.65121714   -7.3199116    816.93744  0.018163853  0.017104441          242 
 3749000   0.66489778   -7.3169601     817.5276  0.018172126  0.017098589          309 
 3750000   0.65995665   -7.3087281    816.90747  0.018153499  0.017092724          201 
 3751000    0.6609277   -7.2985607    819.32029  0.018202264  0.017086881          248 
 3752000   0.65032867    -7.292941    818.31937  0.018175182  0.017081021          265 
 3753000   0.65478092   -7.3157209    817.01597  0.018141397  0.017075164          309 
 3754000   0.65243378    -7.313212    818.29251  0.018164902  0.017069303          272 
 3755000   0.65872077   -7.3270788    818.76739  0.018170603  0.017063446          260 
 3756000   0.64356103   -7.3260283    818.05787  0.018150024  0.017057594          318 
 3757000   0.63546947   -7.3288416    817.97839   0.01814343  0.017051745          383 
 3758000   0.65411138   -7.3039595    817.90363  0.018136944  0.017045898          392 
 3759000   0.64149019   -7.3106031     820.3824  0.018187071  0.017040065          355 
 3760000   0.65247958   -7.3147752    818.38926   0.01813806  0.017034234          314 
 3761000   0.66873575   -7.3294655    816.40688  0.018089313  0.017028418          357 
 3762000   0.65608969   -7.3378217    817.31974  0.018104726  0.017022584          332 
 3763000   0.65436134   -7.3278348    818.17706    0.0181189  0.017016737          407 
 3764000   0.64020367   -7.3307238    816.57233  0.018078559  0.017010901          541 
 3765000   0.65633283    -7.323706     817.5723   0.01809589  0.017005057          450 
 3766000    0.6377777    -7.316392    817.96277  0.018099725  0.016999201          451 
 3767000   0.65217561   -7.3210445    817.28879   0.01808001  0.016993365          379 
 3768000   0.64890751   -7.3239911    817.15785  0.018072316   0.01698753          391 
 3769000   0.65114857   -7.3142785    817.63436  0.018078057  0.016981688          317 
 3770000   0.64148769   -7.3224922    817.55469  0.018071501  0.016975849          421 
 3771000   0.64353713   -7.3533839    816.62817  0.018046234  0.016970004          403 
 3772000   0.65109684    -7.336829     817.9383  0.018070394  0.016964167          483 
 3773000   0.64541339   -7.3419817     817.6028  0.018058194   0.01695832          391 
 3774000   0.65314898   -7.3108133    815.93526  0.018016589  0.016952481          498 
 3775000   0.64755942   -7.3345228    817.29919  0.018041925  0.016946642          418 
 3776000   0.65434884   -7.3480807    817.10656  0.018032896  0.016940805          495 
 3777000   0.64582214   -7.3304703    815.19811  0.017986014  0.016934951          425 
 3778000   0.65268194   -7.3430395    815.15013  0.017980195   0.01692912          438 
 3779000   0.65877504   -7.3436887    816.49954  0.018005194   0.01692328          457 
 3780000   0.66073192   -7.3639904    818.19465  0.018037801  0.016917434          415 
 3781000   0.63919184   -7.3340348    817.47054  0.018017071  0.016911622          436 
 3782000   0.63148224   -7.3352287    817.26689   0.01800782  0.016905804          444 
 3783000   0.65425747    -7.344282    815.82408  0.017971277  0.016899981          387 
 3784000   0.64380359   -7.3408865    819.37133  0.018044647  0.016894161          500 
 3785000   0.64881803   -7.3524977    816.43341  0.017975196  0.016888332          559 
 3786000    0.6528897   -7.3428158    816.36398   0.01796892  0.016882517          459 
 3787000    0.6453167    -7.341486    816.27373  0.017962189  0.016876714          399 
 3788000   0.64019931   -7.3466888    818.59145  0.018008436    0.0168709          552 
 3789000   0.64902358   -7.3279902    817.21743  0.017973463  0.016865093          470 
 3790000   0.63975618   -7.3515374    815.57211  0.017932544  0.016859271          459 
 3791000   0.64648348   -7.3644959    816.45977  0.017947326  0.016853438          461 
 3792000   0.64296041   -7.3356216    815.99831  0.017932452  0.016847626          480 
 3793000   0.65126519   -7.3716812    816.74347  0.017944096  0.016841801          391 
 3794000   0.62613753   -7.3347788    815.91783  0.017921232  0.016835986          449 
 3795000   0.65398022    -7.348655    817.31297  0.017947145  0.016830169          577 
 3796000   0.63079092   -7.3607851    816.04523  0.017914586  0.016824368          502 
 3797000   0.65012371   -7.3447083    815.20072  0.017891333  0.016818549          549 
 3798000   0.64142713   -7.3713714    816.03929  0.017905022  0.016812738          511 
 3799000   0.65310676   -7.3854109    815.32965  0.017884743  0.016806916          506 
 3800000    0.6518509    -7.353356    817.67512  0.017931472  0.016801093          563 
 3801000   0.63385212   -7.3764569    815.52318  0.017879575  0.016795264          524 
 3802000   0.65097425   -7.3572713    816.91659  0.017905414  0.016789453          400 
 3803000   0.63737023   -7.3676642    815.94071  0.017879321  0.016783638          549 
 3804000   0.63540559   -7.3681108      815.576  0.017866632  0.016777834          545 
 3805000   0.65119171    -7.375065     815.4874  0.017859996   0.01677202          567 
 3806000   0.64280942   -7.3441605    816.10393  0.017868802  0.016766212          494 
 3807000   0.63365315   -7.3581906    815.31638  0.017846869  0.016760411          472 
 3808000   0.64318082   -7.3549371    815.20087  0.017839655  0.016754626          549 
 3809000   0.63548348   -7.3460414    816.42469  0.017861746  0.016748838          528 
 3810000   0.63729386   -7.3578164    815.84994  0.017844487  0.016743047          508 
 3811000   0.64031754   -7.3589325    815.24283  0.017826529   0.01673725          667 
 3812000   0.64370597   -7.3584888    817.93543  0.017880715  0.016731475          545 
 3813000   0.63795656   -7.3727133    816.20824  0.017838278  0.016725699          587 
 3814000   0.63166212   -7.3610705    816.77635  0.017846014  0.016719921          608 
 3815000   0.63289886   -7.3642061    816.28096  0.017830515  0.016714138          460 
 3816000   0.64832102   -7.3795953    816.60682  0.017832958  0.016708362          606 
 3817000   0.62209337   -7.3575527    815.28218  0.017799366  0.016702585          618 
 3818000   0.63843931   -7.3407342    817.08891  0.017834139  0.016696821          575 
 3819000   0.62960351   -7.3580924    816.09476  0.017807776  0.016691055          564 
 3820000   0.64881011   -7.3592316    815.63963  0.017793186  0.016685295          616 
 3821000   0.64447676   -7.3821644    815.54573  0.017786481  0.016679522          625 
 3822000   0.64038116       -7.384    814.98874  0.017769683  0.016673766          558 
 3823000   0.63326649   -7.3551709    817.40734  0.017817755  0.016667999          637 
 3824000   0.62352117   -7.3771125     817.4474  0.017813969  0.016662243          608 
 3825000   0.62524688   -7.3733009    815.58587  0.017768755  0.016656487          588 
 3826000   0.64952847   -7.3809736    815.34724  0.017758914  0.016650737          625 
 3827000   0.63556957   -7.3816669    815.35206  0.017754378  0.016644988          543 
 3828000   0.65158123   -7.3733728    814.73494  0.017736306  0.016639242          585 
 3829000    0.6277139   -7.3779964    814.89436  0.017735143  0.016633499          612 
 3830000   0.62872834   -7.3717002    815.47614  0.017743171  0.016627754          591 
 3831000   0.63334099   -7.3678262    816.01288  0.017750215  0.016622009          565 
 3832000   0.64831445   -7.3519819     818.4212  0.017797956  0.016616261          536 
 3833000    0.6227156   -7.3320124    816.43973  0.017750233  0.016610529          612 
 3834000   0.64079044   -7.3744552    817.88568  0.017777032  0.016604811          588 
 3835000    0.6258133   -7.3703682    816.07437  0.017733037  0.016599085          571 
 3836000   0.64023532   -7.3683519    818.54947  0.017782183  0.016593365          458 
 3837000   0.62854511   -7.3715564    815.09617  0.017702549  0.016587645          480 
 3838000   0.64583154   -7.3809984    816.65551  0.017731794   0.01658192          569 
 3839000   0.64117909    -7.368499    815.44082  0.017700808  0.016576203          593 
 3840000   0.62958511   -7.3780603    816.10488  0.017710609  0.016570471          521 
 3841000   0.63262842    -7.368875    815.15286  0.017685344  0.016564749          465 
 3842000   0.66039345    -7.385765    815.51549  0.017688606  0.016559022          654 
 3843000   0.64159721   -7.3791228    817.16548  0.017719782  0.016553305          579 
 3844000   0.64942929   -7.3482532    815.63481  0.017681989  0.016547596          565 
 3845000   0.62902952   -7.3591928    817.80992  0.017724532  0.016541874          316 
 3846000   0.63774496   -7.3701204    817.47609  0.017712691  0.016536184          381 
 3847000   0.64122694   -7.3708302    817.72447  0.017713467  0.016530486          618 
 3848000   0.64516111   -7.3757119    816.17244  0.017675252  0.016524796          368 
 3849000   0.63518191   -7.3357415    817.63956  0.017702424  0.016519109          455 
 3850000   0.64246111   -7.3764237    817.30029  0.017690483  0.016513429          498 
 3851000   0.63345686   -7.3959798    816.45916  0.017667687   0.01650775          429 
 3852000   0.64464298   -7.3652659    817.68572  0.017689636  0.016502063          392 
 3853000   0.63038737   -7.3974769    817.17579  0.017674016  0.016496379          496 
 3854000   0.62676694   -7.4064271    814.90446  0.017620318  0.016490688          419 
 3855000   0.62001217   -7.4030282    815.21267   0.01762241   0.01648499          481 
 3856000   0.64433551   -7.3946944    814.99014   0.01761303  0.016479297          580 
 3857000   0.62499466   -7.4100554    815.50409  0.017619568  0.016473605          656 
 3858000   0.63048297    -7.398934    816.43391  0.017635085  0.016467917          343 
 3859000   0.63577309   -7.3820383    818.43492  0.017673726  0.016462238          528 
 3860000   0.65109551   -7.4097977    816.26513  0.017622304  0.016456554          411 
 3861000    0.6326656   -7.3980328    816.70484   0.01762723  0.016450874          541 
 3862000   0.63102611   -7.3794323    816.83303  0.017625432  0.016445186          529 
 3863000   0.62875044   -7.3872251    817.77441  0.017641177  0.016439505          627 
 3864000   0.63662107    -7.386238    815.32036  0.017583686  0.016433831          612 
 3865000   0.64257026   -7.3971052    816.11037   0.01759617  0.016428156          694 
 3866000   0.61991649   -7.3845987    817.69837  0.017625849  0.016422502          602 
 3867000   0.61751358   -7.3951187    814.54026  0.017553234  0.016416837          460 
 3868000   0.64398873   -7.3654347    816.25648   0.01758567  0.016411163          500 
 3869000   0.63255266   -7.3956982    815.02567  0.017554615  0.016405483          732 
 3870000   0.63314078   -7.3841408    816.03752  0.017571867  0.016399809          716 
 3871000   0.62713315   -7.4135356    814.69493  0.017538425  0.016394139          529 
 3872000   0.62482621   -7.4043122    814.38266  0.017527175  0.016388456          608 
 3873000   0.62850852   -7.4168318    814.71162  0.017529728  0.016382783          590 
 3874000   0.62536179   -7.4314669    813.79352  0.017505454  0.016377111          699 
 3875000   0.63065045   -7.4253184    816.07398  0.017549978  0.016371439          499 
 3876000   0.63678501   -7.3997631    815.03146  0.017523036  0.016365758          695 
 3877000   0.63716907   -7.4016949    814.82686  0.017514119  0.016360097          641 
 3878000   0.62787895   -7.3905477    814.99882  0.017513298  0.016354448          729 
 3879000   0.62312484   -7.3632615    815.70535  0.017523961  0.016348793          636 
 3880000   0.61809147   -7.3916118    816.72473  0.017541339  0.016343135          676 
 3881000    0.6375263   -7.3845362    817.05354  0.017543879  0.016337491          648 
 3882000   0.62850074   -7.3898294    816.93539  0.017536824  0.016331847          601 
 3883000   0.62081168   -7.4118384    815.76819  0.017507258  0.016326196          774 
 3884000   0.63138491   -7.4042248    814.84847  0.017483017  0.016320535          675 
 3885000   0.61699145   -7.3811939    817.46883  0.017534724  0.016314888          602 
 3886000   0.63557566   -7.3915501    816.18215  0.017502619  0.016309248          582 
 3887000   0.62993002    -7.401075    814.57204  0.017463598  0.016303603          583 
 3888000   0.62469241   -7.3928605    815.92383  0.017488079  0.016297961          637 
 3889000   0.63443705   -7.4299726    812.90426  0.017418879  0.016292318          692 
 3890000   0.64708136   -7.4064789    814.55651  0.017449797  0.016286672          459 
 3891000   0.63005047   -7.4006287    815.02791  0.017455408  0.016281037          703 
 3892000     0.624789   -7.3884873    815.07865   0.01745201    0.0162754          589 
 3893000   0.62261619   -7.3863725    815.31087  0.017452498  0.016269781          667 
 3894000   0.64584979    -7.416147    814.79678  0.017437014  0.016264137          749 
 3895000    0.6298426   -7.4213501    815.72145   0.01745232  0.016258497          711 
 3896000   0.62934385   -7.3925159     814.4591   0.01742084  0.016252852          739 
 3897000    0.6439664   -7.3894606    814.65727  0.017420607  0.016247206          776 
 3898000   0.62656797   -7.4200544    814.52027  0.017413209  0.016241582          694 
 3899000   0.62691613    -7.394489    816.85324  0.017458606  0.016235946          658 
 3900000   0.62833229    -7.392203    814.65304  0.017407116  0.016230326          568 
 3901000   0.61890606   -7.4053613    814.28527  0.017394798  0.016224709          691 
 3902000    0.6276877   -7.4069832    816.21171  0.017431482  0.016219089          780 
 3903000   0.62137528   -7.3832752    815.84299  0.017419143   0.01621347          606 
 3904000   0.63485324    -7.392585    815.20037  0.017400964  0.016207854          744 
 3905000    0.6349169   -7.4013342     813.5568  0.017361434  0.016202234          752 
 3906000    0.6111208   -7.4091263    813.99009  0.017366233  0.016196622          815 
 3907000   0.61881092   -7.4000956    815.20607  0.017387724  0.016191011          866 
 3908000    0.6333189   -7.4039918    814.44302  0.017367004  0.016185384          781 
 3909000   0.63040882   -7.4214151    815.19806  0.017378657  0.016179758          694 
 3910000   0.62101153    -7.396322    814.79738  0.017365673  0.016174119          793 
 3911000   0.62574899   -7.4088589    813.75982  0.017339125  0.016168488          778 
 3912000   0.62486967   -7.4402269    814.99863  0.017361082  0.016162869          780 
 3913000   0.63424023   -7.4025946    813.67525  0.017328462  0.016157231          842 
 3914000   0.62217706   -7.4295541    812.49949  0.017299001  0.016151616          760 
 3915000   0.63785973   -7.4108828    814.95303  0.017346808  0.016146008          882 
 3916000   0.61831519   -7.3977944    814.17901  0.017325907  0.016140398          833 
 3917000   0.63406741   -7.4164538    812.26715  0.017280809  0.016134779          880 
 3918000   0.63232652     -7.41145    814.83527  0.017331021  0.016129173          921 
 3919000    0.6215328   -7.3896694    814.13947  0.017311803  0.016123567          728 
 3920000   0.62688017   -7.4377607     814.9946  0.017325565  0.016117964          865 
 3921000   0.62502666   -7.4309831    813.04827  0.017279781  0.016112354         1004 
 3922000   0.62972125   -7.4386294    814.06394  0.017296956   0.01610674          920 
 3923000   0.63282424   -7.4124003     812.6931  0.017263427  0.016101124          912 
 3924000   0.63164143   -7.4300434     813.1231   0.01726816  0.016095508          943 
 3925000   0.61893732   -7.4375159    812.87747  0.017258545  0.016089886          902 
 3926000    0.6115349   -7.4202639    813.93522  0.017276601  0.016084273          901 
 3927000   0.63453566   -7.4386442    813.84474  0.017270281  0.016078661         1056 
 3928000   0.62474441   -7.4006594    814.45014  0.017278728  0.016073059          997 
 3929000   0.62708131   -7.4187653    815.10421  0.017288203  0.016067465         1000 
 3930000   0.62808704   -7.4007812    815.41383   0.01729037  0.016061882         1036 
 3931000   0.62217055   -7.4156756    812.63204     0.017227  0.016056303         1097 
 3932000   0.62511022   -7.4214507    814.03792  0.017252414   0.01605072          910 
 3933000   0.61026877   -7.4173311    814.67431  0.017261512  0.016045151          877 
 3934000   0.61837714   -7.4219795    814.27235  0.017248609  0.016039583          889 
 3935000   0.63056889   -7.3831315     814.9917   0.01725946  0.016034009          814 
 3936000   0.60805404   -7.4255166    814.81824  0.017251402  0.016028448          798 
 3937000   0.60657037   -7.4491355    812.80521  0.017204411  0.016022878          932 
 3938000   0.62524689   -7.4038825    814.81469  0.017242566  0.016017309          921 
 3939000    0.6130984   -7.4183822    814.79428  0.017237757   0.01601175          847 
 3940000   0.63545378   -7.4125674    814.46682  0.017226456  0.016006206          903 
 3941000   0.63524445   -7.4218152    813.96263  0.017211423  0.016000658          911 
 3942000   0.62075115   -7.4171722    814.79498  0.017224653  0.015995103          999 
 3943000   0.62378466   -7.4353787    814.34039  0.017210677  0.015989544          855 
 3944000   0.62331786   -7.4201656    813.87325  0.017196443  0.015984001          964 
 3945000   0.62425377   -7.4455867    813.97358  0.017194203  0.015978447          977 
 3946000   0.61904353   -7.4390104    815.57969  0.017223764  0.015972898         1075 
 3947000   0.61915043   -7.4203502    814.48223   0.01719623  0.015967352          972 
 3948000    0.6129968   -7.4201579    813.83429  0.017178198  0.015961804         1025 
 3949000   0.61180362   -7.4242274    813.56023  0.017168064  0.015956265          871 
 3950000   0.62139827   -7.4148042    813.80689  0.017168922  0.015950717          966 
 3951000   0.62159019    -7.424095    813.83787   0.01716523  0.015945165          880 
 3952000     0.622083   -7.4263454    813.83855  0.017160901  0.015939624          945 
 3953000   0.60811079   -7.4379507    814.34531  0.017167242  0.015934095         1065 
 3954000   0.63454706   -7.4332596    814.64979  0.017169318  0.015928555          989 
 3955000   0.60705585   -7.4238067    814.73972  0.017166871  0.015923032         1016 
 3956000   0.62185841   -7.4364559    813.50847  0.017136596  0.015917507         1104 
 3957000   0.62487824   -7.4389553     814.7107  0.017157584  0.015911964          890 
 3958000   0.63463277   -7.4544022    812.92974  0.017115752  0.015906424         1070 
 3959000   0.62020755    -7.442448    813.54616  0.017124403  0.015900891         1071 
 3960000   0.61255449   -7.4328222    814.34136  0.017136813  0.015895347         1103 
 3961000    0.6226093   -7.4317853    815.05502  0.017147501   0.01588981          997 
 3962000    0.6251795   -7.4274148    811.76009   0.01707387  0.015884286         1152 
 3963000   0.63094669   -7.4535311    813.39795  0.017104003  0.015878744         1115 
 3964000   0.61536437   -7.4402128    813.44944   0.01710077  0.015873208         1128 
 3965000   0.61680795   -7.4239693    812.84435   0.01708374  0.015867671         1218 
 3966000    0.6312723   -7.4633215     813.6424  0.017096201  0.015862139         1221 
 3967000   0.62370847   -7.4707146    812.13122  0.017060147   0.01585659         1170 
 3968000   0.61062671   -7.4627705    812.86934  0.017071349  0.015851049         1170 
 3969000   0.60027355   -7.4549707     813.2679  0.017075416    0.0158455         1226 
 3970000   0.60470884   -7.4491578    812.99272  0.017065338  0.015839964         1060 
 3971000   0.61635259   -7.4591702    812.49312  0.017050556   0.01583443         1235 
 3972000   0.62382945   -7.4112266    815.23805  0.017103853  0.015828897         1257 
 3973000   0.62162976   -7.4339803    814.07205  0.017075091  0.015823376         1095 
 3974000   0.60992818   -7.4372388    815.01521  0.017090572  0.015817858         1149 
 3975000   0.61925669   -7.4582708    811.28471  0.017008065  0.015812337         1171 
 3976000   0.60649791   -7.4529449    814.11399  0.017063087   0.01580682         1170 
 3977000   0.63367764   -7.4449216    814.61494  0.017069293  0.015801306         1092 
 3978000    0.6057482     -7.47501    812.03127  0.017010878  0.015795789         1255 
 3979000   0.61996113   -7.4455836    814.23285  0.017052711  0.015790272         1205 
 3980000   0.61241033   -7.4494537    813.70917  0.017037462  0.015784745         1234 
 3981000   0.60406577   -7.4760252    813.37505  0.017026188   0.01577923         1220 
 3982000   0.60839276   -7.4499359    810.36445  0.016958908  0.015773713         1181 
 3983000   0.60504698   -7.4555002    813.51347  0.017020535  0.015768209         1272 
 3984000   0.60800125    -7.477419    811.65115  0.016977308  0.015762699         1134 
 3985000   0.61584487    -7.450815    812.11634  0.016982776  0.015757189         1145 
 3986000   0.59820701   -7.4584765    813.60737  0.017009687  0.015751693         1125 
 3987000   0.61968495   -7.4576011     812.9095  0.016990835  0.015746202         1156 
 3988000   0.60531441   -7.4625855    814.58343  0.017021553  0.015740713         1146 
 3989000   0.62499663   -7.4778829    813.43844  0.016993366   0.01573522         1116 
 3990000   0.61013275   -7.4758758    813.95749  0.016999948  0.015729725         1265 
 3991000   0.61330575   -7.4608545    812.42623  0.016963715   0.01572423         1162 
 3992000   0.61538187   -7.4525613    815.08322   0.01701493  0.015718743         1189 
 3993000   0.60506375   -7.4662178    814.49325  0.016998357  0.015713256         1161 
 3994000   0.62697465   -7.4651682     813.0126  0.016963207  0.015707765         1166 
 3995000   0.62136634   -7.4730486    813.74372  0.016974212  0.015702277         1202 
 3996000   0.62244486   -7.4872688    810.74893   0.01690751  0.015696789         1192 
 3997000   0.61289628   -7.4695301    814.38566  0.016979102  0.015691301         1181 
 3998000   0.60479182   -7.4932885      810.482  0.016893488  0.015685822         1148 
 3999000   0.60421017   -7.4737019    812.56503  0.016932671  0.015680342         1150 
 4000000   0.60337875   -7.4586259    812.76646  0.016932635  0.015674862         1182 
 4001000   0.61249331    -7.473936    811.91838  0.016910739   0.01566938         1247 
 4002000   0.59865559   -7.4726701    812.45118  0.016917607  0.015663913         1202 
 4003000   0.60797059   -7.4788174    812.49259  0.016914243  0.015658442         1173 
 4004000   0.61522466   -7.4806698    813.54079  0.016931835   0.01565297         1174 
 4005000   0.61774462   -7.4850531    811.97852    0.0168951  0.015647504         1158 
 4006000   0.61905154   -7.4691395    813.64975  0.016925648  0.015642045         1309 
 4007000   0.61673654   -7.4598863    813.44189  0.016917101  0.015636573         1256 
 4008000   0.61029522   -7.4839936    810.85591  0.016859113   0.01563111         1300 
 4009000   0.61239821    -7.488211    811.19127  0.016861879  0.015625641         1296 
 4010000   0.60798649    -7.468081    812.94693  0.016894159  0.015620171         1296 
 4011000   0.61378188    -7.493638    812.58499  0.016882427  0.015614716         1293 
 4012000   0.62338764     -7.48338       813.16  0.016890163  0.015609248         1275 
 4013000   0.62057801   -7.4717375    812.53371  0.016872948  0.015603795         1186 
 4014000   0.60509903   -7.4784825    812.69753  0.016872146  0.015598342         1191 
 4015000   0.60023978   -7.4861288    811.56611  0.016844461  0.015592894         1171 
 4016000   0.60392977   -7.4849315    812.88038  0.016867538  0.015587443         1237 
 4017000   0.62059961   -7.4669327    810.54618  0.016814915  0.015581995         1187 
 4018000   0.61211643   -7.5000772    812.08466  0.016842639  0.015576539         1141 
 4019000   0.61037341   -7.4750931    810.71512  0.016810051  0.015571088         1166 
 4020000   0.60640636   -7.4800488    812.17052  0.016836039   0.01556564         1274 
 4021000   0.60617206   -7.4832853    811.08313  0.016809316  0.015560206         1219 
 4022000   0.60742009   -7.4701677    814.09741  0.016867591  0.015554781         1283 
 4023000    0.6078583   -7.4767072    814.03116  0.016862026  0.015549342         1301 
 4024000   0.61532062   -7.4882226    812.52919  0.016826731   0.01554392         1254 
 4025000   0.61083481    -7.484482    811.62553  0.016803841  0.015538492         1268 
 4026000   0.61813525   -7.4941035    812.09438  0.016809372  0.015533061         1305 
 4027000   0.58615076   -7.4435326     813.7053  0.016838534  0.015527629         1143 
 4028000   0.60177803   -7.4780112    812.46524  0.016808698  0.015522214         1231 
 4029000   0.61372757   -7.4901271    811.69844  0.016788666  0.015516785         1260 
 4030000   0.60953241   -7.4759634    812.74739  0.016806191  0.015511362         1223 
 4031000    0.6097401   -7.4878619    811.63554  0.016779036  0.015505941         1217 
 4032000   0.60901941   -7.4985221    812.29763  0.016788559   0.01550052         1208 
 4033000   0.60389014   -7.4935905    811.94282  0.016777065  0.015495099         1236 
 4034000   0.60236582   -7.4753765    813.74599  0.016810155  0.015489684         1250 
 4035000   0.60933929   -7.4769383    812.71976  0.016784795  0.015484267         1221 
 4036000   0.59784488   -7.4987656    811.44779  0.016754373  0.015478854         1197 
 4037000    0.6032031   -7.4875787    811.49548  0.016751207  0.015473447         1248 
 4038000   0.61117585   -7.4950417    812.20849  0.016761773  0.015468034         1321 
 4039000   0.61245617   -7.4878895    811.47701  0.016742531  0.015462626         1278 
 4040000   0.59621908    -7.480717    813.53276  0.016780791  0.015457229         1231 
 4041000   0.60912932   -7.4956813    812.26996  0.016750597  0.015451822         1174 
 4042000   0.61363698   -7.4882246    811.46546  0.016729867  0.015446418         1286 
 4043000    0.6049989   -7.4788884    813.16009  0.016760658  0.015441014         1339 
 4044000   0.60962495   -7.4989957    812.30737  0.016738942  0.015435605         1298 
 4045000   0.60794761   -7.4793533    811.06849  0.016709281  0.015430201         1317 
 4046000   0.61803708   -7.4735397    813.49826  0.016755196  0.015424796         1272 
 4047000   0.61068845   -7.4978011    812.46137  0.016729705  0.015419396         1316 
 4048000   0.61069319   -7.4922746    811.78684  0.016711686  0.015413994         1358 
 4049000   0.62166126   -7.4943869    810.02981  0.016671396   0.01540859         1324 
 4050000   0.59598612   -7.4877396    810.32281  0.016673309  0.015403201         1301 
 4051000    0.5901245    -7.512669    811.93147  0.016702285  0.015397808         1322 
 4052000   0.59051539   -7.4847344    812.05944  0.016700795  0.015392419         1161 
 4053000   0.60546841   -7.4689071    811.98937  0.016695233  0.015387039         1268 
 4054000   0.59863869   -7.5132174    810.42255  0.016658908  0.015381644         1300 
 4055000   0.58918515   -7.4897827    812.53884  0.016698291  0.015376258         1354 
 4056000   0.60893283   -7.4932481    810.77159  0.016657865  0.015370871         1380 
 4057000   0.60126799   -7.4919096    812.16358  0.016682351  0.015365495         1308 
 4058000   0.61038577   -7.4934047    811.13848  0.016657189  0.015360134         1387 
 4059000   0.59909253   -7.4859592    811.30075  0.016656417   0.01535477         1370 
 4060000   0.59926246   -7.4764584    812.64955  0.016679999  0.015349401         1393 
 4061000   0.61305539   -7.4833515    812.69385  0.016676801  0.015344036         1274 
 4062000   0.58975822   -7.4976295    811.42267  0.016646616  0.015338672         1344 
 4063000   0.59117106   -7.4902995    811.87562  0.016651809  0.015333305         1320 
 4064000   0.58808889   -7.5065093     811.9736  0.016649721  0.015327949         1354 
 4065000   0.59997962   -7.5138185     810.3079  0.016611478  0.015322591         1299 
 4066000   0.60352546   -7.5034101    810.87829  0.016619083  0.015317237         1294 
 4067000   0.60353663   -7.4947671    812.53427  0.016648928  0.015311876         1293 
 4068000   0.60311681   -7.4853321    810.56093  0.016604411  0.015306525         1349 
 4069000   0.61447846   -7.4928266    812.12631  0.016632389  0.015301187         1425 
 4070000   0.58970591   -7.4912996     811.5746  0.016617007  0.015295847         1403 
 4071000   0.57882467   -7.5134143    812.51842  0.016632245  0.015290511         1384 
 4072000   0.59599618   -7.4777531    811.79246  0.016613303  0.015285171         1244 
 4073000   0.58992419   -7.4946758    811.76435  0.016608649  0.015279833         1426 
 4074000   0.58509955   -7.4856495    809.64123  0.016561144  0.015274493         1303 
 4075000   0.59546183   -7.4982392    812.66273   0.01661887  0.015269154         1376 
 4076000   0.60094929   -7.5105616    811.65732  0.016594237  0.015263814         1339 
 4077000   0.59313048   -7.5125553    810.90207   0.01657473  0.015258484         1422 
 4078000   0.59863059   -7.5078855    811.90577  0.016591176  0.015253156         1356 
 4079000   0.59583792   -7.4692941    811.56225   0.01658009  0.015247828         1461 
 4080000   0.60504382   -7.4952978    812.01742  0.016585323  0.015242501         1350 
 4081000   0.59059136   -7.4791213    810.36034  0.016547422  0.015237166         1394 
 4082000   0.58000149   -7.5213257    811.66421  0.016569986  0.015231834         1434 
 4083000   0.60561201   -7.4954587    810.46226  0.016541396  0.015226512         1425 
 4084000   0.60363746   -7.5103124    810.60926  0.016540346  0.015221195         1458 
 4085000   0.59484973   -7.4901381    812.66913  0.016578318  0.015215886         1408 
 4086000   0.60749605   -7.4888333    811.24928  0.016545303  0.015210573         1385 
 4087000   0.60002747   -7.5070122    810.99904  0.016536152  0.015205253         1443 
 4088000   0.59471005   -7.5083145    810.73975  0.016526821  0.015199944         1472 
 4089000   0.59347145   -7.5107381    812.38142  0.016556237  0.015194628         1384 
 4090000   0.60648761   -7.5002129    811.38929  0.016531974  0.015189308         1317 
 4091000   0.59696335   -7.4966451     812.3185  0.016546861  0.015183995         1420 
 4092000   0.61363516   -7.4892463    810.98733  0.016515708  0.015178687         1386 
 4093000   0.59783881   -7.5070792    810.96236  0.016511165   0.01517339         1346 
 4094000   0.61195165   -7.5046706    810.54335  0.016498603  0.015168086         1388 
 4095000   0.58744181   -7.5046647    812.27901  0.016529894  0.015162785         1362 
 4096000   0.61007581   -7.5128466     811.1367  0.016502618  0.015157484         1392 
 4097000   0.58771652   -7.5145666    811.12256  0.016498303   0.01515218         1335 
 4098000   0.58760629    -7.517447    812.06404  0.016513422  0.015146879         1420 
 4099000    0.5826348   -7.5195428    810.99697    0.0164877  0.015141583         1332 
 4100000   0.57922116    -7.502049    812.79092  0.016520141  0.015136301         1273 
 4101000   0.59433165   -7.5276047    810.21759  0.016463822  0.015131019         1323 
 4102000   0.59936222   -7.5063613    810.49871  0.016465519  0.015125735         1400 
 4103000   0.58852421   -7.5132816    810.41499  0.016459806  0.015120443         1397 
 4104000   0.60148814   -7.5069908    810.36944   0.01645487   0.01511515         1468 
 4105000   0.58879399   -7.5102216     810.8699  0.016461021  0.015109868         1322 
 4106000   0.58745118   -7.5098302    811.24908  0.016464708  0.015104597         1344 
 4107000   0.59559444   -7.5188481    810.41192  0.016443712  0.015099315         1301 
 4108000   0.59032722   -7.5166157    810.53711  0.016442249   0.01509405         1388 
 4109000   0.59237041   -7.5003634    812.43285  0.016476695  0.015088777         1343 
 4110000   0.58767112   -7.5283774    809.61835  0.016415619   0.01508351         1345 
 4111000   0.59019616   -7.5233578    809.77097   0.01641472  0.015078241         1346 
 4112000    0.5887088   -7.5218591    810.20479   0.01641952  0.015072969         1323 
 4113000   0.58689501   -7.4967347    811.02843  0.016432216  0.015067705         1320 
 4114000    0.5878284   -7.5137211    810.61269    0.0164198  0.015062442         1358 
 4115000   0.58787823    -7.515618    810.13687  0.016406174  0.015057184         1400 
 4116000   0.60226882   -7.5185467    811.14863  0.016422672   0.01505192         1433 
 4117000   0.58999929   -7.4720098    812.36945  0.016443394  0.015046665         1385 
 4118000   0.59577337   -7.5253064     812.0997  0.016433942  0.015041403         1384 
 4119000   0.58371656   -7.5240439    810.41751   0.01639592  0.015036136         1390 
 4120000   0.58185007   -7.5371207    810.39877  0.016391561  0.015030865         1401 
 4121000   0.59242395   -7.5273262    809.15921  0.016362517  0.015025603         1373 
 4122000   0.59477527   -7.4972773    812.46342  0.016425348  0.015020343         1361 
 4123000   0.58967801   -7.5551071    810.86426  0.016389042  0.015015094         1423 
 4124000   0.60518597   -7.5196999    811.22521  0.016392362  0.015009843         1356 
 4125000   0.55995412   -7.5122234    811.64766  0.016396922    0.0150046         1422 
 4126000   0.57800523   -7.5256725    809.95463  0.016358754  0.014999348         1347 
 4127000   0.59272183   -7.5132715    811.97293  0.016395544  0.014994101         1356 
 4128000   0.59298182   -7.5236508    810.79301  0.016367753  0.014988858         1416 
 4129000   0.59376394   -7.5168996    811.17792  0.016371557   0.01498362         1354 
 4130000   0.60377438    -7.546317    810.06431  0.016345123  0.014978379         1416 
 4131000   0.59046691   -7.5134822    812.02146  0.016380647  0.014973129         1359 
 4132000   0.59195876   -7.5040648    809.78743  0.016331628  0.014967886         1353 
 4133000   0.59698151   -7.5408737    809.73368  0.016326592  0.014962661         1447 
 4134000   0.59430467   -7.5491231    809.29703  0.016313841  0.014957427         1401 
 4135000    0.5865884    -7.528604    808.87344  0.016301359  0.014952198         1387 
 4136000   0.60915861   -7.5071077    810.51496  0.016330492  0.014946972         1353 
 4137000   0.58745965   -7.5184036    809.79594  0.016312061  0.014941749         1386 
 4138000   0.59953546   -7.5231516    811.78351  0.016348145  0.014936523         1441 
 4139000   0.59026473   -7.5305067     809.5102  0.016298425  0.014931294         1407 
 4140000   0.58447692   -7.5335348     809.9896  0.016304139  0.014926063         1460 
 4141000   0.59801066   -7.5093408    809.60412  0.016292444  0.014920836         1372 
 4142000   0.59116794   -7.5356539    810.48965  0.016306326  0.014915614         1318 
 4143000   0.58777068   -7.5255113     811.6986  0.016326708    0.0149104         1380 
 4144000   0.58697682   -7.5375976    809.47147  0.016277982  0.014905187         1348 
 4145000   0.59850382   -7.5293022    810.55813  0.016295901  0.014899971         1305 
 4146000   0.59297172    -7.519967    809.84165   0.01627757  0.014894755         1402 
 4147000   0.58502152    -7.523043    810.12614  0.016279361  0.014889535         1336 
 4148000   0.58156721    -7.552824    809.28097  0.016258457  0.014884318         1438 
 4149000   0.59300865   -7.5187993    808.88694  0.016246624  0.014879104         1421 
 4150000   0.58680381   -7.5386716    810.38052  0.016272701  0.014873903         1402 
 4151000    0.5832185   -7.5305047    810.92243   0.01627966  0.014868704         1362 
 4152000    0.5873797   -7.5554382    810.40298  0.016265313  0.014863505         1323 
 4153000   0.58777022   -7.5348539    811.32042  0.016279806  0.014858307         1362 
 4154000   0.58299707   -7.5547728    808.74543   0.01622423  0.014853106         1415 
 4155000   0.58163265   -7.5466315     810.1592   0.01624868   0.01484791         1353 
 4156000   0.57465043   -7.5307026    809.46295   0.01623081  0.014842706         1417 
 4157000   0.59195298   -7.5445817    808.93286  0.016216279  0.014837515         1421 
 4158000   0.59278537   -7.5296255    809.06895  0.016215106  0.014832326         1373 
 4159000   0.58563781   -7.5403054    810.78164  0.016245524  0.014827134         1389 
 4160000   0.58247736   -7.5517798    808.16604  0.016189224  0.014821945         1352 
 4161000     0.580855   -7.5168595     811.9109  0.016260332  0.014816771         1310 
 4162000   0.58782258   -7.5227735    809.92043  0.016216571  0.014811594         1475 
 4163000   0.58238221   -7.5319108    810.55572  0.016225393  0.014806405         1369 
 4164000   0.59322772   -7.5360039    809.80045  0.016206381  0.014801229         1342 
 4165000   0.59141502   -7.5231952    810.80967  0.016222682  0.014796059         1414 
 4166000   0.59650386   -7.5396833    808.72024  0.016176993  0.014790889         1369 
 4167000   0.59086202    -7.517315    809.36075   0.01618592  0.014785716         1350 
 4168000   0.57936746    -7.546618    808.97533  0.016174331  0.014780549         1363 
 4169000   0.57366031   -7.5346996    809.13045  0.016173552  0.014775385         1330 
 4170000   0.58525281   -7.5445441    809.96541  0.016186359  0.014770216         1308 
 4171000   0.58320975   -7.5675726    809.03064  0.016163802  0.014765047         1452 
 4172000   0.58741914   -7.5581934     807.4471  0.016128298  0.014759876         1438 
 4173000   0.57463226   -7.5301475     809.1075  0.016157591  0.014754706         1410 
 4174000   0.58461569   -7.5462202    809.80631  0.016167671   0.01474954         1425 
 4175000   0.58151848   -7.5218785    810.05303  0.016168723  0.014744371         1427 
 4176000   0.58459767   -7.5514025    809.91134  0.016162024  0.014739212         1358 
 4177000   0.59071021   -7.5345896    808.92349  0.016138446  0.014734045         1360 
 4178000   0.58682173   -7.5453423    808.12716    0.0161187  0.014728884         1378 
 4179000   0.58686867   -7.5155977    809.90894  0.016150374  0.014723719         1464 
 4180000    0.5981088   -7.5545903    808.12096  0.016110864   0.01471856         1394 
 4181000   0.59072327    -7.548872    810.90628  0.016162527  0.014713398         1428 
 4182000   0.58596649   -7.5144237    809.78916  0.016136401  0.014708246         1431 
 4183000   0.58845125   -7.5413695    808.45866  0.016106038  0.014703094         1410 
 4184000   0.58117999   -7.5471901    810.39378   0.01614073  0.014697944         1470 
 4185000   0.58640048   -7.5538332    808.48812  0.016098927  0.014692802         1392 
 4186000    0.5840158   -7.5332949    809.86523  0.016122496  0.014687661         1375 
 4187000    0.5746525   -7.5405583    808.25299  0.016086557   0.01468252         1488 
 4188000   0.58182646   -7.5378665    809.32545  0.016104056  0.014677376         1435 
 4189000   0.57999968   -7.5345412    808.50283  0.016083847  0.014672237         1447 
 4190000   0.58177655   -7.5555861    809.27111  0.016095289  0.014667099         1460 
 4191000   0.57526812   -7.5636477    809.91281  0.016104208  0.014661973         1464 
 4192000   0.57608921   -7.5509075    808.80793  0.016078402  0.014656846         1441 
 4193000   0.57623214   -7.5450616    810.71646  0.016112498  0.014651723         1410 
 4194000   0.57876247   -7.5729554    807.81128  0.016050932  0.014646603         1477 
 4195000   0.57710511    -7.562101    809.62091  0.016083053  0.014641475         1421 
 4196000   0.57647962   -7.5490884     809.0139  0.016067165  0.014636356         1428 
 4197000   0.57112963   -7.5567396    809.18698  0.016066773  0.014631237         1435 
 4198000   0.58044944   -7.5629766    809.20964  0.016063396  0.014626121         1334 
 4199000   0.59226681   -7.5420891    808.96358  0.016054687  0.014621013         1496 
 4200000   0.56682824   -7.5281435    809.66239   0.01606473  0.014615909         1442 
 4201000   0.57922875   -7.5548179    809.84109  0.016064451  0.014610804         1393 
 4202000   0.58183913   -7.5503585    809.57369  0.016055325  0.014605696         1410 
 4203000    0.5917332   -7.5482355    809.40329  0.016048126  0.014600585         1385 
 4204000    0.5790465   -7.5729729    808.34297  0.016023291  0.014595475         1352 
 4205000   0.58324011   -7.5593444    808.20332  0.016016713  0.014590364         1392 
 4206000   0.55947585   -7.5595912    809.50659  0.016038726  0.014585255         1319 
 4207000   0.57548577    -7.560581    809.21896  0.016029216  0.014580149         1395 
 4208000   0.56985186   -7.5700504    808.67832  0.016014701  0.014575036         1492 
 4209000   0.58265457   -7.5576921    809.52097  0.016027579  0.014569937         1453 
 4210000    0.5726797   -7.5639402    808.46524  0.016002875  0.014564837         1461 
 4211000   0.56797925   -7.5556728    810.66177  0.016042543  0.014559742         1456 
 4212000   0.58735599   -7.5410668    809.77884  0.016021266   0.01455464         1481 
 4213000   0.58507236   -7.5513929     809.1619  0.016005259  0.014549545         1376 
 4214000   0.57738302   -7.5570847    808.90759  0.015996432  0.014544446         1456 
 4215000   0.56479145   -7.5547256    809.23379  0.015999086  0.014539359         1433 
 4216000   0.57096922   -7.5748819    807.98249  0.015970558  0.014534272         1487 
 4217000    0.5899414    -7.538919    808.16381  0.015970354  0.014529186         1469 
 4218000   0.58707805    -7.550876    809.80492  0.015998991  0.014524104         1481 
 4219000   0.57314942   -7.5654972    809.17612  0.015982779  0.014519023         1366 
 4220000   0.58158909   -7.5478535    807.93926  0.015954567  0.014513946         1519 
 4221000   0.58291962   -7.5517685     809.7636  0.015986804  0.014508873         1480 
 4222000   0.57764202   -7.5499602    808.82841  0.015964559  0.014503803         1409 
 4223000   0.57307196   -7.5536903    809.86921  0.015981317  0.014498726         1523 
 4224000   0.56843197   -7.5597521    808.43602  0.015949259   0.01449365         1533 
 4225000   0.57166882   -7.5280926    810.18286  0.015979938  0.014488577         1512 
 4226000   0.55871265   -7.5505364    809.12977  0.015955391  0.014483511         1545 
 4227000   0.57852456   -7.5582295    808.63111  0.015941785  0.014478457         1528 
 4228000    0.5649129   -7.5752226    808.13357  0.015928208  0.014473394         1518 
 4229000   0.58523053   -7.5632197    808.90084  0.015939561  0.014468334         1536 
 4230000   0.58642781   -7.5668339    807.31163  0.015904485  0.014463278         1468 
 4231000   0.57612951   -7.5497156    808.64146  0.015926918  0.014458217         1496 
 4232000   0.58977503   -7.5592663    808.25467  0.015915538  0.014453159         1527 
 4233000   0.56441469    -7.565889    808.13736  0.015909469  0.014448102         1524 
 4234000   0.57890955   -7.5726522    808.24189  0.015907768  0.014443049         1466 
 4235000   0.57150363   -7.5655934     809.8225  0.015935114  0.014437991         1555 
 4236000   0.57994086    -7.576848    807.53364  0.015886324  0.014432933         1498 
 4237000   0.56487783   -7.5807095    806.43019  0.015860872  0.014427872         1556 
 4238000   0.57156768    -7.575542    807.82209  0.015884499  0.014422818         1531 
 4239000   0.58228903   -7.5569609    807.64869  0.015877343   0.01441776         1563 
 4240000   0.56506046   -7.5831046    807.94539   0.01587943  0.014412704         1420 
 4241000   0.57168985   -7.5949693    806.72762  0.015851757  0.014407651         1517 
 4242000   0.57280375   -7.5650148    809.06251  0.015893889  0.014402597         1441 
 4243000   0.59051481   -7.5623374    808.99828  0.015888881  0.014397556         1500 
 4244000   0.57987491   -7.5660484    807.92479  0.015864059   0.01439252         1412 
 4245000    0.5808011   -7.5684928    807.60823  0.015854107  0.014387477         1478 
 4246000   0.57478856   -7.5659065     807.5538  0.015849305  0.014382436         1493 
 4247000   0.56287706   -7.5845748    807.36969  0.015841961  0.014377393         1488 
 4248000   0.56806043   -7.5681109    808.77646  0.015865828  0.014372353         1569 
 4249000   0.58089917   -7.5546217     806.9777  0.015826816  0.014367319         1471 
 4250000   0.57373604   -7.5648692    810.04055  0.015883148  0.014362285         1539 
 4251000   0.57979865   -7.5709294    807.97311  0.015838883  0.014357259         1493 
 4252000   0.56700518   -7.5695533    806.94467  0.015815002  0.014352226         1607 
 4253000   0.57332934   -7.5647698    808.49958   0.01584175  0.014347197         1524 
 4254000   0.56567168   -7.5840335     806.5598  0.015800027  0.014342172         1551 
 4255000   0.55986596   -7.5789556    806.48226  0.015794795  0.014337146         1567 
 4256000   0.55991921   -7.5614839    809.14774  0.015843275   0.01433213         1510 
 4257000   0.57292635   -7.5871904    807.41979  0.015805728  0.014327112         1496 
 4258000   0.57184729   -7.5691066    809.19954  0.015836847  0.014322092         1535 
 4259000    0.5802187   -7.5812199    808.85942  0.015826474  0.014317078         1482 
 4260000     0.578773   -7.5719287      808.346  0.015812715  0.014312066         1410 
 4261000   0.56484193   -7.5837937    808.47385  0.015811505  0.014307059         1463 
 4262000   0.57583366    -7.561716     809.3288  0.015824511  0.014302054         1491 
 4263000   0.57458778   -7.5700925    807.09602  0.015777153  0.014297053         1445 
 4264000   0.55530957   -7.5658043    807.89928  0.015789151   0.01429205         1484 
 4265000   0.55790307   -7.5637122     808.0991  0.015789353  0.014287054         1515 
 4266000   0.57071863   -7.5618887    809.15223  0.015806224  0.014282058         1475 
 4267000   0.56402378   -7.5751978     808.7305  0.015794284  0.014277067         1475 
 4268000   0.56774022   -7.5836703    809.29572  0.015801619  0.014272076         1510 
 4269000   0.57132021   -7.5803504    808.43108  0.015781039  0.014267084         1560 
 4270000   0.54854608   -7.5656452    808.53269  0.015779326  0.014262096         1518 
 4271000   0.56934281    -7.582979    807.12289  0.015748125  0.014257109         1544 
 4272000   0.57388845   -7.5735264    808.76892  0.015776547  0.014252127         1575 
 4273000   0.56103606   -7.5615611    808.24799  0.015762696  0.014247147         1546 
 4274000   0.55494097   -7.5773658    807.60063  0.015746386  0.014242168         1542 
 4275000   0.57359093   -7.5679811    808.56526  0.015761506  0.014237187         1481 
 4276000   0.56207142   -7.5751447    808.62307  0.015758947  0.014232202         1603 
 4277000   0.56710013   -7.5798312    807.02416  0.015724109  0.014227217         1535 
 4278000   0.56198969   -7.5812962     808.6416   0.01575194  0.014222233         1567 
 4279000   0.56603332   -7.5670072    806.66056  0.015709678  0.014217255         1530 
 4280000   0.56129492   -7.5884518    805.93602  0.015691901  0.014212277         1603 
 4281000    0.5555717   -7.5793105    807.58491  0.015720332  0.014207305         1580 
 4282000   0.56627098   -7.5821221    807.02723  0.015705808  0.014202332         1560 
 4283000   0.56364508   -7.5754745    806.88677  0.015699408  0.014197357         1630 
 4284000   0.56090878   -7.5901668    805.71283  0.015672908  0.014192386         1581 
 4285000   0.56548698   -7.5967132    807.56491  0.015705269  0.014187413         1575 
 4286000   0.56320156    -7.586366    808.18507  0.015713662  0.014182446         1623 
 4287000   0.56703759   -7.5937057    806.83721  0.015683796  0.014177482         1540 
 4288000   0.56546857   -7.5691233    808.27435  0.015708068   0.01417252         1608 
 4289000   0.56249562   -7.5831924    807.83231  0.015695817  0.014167561         1562 
 4290000   0.56139623   -7.5839507    807.48171  0.015685348  0.014162605         1577 
 4291000   0.55160718   -7.5932733    807.89255  0.015689671  0.014157652         1595 
 4292000    0.5583453   -7.5776882    808.46289  0.015697089  0.014152698         1576 
 4293000   0.55799762   -7.5896943    807.18847  0.015668695  0.014147747         1616 
 4294000   0.56680761   -7.5933953    807.08836  0.015663103  0.014142795         1617 
 4295000    0.5720569   -7.5789537    807.13954  0.015660449  0.014137844         1659 
 4296000   0.55045185   -7.5932353    807.47031   0.01566322  0.014132898         1591 
 4297000   0.56835721   -7.5726207      807.791  0.015665794  0.014127959         1654 
 4298000   0.56888886   -7.5907917    808.64889  0.015678783  0.014123016         1515 
 4299000   0.56571396   -7.5949197    806.52252  0.015633917   0.01411808         1602 
 4300000   0.56545212   -7.5824929    806.61679  0.015632108  0.014113141         1574 
 4301000   0.56135448   -7.6014156    806.58617   0.01562788  0.014108201         1612 
 4302000   0.56291904   -7.5695897    807.28239  0.015637734  0.014103268         1535 
 4303000   0.55965521   -7.5926356    807.62156  0.015640669  0.014098339         1648 
 4304000   0.56685166   -7.5930783    807.42276  0.015633185  0.014093409         1581 
 4305000   0.56023455   -7.5973065    806.53429  0.015612356   0.01408848         1683 
 4306000   0.55564949   -7.5778934    806.50445  0.015608152  0.014083551         1605 
 4307000   0.56419849   -7.5951081    805.86507  0.015592157  0.014078625         1649 
 4308000   0.55317889   -7.5891213    807.75068  0.015625013  0.014073705         1621 
 4309000     0.565104   -7.5964525    807.52982  0.015617116  0.014068782         1668 
 4310000   0.56487969   -7.5945897    808.23825   0.01562719  0.014063865         1629 
 4311000   0.56700893   -7.5946483    808.14979  0.015621855  0.014058956         1641 
 4312000   0.56192771   -7.5745588    806.73715  0.015590931  0.014054041         1617 
 4313000   0.56857195   -7.5992967    808.13179  0.015614263  0.014049125         1632 
 4314000   0.56645195   -7.6186097    806.95228  0.015587859  0.014044208         1706 
 4315000   0.54765349   -7.6089151    806.91595  0.015583545  0.014039289         1609 
 4316000   0.57425643   -7.5863703    806.69061  0.015575583  0.014034375         1721 
 4317000    0.5450753   -7.5773224    806.42911  0.015566927  0.014029469         1576 
 4318000   0.56925412   -7.5960863    807.33284  0.015580763  0.014024559         1692 
 4319000   0.57243255   -7.6056618    806.45085  0.015560138  0.014019649         1654 
 4320000   0.55383865   -7.6012108    806.43596  0.015556249  0.014014753         1661 
 4321000   0.56779084    -7.601406    806.42725  0.015552481  0.014009855         1621 
 4322000   0.56516513   -7.5913646    807.64453  0.015572353  0.014004965         1519 
 4323000   0.56064749   -7.6086419    808.08989  0.015577336  0.014000072         1633 
 4324000   0.56005018    -7.597978    808.15349  0.015574959  0.013995184         1619 
 4325000   0.55186637   -7.6089993    805.97436  0.015529371  0.013990297         1583 
 4326000   0.56476823   -7.5851641    805.92749  0.015524878  0.013985407         1584 
 4327000    0.5579365    -7.597476    807.05607  0.015543026  0.013980527         1662 
 4328000   0.56908107   -7.6114532    806.89881  0.015536407  0.013975645         1602 
 4329000   0.54834404   -7.5999307    805.49773  0.015505847  0.013970764         1610 
 4330000   0.56625856   -7.6315037    806.32476  0.015518182  0.013965886         1705 
 4331000   0.56452841   -7.5936362      806.169  0.015511602  0.013961003         1629 
 4332000    0.5447927   -7.5767986    807.43133  0.015532305  0.013956131         1615 
 4333000   0.55266549   -7.6257977    805.97509  0.015500713  0.013951256         1666 
 4334000   0.55930184   -7.6002394    807.35894  0.015523745  0.013946383         1655 
 4335000   0.56646212   -7.6019974    806.14374  0.015496804  0.013941509         1697 
 4336000   0.55969206   -7.6037983    806.51071  0.015500283  0.013936638         1675 
 4337000   0.55201808   -7.6203493    806.60709  0.015498561  0.013931772         1614 
 4338000   0.56043677   -7.5791489    808.07837  0.015523251  0.013926909         1664 
 4339000   0.56169925   -7.5952539    805.68441  0.015473696  0.013922052         1686 
 4340000   0.55825282   -7.5960776    806.67161  0.015489086  0.013917185         1627 
 4341000   0.55979378   -7.5925846    806.52384  0.015482681  0.013912322         1570 
 4342000    0.5426331   -7.5894011      807.601  0.015499789  0.013907464         1591 
 4343000   0.57281641   -7.5945768     807.1154  0.015486902  0.013902606         1619 
 4344000   0.55122442   -7.6015909    807.25685  0.015486051  0.013897757         1603 
 4345000   0.55205223    -7.595581    805.66927  0.015452038  0.013892912         1641 
 4346000   0.55398208    -7.598705    807.19324  0.015477704  0.013888059         1738 
 4347000   0.55586085   -7.5878509     806.7265  0.015465196  0.013883214         1621 
 4348000   0.55821806   -7.6125894    806.19913  0.015451532  0.013878364         1704 
 4349000   0.56434836   -7.6166747    806.69779  0.015457534  0.013873513         1668 
 4350000   0.55466437    -7.589189    805.45242  0.015430123  0.013868666         1658 
 4351000   0.56137528    -7.602784    807.12435  0.015458599  0.013863825         1637 
 4352000   0.55362711   -7.6247296    806.73765  0.015447642  0.013858984         1629 
 4353000   0.54982332   -7.5961186     805.9194  0.015428429  0.013854147         1647 
 4354000   0.55419374   -7.6045286    806.82494  0.015442217  0.013849317         1715 
 4355000   0.55663871   -7.6315422     806.1956  0.015426628  0.013844483         1705 
 4356000   0.55728092   -7.6109681    806.28702  0.015424836  0.013839642         1744 
 4357000   0.54348571   -7.6237262    805.44682  0.015405226  0.013834812         1698 
 4358000    0.5616766   -7.6038313    806.77737  0.015427133  0.013829978         1769 
 4359000   0.56763738   -7.5967814    806.98352  0.015427535  0.013825148         1680 
 4360000   0.54990366   -7.6339787    806.80858  0.015420653  0.013820317         1662 
 4361000   0.55920839   -7.6023348    806.58288  0.015412804   0.01381549         1631 
 4362000   0.55751858   -7.6186162    805.87404  0.015395729  0.013810665         1645 
 4363000   0.54121519   -7.6020764    806.07016  0.015395946  0.013805849         1603 
 4364000   0.54352295   -7.6210644    805.26917  0.015377123  0.013801029         1718 
 4365000   0.55426956   -7.6226699    806.30985  0.015393468  0.013796207         1603 
 4366000   0.54209468   -7.6186998    805.67037  0.015377736  0.013791392         1702 
 4367000   0.55031743   -7.6083935     806.2669  0.015385598  0.013786576         1719 
 4368000   0.56310408   -7.6115216    807.88089  0.015412868  0.013781763         1642 
 4369000   0.56655713   -7.6356171    804.58555  0.015346486  0.013776948         1699 
 4370000   0.54710587     -7.63245    806.72476  0.015383767  0.013772141         1760 
 4371000   0.55751943    -7.630528    804.62283  0.015340174  0.013767333         1710 
 4372000   0.55269918   -7.6025808    806.65955  0.015375487  0.013762525         1618 
 4373000   0.55125665   -7.6199417    806.17827    0.0153628  0.013757718         1646 
 4374000   0.54988205   -7.6170095    805.74758  0.015351082  0.013752912         1543 
 4375000   0.56751433   -7.6172936     803.8414  0.015311265  0.013748114         1586 
 4376000    0.5525979    -7.610072    806.15661  0.015351855  0.013743325         1579 
 4377000   0.54827329   -7.6305503    805.94223  0.015344266  0.013738525         1694 
 4378000   0.55224079   -7.6077226      807.386  0.015368243   0.01373373         1678 
 4379000   0.53176056   -7.6236397    804.43853  0.015308642  0.013728939         1703 
 4380000   0.56533089   -7.6150595    805.73337  0.015329783  0.013724152         1743 
 4381000   0.55356787   -7.6296922    806.59951  0.015342759  0.013719363         1726 
 4382000   0.54593648   -7.6074737    804.86746  0.015306319  0.013714576         1651 
 4383000   0.55328198   -7.6187592    806.72545  0.015338152  0.013709789         1664 
 4384000   0.54311297    -7.617536    806.11902  0.015323126  0.013705008         1702 
 4385000   0.55428268   -7.6183329    805.29081  0.015303892  0.013700225         1708 
 4386000   0.55175325   -7.6215074    806.17702  0.015317241  0.013695444         1644 
 4387000   0.54731464   -7.6197116    806.66075  0.015322938  0.013690671         1670 
 4388000    0.5387552   -7.6206587    804.25343  0.015273728  0.013685891         1680 
 4389000   0.53944714    -7.629946     806.0317  0.015304012  0.013681117         1648 
 4390000   0.54938904   -7.6219517     807.6443  0.015331137  0.013676341         1646 
 4391000   0.55969395   -7.6276674    805.45666  0.015286128  0.013671576         1610 
 4392000   0.54171188   -7.6090917     806.8466   0.01530902  0.013666811         1664 
 4393000   0.54398917   -7.6068172    806.32958  0.015295728  0.013662051         1656 
 4394000     0.553921     -7.61027     805.1401  0.015269688  0.013657288         1610 
 4395000    0.5369222   -7.5979573    806.70583  0.015295901  0.013652525         1698 
 4396000   0.54555739   -7.5958493    805.29056  0.015265593  0.013647769         1746 
 4397000   0.56156592   -7.5993913    805.40751  0.015264338   0.01364301         1766 
 4398000   0.55573171   -7.6318185    806.15494  0.015275029  0.013638258         1778 
 4399000    0.5423116   -7.6390463    806.52022  0.015278476  0.013633505         1716 
 4400000   0.54999358   -7.6239535    806.23111  0.015269529  0.013628753         1791 
 4401000     0.550589   -7.6222787    806.07671  0.015263136     0.013624         1683 
 4402000   0.53748245    -7.598315    805.14003  0.015241936  0.013619253         1738 
 4403000   0.53120088     -7.61691    806.23399  0.015259179  0.013614509         1732 
 4404000   0.53606212   -7.6203504    806.64762  0.015263541  0.013609764         1688 
 4405000   0.54244077   -7.6069819    804.57048  0.015220781  0.013605024         1767 
 4406000    0.5426591   -7.6134088    805.73121   0.01523928  0.013600288         1658 
 4407000   0.55071487   -7.6213831    806.44124  0.015249248  0.013595558         1735 
 4408000   0.54360552   -7.6244533    805.32501  0.015224686  0.013590817         1729 
 4409000   0.54309087   -7.6279271    805.82326  0.015230651  0.013586086         1844 
 4410000   0.54680331   -7.6209662    804.76979   0.01520729  0.013581357         1748 
 4411000   0.55042046   -7.6313564    806.52232  0.015236952  0.013576628         1700 
 4412000   0.54616163   -7.6138507    805.19139  0.015208359   0.01357191         1730 
 4413000   0.54517777   -7.5922006    805.22662  0.015205579  0.013567193         1721 
 4414000   0.54922421   -7.6272952    805.66827  0.015210472  0.013562481         1793 
 4415000   0.53681896   -7.6008407    805.69526  0.015207536  0.013557769         1726 
 4416000   0.55254351   -7.6173087    805.92369  0.015208403  0.013553055         1748 
 4417000   0.54541002   -7.6209039    806.66688  0.015218981  0.013548344         1710 
 4418000   0.54335509    -7.625875    806.60498  0.015214369  0.013543636         1649 
 4419000   0.53876068   -7.6242765    805.97537  0.015199053  0.013538925         1765 
 4420000   0.54884859   -7.6276604     805.6565  0.015189602  0.013534218         1822 
 4421000   0.54873605    -7.633206    806.00059  0.015192652  0.013529505         1805 
 4422000   0.54612335   -7.6208021     805.4736  0.015179285  0.013524801         1766 
 4423000   0.55008282   -7.6196814    804.02196  0.015148503  0.013520094         1731 
 4424000   0.54282245   -7.6294584    804.98938  0.015163302  0.013515388         1751 
 4425000   0.54541344   -7.6339584    804.87598   0.01515774   0.01351069         1860 
 4426000   0.54112218   -7.6242677    805.08995  0.015158344  0.013505995         1778 
 4427000   0.54888391   -7.6180613    806.74594  0.015186092  0.013501303         1723 
 4428000   0.54353635     -7.61759    805.34281  0.015156256  0.013496605         1827 
 4429000   0.54636676   -7.6279092    804.21195  0.015131556   0.01349191         1779 
 4430000   0.54458105   -7.6298693    805.53128  0.015152959  0.013487216         1757 
 4431000   0.55017377   -7.6347438    806.02529   0.01515883  0.013482518         1780 
 4432000   0.55112388   -7.6428977    804.80044  0.015132379  0.013477825         1817 
 4433000   0.52769706   -7.6256594    805.02123  0.015133116  0.013473128         1811 
 4434000   0.55062841    -7.658684    804.39239  0.015117884  0.013468429         1912 
 4435000   0.53667385   -7.6248179    803.67938  0.015101078  0.013463736         1781 
 4436000   0.52529744     -7.62005    806.98638  0.015159798   0.01345905         1762 
 4437000   0.54329605    -7.632733    804.82497  0.015115787   0.01345437         1850 
 4438000   0.54171806   -7.6311032    805.28673  0.015121052  0.013449682         1796 
 4439000   0.54172505   -7.6168581    804.16458  0.015096579  0.013445003         1843 
 4440000   0.54827944   -7.6615425    804.83806  0.015105819  0.013440322         1829 
 4441000   0.54678588   -7.6383257    804.19682  0.015090385  0.013435637         1829 
 4442000   0.53455081   -7.6463038    804.63663  0.015095239  0.013430956         1801 
 4443000   0.52683062   -7.6336981    803.94132    0.0150788  0.013426276         1849 
 4444000   0.54401267   -7.6245088    804.10199   0.01507842    0.0134216         1814 
 4445000   0.53857418   -7.6487337    804.19685  0.015076806  0.013416921         1777 
 4446000    0.5344211   -7.6456754    806.48682  0.015116337  0.013412246         1829 
 4447000   0.54887441   -7.6351683    805.26683  0.015090076  0.013407578         1841 
 4448000    0.5471842   -7.6431321     804.4997  0.015072312  0.013402911         1876 
 4449000   0.55042937   -7.6472643    804.89307  0.015076292  0.013398243         1800 
 4450000    0.5243867   -7.6270431     803.9975  0.015056133  0.013393583         1805 
 4451000    0.5306879   -7.6382298    804.99499  0.015071426  0.013388926         1830 
 4452000   0.53277728   -7.6502531    805.03106  0.015068716  0.013384268         1825 
 4453000   0.52727347   -7.6355917    803.29423  0.015032829  0.013379612         1847 
 4454000   0.53704873   -7.6478142    805.30995  0.015067167  0.013374952         1771 
 4455000   0.53821225   -7.6497503    803.90208   0.01503745  0.013370299         1864 
 4456000     0.545445   -7.6444301    805.92657  0.015071936  0.013365648         1813 
 4457000   0.52982292   -7.6316306    806.56667  0.015080523  0.013360999         1845 
 4458000   0.54118899   -7.6412661    804.33441  0.015035412  0.013356351         1717 
 4459000   0.53728094   -7.6499234    803.02811  0.015007627  0.013351705         1899 
 4460000   0.53911536   -7.6521303    804.26644    0.0150274  0.013347066         1862 
 4461000   0.53232207   -7.6455557    805.21498   0.01504175  0.013342425         1788 
 4462000   0.53779945   -7.6289206    804.97248   0.01503385  0.013337789         1795 
 4463000   0.52808121   -7.6496665    805.66838  0.015043476  0.013333152         1829 
 4464000   0.54381167   -7.6422677    804.30995  0.015014747  0.013328513         1799 
 4465000     0.524483   -7.6332367    805.34765  0.015030751   0.01332388         1738 
 4466000    0.5410256   -7.6339161    804.52257   0.01501199  0.013319245         1762 
 4467000   0.52849967   -7.6582445     804.8118  0.015014025  0.013314617         1766 
 4468000   0.54356961   -7.6509133     804.3935  0.015002863  0.013309984         1874 
 4469000    0.5435078   -7.6484871    805.08018   0.01501231  0.013305358         1822 
 4470000   0.54516168   -7.6334185    804.57189  0.014999476  0.013300734         1815 
 4471000    0.5332828   -7.6466701    804.31942  0.014991415   0.01329611         1871 
 4472000   0.53313698   -7.6483435    802.04268  0.014945637  0.013291484         1830 
 4473000   0.54157226   -7.6582988    804.64641  0.014990804  0.013286863         1840 
 4474000   0.53890822   -7.6411001    804.17584  0.014978689  0.013282247         1823 
 4475000   0.53931272    -7.650634    803.52774  0.014963273  0.013277632         1826 
 4476000   0.53310059   -7.6283343    803.35276  0.014956672  0.013273013         1853 
 4477000   0.53942528   -7.6403495    805.32824  0.014990102    0.0132684         1755 
 4478000   0.52656343   -7.6397098    803.27819  0.014948604  0.013263791         1762 
 4479000   0.54251385    -7.653113    805.15449  0.014980176   0.01325918         1770 
 4480000    0.5385341   -7.6482616    804.54255  0.014965449  0.013254567         1824 
 4481000   0.53914852   -7.6729832    803.54623  0.014943581  0.013249963         1794 
 4482000   0.53239837   -7.6630314    802.56719  0.014922043  0.013245355         1833 
 4483000   0.53766735    -7.640426    805.55127  0.014974185  0.013240749         1825 
 4484000   0.53416097   -7.6556709    803.46968   0.01493216  0.013236147         1834 
 4485000   0.53651918   -7.6399373    804.02492  0.014939148  0.013231549         1772 
 4486000   0.54071424   -7.6622558    803.58224  0.014927594  0.013226948         1757 
 4487000   0.54553571   -7.6405814     803.3324  0.014919627  0.013222352         1845 
 4488000   0.54887058   -7.6426813    805.11758   0.01494945  0.013217757         1843 
 4489000   0.54393574   -7.6398916    803.53045  0.014916657   0.01321316         1842 
 4490000   0.52917174   -7.6593298    804.31902   0.01492797  0.013208567         1726 
 4491000   0.53238564   -7.6707739    802.34219  0.014887965  0.013203972         1807 
 4492000   0.53700868   -7.6752528    803.42596  0.014904756  0.013199381         1763 
 4493000   0.53368372    -7.665225    803.42827  0.014901481  0.013194797         1823 
 4494000    0.5325836   -7.6531881    805.48004  0.014936212  0.013190215         1881 
 4495000   0.53070128   -7.6413371    803.80657  0.014901864  0.013185632         1789 
 4496000   0.52212943    -7.671777    804.15021  0.014904919  0.013181056         1767 
 4497000   0.52661041   -7.6615352    802.20097  0.014865484  0.013176481         1849 
 4498000   0.54127079   -7.6473359    803.58723  0.014887862  0.013171904         1746 
 4499000   0.52861375   -7.6670125     804.8835  0.014908563  0.013167326         1773 
 4500000   0.52726424   -7.6742937     804.2342  0.014893226  0.013162756         1805 
 4501000   0.52986792   -7.6502977    803.20343  0.014870833   0.01315819         1885 
 4502000   0.53630287   -7.6406934    805.48762  0.014909811  0.013153624         1787 
 4503000   0.52476184   -7.6577263    802.21308  0.014845901  0.013149057         1776 
 4504000   0.53228534   -7.6737138    804.14806  0.014878405  0.013144493         1826 
 4505000   0.52573607   -7.6568227    804.65564  0.014884492  0.013139933         1732 
 4506000   0.52810041    -7.651785      803.834  0.014865993  0.013135377         1882 
 4507000      0.53458   -7.6656354    803.25761  0.014852038  0.013130818         1856 
 4508000   0.52866265   -7.6532999    803.44252  0.014852161  0.013126261         1808 
 4509000   0.52332443    -7.677694    804.41013   0.01486675  0.013121705         1864 
 4510000   0.52872019   -7.6562965    803.53397  0.014847265  0.013117148         1788 
 4511000   0.53159688   -7.6540046     802.9221   0.01483267  0.013112594         1882 
 4512000   0.52009034   -7.6673046    804.02755    0.0148498  0.013108043         1813 
 4513000   0.53811381   -7.6765704    802.63991  0.014820886  0.013103499         1764 
 4514000   0.53465436   -7.6734293    804.06099  0.014843837  0.013098953         1834 
 4515000   0.52241778    -7.663758     803.9806  0.014839066  0.013094411         1871 
 4516000   0.52856235    -7.676387    804.81093  0.014851102  0.013089874         1834 
 4517000   0.53009896   -7.6605646    805.84233  0.014866842  0.013085336         1829 
 4518000   0.52417018   -7.6658782    802.45431  0.014801061  0.013080796         1927 
 4519000    0.5252106   -7.6629632    804.00687  0.014826416  0.013076258         1734 
 4520000   0.52243688   -7.6614762    803.76633  0.014818701  0.013071725         1846 
 4521000   0.51729483   -7.6515993    803.15705  0.014804192  0.013067193         1825 
 4522000   0.52537544   -7.6588983    803.20816   0.01480186  0.013062659         1814 
 4523000   0.53511025   -7.6571931    803.72891  0.014808182  0.013058132         1838 
 4524000   0.52695989   -7.6631875    804.32703  0.014815927  0.013053606         1789 
 4525000   0.51433612   -7.6372663    803.49852  0.014797394  0.013049083         1784 
 4526000   0.53314653   -7.6563283    802.24925  0.014771123  0.013044561         1839 
 4527000   0.51540429   -7.6583842    802.95832  0.014780913  0.013040036         1848 
 4528000   0.52085713   -7.6711341    803.16771  0.014781502  0.013035516         1909 
 4529000   0.53454869   -7.6633382    803.09744  0.014776946  0.013031004         1818 
 4530000   0.53233662   -7.6605517    803.30197  0.014777446  0.013026484         1839 
 4531000    0.5166049   -7.6510067    804.48005  0.014795852  0.013021969         1857 
 4532000   0.52604664   -7.6622339     804.6302  0.014795348  0.013017459         1876 
 4533000   0.53571042    -7.670953    804.29879  0.014785991  0.013012951         1818 
 4534000   0.52419768   -7.6622457    802.94826  0.014757908  0.013008445         1901 
 4535000   0.52355405    -7.647908    804.08395  0.014775523  0.013003938         1847 
 4536000   0.52288831   -7.6701139    802.72873  0.014747368  0.012999438         1835 
 4537000   0.51696855   -7.6527744    804.08758  0.014769076  0.012994944         1812 
 4538000   0.52263249     -7.64504    803.48145  0.014754691  0.012990448         1871 
 4539000    0.5219825   -7.6566241    805.32466  0.014785281  0.012985956         1893 
 4540000   0.52921745   -7.6404294    804.81344   0.01477264   0.01298146         1795 
 4541000   0.53350215   -7.6713568     803.8178  0.014751116  0.012976969         1873 
 4542000   0.52410398   -7.6622465    804.09862   0.01475302  0.012972478         1783 
 4543000   0.51321112   -7.6727533    803.43475  0.014737595  0.012967993         1815 
 4544000   0.52625954   -7.6785762    804.78134  0.014759048  0.012963507         1838 
 4545000   0.52843625   -7.6885562    803.85132  0.014738748  0.012959022         1923 
 4546000   0.51422293   -7.6550915     804.5344  0.014748028  0.012954532         1872 
 4547000   0.53787427   -7.6560533    803.29711  0.014722108  0.012950053         1844 
 4548000   0.53210573   -7.6650291    803.73352  0.014726867  0.012945568         1862 
 4549000   0.52091405   -7.6597517     802.4895  0.014700841  0.012941089         1974 
 4550000   0.52377442    -7.659795    804.66138  0.014737388  0.012936612         1870 
 4551000    0.5189528    -7.680421    803.28304  0.014708911  0.012932138         1875 
 4552000   0.51812172    -7.673487     803.3061  0.014706102  0.012927667         1851 
 4553000   0.52214851   -7.6713608    803.80011  0.014711914  0.012923197         1850 
 4554000   0.52809997   -7.6738422    802.17856   0.01467901  0.012918722         1823 
 4555000   0.52105285   -7.6778673    802.74498   0.01468615  0.012914255         1886 
 4556000   0.51099458   -7.6849194    803.32033  0.014693451  0.012909794         1901 
 4557000   0.51728356   -7.6777451    802.89282  0.014682408  0.012905331         1875 
 4558000     0.510371   -7.6686949    803.36045  0.014687737   0.01290087         1827 
 4559000   0.51872965   -7.6696698    802.25018  0.014664221  0.012896408         1867 
 4560000   0.53039412   -7.6813339    802.33027  0.014662468  0.012891954         1875 
 4561000   0.53392818   -7.6707107    803.26567  0.014676344  0.012887497         1883 
 4562000   0.52132474   -7.6980849    801.90278  0.014648231  0.012883039         1867 
 4563000   0.52071441   -7.6933119    802.75819  0.014660643  0.012878579         1859 
 4564000    0.5384872   -7.6763561    802.17646  0.014646809  0.012874126         1837 
 4565000   0.52469286   -7.6704267    803.04908   0.01465953  0.012869672         1881 
 4566000   0.52752041   -7.6627075    803.05215  0.014656376  0.012865228         1791 
 4567000   0.53139869   -7.6797509    801.98706  0.014633732  0.012860782         1909 
 4568000   0.51334598   -7.6642164    802.39933   0.01463805  0.012856338         1833 
 4569000   0.51227465   -7.6815899    802.97101  0.014645273  0.012851889         1919 
 4570000   0.52598485   -7.6794484    802.73964  0.014637849  0.012847448         1873 
 4571000    0.5275083    -7.667037    803.20991   0.01464322  0.012843008         1883 
 4572000   0.53042497   -7.6737995     802.5519  0.014628024  0.012838569         1844 
 4573000   0.53064545   -7.6836242    803.46512  0.014641467  0.012834131         1913 
 4574000   0.52114356   -7.6966667     801.7942  0.014607823  0.012829696         1927 
 4575000   0.51402414    -7.686692    801.84907   0.01460563  0.012825265         1895 
 4576000   0.51804482    -7.671654    803.04432  0.014624204  0.012820833         1904 
 4577000   0.51964275   -7.6789239     802.8446  0.014617373  0.012816404         1914 
 4578000   0.51713022   -7.6915992    801.69426  0.014593241  0.012811979         1911 
 4579000   0.50795561   -7.6871572     801.7174  0.014590475  0.012807553         1940 
 4580000   0.51404237   -7.6775816    803.43174  0.014618482  0.012803128         1861 
 4581000   0.51629955   -7.6964591    802.03143  0.014589817  0.012798705         1891 
 4582000   0.53276391   -7.6880973    801.67901  0.014580223  0.012794284         1871 
 4583000   0.52021388   -7.6939934    803.21086  0.014604896  0.012789868         1836 
 4584000   0.50966052   -7.6843281    802.60534  0.014590702  0.012785453         1838 
 4585000   0.52461716    -7.677085    802.52288  0.014586021  0.012781041         1901 
 4586000   0.51419589   -7.6896634    802.01744  0.014573656  0.012776635         1840 
 4587000   0.50937459   -7.6813094    802.66742  0.014582287   0.01277223         1770 
 4588000   0.51174407   -7.6836336    802.43961  0.014574971  0.012767823         1887 
 4589000   0.52137617   -7.6524566    804.21514  0.014604038  0.012763417         1841 
 4590000   0.51531735   -7.6756548    804.61671  0.014608147  0.012759008         1765 
 4591000   0.51774604   -7.6702822    803.52749  0.014585194  0.012754606         1730 
 4592000   0.50843377   -7.6733082    803.95426  0.014589762  0.012750211         1838 
 4593000   0.50852414   -7.6772022    802.17643   0.01455433  0.012745817         1837 
 4594000   0.51155962   -7.6861334     801.8456   0.01454516  0.012741417         1855 
 4595000   0.52584214   -7.6643629    803.72911  0.014576154  0.012737021         1873 
 4596000   0.51601173   -7.7017794    802.66265  0.014553645  0.012732625         1822 
 4597000    0.5122753   -7.6786478     802.2212  0.014542477  0.012728237         1748 
 4598000   0.52115663   -7.6955103    801.35446  0.014523605  0.012723846         1924 
 4599000   0.51885683   -7.6908873    803.39025  0.014557336  0.012719459         1914 
 4600000   0.50825019   -7.6732901     803.1121  0.014549132  0.012715075         1876 
 4601000   0.51927308   -7.6856949    801.98503  0.014525557  0.012710688         1906 
 4602000   0.51719924   -7.6924307    802.43178   0.01453049  0.012706308         1858 
 4603000   0.52525747   -7.6944035    802.38039  0.014526403   0.01270193         1936 
 4604000   0.52030332   -7.6872719    802.38582  0.014523346  0.012697548         1916 
 4605000   0.51750903   -7.6660115    803.76639  0.014545175  0.012693173         1908 
 4606000   0.52403446   -7.6744729    802.76657  0.014523928  0.012688798         1892 
 4607000   0.49924821   -7.6926764     804.0259  0.014543555  0.012684423         1927 
 4608000   0.51520051   -7.6819343     802.8935   0.01451992  0.012680053         1946 
 4609000   0.51262587   -7.6815591    803.00065  0.014518707  0.012675687         1881 
 4610000   0.51355697   -7.6932377    802.76816  0.014511355   0.01267132         1819 
 4611000   0.50898541   -7.6682484    803.07179  0.014513695  0.012666953         1869 
 4612000   0.51802201   -7.6981819    802.89807  0.014507409  0.012662592         1859 
 4613000   0.51900116   -7.6990745    803.00898  0.014506268  0.012658229         1901 
 4614000   0.51451532   -7.6728862    802.55815  0.014494982  0.012653868         1956 
 4615000   0.50654674    -7.685154    802.35828  0.014488232   0.01264951         1809 
 4616000   0.52086741   -7.6721711    803.39832  0.014503869  0.012645157         1914 
 4617000    0.5109217   -7.6825939    802.25671  0.014480123  0.012640802         1931 
 4618000   0.51047125   -7.6882567    802.19773  0.014475923  0.012636448         1972 
 4619000   0.50238521   -7.6845557    802.17104  0.014472307  0.012632097         1843 
 4620000   0.51093262   -7.6821568    802.35123  0.014472425  0.012627745         1974 
 4621000    0.5104684   -7.6897895    802.73391  0.014476194  0.012623395         1810 
 4622000   0.51499507   -7.6827177    802.63035  0.014471195  0.012619046         1817 
 4623000   0.51711774    -7.698682    801.72049  0.014451664  0.012614702         1916 
 4624000   0.51953507    -7.670508    802.65387   0.01446536  0.012610356         1925 
 4625000   0.51925449     -7.68901    802.28238  0.014455538  0.012606015         1858 
 4626000   0.50520139   -7.6897485    801.43442  0.014437138  0.012601675         1881 
 4627000   0.52562424    -7.697597    803.00247  0.014462259  0.012597338         1916 
 4628000   0.51370956   -7.6881006    802.60676  0.014452009  0.012593003         1917 
 4629000    0.5090144   -7.6849946    801.74189  0.014433317   0.01258867         1883 
 4630000   0.51394314   -7.6896133     802.9716  0.014452333  0.012584336         1918 
 4631000   0.50609394   -7.6968923    801.71528  0.014426605  0.012580005         1904 
 4632000   0.50887232     -7.69005    802.21963  0.014432564  0.012575675         1887 
 4633000   0.50590833   -7.6848827    802.28342  0.014430596  0.012571347         1918 
 4634000   0.50362979   -7.6936343    802.64668  0.014434015  0.012567022         1935 
 4635000   0.51272595   -7.6851795    802.80724  0.014433787    0.0125627         1943 
 4636000   0.51549688   -7.6938475    802.28894  0.014421357  0.012558375         2009 
 4637000   0.51024895   -7.6776673    803.28873  0.014436215  0.012554053         1916 
 4638000   0.50476849   -7.7126418    802.36682  0.014416538  0.012549736         1892 
 4639000   0.50575855   -7.6927519    802.51103  0.014416021  0.012545418         1876 
 4640000   0.49964435   -7.6969842     802.2348  0.014407953  0.012541098         1887 
 4641000    0.5070925   -7.6838685    802.18839  0.014404015  0.012536782         1914 
 4642000   0.52087016   -7.6897504    802.27957  0.014402549  0.012532462         1928 
 4643000   0.51456306   -7.7029987    802.51833  0.014403732   0.01252815         1935 
 4644000   0.51409719   -7.6613178    802.98161  0.014408944  0.012523837         1825 
 4645000   0.49943059   -7.7028633    802.29009  0.014393435  0.012519531         1970 
 4646000   0.51219897   -7.7156458    800.82078  0.014363983  0.012515218         1914 
 4647000    0.5026795   -7.7009589     801.6714  0.014376146  0.012510913         1911 
 4648000   0.51647838   -7.6877902    803.04588  0.014397696  0.012506609         1948 
 4649000   0.50440025   -7.6984741    803.01535  0.014394052  0.012502316         1954 
 4650000   0.50774703    -7.691019    802.26047  0.014377428  0.012498015         1883 
 4651000   0.51430699   -7.6999197    802.63756  0.014381093  0.012493718         1961 
 4652000   0.50177925   -7.7045948     801.0471  0.014349511  0.012489423         1939 
 4653000   0.50748206   -7.6935819    802.55158  0.014373372  0.012485128         1894 
 4654000   0.50917036   -7.6948552    801.00474  0.014342586  0.012480836         1899 
 4655000   0.49761335   -7.6907826    804.08394  0.014394628  0.012476551         1872 
 4656000   0.51560453   -7.7057572    800.53577  0.014328031  0.012472259         1902 
 4657000   0.49993648   -7.6781484    801.96291  0.014350492  0.012467972         1919 
 4658000   0.50605841   -7.7041256    801.28853  0.014335347  0.012463681         1931 
 4659000   0.51176107   -7.7050984    802.92959  0.014361623  0.012459394         1947 
 4660000   0.50181635   -7.7122899    802.81585  0.014356507  0.012455113         1964 
 4661000   0.51288608   -7.7069993    801.65252  0.014332628  0.012450837         1961 
 4662000   0.50119523   -7.6952876    803.26767  0.014358424  0.012446559         1923 
 4663000   0.51089335   -7.6909076    803.71717  0.014363378  0.012442285         1957 
 4664000   0.51547027   -7.7008865    802.86697  0.014345107  0.012438013         1888 
 4665000   0.51084729   -7.7119529    800.69475  0.014303229  0.012433743         1949 
 4666000    0.4957837   -7.7015484    802.02141  0.014323857  0.012429474         1862 
 4667000   0.50790531   -7.6968369    802.91812    0.0143368  0.012425204         1873 
 4668000   0.50292185     -7.70627    801.40928  0.014306792   0.01242094         1951 
 4669000   0.49760101   -7.6932888    802.88549  0.014330076  0.012416676         1868 
 4670000   0.50404562   -7.6986526    802.92289  0.014327675  0.012412414         1921 
 4671000   0.49538096   -7.7101371     802.6528  0.014319789  0.012408151         1876 
 4672000   0.50328705   -7.6992337    801.20542  0.014290907  0.012403892         2026 
 4673000   0.49527039   -7.7094682    801.80998   0.01429863  0.012399632         1970 
 4674000   0.49803179   -7.7036118    800.89766  0.014279305  0.012395378         1876 
 4675000   0.50397613   -7.6938246    802.26026  0.014300539  0.012391124         1903 
 4676000   0.50500473   -7.7213273    801.19163  0.014278437  0.012386868         1895 
 4677000   0.50249939    -7.702255    801.10099  0.014273769  0.012382614         1883 
 4678000   0.50775958   -7.7107044    801.78186  0.014282846  0.012378368         1951 
 4679000   0.49972388   -7.7076221    801.78087  0.014279776  0.012374117         2036 
 4680000   0.51065743   -7.7091653    801.16138  0.014265694  0.012369871         1949 
 4681000   0.51145835   -7.7201611    801.04938  0.014260653  0.012365629         1979 
 4682000   0.49997296   -7.7153001    802.79931  0.014288753  0.012361386         1928 
 4683000   0.50016984   -7.6979708    801.02682  0.014254161  0.012357151         1908 
 4684000   0.51462127    -7.706978    801.64537  0.014262122  0.012352911         2011 
 4685000   0.50620185   -7.6967331     800.8068  0.014244162  0.012348677         1960 
 4686000   0.49799139   -7.7090093    802.13265  0.014264701  0.012344439         1897 
 4687000   0.50823356   -7.7019674    801.41259  0.014248855  0.012340208         1971 
 4688000   0.50341933   -7.6984547    800.21648  0.014224554  0.012335978         1888 
 4689000   0.49853636   -7.7020329    802.20156  0.014256799   0.01233175         1993 
 4690000   0.49334737    -7.737867    801.60865  0.014243224  0.012327519         1978 
 4691000   0.49584499   -7.7020837    801.35754  0.014235727   0.01232329         1995 
 4692000   0.49448809   -7.7214208    801.62931   0.01423752  0.012319067         1974 
 4693000   0.49092183   -7.7053331    802.03742  0.014241733  0.012314845         1988 
 4694000   0.49763286   -7.7068932    801.98819  0.014237825  0.012310626         1942 
 4695000   0.49506575   -7.7198843    802.08543  0.014236518  0.012306404         1989 
 4696000   0.50283335   -7.7076782    801.45655  0.014222327  0.012302185         1974 
 4697000   0.49343525   -7.7160765    801.81815  0.014225714  0.012297971         1969 
 4698000   0.49995196   -7.7191208    802.07518  0.014227245  0.012293759         1938 
 4699000   0.51209683   -7.7193007    802.01223  0.014223101  0.012289544         1984 
 4700000   0.49652736   -7.7316148    801.59665  0.014212707  0.012285336         1941 
 4701000    0.5069479   -7.7111521    801.25293   0.01420359  0.012281128         1996 
 4702000   0.49533245   -7.7116631    800.39628  0.014185387   0.01227692         2062 
 4703000   0.51238603   -7.7261639     801.8922  0.014208877  0.012272715         1976 
 4704000   0.50304979   -7.7116097    800.81072  0.014186698  0.012268512         1916 
 4705000   0.49757355   -7.7242712    799.76349  0.014165134   0.01226431         1861 
 4706000   0.49967327   -7.7119781    801.27682  0.014188922   0.01226011         1937 
 4707000   0.49388875   -7.7279191    800.61494   0.01417419  0.012255912         2035 
 4708000   0.51022547   -7.7073875     800.8537  0.014175405  0.012251713         1910 
 4709000     0.499558   -7.7213831    801.45668  0.014183066  0.012247519         1993 
 4710000   0.49210619   -7.7050855    801.03538  0.014172601  0.012243323         2026 
 4711000   0.49840227   -7.7261805    800.54355  0.014160892  0.012239135         2039 
 4712000   0.50041236   -7.7162016    801.56626  0.014175974  0.012234949         2024 
 4713000   0.49175265   -7.7132125    800.34202  0.014151319  0.012230765         2029 
 4714000   0.49620626   -7.7238353    801.88687  0.014175627  0.012226582         1938 
 4715000    0.4899762   -7.7272224    800.56399   0.01414924  0.012222401         2013 
 4716000   0.50338207   -7.7360709    800.14013   0.01413875  0.012218217         2003 
 4717000   0.49665434   -7.7277234     801.5112  0.014159975  0.012214035         1982 
 4718000   0.50123441   -7.7179042    802.57649  0.014175789  0.012209855         1874 
 4719000   0.50085197    -7.704299    799.59833  0.014120194  0.012205682         1944 
 4720000   0.49256816   -7.7141126    800.71104  0.014136848  0.012201512         1933 
 4721000   0.49685384   -7.7194786    802.38143  0.014163338  0.012197337         1960 
 4722000   0.49349585   -7.7206774    801.51071  0.014144972  0.012193167         2003 
 4723000   0.49688788   -7.7254921    800.72294  0.014128078  0.012188998         1998 
 4724000   0.49366246   -7.7258355     800.2788  0.014117252  0.012184827         1972 
 4725000   0.49762891   -7.7225055    801.04758  0.014127823  0.012180662         2089 
 4726000   0.50140013   -7.7163921    799.83746  0.014103496  0.012176499         1993 
 4727000   0.48454301   -7.7225754    802.08922  0.014140209  0.012172339         2011 
 4728000   0.50176257   -7.7326537    801.76063  0.014131427  0.012168183         1918 
 4729000   0.50835667   -7.7160119    801.94123  0.014131621  0.012164027         1908 
 4730000    0.4896209   -7.7140224    801.56435  0.014121993  0.012159875         1855 
 4731000   0.48774674   -7.7254041    800.67797  0.014103395  0.012155724         1963 
 4732000   0.49337844   -7.7267921    800.52156  0.014097661  0.012151569         1992 
 4733000   0.48854239   -7.7303258    801.15271  0.014105795   0.01214742         1940 
 4734000    0.4931068   -7.7316454    802.84847  0.014132666  0.012143271         2016 
 4735000     0.494382   -7.7314852    800.93221  0.014095956  0.012139124         1993 
 4736000   0.49198468    -7.718096    800.93189  0.014092974  0.012134979         1934 
 4737000   0.48487623   -7.7151812    801.14808  0.014093802  0.012130833         1984 
 4738000   0.50194162   -7.7220464     800.3421  0.014076651  0.012126694         1973 
 4739000   0.49998905   -7.7172444    800.47645  0.014076044  0.012122553         2041 
 4740000   0.49229148   -7.7283188    799.68753  0.014059204  0.012118413         2010 
 4741000   0.49414997    -7.736756    801.96961  0.014096351  0.012114274         1906 
 4742000    0.4955685   -7.7056393    801.97309   0.01409344  0.012110136         1986 
 4743000    0.4875395   -7.7349393    800.22907  0.014059826  0.012106001         2006 
 4744000   0.49665708   -7.7163691    800.63314   0.01406396  0.012101867         1973 
 4745000   0.48498868   -7.7273853    799.79529  0.014046282  0.012097732         1941 
 4746000   0.49622364   -7.7195081    800.84581  0.014061768  0.012093604         1940 
 4747000   0.49824954   -7.7324471    801.58935  0.014071859   0.01208948         1931 
 4748000   0.49292174   -7.7274167    801.24365  0.014062827  0.012085353         2044 
 4749000   0.49361634     -7.71246    800.70108  0.014050345  0.012081228         1969 
 4750000   0.49501179   -7.7186711    800.94817  0.014051722  0.012077108         1903 
 4751000   0.50796336   -7.7192326    801.47275  0.014057966   0.01207299         1933 
 4752000   0.48821997   -7.7326417    799.94935  0.014028293  0.012068869         1974 
 4753000   0.48271079   -7.7092851    800.05258  0.014027151  0.012064757         1857 
 4754000   0.48544061   -7.7139688    801.11324  0.014042793  0.012060644         1942 
 4755000   0.49685799   -7.7162711    800.07731  0.014021684  0.012056528         2039 
 4756000   0.48892706   -7.7212108     800.3289  0.014023144   0.01205242         2010 
 4757000   0.50088787   -7.7229374    800.08876   0.01401599  0.012048315         1932 
 4758000   0.49151041   -7.7167697    799.87486  0.014009298   0.01204421         1906 
 4759000   0.50226844   -7.7313948    802.25137  0.014047968  0.012040101         1949 
 4760000   0.50697536   -7.7241847     802.0402   0.01404132     0.012036         1861 
 4761000   0.49167029   -7.7286091    801.18715   0.01402344  0.012031898         1957 
 4762000   0.48705569     -7.73617    799.39377  0.013989111  0.012027801         1939 
 4763000   0.49586375   -7.7327594    800.11607  0.013998811    0.0120237         1924 
 4764000   0.48889506   -7.7238578    801.35426  0.014017532  0.012019602         1894 
 4765000   0.48211102   -7.7326086    800.18404  0.013994124  0.012015505         1870 
 4766000   0.48879453   -7.7382652    800.11861  0.013990044  0.012011412         1969 
 4767000   0.49060424   -7.7213123    801.47908  0.014010892   0.01200732         1990 
 4768000   0.48087945   -7.7315407    802.31979  0.014022647  0.012003229         1929 
 4769000   0.48329711   -7.7197227    800.64541  0.013990449  0.011999141         1901 
 4770000   0.48466568   -7.7358371    800.65769  0.013987731  0.011995053         1971 
 4771000   0.49544842   -7.7165325    800.36888  0.013979754  0.011990971         1924 
 4772000   0.47891035   -7.7219968     800.5626  0.013980207  0.011986887         1998 
 4773000   0.49490585     -7.72608    800.35403  0.013973637   0.01198281         1950 
 4774000   0.48562892   -7.7362239    800.11913   0.01396661   0.01197873         1988 
 4775000   0.48422155   -7.7327407    800.88823  0.013977107  0.011974651         1925 
 4776000   0.49289759   -7.7367248    800.24114   0.01396289  0.011970576         1968 
 4777000   0.48369867    -7.727675    802.15461  0.013993347  0.011966499         1968 
 4778000   0.48584898   -7.7504509    800.54656  0.013962372  0.011962427         1912 
 4779000   0.48384787   -7.7457905    800.53238  0.013959203  0.011958354         1907 
 4780000   0.48843872    -7.732686    801.20829  0.013968066  0.011954282         1964 
 4781000   0.47627408    -7.746641    799.91013  0.013942518  0.011950215         1972 
 4782000   0.48453533   -7.7172214    800.30805  0.013946537  0.011946146         1909 
 4783000   0.49276066   -7.7340158    799.58024   0.01393094  0.011942084         1973 
 4784000   0.49303628   -7.7332157     799.7912  0.013931703  0.011938024         1930 
 4785000   0.48894662    -7.726702    800.76512  0.013945753  0.011933964         2002 
 4786000   0.49353617   -7.7280819     800.8425  0.013944186  0.011929905         1945 
 4787000   0.48681023    -7.734483    802.43351   0.01396897  0.011925846         1878 
 4788000   0.48144201   -7.7471468    799.80343  0.013920277  0.011921787         1934 
 4789000   0.49624652   -7.7360701    800.78348  0.013934424  0.011917733         1950 
 4790000   0.48118722   -7.7374626    801.01445  0.013935533  0.011913679         1908 
 4791000   0.49297616   -7.7519613    800.06069  0.013916035  0.011909627         1967 
 4792000   0.48516642   -7.7209265    800.01734  0.013912377  0.011905579         1918 
 4793000   0.47804175   -7.7316705    800.04642   0.01390998  0.011901532         1954 
 4794000   0.48273569   -7.7349361    800.84675  0.013920991  0.011897487         1971 
 4795000   0.47623239    -7.727372    799.83295  0.013900468  0.011893443         1934 
 4796000   0.48739065   -7.7313902    800.84494  0.013915154  0.011889401         1941 
 4797000   0.46981032   -7.7410276    799.74676  0.013893176  0.011885358         1907 
 4798000   0.47260226   -7.7376445    800.28034  0.013899547  0.011881319         1918 
 4799000   0.48208424   -7.7542896    798.42407  0.013864417   0.01187728         1985 
 4800000   0.48149037   -7.7480988    800.22018  0.013892711  0.011873242         1949 
 4801000   0.47938819   -7.7335541    800.79004  0.013899709  0.011869208         1972 
 4802000   0.47876451   -7.7172422    799.83613   0.01388026  0.011865177         1896 
 4803000   0.48917471   -7.7377273    801.73242  0.013910272  0.011861145         1963 
 4804000   0.48802207   -7.7219087    800.25974   0.01388183  0.011857115         1957 
 4805000   0.48208135    -7.746607     800.1111  0.013876363  0.011853088         1880 
 4806000   0.47747396   -7.7419375    799.90396  0.013869884  0.011849064         1951 
 4807000   0.48754231   -7.7417687    802.32361  0.013908945  0.011845043         1962 
 4808000   0.48054578   -7.7391749    801.23491  0.013887183   0.01184102         1962 
 4809000   0.48496074   -7.7537183    799.84589  0.013860225  0.011837001         1947 
 4810000   0.48280715   -7.7411225    800.54629  0.013869478  0.011832978         1901 
 4811000   0.47999048   -7.7266523    799.30288  0.013845058   0.01182896         1984 
 4812000   0.48240323   -7.7404398    799.60735  0.013847453  0.011824946         1911 
 4813000   0.48160122   -7.7409259    800.22732  0.013855311  0.011820932         1962 
 4814000   0.48445505    -7.722709    800.47471  0.013856715  0.011816917         1849 
 4815000    0.4768443   -7.7358729    799.72272  0.013840822  0.011812906         1906 
 4816000   0.49222069   -7.7542436    798.88268  0.013823413  0.011808898         1926 
 4817000   0.47995338   -7.7412264    800.05021  0.013840741  0.011804888         1934 
 4818000   0.47785873   -7.7501177    801.09209  0.013855889  0.011800882         1872 
 4819000   0.47832006   -7.7448921    798.76629  0.013812795  0.011796876         1940 
 4820000   0.49175707   -7.7423958    800.39077  0.013838015  0.011792874         1957 
 4821000   0.48760666   -7.7411742    800.41667  0.013835592  0.011788873         1873 
 4822000   0.47384977   -7.7400376     800.3368  0.013831342  0.011784875         1945 
 4823000   0.48264177   -7.7411289    800.06948  0.013823856  0.011780873         1960 
 4824000    0.4876817   -7.7617279    799.29944  0.013807688  0.011776871         1984 
 4825000     0.475285   -7.7343338    800.07745  0.013818263  0.011772878         1941 
 4826000   0.47875134   -7.7602457    800.95001  0.013830467  0.011768886         1958 
 4827000   0.47800691   -7.7493469    799.49553  0.013802492  0.011764892         1951 
 4828000   0.48499776       -7.734    800.90692  0.013823994  0.011760901         1963 
 4829000   0.48599721   -7.7475666    799.69863   0.01380028  0.011756917         1921 
 4830000   0.47915954   -7.7482511    799.40281  0.013792319  0.011752932         1929 
 4831000    0.4813728   -7.7371832    799.56953   0.01379234  0.011748947         1948 
 4832000   0.47186539   -7.7645258    800.93183   0.01381298  0.011744965         1881 
 4833000   0.48033491   -7.7385541    801.04367   0.01381205  0.011740983         1851 
 4834000   0.47233312   -7.7304099    800.03447  0.013791795  0.011737008         1898 
 4835000   0.47703584   -7.7509555    800.84871  0.013802977  0.011733031         1907 
 4836000   0.48211365   -7.7451802    800.59743  0.013795793   0.01172905         1960 
 4837000   0.47649368   -7.7428053    799.26878   0.01377005  0.011725077         1959 
 4838000   0.48858803   -7.7377295     801.4122  0.013804124  0.011721103         1922 
 4839000   0.47623602    -7.747155    798.75853  0.013755572  0.011717137         1923 
 4840000   0.47491426   -7.7403451    800.37231  0.013780515  0.011713169         1918 
 4841000   0.47383793    -7.746918    799.68899  0.013765906  0.011709199         1982 
 4842000   0.48162251   -7.7551269    798.55188  0.013743492  0.011705231         1939 
 4843000   0.47228595   -7.7514836    800.10642  0.013767403  0.011701268         1928 
 4844000   0.47610278   -7.7507292    801.05569  0.013780892    0.0116973         1989 
 4845000   0.47547228   -7.7468167    799.00163  0.013742718  0.011693338         1876 
 4846000   0.46704682   -7.7424943    799.73165  0.013752436  0.011689376         1942 
 4847000   0.48709227   -7.7494367    799.29773  0.013742138  0.011685418         1924 
 4848000   0.47218862   -7.7593196    801.55994  0.013778189  0.011681463         1960 
 4849000   0.47336302   -7.7384534     798.7582  0.013727198  0.011677506         1966 
 4850000    0.4710256   -7.7438351     800.2306  0.013749667  0.011673551         1874 
 4851000   0.48304118   -7.7359045    800.03306  0.013743439  0.011669597         1856 
 4852000   0.47634535   -7.7616368    799.63118  0.013733704  0.011665645         1948 
 4853000   0.47418486   -7.7444238    798.94107  0.013719024  0.011661697         1930 
 4854000    0.4642941   -7.7558185    800.10417  0.013736166  0.011657748         1934 
 4855000   0.48247334   -7.7732957    799.05246  0.013715284    0.0116538         1970 
 4856000   0.47432641    -7.775459    801.36048  0.013752067  0.011649853         1899 
 4857000   0.46938305    -7.756076    800.97261  0.013742581  0.011645912         1896 
 4858000   0.47526035   -7.7468162    799.44395   0.01371353  0.011641971         1959 
 4859000   0.48304477   -7.7462013    797.29041  0.013673774   0.01163803         1936 
 4860000    0.4786521   -7.7397658    800.19839  0.013720823  0.011634092         1854 
 4861000   0.47703856   -7.7473099    800.02128  0.013714964  0.011630156         1956 
 4862000   0.47364373   -7.7745735    800.62183  0.013722436   0.01162622         1980 
 4863000   0.47294355   -7.7490959     798.8233  0.013688795  0.011622284         1973 
 4864000   0.47657995   -7.7571604     800.2695  0.013710758  0.011618354         1946 
 4865000   0.47480674   -7.7585081    800.51398  0.013712127  0.011614426         1927 
 4866000   0.47511351   -7.7547335    800.57263  0.013710314  0.011610497         2044 
 4867000   0.47391381   -7.7577199    798.71106  0.013675623  0.011606573         1972 
 4868000   0.48200713   -7.7639481     800.0984  0.013696563  0.011602645         1994 
 4869000   0.47498675   -7.7646168    799.45489  0.013682736  0.011598723         1916 
 4870000   0.47323464   -7.7624955    799.62577   0.01368285  0.011594801         1947 
 4871000   0.47276465   -7.7489073    799.01321  0.013669562  0.011590884         1974 
 4872000    0.4756654   -7.7617963     798.2616    0.0136539  0.011586963         1959 
 4873000   0.47061636    -7.753397    800.14151  0.013683246  0.011583045         1913 
 4874000   0.46059892   -7.7466422     799.0416  0.013661633  0.011579126         1949 
 4875000   0.47273298   -7.7565158    800.98008  0.013691967  0.011575213         1885 
 4876000    0.4712938   -7.7647371    798.69096  0.013650037  0.011571302         1945 
 4877000   0.45996035    -7.758869    798.62745  0.013646153  0.011567393         1957 
 4878000   0.47411813   -7.7465421    798.89373  0.013647904  0.011563486         1935 
 4879000   0.47247521   -7.7468867     800.3469  0.013669927   0.01155958         1939 
 4880000   0.47524892   -7.7736549    799.30053  0.013649258  0.011555675         1958 
 4881000    0.4637341   -7.7609331    799.32351  0.013646854  0.011551772         1987 
 4882000   0.47247469   -7.7402693    800.35342  0.013661638  0.011547872         1910 
 4883000   0.46823236   -7.7584974    798.71877  0.013630944  0.011543973         1951 
 4884000   0.46976949   -7.7606234    798.57146  0.013625639  0.011540079         2003 
 4885000   0.47143106   -7.7584247    799.54383  0.013639438  0.011536186         1914 
 4886000   0.46211729   -7.7619383    798.36861  0.013616602  0.011532292         1947 
 4887000   0.46202112   -7.7787436    798.21377  0.013611175  0.011528395         1962 
 4888000   0.47205216   -7.7564482    799.34537  0.013627683  0.011524501         2023 
 4889000   0.46602534   -7.7543049    798.07992  0.013603326   0.01152061         1899 
 4890000   0.46221969   -7.7675879    798.20105  0.013602608  0.011516722         2066 
 4891000   0.47186881   -7.7773948    799.32909  0.013619047  0.011512835         1978 
 4892000   0.47465656   -7.7790023    798.87238  0.013608483   0.01150895         2015 
 4893000   0.46941924   -7.7757301    799.63178  0.013618635  0.011505064         1991 
 4894000    0.4702912   -7.7669364    798.15909  0.013590776   0.01150118         1888 
 4895000   0.47260344    -7.752515    799.33598  0.013608035  0.011497301         1934 
 4896000    0.4702075      -7.7586    799.55756  0.013609027  0.011493422         1946 
 4897000   0.46708317   -7.7650361    798.31023  0.013585022  0.011489543         1896 
 4898000   0.46212303   -7.7400685    798.30574  0.013582172  0.011485668         1965 
 4899000    0.4708876   -7.7649964    798.93914  0.013590174    0.0114818         1919 
 4900000   0.46130951   -7.7701434    799.96716  0.013604884  0.011477926         1916 
 4901000   0.47695703   -7.7649498    799.64143  0.013596569  0.011474052         1957 
 4902000   0.46565336   -7.7584578    799.43415  0.013590272  0.011470183         1943 
 4903000   0.46382986   -7.7698571    797.77774  0.013559347  0.011466315         1934 
 4904000   0.46505667   -7.7623533    799.77904   0.01359059  0.011462448         1972 
 4905000   0.45690877   -7.7735964    798.24446  0.013561748  0.011458583         2006 
 4906000   0.47929709   -7.7489269    797.94805  0.013553948  0.011454721         1899 
 4907000   0.46964628   -7.7490107    798.50967  0.013560724  0.011450859         2018 
 4908000    0.4625848   -7.7593953    798.01771  0.013549608  0.011446996         1973 
 4909000   0.46515939   -7.7619737     799.5463  0.013572797  0.011443136         1955 
 4910000   0.45800447   -7.7819455    797.46668  0.013534737  0.011439279         2023 
 4911000   0.46961332    -7.772429    799.28301  0.013562801   0.01143542         1915 
 4912000   0.47790722   -7.7643442    798.89329  0.013553429  0.011431566         2011 
 4913000   0.48245005   -7.7657864    798.90654  0.013550895  0.011427715         1957 
 4914000   0.47917569   -7.7587968    798.89508  0.013547943  0.011423869         1905 
 4915000   0.46444493   -7.7767684    800.45705  0.013571669  0.011420022         1940 
 4916000   0.47510847    -7.767988    797.78938  0.013523688  0.011416175         1950 
 4917000   0.46941662   -7.7683119    797.66212   0.01351878  0.011412328         1962 
 4918000   0.46337054   -7.7882878    798.66409   0.01353301  0.011408483         1994 
 4919000   0.46514132   -7.7620172    797.36146   0.01350819  0.011404638         2060 
 4920000   0.47135242   -7.7594185     799.4277  0.013540442  0.011400801         1991 
 4921000   0.47272196   -7.7771294    798.76504  0.013526469  0.011396966         2022 
 4922000   0.46472602   -7.7666328    799.41956  0.013534802  0.011393128         1889 
 4923000   0.45004871   -7.7535742    798.43069  0.013515314  0.011389293         1988 
 4924000   0.45658764   -7.7724579     799.0343  0.013522785  0.011385459         1982 
 4925000   0.46678516   -7.7734675    799.36279  0.013525597  0.011381626         1906 
 4926000   0.47339554   -7.7632041    800.39216  0.013540265  0.011377797         1982 
 4927000   0.46362631   -7.7706373    797.87678  0.013494973  0.011373971         1944 
 4928000   0.46168982   -7.7719305    796.95788  0.013476696  0.011370141         1939 
 4929000    0.4683877   -7.7775547    799.61532   0.01351889  0.011366315         1924 
 4930000   0.45799754   -7.7765303    798.21923   0.01349255   0.01136249         1954 
 4931000   0.46332312   -7.7482823    797.66446  0.013480438  0.011358665         1992 
 4932000   0.46670518   -7.7665257    799.49791  0.013508683  0.011354847         1964 
 4933000   0.46068833   -7.7520207    799.38181  0.013503984   0.01135103         1978 
 4934000   0.46313873   -7.7644599    798.13809  0.013480241  0.011347215         1967 
 4935000    0.4705057   -7.7898526    798.17908  0.013478201  0.011343396         1980 
 4936000   0.46280794   -7.7626415    798.83957  0.013486622  0.011339579         2045 
 4937000   0.47424497   -7.7747999    798.74495  0.013482293  0.011335765         1940 
 4938000   0.45399495   -7.7614058    798.18789  0.013470161  0.011331954         1935 
 4939000   0.46650723   -7.7768843    797.55133  0.013456694  0.011328146         1999 
 4940000   0.45375373   -7.7860051    798.86239  0.013476086  0.011324339         2064 
 4941000   0.46692744   -7.7866858    798.95138   0.01347486  0.011320531         1930 
 4942000   0.46169533   -7.7788972    798.19614  0.013459398  0.011316726         1980 
 4943000   0.47170943    -7.785095    798.38672  0.013459888  0.011312924         1940 
 4944000   0.46531047    -7.754974    798.86925  0.013465299  0.011309124         1978 
 4945000   0.45399099   -7.7740929    799.63406  0.013475464  0.011305327         2024 
 4946000   0.46027459   -7.7715307    797.53842  0.013437431  0.011301527         2053 
 4947000   0.46664488   -7.7596291    798.49484  0.013450826  0.011297731         2035 
 4948000   0.45570054   -7.7623724    799.29224  0.013461537   0.01129394         1975 
 4949000   0.45176528   -7.7779921    798.83467  0.013451112  0.011290144         1980 
 4950000   0.46715882   -7.7891653    796.80932  0.013414298  0.011286352         2026 
 4951000   0.45986033   -7.7891908     797.8442  0.013429008  0.011282559         2015 
 4952000   0.46475696   -7.7540691    798.87598  0.013443659  0.011278772         1997 
 4953000   0.46693322   -7.7836082      798.064  0.013427283  0.011274986         2007 
 4954000    0.4514625   -7.7838105    799.12481  0.013442417  0.011271198         2051 
 4955000   0.45279808   -7.7804893    797.82924  0.013417915  0.011267416         2050 
 4956000    0.4602589   -7.7761526    799.32737  0.013440398  0.011263631         2019 
 4957000   0.44886652   -7.7746186    799.11665  0.013434144  0.011259851         2021 
 4958000   0.46083349   -7.7715093     798.2551  0.013416954  0.011256068         1988 
 4959000   0.46327008   -7.7773885    798.68389  0.013421454  0.011252288         2040 
 4960000   0.46106437   -7.7683555    796.94462  0.013389527  0.011248509         2001 
 4961000   0.45717317    -7.765018    797.47711  0.013395772  0.011244737         2003 
 4962000   0.45568889   -7.7743656    797.58228  0.013394839  0.011240966         1986 
 4963000   0.45770208   -7.7737471      797.445  0.013389835  0.011237198         2060 
 4964000    0.4594451   -7.7763787    798.34362  0.013402223  0.011233428         2024 
 4965000   0.44759636   -7.7766706    797.84993  0.013391237   0.01122966         2100 
 4966000   0.45303936   -7.7690523    796.89949  0.013372592  0.011225892         1965 
 4967000   0.44998073   -7.7757807      798.856  0.013402725  0.011222128         1974 
 4968000    0.4555827   -7.7808968    798.11252  0.013387556  0.011218363         1977 
 4969000   0.46194734   -7.7687303    799.01753  0.013400039  0.011214603         1970 
 4970000   0.45664232   -7.7841907    798.51164  0.013388861  0.011210844         1957 
 4971000   0.45819967    -7.781464    798.34847  0.013383432  0.011207087         1985 
 4972000   0.46130023   -7.7828707    798.25176  0.013379119   0.01120333         2075 
 4973000    0.4547613   -7.7910541    798.70488  0.013384022  0.011199575         2032 
 4974000   0.45525728   -7.7787668    798.61695  0.013379858   0.01119582         1993 
 4975000   0.45918843   -7.7816088    797.95854   0.01336614  0.011192072         1942 
 4976000   0.45834024   -7.7717151     797.7488  0.013359941  0.011188323         1997 
 4977000   0.46388849   -7.7935654    797.22119  0.013348423   0.01118457         1969 
 4978000   0.45663462   -7.7777669     798.7444   0.01337124  0.011180824         2103 
 4979000   0.45371857   -7.7645032    797.45418   0.01334696  0.011177077         1991 
 4980000   0.44998661   -7.7818829     796.2649  0.013324379   0.01117333         2062 
 4981000   0.45570491   -7.7943499     797.9531  0.013349948  0.011169588         1907 
 4982000   0.45828536   -7.7871361    797.95463  0.013347294  0.011165849         1958 
 4983000   0.44620732   -7.7797386    797.39569  0.013335268   0.01116211         1951 
 4984000   0.44721945   -7.7783441    798.26141  0.013347067  0.011158374         1992 
 4985000   0.44644952   -7.7829246     797.6217  0.013333696  0.011154636         2048 
 4986000   0.44935167   -7.7954116    796.95732  0.013319918  0.011150901         2056 
 4987000   0.46394362   -7.7784235    798.08878  0.013336154  0.011147168         2026 
 4988000     0.460963    -7.785944    798.26474   0.01333642  0.011143438         1938 
 4989000    0.4559783   -7.7947617    797.68206  0.013324014  0.011139707         1966 
 4990000   0.44405853   -7.7974958    796.81157  0.013306807  0.011135977         2030 
 4991000   0.45300714   -7.7945283    797.06344  0.013308346  0.011132245         2040 
 4992000   0.45957661    -7.787581    797.67852  0.013315948  0.011128519         1930 
 4993000   0.45449377   -7.7825432    799.22738  0.013339131  0.011124795         2045 
 4994000   0.44884775   -7.7827005    797.58348  0.013309029  0.011121071         1970 
 4995000    0.4610931   -7.7825844    798.56531  0.013322745   0.01111735         1967 
 4996000   0.46495565   -7.7953853    799.57228  0.013336874  0.011113633         1976 
 4997000   0.45230614   -7.7927534    797.60398   0.01330138  0.011109912         2015 
 4998000   0.44053984   -7.7895299    798.50452  0.013313734  0.011106197         2064 
 4999000   0.45830835   -7.8021534     798.0317  0.013303189  0.011102482         2026 
 5000000   0.45001166   -7.7840334    798.49486  0.013308248  0.011098768         2025 
 5001000   0.45752739   -7.7773747    799.63767   0.01332463  0.011095056         1982 
 5002000   0.45925956   -7.7752376    796.05028    0.0132622  0.011091346         2014 
 5003000   0.44599802   -7.7972571    798.36731  0.013298143  0.011087638         2033 
 5004000   0.44054011   -7.7935328    797.03986  0.013273379  0.011083932         1986 
 5005000   0.44875569   -7.7777733    797.40038   0.01327673  0.011080229         2028 
 5006000   0.44590786   -7.7972619    797.72214  0.013279434  0.011076526         2053 
 5007000   0.44882698   -7.7905173    797.02355  0.013265155  0.011072825         2033 
 5008000   0.44752241   -7.7918504    797.59497  0.013272014  0.011069125         2025 
 5009000   0.44072827   -7.7925096    798.58579  0.013285849  0.011065429         1899 
 5010000   0.45345032   -7.7838111      797.029  0.013257302  0.011061734         1982 
 5011000     0.441972    -7.782712    798.70761  0.013282572   0.01105804         1966 
 5012000   0.44826424   -7.7826994    797.50977  0.013260005  0.011054347         1926 
Loop time of 13153.8 on 48 procs for 5000000 steps with 4000 atoms

Performance: 65684.369 tau/day, 380.118 timesteps/s
99.4% CPU use with 48 MPI tasks x no OpenMP threads

MPI task timing breakdown:
Section |  min time  |  avg time  |  max time  |%varavg| %total
---------------------------------------------------------------
Pair    | 970.01     | 1042.2     | 1108.2     | 112.3 |  7.92
Neigh   | 91.93      | 95.156     | 101.02     |  20.3 |  0.72
Comm    | 842.88     | 917.18     | 988.62     | 123.2 |  6.97
Output  | 17.023     | 17.03      | 17.134     |   0.4 |  0.13
Modify  | 10905      | 10954      | 11017      |  26.9 | 83.28
Other   |            | 127.9      |            |       |  0.97

Nlocal:        83.3333 ave          91 max          76 min
Histogram: 2 4 2 3 14 8 9 1 3 2
Nghost:        2424.54 ave        2445 max        2403 min
Histogram: 3 2 4 4 6 13 5 7 1 3
Neighs:        16897.8 ave       19262 max       14148 min
Histogram: 2 2 6 5 6 5 8 7 4 3
FullNghs:      33794.1 ave       37002 max       30727 min
Histogram: 2 4 3 4 12 10 6 3 2 2

Total # of neighbors = 1622116
Ave neighs/atom = 405.52900
Neighbor list builds = 267095
Dangerous builds = 1

#clear
#
#next RN
#
#jump SELF
Total wall time: 3:39:17
