
units lj                  # Use reduced LJ style units
atom_style atomic         # Uncharged point particles
atom_modify map hash      # Needed for indexing of clusters etc
                          # Used to be able to find where atoms are in relation to each other.

lattice fcc 1.0 spacing 1 1 1
Lattice spacing in x,y,z = 1.5874011 1.5874011 1.5874011
region box block 0 10 0 10 0 10 units lattice
create_box 2 box
Created orthogonal box = (0.0000000 0.0000000 0.0000000) to (15.874011 15.874011 15.874011)
  3 by 4 by 4 MPI processor grid
create_atoms 1 box
Created 4000 atoms
  using lattice units in orthogonal box = (0.0000000 0.0000000 0.0000000) to (15.874011 15.874011 15.874011)
  create_atoms CPU = 0.040 seconds
set type 1 type/fraction 2 0.94 78393
Setting atom values ...
  3760 settings made for type/fraction
mass 1 1.0
mass 2 1.0
pair_style lj/cut  3.5
pair_modify tail  yes
pair_coeff 1  1  1.0  1.0   # Intearaction between 1 and 1 set with epsilon = 1 and sigma = 1
pair_coeff 1  2  1.5  0.8
pair_coeff 2  2  0.5  0.88

write_data data.0
System init for write_data ...
Neighbor list info ...
  update every 1 steps, delay 10 steps, check yes
  max neighbors/atom: 2000, page size: 100000
  master list distance cutoff = 3.8
  ghost atom cutoff = 3.8
  binsize = 1.9, bins = 9 9 9
  1 neighbor lists, perpetual/occasional/extra = 1 0 0
  (1) pair lj/cut, perpetual
      attributes: half, newton on
      pair build: half/bin/atomonly/newton
      stencil: half/bin/3d
      bin: standard
WARNING: Not all mixed pair coeffs generated from mixing. Use write_data with 'pair ij' option to store all pair coeffs. (../write_data.cpp:312)


#############################
#   M E L T   S Y S T E M   #
#############################

velocity all create 2.4 1741580 mom yes dist gaussian # Assign velocities
                                                    # Temperature 2.4, random number seed, zero linear momentum
                                                                                # Gaussian distribution

timestep 0.002   # simulation timestep
thermo 1000       # output thermodynamic data every 1000 steps bf 100

# Define a fix  in this case with index 1 applied to all
# particles in the simulation. This fix is for simulations
# in the anisotropic NPT ensemble. Note that we use the MTK
# correction.
fix 1 all npt temp 2.4 2.4 0.1 iso 5.68 5.68 0.5 mtk yes tchain 5 pchain 5 # Use NPT ensemble
                                                                         # Set temperature and pressure and damping
                                                                         # Numbers of thermostats in chain and in barostat
run 10000          # run for 10000 steps
Per MPI rank memory allocation (min/avg/max) = 3.642 | 3.644 | 3.648 Mbytes
Step Temp E_pair E_mol TotEng Press Volume 
       0          2.4   -2.9877486            0    0.6113514   -2.2401145         4000 
    1000    2.4055528   -1.9131928            0    1.6942343      5.61124    4096.7747 
    2000    2.3937192   -1.8847103            0    1.7049709    5.7174013    4111.4219 
    3000    2.3815356   -1.8880899            0    1.6833203    5.7198915    4105.0343 
    4000    2.4074485   -1.9511597            0    1.6591103    5.6079862    4066.4655 
    5000    2.4264166   -1.9464202            0    1.6922948    5.6881987    4076.2607 
    6000    2.4185824   -1.8565372            0    1.7704295      5.72026    4133.7507 
    7000    2.4300906   -1.9069105            0    1.7373142    5.6615756    4107.8883 
    8000    2.4233338   -1.9007166            0    1.7333753    6.0489537     4047.997 
    9000     2.488034   -1.9321793            0    1.7989387    5.6915462    4075.0008 
   10000    2.4295781   -1.9047862            0    1.7386698    5.7360713    4095.2379 
Loop time of 2.38536 on 48 procs for 10000 steps with 4000 atoms

Performance: 724418.747 tau/day, 4192.238 timesteps/s
99.7% CPU use with 48 MPI tasks x no OpenMP threads

MPI task timing breakdown:
Section |  min time  |  avg time  |  max time  |%varavg| %total
---------------------------------------------------------------
Pair    | 1.0661     | 1.1124     | 1.1755     |   2.9 | 46.64
Neigh   | 0.20409    | 0.21114    | 0.21923    |   0.9 |  8.85
Comm    | 0.74741    | 0.8133     | 0.87746    |   3.7 | 34.10
Output  | 0.00023716 | 0.00024173 | 0.00029998 |   0.0 |  0.01
Modify  | 0.20708    | 0.2335     | 0.26569    |   2.8 |  9.79
Other   |            | 0.01475    |            |       |  0.62

Nlocal:        83.3333 ave          93 max          72 min
Histogram: 1 2 4 6 6 9 8 7 4 1
Nghost:        1613.31 ave        1644 max        1595 min
Histogram: 6 8 11 3 5 5 4 2 3 1
Neighs:        9305.29 ave       10232 max        7765 min
Histogram: 2 1 2 1 8 8 8 3 6 9

Total # of neighbors = 446654
Ave neighs/atom = 111.66350
Neighbor list builds = 907
Dangerous builds = 213

# Equilibrate just above the melting temperature to avoid step fn in T

fix 1 all npt temp 1.25 1.25 0.1 iso 5.68 5.68 0.5 mtk yes tchain 5 pchain 5
run 2000
Per MPI rank memory allocation (min/avg/max) = 3.643 | 3.645 | 3.649 Mbytes
Step Temp E_pair E_mol TotEng Press Volume 
   10000    2.4295781   -1.9047862            0    1.7386698    5.7360713    4095.2379 
   11000    1.2410852   -2.8512484            0  -0.99008599    5.7425826    3201.3379 
   12000     1.249742   -2.8668614            0  -0.99271715    5.8183221    3183.2628 
Loop time of 0.57724 on 48 procs for 2000 steps with 4000 atoms

Performance: 598710.633 tau/day, 3464.761 timesteps/s
99.7% CPU use with 48 MPI tasks x no OpenMP threads

MPI task timing breakdown:
Section |  min time  |  avg time  |  max time  |%varavg| %total
---------------------------------------------------------------
Pair    | 0.25835    | 0.27988    | 0.29914    |   1.8 | 48.49
Neigh   | 0.038796   | 0.040774   | 0.044523   |   0.5 |  7.06
Comm    | 0.18915    | 0.20921    | 0.23172    |   2.2 | 36.24
Output  | 4.927e-05  | 5.0787e-05 | 6.3849e-05 |   0.0 |  0.01
Modify  | 0.03724    | 0.042788   | 0.047889   |   1.5 |  7.41
Other   |            | 0.004536   |            |       |  0.79

Nlocal:        83.3333 ave          92 max          75 min
Histogram: 1 2 10 4 12 3 4 7 4 1
Nghost:        1920.73 ave        1941 max        1897 min
Histogram: 2 2 1 4 14 5 7 7 2 4
Neighs:        11994.2 ave       13592 max       10310 min
Histogram: 2 0 6 8 10 4 6 7 3 2

Total # of neighbors = 575723
Ave neighs/atom = 143.93075
Neighbor list builds = 144
Dangerous builds = 13

#############################
# L I N E A R  Q U E N C H  #
#############################

# Define solid atoms. This closely follows ten Wolde  Ruiz-Montero and Frenkel  Faraday Discuss  1996  104  93-110
# Compute components of the per-atom q6 vector
compute q6 all orientorder/atom degrees 1 6 components 6 nnn NULL cutoff 1.3 # compute the Q6 parameter.
                                                                             # Use all neighbours within 1.3 unit cell.

# get number of connections
compute coord_number all coord/atom orientorder q6 0.5

# An atom is solid if it has 8 or more connections (of a possible 14)
variable is_solid atom c_coord_number>=8
group solid dynamic all var is_solid    # Must be dynamic to update
dynamic group solid defined

# do clustering
compute cluster solid cluster/atom 1.3 # Create a cluster where all atoms within are solid and max 1.3 units from another member

# define chunks one chunk per cluster
compute clus_chunks solid chunk/atom c_cluster nchunk every compress yes  # Says which atoms are in which chunk

# count the size of each chunk
compute size_chunks solid property/chunk clus_chunks count


# Find the maximum entry in the vector of chunk sizes
variable max_n equal max(c_size_chunks)


# Thermo style which includes this variable
# thermo_style custom step temp pe vol v_max_n

thermo ${N}  # Print the thermo information every 100 steps
thermo 1000  

# Reset the npt fix at a lower temperature (below freezing)
fix 1  all npt temp  ${temp} ${temp}  0.1  iso  5.68  5.68  0.5  mtk yes tchain  5  pchain  5
fix 1  all npt temp  0.45 ${temp}  0.1  iso  5.68  5.68  0.5  mtk yes tchain  5  pchain  5
fix 1  all npt temp  0.45 0.45  0.1  iso  5.68  5.68  0.5  mtk yes tchain  5  pchain  5

dump dmp2 all dcd ${N} traj.dcd
dump dmp2 all dcd 1000 traj.dcd


compute msd all msd com yes
variable twopoint equal c_msd[4]/6/(step*dt+1.0e-6)
fix 9 all vector 10 c_msd[4]
variable fit equal slope(f_9)/6/(10*dt)
thermo_style custom step temp pe c_msd[4] v_twopoint v_fit v_max_n

fix 1 all npt temp 1.25 ${temp} 0.1 iso 5.68 5.68 0.5 mtk yes tchain 5 pchain 5
fix 1 all npt temp 1.25 0.45 0.1 iso 5.68 5.68 0.5 mtk yes tchain 5 pchain 5
run 500000 # 5000000  # Run for this many steps
Neighbor list info ...
  update every 1 steps, delay 10 steps, check yes
  max neighbors/atom: 2000, page size: 100000
  master list distance cutoff = 3.8
  ghost atom cutoff = 3.8
  binsize = 1.9, bins = 8 8 8
  4 neighbor lists, perpetual/occasional/extra = 1 3 0
  (1) pair lj/cut, perpetual
      attributes: half, newton on
      pair build: half/bin/atomonly/newton
      stencil: half/bin/3d
      bin: standard
  (2) compute orientorder/atom, occasional
      attributes: full, newton on
      pair build: full/bin/atomonly
      stencil: full/bin/3d
      bin: standard
  (3) compute coord/atom, occasional
      attributes: full, newton on
      pair build: full/bin/atomonly
      stencil: full/bin/3d
      bin: standard
  (4) compute cluster/atom, occasional
      attributes: full, newton on
      pair build: full/bin/atomonly
      stencil: full/bin/3d
      bin: standard
Per MPI rank memory allocation (min/avg/max) = 9.818 | 9.825 | 9.831 Mbytes
Step Temp PotEng c_msd[4] v_twopoint v_fit v_max_n 
   12000     1.249742   -2.8668614 9.0180607e-30 6.2625419e-32 8.3333333e+20            1 
   13000    1.2375891   -2.8619753    1.0956945 0.0070236827  0.093519487            2 
   14000    1.2309323   -2.8798466    2.3219921  0.013821381  0.097956521            1 
   15000    1.2299597   -2.8731621    3.5078656  0.019488142   0.09890077            2 
   16000    1.2322943   -2.8743156     4.654643  0.024242932  0.098349924            1 
   17000    1.2323993   -2.9032745    5.8786102  0.028816716   0.09870025            1 
   18000    1.2402019   -2.8578469    7.1196115  0.032961163  0.099356732            2 
   19000    1.2481093   -2.8680561     8.246947  0.036170819  0.099821471            1 
   20000    1.2430575   -2.8475028     9.486102  0.039525424  0.099487581            1 
   21000     1.213507   -2.8987273     10.57313  0.041956863  0.099187147            2 
   22000     1.221415   -2.8854448    11.631693  0.044059441  0.098647857            1 
   23000     1.244645   -2.8805015    12.958955  0.046952735   0.09835781            1 
   24000    1.2232113   -2.8787113    14.215709  0.049360101  0.098263486            2 
   25000    1.2559605    -2.896342    15.371259  0.051237529  0.098546399            1 
   26000    1.1921177   -2.9249481    16.672111  0.053436252  0.098920962            7 
   27000    1.2176381   -2.8809097     17.83698  0.055052407  0.099188194            2 
   28000     1.224207   -2.8970958    19.035303  0.056652688  0.099250466            1 
   29000    1.2108974   -2.8903867    20.077401  0.057693681  0.099128503            1 
   30000    1.2434133   -2.8743445    21.175792  0.058821643  0.098903758            1 
   31000    1.2005663   -2.8749313    22.421472  0.060272774  0.098759731            1 
   32000    1.2011949   -2.8957412    23.832684  0.062064281  0.098769056            3 
   33000     1.217365   -2.9040814    25.134986  0.063472185  0.099023884            1 
   34000    1.1969793   -2.8807814    26.364969   0.06462002  0.099304419            1 
   35000      1.19973   -2.9135165    27.423785  0.065294724  0.099421679            1 
   36000    1.2148885   -2.8748741    28.613339   0.06623458  0.099504736            1 
   37000     1.208192   -2.9238763    29.624714  0.066722327  0.099530829            1 
   38000    1.1759772    -2.915373    30.511526   0.06691124    0.0993746            1 
   39000     1.212664   -2.9317197    31.687861  0.067709104  0.099126688            1 
   40000     1.214607   -2.9135072    32.957033  0.068660485  0.098900364            3 
   41000    1.1994423   -2.9282056    34.282616  0.069680114  0.098765089            1 
   42000    1.2020843   -2.9289452    35.695052  0.070823514  0.098805342            2 
   43000     1.188594   -2.9319603    36.570825  0.070873691  0.098763481       -1e+20 
   44000    1.2074033   -2.9129269    37.929813  0.071836765  0.098743324            1 
   45000    1.1837885   -2.9206467    38.753092  0.071764984  0.098683557            4 
   46000    1.1771435   -2.9383036     39.62598  0.071786195  0.098432845            3 
   47000      1.18944   -2.9256927     40.65653  0.072086045  0.098178425            1 
   48000    1.1910362   -2.9458017    41.664781  0.072334688  0.097974579            1 
   49000    1.2045957   -2.8916005    43.186641  0.073446668  0.097843003            1 
   50000    1.1916707   -2.9168879    44.577685  0.074296141  0.097716296            1 
   51000    1.2172012   -2.9578122    45.384234  0.074157245  0.097630747            1 
   52000    1.1717709   -2.9417718    46.650201  0.074759937  0.097551973            1 
   53000    1.1924439   -2.9370995    47.765665  0.075103246  0.097450876            2 
   54000    1.1809546   -2.9620697    48.713177  0.075174655  0.097316793            2 
   55000    1.1826164   -2.9636699    49.729885   0.07534831  0.097171008            4 
   56000    1.1667804   -2.9495479    50.722518  0.075479938  0.097021531            1 
   57000    1.2110509   -2.9355324    51.684854  0.075562652  0.096820789            4 
   58000    1.1646352   -2.9504968    52.826708  0.075900441  0.096630056            2 
   59000    1.1850842   -2.9290312     53.96368  0.076219886  0.096436147            2 
   60000    1.1917227   -2.9847782    54.989416  0.076374188  0.096255599            2 
   61000    1.1738734    -2.962211    55.944206   0.07642651  0.096084054            1 
   62000    1.1557407    -2.988222    57.118454  0.076772115  0.095893542            1 
   63000    1.1541104    -2.949531    58.372025  0.077211672  0.095738442            1 
   64000    1.1522668    -2.966732    58.889914  0.076679575  0.095555218            3 
   65000    1.1777654   -2.9643484    59.975097  0.076891149  0.095345856            1 
   66000    1.1581798   -2.9328692    61.425234  0.077557113  0.095157672            1 
   67000    1.1593215   -3.0006502    62.203237   0.07736721  0.094994417            3 
   68000    1.1416875   -2.9751421    62.969084  0.077167994  0.094810004            1 
   69000    1.1434981   -2.9887175    64.192236  0.077526855  0.094630086            3 
   70000    1.1601144   -2.9595897     65.10091  0.077501083  0.094451704            1 
   71000    1.1603158   -3.0130763    66.569885  0.078133668  0.094290019            2 
   72000    1.1573008   -3.0056201    67.510543  0.078137202  0.094147998            2 
   73000    1.1525639   -2.9583128    68.632559  0.078347669  0.094024361            2 
   74000    1.1623678   -2.9995367    69.787724  0.078589778  0.093910735            3 
   75000     1.166739   -2.9941806    70.768855  0.078632061  0.093776733            1 
   76000    1.1422238   -2.9801198    71.432946  0.078325598  0.093637005            1 
   77000    1.1816272   -3.0117151    72.556105  0.078523923  0.093488611            1 
   78000    1.1261283   -2.9779371    73.453748  0.078476226  0.093331857            2 
   79000    1.1174533   -2.9664333    74.410626  0.078492221  0.093166432            2 
   80000    1.1274682   -2.9805541    75.397723  0.078539294  0.093008639            4 
   81000    1.1411094   -3.0151277    76.168726  0.078362886  0.092848534            2 
   82000    1.1310071   -3.0247804    77.283293  0.078539931  0.092681984            4 
   83000     1.150664   -3.0174586    77.950878  0.078263933  0.092511323            1 
   84000    1.1269763    -3.006063     79.54469  0.078913382   0.09233748            2 
   85000    1.1272378   -3.0171565    80.044136  0.078474642  0.092159978            1 
   86000     1.111273   -3.0149804    81.464095  0.078938076  0.091994388            2 
   87000     1.108582   -2.9904251    82.463533  0.078988058  0.091845027            1 
   88000    1.1212621   -3.0210081    83.496587  0.079068738  0.091699991            2 
   89000    1.1265536   -3.0155163      84.1026  0.078747752  0.091555265            2 
   90000    1.1183407   -2.9970054    85.318448  0.078998562   0.09139732            1 
   91000    1.1217241   -3.0160929    86.140936   0.07888364  0.091251182            2 
   92000    1.1194077   -3.0179541    86.850138  0.078668603   0.09108185            2 
   93000    1.1228056   -3.0546903    87.919582  0.078780987  0.090911319            2 
   94000    1.1131407   -3.0271176     89.37167  0.079230204  0.090731334            4 
   95000     1.092004   -3.0260529    89.896246  0.078856356  0.090567035            1 
   96000    1.1060647   -3.0677647    90.357882  0.078435661  0.090389318            1 
   97000    1.1139212   -3.0348281    91.533001  0.078636598  0.090225249            2 
   98000    1.1026951   -3.0403541    92.400026   0.07857145   0.09006522            2 
   99000    1.1258372   -3.0114553    93.455549  0.078666286  0.089902553            3 
  100000    1.0951748   -3.0457637    94.151212  0.078459343  0.089742479            4 
  101000    1.1216843   -3.0555774    95.055646  0.078428751   0.08958075            1 
  102000    1.0905817   -3.0221328    96.402625  0.078760315  0.089421162            2 
  103000    1.0888403   -3.0421125    96.912233  0.078407955  0.089261876            2 
  104000    1.1033252   -3.0416432    98.035606  0.078554171  0.089095353            2 
  105000    1.0648696    -3.025892     99.28767  0.078799738  0.088926848            1 
  106000    1.0990846   -3.0429832    100.25699  0.078818385  0.088768636            2 
  107000    1.1079383    -3.037732    100.84221  0.078537547  0.088628886            2 
  108000    1.0843844   -3.0536421    102.40502  0.079016222  0.088498461            1 
  109000    1.0835387   -3.1170006    102.90998  0.078677354   0.08838899            2 
  110000    1.1000054   -3.0535409    104.14802  0.078900011  0.088270503            2 
  111000    1.0822004   -3.0592121    104.92701  0.078774035  0.088154346            2 
  112000    1.0823543   -3.0503169    106.39244  0.079161038  0.088036242            3 
  113000    1.0871078   -3.0752379    106.95242  0.078873464   0.08791379            3 
  114000    1.0942417   -3.0510227    108.14998     0.079057  0.087791847            1 
  115000    1.1095442   -3.0504244    109.07548  0.079040206   0.08767022            1 
  116000    1.0852081   -3.0797466    109.52778  0.078683752  0.087554177            5 
  117000    1.0684906    -3.048363    110.56982  0.078753432  0.087440404            4 
  118000    1.0765007   -3.0737929    111.37049  0.078651476  0.087316057            1 
  119000    1.0708087   -3.0839955    112.19958  0.078571136  0.087194185            2 
  120000    1.0846071   -3.0867419    113.19745  0.078609339  0.087069402            1 
  121000    1.0736224   -3.0823788    113.89131  0.078437538   0.08693885            3 
  122000    1.0781112   -3.0706661    114.55437  0.078247523  0.086801586            2 
  123000    1.0747193   -3.0649257    115.45426  0.078221041  0.086665601            7 
  124000    1.0869715   -3.0726062    116.13119  0.078045156  0.086527301            3 
  125000    1.0950485   -3.0849283    117.51519  0.078343458  0.086388532            1 
  126000    1.0677049   -3.0839778    117.92289  0.077991332  0.086249316            1 
  127000     1.059156   -3.0441024    119.19612  0.078212674  0.086107677            1 
  128000    1.0506281   -3.0928331    119.98403  0.078114602  0.085969318            1 
  129000    1.0538652    -3.073192    119.71152  0.077333025  0.085823344            5 
  130000    1.0720882    -3.100164    121.04594  0.077593552  0.085677554            4 
  131000    1.0612278   -3.1082696    122.03101  0.077627868  0.085544714            2 
  132000    1.0782118   -3.0802891    123.27228  0.077823407  0.085410733            3 
  133000    1.0632767   -3.0878457    123.81597  0.077578931  0.085272879            2 
  134000    1.0447901   -3.0917159    124.32061   0.07731381  0.085133562            2 
  135000    1.0601437     -3.10459    125.41035  0.077413797  0.084990158            2 
  136000    1.0605787   -3.1238152    125.93237  0.077164441  0.084847617            8 
  137000    1.0462307   -3.0978794    126.69666  0.077066095  0.084706156            6 
  138000    1.0437644   -3.0664842    127.99636   0.07729249  0.084567765            2 
  139000    1.0509649   -3.1133366    128.36286  0.076956153  0.084433132            3 
  140000    1.0462703   -3.1081722     129.6944  0.077199047    0.0842977            2 
  141000    1.0354232   -3.1109419     130.6621  0.077223466  0.084166944            2 
  142000    1.0463959   -3.1530116    130.83963  0.076783822  0.084031347            3 
  143000    1.0484043   -3.1260466    132.30446  0.077100502  0.083902013            2 
  144000    1.0434501   -3.1421149    132.76405  0.076831047  0.083773231            3 
  145000    1.0171534   -3.1130921    133.48294  0.076714333  0.083640565            4 
  146000    1.0313826   -3.1405501    134.41831  0.076722781  0.083510646            4 
  147000    1.0281974   -3.1242818    136.11068  0.077160247  0.083387556            3 
  148000    1.0291255    -3.135104    136.93555  0.077103352  0.083274172            2 
  149000    1.0328609   -3.1369283    137.42848  0.076861566  0.083162852            3 
  150000    1.0220999   -3.1341441    138.84332  0.077135178  0.083050063            1 
  151000    1.0241276   -3.1438052    138.91076  0.076661565  0.082934652            3 
  152000    1.0361606    -3.119427    139.61809  0.076545006  0.082824597            2 
  153000    1.0222704   -3.1593288    140.31913  0.076426543   0.08270922            2 
  154000    1.0344226   -3.1168875    141.38387  0.076506425  0.082593043            2 
  155000    1.0095786   -3.1409404    141.73372  0.076200926  0.082474471            3 
  156000   0.98900832   -3.1435788    142.48177  0.076112059  0.082352024            3 
  157000    1.0332949   -3.1525839    143.24737  0.076033635  0.082230332            2 
  158000     1.025651   -3.1638002    144.15949  0.076033487  0.082100789            1 
  159000    1.0229835   -3.1520201    144.70774  0.075842632  0.081975626            2 
  160000    1.0333978   -3.1501758    145.78324   0.07592877  0.081841961            3 
  161000    1.0160986   -3.1907067    146.12949   0.07563638  0.081708193            3 
  162000    1.0189268   -3.1770987    146.29719  0.075255756  0.081568315            3 
  163000    1.0025414   -3.1643685    147.20727   0.07525934  0.081426283            2 
  164000    1.0009067   -3.1498221    148.42244  0.075417906  0.081286315            2 
  165000   0.99698774   -3.1645288    148.65307  0.075077309  0.081142837            3 
  166000   0.98499162    -3.131235    149.96511  0.075283688  0.081003853            1 
  167000    1.0283196   -3.1636706    149.83739  0.074769156  0.080861467            1 
  168000    1.0055711   -3.1611339    151.72124  0.075258553  0.080720568            2 
  169000    1.0051012   -3.1792158    151.80251  0.074853307  0.080587775            2 
  170000    1.0108164   -3.1761682    151.93814  0.074479478  0.080450215            2 
  171000   0.99329121   -3.1919755    153.20887  0.074663193  0.080305345            3 
  172000    1.0083579   -3.1881521    153.91312  0.074570309  0.080166019            6 
  173000    1.0179377   -3.1910646    153.59843  0.073987683  0.080020579            3 
  174000    1.0006818   -3.1468664    155.34075   0.07439691  0.079876309            2 
  175000   0.97379002   -3.2199061    154.90127   0.07376251  0.079728414            1 
  176000   0.96562036   -3.2052216    156.28817  0.074000079  0.079581964            3 
  177000   0.99819555   -3.1967749    156.12702  0.073506131  0.079433773            2 
  178000   0.98508123   -3.2016605    156.92434   0.07346645  0.079279956            3 
  179000   0.99022726   -3.2210715    157.77078  0.073450082  0.079130783            7 
  180000    0.9506368   -3.2052346    159.03152  0.073625702  0.078985483            3 
  181000   0.97987149   -3.2134461    159.57189  0.073467719  0.078848438            3 
  182000   0.98523475   -3.2189444    159.73187  0.073137302  0.078708284            1 
  183000   0.97608506   -3.2129547    161.18024  0.073397194   0.07857072            3 
  184000    0.9761612    -3.221719    161.95407  0.073348762  0.078434512            4 
  185000   0.97154764   -3.2043987    162.72606  0.073300029  0.078299987            3 
  186000   0.96455685   -3.2307488    163.51061   0.07325744  0.078166891            5 
  187000   0.96459991    -3.207842    164.54995  0.073328853   0.07803037            2 
  188000   0.96579515   -3.2270079    164.89297  0.073090857  0.077892723            4 
  189000   0.97540451   -3.2266529    164.92055  0.072716291  0.077756705            2 
  190000   0.96958788   -3.2502863    166.21376   0.07290077  0.077619001            3 
  191000   0.97484866   -3.2304573    166.47115  0.072631392  0.077479534            3 
  192000     0.976912   -3.1935363    167.84293  0.072848494  0.077346597            1 
  193000   0.92736978   -3.2376061    167.21979  0.072201983  0.077212704            2 
  194000    0.9506607   -3.2215322    168.65484  0.072446235  0.077077218            5 
  195000    0.9658538   -3.2372878    169.58461  0.072472054  0.076944073            2 
  196000    0.9615742    -3.243759    169.46322  0.072050688  0.076806479            4 
  197000   0.95457617    -3.250388    169.98246  0.071904594  0.076671348            2 
  198000   0.93435015   -3.2318164    170.68308  0.071836314  0.076531861            2 
  199000   0.96505351   -3.2350059    171.28829  0.071728766   0.07639128            4 
  200000   0.94509336   -3.2455709    171.97807  0.071657528  0.076250586            4 
  201000   0.95567554   -3.2601945    172.27955  0.071426017  0.076111726            1 
  202000   0.94005102   -3.2545871       172.68  0.071237622  0.075969722            5 
  203000   0.94359741   -3.2676436    172.73766  0.070910371  0.075824067            3 
  204000   0.94029074   -3.2734566    174.17458  0.071149748  0.075682519            3 
  205000   0.94176007   -3.2802562    174.38133  0.070886718  0.075544257            2 
  206000   0.92721468    -3.269408     174.9133  0.070757807   0.07540889            5 
  207000    0.9518178   -3.2552174    175.58421  0.070686073  0.075267647            3 
  208000   0.94173879   -3.2487548    176.05037  0.070533002   0.07512737            2 
  209000    0.9188234   -3.2493397    177.21134  0.070658431  0.074986138            1 
  210000   0.94000996   -3.2265528      178.537  0.070848014  0.074851788            2 
  211000   0.92163478   -3.2594802    178.81258  0.070621082  0.074721777            1 
  212000   0.93479456   -3.2641368    179.73093  0.070648949  0.074592185            3 
  213000   0.90872061   -3.3162119    179.61805  0.070273103  0.074457989            1 
  214000    0.9442494   -3.2918243    180.08595  0.070126928  0.074321873            4 
  215000   0.92577018   -3.2818127    181.28643  0.070266057  0.074185667            2 
  216000   0.91017669   -3.2829946     181.6801   0.07009263  0.074052421            2 
  217000   0.92568969   -3.2748981    182.88019  0.070230488  0.073922797            4 
  218000   0.90689962   -3.2995157     183.2722  0.070058179  0.073793297            3 
  219000    0.9194494   -3.3065988    183.57339  0.069852889  0.073664068            3 
  220000   0.89958512   -3.2593043    184.55041  0.069905456   0.07353448            4 
  221000   0.91904612   -3.2819588    184.39517  0.069530607  0.073402953            1 
  222000   0.90383493   -3.2926536    184.14803  0.069124637  0.073270896            7 
  223000   0.91292438   -3.2949901    186.15902  0.069566152  0.073138293            2 
  224000   0.92875976     -3.29765      186.268  0.069296133  0.073007879            2 
  225000   0.90460042   -3.2974956    186.42433  0.069046046  0.072875362            4 
  226000   0.91469096   -3.2971935    186.60996  0.068808983  0.072739039            2 
  227000   0.90371454   -3.3228263    187.40853  0.068799021  0.072602009            2 
  228000    0.9111217   -3.2899226    187.56556  0.068554663  0.072466652            2 
  229000   0.89582703      -3.3082    188.30565  0.068524617  0.072331726            4 
  230000   0.88764111   -3.3241108    188.97502   0.06846921  0.072196538            4 
  231000   0.87467004   -3.3041733    189.97828  0.068534734  0.072063919            2 
  232000   0.87022129   -3.3058075    191.09822  0.068641601    0.0719322            2 
  233000   0.90827901   -3.2805592    191.21714  0.068389534  0.071805705            8 
  234000   0.91527222   -3.3382476    191.41964  0.068169389  0.071679482            5 
  235000   0.90614175   -3.3318182    191.34751  0.067853726  0.071550899            4 
  236000   0.89142567   -3.3407474    193.09044  0.068181652  0.071421644            2 
  237000   0.88380096    -3.320065    192.95274   0.06784555  0.071295289            4 
  238000   0.86918551   -3.3474283    192.86146  0.067528521  0.071163351            7 
  239000   0.90515722   -3.3424858    192.83572  0.067237002  0.071031249            3 
  240000   0.87534849   -3.3237333    194.40012  0.067500041  0.070899494            4 
  241000   0.85935991   -3.3345415    194.98981  0.067423863  0.070767526            5 
  242000   0.85999981   -3.3001593    195.28166   0.06724575  0.070637712            4 
  243000   0.87846335   -3.3362903     196.8293  0.067499759  0.070511193            4 
  244000   0.86848041   -3.3538514    196.94809  0.067263691  0.070385329            2 
  245000   0.89523771   -3.3515014    196.92498  0.066981285  0.070258152            3 
  246000   0.86156376   -3.3319352    197.79265   0.06700293  0.070132888            3 
  247000   0.87113938   -3.3551551    198.62825  0.067013578  0.070008044            3 
  248000   0.86767443    -3.361862    198.21453  0.066604344  0.069881417            3 
  249000   0.86095723   -3.3459518    199.39284  0.066731206  0.069752196            4 
  250000   0.87039666      -3.3446    200.20593  0.066735309  0.069627826            3 
  251000   0.87263091   -3.3904787    199.46809  0.066224464  0.069501501            4 
  252000   0.86439717   -3.3747904    200.69482  0.066367334  0.069374947            4 
  253000   0.86469387   -3.3613675    200.63265  0.066084536  0.069246999            4 
  254000   0.88102144   -3.3707291     201.9956  0.066271522  0.069121241            5 
  255000    0.8724628   -3.3795338    201.81584  0.065952889   0.06899318            6 
  256000   0.86020908   -3.3579589    202.15608  0.065806014  0.068863657            3 
  257000   0.85762568   -3.3808199    203.49001  0.065982493  0.068735621            7 
  258000   0.83939722   -3.3830264    203.54876  0.065745725  0.068611988            2 
  259000   0.84435138   -3.3740075    203.85753  0.065591226  0.068489192            5 
  260000   0.87268844    -3.372585    204.29716  0.065479858  0.068360721            2 
  261000    0.8409581   -3.4037823    204.08435  0.065161031  0.068235367            5 
  262000   0.84377439   -3.3799482    205.27327  0.065290479  0.068107097            7 
  263000   0.85192833   -3.4108891    203.99641  0.064637645   0.06797869            8 
  264000   0.85492921   -3.3797982     206.1247  0.065064615  0.067845386            8 
  265000   0.82707582   -3.3953634    206.39829  0.064905122  0.067714654            3 
  266000   0.83383371   -3.4024496    205.80988  0.064476779  0.067582222            5 
  267000   0.82251236   -3.4038336    206.74173  0.064526132  0.067450688            3 
  268000   0.83834861   -3.4127733    207.32541  0.064466856  0.067320384            5 
  269000   0.83573636   -3.4183117    207.87674  0.064397997  0.067188899            3 
  270000   0.84175123   -3.4291604     208.0685  0.064218672  0.067061076            3 
  271000   0.84568707   -3.3954941    209.01222  0.064271901   0.06693172            8 
  272000   0.84567272   -3.3977298    209.02535  0.064039628  0.066803405            1 
  273000   0.83168337   -3.4395177    209.43092  0.063928852   0.06667558            3 
  274000   0.82284323   -3.4221478    209.01045  0.063567654   0.06654559            3 
  275000   0.84165334   -3.4307183    209.65905  0.063533045  0.066412645            4 
  276000   0.83022549   -3.4154629    209.16908  0.063154916   0.06628008            5 
  277000   0.82042054   -3.4422179    210.40815  0.063299684  0.066147437            1 
  278000   0.81264174   -3.4184853    211.74382  0.063472367  0.066015373            5 
  279000    0.8251714   -3.4393859    211.36754   0.06313248   0.06588322            6 
  280000   0.83348219   -3.4525509    211.49493  0.062944921  0.065750257            4 
  281000   0.81565558   -3.4300488     211.5769  0.062745225   0.06561795            4 
  282000   0.81413209   -3.4263847    212.73241  0.062864187  0.065484287            5 
  283000   0.81423875   -3.4338994    212.64885  0.062617448  0.065353286            2 
  284000   0.81019447   -3.4257101    213.65909  0.062693396  0.065219157            6 
  285000   0.81946808   -3.4203959    214.30247  0.062661541  0.065088609            4 
  286000   0.81391914   -3.4454957    214.10453  0.062384769  0.064956916            4 
  287000   0.81051304   -3.4489765    214.80039  0.062369452  0.064828076            2 
  288000   0.81087276   -3.4625532    214.17418  0.061971697  0.064697446            6 
  289000   0.79050385   -3.4585413    214.39209  0.061820096  0.064565711            3 
  290000   0.79763536   -3.4688651    216.00781  0.062071211  0.064436148            4 
  291000   0.80589645   -3.4743666    215.77113   0.06179013  0.064304533            4 
  292000    0.7972261   -3.4879311     215.6139  0.061533648  0.064171956            5 
  293000   0.81285516   -3.4817734    215.59456  0.061318133  0.064038331            8 
  294000   0.79894398   -3.4626498    217.32024  0.061598708  0.063905937            2 
  295000   0.80079976   -3.4440421    216.75987  0.061231602  0.063773814            4 
  296000   0.78196067   -3.4472791    217.07108  0.061112353  0.063642461            2 
  297000    0.7854952   -3.4516928    217.52719  0.061034565   0.06351089           10 
  298000   0.80292736   -3.4625065    218.38166  0.061068696   0.06338119            6 
  299000   0.79093949   -3.4843769    218.14674  0.060798979  0.063251353            9 
  300000   0.78633565   -3.4861965    219.48609  0.060968358  0.063122309            3 
  301000   0.79616248   -3.4759971    219.70182   0.06082553  0.062993839            8 
  302000   0.77185808   -3.4839109    219.53361  0.060577708  0.062867536            2 
  303000   0.77838138   -3.4902354     219.6815  0.060418454  0.062739951            4 
  304000   0.78839472   -3.4823962    221.26089  0.060652657  0.062612112            6 
  305000   0.78812152   -3.4935038    220.35951  0.060207516  0.062484985            8 
  306000   0.78783564   -3.4865366    221.32568  0.060273878  0.062357355            5 
  307000   0.75842806    -3.499113    221.14075  0.060027348  0.062230652            3 
  308000   0.77709245     -3.49663    221.99121  0.060062558   0.06210282            4 
  309000   0.76172154   -3.4904763    221.92664  0.059850766  0.061974807            8 
  310000   0.75742009   -3.4903223    221.66541  0.059587477   0.06184767            4 
  311000   0.78548078   -3.5139273    222.02522  0.059492287  0.061720169            5 
  312000   0.76151905   -3.4891142    222.50279  0.059429164  0.061593104           10 
  313000   0.77618195   -3.5184542    222.43083  0.059220136  0.061465215            3 
  314000   0.77055473   -3.5003525    222.16721  0.058961573   0.06133783            8 
  315000    0.7489661   -3.5067731    223.29746  0.059073402  0.061209089            6 
  316000   0.75759574   -3.5164169    223.37445  0.058906765  0.061080448            4 
  317000   0.76581284   -3.5122802      224.313  0.058967664  0.060951704            5 
  318000   0.76025486   -3.5378648    223.75156  0.058635106  0.060824051            7 
  319000    0.7622365   -3.5373418     224.7197  0.058704207  0.060696898            5 
  320000   0.76049183   -3.5515557    225.79562  0.058800943  0.060570021            3 
  321000   0.75576729   -3.5273716    225.17493  0.058456629  0.060442477           10 
  322000    0.7620327   -3.5261453    226.27475  0.058559719  0.060315433            4 
  323000   0.74073258    -3.517987    226.09356  0.058331672      0.06019           11 
  324000   0.74709658    -3.526735    225.67265  0.058043376  0.060062787            5 
  325000   0.72788531   -3.5609076     226.1047  0.057975565  0.059935216            5 
  326000   0.74613949   -3.5660848    226.48197  0.057894164  0.059807203            6 
  327000   0.74156295   -3.5276784     226.3307  0.057678568  0.059679359            5 
  328000   0.72937216   -3.5254334    227.79246    0.0578741  0.059551985            4 
  329000    0.7512189    -3.544576    227.26329  0.057564158  0.059426865            6 
  330000   0.74136667   -3.5443179     228.1556  0.057615051  0.059303211            4 
  331000   0.73483648   -3.5485486    228.53301  0.057536005  0.059179671            2 
  332000   0.71844484   -3.5561548    227.61992  0.057133513  0.059054419           10 
  333000   0.74980809    -3.563883     228.3245  0.057138264  0.058930104            9 
  334000   0.73910717   -3.5603218    229.00816  0.057137765  0.058806388            5 
  335000   0.73070114   -3.5838181    228.71357  0.056893923  0.058682537            3 
  336000    0.7361625   -3.5673229    228.69238  0.056719339  0.058556623            5 
  337000   0.74945091   -3.6022403     228.6378  0.056537537  0.058429746            6 
  338000   0.72627631   -3.6030761     229.4622  0.056573521   0.05830386            6 
  339000   0.71956475   -3.5693764     230.0744  0.056557129  0.058177533            5 
  340000   0.72987654   -3.5832739    229.48758  0.056246956  0.058051344            5 
  341000   0.73288664   -3.5836384    230.59699  0.056353126  0.057924319            3 
  342000   0.71925997   -3.5820376    230.17498  0.056085522  0.057798626            9 
  343000   0.73038575   -3.5922872    230.25534   0.05594153  0.057672932            3 
  344000   0.71744701   -3.6204096     230.9186  0.055939584  0.057546546            4 
  345000   0.71058297   -3.5931142     230.8145  0.055752294   0.05742176            4 
  346000   0.71147697   -3.6073207    230.74487  0.055574391    0.0572964            4 
  347000    0.7133834   -3.6261016    230.93083  0.055458892  0.057170789            3 
  348000   0.70473647   -3.5956128    232.32576  0.055633563  0.057046266            2 
  349000   0.71040957   -3.6040663     231.9566  0.055386007  0.056922929            7 
  350000   0.70908414   -3.6158502    232.18725  0.055282677   0.05679974            6 
  351000   0.72493141   -3.6139479    232.40159  0.055176065   0.05667528            6 
  352000   0.70385069   -3.6301078    232.90477  0.055138439  0.056552296            4 
  353000   0.70305973   -3.6012746    233.36866  0.055091753  0.056430009            4 
  354000   0.68846065   -3.6058499    232.66014  0.054769336  0.056307576            4 
  355000   0.70131294   -3.6230497    233.33632  0.054773783  0.056185349            4 
  356000   0.71111463   -3.6321116    233.37156  0.054628175    0.0560636            3 
  357000   0.71147732   -3.6390381    233.99989  0.054621822  0.055942838            8 
  358000   0.68822106   -3.6332615    234.15321  0.054504937  0.055821596            6 
  359000   0.69224272   -3.6448257    234.59858  0.054456496  0.055701387            6 
  360000   0.68428947   -3.6326418     235.4352  0.054498888  0.055582357            5 
  361000   0.69875164   -3.6215556    234.58986  0.054152784  0.055463916            3 
  362000   0.68707281    -3.640581    234.78889  0.054049009  0.055345011            6 
  363000   0.70272455   -3.6213964    235.88354  0.054151409  0.055226435            3 
  364000   0.67194515   -3.6447829    235.80594  0.053984876  0.055107445            6 
  365000   0.68773462   -3.6516126    235.51734  0.053771082  0.054987684            4 
  366000   0.68089573    -3.645123    235.90881  0.053713298  0.054867194            7 
  367000   0.67837801     -3.65368    236.34697  0.053666432  0.054747028            6 
  368000   0.68539145   -3.6832913    235.70697  0.053375674  0.054628138           10 
  369000   0.67682754   -3.6557638     236.4721  0.053403817  0.054509047            6 
  370000   0.68600064   -3.6530586     236.5898  0.053285991  0.054390532            5 
  371000   0.68157084   -3.6595977    236.68458  0.053163652  0.054272266            8 
  372000   0.68005017   -3.6692143    236.68078  0.053019889  0.054154483            7 
  373000   0.68204042   -3.6766012    237.24742   0.05300434  0.054036284           10 
  374000   0.67918068   -3.6594753    237.24535  0.052862154  0.053917104            7 
  375000   0.66986551   -3.6514145    237.68363  0.052818584  0.053799524            4 
  376000   0.66405321   -3.6639251    237.29026  0.052590927  0.053681484            6 
  377000   0.66677943   -3.6630123    238.15095  0.052641677  0.053564515            8 
  378000   0.64310306   -3.6850966     238.0422  0.052478439  0.053448252           13 
  379000   0.66079573   -3.6952742    237.69541  0.052263722   0.05333079           10 
  380000   0.67495855   -3.6834307     237.7957   0.05214818  0.053213415            5 
  381000   0.65684944   -3.7001026    238.73251   0.05221621  0.053096026            9 
  382000   0.65339206   -3.7124682    238.24509  0.051973187  0.052978871            5 
  383000   0.65458982    -3.701214    238.65226  0.051926079  0.052862751            4 
  384000   0.66162017   -3.7049282    238.90854  0.051846472  0.052746076            6 
  385000   0.64462715   -3.6962369    239.43808  0.051826424  0.052629926            7 
  386000   0.64308616   -3.7020104    239.85561    0.0517823  0.052513917            5 
  387000   0.64295816   -3.7178295    239.46084  0.051563489  0.052397442            4 
  388000   0.66136674   -3.7156788    239.42528  0.051422956  0.052279474           16 
  389000   0.63386807   -3.7201028    238.99507  0.051198601  0.052162411            4 
  390000   0.64981968   -3.7185954    238.53729  0.050969506  0.052045463            8 
  391000    0.6324322   -3.7202137    239.86965  0.051123113  0.051929071            8 
  392000   0.66119122   -3.7009294     239.3199  0.050875829  0.051812311            5 
  393000   0.66723137   -3.7251666    239.70514  0.050828062  0.051695707           11 
  394000   0.64402848   -3.7145497    240.58362  0.050884861  0.051580962            6 
  395000   0.64453139   -3.7328344    240.17937  0.050670753  0.051466724            4 
  396000   0.64484669   -3.7494365    240.58555  0.050628272  0.051353053            4 
  397000   0.64161134   -3.7470797    241.07367  0.050603205  0.051238866            7 
  398000   0.63468229   -3.7437017    241.14943  0.050491924  0.051124999           10 
  399000   0.63095642   -3.7370331    241.45859  0.050429949  0.051011337           11 
  400000   0.61340211   -3.7173993     241.4222  0.050296291  0.050898225            7 
  401000   0.64080777   -3.7656944    241.47758  0.050182372  0.050784674           10 
  402000   0.62677473   -3.7734317    241.71898  0.050107583  0.050671757            9 
  403000   0.61945176     -3.77361    240.64577  0.049761325   0.05055792           10 
  404000   0.62057014   -3.7674033    241.21894  0.049756381  0.050443464            6 
  405000   0.61964186   -3.7748402    241.66116  0.049724519   0.05032946            5 
  406000   0.61315725   -3.7748388    242.40888  0.049755517  0.050214839            7 
  407000   0.61588568   -3.7553546    241.75511  0.049499408  0.050101685            8 
  408000   0.62028225    -3.775121    241.97452  0.049422899  0.049988864            7 
  409000    0.6246483   -3.7758218    242.55433  0.049420197   0.04987698           11 
  410000   0.61208618   -3.7534174    242.11164  0.049209682   0.04976439           11 
  411000   0.59960258   -3.7448452    242.74121  0.049217601   0.04965216            7 
  412000   0.61144115   -3.7681375     242.6522  0.049080138  0.049540604           20 
  413000   0.59180089    -3.771755    243.12792  0.049057288  0.049428863           15 
  414000   0.61942439   -3.7774675    242.86386  0.048885639  0.049317006            6 
  415000   0.60470221   -3.7993961    242.56384  0.048707598  0.049204655            4 
  416000   0.59137546   -3.7812846    242.79373  0.048636565  0.049092732            7 
  417000   0.57569291   -3.7977808    243.13468  0.048588065  0.048981312           11 
  418000   0.58870126    -3.809231    243.79127  0.048602725  0.048870088           12 
  419000   0.61143264   -3.8163916    243.50428  0.048429649   0.04875928            7 
  420000   0.59402822   -3.8078281    243.40945  0.048295526   0.04864892           12 
  421000   0.60471981   -3.7848077    243.59882  0.048218294  0.048539118           13 
  422000   0.58186646   -3.8066849    243.90803  0.048165093  0.048429506           10 
  423000     0.596885   -3.8107014    244.17456  0.048103734    0.0483193            7 
  424000    0.5767681   -3.8138455    242.98395   0.04775628  0.048208629           10 
  425000   0.59248065   -3.8069111     244.7143  0.047983196  0.048097719           12 
  426000   0.58184587   -3.7974912    243.79088  0.047689921  0.047987606            8 
  427000   0.59103091   -3.8284997    243.83711  0.047587258   0.04787784            7 
  428000   0.59056363   -3.8126002    244.78034  0.047659723  0.047768054           14 
  429000   0.59226729   -3.8253778    243.78102  0.047354511  0.047657909           10 
  430000   0.58501374   -3.8221927    243.61048  0.047211333  0.047547561            7 
  431000   0.57783916   -3.8451834    243.07159    0.0469976  0.047437002           12 
  432000   0.57561945   -3.8466282    243.56971  0.046984898   0.04732681           18 
  433000   0.56905211   -3.8302628    243.56424  0.046875334  0.047215712           11 
  434000   0.56547919   -3.8418729    243.24782   0.04670657  0.047104446           16 
  435000   0.57902895   -3.8622075    243.85804  0.046716099  0.046993186           22 
  436000   0.56584092   -3.8342641    244.04352  0.046644404  0.046881929            5 
  437000   0.56887145   -3.8616703    243.72296  0.046476536  0.046770929            5 
  438000   0.55915087   -3.8329482    243.72046  0.046369951  0.046660281            5 
  439000   0.56756861   -3.8729334    243.36227   0.04619633  0.046548615           11 
  440000   0.56604849   -3.8649737    243.91092   0.04619525  0.046437096           32 
  441000   0.56153783   -3.8670289    243.66209  0.046043479  0.046326025           21 
  442000   0.55498263   -3.8719777    243.72094  0.045950404  0.046215595            7 
  443000   0.54893797   -3.8638426    244.54631   0.04600194  0.046105647           10 
  444000   0.56103493   -3.8961975    243.79037   0.04575645  0.045995364            6 
  445000   0.55756104   -3.8822159    244.11771  0.045714928   0.04588516            8 
  446000   0.56480944   -3.8798186     243.9536  0.045581764  0.045775355           11 
  447000   0.55339072    -3.883366    243.58136  0.045410396  0.045665417            8 
  448000   0.54007818   -3.8753998    244.46949  0.045474236  0.045555627            4 
  449000    0.5457017   -3.9050196    243.95793  0.045278013  0.045445914            8 
  450000   0.55636599   -3.9078441    243.22919  0.045042442  0.045336301           13 
  451000   0.55548684   -3.9050827    244.70779  0.045215778  0.045227315           10 
  452000   0.56031449   -3.8971022    244.43918  0.045066221   0.04511831           14 
  453000   0.53669505   -3.9089977    244.46836  0.044972104  0.045009354           23 
  454000   0.54243721   -3.9051319     244.3063  0.044843301  0.044900432           23 
  455000   0.53620157    -3.903403    244.66123   0.04480975  0.044792393           12 
  456000   0.54476514   -3.9266123    244.70219  0.044718968  0.044684733            7 
  457000   0.53385263    -3.915897    245.34227  0.044737832   0.04457756           12 
  458000   0.52865142   -3.9051262    244.82269  0.044545613  0.044470714            8 
  459000   0.53201592   -3.9243788    244.29048  0.044351939  0.044363905           32 
  460000   0.52021359   -3.9281213    244.53454  0.044299736  0.044257177           11 
  461000   0.52487993   -3.9195387    244.96169  0.044280854  0.044150482           16 
  462000   0.52064348   -3.9317237    245.06094  0.044202911  0.044044354           14 
  463000    0.5500004   -3.9049919    244.75643  0.044052633  0.043938423            7 
  464000   0.52821237    -3.935019    244.46777  0.043905849  0.043831942           16 
  465000    0.5183753   -3.9237895     244.5163  0.043820125  0.043725861            9 
  466000   0.53298348   -3.9274348    244.58404  0.043738204   0.04362012           16 
  467000   0.52270253    -3.931333    244.95996  0.043711627  0.043514406           10 
  468000   0.51750886   -3.9507979    244.65965  0.043564752  0.043408603           12 
  469000   0.51427555   -3.9412907    244.49336  0.043442317   0.04330283           20 
  470000    0.5237947   -3.9553881    244.65847  0.043379161  0.043196645           17 
  471000   0.51922063   -3.9629528    244.67107  0.043289291  0.043091037           13 
  472000   0.52019606   -3.9363759    244.59731  0.043184553  0.042985896           14 
  473000   0.51393704    -3.957745    244.25323  0.043032633   0.04288117            8 
  474000   0.51088215   -3.9463746    245.32769  0.043130747  0.042776702           12 
  475000   0.51289428   -3.9654974    244.57599  0.042908068  0.042672718            7 
  476000    0.5049023   -3.9906437    244.93949  0.042881564  0.042568221            8 
  477000   0.51131699     -3.98232    245.18281  0.042834173  0.042464161           22 
  478000   0.50522947   -3.9889211    245.14543  0.042738046  0.042360617           32 
  479000   0.49887999   -3.9865978    245.30574  0.042676711  0.042257588           16 
  480000   0.49964966   -3.9704232    245.14941  0.042560662  0.042154717           28 
  481000   0.49356377   -3.9881646    245.18809  0.042478878  0.042052089           22 
  482000   0.49395013   -3.9911302    245.88979  0.042512066  0.041950068           12 
  483000   0.49152838   -3.9758103    245.60991   0.04237576  0.041848047           12 
  484000   0.50320675    -3.995228    245.35726  0.042244707   0.04174599           10 
  485000   0.49553957   -3.9985063    244.83695  0.042068205  0.041643592           13 
  486000   0.47967126   -4.0171573    245.15758  0.042036621  0.041541037           12 
  487000   0.49218422   -3.9846148     245.0252  0.041927653  0.041439229            8 
  488000   0.48765698   -4.0081457    245.24375  0.041879056   0.04133768           18 
  489000   0.47750141    -4.010621    244.98226  0.041748851   0.04123583            9 
  490000   0.48884829   -3.9981428    245.48874  0.041749786  0.041134216           13 
  491000   0.49751532   -4.0134427    245.21341  0.041618026  0.041032791            9 
  492000   0.48127164   -4.0138104    244.72433  0.041450598  0.040931145           25 
  493000   0.49951615   -4.0285607    244.32964  0.041299804  0.040829689           24 
  494000   0.47573902   -4.0189279    245.64583  0.041438231  0.040728338           52 
  495000   0.48495314   -4.0390502    244.83607  0.041218194  0.040627131           20 
  496000   0.48190548   -4.0271754    244.00456   0.04099539   0.04052601           21 
  497000   0.47215035   -4.0150971    244.43127  0.040984451  0.040425153           16 
  498000   0.46715025   -4.0242557    244.83859  0.040970314  0.040324679           22 
  499000   0.47290259   -4.0468293    244.86552  0.040892705  0.040224472            9 
  500000   0.47098505   -4.0387186    244.81388  0.040802313  0.040124091           28 
  501000   0.46935985   -4.0387781    245.34428  0.040809095  0.040024181           32 
  502000   0.45782535   -4.0552246    244.39937  0.040570945  0.039924387           66 
  503000   0.46957209   -4.0533532    244.50178  0.040507253  0.039824437           38 
  504000   0.45459598   -4.0486122    244.67057   0.04045479  0.039724739           60 
  505000   0.46260317    -4.054029     244.5379  0.040352789  0.039625803          103 
  506000   0.46391203   -4.0638579    244.47308  0.040262365  0.039526891          134 
  507000   0.45083353   -4.0595639    244.18011  0.040134798  0.039428057          151 
  508000   0.44615178   -4.0553709    245.06719  0.040201311   0.03932961           31 
  509000   0.45982382   -4.0619675    245.09291   0.04012654  0.039231469           53 
  510000   0.44329448   -4.0638868    244.88484  0.040013863  0.039133715           53 
  511000   0.45633918   -4.0607297    244.96902  0.039949286  0.039036547           52 
  512000   0.44866006   -4.0623239    245.41427  0.039943728  0.038939442           38 
Loop time of 1229.43 on 48 procs for 500000 steps with 4000 atoms

Performance: 70276.291 tau/day, 406.692 timesteps/s
99.4% CPU use with 48 MPI tasks x no OpenMP threads

MPI task timing breakdown:
Section |  min time  |  avg time  |  max time  |%varavg| %total
---------------------------------------------------------------
Pair    | 79.654     | 84.915     | 89.306     |  22.7 |  6.91
Neigh   | 8.2541     | 8.5686     | 8.9762     |   5.0 |  0.70
Comm    | 80.284     | 84.84      | 90.238     |  25.1 |  6.90
Output  | 0.94474    | 0.94522    | 0.95316    |   0.1 |  0.08
Modify  | 1036.4     | 1038.7     | 1041.6     |   3.2 | 84.49
Other   |            | 11.43      |            |       |  0.93

Nlocal:        83.3333 ave          90 max          76 min
Histogram: 1 1 5 4 8 17 1 6 2 3
Nghost:        2209.90 ave        2233 max        2188 min
Histogram: 2 6 9 5 5 2 2 7 8 2
Neighs:        14734.0 ave       16055 max       13503 min
Histogram: 4 3 6 3 6 9 9 3 4 1
FullNghs:      29467.2 ave       32152 max       27060 min
Histogram: 2 1 4 12 13 4 4 3 3 2

Total # of neighbors = 1414427
Ave neighs/atom = 353.60675
Neighbor list builds = 27118
Dangerous builds = 0

#clear
#
#next RN
#
#jump SELF
Total wall time: 0:20:32
