
units lj                  # Use reduced LJ style units
atom_style atomic         # Uncharged point particles
atom_modify map hash      # Needed for indexing of clusters etc
                          # Used to be able to find where atoms are in relation to each other.

lattice fcc 1.0 spacing 1 1 1
Lattice spacing in x,y,z = 1.5874011 1.5874011 1.5874011
region box block 0 10 0 10 0 10 units lattice
create_box 2 box
Created orthogonal box = (0.0000000 0.0000000 0.0000000) to (15.874011 15.874011 15.874011)
  3 by 4 by 4 MPI processor grid
create_atoms 1 box
Created 4000 atoms
  using lattice units in orthogonal box = (0.0000000 0.0000000 0.0000000) to (15.874011 15.874011 15.874011)
  create_atoms CPU = 0.002 seconds
set type 1 type/fraction 2 0.88 78393
Setting atom values ...
  3511 settings made for type/fraction
mass 1 1.0
mass 2 1.0
pair_style lj/cut  3.5
pair_modify tail  yes
pair_coeff 1  1  1.0  1.0   # Intearaction between 1 and 1 set with epsilon = 1 and sigma = 1
pair_coeff 1  2  1.5  0.8
pair_coeff 2  2  0.5  0.88

write_data data.0
System init for write_data ...
Neighbor list info ...
  update every 1 steps, delay 10 steps, check yes
  max neighbors/atom: 2000, page size: 100000
  master list distance cutoff = 3.8
  ghost atom cutoff = 3.8
  binsize = 1.9, bins = 9 9 9
  1 neighbor lists, perpetual/occasional/extra = 1 0 0
  (1) pair lj/cut, perpetual
      attributes: half, newton on
      pair build: half/bin/atomonly/newton
      stencil: half/bin/3d
      bin: standard
WARNING: Not all mixed pair coeffs generated from mixing. Use write_data with 'pair ij' option to store all pair coeffs. (../write_data.cpp:312)


#############################
#   M E L T   S Y S T E M   #
#############################

velocity all create 2.4 6229865 mom yes dist gaussian # Assign velocities
                                                    # Temperature 2.4, random number seed, zero linear momentum
                                                                                # Gaussian distribution

timestep 0.002   # simulation timestep
thermo 1000       # output thermodynamic data every 1000 steps bf 100

# Define a fix  in this case with index 1 applied to all
# particles in the simulation. This fix is for simulations
# in the anisotropic NPT ensemble. Note that we use the MTK
# correction.
fix 1 all npt temp 2.4 2.4 0.1 iso 5.68 5.68 0.5 mtk yes tchain 5 pchain 5 # Use NPT ensemble
                                                                         # Set temperature and pressure and damping
                                                                         # Numbers of thermostats in chain and in barostat
run 10000          # run for 10000 steps
Per MPI rank memory allocation (min/avg/max) = 3.642 | 3.644 | 3.648 Mbytes
Step Temp E_pair E_mol TotEng Press Volume 
       0          2.4   -3.2921436            0   0.30695645   -2.7369977         4000 
    1000    2.4104813   -2.4201556            0    1.1946624    5.6822436    3949.4749 
    2000    2.3421625    -2.373442            0    1.1389233    5.5899311    3981.2523 
    3000    2.4614382   -2.3742752            0    1.3169591    5.9815365     3956.816 
    4000    2.4266933   -2.3693417            0    1.2697883    5.9618096    3951.9938 
    5000     2.414937   -2.3715821            0    1.2499178    5.5955425    3983.8407 
    6000     2.399153   -2.4460709            0    1.1517589    5.6737462    3932.3785 
    7000    2.4002536   -2.4233856            0    1.1760946    5.7086742    3938.9168 
    8000    2.3751831   -2.3901152            0    1.1717688    5.4497263    4006.3668 
    9000    2.4027916   -2.3692013            0     1.234085    5.7294567    3973.3641 
   10000    2.4386299   -2.3940018            0    1.2630285    5.8264382    3933.8604 
Loop time of 2.50821 on 48 procs for 10000 steps with 4000 atoms

Performance: 688938.349 tau/day, 3986.912 timesteps/s
99.6% CPU use with 48 MPI tasks x no OpenMP threads

MPI task timing breakdown:
Section |  min time  |  avg time  |  max time  |%varavg| %total
---------------------------------------------------------------
Pair    | 1.0494     | 1.1601     | 1.4058     |   5.0 | 46.25
Neigh   | 0.20072    | 0.21557    | 0.25346    |   1.7 |  8.59
Comm    | 0.63242    | 0.8702     | 1.007      |   7.2 | 34.69
Output  | 0.00023872 | 0.00024285 | 0.00030378 |   0.0 |  0.01
Modify  | 0.18785    | 0.24715    | 0.31263    |   9.0 |  9.85
Other   |            | 0.01498    |            |       |  0.60

Nlocal:        83.3333 ave          92 max          70 min
Histogram: 2 0 1 5 5 10 7 10 4 4
Nghost:        1664.94 ave        1702 max        1634 min
Histogram: 3 3 9 5 6 10 4 4 2 2
Neighs:        9707.83 ave       11108 max        7777 min
Histogram: 2 0 3 5 4 12 8 8 3 3

Total # of neighbors = 465976
Ave neighs/atom = 116.49400
Neighbor list builds = 906
Dangerous builds = 214

# Equilibrate just above the melting temperature to avoid step fn in T

fix 1 all npt temp 1.25 1.25 0.1 iso 5.68 5.68 0.5 mtk yes tchain 5 pchain 5
run 2000
Per MPI rank memory allocation (min/avg/max) = 3.643 | 3.645 | 3.649 Mbytes
Step Temp E_pair E_mol TotEng Press Volume 
   10000    2.4386299   -2.3940018            0    1.2630285    5.8264382    3933.8604 
   11000    1.2534342   -3.5312508            0   -1.6515695    5.6833891    3075.8965 
   12000    1.2579344   -3.5473632            0   -1.6609333     5.645278    3077.1282 
Loop time of 0.615099 on 48 procs for 2000 steps with 4000 atoms

Performance: 561860.550 tau/day, 3251.508 timesteps/s
99.6% CPU use with 48 MPI tasks x no OpenMP threads

MPI task timing breakdown:
Section |  min time  |  avg time  |  max time  |%varavg| %total
---------------------------------------------------------------
Pair    | 0.26211    | 0.29313    | 0.34776    |   2.9 | 47.66
Neigh   | 0.038118   | 0.041583   | 0.047718   |   0.8 |  6.76
Comm    | 0.17256    | 0.23023    | 0.26493    |   3.6 | 37.43
Output  | 4.8956e-05 | 5.0039e-05 | 6.4415e-05 |   0.0 |  0.01
Modify  | 0.041384   | 0.045569   | 0.050126   |   1.1 |  7.41
Other   |            | 0.004539   |            |       |  0.74

Nlocal:        83.3333 ave          90 max          76 min
Histogram: 1 0 7 5 3 15 7 7 1 2
Nghost:        1962.33 ave        1980 max        1940 min
Histogram: 2 1 3 7 6 7 5 9 5 3
Neighs:        12409.1 ave       13709 max       10880 min
Histogram: 1 2 3 7 8 8 7 5 5 2

Total # of neighbors = 595636
Ave neighs/atom = 148.90900
Neighbor list builds = 143
Dangerous builds = 15

#############################
# L I N E A R  Q U E N C H  #
#############################

# Define solid atoms. This closely follows ten Wolde  Ruiz-Montero and Frenkel  Faraday Discuss  1996  104  93-110
# Compute components of the per-atom q6 vector
compute q6 all orientorder/atom degrees 1 6 components 6 nnn NULL cutoff 1.3 # compute the Q6 parameter.
                                                                             # Use all neighbours within 1.3 unit cell.

# get number of connections
compute coord_number all coord/atom orientorder q6 0.5

# An atom is solid if it has 8 or more connections (of a possible 14)
variable is_solid atom c_coord_number>=8
group solid dynamic all var is_solid    # Must be dynamic to update
dynamic group solid defined

# do clustering
compute cluster solid cluster/atom 1.3 # Create a cluster where all atoms within are solid and max 1.3 units from another member

# define chunks one chunk per cluster
compute clus_chunks solid chunk/atom c_cluster nchunk every compress yes  # Says which atoms are in which chunk

# count the size of each chunk
compute size_chunks solid property/chunk clus_chunks count


# Find the maximum entry in the vector of chunk sizes
variable max_n equal max(c_size_chunks)


# Thermo style which includes this variable
# thermo_style custom step temp pe vol v_max_n

thermo ${N}  # Print the thermo information every 100 steps
thermo 1000  

# Reset the npt fix at a lower temperature (below freezing)
fix 1  all npt temp  ${temp} ${temp}  0.1  iso  5.68  5.68  0.5  mtk yes tchain  5  pchain  5
fix 1  all npt temp  0.45 ${temp}  0.1  iso  5.68  5.68  0.5  mtk yes tchain  5  pchain  5
fix 1  all npt temp  0.45 0.45  0.1  iso  5.68  5.68  0.5  mtk yes tchain  5  pchain  5

dump dmp2 all dcd ${N} traj.dcd
dump dmp2 all dcd 1000 traj.dcd


compute msd all msd com yes
variable twopoint equal c_msd[4]/6/(step*dt+1.0e-6)
fix 9 all vector 10 c_msd[4]
variable fit equal slope(f_9)/6/(10*dt)
thermo_style custom step temp pe c_msd[4] v_twopoint v_fit v_max_n

fix 1 all npt temp 1.25 ${temp} 0.1 iso 5.68 5.68 0.5 mtk yes tchain 5 pchain 5
fix 1 all npt temp 1.25 0.45 0.1 iso 5.68 5.68 0.5 mtk yes tchain 5 pchain 5
run 2000000 # 5000000  # Run for this many steps
Neighbor list info ...
  update every 1 steps, delay 10 steps, check yes
  max neighbors/atom: 2000, page size: 100000
  master list distance cutoff = 3.8
  ghost atom cutoff = 3.8
  binsize = 1.9, bins = 8 8 8
  4 neighbor lists, perpetual/occasional/extra = 1 3 0
  (1) pair lj/cut, perpetual
      attributes: half, newton on
      pair build: half/bin/atomonly/newton
      stencil: half/bin/3d
      bin: standard
  (2) compute orientorder/atom, occasional
      attributes: full, newton on
      pair build: full/bin/atomonly
      stencil: full/bin/3d
      bin: standard
  (3) compute coord/atom, occasional
      attributes: full, newton on
      pair build: full/bin/atomonly
      stencil: full/bin/3d
      bin: standard
  (4) compute cluster/atom, occasional
      attributes: full, newton on
      pair build: full/bin/atomonly
      stencil: full/bin/3d
      bin: standard
Per MPI rank memory allocation (min/avg/max) = 9.825 | 9.830 | 9.833 Mbytes
Step Temp PotEng c_msd[4] v_twopoint v_fit v_max_n 
   12000    1.2579344   -3.5473632 2.2553533e-30 1.5662175e-32 8.3333333e+20            2 
   13000    1.2396149   -3.5480346   0.96815763 0.0062061384   0.08328494            4 
   14000    1.2421224   -3.5681004    2.0118683  0.011975406  0.084786246            1 
   15000    1.2230943   -3.5577682    3.0807375  0.017115208  0.085819628            7 
   16000    1.2240359   -3.5676787    4.1068533   0.02138986  0.086525444            1 
   17000    1.2633638   -3.5787677    5.3322388  0.026138424  0.088162251            1 
   18000    1.2953351   -3.5746803      6.33548  0.029330925  0.089195294            1 
   19000    1.2393424   -3.6127219    7.3263528  0.032133125  0.088848917            3 
   20000    1.2829455   -3.5451089     8.419421   0.03508092  0.088775327            3 
   21000    1.2391117   -3.5818626    9.5317227  0.037824295  0.088947036            2 
   22000    1.2213426    -3.557181    10.693421   0.04050538  0.089235096            2 
   23000    1.2687859   -3.5511185    11.707439  0.042418257  0.089399463            2 
   24000    1.2778398   -3.5882034    12.677245   0.04401821  0.089481836            3 
   25000    1.2525631   -3.6144703    13.714108  0.045713694   0.08926479            2 
   26000    1.2247667   -3.5678052    14.717323  0.047170906  0.088981626            3 
   27000    1.2715918   -3.5891187    15.765762  0.048659757  0.088625076            3 
   28000    1.2444051   -3.6012763    16.898537  0.050293264   0.08854766            1 
   29000    1.2674833   -3.6181612    17.822197  0.051213209  0.088486458            2 
   30000    1.2178615   -3.5318626    19.020548  0.052834855  0.088444781            1 
   31000    1.2396061   -3.5956949    20.113098  0.054067467  0.088405472            4 
   32000    1.2449938   -3.5786125    21.028406  0.054761474  0.088415188            2 
   33000    1.2257646   -3.6061325    22.161914  0.055964428  0.088427882            3 
   34000    1.2233822    -3.603604    23.072236  0.056549597  0.088335441            1 
   35000    1.2489166   -3.5880996    23.981447  0.057098683  0.088145939            1 
   36000    1.2650268   -3.5521999    25.125582   0.05816107  0.087901606            1 
   37000    1.2429236   -3.6128233    26.061507  0.058697087  0.087712555            2 
   38000    1.2149644    -3.545232    27.184388  0.059614886  0.087565453            3 
   39000    1.2566177   -3.5940993    28.286569  0.060441386  0.087504485            2 
   40000    1.2287504   -3.5939006    29.251395  0.060940406  0.087477237            2 
   41000    1.2443276   -3.5706744    30.661655  0.062320437  0.087494554            2 
   42000    1.2365862   -3.5743236    31.875056  0.063244158  0.087604111            4 
   43000    1.2667874   -3.5981257    32.823424  0.063611286  0.087670672            2 
   44000    1.2242683   -3.6084351    33.778187  0.063973837  0.087773978            1 
   45000    1.2420348   -3.6168625      34.5923  0.064059815  0.087807392            3 
   46000    1.2541428   -3.6066334    35.687334  0.064650967  0.087781124            1 
   47000    1.2385705   -3.5722314    36.732002  0.065127662  0.087711917            3 
   48000    1.2323761   -3.6023414    37.696421  0.065445175   0.08766638            2 
   49000    1.2517858   -3.5870625    38.463157  0.065413531  0.087570089            3 
   50000    1.2237288   -3.6038339    39.476903  0.065794838  0.087421047            1 
   51000    1.2276441    -3.597087    40.535611  0.066234658  0.087298676            1 
   52000    1.2164611    -3.595191    41.435964  0.066403787  0.087194022            2 
   53000    1.2428954   -3.6109029    42.425233   0.06670634  0.087049068            1 
   54000    1.2451291   -3.5739308     43.29394  0.066811635  0.086871044            2 
   55000    1.2353539   -3.5925203    44.710547  0.067743253  0.086780965            1 
   56000    1.2522531   -3.5842032    45.619242  0.067885777  0.086691044            1 
   57000    1.2241022   -3.5872455      46.5494  0.068054678  0.086582964            1 
   58000    1.2368076   -3.6241878    47.559816  0.068333069   0.08647509            3 
   59000    1.2402032   -3.5665785    48.547267  0.068569585  0.086397858            3 
   60000    1.2514551   -3.5958624    49.831698  0.069210691  0.086322822            2 
   61000    1.2482309   -3.5884135    50.730007  0.069303288  0.086261479            1 
   62000    1.2562686   -3.5985334    51.967868  0.069849285  0.086219396            2 
   63000    1.2225147   -3.6190384    52.834696  0.069887163  0.086202901            3 
   64000    1.2484876   -3.6045882    54.003313  0.070316813  0.086199411            5 
   65000    1.2275005   -3.6131284    55.343663  0.070953414   0.08626101            1 
   66000    1.2401181   -3.5804035    56.549364  0.071400712  0.086299093            2 
   67000    1.2089577   -3.5784971    56.907499   0.07078047   0.08632061            3 
   68000    1.2341669   -3.5848506    58.261813   0.07139928  0.086301255            4 
   69000    1.2530829   -3.5776016    59.188168  0.071483294  0.086289673            1 
   70000    1.2139814   -3.5880013    59.953542  0.071373264  0.086278704            1 
   71000     1.227297     -3.60138    61.171047  0.071797003  0.086245894            4 
   72000    1.2049719   -3.6421697    62.068878  0.071838979  0.086224638            2 
   73000    1.2307479   -3.5794007    63.829284  0.072864479  0.086246282            1 
   74000    1.2277959    -3.589687    64.605203  0.072753607  0.086274003            1 
   75000    1.2079506   -3.6294579    65.686582   0.07298509  0.086300628            2 
   76000    1.2412024   -3.5905838    66.769032  0.073211657  0.086318391            1 
   77000    1.2200544   -3.5903214    67.688892  0.073256376  0.086315366            2 
   78000    1.1958938   -3.5975184    68.826678  0.073532775  0.086313206            2 
   79000    1.2085639   -3.5850007    69.700584  0.073523822  0.086312731            1 
   80000    1.2162888   -3.6485881    69.628381  0.072529563  0.086282326            2 
   81000    1.2244379   -3.6025274    71.451782  0.073510064  0.086228911            3 
   82000    1.2359163   -3.6269197    72.248801  0.073423578    0.0861984            1 
   83000    1.2210633   -3.6383938    73.096859  0.073390421  0.086167194            3 
   84000     1.218528   -3.5982181    74.124126  0.073535838  0.086113564            2 
   85000    1.2374316   -3.6137692    75.088213  0.073615894  0.086053355            3 
   86000    1.2018083   -3.5691702     76.29349    0.0739278  0.086002075            2 
   87000    1.2273405   -3.6065941    77.248535  0.073992849  0.085958277            1 
   88000     1.199396   -3.6088563    78.113698  0.073971305  0.085914835            1 
   89000    1.1998108   -3.6191107    78.921848  0.073896861  0.085855396            1 
   90000    1.2109408   -3.6073606     80.11019  0.074176101  0.085794082            2 
   91000    1.2274626     -3.60021    81.209927  0.074368065  0.085745606            1 
   92000    1.1945555    -3.582822    82.043109   0.07431441  0.085698407            2 
   93000    1.1974475   -3.6393121     82.68402  0.074089623  0.085630665            2 
   94000    1.2510991   -3.5905316    83.750032  0.074246482  0.085560316            1 
   95000     1.206843    -3.571056    85.055987  0.074610514  0.085502587            2 
   96000     1.220518   -3.6329177    85.324866  0.074066724  0.085437703            1 
   97000    1.2263739   -3.6009294    86.858161  0.074620413  0.085362972            2 
   98000     1.193294   -3.5662177    87.537182  0.074436379  0.085307616            1 
   99000    1.2036297    -3.637837    89.008227   0.07492275  0.085255774            3 
  100000    1.2108706   -3.6329653    89.840137  0.074866781  0.085205357            1 
  101000    1.2225685   -3.6472105    90.814933  0.074929812  0.085149099            1 
  102000    1.2466236    -3.609608    92.087546  0.075234923  0.085104507            3 
  103000    1.2089066   -3.6325562     92.57724  0.074900679  0.085047439            1 
  104000    1.2366744   -3.6358055    93.491258  0.074912867  0.084982376            1 
  105000    1.2030581     -3.62945    93.889771  0.074515691  0.084910674            5 
  106000    1.2190003   -3.6264114    95.223289  0.074861076  0.084842166            2 
  107000    1.2217304   -3.6177396    96.568319  0.075208971  0.084775781            2 
  108000    1.2078212    -3.639645    96.997917  0.074844072  0.084708907            2 
  109000    1.2332019   -3.6644312    98.077036  0.074982443  0.084663471            2 
  110000    1.2423796   -3.5908917    99.767017  0.075581073  0.084609285            2 
  111000    1.1839901   -3.6110771     99.93833  0.075028776  0.084560029            1 
  112000    1.2221414   -3.6049864     101.1827  0.075284747  0.084502062            1 
  113000    1.2211273   -3.6499958    101.72408  0.075017757  0.084437205            2 
  114000    1.2095072    -3.633281      102.743  0.075104533  0.084357601            2 
  115000    1.2214558   -3.6188912    103.21734  0.074795172  0.084272909            3 
  116000    1.1756216   -3.6064152    104.30819  0.074934044  0.084186591            2 
  117000    1.2153697     -3.63858    104.94288  0.074745644  0.084107337            3 
  118000    1.2029762   -3.6127827    105.79037   0.07471071  0.084011666            3 
  119000    1.2188543   -3.6444379     107.3526  0.075176889  0.083924406            3 
  120000    1.2039481   -3.6384963     108.6706  0.075465695  0.083849175            1 
  121000    1.1900311   -3.6265949    109.03989  0.075096342   0.08379586            4 
  122000    1.1990347   -3.6416037    109.76841  0.074978423  0.083728252            3 
  123000    1.2008615   -3.6150075    111.19937  0.075338326  0.083651231            5 
  124000    1.2309939   -3.6383468     112.1102  0.075342875  0.083590005            2 
  125000     1.187861    -3.660479    112.49204  0.074994693  0.083519668            1 
  126000     1.223217   -3.6549481    113.73199   0.07521957  0.083440598            2 
  127000     1.205057   -3.6365348    113.88597  0.074728328  0.083360796            1 
  128000    1.1991943    -3.635337     114.8511   0.07477285  0.083276049            2 
  129000    1.1910677    -3.635692    116.06472  0.074977211  0.083191272            1 
  130000    1.1875604   -3.6238915    117.13884  0.075089002  0.083113493            3 
  131000     1.213097   -3.6097633    118.24069  0.075216725   0.08303903            1 
  132000    1.1931211   -3.6214993    118.62413  0.074888968  0.082962308            1 
  133000    1.2055216   -3.6531049    119.43234  0.074832293  0.082891111            3 
  134000    1.1795609    -3.638572    121.04623  0.075277508  0.082812491            2 
  135000    1.2165182   -3.6459408    121.23392  0.074835756  0.082729326            3 
  136000    1.2240984   -3.6451903     122.4285  0.075017465  0.082650986            4 
  137000    1.1967009   -3.6540357     123.5043   0.07512427  0.082582015            4 
  138000    1.2055196   -3.6660001    124.17452  0.074984612   0.08251248            2 
  139000    1.1892006    -3.642552     124.9049  0.074883033  0.082446626            3 
  140000    1.1507909   -3.6448941    127.13326   0.07567456  0.082392146            1 
  141000    1.2226061   -3.6481958    127.94914  0.075620057  0.082347525            2 
  142000    1.2122794   -3.6412947    128.20858  0.075239778   0.08230201            1 
  143000    1.2065028   -3.6237456    129.50015  0.075466288  0.082259885            2 
  144000    1.2151045   -3.6068973    130.43149  0.075481186  0.082215561            5 
  145000     1.211165   -3.6357766    131.41084   0.07552347  0.082161841            1 
  146000    1.1817068    -3.646019    131.92411   0.07529915  0.082113031            3 
  147000    1.2042674   -3.6577149    132.29418  0.074996703  0.082058119            2 
  148000    1.1817823   -3.6852018     133.6493  0.075252981  0.082004414            4 
  149000    1.1985626    -3.637512     135.7619  0.075929475  0.081963817            2 
  150000     1.192061   -3.6193675     136.8319  0.076017723  0.081924541            1 
  151000    1.2026486   -3.6631924    137.08665  0.075654886  0.081882368            2 
  152000    1.2093771   -3.6820711    137.72215  0.075505562  0.081846124            2 
  153000    1.2020664   -3.6226445    139.29227   0.07586725  0.081805859            3 
  154000    1.2025835   -3.6510077    140.14916  0.075838288  0.081770855            3 
  155000    1.1946685   -3.6542698    140.92247  0.075764768  0.081735217            4 
  156000    1.1801998   -3.6430805    142.79229  0.076277933  0.081709697            2 
  157000    1.1938746   -3.6060982    143.79378  0.076323661  0.081694462            1 
  158000    1.1927871   -3.6263176    144.72222  0.076330285  0.081674834            3 
  159000    1.1822794    -3.659179    144.55243   0.07576123  0.081647814            3 
  160000    1.2031459   -3.6586441    145.54408  0.075804208  0.081609914            1 
  161000    1.1884471   -3.6548008    146.12016  0.075631553  0.081576833            1 
  162000    1.1855763   -3.6666656    146.86098   0.07554577  0.081535867            3 
  163000    1.2008509   -3.6385871    147.80096  0.075562864  0.081485573            1 
  164000    1.2043181   -3.6360187    149.11776  0.075771221  0.081441833            3 
  165000    1.1894476   -3.6680676    149.37711  0.075442987  0.081399153            2 
  166000     1.173074   -3.6462865    150.70005  0.075652636  0.081358929            3 
  167000    1.1845998   -3.7065621    151.79086  0.075743942  0.081318827            3 
  168000    1.1835547   -3.6653348    152.38719  0.075588886  0.081275351            2 
  169000     1.177832    -3.669006    152.88129   0.07538525  0.081224966            1 
  170000    1.1819721    -3.685772    152.97303  0.074986778   0.08117243            1 
  171000    1.1821565   -3.6297594    154.76537  0.075421722  0.081119658            1 
  172000    1.1406448   -3.6357682    156.54222    0.0758441  0.081070527            1 
  173000    1.1557563   -3.6847109    156.60056  0.075433795  0.081029305            3 
  174000    1.1762995   -3.6315124    157.91188  0.075628293  0.080987687            3 
  175000     1.184549   -3.6376318    158.76856  0.075604074  0.080939796            1 
  176000    1.1813321    -3.656673    159.95823  0.075737796    0.0808981            2 
  177000    1.1764436   -3.7075677    160.29654  0.075469182  0.080857582            1 
  178000    1.1994761    -3.694757    161.09422  0.075418644  0.080810235            1 
  179000    1.1812287   -3.6908665    161.39135  0.075135639  0.080758178            1 
  180000    1.1929702   -3.6824508    162.41635  0.075192753  0.080703193            2 
  181000    1.2011108   -3.6734797    163.71719   0.07537624  0.080650628            2 
  182000    1.2045565    -3.646953     164.6812   0.07540348  0.080600812            1 
  183000    1.2074504   -3.6772404    165.35259  0.075297171  0.080550297            1 
  184000    1.1802937   -3.6664076    166.06615  0.075211116  0.080493698            2 
  185000    1.1853063   -3.7060586    166.98103  0.075216678  0.080446252            1 
  186000     1.169238    -3.686657    167.89239  0.075220604  0.080398494            4 
  187000    1.1756474   -3.6678392    168.67763  0.075168285  0.080350005            3 
  188000    1.1791903   -3.6705791    169.74128  0.075239927  0.080294274            3 
  189000    1.1817317   -3.6558197    170.77862  0.075299214  0.080243516            1 
  190000    1.1729123   -3.6842805    170.55625  0.074805373  0.080193769            3 
  191000    1.1906723   -3.6713082    171.95762  0.075025141  0.080145263            2 
  192000     1.169047   -3.6337419    173.62084  0.075356267   0.08010157            2 
  193000    1.1739421   -3.6726616    174.21731  0.075223363  0.080059066            2 
  194000    1.1627246   -3.6833995    175.34974  0.075322051  0.080025991            4 
  195000     1.165551   -3.6469245    177.49383  0.075852064  0.079987839            1 
  196000    1.1771179   -3.6560945    177.43149  0.075438558  0.079952636            2 
  197000    1.1710489   -3.7149429    177.00883  0.074876831  0.079913796            3 
  198000    1.1507124   -3.6950007    179.44147  0.075522503  0.079877855            1 
  199000    1.1902461    -3.702827     179.9943  0.075374498   0.07984377            4 
  200000    1.1516268   -3.7008691    180.31371  0.075130711   0.07980732            1 
  201000    1.1824818   -3.6818586    181.50244  0.075249766  0.079772589            1 
  202000    1.1563137   -3.7217036    182.38169  0.075239969  0.079739925            2 
  203000    1.1614665   -3.6572685    184.33033  0.075669263  0.079708289            3 
  204000    1.1828515    -3.652789     185.5859  0.075811232  0.079682024            1 
  205000    1.1867405   -3.6800784    186.13921  0.075666346  0.079659608            3 
  206000    1.1786463   -3.6651562    187.11565  0.075694035  0.079635468            2 
  207000    1.1471598   -3.6900554     187.2481  0.075381681  0.079610556            2 
  208000    1.1624324   -3.6657222    189.15153  0.075781864  0.079581071            2 
  209000    1.1739453   -3.6960468    188.58837  0.075194723  0.079547642            2 
  210000    1.1670214   -3.6697001    190.72568  0.075684793  0.079513834            4 
  211000    1.1794449   -3.6734031    191.12192  0.075482589  0.079484912            1 
  212000    1.1513217   -3.6610501    191.13485  0.075131622  0.079454894            2 
  213000    1.1601771   -3.7081818    192.66101  0.075375983   0.07942237            5 
  214000    1.1777993   -3.7001036    193.11782  0.075201642  0.079388142            4 
  215000    1.1691601   -3.7132389     194.3271   0.07532058  0.079353868            2 
  216000    1.1336278   -3.6834239     195.2418  0.075324767  0.079325121            2 
  217000    1.1578701   -3.6992829    195.94002  0.075245783   0.07929589            2 
  218000     1.175973   -3.7017449    196.60447  0.075154616  0.079263737            4 
  219000    1.1689142   -3.7268031    198.03577  0.075356078  0.079230995            1 
  220000    1.1948808   -3.7125591    199.06253  0.075402473  0.079199135            2 
  221000     1.176188   -3.6917672    198.73201  0.074936656  0.079166826            4 
  222000    1.1844028   -3.7135935    200.22599  0.075159906  0.079127799            3 
  223000    1.1876824   -3.7059805    201.11838  0.075156346  0.079088883            2 
  224000    1.1553382    -3.708275    202.65409  0.075392146  0.079052642            3 
  225000    1.1612861   -3.6900714    203.33656  0.075309835  0.079022846            1 
  226000     1.185535   -3.6807703    204.60177   0.07544313  0.078992919            2 
  227000    1.1679512   -3.7224811    204.64898  0.075128112  0.078962587            2 
  228000    1.1728467   -3.6689213    207.14582   0.07571119  0.078933644            2 
  229000    1.1845244   -3.6811172    205.88084  0.074920247  0.078905407            1 
  230000    1.1504077   -3.7086247    206.70933  0.074894685  0.078871528            2 
  231000    1.1518429   -3.7018669     208.2966  0.075143073  0.078838841            1 
  232000    1.1719879   -3.6840912    208.33817  0.074834112  0.078805693            4 
  233000    1.1751981   -3.7030578    209.71285  0.075004597  0.078767997            2 
  234000    1.1795664   -3.6852894    210.75789  0.075056229  0.078736361            2 
  235000    1.1628438   -3.6854475    211.21066  0.074897396  0.078704177            6 
  236000    1.1422485   -3.7044048    212.31274  0.074969189  0.078674317            3 
  237000     1.147727   -3.6746994    214.78408  0.075521829  0.078644981            2 
  238000    1.1676711   -3.6914951    214.28707  0.075030486  0.078617496            2 
  239000     1.167073   -3.6978133    215.44657  0.075120842  0.078587189            3 
  240000     1.165971   -3.6836028    216.01564   0.07500543  0.078553482            1 
  241000    1.1658442   -3.6883558    216.58336  0.074890512  0.078517223            2 
  242000    1.1581016   -3.6851794     217.3259  0.074836744  0.078480011            2 
  243000    1.1463738   -3.7291662    217.08503   0.07444617  0.078442278            3 
  244000    1.1382252   -3.7078117    218.61878  0.074664884  0.078404423            2 
  245000    1.1449766   -3.6848844    219.12388  0.074531933  0.078365386            3 
  246000    1.1682534   -3.6798203    219.91504  0.074496966  0.078321967            3 
  247000    1.1415908   -3.7312765    220.70335  0.074461317  0.078278672            4 
  248000    1.1589345   -3.7035884    221.89928   0.07456293   0.07823583            3 
  249000    1.1583447   -3.7378931    222.52612  0.074473266  0.078195175            4 
  250000    1.1860805   -3.7199443    222.32204  0.074107348  0.078157069            1 
  251000    1.1704074   -3.7321644     223.8791   0.07432905   0.07811504            6 
  252000    1.1510067   -3.7107702    224.88614   0.07436711  0.078077531            2 
  253000    1.1110928   -3.6928812    226.62252    0.0746451    0.0780406            2 
  254000    1.1666739   -3.7015189    227.62518  0.074680176  0.078004669            2 
  255000    1.1653367   -3.7244882    227.08513  0.074210827  0.077967223            6 
  256000    1.1163694   -3.6788502    229.97022  0.074860096   0.07793104            3 
  257000    1.1562024   -3.7349524    228.31879   0.07403333  0.077892874            3 
  258000     1.136631   -3.6981606    230.34773  0.074401722  0.077858332            2 
  259000    1.1674041   -3.7142885    232.41569  0.074779824  0.077825409            1 
  260000    1.1564395   -3.7282284    232.74663  0.074598277  0.077790832            2 
  261000    1.1454492   -3.7000907    234.05835  0.074731275  0.077756708            3 
  262000    1.1216735   -3.7411402    234.39347  0.074552631  0.077724819            2 
  263000    1.1585957   -3.7490413    234.52375   0.07431044  0.077693743            2 
  264000    1.1509357   -3.6986605    237.23852  0.074885897  0.077664377            1 
  265000    1.1350436   -3.7112673    237.83576  0.074791119  0.077636947            3 
  266000    1.1435849   -3.7209718    237.98967  0.074558168   0.07760816            2 
  267000    1.1689496   -3.6975788    239.63807  0.074793406  0.077579974            1 
  268000    1.1527859   -3.7218854    239.54717   0.07448606  0.077550439            3 
  269000    1.1409298   -3.6994197    240.35531  0.074459515  0.077519938            2 
  270000    1.1564453   -3.7206117    241.05531  0.074399788  0.077488662            2 
  271000    1.1079848    -3.700622     242.9549   0.07470938  0.077459384            2 
  272000    1.1481854   -3.7181029    242.18553  0.074198999  0.077427336            4 
  273000    1.1212359   -3.6995153    243.93765  0.074462042  0.077398078            3 
  274000      1.17077   -3.6751752    244.77335  0.074444448  0.077365064            2 
  275000    1.1408056   -3.7235337    245.14465  0.074286259  0.077335957            2 
  276000    1.1132239    -3.725167    245.56858  0.074145104  0.077306006            2 
  277000    1.1608693   -3.7197879    246.45442   0.07414393  0.077273238            4 
  278000    1.1728996   -3.7080542    247.68119   0.07424496  0.077240918            1 
  279000    1.1440478   -3.7182723    248.76263  0.074301861  0.077210418            1 
  280000    1.1249302   -3.6890732    251.60883   0.07488358  0.077185462            1 
  281000     1.151386   -3.7485959    251.17684   0.07448898  0.077161801            3 
  282000    1.1427241    -3.732409    252.38519  0.074581912  0.077137309            4 
  283000    1.1599049   -3.7693592     252.2729  0.074285305  0.077111097            3 
  284000    1.1186296   -3.7328669    253.96267  0.074519562  0.077086201            2 
  285000    1.1979162    -3.705975    254.65482  0.074460474  0.077058685            1 
  286000    1.1544754    -3.737158    255.21561  0.074363522  0.077032136            2 
  287000    1.1432669   -3.7236751    255.32563   0.07413636  0.077001771            1 
  288000    1.1497791     -3.70347    257.10265  0.074393127  0.076973979            2 
  289000    1.1291582   -3.7325043    258.55087  0.074553306  0.076947418            4 
  290000    1.1547611   -3.7479972    257.42891  0.073973825  0.076917151            1 
  291000    1.1464481    -3.743047    258.90875  0.074143399  0.076887828            2 
  292000    1.1448719   -3.7293921    260.87597  0.074450904  0.076862648            1 
  293000    1.1316533    -3.737392    261.23561  0.074299092  0.076836969            2 
  294000    1.1389833   -3.7249399    262.30632  0.074349864  0.076809693            4 
  295000    1.1070646   -3.7431362    262.94807  0.074279116  0.076784341            2 
  296000    1.1162878   -3.7238913    263.80396  0.074269132  0.076756863            2 
  297000     1.128224   -3.7146284    262.67891  0.073703397  0.076727598            6 
  298000    1.1547721   -3.7462177    263.90879  0.073799996  0.076696915            2 
  299000    1.1255894   -3.7407609    265.01403  0.073861212  0.076667665            2 
  300000    1.1651452   -3.7307097    265.11191  0.073642198  0.076637266            1 
  301000    1.1438994    -3.757962    267.10859  0.073950329   0.07660839            3 
  302000    1.1278881   -3.7339341    267.65981  0.073857563  0.076578262            5 
  303000    1.1329687   -3.7363933    268.76738  0.073918421  0.076546922            3 
  304000    1.1480568   -3.7212905    270.28117  0.074090233  0.076515322            3 
  305000    1.1197517   -3.7338612    270.60067  0.073934608  0.076484181            4 
  306000    1.1299538   -3.7219524    271.78448   0.07401538  0.076452885            1 
  307000    1.1233123    -3.732826    271.20392    0.0736167  0.076423356            2 
  308000    1.1363571     -3.74039    273.75115   0.07406687  0.076390428            1 
  309000    1.1583169   -3.7293592    274.14994  0.073934719  0.076360732            2 
  310000    1.1521089   -3.7153926    276.38602  0.074297318  0.076334103            1 
  311000    1.1169189    -3.732028    276.33854  0.074045696   0.07630776            3 
  312000    1.1385593   -3.7679867    276.45185  0.073838634  0.076282967            3 
  313000    1.1227154   -3.7553752    277.03134  0.073757012  0.076258139            1 
  314000    1.1366498   -3.7323707    278.69637  0.073964005  0.076233027            2 
  315000    1.1492979   -3.7985844    278.27344  0.073617312  0.076208766            1 
  316000    1.1375316   -3.7802338    279.33816  0.073665127  0.076181526            2 
  317000     1.136646   -3.7345578     281.3917  0.073972582  0.076154701            2 
  318000    1.1014297   -3.7246661    283.18746   0.07421055   0.07613074            2 
  319000     1.127097   -3.7404304    282.68029  0.073845425  0.076107987            1 
  320000    1.1264788   -3.7413475     283.4009  0.073802318  0.076080312            2 
  321000    1.1371308   -3.7552011    283.86973  0.073694114  0.076052387            1 
  322000    1.1198912   -3.7431573    285.48925  0.073884382  0.076025857            2 
  323000    1.1297821   -3.7415056    285.36261  0.073622965  0.076001898            2 
  324000    1.1454968   -3.7567096    286.30164  0.073637252  0.075977265            1 
  325000    1.1161808   -3.7390746    286.94565  0.073575807  0.075954296            2 
  326000    1.1279255   -3.7263761    288.87536  0.073843395  0.075930031            2 
  327000    1.1370689   -3.7652809     289.0716  0.073667584  0.075905037            2 
  328000    1.1201359   -3.7202508     290.9942  0.073931452  0.075883079            2 
  329000    1.1027199   -3.7520243    290.87102  0.073675538  0.075859854            3 
  330000     1.123737   -3.7726049    292.40169   0.07383881  0.075837736            2 
  331000    1.1353974   -3.7512986    293.81271  0.073970975  0.075815486            2 
  332000    1.1286109   -3.7356083    293.56054  0.073684875  0.075791376            3 
  333000    1.1213189   -3.7354588    295.57556  0.073967857  0.075768415            3 
  334000    1.1341667    -3.768363     294.1328  0.073386428  0.075743514            2 
  335000    1.1332937   -3.7801467    294.94336  0.073368994   0.07571765            2 
  336000    1.0775695   -3.7349431    297.15341  0.073698763  0.075692275            2 
  337000    1.1159596    -3.736602    298.33318  0.073771805  0.075668052            4 
  338000    1.1166147   -3.7372521    299.02596   0.07372435  0.075646815            4 
  339000     1.126295    -3.777831    299.87836   0.07371641  0.075621031            6 
  340000     1.131504    -3.764678    300.60339  0.073677302  0.075596068            2 
  341000    1.1184111   -3.7748618    301.82747  0.073760379  0.075571523            4 
  342000    1.1159653   -3.7210457    301.90265  0.073563023  0.075546725            2 
  343000    1.1208628   -3.7651835    302.75092  0.073554645  0.075523979            1 
  344000     1.123261   -3.7632897    302.93465  0.073385332  0.075499652            2 
  345000    1.0994147   -3.7414853    303.38513  0.073281431  0.075472412            1 
  346000    1.0990885   -3.7508857    304.27226  0.073283299  0.075444989            3 
  347000    1.1330285   -3.7602098    304.07901  0.073025699  0.075416837            4 
  348000    1.0957882   -3.7362182    305.56383  0.073171416  0.075387953            6 
  349000    1.1078982   -3.7761323    306.41356  0.073164652  0.075362372            6 
  350000    1.1072376   -3.7640002     308.7764  0.073518191  0.075338559            4 
  351000    1.1010884   -3.7677649    308.86384  0.073329496   0.07531374            3 
  352000    1.1118271   -3.7689735    308.98052  0.073148798  0.075285784            1 
  353000    1.1138322   -3.7483666    311.00839    0.0734203  0.075259412            1 
  354000    1.1091289   -3.7513783    309.78038  0.072923819  0.075229961            1 
  355000    1.1186097   -3.7854635    309.78147  0.072718654  0.075203034            3 
  356000    1.1044759   -3.7619481    312.15751  0.073070578  0.075176609            1 
  357000    1.0897189   -3.7813649    312.13513  0.072860675  0.075148569            1 
  358000     1.115371   -3.7590355    313.93171  0.073075351  0.075121218            3 
  359000    1.0931582   -3.7570368    314.63544  0.073035153   0.07509465            2 
  360000    1.1205163   -3.7419878    316.19485  0.073193251  0.075068189            2 
  361000    1.1038466   -3.7720842    315.07728   0.07273252  0.075043592            2 
  362000    1.1070862   -3.7565952    315.81648  0.072701767  0.075015313            5 
  363000    1.0992692   -3.8016753    317.27562   0.07283646  0.074987816            2 
  364000    1.1167275   -3.7663668    319.73902  0.073200326  0.074963236            3 
  365000    1.1167287   -3.7686777    319.20332  0.072877471  0.074940119            4 
  366000    1.0989665   -3.7756389    320.79146  0.073039949  0.074917384            2 
  367000    1.1150134   -3.7900306    321.20059   0.07293383  0.074896317            2 
  368000    1.1273284    -3.753635    323.04858  0.073154117  0.074874882            2 
  369000    1.1056434   -3.7840571    323.87157  0.073141727  0.074853417            2 
  370000     1.120036   -3.7731112    324.53776  0.073094089  0.074832857            5 
  371000     1.102662   -3.7723816    325.35821  0.073081359  0.074812206            4 
  372000    1.1094444   -3.7518967    326.85515  0.073220241  0.074791022            4 
  373000      1.11571   -3.7557088    328.02499  0.073285296  0.074771144            4 
  374000    1.0886658   -3.7750184    329.71152  0.073465133   0.07475147            2 
  375000    1.1098458   -3.7771394    331.23837  0.073608526  0.074733369            2 
  376000    1.1108761   -3.7896065    331.37721   0.07344353  0.074715614            2 
  377000     1.092582   -3.7985775    331.51589  0.073279375  0.074699913            3 
  378000    1.1071266   -3.7840697    333.23783  0.073465131  0.074683418            3 
  379000    1.1062903   -3.7623465    333.64318  0.073360417  0.074663741            2 
  380000    1.1176863    -3.774502    333.01594  0.073029812  0.074644969            4 
  381000    1.0959045   -3.7613967    334.32287  0.073123987  0.074624851            1 
  382000    1.1146345   -3.8020874    332.87874  0.072617527  0.074603843            4 
  383000    1.0821673   -3.8064996    336.88348  0.073299277  0.074584262            3 
  384000    1.0968366   -3.8011903    336.99246  0.073132045  0.074564443            1 
  385000    1.0992968   -3.7878302     336.3145  0.072795347    0.0745449            2 
  386000    1.0807994   -3.7815998    338.09798  0.072991793  0.074525677            2 
  387000    1.0956035   -3.7710641    339.95695  0.073203477    0.0745072            2 
  388000    1.1327073   -3.7421122    340.03787  0.073032189  0.074488428            2 
  389000     1.084744   -3.7856816    339.68083  0.072767958  0.074468647            3 
  390000    1.1113067    -3.785694    342.93493  0.073276693  0.074448689            1 
  391000    1.0980569   -3.7594218    342.48074  0.072992485  0.074431106            4 
  392000    1.0931557   -3.8023428    344.59056  0.073254795   0.07441373            2 
  393000    1.1074561   -3.8034937    344.07251  0.072958548   0.07439508            3 
  394000     1.092063    -3.764666    344.97709  0.072964697  0.074376167            2 
  395000    1.0850558   -3.7900047    346.46003  0.073092833  0.074355655            2 
  396000    1.1022254   -3.7775794    345.74284  0.072757331  0.074333294            3 
  397000    1.1031596   -3.7669251    348.85557  0.073227449   0.07431145            1 
  398000    1.0984103   -3.7969316    346.19178  0.072485717  0.074290308            2 
  399000    1.1025992   -3.7908712    347.06418  0.072486253  0.074267719            4 
  400000    1.1189805   -3.7796629    348.87214  0.072681696   0.07424375            2 
  401000    1.1065717   -3.7692989    347.57637  0.072231165  0.074219922            2 
  402000    1.0805516   -3.8353716     347.8637  0.072111049  0.074192513            4 
  403000    1.1173784   -3.7912343    349.79503  0.072331479  0.074164275            2 
  404000    1.1021893   -3.7842501    350.97263  0.072395345  0.074137991            5 
  405000    1.0864631   -3.7795492    351.24366  0.072272357  0.074111997            2 
  406000    1.0590187   -3.7935466    350.13315  0.071866411  0.074085397            5 
  407000    1.0758619    -3.787081    352.21698  0.072116499  0.074056957            2 
  408000    1.0934762   -3.7770225    351.66631   0.07182727  0.074028804            4 
  409000    1.0728882   -3.8082722    352.07724   0.07173538  0.073999407            2 
  410000    1.1127987   -3.7983561    353.38205  0.071825619  0.073968312            5 
  411000    1.0905577   -3.7995017    355.27437  0.072034543  0.073938239            2 
  412000    1.0976864    -3.801382    354.17022  0.071636371  0.073905976            1 
  413000     1.099583   -3.8440209    354.31418  0.071491966  0.073872979            3 
  414000     1.056893    -3.798817    355.02255  0.071461866  0.073839853            2 
  415000     1.084108   -3.7973076     356.2462  0.071535382  0.073805488            2 
  416000     1.067755   -3.8124243    356.30828  0.071375858  0.073770848            4 
  417000    1.0652633   -3.7896669    356.77018  0.071296999  0.073736711            4 
  418000    1.0807127   -3.8244082    356.66278   0.07110502  0.073701746            3 
  419000    1.0925265   -3.7952324    357.21579  0.071045305  0.073666136            2 
  420000    1.0922402    -3.848464    357.58384  0.070949174  0.073629203            2 
  421000    1.0756572   -3.8186775    359.35221  0.071130684  0.073590123            3 
  422000     1.064478   -3.8078926    360.05096   0.07110011  0.073552004            4 
  423000    1.0843177   -3.8422862    359.75755  0.070874222  0.073511475            2 
  424000    1.0759352   -3.8021751     360.0853  0.070771483  0.073472684            3 
  425000    1.0940625   -3.7911391    362.16461  0.071012669  0.073434022            2 
  426000    1.0965223   -3.7709967    361.56519  0.070728714  0.073395021            1 
  427000    1.0427044   -3.7902861    362.74489  0.070793303  0.073356289            2 
  428000    1.0695296   -3.8108346    364.34246  0.070938953  0.073316885            2 
  429000    1.0956577   -3.8330067    365.19584  0.070939363  0.073277556            2 
  430000    1.0777482   -3.8371585    364.17541   0.07057663   0.07323753            1 
  431000    1.0598955   -3.8065113    366.10631  0.070786217  0.073197504            2 
  432000      1.08726   -3.8061252    366.61554   0.07072059  0.073158265            3 
  433000    1.1082765   -3.8153146    367.73397  0.070772512  0.073120617            3 
  434000    1.1149973   -3.8382594    368.68688  0.070792411  0.073083045            4 
  435000    1.1030039   -3.8344786    368.97227  0.070684343  0.073045204            1 
  436000    1.0693844   -3.8188318    370.10785  0.070739267  0.073009397            3 
  437000    1.0710506   -3.8087286    371.76913   0.07089419  0.072973587            2 
  438000    1.0879031   -3.8375645    371.49467  0.070680112  0.072939118            6 
  439000    1.0808093   -3.8313003    373.35368  0.070871997  0.072904492            1 
  440000    1.0537721   -3.8030497    373.76537  0.070788895  0.072872507            7 
  441000    1.0849181   -3.8154062    374.30172  0.070729727  0.072838668            2 
  442000    1.0708327   -3.8204497    375.02856  0.070706743  0.072804398            3 
  443000    1.0678586   -3.8346136    374.43335  0.070435167  0.072770892            3 
  444000    1.0801682   -3.7958125    377.28272   0.07081132  0.072738563            3 
  445000    1.0652859   -3.8068551    378.75743  0.070928358  0.072707425            3 
  446000    1.0604165   -3.7906921    378.57328  0.070734917  0.072675214            3 
  447000    1.0914835   -3.8064546    379.19316  0.070692238  0.072644427            1 
  448000    1.0478087   -3.8125476    379.54293  0.070599503  0.072613025            3 
  449000    1.0849314   -3.8268425    381.89727  0.070879225  0.072580292            2 
  450000    1.0727995   -3.8351215    381.28018  0.070607441  0.072548436            2 
  451000       1.0725   -3.8326474    380.86704  0.070374545  0.072515568            7 
  452000    1.0735332   -3.8241913    382.52258  0.070524075  0.072481224            2 
  453000    1.0777786   -3.8205583    383.17144  0.070487755  0.072447937            4 
  454000    1.0838466   -3.8168234    382.53504  0.070215684  0.072414267            1 
  455000    1.0729764   -3.8037028    385.45049  0.070595327  0.072381547            2 
  456000    1.0799518   -3.8310788    385.55658  0.070459902  0.072348913            2 
  457000    1.0528595   -3.8521098    386.15729  0.070415262  0.072314778            2 
  458000     1.071288   -3.8213298    386.99768  0.070414424  0.072281349            2 
  459000    1.0606412   -3.7696115    387.67567  0.070384109  0.072248887            3 
  460000    1.0838866   -3.8487316    385.87688  0.069905232  0.072215006            1 
  461000    1.0660791   -3.8413942    387.81871  0.070104612  0.072179537            2 
  462000    1.0564969   -3.8498048     389.2556  0.070212049  0.072144782            2 
  463000    1.0732378   -3.8378819    387.88737  0.069814142  0.072110683            1 
  464000    1.0485899   -3.8327986    389.83619  0.070013684  0.072075602            2 
  465000    1.0760628   -3.8268034    390.55169  0.069991342  0.072042265            3 
  466000    1.0678888   -3.8218309     390.6972  0.069867167  0.072006826            4 
  467000    1.0757113   -3.8348033    391.76153  0.069907482  0.071972037            1 
  468000    1.0906359   -3.8378706    392.30444   0.06985478  0.071936234            2 
  469000    1.0610584   -3.8499429    393.87376  0.069984676  0.071901718            1 
  470000    1.0745378   -3.8615873    391.92233  0.069489774  0.071866526            2 
  471000    1.0784284   -3.8525701     395.4095  0.069959217  0.071831735            3 
  472000    1.0661996   -3.8512176    393.68057   0.06950575  0.071796768            4 
  473000    1.0695696   -3.8327702    395.90639   0.06975095  0.071763953            6 
  474000    1.0660295   -3.8513925    396.93896   0.06978533  0.071730534            1 
  475000    1.0730536   -3.8576849    398.39363  0.069893619  0.071698199            2 
  476000    1.0626402   -3.8228095    399.94453    0.0700183  0.071667159            3 
  477000    1.0509116   -3.8220434    400.14336  0.069906248   0.07163369            1 
  478000    1.0521731   -3.8516168    399.36689  0.069624632  0.071601691            3 
  479000    1.0593656   -3.8542202    400.64336  0.069701349  0.071568833            4 
  480000    1.0622464    -3.838836    402.63521  0.069901946  0.071534633            4 
  481000    1.0572476   -3.8514779    401.92238  0.069633122  0.071501277            3 
  482000    1.0465151   -3.8830096    401.89543  0.069483995  0.071468014            3 
  483000     1.084208   -3.8649073    403.55845  0.069627062  0.071436301            1 
  484000    1.0374883   -3.8539496    405.24859  0.069774206  0.071403698            2 
  485000    1.0858013   -3.8219743     405.8754  0.069738042  0.071371423            4 
  486000    1.0692803   -3.8248651    406.85727  0.069762906  0.071339494            2 
  487000    1.0951137   -3.8194564    406.91223  0.069629061  0.071306804            4 
  488000    1.0445287   -3.8977124    405.74337  0.069286777  0.071273693            3 
  489000    1.0631386   -3.8551556    407.05513  0.069368632  0.071240848            1 
  490000    1.0436247   -3.8456477    408.84511  0.069531481  0.071206154            3 
  491000    1.0632714   -3.8316912    408.48024  0.069327943  0.071172601            2 
  492000    1.0753371   -3.8644094    409.69629  0.069393002  0.071140562            1 
  493000    1.0519561   -3.8733291    411.03547  0.069478613  0.071108333            3 
  494000    1.0660432   -3.8549123    410.32017  0.069217302  0.071075737            4 
  495000     1.062322   -3.8471989    412.01373  0.069362582  0.071043877            5 
  496000    1.0767898   -3.8546559    412.05517  0.069229699  0.071011796            2 
  497000    1.0704434   -3.8803582    412.53748  0.069171275  0.070978331            1 
  498000    1.0704131   -3.8676723    414.69369  0.069393187  0.070946039            2 
  499000    1.0782257   -3.8553971    415.38485  0.069369548  0.070914703            2 
  500000      1.05046   -3.8221149    416.82631  0.069471051  0.070882193            4 
  501000    1.0427649   -3.8354922    416.39745  0.069261052  0.070849448            2 
  502000    1.0436775   -3.8339322    417.39525  0.069288719  0.070816675            4 
  503000    1.0686809   -3.8549947    417.37676  0.069147905  0.070784739            1 
  504000    1.0611678   -3.8572133    417.01087  0.068950209  0.070752428            4 
  505000    1.0491824    -3.855586    418.51244  0.069061459  0.070719446            3 
  506000    1.0326002    -3.853481    418.06414  0.068851143  0.070685828            3 
  507000    1.0264845    -3.849644    418.69152  0.068818461  0.070651861            2 
  508000    1.0269117    -3.851178    419.27331   0.06877843  0.070616792            2 
  509000    1.0681554   -3.8887028     420.5088  0.068845579  0.070582334            2 
  510000    1.0410378   -3.8865916    423.05322  0.069126343  0.070549411            4 
  511000     1.060669   -3.8935586    421.65233   0.06876261  0.070515611            1 
  512000    1.0465458    -3.898158    422.19654  0.068716885  0.070483193            3 
  513000    1.0510686   -3.8624016    423.37261  0.068773978   0.07045065            2 
  514000     1.039311   -3.8998269    423.69148  0.068691875  0.070418985            2 
  515000     1.049186   -3.8509304    424.41836   0.06867611  0.070385935            2 
  516000    1.0700785   -3.8396292    427.22233  0.068995854  0.070355763            2 
  517000    1.0523732   -3.8781979    426.87937   0.06880712  0.070326541            6 
  518000     1.045093   -3.8769208    427.70155  0.068806555    0.0702968            2 
  519000    1.0544482   -3.8927733    429.54811  0.068970474  0.070267905            2 
  520000    1.0326223   -3.8422065    428.86301  0.068728046  0.070237229            5 
  521000    1.0449708   -3.8607814    429.70496  0.068730799  0.070208557            1 
  522000    1.0517684   -3.8807885    429.83782  0.068620341  0.070178973            5 
  523000    1.0418921    -3.861133    433.66971  0.069099699  0.070149169            3 
  524000    1.0637138   -3.8747883    431.24308  0.068581914  0.070119202            1 
  525000    1.0365508   -3.8535583    431.81803  0.068542544   0.07008899            2 
  526000    1.0753886   -3.8697724    433.11007  0.068616931  0.070059612            7 
  527000    1.0285693   -3.8921784    432.80534  0.068438542  0.070029185            5 
  528000    1.0357481   -3.8584626    435.71966  0.068768886  0.070000274            2 
  529000    1.0435803   -3.8492789    435.22243  0.068560559   0.06997068            4 
  530000    1.0480402   -3.8600952    435.06642  0.068406669  0.069941398            4 
  531000    1.0405897   -3.8671803    436.92086  0.068568874  0.069911255            3 
  532000    1.0290892   -3.9011332    435.51026  0.068219026  0.069881336            2 
  533000    1.0294549   -3.8918463    437.51386  0.068404294  0.069851017            4 
  534000    1.0259373   -3.8881574     439.9159  0.068651045  0.069822153            2 
  535000     1.054166   -3.8952852    438.54656  0.068309432  0.069792071            2 
  536000    1.0260237   -3.8821739    438.66299  0.068200092  0.069761163            4 
  537000    1.0252273   -3.8633599    441.25175  0.068474821  0.069730599            2 
  538000    1.0424809   -3.8552391    439.87022  0.068133553  0.069699076            2 
  539000    1.0574927   -3.8691683    441.19799  0.068212429  0.069667794            1 
  540000    1.0326532   -3.8849945    441.67568  0.068159828  0.069635631            3 
  541000    1.0231643   -3.8565137     441.5767  0.068018593  0.069603751            2 
  542000    1.0478844   -3.8789721    442.42736  0.068023886  0.069570796            3 
  543000    1.0295858   -3.8761808     444.2866  0.068183948  0.069538859            3 
  544000    1.0255036   -3.8951981    443.06294  0.067871161  0.069505872            2 
  545000    1.0359968   -3.9098978    443.06892  0.067747542  0.069472325            6 
  546000     1.024362   -3.8886193    444.20728  0.067797203  0.069438003            3 
  547000    1.0403048   -3.8716262    443.18563  0.067517616  0.069403614            2 
  548000    1.0324377   -3.8566325    446.89004  0.067957731   0.06937038            2 
  549000    1.0582895    -3.871636    448.02835  0.068006732  0.069337809            4 
  550000     1.030743   -3.8953462    447.45978  0.067796937  0.069303899            2 
  551000     1.030908   -3.8724143    449.09641  0.067921417  0.069270824            4 
  552000    1.0217157    -3.871735    449.34924   0.06783654  0.069237725            3 
  553000    1.0484767   -3.8867912    448.71044  0.067617606  0.069205401            1 
  554000    1.0235371   -3.8667418    450.06532  0.067699357  0.069173563            4 
  555000    1.0434787    -3.887064    448.76138  0.067381588  0.069142389            3 
  556000    1.0488585   -3.8960884    452.66261  0.067845116  0.069110478            2 
  557000     1.024218   -3.9441888    449.57942  0.067262032  0.069077239            5 
  558000    1.0206462   -3.8658391     452.9493  0.067644758  0.069045919            1 
  559000     1.014859   -3.9071316     453.9797  0.067677356  0.069013439            2 
  560000    1.0163287   -3.8932693    454.39538   0.06761836  0.068981288            2 
  561000    1.0409913   -3.9162397    454.75115  0.067550676  0.068948042            2 
  562000    1.0244304   -3.9146243    453.98065   0.06731623  0.068915791            2 
  563000    1.0360601   -3.9050055    456.01378  0.067497599  0.068882822            2 
  564000    1.0449212   -3.9003759    454.63018   0.06717349  0.068849297            3 
  565000    1.0365848   -3.8749572     455.5979  0.067197331  0.068816549            3 
  566000    1.0313706   -3.9008905    456.74029  0.067246804  0.068782977            2 
  567000    1.0195957   -3.8776384    457.69945  0.067269173  0.068751148            3 
  568000    1.0385272   -3.8776046    459.62426  0.067433137  0.068719162            2 
  569000    1.0436523   -3.8899663    459.52801  0.067300528   0.06868645            6 
  570000    1.0173026   -3.8981336    460.67624  0.067350327  0.068654149            2 
  571000     1.013981    -3.920408    460.25095  0.067170307   0.06862224            3 
  572000   0.99655873   -3.8846101    460.39831  0.067074345  0.068588946            2 
  573000    1.0167928   -3.8968695    462.56994  0.067273115  0.068556037            2 
  574000     1.012345    -3.924064    461.67838  0.067026477   0.06852404            4 
  575000    1.0111638   -3.8873591    462.43706  0.067019864  0.068491647            2 
  576000    1.0371842   -3.9189221    461.73379  0.066801764  0.068458969            3 
  577000    1.0209034   -3.9163537    464.01429  0.067015351  0.068425898            4 
  578000    1.0351749   -3.9015516    462.82987  0.066728644   0.06839267            2 
  579000     1.021335     -3.91308     464.9162  0.066913674   0.06836061            3 
  580000    1.0212045   -3.8681122    464.67007   0.06676294  0.068327496            3 
  581000    1.0357745   -3.9079945    466.58239  0.066922317  0.068295317            4 
  582000    1.0194886   -3.9289329    467.48949  0.066937212  0.068262599            2 
  583000    1.0214301   -3.9064777    467.57035  0.066833956  0.068229965            2 
  584000    1.0214599   -3.9214337    467.37383  0.066691471  0.068198753            3 
  585000    1.0196006   -3.9037749    468.91519  0.066797035  0.068167718            2 
  586000    1.0099554   -3.9313369    470.87244  0.066961383  0.068136242            3 
  587000    1.0186712   -3.9019199    470.08364  0.066735326   0.06810491            4 
  588000    1.0090775    -3.918124    470.02938  0.066614141  0.068071599            5 
  589000    1.0132833   -3.9215647    468.83341  0.066331835  0.068039358            3 
  590000    1.0208217   -3.9252574    470.16274  0.066407167  0.068007249            2 
  591000    1.0316425    -3.936292    474.31275   0.06687997  0.067974681            4 
  592000    1.0069074   -3.9192362    473.16668   0.06660567  0.067942577            5 
  593000    1.0421695   -3.8997573     474.4588  0.066674929   0.06791117            1 
  594000       1.0223   -3.9268331    475.76013  0.066745248  0.067880027            7 
  595000    1.0158491   -3.9277771    472.78001  0.066215688  0.067848003            3 
  596000    1.0043423   -3.8856651    477.36953  0.066746299  0.067816793            5 
  597000    1.0185837   -3.9146271    478.10937  0.066737768   0.06778659            4 
  598000   0.98407887   -3.9375495    476.84554  0.066450047  0.067755864            2 
  599000   0.99722025   -3.9150736    478.95308  0.066632315    0.0677261            1 
  600000    1.0104822   -3.9399369    480.85297  0.066785135  0.067696592            1 
  601000    1.0026941    -3.920973    480.60755  0.066639982  0.067666537            2 
  602000    1.0048541   -3.9181171    479.41417  0.066364088  0.067636232            2 
  603000    1.0120354   -3.9035005    479.35149  0.066245369  0.067605507            2 
  604000     1.031073   -3.9267927    480.31942  0.066269235  0.067574573            2 
  605000    1.0080399   -3.9202686    481.04664  0.066259868  0.067545098            3 
  606000   0.98863642   -3.9022074    484.82601  0.066670243  0.067515027            3 
  607000    1.0348677   -3.9298773    483.08545   0.06632145  0.067485153            5 
  608000    1.0165485   -3.9015282    484.99623  0.066474264  0.067455778            4 
  609000     1.017475   -3.9234936    483.42488  0.066150093  0.067425613            2 
  610000    1.0031823   -3.9387407    483.43836  0.066043492  0.067395493            4 
  611000   0.99993976   -3.9201287    484.04431  0.066018046  0.067364196            4 
  612000    1.0038605     -3.94878    485.27887  0.066078278  0.067332131            2 
  613000   0.99917793   -3.9257421    484.53183  0.065868927  0.067300213            2 
  614000   0.99271604   -3.9213316    488.65354  0.066321056  0.067268722            2 
  615000    1.0020479   -3.9022971    487.78763  0.066095884  0.067236694            2 
  616000   0.99487433   -3.9180049    487.25611  0.065916682  0.067204819            2 
  617000    1.0059846   -3.9190475    486.90551  0.065762494  0.067171956            5 
  618000    1.0312167   -3.9370166    485.94348   0.06552636  0.067138916            5 
  619000    1.0058147   -3.9365075     489.4415  0.065891425    0.0671061            3 
  620000   0.98563614   -3.9214568    490.17683  0.065883983  0.067073963            4 
  621000    1.0244864   -3.9457114    488.09839  0.065498979  0.067040798            2 
  622000    1.0069424   -3.9357715    490.70226  0.065742533  0.067007949            3 
  623000   0.99629222   -3.9545276    490.85067  0.065656858  0.066975469            3 
  624000    1.0183727   -3.9586889     491.0737  0.065581424  0.066943513            4 
  625000    1.0057029   -3.8945344    491.97642  0.065596856  0.066911449            5 
  626000    1.0000635    -3.940212    491.68083   0.06545272  0.066879939            1 
  627000    1.0021393   -3.9096956    494.53729  0.065727976  0.066848756            1 
  628000    1.0002289    -3.931325    495.22248  0.065714235  0.066817499            6 
  629000    1.0105499   -3.9225763    496.87271  0.065828393  0.066787257            3 
  630000   0.98941902   -3.9433584    495.99277   0.06560751  0.066756612            4 
  631000     1.025183   -3.9556038    496.31815  0.065546506  0.066726896            4 
  632000   0.98377689   -3.9333675    497.06274  0.065540973  0.066697091            2 
  633000    1.0360624   -3.9679712    495.53404  0.065236182  0.066665995            4 
  634000     1.018329   -3.9541166    497.67211  0.065414315  0.066634702            2 
  635000   0.99659077   -3.9481219    495.72807  0.065056177  0.066604338            1 
  636000    1.0115838   -3.9458418    499.30867  0.065423044  0.066573018            4 
  637000   0.98045478   -3.9616265    499.71554  0.065373566  0.066542483            2 
  638000    1.0054966    -3.923879    502.31256  0.065610314  0.066512866            2 
  639000    0.9996633   -3.9403368    502.00315  0.065467286  0.066482948            3 
  640000   0.99848071   -3.9552248    502.52719  0.065433227  0.066452369            3 
  641000    0.9874023   -3.9230497    503.76159  0.065491626   0.06642215            2 
  642000   0.99766221   -3.9729533    503.47174  0.065351991  0.066391069            4 
  643000    1.0021425   -3.9389701    504.56252  0.065391721  0.066361044            2 
  644000    1.0101164   -3.9439501    503.99478  0.065216716  0.066331669            2 
  645000   0.97690503   -3.9370795    505.33558  0.065288835  0.066301935            3 
  646000   0.97495013   -3.9534272    505.52604  0.065212338  0.066272133            2 
  647000    1.0142671    -3.964594    504.09035   0.06492663  0.066240351            2 
  648000   0.98466659   -3.9247344    504.05118  0.064821396   0.06620876            3 
  649000    0.9921958   -3.9234802    506.64388  0.065054427  0.066176762            2 
  650000   0.96914098   -3.9523656    504.70221  0.064705412  0.066145318            3 
  651000    1.0140764   -3.9458653    506.67231  0.064858207  0.066113522            2 
  652000    1.0018549   -3.9561397    506.01903  0.064675233  0.066081114            3 
  653000   0.99295832   -3.9165118    508.78428  0.064929082  0.066049046            2 
  654000    1.0062333   -3.9436855    509.45381  0.064915114  0.066016898            3 
  655000    1.0229245   -3.9897582     506.2767  0.064411793  0.065984935            2 
  656000   0.99363677   -3.9147888    510.39794  0.064837136  0.065951946            2 
  657000    1.0105399   -3.9440495    508.79567  0.064535219  0.065919636            2 
  658000   0.99520096   -3.9258973    511.71774  0.064807212  0.065886945            1 
  659000    0.9712434   -3.9465885    511.87144  0.064728306  0.065855997            2 
  660000   0.99388681   -3.9504463    512.60355   0.06472267  0.065823964            2 
  661000   0.99587057    -3.952757    515.23219  0.064956151  0.065791774            2 
  662000   0.98227607   -3.9339751    514.35914  0.064748129  0.065760499            6 
  663000    1.0090928   -3.9526329    514.60825  0.064681781  0.065729167            4 
  664000    1.0086312    -3.973929    516.06478  0.064767166  0.065697953            2 
  665000   0.99347698    -3.922553    517.21034  0.064813326  0.065666935            3 
  666000   0.98264565   -3.9821287    514.45132  0.064370786  0.065636513            4 
  667000   0.98429988    -3.943363    515.26815   0.06437633  0.065605726            4 
  668000   0.98461769   -3.9386856    518.91524  0.064734935  0.065574646            3 
  669000   0.99155994   -3.9734509      514.996  0.064149975  0.065544011            2 
  670000    0.9957186    -3.976662    518.52778  0.064493505  0.065512783            2 
  671000   0.98224953   -3.9413759    518.69953  0.064418719  0.065482927            4 
  672000    0.9778239   -3.9709874    517.99206  0.064235127    0.0654518            4 
  673000    0.9799228   -3.9383391    521.70964  0.064600005   0.06542161            6 
  674000   0.96981283   -3.9583238    520.66427  0.064374909  0.065391406            1 
  675000   0.98594157   -3.9408458    522.60063  0.064518596  0.065360237            2 
  676000   0.94776575   -3.9595053    519.10457   0.06399218  0.065328059            3 
  677000   0.98473237   -3.9514241    521.89102  0.064240648  0.065296573            3 
  678000   0.97315637   -3.9542639    522.59281  0.064232155  0.065264836            2 
  679000   0.99678749   -3.9782718    521.92205  0.064055235  0.065232485            3 
  680000     0.969448   -3.9878435    523.17891  0.064115062  0.065200159            3 
  681000   0.99434632   -3.9704527    522.87489  0.063983711  0.065167776            1 
  682000   0.98614836   -3.9718189    524.44944  0.064082288  0.065136116            6 
  683000   0.99311035   -3.9455379    524.09021  0.063944632  0.065104126            3 
  684000   0.98914889    -3.945912     525.4027   0.06401105  0.065072711            3 
  685000    1.0041003   -3.9905786    524.75617   0.06383895  0.065040239            3 
  686000   0.96161206   -3.9594968    528.54604  0.064206273  0.065008594            4 
  687000   0.98369474    -3.977869    526.67045  0.063885305  0.064976628            2 
  688000   0.97110699   -3.9972876     526.5842  0.063782001  0.064945487            2 
  689000     0.998092   -3.9726008    527.81401  0.063838172   0.06491304            4 
  690000   0.96572619   -3.9735845    527.86753  0.063752118  0.064882036            4 
  691000   0.96366081   -3.9779303    529.12754  0.063811811  0.064850803            1 
  692000   0.98610683   -3.9766772     530.8573  0.063927902  0.064819656            2 
  693000    0.9571657   -3.9847147    530.29973  0.063768606  0.064788295            3 
  694000   0.95422698   -4.0057609    530.48741  0.063699256  0.064757693            3 
  695000   0.96247041   -4.0098228    533.02175  0.063911481  0.064727721            4 
  696000    0.9676746   -3.9747356      533.086  0.063827347  0.064697881            6 
  697000   0.98902949   -3.9643384    533.11997  0.063739834  0.064667646            2 
  698000   0.95844379   -3.9829711     531.9198  0.063505229  0.064637442            3 
  699000   0.99243898   -3.9860558    533.90937  0.063651569  0.064607818            6 
  700000   0.99329307   -3.9565589    537.05355  0.063934946  0.064578248            3 
  701000   0.96921189   -3.9729491    537.40497  0.063885516  0.064549825            4 
  702000   0.97450246   -3.9677485    537.59885  0.063817528  0.064520459            3 
  703000   0.99525365   -3.9769479    537.18259  0.063677405  0.064491243            2 
  704000   0.97342054   -3.9871556    537.12162  0.063579737  0.064462035            3 
  705000   0.99295149   -3.9639112     539.1225  0.063726064  0.064432489            2 
  706000   0.97282582   -3.9765108     538.8475   0.06360334  0.064403129            3 
  707000    0.9814188   -4.0015184    539.31221  0.063568153  0.064373332            2 
  708000   0.97061148   -3.9804794    538.53405  0.063386776  0.064343904            2 
  709000   0.96933602    -3.974996    540.11808  0.063483554  0.064314057            5 
  710000   0.96178935   -4.0037456    542.33456  0.063654291  0.064284095            2 
  711000   0.99248077   -4.0024335    541.62212  0.063481262  0.064255035            7 
  712000   0.96006339   -3.9912852    542.32259  0.063474086  0.064225846            2 
  713000   0.96677822    -4.011498    543.01676  0.063466194  0.064196153            3 
  714000   0.98493803   -3.9909066    542.82781  0.063355253  0.064167455            5 
  715000   0.94877712   -4.0082927    541.27702    0.0630859  0.064137542            2 
  716000   0.98958031   -4.0003661    541.58621  0.063033777  0.064107162            5 
  717000   0.94522882   -3.9645414    542.71878  0.063077497  0.064075987            2 
  718000   0.98374379    -3.992211    543.66413  0.063099366  0.064045315            4 
  719000   0.97366919    -3.988344    544.82426  0.063146066  0.064014364            5 
  720000   0.95186213    -3.997049    544.69371  0.063043253  0.063982766            3 
  721000   0.95871374   -3.9807117    543.72666  0.062844043  0.063952271            3 
  722000   0.95309768   -3.9836234    545.08157  0.062913385  0.063920915            8 
  723000   0.97280028   -3.9825449    547.91299  0.063152718  0.063889896            3 
  724000    0.9687783   -3.9999174    547.08462  0.062970145  0.063859376            3 
  725000   0.97889346   -3.9946808    544.65245  0.062603729  0.063828169            3 
  726000   0.96752107   -3.9801721    548.15502  0.062919538  0.063796031            7 
  727000   0.92723871   -3.9886096     547.5633  0.062765165  0.063764943            3 
  728000   0.97704556   -3.9911095     549.7193  0.062925744   0.06373449            4 
  729000   0.98373976   -4.0045943    548.57717  0.062708868  0.063703479            4 
  730000   0.96681682   -4.0053856     548.4489  0.062608322  0.063672684            3 
  731000   0.95971333   -3.9824585    552.14851  0.062944427  0.063641731            2 
  732000   0.94476205   -4.0060293    550.82686  0.062707976  0.063610982            3 
  733000   0.96479416    -3.994417    552.30489  0.062790461  0.063580265            3 
  734000   0.94386075   -4.0225057    550.64721  0.062516713   0.06354939            4 
  735000   0.95864899   -4.0195173    552.02132  0.062587452  0.063517977            2 
  736000   0.95816736   -3.9779123    553.76812  0.062700194  0.063487242            7 
  737000   0.95759936   -3.9923526    555.03931  0.062758855  0.063455972            4 
  738000   0.96453212   -3.9886425    553.81409  0.062535467  0.063424817            3 
  739000    0.9476164   -4.0097196    554.61057  0.062540659  0.063393929            4 
  740000   0.96693709   -3.9967671    553.60164  0.062342527  0.063363338            2 
  741000   0.95510865   -4.0187966    554.71074  0.062383124   0.06333235            2 
  742000   0.94178973   -4.0323508     556.3554   0.06248376  0.063300914            2 
  743000    0.9567338   -3.9927869    556.87033  0.062457417  0.063269719            2 
  744000   0.97297391   -3.9998523    557.25159  0.062416173  0.063239242            7 
  745000   0.95895012   -3.9809318    557.62028  0.062373633  0.063208226            7 
  746000   0.94887116   -4.0348407    557.94366  0.062326146  0.063177829            4 
  747000   0.96368891   -4.0250483    558.77406  0.062335348  0.063147583            3 
  748000   0.96057059   -4.0003568    561.60483  0.062567383  0.063118035            2 
  749000   0.94009682   -4.0197772     559.6912  0.062270939  0.063088937            3 
  750000   0.95561748   -4.0151588    561.57092  0.062396768  0.063059022            4 
  751000   0.94942584   -4.0176387    560.67423  0.062214184  0.063029369            3 
  752000   0.95812104   -4.0030923    563.47746  0.062442094  0.062998945            2 
  753000   0.93539541   -3.9865674    563.42228  0.062353064  0.062969395            4 
  754000   0.92260078   -3.9931648    563.80373  0.062312525  0.062940409            2 
  755000   0.93840215    -4.039565    562.52758  0.062089137  0.062911627            3 
  756000   0.95811341   -4.0338387    567.00682  0.062500752  0.062882535            2 
  757000   0.96404195   -4.0322116    564.02113  0.062089512  0.062854083            4 
  758000   0.94830863   -4.0141291    567.42832  0.062382181  0.062825503            2 
  759000   0.94288485   -4.0220697    567.74402  0.062334653  0.062797573            3 
  760000   0.95572093   -4.0148927    567.45848  0.062221325  0.062769864            3 
  761000   0.94566951    -4.069983     565.8769  0.061966371  0.062741193            2 
  762000   0.97562771   -4.0357721    567.41786  0.062053571  0.062712937            1 
  763000   0.95581532   -4.0150465    571.49422  0.062417455  0.062685353            3 
  764000    0.9676549   -4.0175002    571.01511  0.062283498  0.062658337            1 
  765000   0.95864342   -4.0114867    572.09878  0.062320128  0.062631667            8 
  766000   0.94587514   -4.0091147    571.59022  0.062183445  0.062605431            3 
  767000   0.95714428   -4.0070154    573.41271  0.062300382  0.062578871            4 
  768000   0.97668411   -4.0417307    573.28397  0.062205291  0.062552206            3 
  769000   0.95082271   -4.0220968    575.32314  0.062345377  0.062524679            7 
  770000   0.96131802   -4.0298666    574.30661  0.062154394  0.062496931            2 
  771000   0.95376808    -4.068278    572.10842  0.061836189  0.062469885            3 
  772000   0.93536488   -4.0367152    574.21653  0.061983649   0.06244243            4 
  773000    0.9366722   -4.0487385     573.2312   0.06179724  0.062415558            8 
  774000   0.94543836   -3.9892937    574.16867  0.061818332  0.062388179            2 
  775000   0.94740986   -4.0257185    572.55292   0.06156483   0.06236029           10 
  776000   0.92898027   -3.9991311    577.40302  0.062006338  0.062332092            2 
  777000   0.94157966   -4.0381398     575.8791  0.061763095  0.062304336            3 
  778000   0.94458341   -4.0184481    578.38901  0.061952551  0.062277165            4 
  779000   0.93126583   -4.0434774    578.79459  0.061916409  0.062249705            3 
  780000   0.95982793   -4.0246837    579.45382  0.061907459  0.062221798            1 
  781000   0.94577984   -4.0576878    578.35644  0.061711101  0.062194651            4 
  782000   0.95813631   -4.0249136    576.91156  0.061478214  0.062167013            6 
  783000   0.95284209   -4.0581629    580.58941  0.061791124  0.062139863            3 
  784000   0.92456908   -4.0265798     581.4326  0.061801935  0.062112881            3 
  785000   0.95049265   -4.0501676    580.08342  0.061579981  0.062086104            6 
  786000   0.94731736   -4.0126879    581.36006  0.061636987  0.062058465            4 
  787000   0.92528888   -4.0345295    581.60024    0.0615841  0.062030912            3 
  788000   0.96354686   -4.0435718    582.76126  0.061628729  0.062003769            4 
  789000   0.93551908    -4.036052    584.00623  0.061682111  0.061977362            6 
  790000   0.92495346   -4.0406815    583.82116  0.061584511  0.061950916            2 
  791000    0.9242933    -4.045113    585.45129  0.061678392  0.061924396            3 
  792000   0.94284341   -4.0192449    586.09342  0.061668078  0.061898227            2 
  793000   0.92650736    -4.040088    586.86974  0.061671894  0.061872591            2 
  794000   0.94741506    -4.053108    585.57413  0.061458242  0.061846595            3 
  795000   0.93155154   -4.0757556     584.7005  0.061289361  0.061820245            8 
  796000   0.93579991   -4.0349702    587.51861  0.061507392  0.061793141            5 
  797000   0.94515066   -3.9918571    587.16808  0.061393567  0.061767115            1 
  798000   0.93711783   -4.0469746    588.32171  0.061437104  0.061740714            2 
  799000   0.93814077   -4.0815571    587.91575  0.061317871  0.061714194            4 
  800000   0.92755611    -4.076211    589.76264  0.061433608  0.061687485            3 
  801000   0.93659098    -4.084022     588.8765  0.061264721  0.061661262            2 
  802000   0.92444489   -4.0220294    590.66555  0.061374226  0.061634817            5 
  803000   0.94207687   -4.0063609    595.10107  0.061758102   0.06160912            5 
  804000   0.94194572   -4.0283759    593.91028  0.061557864  0.061584113            2 
  805000   0.92172335    -4.052236     591.5965  0.061241874  0.061558717            4 
  806000   0.92516202   -4.0521574    596.35092  0.061657457  0.061533384            3 
  807000   0.94425657   -4.0556379    593.36842  0.061273071  0.061507782            4 
  808000   0.92856997   -4.0660382    594.13863  0.061276673  0.061482788            4 
  809000   0.92124989   -4.0333045    595.86594  0.061378857  0.061457756            2 
  810000   0.92385521   -4.0510601    595.13732  0.061228119  0.061432845            6 
  811000   0.93588688    -4.064249    594.24866  0.061061309  0.061407545            3 
  812000    0.9267284    -4.061013    596.38672  0.061205534  0.061381687            4 
  813000   0.91533125    -4.057154    598.38993  0.061335581  0.061356078            6 
  814000   0.92905884   -4.0307529    598.57953  0.061279641  0.061330653            3 
  815000   0.92218975   -4.0490715    597.20898  0.061064313  0.061305911            6 
  816000   0.94088077   -4.0620328    598.16899   0.06108752  0.061280794            4 
  817000    0.9408702   -4.0828109    599.56495  0.061155135  0.061255805           10 
  818000   0.91607045   -4.0876285    599.08202  0.061031176  0.061230516            4 
  819000   0.94088629   -4.0480411    601.14916  0.061166988     0.061205            3 
  820000   0.90664622   -4.0546196    599.61268  0.060936248  0.061179768            3 
  821000   0.92734008   -4.0547207    601.56839  0.061060535  0.061155042            7 
  822000   0.91596651    -4.079488     599.3861  0.060765014   0.06112967            5 
  823000   0.92303181   -4.0766412    602.39212  0.060995557  0.061104136            4 
  824000   0.92843395   -4.0557367    602.18801  0.060900891  0.061079037            2 
  825000   0.94599242   -4.0347051    603.21974  0.060931287  0.061054208            3 
  826000   0.93817532   -4.0607583    602.94221  0.060829521  0.061028829            3 
  827000    0.9061442   -4.0324839    605.53992  0.061017726  0.061004304            2 
  828000    0.9146434   -4.0691739    605.68903  0.060959041   0.06097871            2 
  829000   0.90772943   -4.0571716    604.95358  0.060811578    0.0609526            8 
  830000   0.92475319   -4.0734738    603.83025  0.060625527  0.060926003            3 
  831000   0.91788755   -4.0357625    603.87111  0.060556669   0.06089961            2 
  832000   0.93139514   -4.0583806    603.10019   0.06040667  0.060873247            2 
  833000    0.9294552   -4.0496297    606.74888  0.060699168  0.060846978            4 
  834000   0.92556519   -4.0814439    608.35964  0.060787334  0.060821148            8 
  835000   0.90585384   -4.0799019     606.5489  0.060533822  0.060794597            6 
  836000   0.91505031    -4.077267    608.21901  0.060627891  0.060769886            3 
  837000     0.922413   -4.0662679    608.04943  0.060538574  0.060743908            3 
  838000   0.91204266   -4.0933004    608.62633    0.0605237  0.060717952            3 
  839000   0.92660881   -4.0695102    606.68381  0.060258622  0.060691292            7 
  840000   0.92076695    -4.058964    608.85907  0.060402686  0.060665007            1 
  841000   0.90007588   -4.0499957    608.87148  0.060332093  0.060638203            5 
  842000   0.94831117    -4.040077    610.32775  0.060404567  0.060611567            2 
  843000   0.92522045   -4.0928153    611.40796  0.060439696  0.060585288            2 
  844000   0.93787899   -4.0924795    611.61042  0.060388075  0.060559022            2 
  845000   0.93064467   -4.0616466    612.74746  0.060428744  0.060532885            4 
  846000   0.91332384   -4.0999953    610.65758  0.060151456  0.060506887            3 
  847000   0.92777987   -4.0977301     611.1103   0.06012498   0.06048068            6 
  848000   0.90456252   -4.0574339    613.41332  0.060280397   0.06045429            4 
  849000   0.89474362   -4.0767173    613.15239  0.060183784  0.060428153            3 
  850000   0.90001398   -4.0836301    612.78498  0.060076959  0.060401685            3 
  851000   0.92832669   -4.0778545    613.54295  0.060080587  0.060375005            4 
  852000   0.91161756   -4.0850717    613.94845  0.060049731  0.060347945            2 
  853000   0.91102676   -4.0809901    613.98855   0.05998325  0.060321477            7 
  854000    0.9397623   -4.0729312    613.55918  0.059871114  0.060294756            2 
  855000   0.90919091   -4.0809478    615.16955  0.059958046  0.060267903            4 
  856000   0.92655473   -4.0792728    614.79017  0.059851068  0.060241199            4 
  857000   0.88862594   -4.0871872    616.48389  0.059945925  0.060214459            9 
  858000   0.91100886   -4.0832432    616.18659  0.059847183  0.060187922            3 
  859000   0.91959409   -4.0758814    617.12381  0.059868434   0.06016187            6 
  860000   0.92696609   -4.0613354    618.21613  0.059904663  0.060135481            4 
  861000   0.92367019   -4.0671157    619.05426  0.059916208  0.060109427            5 
  862000   0.91225816    -4.096227    616.17789  0.059568628  0.060082701            3 
  863000   0.89067494   -4.0957748    618.32701  0.059707127  0.060056156            5 
  864000   0.87996088   -4.0569618    620.43721  0.059841552  0.060030152            5 
  865000   0.89946343   -4.0737128    622.00175  0.059923097  0.060004581            5 
  866000   0.89639621   -4.0895904    619.66996  0.059629519  0.059978915            3 
  867000   0.90647971   -4.0919406     619.8144  0.059574625  0.059952162            3 
  868000   0.89763625   -4.0989811    620.28794  0.059551454  0.059925325            5 
  869000   0.88795249   -4.0951346    621.01791  0.059552926  0.059897872            6 
  870000   0.91625105   -4.0886713    621.74754  0.059554362  0.059870893            4 
  871000   0.89287166   -4.0828047    622.09695  0.059519417  0.059844052            3 
  872000   0.90765415   -4.1236961    620.98167  0.059344578  0.059816517            4 
  873000    0.9090095   -4.0877368    625.53064  0.059710829  0.059789433            8 
  874000   0.91365145   -4.1168754    623.48395  0.059447364  0.059762827            3 
  875000   0.90247057   -4.0777353    624.29265  0.059456442  0.059736038            2 
  876000   0.92067348   -4.1073967    622.86731  0.059252979  0.059708802            5 
  877000   0.89153549   -4.0901168    625.92192  0.059475667  0.059682246            4 
  878000   0.89506536   -4.0978038    624.84269  0.059305495  0.059655496            1 
  879000   0.89061679   -4.0965432    628.02911  0.059540113  0.059628781            3 
  880000   0.89076909   -4.1191237    624.56397  0.059144315  0.059601967            2 
  881000   0.90391098   -4.0709949    625.86121  0.059199888  0.059575195            3 
  882000   0.89743297   -4.1086885    623.59557  0.058918705  0.059547552            4 
  883000   0.90792971    -4.101025    625.85137   0.05906487   0.05952035            7 
  884000   0.91840095   -4.1039503    627.80008  0.059181757  0.059492972            2 
  885000   0.89164977   -4.0866634    627.50238  0.059086853  0.059465405            5 
  886000    0.8721219   -4.0875426    629.48391  0.059206537  0.059438027            3 
  887000   0.91085618    -4.084831    628.69301  0.059065484  0.059410718            4 
  888000   0.89256044   -4.1181934    629.00437  0.059028188  0.059383746            5 
  889000   0.92058803   -4.0973262    631.39981  0.059186334  0.059356974            3 
  890000    0.9020424   -4.0854939    630.59279  0.059044269  0.059330408            6 
  891000   0.89634304   -4.1184995     630.2091  0.058942116  0.059303568            4 
  892000   0.89700438   -4.1068652     629.9566  0.058852447  0.059277354            3 
  893000   0.92928567   -4.0879144    633.33753  0.059102046  0.059250836            3 
  894000   0.90910475   -4.0978976    631.79128  0.058891805  0.059224223            3 
  895000   0.88922394   -4.0847537    633.94185  0.059026243  0.059197181            2 
  896000   0.90069067    -4.111512    633.03244  0.058875785  0.059170888            3 
  897000   0.88520413   -4.1035755    637.56744  0.059231461  0.059144869            7 
  898000   0.91270348   -4.1220993    636.56583  0.059072552  0.059119145            6 
  899000   0.88238876   -4.1368457    634.25301  0.058792456  0.059093252            6 
  900000   0.88810335   -4.1196825    634.02007  0.058705562  0.059067096            4 
  901000   0.89492468    -4.090492    637.03233  0.058919009  0.059040888            5 
  902000   0.89575336   -4.1409994    634.93302  0.058659739  0.059014613            5 
  903000   0.89837434   -4.0867233    638.48986  0.058923021  0.058988431            3 
  904000   0.89581433   -4.0953677    637.91333  0.058804694  0.058962494            2 
  905000   0.90181357   -4.1144856    638.47826  0.058791737  0.058936716            5 
  906000   0.88942306   -4.1232607    639.17322  0.058790767  0.058910941            7 
  907000   0.87507306   -4.1181441     640.8629  0.058881192  0.058885255            2 
  908000   0.88130996   -4.0924742    641.06905  0.058835266  0.058860225            5 
  909000   0.90615477   -4.0970151    640.92989  0.058757782  0.058834861            4 
  910000   0.90508029   -4.1323565    639.63705  0.058574821  0.058809259            2 
  911000   0.89026568   -4.1120062    640.66274  0.058604349  0.058783837            3 
  912000   0.87843185   -4.1358797    642.59007  0.058716198  0.058758418            3 
  913000   0.91350069   -4.1376455     643.0148  0.058690654  0.058733203            7 
  914000   0.89432072   -4.1295031    643.34848  0.058656863  0.058707442           10 
  915000   0.88085117   -4.1304025     644.4879   0.05869653  0.058682248            3 
  916000   0.89204021   -4.1057909    644.04398  0.058592065  0.058656968            4 
  917000   0.88811056   -4.1085549    644.58268  0.058577125  0.058631964            3 
  918000   0.87046757    -4.099652    647.09541  0.058741413  0.058606092            3 
  919000   0.88954388   -4.1134118    646.38297  0.058612892  0.058580788            5 
  920000    0.8832943   -4.1619134    644.16303  0.058348101  0.058554912            6 
  921000   0.89792769   -4.1489932    644.50725  0.058315893  0.058528987            4 
  922000   0.87193957   -4.0932117    644.98951  0.058296232  0.058503288            4 
  923000   0.87083679    -4.123627    647.17467   0.05843036  0.058477483           10 
  924000   0.88792261   -4.1466737     644.6984  0.058143795  0.058452106            4 
  925000   0.87913323   -4.1257892    647.49725  0.058333086  0.058426484            3 
  926000   0.89413473   -4.1358136    646.19853  0.058153215  0.058400824            4 
  927000   0.89801458   -4.1069059    647.02428  0.058164715  0.058374798            4 
  928000   0.88070418   -4.1176787    647.82128  0.058173607  0.058349151            8 
  929000   0.88324226    -4.144286    645.42975  0.057896461  0.058322963            8 
  930000   0.87517877   -4.1493769    647.73698  0.058040948  0.058295874            2 
  931000   0.88740158   -4.1222014    647.78389  0.057982805  0.058269274            3 
  932000   0.88291401   -4.1460339    647.71268  0.057914223  0.058242258            3 
  933000   0.88137101   -4.1170092    649.41159  0.058003894  0.058214803            6 
  934000   0.87766214   -4.1296517    651.99178     0.058172  0.058187914            4 
  935000    0.8822603    -4.108174    651.76643  0.058089699  0.058161292            4 
  936000   0.88376205    -4.135183    649.06501  0.057787127  0.058135204            3 
  937000   0.86794422   -4.1446306      650.444  0.057848097  0.058108439            4 
  938000   0.91059742   -4.1452821    652.82758  0.057998186  0.058082053            4 
  939000   0.88471381   -4.1260385    653.29956  0.057978307  0.058055727            3 
  940000   0.87213409   -4.1276448    650.66245  0.057682841  0.058029328            6 
  941000   0.88266652   -4.1264886    654.82126  0.057989839  0.058003199            4 
  942000    0.8983467   -4.1661928    650.56317   0.05755159  0.057976206            4 
  943000   0.88934566   -4.1442897    653.93351  0.057788398  0.057949093            4 
  944000   0.86869998   -4.1191394    656.02771  0.057912051   0.05792288            4 
  945000   0.89785503   -4.1490954    654.36322  0.057703988  0.057896638            3 
  946000   0.86913765   -4.1770161    654.38857  0.057645223   0.05786996            5 
  947000   0.87221257   -4.1459944    657.17532  0.057829577  0.057843674            4 
  948000   0.88884041   -4.1366307    657.88738  0.057831169  0.057818092            2 
  949000    0.8782985   -4.1354776    657.62695  0.057747361  0.057792844            5 
  950000    0.8790265   -4.1553967    657.07352  0.057638028  0.057767205            3 
  951000   0.87244445    -4.165957    657.49847  0.057614657  0.057741484            4 
  952000   0.87037995   -4.1363741     658.1502  0.057611187   0.05771616            3 
  953000   0.87739712   -4.1688553    659.35717  0.057656276  0.057691151            2 
  954000   0.86426055   -4.1483076    660.20495  0.057669894  0.057666873            3 
  955000   0.88051122   -4.1692863     661.3875  0.057712696  0.057641785            3 
  956000   0.86596009   -4.1173075    661.98656  0.057704547  0.057617238            5 
  957000   0.86115901   -4.1434375    662.21944  0.057664528  0.057592107            3 
  958000   0.87613729   -4.1568253    662.82123  0.057656683  0.057567057            3 
  959000   0.87852494   -4.1443835    662.05106  0.057529636  0.057542299            3 
  960000   0.84926863   -4.1568153    661.50034  0.057421905  0.057516931            5 
  961000   0.87490054   -4.1665128    663.70284  0.057553143  0.057491909            5 
  962000    0.8597872   -4.1384672    664.63379  0.057573959  0.057466784            5 
  963000   0.86681318   -4.1467733    664.67392  0.057517646  0.057441841            4 
  964000   0.84925633   -4.1892766    662.59476  0.057278247  0.057416294            2 
  965000   0.86059208   -4.1365338     665.6285  0.057480872  0.057390811            4 
  966000   0.87204028    -4.153598    665.31569  0.057394383  0.057365938            8 
  967000   0.88183857   -4.1552545     663.7427  0.057199474  0.057340704            4 
  968000   0.86189509   -4.1705045    665.24902  0.057270061  0.057314724            4 
  969000   0.87427933   -4.1684327    665.60284  0.057241387  0.057288761            4 
  970000   0.86031013   -4.1612764    665.83858  0.057202628  0.057262784            9 
  971000    0.8684198   -4.1710841    667.57687    0.0572929  0.057237251            5 
  972000    0.8805207   -4.1827472    666.42344  0.057135068  0.057211594            4 
  973000   0.89955176    -4.173995    666.25895   0.05706226  0.057186195            3 
  974000   0.87152795    -4.184649    667.49359  0.057109308  0.057160629            4 
  975000   0.86609077   -4.1695793    667.54479   0.05705511  0.057134939            5 
  976000   0.86976274   -4.1580772    668.20883   0.05705335  0.057109145            3 
  977000   0.88189984   -4.1797681    668.63453  0.057031263  0.057083174           14 
  978000   0.86991715   -4.1474264    667.66501  0.056890338  0.057057174            3 
  979000   0.87401949   -4.1356713    669.71055  0.057006345  0.057031098            4 
  980000   0.84430864   -4.1591592    667.12811   0.05672858  0.057004817           10 
  981000   0.85294802   -4.1442103     667.4799  0.056700637  0.056978399            3 
  982000   0.88552064   -4.1907431     666.4993  0.056559683  0.056952041            3 
  983000   0.84564733   -4.1615733    668.03919  0.056632688  0.056925208            4 
  984000   0.88077705   -4.1681995    669.03749  0.056659679  0.056898324            3 
  985000   0.84366018    -4.137582    668.21539  0.056532605    0.0568718            4 
  986000   0.87155461   -4.1927185    667.13621  0.056384061  0.056844789            3 
  987000   0.85075196   -4.1927586    668.04721  0.056403851   0.05681738            4 
  988000    0.8414753    -4.194581    670.71818  0.056572046  0.056790424            3 
  989000   0.86517567   -4.1628699    667.97571  0.056283764  0.056763711            4 
  990000   0.86685397   -4.1731776    671.57682  0.056530036  0.056736951            9 
  991000   0.83462206   -4.1891222    671.85754  0.056496597  0.056710466            5 
  992000   0.85408707   -4.1545761    671.68383  0.056425053  0.056683463            4 
  993000   0.89480169   -4.1880549     669.2457   0.05616362  0.056656109            3 
  994000   0.85610476    -4.161979    672.58645  0.056387194  0.056628819            3 
  995000   0.83372547   -4.1871823    670.19993  0.056130648  0.056601407            3 
  996000    0.8414146   -4.2060829    672.08437  0.056231958  0.056573908            4 
  997000   0.84989447   -4.1698965    672.38691  0.056200845  0.056546734            5 
  998000   0.85335978   -4.1614096    673.19685  0.056212162  0.056519263           10 
  999000    0.8549324   -4.1903979    671.56916  0.056020117   0.05649161            5 
 1000000   0.83735973   -4.1819952    673.90029  0.056158358  0.056464034            7 
 1001000   0.83855247   -4.2016668    674.15414  0.056123388  0.056436378            9 
 1002000    0.8720137   -4.1771821    673.71698   0.05603102  0.056408455            2 
 1003000   0.82565223    -4.204754    672.33606  0.055860424  0.056380511            4 
 1004000   0.84845958   -4.1537266    675.08396  0.056032865  0.056352865            3 
 1005000   0.85969196   -4.2003018    673.45965  0.055842425  0.056325169            2 
 1006000     0.860197   -4.2186975    670.08906  0.055507709  0.056297054            4 
 1007000   0.83918166    -4.191546    673.15308  0.055706147  0.056268844            9 
 1008000   0.86499345   -4.1530654    676.72271  0.055945991  0.056241042            3 
 1009000    0.8277075    -4.189607    673.58336  0.055631265  0.056213154            6 
 1010000    0.8413028   -4.1923044    674.14551  0.055622567   0.05618526            5 
 1011000   0.82882424   -4.2031031    673.73609  0.055533803  0.056156822            5 
 1012000    0.8625585   -4.1908823    674.73598  0.055561263  0.056128322            6 
 1013000   0.85470665   -4.1892341    677.42563  0.055727676   0.05610045            3 
 1014000   0.84356711   -4.1961297    676.38666  0.055587333  0.056072317            8 
 1015000   0.82498821    -4.205735    678.33764  0.055692746  0.056044581            4 
 1016000   0.85383281   -4.1901668    678.52969  0.055653682  0.056017028            5 
 1017000   0.85445689     -4.18027    679.89327  0.055710691  0.055989567            5 
 1018000   0.87083265   -4.1857076    679.46438  0.055620856  0.055962008            3 
 1019000   0.84666872   -4.2009927    681.06419  0.055697104  0.055934469            8 
 1020000   0.85916983   -4.1602464    680.67028  0.055610317  0.055907194            3 
 1021000   0.85146903   -4.2067293    681.00886  0.055583485  0.055879491            3 
 1022000   0.86194624   -4.1814859    680.57172  0.055493454    0.0558521            4 
 1023000   0.85601827   -4.2032713     681.3383  0.055501653  0.055823954            4 
 1024000   0.84487718   -4.2044423    679.92639  0.055332551  0.055796255            4 
 1025000   0.83382581    -4.231435     679.8947  0.055275992  0.055768113            3 
 1026000   0.84730273   -4.2132463    680.81183  0.055296607  0.055740288            3 
 1027000   0.85935162   -4.2110076    683.16935  0.055434059  0.055711985            5 
 1028000   0.84686453   -4.1973452    682.11214  0.055294434  0.055683946            4 
 1029000   0.82258194   -4.1900424    681.29343  0.055174395  0.055655975            5 
 1030000   0.84624078    -4.196761    681.00398   0.05509741  0.055627963            6 
 1031000   0.83327456   -4.1886631    682.94233  0.055200641   0.05559976            5 
 1032000   0.84491955      -4.2151    683.44124  0.055187439  0.055571487            4 
 1033000    0.8541825   -4.1886139    681.69658   0.05499327  0.055543177            4 
 1034000   0.87381244   -4.2600486    679.82875  0.054789551  0.055514417            6 
 1035000   0.82921281   -4.1894092    682.21004  0.054928345   0.05548571            5 
 1036000   0.84386012    -4.236589    684.70755  0.055076219  0.055457064            3 
 1037000   0.83085784   -4.1995284    682.82912  0.054872157   0.05542838            7 
 1038000   0.82625791   -4.2016335    683.42648  0.054867251  0.055399911           10 
 1039000   0.82946204   -4.2143304    682.65388  0.054752477  0.055370927            3 
 1040000   0.83842613   -4.1964347    684.90888  0.054880519  0.055341938            4 
 1041000   0.85127551   -4.2379807    682.30004   0.05461896  0.055312862            5 
 1042000   0.81763883   -4.2111585     682.2803  0.054564963  0.055284076           12 
 1043000   0.82784944   -4.1920418    685.16766  0.054743341   0.05525465            2 
 1044000   0.84908659    -4.203214    683.90412  0.054590048  0.055225682            4 
 1045000   0.82703621   -4.2236463    682.37684  0.054416016  0.055196871            7 
 1046000   0.84103938   -4.2179276    684.41022   0.05452599  0.055167696            4 
 1047000   0.85688614   -4.1914551    686.81041  0.054664948  0.055138434            3 
 1048000   0.82836253   -4.1928154    684.62401  0.054438932  0.055109276            3 
 1049000   0.82989527   -4.2332986    684.40186  0.054369388  0.055079876            5 
 1050000   0.83725642   -4.2209409    684.60191  0.054333485  0.055050301            8 
 1051000     0.824571   -4.2272003    684.12015  0.054243589  0.055020611            6 
 1052000   0.83235563    -4.207981    685.29914   0.05428542  0.054991135            5 
 1053000   0.84645421   -4.2253521    685.35014  0.054237903  0.054961505            3 
 1054000    0.8347474   -4.2289359    685.81843  0.054223469  0.054931514            4 
 1055000   0.84324959   -4.2245774    686.52149  0.054227606  0.054901698            3 
 1056000   0.83082207    -4.249748    684.50567  0.054017177  0.054871997            1 
 1057000   0.84621289   -4.2216609    688.96769  0.054317856  0.054842178            4 
 1058000   0.83297557   -4.2123506    687.47688  0.054149092  0.054812883            7 
 1059000   0.83192845   -4.2620117    685.59513  0.053949884  0.054783613            6 
 1060000   0.82681538    -4.201431    688.77782  0.054149199  0.054754505            5 
 1061000   0.83269805   -4.1857274    690.00687  0.054194696  0.054725425            7 
 1062000   0.84692895   -4.2163955     689.0869  0.054071477  0.054696446            4 
 1063000   0.82215839   -4.2227612    689.24128  0.054032712  0.054667305            4 
 1064000   0.80785134   -4.2069964    689.14885   0.05397469  0.054638194            5 
 1065000   0.85570604   -4.2192938    688.28733  0.053856598  0.054608612            4 
 1066000   0.84795563   -4.2087014     691.1418  0.054029222  0.054579182            6 
 1067000   0.83714354   -4.2274225    689.38912  0.053841699  0.054549941            4 
 1068000    0.8285354   -4.2042676    690.15553  0.053851087  0.054520527            5 
 1069000   0.82078298   -4.2575942    690.77664   0.05384913  0.054491177            6 
 1070000   0.85311047    -4.194709    692.53716  0.053935916  0.054461832            4 
 1071000   0.82927746   -4.2360688     693.5726  0.053966122  0.054432715            3 
 1072000   0.83606408   -4.2428831     691.3532  0.053743253  0.054402712            4 
 1073000   0.84330841   -4.2457078    692.23412  0.053761581  0.054373308            6 
 1074000   0.83857276   -4.2294061    690.93545  0.053610758  0.054343835            5 
 1075000   0.82045101   -4.2391123    691.61638  0.053613673  0.054314341            5 
 1076000   0.83097705   -4.2534815    693.03083  0.053673391  0.054284641            5 
 1077000   0.82111357   -4.2254296    692.09119  0.053550851  0.054254864            4 
 1078000   0.80772091   -4.2253259    692.97835  0.053569755  0.054225083            3 
 1079000   0.81708152   -4.2356823    692.64004  0.053493979  0.054195483            6 
 1080000   0.83287077   -4.2317179    692.50632   0.05343413   0.05416568            5 
 1081000   0.81161951   -4.2320174    693.26795  0.053443413  0.054136018            3 
 1082000   0.80507136   -4.2486809    693.31016  0.053397271  0.054106198            6 
 1083000    0.8086647   -4.2178317    695.81456  0.053540671  0.054076825            7 
 1084000   0.81388662   -4.2405423    695.01532  0.053429837  0.054047893            4 
 1085000   0.82429549   -4.2882264    690.23245  0.053013245  0.054018348            3 
 1086000   0.81508695   -4.2414029    694.81683  0.053316209  0.053988666            7 
 1087000   0.81012876   -4.2343128    694.97608  0.053279369  0.053958665            4 
 1088000   0.84767466   -4.2359172    699.49074   0.05357619  0.053928981            3 
 1089000   0.80926272   -4.2425969    696.48445  0.053296943   0.05389945            6 
 1090000   0.82857112   -4.2255764    697.00558  0.053287889  0.053870204            9 
 1091000   0.80199234   -4.2274072    697.15079  0.053250137   0.05384063            4 
 1092000   0.80497422   -4.2407654    697.18609  0.053204067   0.05381116            6 
 1093000   0.81746928   -4.2422929    696.96597  0.053138607  0.053781637            5 
 1094000   0.82498971   -4.2699996    695.73772  0.052996474   0.05375229            3 
 1095000   0.82946463   -4.2308981    697.37815  0.053072918  0.053722867            7 
 1096000   0.81993552   -4.2597472    698.07994  0.053077854  0.053693559            4 
 1097000   0.82048404   -4.2493931    701.37466  0.053279752  0.053664378            3 
 1098000   0.80052893   -4.2414782    699.07253  0.053056506  0.053634971            5 
 1099000   0.80870415   -4.2373937    700.07425  0.053084187  0.053605826            3 
 1100000   0.80904078   -4.2345776    702.95566  0.053254217  0.053576982            5 
 1101000   0.81192335    -4.236572    701.45455  0.053092231  0.053548477            3 
 1102000   0.80728363   -4.2664306    699.64765  0.052907415  0.053519703            6 
 1103000   0.81643398   -4.2615871    700.94498  0.052957463  0.053490993            4 
 1104000   0.81798237   -4.2590235     701.5145  0.052952483  0.053462385            5 
 1105000   0.79225047   -4.2558311    702.18338  0.052955006  0.053433842            3 
 1106000    0.7966133   -4.2349098    701.09225  0.052824914  0.053405148            6 
 1107000    0.8005899   -4.2614882    701.37316  0.052798341  0.053376469            3 
 1108000   0.80939589   -4.2403163    705.37014  0.053051304  0.053347965            3 
 1109000   0.81898062   -4.2705611    703.98063  0.052899055   0.05331923            4 
 1110000   0.79506696   -4.2348636    703.12844  0.052787421  0.053290895            4 
 1111000   0.81726515   -4.2408785    705.02081  0.052881849  0.053262575            7 
 1112000   0.79928539   -4.2538466    704.25529  0.052776925  0.053233965            6 
 1113000   0.80144596   -4.2550104    704.43232  0.052742761  0.053205617            8 
 1114000   0.79282671   -4.2503449    704.64555  0.052711366   0.05317719            4 
 1115000   0.80343261   -4.2715861    706.18098  0.052778847  0.053148899            2 
 1116000   0.81228884   -4.2767985    705.60261  0.052688367  0.053120655            3 
 1117000   0.81844263   -4.2359205    706.44706  0.052704198  0.053092114            4 
 1118000   0.81020629   -4.2721055    706.23346  0.052641134  0.053063651            4 
 1119000   0.81869261   -4.2827656    704.85838  0.052491687  0.053035173            4 
 1120000    0.8350365   -4.2652161    705.73905  0.052510346  0.053006192            4 
 1121000   0.80105234   -4.2637463    704.24104  0.052352144  0.052977361            5 
 1122000   0.80860597   -4.2549338    707.06075   0.05251491  0.052948582            4 
 1123000   0.79685314   -4.2677669    705.82604  0.052376524  0.052919502            4 
 1124000   0.83659626   -4.2492761    706.20442  0.052357979   0.05289091            5 
 1125000    0.7971565   -4.2740782    705.56047  0.052263739  0.052861912            8 
 1126000   0.79150602   -4.2556799    704.14157  0.052112313  0.052832423            7 
 1127000   0.79824708   -4.2664039    705.50871  0.052167163  0.052803177            4 
 1128000   0.79049016   -4.2714843    706.52118  0.052195714  0.052773933           11 
 1129000   0.79774089   -4.2774964    707.05678  0.052189015  0.052744673            6 
 1130000   0.81929533   -4.2627501    707.07554  0.052144214  0.052715525            3 
 1131000   0.79559704   -4.2848061    709.44749  0.052272877  0.052686216            6 
 1132000   0.80615987   -4.2517516    707.81138  0.052106256  0.052656916            4 
 1133000   0.79705949   -4.2566609    708.15918  0.052085847  0.052628224            4 
 1134000   0.80606937   -4.2865224    708.05102  0.052031968  0.052599081            4 
 1135000   0.79699265   -4.2863015    708.31143  0.052005245  0.052570049            6 
 1136000   0.78997918   -4.3002871    708.25704  0.051955475  0.052540987            4 
 1137000   0.80668128   -4.2748314    710.21086   0.05205298  0.052512066            5 
 1138000   0.80947637   -4.2866925    711.05465  0.052069028  0.052483471            6 
 1139000   0.79855747   -4.2854924    710.25552  0.051964846  0.052454712            4 
 1140000   0.79096753   -4.3012238    713.43357  0.052151577  0.052425955            5 
 1141000   0.79416971   -4.2809232    712.85137  0.052063349   0.05239756            3 
 1142000    0.8115952   -4.2884638    710.69524  0.051860423  0.052369239            5 
 1143000   0.79249482   -4.2950306    712.09168  0.051916862  0.052340757            3 
 1144000   0.78013604   -4.2724865    713.91822  0.052004532  0.052312151            3 
 1145000   0.78084457   -4.2769653    712.19159  0.051833449  0.052283478            6 
 1146000     0.795109   -4.2764307    714.17656   0.05193256  0.052255287            3 
 1147000   0.80054148      -4.2936    714.42477  0.051905316  0.052226792           12 
 1148000   0.80588955   -4.2970399    714.02561  0.051831128  0.052198193            6 
 1149000   0.80665403   -4.2998009    712.33466  0.051663378  0.052169843            5 
 1150000   0.79008961   -4.2782412    714.78908   0.05179631  0.052141752            6 
 1151000   0.79248328   -4.3009308     715.4178  0.051796829  0.052113801            8 
 1152000   0.78834501   -4.2806176    715.60678  0.051765537  0.052085867            6 
 1153000    0.7848761    -4.296773     714.8328  0.051664701  0.052057723            4 
 1154000    0.8063899   -4.2754596     719.2876  0.051941623  0.052029539            4 
 1155000   0.78963234   -4.2786904    715.79588  0.051644724  0.052001159            7 
 1156000    0.7855715    -4.282703    716.47601  0.051649078  0.051972786            4 
 1157000   0.78363045   -4.2902318    714.85878  0.051487956  0.051944484            3 
 1158000   0.78351546   -4.3067907    714.16424  0.051393512  0.051916047            4 
 1159000   0.79097413   -4.2823571    718.12415  0.051633891  0.051887805           11 
 1160000   0.77605258   -4.2678609    718.61497  0.051624639  0.051859865            4 
 1161000   0.80516085    -4.273386    717.85689   0.05152576  0.051831845            3 
 1162000    0.7939671   -4.2827615    717.76233  0.051474637  0.051803759            5 
 1163000   0.79200105   -4.2817495    716.11091  0.051312045  0.051775704            4 
 1164000   0.78299157   -4.2852111    720.12124  0.051555071   0.05174757            6 
 1165000   0.78744701   -4.3009147    719.94586  0.051498273  0.051719303            7 
 1166000   0.78726045   -4.2850312    720.23369  0.051474678  0.051691143            4 
 1167000   0.79910441   -4.2905938    721.47569  0.051519258   0.05166326            6 
 1168000   0.78942239   -4.2979953    720.67094  0.051417733  0.051635419            8 
 1169000   0.78936189   -4.3042249     719.6906  0.051303863  0.051607354            5 
 1170000   0.78020322   -4.3150963    718.52946  0.051177312  0.051579648           12 
 1171000   0.78344423   -4.3078001    719.62747  0.051211747  0.051552047            6 
 1172000    0.7806561   -4.2997403    722.10041  0.051343886  0.051524386            5 
 1173000   0.77403721   -4.3208161    720.02915  0.051152966  0.051496859            7 
 1174000   0.78546508    -4.314309    721.74245  0.051231008   0.05146876            9 
 1175000    0.7823556   -4.3341657     719.6822  0.051041291  0.051440814            7 
 1176000   0.79879676   -4.3175174    718.95277    0.0509462  0.051412631            6 
 1177000   0.77620554   -4.2985853    723.48326   0.05122368  0.051384498            5 
 1178000   0.77792501   -4.3227326    723.23897  0.051162915  0.051356791            5 
 1179000   0.76723685   -4.3239839    722.95867  0.051099708  0.051328916            4 
 1180000   0.78733604   -4.3383615    723.95135  0.051126507  0.051301434            5 
 1181000   0.77324821    -4.302805    722.56406  0.050985328  0.051273586            5 
 1182000    0.7660139   -4.2850715    725.27462  0.051133292  0.051245972           10 
 1183000   0.78176174   -4.3261036    724.05003  0.051003806  0.051218456           12 
 1184000    0.7803135   -4.3020341    723.13704   0.05089647   0.05119047            9 
 1185000   0.77591231   -4.3310711    722.51509  0.050809781   0.05116237            4 
 1186000   0.79166891   -4.3157027    725.38473  0.050968573  0.051134636            6 
 1187000   0.79649652   -4.3210041    721.50653  0.050653365  0.051106703            5 
 1188000   0.77363854   -4.3330824    725.32553  0.050878614  0.051079013            5 
 1189000   0.78097514   -4.3383308    724.36656  0.050768612  0.051050974            3 
 1190000   0.78576537   -4.2976621    724.89116  0.050762686  0.051022869            6 
 1191000   0.76897761   -4.2822089    725.90833  0.050791235  0.050995007            3 
 1192000   0.77233482   -4.3120482     725.2013  0.050699196  0.050967314            4 
 1193000   0.76467556   -4.2875527    725.56998  0.050682452  0.050939595            4 
 1194000   0.78179539   -4.3101315    724.59732  0.050572119   0.05091147            7 
 1195000    0.7515862   -4.3251913    724.72404  0.050538636  0.050883393            4 
 1196000   0.80009088   -4.3156939    725.94995  0.050581797  0.050855347            3 
 1197000   0.78844827   -4.3197883    725.83152  0.050531295   0.05082741            7 
 1198000   0.76941439   -4.3070676    727.06948  0.050575228  0.050799205            4 
 1199000   0.77039517   -4.3396944    726.08122  0.050464361  0.050770897            3 
 1200000   0.78391456   -4.3289684    725.47773  0.050380398  0.050742726            5 
 1201000   0.76316263   -4.3379125    725.38256  0.050331846  0.050714014            5 
 1202000    0.7630547   -4.3075149    725.94567  0.050329012  0.050685635           11 
 1203000   0.78564315   -4.3138297    726.00213  0.050291087  0.050657518            2 
 1204000   0.75513918   -4.3390186    726.63264  0.050292957  0.050629395            3 
 1205000   0.75608846   -4.3240948    728.04474  0.050348875   0.05060166            5 
 1206000   0.78778078   -4.3120476    727.08122  0.050240548   0.05057376            6 
 1207000   0.78449398    -4.338879    728.71298  0.050311584    0.0505461            6 
 1208000   0.76985826   -4.3336379    728.29974  0.050241428  0.050518354            7 
 1209000   0.77169528   -4.3348637    729.80951  0.050303937  0.050490569            3 
 1210000   0.77415169   -4.3365424    728.38394  0.050164183   0.05046287            3 
 1211000   0.78164327   -4.3189193    729.83167  0.050222383  0.050435122           11 
 1212000   0.76573782    -4.323448    730.64881  0.050237129  0.050407488            4 
 1213000    0.7635887   -4.3591114    728.62794   0.05005688  0.050379692            4 
 1214000   0.76657789   -4.3163785    731.25393  0.050195904  0.050352061            3 
 1215000   0.76701471   -4.3382923     729.5685  0.050038991  0.050324512            3 
 1216000   0.77566135   -4.3477642    731.41176  0.050124161  0.050296812            5 
 1217000   0.76381052   -4.3270583    731.53649  0.050091515  0.050269141            6 
 1218000   0.76685436   -4.3278275    730.37501  0.049970923  0.050241574            4 
 1219000   0.75202062   -4.3659599    731.34589  0.049996301  0.050213864            8 
 1220000   0.76385171   -4.3284293    732.70699  0.050048292  0.050185877            9 
 1221000   0.77860627   -4.3350728    734.49313  0.050129206  0.050158215            5 
 1222000   0.78106723   -4.3307422    731.28673  0.049869526  0.050130662            9 
 1223000   0.76626648   -4.3289826    731.45016  0.049839886  0.050103101            6 
 1224000   0.77353841   -4.3707275    730.79929  0.049754854  0.050075496            7 
 1225000   0.76375761   -4.3871546    731.90503  0.049789458  0.050047779            7 
 1226000   0.76529191    -4.322917    734.52607  0.049927003  0.050020132            6 
 1227000   0.77721954   -4.3391764    732.87329  0.049774062  0.049992675            8 
 1228000   0.76693117   -4.3542432    734.77088  0.049862302  0.049965179            8 
 1229000   0.76641942   -4.3390233    734.87643  0.049828887  0.049937674            5 
 1230000   0.76050706   -4.3642124     734.2073  0.049743042  0.049910096            5 
 1231000   0.75092487   -4.3528288    733.63185  0.049663678  0.049882432            4 
 1232000   0.76252698   -4.3569704    735.19355  0.049729001  0.049855189            6 
 1233000   0.77152513   -4.3426243    735.04331  0.049678515  0.049827777            6 
 1234000    0.7653949   -4.3297955    737.08199  0.049775931  0.049800299            8 
 1235000   0.76975903   -4.3360805    736.43214  0.049691777  0.049772788            4 
 1236000   0.76410291   -4.3700331    736.07658  0.049627601  0.049745283            3 
 1237000   0.75391225   -4.3394939    737.36559  0.049674319  0.049718102            6 
 1238000   0.75893267   -4.3601511    736.60764  0.049583174  0.049690496            5 
 1239000   0.75794902   -4.3604182    735.16623  0.049446209  0.049663038            6 
 1240000   0.76379715   -4.3592625    737.54139  0.049565954  0.049635394            6 
 1241000   0.72794462   -4.3603056    736.47705  0.049454543  0.049608291            5 
 1242000   0.77594352   -4.3773005    737.23053   0.04946528  0.049580781            6 
 1243000   0.76486788    -4.354025    737.18002  0.049422099  0.049553329            4 
 1244000   0.75442116   -4.3704278    736.10997  0.049310689  0.049525773            8 
 1245000   0.74543059   -4.3525969    736.11693  0.049271548  0.049498629            5 
 1246000   0.76084583   -4.3632004    739.14151   0.04943429  0.049471578            4 
 1247000   0.75726718   -4.3673383    741.19925   0.04953216  0.049444535            6 
 1248000   0.76233292   -4.3550059    741.57786  0.049517753  0.049417294            2 
 1249000   0.74342561   -4.3826524    738.82047  0.049294133  0.049390183            3 
 1250000   0.76544441   -4.3690006    738.17577  0.049211718  0.049362872            4 
 1251000   0.75344835   -4.3665396     739.8088  0.049281162  0.049335848            6 
 1252000   0.74929853   -4.3620413    741.48833  0.049353589  0.049308775            6 
 1253000   0.74920454   -4.3441692    741.55092  0.049318364  0.049281835            6 
 1254000   0.75102397   -4.3590418    739.22961  0.049124774  0.049254946            5 
 1255000   0.76128768   -4.3483057    739.70317  0.049117076  0.049227919            7 
 1256000   0.74074544    -4.360445    740.59455  0.049137112  0.049200806            8 
 1257000   0.76102258   -4.3674845    739.08365  0.048997855  0.049173788            3 
 1258000   0.74177126   -4.3810762    739.93357  0.049015207  0.049146931            5 
 1259000   0.73929676   -4.3675146    743.59756  0.049218795  0.049120079           11 
 1260000   0.74249519   -4.3837498     739.7285  0.048923843  0.049093257            7 
 1261000   0.75301807   -4.3613913    742.14471  0.049044721  0.049066197            4 
 1262000   0.74547397    -4.364423    742.71068   0.04904323  0.049039503            5 
 1263000   0.75504587   -4.3437427    745.33863  0.049177793   0.04901266            5 
 1264000   0.73657938   -4.3828946    742.23204  0.048934075  0.048985801            4 
 1265000   0.74109908   -4.3648901     744.9825  0.049076581  0.048959026            9 
 1266000   0.74199438   -4.3720408    743.79683   0.04895977  0.048932177            5 
 1267000   0.75753095   -4.3794821    740.33688   0.04869356  0.048905408            9 
 1268000   0.75080725    -4.339136    744.23014  0.048911024  0.048878438           10 
 1269000   0.74862764   -4.3860474    744.90535  0.048916821  0.048851395            5 
 1270000   0.74931573   -4.3996106    741.45237   0.04865173  0.048824076            6 
 1271000   0.74914959   -4.3642071    744.75079  0.048829713  0.048796961            5 
 1272000   0.73436715   -4.3944334    742.56296  0.048647993  0.048769776            4 
 1273000   0.73904455   -4.3950461    743.45947  0.048668465  0.048742734            6 
 1274000   0.73882418   -4.3827059    744.36194  0.048689295  0.048715709            9 
 1275000   0.74286342   -4.3848079    744.20419  0.048640797  0.048688787            6 
 1276000   0.75736318   -4.3714541     745.2402  0.048670337  0.048661736            6 
 1277000   0.73464735   -4.4012472    742.26023  0.048437759  0.048634676            6 
 1278000   0.72514048   -4.4047131    742.30837  0.048402997  0.048607375            4 
 1279000   0.74036378   -4.3841664    743.52378  0.048444343   0.04858017            7 
 1280000   0.74356022   -4.3888859    746.12583    0.0485759  0.048553311            6 
 1281000   0.75577178    -4.373552    744.37742   0.04842424  0.048526447            7 
 1282000   0.76449282   -4.3820064    745.68255  0.048471305  0.048499517            5 
 1283000   0.74305827   -4.3714626    745.98839   0.04845339  0.048472273            8 
 1284000   0.73067671   -4.3619748    747.51732  0.048514883  0.048445379            7 
 1285000    0.7515119   -4.3794284    747.02609  0.048445271  0.048418454            5 
 1286000   0.74352074   -4.4126764    743.72113  0.048193438  0.048391248            4 
 1287000   0.72220573    -4.368956    745.65593   0.04828127    0.0483644            4 
 1288000   0.73595896   -4.3804089     745.8495  0.048256308  0.048337642            3 
 1289000   0.73935347   -4.3900294    744.15425  0.048109274  0.048310758            6 
 1290000   0.72705733   -4.4015379    747.21508  0.048269708  0.048283704            3 
 1291000   0.73688964   -4.3944599     749.1213  0.048355364  0.048256662            6 
 1292000   0.72773918   -4.3826772    747.19784  0.048193875   0.04822983            4 
 1293000   0.73860458   -4.4036225    746.40439  0.048105465  0.048202773           11 
 1294000   0.72280352   -4.4179172    744.88754  0.047970604  0.048175476            5 
 1295000    0.7309551   -4.3924457    747.54268   0.04810442  0.048148452            6 
 1296000   0.72263572   -4.4130527    746.80196  0.048019673  0.048121271           22 
 1297000   0.73787801   -4.3822331    748.60831  0.048098709  0.048094261            6 
 1298000   0.73442244   -4.3977007    749.05867  0.048090567  0.048067116           14 
 1299000   0.75904156   -4.3959368    747.76906  0.047970815  0.048040367            3 
 1300000   0.73650632   -4.3916406    746.86126  0.047875722  0.048013325            7 
 1301000   0.72111919   -4.4003725    746.83946  0.047837527  0.047986262            3 
 1302000   0.74119686   -4.3939451    749.52498  0.047972669  0.047959067            6 
 1303000   0.73228151   -4.3885864    748.70073  0.047883137  0.047931947            9 
 1304000   0.74416129   -4.4057308    748.21739  0.047815529  0.047904699            7 
 1305000   0.73180835   -4.3911329     748.2621  0.047781743  0.047877419            5 
 1306000    0.7234242    -4.403159    746.99642  0.047664396  0.047850451            6 
 1307000   0.73747192   -4.3972647    749.31395  0.047775692  0.047823396           15 
 1308000   0.72541922   -4.4102384    750.08175  0.047788083  0.047796537           12 
 1309000   0.72011123   -4.3881523    751.20637  0.047823171   0.04776959           13 
 1310000   0.73428016   -4.4006143    752.79173  0.047887515  0.047742565            7 
 1311000   0.72282224   -4.4246964    748.89096  0.047603036  0.047715579            4 
 1312000   0.73102779   -4.4046628    748.14099  0.047519118  0.047688667            6 
 1313000   0.74609181   -4.4032969    749.55701  0.047572798  0.047661881            3 
 1314000   0.72890624   -4.4016035    750.68272  0.047607986  0.047634925           10 
 1315000   0.72903312   -4.4311952    750.93209  0.047587585  0.047607798            7 
 1316000   0.73128784   -4.4157945     750.6149  0.047531339  0.047580909            4 
 1317000   0.72662388   -4.4077997     750.9099  0.047513914  0.047553924            3 
 1318000   0.70646775   -4.4258308    752.35785  0.047569414  0.047526845            3 
 1319000   0.73372611   -4.4209545     750.1645  0.047394775  0.047499804            6 
 1320000   0.72887433   -4.4103647    750.14854  0.047357862  0.047472499            3 
 1321000   0.72617506   -4.4084984    753.16479  0.047512288  0.047445515           10 
 1322000    0.7039337   -4.4108899    753.18145  0.047477399   0.04741848            5 
 1323000   0.71651918   -4.4297372    751.34908  0.047326095  0.047391333            6 
 1324000   0.72719588   -4.4061622    752.72946  0.047377232  0.047364373            4 
 1325000   0.72102116   -4.4097452    750.91349  0.047227263  0.047337253            4 
 1326000    0.7255814   -4.4524399     749.9351  0.047130159  0.047310336           10 
 1327000   0.71623728   -4.4068727     753.0928  0.047292942  0.047283433            7 
 1328000   0.72292412   -4.4262856    751.08386  0.047131266  0.047256577           10 
 1329000   0.73431609   -4.4000542    751.73584  0.047136684  0.047229709            4 
 1330000   0.72991482   -4.4153368    754.08409  0.047248377  0.047202699            5 
 1331000   0.70627098   -4.4203978    753.05478  0.047148434  0.047175782            7 
 1332000   0.72593039   -4.4251407    753.51114  0.047141588  0.047148778           10 
 1333000   0.72180603   -4.4272779      752.669  0.047053576  0.047121661            4 
 1334000   0.73525022   -4.4332669    752.60035  0.047014015   0.04709466            8 
 1335000   0.71577162   -4.4351725    753.61569  0.047042178  0.047067647           11 
 1336000   0.72126934    -4.429375    755.23938  0.047108245  0.047040662            6 
 1337000   0.70301998   -4.4485265    754.13149  0.047003957  0.047013637            8 
 1338000   0.72848795   -4.4523049    753.14352  0.046907294  0.046986493            9 
 1339000   0.70867843   -4.4291002    753.95906  0.046923018  0.046959527            6 
 1340000   0.72785096   -4.4226766    754.83583  0.046942526  0.046932592            5 
 1341000   0.72616389    -4.452527    753.05698  0.046796979  0.046905637            8 
 1342000   0.73158396   -4.4661602    755.83126   0.04693438  0.046878699            8 
 1343000   0.70401935       -4.435    756.59693  0.046946943  0.046851894            7 
 1344000   0.73203486   -4.4344667    756.03416  0.046877118  0.046825126            6 
 1345000   0.72655804   -4.4192999    756.84965  0.046892791  0.046798597            5 
 1346000   0.73288773   -4.4507887    754.42544  0.046707865     0.046772            4 
 1347000   0.70562564   -4.4425833    755.18092  0.046719929  0.046745247           13 
 1348000   0.72588997   -4.4435026    755.82593  0.046725144  0.046718753            9 
 1349000   0.71997672   -4.4369385    755.12986  0.046647508  0.046692171           13 
 1350000   0.71971042   -4.4467657    756.18598  0.046678147  0.046665635            4 
 1351000   0.71335527   -4.4180844     757.9221  0.046750685  0.046638879            6 
 1352000   0.72139491   -4.4452999    758.43099  0.046747472  0.046612143            9 
 1353000     0.709158   -4.4483282    757.83656  0.046676309  0.046585564            4 
 1354000   0.72126322   -4.4421976    759.56585  0.046748267  0.046559016            7 
 1355000   0.71966854   -4.4344843    756.39043  0.046518477  0.046532437            6 
 1356000   0.69900827   -4.4462326    757.80613  0.046571173  0.046505827            8 
 1357000    0.7155903   -4.4467457    758.06945  0.046553024  0.046479168            6 
 1358000   0.70959408   -4.4303581    759.64445  0.046615393  0.046452699            5 
 1359000   0.71978074     -4.43368    758.09097  0.046485833  0.046426246            8 
 1360000    0.7181264   -4.4235437    758.04715  0.046448968  0.046399711            7 
 1361000    0.7026792   -4.4418255    760.50531  0.046565351  0.046373169           10 
 1362000   0.69335466   -4.4409495    758.79665  0.046426619  0.046346691            5 
 1363000   0.72398661    -4.433141    758.00787   0.04634433  0.046320091            8 
 1364000   0.72049565   -4.4241847     759.7336  0.046415787  0.046293728            6 
 1365000   0.70029645   -4.4259868    758.37745  0.046298989   0.04626744            5 
 1366000   0.71012797   -4.4299001    760.41388  0.046389329  0.046241113            8 
 1367000   0.71183875   -4.4567069    759.02812  0.046270917  0.046214561            7 
 1368000   0.70864742    -4.459154    758.82017  0.046224426  0.046188005            5 
 1369000   0.70260332   -4.4552432    758.62529  0.046178798  0.046161103           14 
 1370000   0.71825292   -4.4458859    760.30113  0.046247028   0.04613434            7 
 1371000   0.71045128   -4.4590276    758.48643  0.046102992  0.046107653           11 
 1372000    0.7154206   -4.4439769    758.33794   0.04606037  0.046081053            3 
 1373000   0.69164547   -4.4476278    758.75046  0.046051861  0.046054412            8 
 1374000   0.69798957   -4.4469676    761.01908  0.046155937  0.046027636            9 
 1375000   0.70584194   -4.4521082    759.59701  0.046036183  0.046000979            6 
 1376000   0.69748215   -4.4818034    758.33464  0.045926274  0.045974332            6 
 1377000   0.69714093   -4.4680288    759.94382  0.045990306  0.045947474            7 
 1378000   0.69902872   -4.4697351    758.43731  0.045865827  0.045920611            8 
 1379000   0.69577145   -4.4468199    760.09557  0.045932776  0.045893854            5 
 1380000   0.69564051   -4.4758464    757.88882  0.045766233   0.04586699            6 
 1381000   0.69660528   -4.4576669    760.56668  0.045894683  0.045840211           19 
 1382000   0.71182113   -4.4691231    759.94394  0.045823923  0.045813413           17 
 1383000   0.70394737   -4.4718584    760.66821   0.04583443  0.045786672            4 
 1384000   0.70090083   -4.4798913    758.17077  0.045650937  0.045759803            4 
 1385000   0.71492475    -4.446195    760.62522  0.045765657  0.045733061            9 
 1386000   0.69727768   -4.4465321    759.60856   0.04567151    0.0457063            8 
 1387000   0.70791158   -4.4552173    762.33111  0.045802157  0.045679671            5 
 1388000   0.70756344   -4.4687542     761.8953  0.045742993  0.045652926            4 
 1389000    0.7125229   -4.4553706    761.17577  0.045666893  0.045626449            5 
 1390000   0.71652048   -4.4609447    764.63312  0.045841314  0.045599861           13 
 1391000   0.69244055   -4.4574184    763.93656  0.045766628   0.04557366            6 
 1392000   0.69031387   -4.4499132    762.16268  0.045627555  0.045547266            6 
 1393000   0.68305403   -4.4672103    761.99547  0.045584797  0.045520833            9 
 1394000   0.70062044   -4.4667593    763.10463  0.045618402  0.045494412            5 
 1395000   0.69965415   -4.4824898    764.02172  0.045640485  0.045467939            8 
 1396000   0.70674052   -4.4714418    765.57649  0.045700602  0.045441541            8 
 1397000   0.69484747   -4.4725489    763.34088  0.045534531  0.045415056            5 
 1398000   0.70238647   -4.4595977    763.94402  0.045537912  0.045388724           10 
 1399000    0.7062237   -4.4794291    762.78887  0.045436554   0.04536253            6 
 1400000   0.68551405   -4.4742044     763.6871  0.045457565  0.045335976           11 
 1401000   0.67501275   -4.4615334    761.98738  0.045324017  0.045309535            8 
 1402000   0.69463172   -4.4856632    764.91292   0.04546558  0.045282868            3 
 1403000    0.7020485   -4.4822486    764.41865  0.045403816  0.045256177            9 
 1404000   0.68422956   -4.4769933    761.44422  0.045194933   0.04522959            5 
 1405000    0.6915605   -4.4639428    764.80053  0.045361835  0.045202979            9 
 1406000   0.67655867   -4.4774724    764.26666  0.045297929  0.045176476           11 
 1407000   0.67246924   -4.4785654    764.91958  0.045304405  0.045149924            6 
 1408000   0.67360266   -4.4958131    762.23298  0.045113221  0.045123307            7 
 1409000   0.69140083    -4.490684    762.70253  0.045108974   0.04509669           13 
 1410000   0.69345954    -4.487691     761.6379   0.04501406  0.045070028            6 
 1411000   0.68035073   -4.4960415    763.13607  0.045070639  0.045043368            5 
 1412000   0.68862383   -4.4757977    764.09561   0.04509535  0.045016827            8 
 1413000   0.68171981   -4.4756332     763.5728  0.045032602  0.044990158            7 
 1414000   0.69435746   -4.4945091    763.15592  0.044976186  0.044963524           17 
 1415000   0.67134798   -4.4987571    764.34636  0.045014509  0.044936676           15 
 1416000   0.68992075   -4.5004293    763.86336  0.044954294  0.044910004           13 
 1417000   0.70196731   -4.4850162     764.2512  0.044945378  0.044883252           10 
 1418000   0.67152486    -4.480024    763.44113  0.044866075   0.04485658            5 
 1419000   0.68549549    -4.487719     762.0986  0.044755614  0.044829825           15 
 1420000   0.67805198   -4.5040926     764.8236  0.044884014  0.044803215            6 
 1421000   0.69813607   -4.4842622    766.42212  0.044946171  0.044776701            5 
 1422000   0.68954407   -4.5177254    763.70218  0.044755168  0.044750071            7 
 1423000   0.68792623   -4.4770311    765.73343   0.04484267  0.044723329           16 
 1424000   0.68433756   -4.4981795    763.63597  0.044688434  0.044696788            4 
 1425000   0.68752402   -4.4871025    764.44231  0.044704229  0.044670226            5 
 1426000   0.69241545   -4.5193519    764.51575  0.044677171    0.0446434            5 
 1427000   0.67374559   -4.5101717    766.72358  0.044774794  0.044616681           11 
 1428000   0.68345143   -4.5182843    765.22647  0.044656073  0.044590252           11 
 1429000   0.67625772   -4.4970317    768.08832  0.044791715  0.044563759            9 
 1430000    0.6754336    -4.486386    766.34877  0.044659019  0.044537352           22 
 1431000   0.66966616   -4.5021174    766.58799  0.044641742  0.044511069            9 
 1432000   0.68565565   -4.4858378    768.97951  0.044749739  0.044484801            5 
 1433000   0.67825587   -4.4809643    767.32756  0.044622445  0.044458754            8 
 1434000   0.68776241   -4.4907807    769.20212  0.044700262  0.044432637            7 
 1435000   0.68380235   -4.4783588    768.51665  0.044629306  0.044406358            6 
 1436000   0.68400877   -4.4996888    767.36692  0.044531507  0.044380259           12 
 1437000   0.67771222   -4.5096442    767.53429  0.044510223  0.044353846            5 
 1438000   0.67153313   -4.5235843    765.88178  0.044383506  0.044327572            7 
 1439000   0.68856664   -4.5018068    767.60712  0.044452578  0.044301081            9 
 1440000   0.68613291    -4.515429    767.86922  0.044436876  0.044274696            6 
 1441000   0.68329386   -4.5070623    768.38435  0.044435829   0.04424825            6 
 1442000   0.67593193   -4.5015256    767.05028  0.044327917  0.044221985           11 
 1443000    0.6780958   -4.5187526    766.87122  0.044286857  0.044195676           10 
 1444000   0.69472015   -4.4938063     768.1209  0.044328307  0.044169418            6 
 1445000   0.66889451     -4.52597    764.72408  0.044101735  0.044142907           10 
 1446000   0.66038374    -4.505541    768.00084  0.044260076  0.044116364           19 
 1447000   0.67874806   -4.5192291    767.67151  0.044210522  0.044089816            3 
 1448000   0.67759127   -4.5109665    768.33117  0.044217954  0.044063259            9 
 1449000   0.69886885   -4.5110878     767.7524  0.044154152  0.044036869            6 
 1450000    0.6697824   -4.5212009    768.22979  0.044151137  0.044010636            9 
 1451000    0.6779871   -4.4948151    771.24924  0.044294121  0.043984603            8 
 1452000   0.67204574   -4.5336893    768.10226  0.044083004  0.043958489            7 
 1453000   0.68423269   -4.4811476    771.95226  0.044273472  0.043932663            7 
 1454000   0.67055278   -4.5105884    770.00943  0.044131673  0.043906768            9 
 1455000   0.66209034   -4.5162283    770.30287  0.044118149  0.043880675            8 
 1456000   0.68109208   -4.5421083    768.14136  0.043964134   0.04385469            7 
 1457000   0.68181612   -4.5042685    770.69181  0.044079834  0.043828596            7 
 1458000   0.66335308   -4.4975008    770.26728  0.044025336  0.043802667            5 
 1459000   0.66608038   -4.5209056    770.55404   0.04401154  0.043776546            6 
 1460000   0.67295866   -4.4957655    769.80723  0.043938769  0.043750522           11 
 1461000    0.6789682   -4.5279444    770.56407  0.043951863  0.043724552           11 
 1462000   0.66967073   -4.5032318    771.04228  0.043949058  0.043698538            6 
 1463000   0.67022463   -4.5268832     770.9821   0.04391559  0.043672694            6 
 1464000   0.66358553    -4.526596     769.0502  0.043775626  0.043646574            6 
 1465000    0.6694134   -4.5113337     767.2734  0.043644676  0.043620277            7 
 1466000    0.6822808   -4.5338756    767.90529  0.043650824  0.043594013            6 
 1467000   0.66925931   -4.4999067    770.36182  0.043760613  0.043567877            7 
 1468000    0.6696582   -4.5224326    770.50866  0.043739138  0.043541809           16 
 1469000   0.65900303   -4.5419832    770.42303  0.043704506  0.043515636            3 
 1470000    0.6589372   -4.5255995     769.8978     0.043645   0.04348942            9 
 1471000   0.66825768    -4.518738    770.82478  0.043667844  0.043463324           14 
 1472000    0.6536235   -4.5515885     769.3617   0.04355535  0.043437279            9 
 1473000   0.65593941    -4.546808    772.24863  0.043689106  0.043411388            9 
 1474000   0.66939333   -4.5448853    769.67605  0.043514024   0.04338537            8 
 1475000   0.67769781   -4.5278244    770.67139  0.043540757  0.043359441            5 
 1476000    0.6568873   -4.5194929    769.87806  0.043466467  0.043333244           11 
 1477000   0.67508483   -4.5258669    771.67798  0.043538591  0.043307048            6 
 1478000   0.66139811   -4.5378997    772.04521  0.043529838  0.043281016            8 
 1479000   0.64877334   -4.5296713    770.41658  0.043408642  0.043254865           12 
 1480000   0.66208573   -4.5855881    769.70078  0.043339008  0.043228549           13 
 1481000   0.66557204   -4.5365849    770.89177  0.043376759  0.043202238           10 
 1482000   0.67156885   -4.5266087     770.7987  0.043342257  0.043176163            5 
 1483000   0.65443447   -4.5063627     771.6409  0.043360356  0.043150032            4 
 1484000   0.68237638   -4.5552973    770.20043  0.043250249  0.043123998            5 
 1485000   0.65161702   -4.5344861    770.10556    0.0432158  0.043097755           10 
 1486000   0.65536858   -4.5261582    769.41329  0.043147896  0.043071328           17 
 1487000   0.66177371   -4.5457553    770.37217  0.043172617  0.043045021           13 
 1488000   0.65549284   -4.5225812    769.94247  0.043119538  0.043018816           11 
 1489000   0.64863663    -4.513418    773.43983  0.043286313  0.042992751            9 
 1490000   0.66191605   -4.5359816    770.81727  0.043110586  0.042966758            6 
 1491000   0.65679134   -4.5450559    771.38712  0.043113521  0.042940416           12 
 1492000   0.66617249   -4.5382665    771.63486  0.043098462  0.042914357           14 
 1493000   0.64208953   -4.5364644     771.7801  0.043077702  0.042888247           13 
 1494000   0.65559261   -4.5422129    771.04182  0.043007688  0.042861863            7 
 1495000   0.65440203   -4.5743878    771.71113  0.043016228  0.042835687           12 
 1496000   0.65010917   -4.5683259    772.21503  0.043015543  0.042809416           10 
 1497000   0.65525703   -4.5544096    772.52413  0.043004015  0.042783391           13 
 1498000   0.65341525   -4.5501281    770.72517  0.042875232  0.042757118            4 
 1499000   0.67126691   -4.5399288    772.70293  0.042956578  0.042730795            5 
 1500000   0.64789153   -4.5585866    773.81175  0.042989542  0.042704504            6 
 1501000   0.65904939   -4.5454953    770.92052  0.042800384   0.04267819           12 
 1502000    0.6517981   -4.5639049    769.49185  0.042692624  0.042651804            6 
 1503000   0.64574498   -4.5541059    772.39841  0.042825372  0.042625398            6 
 1504000   0.65224346   -4.5282258    773.17825  0.042840107  0.042599209            8 
 1505000   0.66197992   -4.5328405    773.55148  0.042832308  0.042573135            4 
 1506000   0.64828393   -4.5616583    770.51881  0.042636057  0.042546995           15 
 1507000   0.65221309    -4.547775     772.1648  0.042698784  0.042520822            4 
 1508000   0.64273657   -4.5360606    773.38279  0.042737776  0.042494923            4 
 1509000   0.65342169   -4.5435538    774.63141  0.042778408   0.04246916           13 
 1510000    0.6610353   -4.5502613    774.31227  0.042732465  0.042443422            9 
 1511000   0.64744986   -4.5748581    775.41208   0.04276484   0.04241758            7 
 1512000   0.65246602   -4.5610614    774.51932  0.042687352  0.042391682           13 
 1513000   0.64635233   -4.5518148    772.40499  0.042542685  0.042365952            7 
 1514000   0.65434125   -4.5567093    773.90108  0.042596933   0.04234019            6 
 1515000   0.64835589   -4.5580419    776.10301  0.042689934   0.04231441            9 
 1516000   0.65032072   -4.5596633     774.4863  0.042572906  0.042288652            7 
 1517000   0.64033995   -4.5561965    772.65192  0.042444074  0.042262884            4 
 1518000   0.65192907   -4.5719147    775.03295  0.042546824  0.042237112            6 
 1519000   0.66102796    -4.563609     772.7299  0.042392467  0.042211202            7 
 1520000   0.63197439    -4.573267    772.61067  0.042358041  0.042185231            8 
 1521000   0.63775136    -4.566767    774.39431  0.042427916  0.042159534            6 
 1522000   0.63928054   -4.5802529    775.44063  0.042457328  0.042133676            4 
 1523000   0.64515155   -4.5796817    776.12535  0.042466916   0.04210791           23 
 1524000     0.659615   -4.5869597    772.46527  0.042238914  0.042081976            9 
 1525000   0.66909483   -4.6081203    773.13181   0.04224764  0.042055968            8 
 1526000   0.65301354   -4.5768555    774.38568  0.042288427  0.042030129            9 
 1527000   0.65409928   -4.5836369    771.37104  0.042096215  0.042004354            9 
 1528000    0.6493441    -4.578849    773.92375  0.042207883   0.04197846           10 
 1529000   0.64394876   -4.5557368    774.81471  0.042228837  0.041952719           12 
 1530000   0.62935322    -4.576374    774.87218  0.042204367  0.041926969            7 
 1531000   0.63853461    -4.577526    775.86543  0.042230864  0.041901258            6 
 1532000   0.64608888   -4.5969932    776.74327  0.042251048  0.041875595           11 
 1533000   0.62754088   -4.5859812    773.98631   0.04207362  0.041849847           15 
 1534000   0.64857793   -4.5915878    773.39432  0.042014033  0.041824054           18 
 1535000   0.62855048   -4.6083854    772.99237  0.041964841   0.04179823            5 
 1536000   0.64359814   -4.5692839    775.61019  0.042079546  0.041772359           10 
 1537000   0.65097386    -4.591881     777.3321  0.042145527  0.041746564            8 
 1538000   0.64945967   -4.5664156    776.66024  0.042081721  0.041720784           13 
 1539000   0.64081631   -4.5892529    776.25614  0.042032496   0.04169505            7 
 1540000   0.63283128   -4.5796776    777.72668  0.042084777  0.041669454            9 
 1541000    0.6499205   -4.5739527    776.17852  0.041973747  0.041643726           13 
 1542000   0.63934447   -4.5789893     776.6133  0.041970023  0.041618198            8 
 1543000   0.62827104   -4.5804826    775.88522    0.0419035   0.04159262           11 
 1544000   0.63074894   -4.5835223    775.16852  0.041837679  0.041567009            7 
 1545000   0.63853481    -4.611359    774.76634  0.041788907  0.041541513            5 
 1546000   0.63685718    -4.597558    777.61706  0.041915538  0.041515927           16 
 1547000   0.64465041   -4.5743258    777.94023  0.041905852  0.041490301           19 
 1548000   0.64120985   -4.6058617    774.53444  0.041695437  0.041464744            6 
 1549000   0.63847225    -4.579259    776.57421  0.041778255   0.04143906           10 
 1550000   0.62373676   -4.6164596    774.99966  0.041666648  0.041413505            8 
 1551000   0.63803244   -4.5774172    776.18398  0.041703416  0.041387975           15 
 1552000   0.63409048   -4.5992428    777.94059  0.041770865  0.041362493            9 
 1553000    0.6436301   -4.5827041    777.39191  0.041714526  0.041337017            8 
 1554000   0.63129557   -4.6079311    773.87941  0.041499325  0.041311352            7 
 1555000   0.63718136     -4.60442    776.45431  0.041610628  0.041285594            6 
 1556000   0.63159161   -4.5975254    778.92824   0.04171638  0.041260008           11 
 1557000   0.62791063   -4.6162771    773.82829  0.041416629  0.041234512            6 
 1558000   0.63787628    -4.611334    777.24948  0.041573036  0.041208978            6 
 1559000   0.62965546   -4.5982678    776.65663   0.04151468  0.041183601           15 
 1560000   0.63425125   -4.5902912    777.18341  0.041516208  0.041158193           12 
 1561000   0.63052236   -4.6084162    777.48644  0.041505789  0.041132727           10 
 1562000   0.63584916   -4.5942773    777.84954  0.041498589  0.041107437           12 
 1563000    0.6254365   -4.6277645    777.18748  0.041436739  0.041082011            5 
 1564000   0.63039542   -4.6121299    778.43772   0.04147686  0.041056605            4 
 1565000   0.63511611   -4.6255077    776.49699  0.041347017  0.041031208           11 
 1566000   0.62229017   -4.6037841    777.73762  0.041386634  0.041005881           10 
 1567000   0.62028869   -4.6107642    778.46977  0.041399158  0.040980565           17 
 1568000   0.63414906   -4.6028677    777.03794  0.041296659  0.040955212            5 
 1569000    0.6352277   -4.6256978    775.33764  0.041180032  0.040929703           27 
 1570000   0.62525892   -4.6381897    775.18898  0.041145912  0.040904186            7 
 1571000   0.61625276   -4.6058045    778.87499  0.041315245  0.040878842           10 
 1572000   0.63021848   -4.6194188    777.50278  0.041216221  0.040853481           12 
 1573000   0.62543822   -4.6285298    777.63531  0.041197039  0.040828036            9 
 1574000   0.62366847   -4.6194229    776.71048  0.041121902  0.040802638           26 
 1575000   0.61260296   -4.6040344    780.75681  0.041309884  0.040777448            5 
 1576000   0.63150142   -4.6176883    777.92079  0.041133713   0.04075216           10 
 1577000   0.61808395   -4.6055502    777.68364  0.041095098  0.040726993           18 
 1578000   0.62236297   -4.6091859    778.18385  0.041095471  0.040701826            7 
 1579000   0.62028139   -4.6344151    778.45107  0.041083548  0.040676583            9 
 1580000   0.61806141   -4.6269225    778.52804  0.041061605  0.040651355           10 
 1581000   0.62112513   -4.6187115    779.61399  0.041092873  0.040625954           12 
 1582000   0.61009047   -4.6361849    778.74023  0.041020872  0.040600564            8 
 1583000   0.61667637   -4.6394074    777.13073   0.04091023  0.040575415           23 
 1584000   0.61962358   -4.6072049    778.37926  0.040950088  0.040550318            6 
 1585000   0.60725799    -4.614034    778.36184  0.040923335   0.04052524            9 
 1586000   0.63345149   -4.6269435    780.25384  0.040996944  0.040500032           13 
 1587000   0.61919385   -4.5968998    782.01046  0.041063351  0.040474957           19 
 1588000   0.61248474   -4.6147418     779.9918   0.04093156  0.040450043           11 
 1589000   0.62083892   -4.6125837     779.1097   0.04085954  0.040425147           10 
 1590000   0.60036847   -4.6304866    780.21347  0.040891691  0.040400124           22 
 1591000   0.62265645    -4.615252    779.98364  0.040853952  0.040375073           10 
 1592000   0.62682759   -4.6292352    779.45198   0.04080046  0.040350049            4 
 1593000   0.62658775   -4.6276524    780.17615   0.04081273  0.040324973           10 
 1594000   0.62853532   -4.6249023    778.41515  0.040695062  0.040300012           15 
 1595000   0.61500252   -4.6205109    780.19347  0.040762459  0.040274969           12 
 1596000   0.61532671   -4.6151456    780.89658  0.040773631  0.040250074           14 
 1597000   0.62364524   -4.6182369    782.09657  0.040810716  0.040225195           12 
 1598000    0.6144206   -4.6592033    780.48323  0.040701044  0.040200261           15 
 1599000   0.62449665   -4.6150998    781.69829  0.040738914  0.040175397           13 
 1600000   0.60744672   -4.6499091    781.08776  0.040681654  0.040150588            9 
 1601000   0.60459561   -4.6342322    779.36337  0.040566488  0.040125729            5 
 1602000   0.60739565   -4.6116287    782.56237  0.040707572  0.040100792            6 
 1603000   0.61620974   -4.6247473    781.06454  0.040604311  0.040075934           13 
 1604000   0.61151672   -4.6320468     781.3014  0.040591303  0.040051168           10 
 1605000   0.62124613   -4.6352073    779.60953  0.040478168  0.040026348            9 
 1606000   0.60970252   -4.6525089    779.72326  0.040458866  0.040001438            6 
 1607000   0.61520665   -4.6193262    782.48455   0.04057688   0.03997666           12 
 1608000   0.60999069   -4.6492041    781.22279  0.040486256  0.039951927            6 
 1609000   0.59954689   -4.6556204    780.07674  0.040401737  0.039927136           12 
 1610000   0.61583483   -4.6714577    781.01096  0.040424998   0.03990241            9 
 1611000   0.60550959   -4.6441175    780.50125  0.040373539  0.039877475           10 
 1612000   0.60695233   -4.6428748    780.78698  0.040363264  0.039852572           16 
 1613000   0.61007198   -4.6392342    781.89932  0.040395708   0.03982771            6 
 1614000   0.61446087   -4.6296594    780.92477  0.040320362   0.03980286            9 
 1615000   0.61409515    -4.634584    782.86873  0.040395703  0.039778003            8 
 1616000   0.60710949   -4.6683227    777.61763  0.040099919   0.03975298           15 
 1617000    0.6072043   -4.6857156    777.86304  0.040087768  0.039727803           13 
 1618000    0.6114183   -4.6578117    780.77789  0.040213117  0.039702609           33 
 1619000   0.60573509   -4.6703601    781.62526  0.040231895  0.039677547            9 
 1620000    0.6068367   -4.6457445    780.46167  0.040147205  0.039652638            9 
 1621000   0.60311465   -4.6505215    780.40148  0.040119344  0.039627788            9 
 1622000   0.60772504   -4.6317972    781.93995  0.040173651  0.039603062           10 
 1623000   0.61023099   -4.6379993    780.35797  0.040067671  0.039578334            9 
 1624000   0.60806038   -4.6675518    779.81497  0.040015136  0.039553497           15 
 1625000   0.60612392   -4.6725367    781.92852  0.040098899  0.039528673            8 
 1626000   0.60227491   -4.6424024    782.46179  0.040101568  0.039503844           10 
 1627000   0.60194676   -4.6404457    780.97296  0.040000664  0.039479077           13 
 1628000   0.59800886   -4.6666221    780.60493  0.039957255  0.039454224           10 
 1629000     0.603654   -4.6709203    780.57654  0.039931274  0.039429375           11 
 1630000   0.59782978   -4.6627978    780.56043  0.039905953  0.039404678           12 
 1631000   0.59703867   -4.6606509    781.39174   0.03992396  0.039379974            8 
 1632000   0.60661699   -4.6629758    780.71726  0.039865056  0.039355165           14 
 1633000   0.62728533   -4.6648131    783.83174  0.039999578  0.039330333            9 
 1634000   0.60514748   -4.6715576    783.22072  0.039943937  0.039305559            9 
 1635000     0.594225   -4.6495885    781.85335  0.039849814  0.039280809            5 
 1636000   0.59193986   -4.6668205    780.49254   0.03975614  0.039255996           14 
 1637000   0.60116537   -4.6658285    780.78457   0.03974672  0.039231078            8 
 1638000   0.59003826   -4.6859412    782.05516  0.039787096  0.039206074           14 
 1639000   0.60326766   -4.6619277    780.93211   0.03970572   0.03918122           13 
 1640000   0.60769957   -4.6607756    782.63145  0.039767858  0.039156564           17 
 1641000   0.60672851   -4.6591888    780.54355  0.039637597  0.039131748            3 
 1642000   0.60052567   -4.6636273    780.42541  0.039607461  0.039106824           11 
 1643000    0.5941512   -4.6640086    781.76742  0.039651421  0.039081937            8 
 1644000   0.59350869    -4.688415    779.82463  0.039528823  0.039057152           11 
 1645000   0.59029894   -4.6734236    783.20228    0.0396759  0.039032291           11 
 1646000    0.5928953   -4.6892907    780.81726  0.039531048  0.039007432           13 
 1647000   0.60648063   -4.6679855    779.14367  0.039422367  0.038982542            8 
 1648000    0.6125997   -4.6867474    781.99553  0.039542654  0.038957738            9 
 1649000   0.58033043   -4.6492726    780.31656  0.039433827   0.03893304            8 
 1650000   0.60839698   -4.6590372    780.83127  0.039435923  0.038908348            9 
 1651000   0.59642954    -4.686458    777.68296  0.039253127   0.03888351           21 
 1652000   0.59880648   -4.6863738     778.6118  0.039276221  0.038858593            4 
 1653000   0.60200938    -4.680435    782.35678  0.039441257  0.038833763            7 
 1654000   0.59483506   -4.6740861    783.03416   0.03945154  0.038809029           15 
 1655000   0.58155855   -4.6745383    780.09268  0.039279591  0.038784241           15 
 1656000   0.59168115   -4.6952311    777.76856  0.039138917  0.038759496            8 
 1657000   0.58230188   -4.7000735    783.41604  0.039399318  0.038734747            8 
 1658000   0.60062013   -4.6733107    782.25362   0.03931713  0.038709912            7 
 1659000   0.58427612   -4.6928743    778.36009  0.039097855  0.038685163           12 
 1660000   0.58842072   -4.6811497     779.9616  0.039154699  0.038660408           14 
 1661000   0.57687228   -4.6761786     783.7888  0.039323138  0.038635762            9 
 1662000   0.57481603   -4.6749182    781.50554  0.039184995  0.038611154           14 
 1663000   0.59288435   -4.6691861    780.93935   0.03913306  0.038586506           17 
 1664000   0.57894944   -4.6880455     781.9834  0.039161829  0.038561951            7 
 1665000   0.58751682   -4.6942328    781.09631   0.03909391  0.038537318            6 
 1666000   0.58522667   -4.6830322    781.29147  0.039080205  0.038512643           10 
 1667000   0.58055925   -4.6669312    780.35779  0.039010087  0.038487991            5 
 1668000   0.58924483   -4.6889196    782.98217  0.039117814  0.038463522           14 
 1669000    0.5980305    -4.660006    781.05465  0.038998135  0.038439078           18 
 1670000   0.59387038   -4.7013241    781.89323  0.039016628  0.038414634            9 
 1671000   0.59600575   -4.6775444    781.90454  0.038993843  0.038390122            9 
 1672000   0.59239665   -4.6979368    781.20445  0.038935629  0.038365577           15 
 1673000   0.57793808   -4.7196942    782.02241  0.038953099  0.038340945            9 
 1674000   0.59157813   -4.6841206    783.42161  0.038999483  0.038316394           22 
 1675000   0.57514114    -4.693228    780.26225  0.038819018  0.038291934           16 
 1676000   0.58172182   -4.7063892    781.79623  0.038872127  0.038267491           12 
 1677000   0.58396128   -4.7144958    782.74199  0.038895945  0.038242939           14 
 1678000   0.57671994   -4.6652856    782.89902  0.038880563  0.038218537           13 
 1679000   0.59270552   -4.6896823    780.00486  0.038713761   0.03819415           12 
 1680000   0.58840781      -4.6999    781.22204  0.038751093  0.038169632           11 
 1681000   0.56935054   -4.6995598    782.11287  0.038772203  0.038145149            6 
 1682000   0.57592019   -4.6892183    781.15259  0.038701575  0.038120721           12 
 1683000   0.58039018    -4.707265    781.59474  0.038700473  0.038096187           19 
 1684000   0.57110654   -4.7335757    779.79816  0.038588587  0.038071609           16 
 1685000   0.58207059   -4.7036009    782.20833  0.038684883  0.038047218           10 
 1686000   0.58498868   -4.7207169    781.68965  0.038636302  0.038022805            8 
 1687000   0.57927356   -4.6839784    783.34597  0.038695217  0.037998398            5 
 1688000   0.58375521   -4.7049969     782.3392  0.038622591  0.037974039           15 
 1689000   0.56849325   -4.7139144    781.00973  0.038534129  0.037949545           13 
 1690000    0.5765377   -4.6938509    782.55707  0.038587627  0.037925121           12 
 1691000   0.57255097   -4.6876912    780.80816   0.03847862  0.037900705           10 
 1692000   0.58544699   -4.7212899    781.96851  0.038513027  0.037876254           12 
 1693000   0.57806296   -4.6973332    780.70612  0.038428141  0.037851941           17 
 1694000   0.57742502   -4.7112421    784.90161  0.038611846  0.037827676           12 
 1695000    0.5723452   -4.7082848    782.41231  0.038466682  0.037803449           10 
 1696000   0.57471994   -4.7000768    782.50649  0.038448628  0.037779143           12 
 1697000   0.57207402   -4.7201041    781.09356  0.038356588  0.037754877           40 
 1698000   0.58567759   -4.6939861    781.05949  0.038332327  0.037730605           15 
 1699000   0.56632489    -4.738311    781.55259  0.038333951  0.037706297            7 
 1700000   0.57456524    -4.735705    782.95409  0.038380102  0.037682027           16 
 1701000   0.58358426   -4.7144797    781.46165  0.038284423  0.037657752           13 
 1702000   0.57730371   -4.7361021    784.40578   0.03840608  0.037633548           16 
 1703000   0.57826321   -4.7148029    781.72665   0.03825243  0.037609352           23 
 1704000   0.56959786   -4.7042588    782.41541  0.038263665  0.037585277           37 
 1705000   0.57129483   -4.7366492    782.25399  0.038233333   0.03756102           38 
 1706000   0.57252223   -4.7191454    782.58687  0.038227182  0.037536865           56 
 1707000   0.56738849   -4.7137207    782.95913  0.038222961  0.037512783            8 
 1708000   0.58095952   -4.7079544    781.74214  0.038141205  0.037488664           14 
 1709000   0.57531175   -4.7221458    782.01719  0.038132299  0.037464574           19 
 1710000   0.57508988   -4.7379713    781.84317  0.038101519  0.037440486           11 
 1711000   0.56026027   -4.7152204    784.28754  0.038198302  0.037416328            4 
 1712000   0.57012761   -4.7383675    782.16642  0.038072742  0.037392149            8 
 1713000   0.55812501   -4.7163321    783.87747  0.038133755  0.037368126           12 
 1714000   0.55771316   -4.7384613    781.70038  0.038005658  0.037344027            9 
 1715000   0.56433384   -4.7268159    782.50677  0.038022681  0.037320016           16 
 1716000   0.56783488   -4.7258126    782.93099  0.038021124  0.037295961           11 
 1717000    0.5737758   -4.7303808    779.77005  0.037845567  0.037271872           15 
 1718000   0.55110721   -4.7139118    781.58616   0.03791163  0.037247783            9 
 1719000   0.56432474   -4.7303423    783.85566  0.037999596  0.037223809           17 
 1720000   0.57338299   -4.7373876    781.81857  0.037878807  0.037199845            8 
 1721000   0.56824573   -4.7469222    783.78076  0.037951809  0.037175883           17 
 1722000   0.57723334   -4.7248773    780.49744  0.037770879  0.037151905           11 
 1723000   0.55657344   -4.7211256    783.81439  0.037909382  0.037127899           10 
 1724000    0.5565698   -4.7434414    784.21257   0.03790664  0.037104055            6 
 1725000   0.56605668   -4.7473361    783.40913  0.037845852  0.037080079           10 
 1726000   0.56802833   -4.7391451    781.50136  0.037731815   0.03705617           25 
 1727000   0.56789047   -4.7458534    779.57206  0.037616872  0.037032051           13 
 1728000   0.56963842   -4.7508399    782.48556  0.037735608  0.037007949           12 
 1729000   0.55788688   -4.7348909    781.56512   0.03766942  0.036983903           12 
 1730000   0.56545989   -4.7375685    782.55608  0.037695379  0.036959843           17 
 1731000   0.56045245   -4.7449266    781.35735  0.037615894  0.036935842           17 
 1732000     0.558465   -4.7411006    782.62395  0.037655117  0.036911836           13 
 1733000   0.57055088   -4.7363249    781.56902  0.037582661  0.036887894            7 
 1734000    0.5509775    -4.738673     782.2372  0.037593099  0.036863857            9 
 1735000   0.57593309   -4.7599171    782.11012  0.037565327  0.036839794           19 
 1736000    0.5551928   -4.7353498    781.73011  0.037525447  0.036815761           11 
 1737000   0.53995149   -4.7621146    781.38606  0.037487338  0.036791671           21 
 1738000   0.55656123   -4.7527276    780.28232  0.037412846  0.036767717           13 
 1739000   0.55151629   -4.7511056     780.3681  0.037395443  0.036743681            8 
 1740000   0.55408705   -4.7645987    782.01241  0.037452702  0.036719705            8 
 1741000   0.54006827   -4.7518757    782.53758  0.037456327  0.036695696           10 
 1742000   0.55726138   -4.7598878    780.77443   0.03735048  0.036671722           21 
 1743000   0.54985417    -4.752638    781.60258  0.037368645  0.036647644           23 
 1744000   0.55886289   -4.7599502    780.84445  0.037310993  0.036623743           28 
 1745000   0.55010417   -4.7679116    781.43354  0.037317743  0.036599803           13 
 1746000   0.56544009   -4.7669365    779.35075  0.037196962  0.036575753           27 
 1747000    0.5482055   -4.7577573    779.24633  0.037170689  0.036551704           20 
 1748000   0.55474181   -4.7456552    782.94708  0.037325852  0.036527754           20 
 1749000   0.55753363   -4.7570459    781.34205  0.037228038  0.036503801           15 
 1750000   0.54820999   -4.7481311    781.33659  0.037206504  0.036479919           11 
 1751000    0.5556287   -4.7614168    782.26064  0.037229233  0.036456079           10 
 1752000   0.55451275   -4.7474604    783.08201  0.037247051  0.036432266           13 
 1753000   0.56227857   -4.7535928    781.43621  0.037147567  0.036408424           18 
 1754000   0.55444241   -4.7458522    781.47604   0.03712828  0.036384682           52 
 1755000   0.54507442   -4.7820281    782.51832  0.037156615  0.036360802           49 
 1756000     0.568859   -4.7605122    780.69679  0.037049013  0.036336896           37 
 1757000    0.5545986    -4.760959    781.51026  0.037066508  0.036313098           14 
 1758000   0.54534528   -4.7472123    782.47158  0.037090993  0.036289302           25 
 1759000   0.55476554     -4.76679    780.94974  0.036997808  0.036265578           32 
 1760000   0.54310129   -4.7772694    782.94022  0.037071033  0.036241812            9 
 1761000   0.56203205   -4.7768378    782.38961  0.037023926  0.036218032            9 
 1762000   0.54949058   -4.7529646    783.71602  0.037065646  0.036194307           11 
 1763000   0.55161649   -4.7730559    782.39111  0.036981996  0.036170644           20 
 1764000   0.54495849   -4.7518139    782.00706  0.036942888  0.036146858            8 
 1765000   0.54377966   -4.7766562    783.21834  0.036979147  0.036123183           10 
 1766000   0.53679981   -4.7810665    781.57544  0.036880683  0.036099427            9 
 1767000   0.54505658   -4.7833054    781.87437  0.036873909  0.036075686           20 
 1768000   0.54992567   -4.7678851    780.63719   0.03679474  0.036051914            9 
 1769000    0.5592377    -4.770586    781.69483  0.036823762  0.036028264           26 
 1770000   0.54755381   -4.7835427    782.28316  0.036830657  0.036004649           10 
 1771000    0.5478815   -4.7988217    782.00703  0.036796867  0.035980932           17 
 1772000   0.53546801   -4.7646353    782.13447  0.036782095  0.035957238           25 
 1773000    0.5485863   -4.7811173    782.67047  0.036786542  0.035933531           16 
 1774000   0.55211637   -4.7869193    779.91592  0.036636411  0.035909821           10 
 1775000   0.55848489   -4.7838107    781.09536  0.036671144  0.035886183           17 
 1776000   0.54622438   -4.7655758    783.72231  0.036773757  0.035862551           16 
 1777000   0.54695647   -4.7864211    782.32409  0.036687492  0.035839019            7 
 1778000   0.53929494   -4.7724488    784.73169  0.036779701  0.035815527           10 
 1779000    0.5322938   -4.7784952    782.54148  0.036656431  0.035792039           17 
 1780000   0.54795571   -4.7676969    783.17646  0.036665564  0.035768531           14 
 1781000   0.53231124   -4.7828236    781.23577  0.036554172  0.035744977            6 
 1782000   0.55972333   -4.7712029    783.07585  0.036619709  0.035721511           13 
 1783000   0.55178791   -4.7956896    782.67965  0.036580653  0.035698028           18 
 1784000   0.53474223   -4.8025094    780.38089   0.03645277  0.035674573           19 
 1785000   0.55129554   -4.7769622    781.90951  0.036503712  0.035651148           10 
 1786000   0.53502242   -4.7723377      783.861  0.036574328  0.035627819           18 
 1787000   0.54151357   -4.7965469    782.55861  0.036493127  0.035604476           16 
 1788000    0.5291916   -4.7961216    781.96096  0.036444862  0.035581037           18 
 1789000   0.53761109    -4.811129    781.67957  0.036411383  0.035557691           21 
 1790000   0.53602371   -4.7937066    784.44957  0.036519998  0.035534305           17 
 1791000   0.54145366   -4.7818282    783.43284    0.0364523  0.035510978           20 
 1792000   0.54386091   -4.7942378    780.72127  0.036305863  0.035487641           12 
 1793000    0.5313968   -4.8153519    782.23097   0.03635578  0.035464209           13 
 1794000   0.54402754   -4.8119013    781.74447  0.036312917  0.035440928           15 
 1795000   0.53732657   -4.8045621    782.15209  0.036311611  0.035417758           12 
 1796000   0.53977657   -4.8121219    785.17321  0.036431571  0.035394544           19 
 1797000   0.53556837   -4.8062622    782.93118  0.036307326  0.035371384           12 
 1798000   0.53076044   -4.7904498    783.27862  0.036303236   0.03534817           35 
 1799000   0.54192766   -4.8030876    783.46951  0.036291899  0.035325076           11 
 1800000   0.53335344   -4.8126571    781.83752  0.036196181  0.035301885           18 
 1801000   0.53253759   -4.8140039    782.41554  0.036202829  0.035278711           19 
 1802000   0.52860915   -4.7860286    781.05009  0.036119594  0.035255657           14 
 1803000   0.53808826   -4.8118838    784.28473  0.036249063  0.035232598           19 
 1804000   0.52480856   -4.7848494    785.30719  0.036276201  0.035209568           17 
 1805000   0.53090971   -4.7935182    785.09396  0.036246258  0.035186655            8 
 1806000   0.51486449   -4.7966769    784.87455  0.036216065  0.035163748           21 
 1807000   0.52807242   -4.8237657    783.44582  0.036130134   0.03514071           25 
 1808000   0.52883518   -4.7755027    784.33269  0.036151027  0.035117729            8 
 1809000   0.52901693   -4.8021147    782.73174  0.036057294  0.035094768           16 
 1810000   0.52901393    -4.799112     783.3707  0.036066791   0.03507178           24 
 1811000   0.51543788   -4.8107319    783.93349  0.036072772  0.035048774           12 
 1812000   0.52205808   -4.8142718    783.20864  0.036019529  0.035025815           11 
 1813000   0.53364472   -4.8154922    782.81972  0.035981785  0.035002906           12 
 1814000   0.53812776   -4.7951552     784.4622  0.036037404  0.034980008           15 
 1815000   0.52947115   -4.8283018    784.01798  0.035997153  0.034957148           14 
 1816000   0.53646292   -4.8188446    785.94347  0.036065688  0.034934312           11 
 1817000   0.52313791   -4.7928414    783.34706  0.035926759  0.034911436           11 
 1818000   0.51347433   -4.8130117    786.10678  0.036033497  0.034888606           23 
 1819000    0.5383076   -4.8054508    783.79121  0.035907605  0.034865802           27 
 1820000   0.53317882   -4.8151789    783.14968  0.035858502  0.034842994           10 
 1821000   0.53753042   -4.8115041    782.44415  0.035806523  0.034820199           15 
 1822000   0.52412834   -4.8202313    785.18635  0.035912292  0.034797355            9 
 1823000   0.52517375   -4.8291037     782.2046   0.03575629  0.034774619           17 
 1824000   0.52862516   -4.8321884    782.31593  0.035741773   0.03475172            7 
 1825000   0.52547479   -4.8322938    783.01687  0.035754195  0.034728851           16 
 1826000   0.52062951   -4.8104679    784.14128  0.035785929  0.034706008           15 
 1827000   0.53164219   -4.8116694    783.63411  0.035743209  0.034683221           39 
 1828000   0.53155762    -4.814579    785.69937  0.035817805  0.034660551           14 
 1829000   0.52133386   -4.8144638    784.20756  0.035730252  0.034637924           27 
 1830000    0.5239918   -4.8392649    782.30752  0.035624204  0.034615279           15 
 1831000   0.51659696   -4.8146231    784.38037  0.035699089  0.034592592           19 
 1832000   0.51702954   -4.8261482     784.2177  0.035672202  0.034569897           11 
 1833000   0.52015621   -4.8247407    785.26005   0.03570013  0.034547269           11 
 1834000   0.51799272   -4.8307164    783.75511  0.035612282  0.034524673           13 
 1835000   0.51784628   -4.8228515    783.86923  0.035598057  0.034502088           17 
 1836000   0.52555505   -4.8150864    782.80304  0.035530276  0.034479488           17 
 1837000   0.51656942   -4.8389466    782.70868  0.035506654  0.034456889           40 
 1838000     0.512363   -4.8334133    784.19862  0.035554888  0.034434268            9 
 1839000   0.52121567    -4.839294    783.82738  0.035518732  0.034411656           14 
 1840000   0.50976875   -4.8356073    784.87619  0.035546929  0.034389125           27 
 1841000   0.51173786   -4.8261984     784.0988  0.035492432  0.034366589           57 
 1842000   0.51479065   -4.8478264    782.26467  0.035390186   0.03434406           57 
 1843000   0.50421672   -4.8380308    783.64492  0.035433393  0.034321557           24 
 1844000   0.50999241   -4.8401459    783.00045  0.035385053  0.034299032           23 
 1845000   0.52057225   -4.8561249    782.63273  0.035349265   0.03427648           14 
 1846000   0.52189675   -4.8410666    783.80783  0.035383163  0.034253958           23 
 1847000   0.53196273   -4.8505048    784.61457  0.035400405  0.034231531           12 
 1848000   0.50943422   -4.8370466    784.00828  0.035353909  0.034209153           46 
 1849000   0.51029389   -4.8426232    785.04996  0.035381736  0.034186775           25 
 1850000   0.51542922   -4.8452746    785.15325  0.035367264  0.034164374           10 
 1851000   0.52323217   -4.8490804    785.07662  0.035344707  0.034141981           12 
 1852000   0.52437391   -4.8435605    784.31568  0.035291382  0.034119674           18 
 1853000     0.516286   -4.8449912     783.0497  0.035215403  0.034097292           23 
 1854000   0.50725522   -4.8659034    782.03492  0.035150796  0.034074878           16 
 1855000   0.52062148   -4.8480848    784.14449  0.035226617  0.034052518           21 
 1856000   0.51502153   -4.8383354    783.94787  0.035198809  0.034030141           18 
 1857000   0.52230967   -4.8510174    785.00186  0.035227152  0.034007843           30 
 1858000   0.51143463   -4.8674822    784.60162  0.035190242  0.033985473           15 
 1859000   0.50829053   -4.8390422    784.87688  0.035183651  0.033963245           24 
 1860000   0.51876194   -4.8659727    783.37866   0.03509761  0.033941015           26 
 1861000   0.51084835   -4.8423587    784.76783  0.035140956  0.033918738           18 
 1862000   0.50950892   -4.8521453     783.5657  0.035068282  0.033896445           23 
 1863000   0.50759108   -4.8487392    783.42599  0.035043209  0.033874143           13 
 1864000   0.51291668   -4.8654302    783.98772  0.035049522  0.033851868           34 
 1865000   0.51549365   -4.8594356    783.00449  0.034986796  0.033829524           14 
 1866000   0.50167172   -4.8532393    784.28677  0.035025311  0.033807206           10 
 1867000    0.5098565   -4.8633219    784.02587  0.034994906  0.033784968           20 
 1868000   0.49396049    -4.861414    783.63983   0.03495895  0.033762687           31 
 1869000   0.50523509   -4.8587482    784.68762  0.034986963  0.033740485           37 
 1870000   0.50712833   -4.8528236    784.27835  0.034950016  0.033718303           28 
 1871000   0.50759585   -4.8669454    783.47952  0.034895756   0.03369607           32 
 1872000   0.50937356   -4.8714584    783.95386  0.034898231  0.033673797           27 
 1873000   0.51095984   -4.8717962    782.39304  0.034810155  0.033651549           17 
 1874000   0.50988952   -4.8750407    782.52184  0.034797307  0.033629338           40 
 1875000   0.50757702   -4.8704507    783.59472  0.034826432  0.033607069           49 
 1876000   0.51017067   -4.8658138    781.91313   0.03473317  0.033584861           24 
 1877000   0.49952381    -4.853727    783.64664  0.034791628  0.033562625           36 
 1878000   0.50700189   -4.8812505    783.25866  0.034755886  0.033540443           40 
 1879000   0.50083263   -4.8725738    782.93713   0.03472313  0.033518274           39 
 1880000    0.5139155   -4.8730882    782.27496  0.034675308  0.033496079           21 
 1881000   0.50223293   -4.8556438    783.10178  0.034693505  0.033473916           12 
 1882000   0.50767433    -4.870526    781.62608  0.034609727  0.033451723           45 
 1883000   0.50360855   -4.8642086    783.83968  0.034689311  0.033429591           26 
 1884000   0.49830159   -4.8681911    783.53264  0.034657318  0.033407422           14 
 1885000   0.50006846   -4.8831447    782.62381  0.034598754  0.033385256           26 
 1886000   0.50539909   -4.8678914    783.20652  0.034606156  0.033363109           14 
 1887000   0.50095612   -4.8687055    782.43984  0.034553959  0.033341071           27 
 1888000   0.50139583   -4.8867614    782.95552  0.034558418  0.033319009           64 
 1889000   0.50135207    -4.877228    783.74496   0.03457495  0.033296948           25 
 1890000   0.49798978   -4.9074051    782.04493  0.034481699   0.03327485           46 
 1891000   0.49238591   -4.8906902    782.86977  0.034499814  0.033252717           21 
 1892000   0.50111447   -4.8845356     782.4034  0.034461037  0.033230616           16 
 1893000   0.50816154   -4.8874423    781.30702  0.034394568  0.033208578           77 
 1894000   0.49803882   -4.8889571    783.26313  0.034462475  0.033186512           45 
 1895000   0.49935238   -4.8876308    781.75764  0.034378084  0.033164464           65 
 1896000   0.51134935   -4.8994115    781.76322  0.034360198  0.033142429           57 
 1897000   0.50540478   -4.8875443    782.36195  0.034368386  0.033120422           33 
 1898000   0.49560991   -4.8947051    781.26233  0.034301999  0.033098373           95 
 1899000   0.50283245   -4.8992112    782.25471  0.034327484  0.033076349           35 
 1900000   0.48911516   -4.8906026    783.37629  0.034358609  0.033054379           25 
 1901000   0.49234767   -4.9037731    781.59988  0.034262663   0.03303242           52 
 1902000   0.50195754   -4.8956161    782.16734  0.034269512  0.033010454           21 
 1903000   0.49692733   -4.9098434    782.53812   0.03426774  0.032988471           10 
 1904000   0.49244595   -4.9031562    780.66938  0.034167953  0.032966524           19 
 1905000    0.4944463   -4.9030255    781.73023  0.034196423  0.032944594           16 
 1906000   0.49096252   -4.8868791    782.07836  0.034193702  0.032922721           15 
 1907000   0.50040788      -4.9095    783.99658  0.034259595  0.032900876           33 
 1908000   0.49183554   -4.8838237    781.82615  0.034146845  0.032878982           33 
 1909000    0.4822675   -4.8947148    781.99661  0.034136398  0.032857126           44 
 1910000   0.49248076   -4.9065853    779.59844  0.034013894  0.032835244           25 
 1911000   0.48258388   -4.9052393    782.61735  0.034127741  0.032813385           22 
 1912000   0.49310196   -4.8977173    781.27638  0.034051446  0.032791576           15 
 1913000   0.48373548   -4.8939285    781.76658     0.034055  0.032769792           29 
 1914000   0.48393011   -4.9013265    783.10087  0.034095301  0.032748005           55 
 1915000   0.47937977   -4.8907182    780.84443  0.033979305  0.032726246           54 
 1916000   0.47486924   -4.8977217    783.57507  0.034080335  0.032704436           20 
 1917000   0.49155263   -4.9013695    781.68863  0.033980553  0.032682637           38 
 1918000   0.48907312   -4.8945397     782.5991  0.034002394  0.032660867           42 
 1919000   0.47595291   -4.9015986    781.10311  0.033919711  0.032639155           63 
 1920000   0.48577995   -4.9158616    782.56196  0.033965363  0.032617375           29 
 1921000    0.4833701   -4.9069775    781.05248    0.0338822  0.032595594           30 
 1922000   0.49477794   -4.9016919    781.62889  0.033889563  0.032573808           35 
 1923000    0.4822843   -4.9063303    782.23369  0.033898149  0.032552063           30 
 1924000   0.47643785     -4.91308    782.39904  0.033887692   0.03253037           19 
 1925000   0.48051429   -4.9030504    782.44225  0.033871959  0.032508693           13 
 1926000   0.48859071   -4.8941983    782.79698   0.03386972  0.032486995           23 
 1927000   0.49215182   -4.9197298    779.99309   0.03373089  0.032465252           20 
 1928000   0.47838602    -4.897664    782.23405  0.033810255  0.032443582           34 
 1929000   0.47698956   -4.9012194    781.82397  0.033775012  0.032421906           30 
 1930000   0.47176061    -4.917529     782.7516  0.033797565  0.032400241           42 
 1931000   0.47629455   -4.9029554    781.84287  0.033740845  0.032378606           21 
 1932000   0.48761443   -4.9201718    780.36641  0.033659697  0.032356994           37 
 1933000   0.48133728   -4.9197065    781.84173  0.033705886  0.032335439           35 
 1934000   0.49007951   -4.9136137    783.36377   0.03375404  0.032313899           29 
 1935000   0.47728661   -4.9139883    783.07257  0.033724056  0.032292377           34 
 1936000   0.48241779   -4.9137329    783.64121  0.033731113  0.032270848           39 
 1937000   0.48257931   -4.9275129    782.26573  0.033654523  0.032249407           16 
 1938000   0.48194186   -4.9085046    781.21931  0.033592162  0.032227976           24 
 1939000   0.47404389   -4.9129449    783.70613  0.033681714  0.032206579           34 
 1940000   0.47700252   -4.9130769    780.74071  0.033536972  0.032185241           32 
 1941000   0.47615519   -4.9112937    782.04738  0.033575793  0.032163903           32 
 1942000   0.47289249   -4.9243238    782.52112  0.033578833   0.03214257           42 
 1943000   0.47973877   -4.9206293    781.75915  0.033528871  0.032121201           14 
 1944000   0.48137262   -4.9343136    779.98987   0.03343578  0.032099784           35 
 1945000   0.47676553   -4.9440398    781.20531  0.033470665  0.032078346           19 
 1946000   0.48442303   -4.9318707    782.25623  0.033498468   0.03205691           31 
 1947000   0.46993835   -4.9237502     782.7978  0.033504443  0.032035534           19 
 1948000   0.47834566   -4.9206184    783.15475  0.033502513  0.032014242           31 
 1949000   0.48007753   -4.9184247    782.12586  0.033441331  0.031993003           16 
 1950000   0.47618813   -4.9217484    783.26325  0.033472788  0.031971777            7 
 1951000   0.48221963   -4.9037332    782.65989   0.03342986  0.031950534           23 
 1952000   0.46507656   -4.9343763    781.78269  0.033375285  0.031929328           10 
 1953000    0.4782741   -4.9281606    782.95374  0.033408164  0.031908138           16 
 1954000    0.4753046   -4.9395282    783.03426  0.033394501  0.031886999           18 
 1955000    0.4713738   -4.9394727    783.66721  0.033404399  0.031865874           37 
 1956000   0.48193041   -4.9440324    782.34531  0.033331003  0.031844715           51 
 1957000   0.47267347   -4.9212962    782.98974  0.033341413  0.031823583           30 
 1958000   0.47915123   -4.9409243    781.94086  0.033279744  0.031802477           39 
 1959000   0.46433519   -4.9323419    782.18065  0.033272956  0.031781365           41 
 1960000   0.47185848   -4.9338745    780.94652  0.033203508  0.031760282           48 
 1961000   0.47061004   -4.9463566    783.46901  0.033293771  0.031739227           44 
 1962000   0.47519603   -4.9358763    783.50543  0.033278348  0.031718166           35 
 1963000   0.46673434   -4.9349101    783.04785   0.03324197  0.031697141           67 
 1964000   0.46525158   -4.9367774    782.13437  0.033186285  0.031676112           38 
 1965000   0.46617459   -4.9337279    781.74492   0.03315288   0.03165506           87 
 1966000   0.46916704   -4.9260297    781.48598  0.033125042  0.031634008           90 
 1967000   0.47684483   -4.9371943    782.58218  0.033154642  0.031612897          114 
 1968000   0.47346135   -4.9540239    782.12119  0.033118275  0.031591825          115 
 1969000   0.47669618   -4.9514019    781.81418  0.033088462  0.031570739           50 
 1970000   0.46861073   -4.9495721    782.01721  0.033080254  0.031549623          106 
 1971000   0.46407354   -4.9269761    780.27607  0.032989856  0.031528549           69 
 1972000   0.47079027   -4.9460762    781.29489   0.03301618  0.031507481           90 
 1973000   0.45821821   -4.9542812    781.01529  0.032987637  0.031486428           64 
 1974000   0.47344219   -4.9723289    782.14521  0.033018626    0.0314654           86 
 1975000   0.45996774   -4.9453778    781.85599  0.032989704  0.031444375           76 
 1976000   0.46959662   -4.9471503    781.13175  0.032942466   0.03142343           46 
 1977000   0.45808266   -4.9361382    779.89885  0.032873835  0.031402491           81 
 1978000   0.46745242    -4.952092    781.19179  0.032911686   0.03138154           89 
 1979000    0.4669432   -4.9486687    780.09797  0.032848996  0.031360603           71 
 1980000   0.45554035   -4.9537464    781.29567  0.032882814  0.031339617           53 
 1981000   0.46141651   -4.9525081      781.676  0.032882214  0.031318686           70 
 1982000    0.4609917   -4.9569655    779.45188  0.032772111   0.03129772           86 
 1983000   0.45482192   -4.9484458    780.79336  0.032811958  0.031276745           39 
 1984000   0.46605117   -4.9493039    781.50297  0.032825225  0.031255841           62 
 1985000   0.46340048   -4.9659016    780.92695  0.032784507  0.031234952           84 
 1986000   0.45856455   -4.9589857    779.90481  0.032725109   0.03121408           44 
 1987000   0.46619665   -4.9522713    781.68326  0.032783227  0.031193253           64 
 1988000   0.44897899   -4.9636085    781.71623  0.032768118  0.031172435           53 
 1989000   0.46451017   -4.9494431    781.71637  0.032751649  0.031151612           50 
 1990000   0.46512167    -4.953614    781.99084  0.032746685  0.031130786           99 
 1991000   0.45760263   -4.9728952    781.50965  0.032710098  0.031110023           46 
 1992000   0.45813289   -4.9660204    780.72081  0.032660676  0.031089261           59 
 1993000   0.46718823   -4.9679575    781.10938  0.032660536  0.031068519           64 
 1994000   0.46978588   -4.9723749    780.46044  0.032617036  0.031047731           59 
 1995000   0.46638336   -4.9664711    779.65163  0.032566902  0.031026929           73 
 1996000   0.45895533   -4.9857192    781.39832   0.03262351  0.031006164          124 
 1997000   0.44862629   -4.9855787     781.0129  0.032591091  0.030985383          131 
 1998000   0.46718292   -4.9743054    780.82734   0.03256704  0.030964669          106 
 1999000   0.44739151   -4.9755257    782.62119  0.032625529  0.030943978           69 
 2000000   0.45398212   -4.9912388    780.04001  0.032501667  0.030923232           56 
 2001000   0.45777813   -4.9749554    782.52974  0.032589111  0.030902501           53 
 2002000   0.45619268   -4.9942736    779.03979  0.032427564  0.030881823           51 
 2003000   0.45518705   -4.9830273    780.40701  0.032468256  0.030861137           49 
 2004000   0.45302816   -4.9822411     780.2298  0.032444685  0.030840456           40 
 2005000   0.46231088   -4.9760957    779.89927  0.032414766  0.030819766           57 
 2006000   0.44877309   -4.9843397     781.0191  0.032445127  0.030799066          103 
 2007000   0.44968532   -4.9813523    778.55899  0.032326814  0.030778335          157 
 2008000   0.44454158   -4.9968327    779.91827  0.032367126  0.030757576          276 
 2009000   0.46069763    -4.987822    777.94945  0.032269348  0.030736851          188 
 2010000   0.45247509   -5.0007615    778.83998  0.032290215  0.030716115          157 
 2011000   0.45415147   -4.9982783     778.6857  0.032267765  0.030695418          310 
 2012000    0.4542368   -4.9909061    779.68282  0.032293026  0.030674757          121 
Loop time of 4976.75 on 48 procs for 2000000 steps with 4000 atoms

Performance: 69442.854 tau/day, 401.868 timesteps/s
99.4% CPU use with 48 MPI tasks x no OpenMP threads

MPI task timing breakdown:
Section |  min time  |  avg time  |  max time  |%varavg| %total
---------------------------------------------------------------
Pair    | 339.03     | 367.85     | 396.99     |  71.7 |  7.39
Neigh   | 33.554     | 34.88      | 36.152     |  11.4 |  0.70
Comm    | 323.95     | 350.33     | 384.35     |  77.7 |  7.04
Output  | 5.9314     | 5.933      | 5.9666     |   0.2 |  0.12
Modify  | 4158.8     | 4171.3     | 4181.4     |  10.7 | 83.81
Other   |            | 46.49      |            |       |  0.93

Nlocal:        83.3333 ave          91 max          75 min
Histogram: 1 4 5 7 2 7 12 3 6 1
Nghost:        2282.58 ave        2300 max        2263 min
Histogram: 1 5 3 6 8 6 6 5 4 4
Neighs:        15394.4 ave       16511 max       13170 min
Histogram: 1 3 2 3 3 4 9 3 10 10
FullNghs:      30789.6 ave       33799 max       27339 min
Histogram: 2 3 7 4 2 7 11 4 6 2

Total # of neighbors = 1477900
Ave neighs/atom = 369.47500
Neighbor list builds = 107979
Dangerous builds = 0

#clear
#
#next RN
#
#jump SELF
Total wall time: 1:23:00
