
units lj                  # Use reduced LJ style units
atom_style atomic         # Uncharged point particles
atom_modify map hash      # Needed for indexing of clusters etc
                          # Used to be able to find where atoms are in relation to each other.

lattice fcc 1.0 spacing 1 1 1
Lattice spacing in x,y,z = 1.5874011 1.5874011 1.5874011
region box block 0 10 0 10 0 10 units lattice
create_box 2 box
Created orthogonal box = (0.0000000 0.0000000 0.0000000) to (15.874011 15.874011 15.874011)
  3 by 4 by 4 MPI processor grid
create_atoms 1 box
Created 4000 atoms
  using lattice units in orthogonal box = (0.0000000 0.0000000 0.0000000) to (15.874011 15.874011 15.874011)
  create_atoms CPU = 0.002 seconds
set type 1 type/fraction 2 0.04 78393
Setting atom values ...
  161 settings made for type/fraction
mass 1 1.0
mass 2 1.0
pair_style lj/cut  3.5
pair_modify tail  yes
pair_coeff 1  1  1.0  1.0   # Intearaction between 1 and 1 set with epsilon = 1 and sigma = 1
pair_coeff 1  2  1.5  0.8
pair_coeff 2  2  0.5  0.88

write_data data.0
System init for write_data ...
Neighbor list info ...
  update every 1 steps, delay 10 steps, check yes
  max neighbors/atom: 2000, page size: 100000
  master list distance cutoff = 3.8
  ghost atom cutoff = 3.8
  binsize = 1.9, bins = 9 9 9
  1 neighbor lists, perpetual/occasional/extra = 1 0 0
  (1) pair lj/cut, perpetual
      attributes: half, newton on
      pair build: half/bin/atomonly/newton
      stencil: half/bin/3d
      bin: standard
WARNING: Not all mixed pair coeffs generated from mixing. Use write_data with 'pair ij' option to store all pair coeffs. (../write_data.cpp:312)


#############################
#   M E L T   S Y S T E M   #
#############################

velocity all create 2.4 6229865 mom yes dist gaussian # Assign velocities
                                                    # Temperature 2.4, random number seed, zero linear momentum
                                                                                # Gaussian distribution

timestep 0.002   # simulation timestep
thermo 1000       # output thermodynamic data every 1000 steps bf 100

# Define a fix  in this case with index 1 applied to all
# particles in the simulation. This fix is for simulations
# in the anisotropic NPT ensemble. Note that we use the MTK
# correction.
fix 1 all npt temp 2.4 2.4 0.1 iso 5.68 5.68 0.5 mtk yes tchain 5 pchain 5 # Use NPT ensemble
                                                                         # Set temperature and pressure and damping
                                                                         # Numbers of thermostats in chain and in barostat
run 10000          # run for 10000 steps
Per MPI rank memory allocation (min/avg/max) = 3.642 | 3.644 | 3.648 Mbytes
Step Temp E_pair E_mol TotEng Press Volume 
       0          2.4   -8.1195307            0   -4.5204307   -2.5632236         4000 
    1000    2.4109919   -4.5127208            0  -0.89713709     5.622992    5053.3412 
    2000    2.4063992   -4.5059855            0  -0.89728905    5.6546908    5056.1695 
    3000    2.4040865   -4.4901282            0      -0.8849    5.5351107    5086.8055 
    4000    2.4295247   -4.4495174            0  -0.80614142    5.6356739    5094.3241 
    5000    2.4059867   -4.4822352            0  -0.87415739    5.7448157    5051.4955 
    6000    2.4365304   -4.4245192            0  -0.77063737    5.7764814    5084.1306 
    7000    2.4522022   -4.4870265            0  -0.80964286    5.7154639    5056.3657 
    8000    2.3801303   -4.4580129            0  -0.88871003    5.9803081    5029.9593 
    9000    2.3691374   -4.4834197            0  -0.93060204    5.8582488    5031.4486 
   10000    2.4048825   -4.3746085            0  -0.76818652    5.8098647    5114.7015 
Loop time of 2.06611 on 48 procs for 10000 steps with 4000 atoms

Performance: 836353.970 tau/day, 4840.011 timesteps/s
99.7% CPU use with 48 MPI tasks x no OpenMP threads

MPI task timing breakdown:
Section |  min time  |  avg time  |  max time  |%varavg| %total
---------------------------------------------------------------
Pair    | 0.83873    | 0.92582    | 0.98351    |   3.1 | 44.81
Neigh   | 0.1658     | 0.17468    | 0.19133    |   1.0 |  8.45
Comm    | 0.63057    | 0.72036    | 0.84148    |   4.9 | 34.87
Output  | 0.0002392  | 0.00024549 | 0.00030878 |   0.0 |  0.01
Modify  | 0.19191    | 0.23102    | 0.26255    |   4.1 | 11.18
Other   |            | 0.01398    |            |       |  0.68

Nlocal:        83.3333 ave          90 max          74 min
Histogram: 1 2 1 4 8 9 9 4 4 6
Nghost:        1395.98 ave        1426 max        1378 min
Histogram: 3 8 6 11 7 7 3 1 1 1
Neighs:        7451.77 ave        8403 max        6303 min
Histogram: 1 1 1 7 12 8 7 5 4 2

Total # of neighbors = 357685
Ave neighs/atom = 89.421250
Neighbor list builds = 907
Dangerous builds = 233

# Equilibrate just above the melting temperature to avoid step fn in T

fix 1 all npt temp 1.25 1.25 0.1 iso 5.68 5.68 0.5 mtk yes tchain 5 pchain 5
run 2000
Per MPI rank memory allocation (min/avg/max) = 3.643 | 3.645 | 3.648 Mbytes
Step Temp E_pair E_mol TotEng Press Volume 
   10000    2.4048825   -4.3746085            0  -0.76818652    5.8098647    5114.7015 
   11000    1.2402231   -5.9887893            0   -4.1289197    5.5679599    4207.6031 
   12000    1.2529912   -5.9546747            0   -4.0756578    5.6792083    4212.5652 
Loop time of 0.456996 on 48 procs for 2000 steps with 4000 atoms

Performance: 756242.938 tau/day, 4376.406 timesteps/s
99.6% CPU use with 48 MPI tasks x no OpenMP threads

MPI task timing breakdown:
Section |  min time  |  avg time  |  max time  |%varavg| %total
---------------------------------------------------------------
Pair    | 0.19614    | 0.21308    | 0.22868    |   1.3 | 46.63
Neigh   | 0.0309     | 0.032067   | 0.03397    |   0.4 |  7.02
Comm    | 0.13679    | 0.15679    | 0.17598    |   1.8 | 34.31
Output  | 4.9995e-05 | 5.1714e-05 | 6.5099e-05 |   0.0 |  0.01
Modify  | 0.043512   | 0.050561   | 0.055551   |   1.2 | 11.06
Other   |            | 0.004448   |            |       |  0.97

Nlocal:        83.3333 ave          92 max          78 min
Histogram: 6 5 12 6 4 2 5 6 1 1
Nghost:        1583.12 ave        1603 max        1565 min
Histogram: 5 2 6 3 6 9 9 3 4 1
Neighs:        9038.42 ave        9986 max        8284 min
Histogram: 2 6 6 11 5 6 3 5 3 1

Total # of neighbors = 433844
Ave neighs/atom = 108.46100
Neighbor list builds = 142
Dangerous builds = 13

#############################
# L I N E A R  Q U E N C H  #
#############################

# Define solid atoms. This closely follows ten Wolde  Ruiz-Montero and Frenkel  Faraday Discuss  1996  104  93-110
# Compute components of the per-atom q6 vector
compute q6 all orientorder/atom degrees 1 6 components 6 nnn NULL cutoff 1.3 # compute the Q6 parameter.
                                                                             # Use all neighbours within 1.3 unit cell.

# get number of connections
compute coord_number all coord/atom orientorder q6 0.5

# An atom is solid if it has 8 or more connections (of a possible 14)
variable is_solid atom c_coord_number>=8
group solid dynamic all var is_solid    # Must be dynamic to update
dynamic group solid defined

# do clustering
compute cluster solid cluster/atom 1.3 # Create a cluster where all atoms within are solid and max 1.3 units from another member

# define chunks one chunk per cluster
compute clus_chunks solid chunk/atom c_cluster nchunk every compress yes  # Says which atoms are in which chunk

# count the size of each chunk
compute size_chunks solid property/chunk clus_chunks count


# Find the maximum entry in the vector of chunk sizes
variable max_n equal max(c_size_chunks)


# Thermo style which includes this variable
# thermo_style custom step temp pe vol v_max_n

thermo ${N}  # Print the thermo information every 100 steps
thermo 1000  

# Reset the npt fix at a lower temperature (below freezing)
fix 1  all npt temp  ${temp} ${temp}  0.1  iso  5.68  5.68  0.5  mtk yes tchain  5  pchain  5
fix 1  all npt temp  0.45 ${temp}  0.1  iso  5.68  5.68  0.5  mtk yes tchain  5  pchain  5
fix 1  all npt temp  0.45 0.45  0.1  iso  5.68  5.68  0.5  mtk yes tchain  5  pchain  5

dump dmp2 all dcd ${N} traj.dcd
dump dmp2 all dcd 1000 traj.dcd


compute msd all msd com yes
variable twopoint equal c_msd[4]/6/(step*dt+1.0e-6)
fix 9 all vector 10 c_msd[4]
variable fit equal slope(f_9)/6/(10*dt)
thermo_style custom step temp pe c_msd[4] v_twopoint v_fit v_max_n

fix 1 all npt temp 1.25 ${temp} 0.1 iso 5.68 5.68 0.5 mtk yes tchain 5 pchain 5
fix 1 all npt temp 1.25 0.45 0.1 iso 5.68 5.68 0.5 mtk yes tchain 5 pchain 5
run 500000 # 5000000  # Run for this many steps
Neighbor list info ...
  update every 1 steps, delay 10 steps, check yes
  max neighbors/atom: 2000, page size: 100000
  master list distance cutoff = 3.8
  ghost atom cutoff = 3.8
  binsize = 1.9, bins = 9 9 9
  4 neighbor lists, perpetual/occasional/extra = 1 3 0
  (1) pair lj/cut, perpetual
      attributes: half, newton on
      pair build: half/bin/atomonly/newton
      stencil: half/bin/3d
      bin: standard
  (2) compute orientorder/atom, occasional
      attributes: full, newton on
      pair build: full/bin/atomonly
      stencil: full/bin/3d
      bin: standard
  (3) compute coord/atom, occasional
      attributes: full, newton on
      pair build: full/bin/atomonly
      stencil: full/bin/3d
      bin: standard
  (4) compute cluster/atom, occasional
      attributes: full, newton on
      pair build: full/bin/atomonly
      stencil: full/bin/3d
      bin: standard
Per MPI rank memory allocation (min/avg/max) = 9.737 | 9.740 | 9.744 Mbytes
Step Temp PotEng c_msd[4] v_twopoint v_fit v_max_n 
   12000    1.2529912   -5.9546747 1.0527349e-30 7.3106586e-33 8.3333333e+20            2 
   13000    1.2622574   -5.9693718    0.5596335 0.0035873941  0.045762949            4 
   14000    1.2418822   -6.0204238    1.1170882 0.0066493341  0.046308561            5 
   15000    1.2649084   -6.0004864    1.7002509  0.009445838  0.046857814            5 
   16000    1.2323425   -5.9878764    2.2223147  0.011574555  0.046439297            5 
   17000    1.2116761   -5.9954186    2.7695303  0.013576128  0.045925747            8 
   18000    1.2488646   -6.0344386      3.35018  0.015510092  0.046223133            3 
   19000    1.2383528   -5.9889311    3.9798335   0.01745541  0.046728378            5 
   20000    1.2109556   -6.0088987    4.5038054  0.018765855  0.047038805            7 
   21000    1.2341312   -5.9701042    5.0145595  0.019899045  0.047003913            3 
   22000    1.2114395   -6.0038407    5.4678665  0.020711615   0.04657817            2 
   23000    1.2373239   -6.0118925    5.9669199  0.021619274  0.045931742            3 
   24000     1.245984     -6.04174     6.544633   0.02272442  0.045609661            5 
   25000    1.2559097   -6.0266417    7.0842999  0.023614333  0.045398532            3 
   26000    1.2118877   -6.0152732    7.6153901  0.024408301  0.045256304            4 
   27000    1.2130537   -6.0775352    8.1528895  0.025163239  0.045170223            3 
   28000    1.1998202   -5.9919999    8.7372849  0.026003824  0.045106603            2 
   29000    1.2545241   -6.0470169    9.3108172  0.026755221  0.045244111            4 
   30000    1.2116177   -6.0119951    9.7386885  0.027051912  0.045151431            6 
   31000    1.2327369   -6.0616335    10.173138  0.027347146  0.044974788            2 
   32000    1.2088349   -6.0707425    10.611116  0.027633115  0.044721686            2 
   33000    1.1982115   -6.0449007    11.211887  0.028312845  0.044481793            1 
   34000    1.2310789   -6.0209654    11.818439  0.028966762   0.04441472            3 
   35000    1.2184023   -6.0625492    12.429037  0.029592946   0.04444237            3 
   36000    1.2324753   -6.0439417    12.892193  0.029843039  0.044433257            4 
   37000    1.2206492   -6.0743451    13.413782  0.030211221  0.044420634            3 
   38000    1.2138063   -6.0564753    14.064148  0.030842428  0.044457168            3 
   39000    1.2170028   -6.0531088    14.562393  0.031116223  0.044517101            7 
   40000    1.2138191   -6.0455443    15.031395  0.031315406  0.044494775            4 
   41000    1.2208138   -6.0469114    15.526355  0.031557632  0.044449026            1 
   42000    1.1667566   -6.0981364    15.928553  0.031604271  0.044375572            2 
   43000    1.1966283   -6.0331803    16.483733  0.031945219  0.044284476            4 
   44000    1.1899518    -6.067704    17.002887  0.032202436  0.044190669            3 
   45000    1.2112792   -6.0652601      17.5305  0.032463889  0.044124666            3 
   46000    1.1963239   -6.0669692    17.948465  0.032515335  0.044038696            2 
   47000    1.1877975   -6.0614171    18.428691  0.032674983  0.043934875            3 
   48000    1.1871531   -6.0569065    18.961506  0.032919281  0.043846286            2 
   49000    1.1966054    -6.104138     19.41484  0.033018435  0.043747038            2 
   50000     1.185256   -6.0667041    20.137059  0.033561765  0.043702557            4 
   51000    1.2006852   -6.0778026    20.552669  0.033582792  0.043667216            2 
   52000     1.191151   -6.0133579    21.272924  0.034091224  0.043664108            4 
   53000    1.2000576   -6.1111352    21.718802   0.03414906  0.043695808            5 
   54000    1.1784758     -6.08065     22.34727  0.034486528  0.043716149            2 
   55000    1.1572225   -6.1166378    22.773607  0.034505465  0.043733006            4 
   56000    1.1717499   -6.0966025    23.281406   0.03464495  0.043734409            3 
   57000    1.1750163    -6.094583     23.75879  0.034735072  0.043723864            2 
   58000    1.1879644   -6.1020674    24.345045  0.034978513   0.04371162            3 
   59000    1.1906814   -6.1087673    24.725202  0.034922602  0.043719051            2 
   60000     1.228698   -6.1093821    25.357123  0.035218226   0.04369764            4 
   61000    1.1557884   -6.0966949     25.55239  0.034907636  0.043662153            2 
   62000    1.1670085   -6.1262504    25.948645  0.034877211  0.043580347            7 
   63000    1.1692846   -6.1376345    26.327661  0.034824949  0.043492289            2 
   64000    1.1701614   -6.1247582    26.856428  0.034969307  0.043405194            4 
   65000     1.169672   -6.1205883    27.346822  0.035060028  0.043318245            2 
   66000    1.1911062   -6.1513101    27.778347   0.03507367  0.043223359            4 
   67000    1.1530307    -6.072738    28.216777  0.035095493  0.043128776            2 
   68000    1.1603701   -6.1638941    28.791776  0.035284039  0.043046469            2 
   69000    1.1654412   -6.0883777    29.414471  0.035524724  0.042975038            3 
   70000    1.1567648   -6.1193156    29.661231   0.03531099  0.042895555            3 
   71000    1.1678858   -6.1249315      30.1328  0.035367136  0.042810935            4 
   72000     1.133404   -6.1448277    30.466223  0.035261832  0.042718161            4 
   73000    1.1657684   -6.1427461    30.978259  0.035363309  0.042618972            5 
   74000    1.1647785   -6.1774133    31.334505  0.035286605  0.042519636            1 
   75000    1.1239821   -6.1700287    31.672378  0.035191531  0.042407047            5 
   76000    1.1292675    -6.132905    32.078812  0.035174136  0.042293068            1 
   77000     1.129579   -6.1715086    32.389552  0.035053628  0.042166302            7 
   78000    1.1497595   -6.1582606    32.650019  0.034882498  0.042029445            5 
   79000    1.1440216   -6.1720001    33.030324  0.034842114  0.041885295            4 
   80000    1.1345331   -6.1748187     33.48474  0.034879938  0.041742243            3 
   81000    1.1264827   -6.1759927    33.972505  0.034951137  0.041601381            2 
   82000    1.1514708   -6.2127361    34.208361  0.034764594  0.041467644            2 
   83000    1.1294728   -6.1804688    34.680505  0.034819784  0.041336161            3 
   84000    1.1557947   -6.1525551    35.065433  0.034787135  0.041204108            6 
   85000    1.1498992   -6.2191934    35.488071  0.034792226  0.041076599            1 
   86000     1.121032   -6.1786906    35.953305  0.034838474   0.04094988            2 
   87000    1.1273318   -6.1763111     36.16841  0.034644071  0.040826951            5 
   88000    1.1354723   -6.1465006    36.630682  0.034688145  0.040700863            8 
   89000    1.1258616   -6.1876985    36.953729   0.03460087  0.040573683            4 
   90000    1.1173607   -6.1778832    37.424375  0.034652199  0.040444911            5 
   91000    1.1215141   -6.2242677    37.835075  0.034647505  0.040320654            5 
   92000    1.1203129   -6.1741694    38.146675  0.034553148  0.040201198            7 
   93000    1.1205193    -6.203348      38.4732  0.034474193  0.040075277            6 
   94000     1.110823    -6.227497     39.03511  0.034605594  0.039952795            3 
   95000    1.1251434   -6.2174257     39.54707  0.034690412   0.03984233            4 
   96000    1.1005498   -6.2041125    39.877787  0.034616134  0.039741224            4 
   97000    1.1082565   -6.1738895    40.244787  0.034574559  0.039637361            4 
   98000    1.1199064   -6.2587013    40.558838  0.034488808  0.039530798            7 
   99000    1.1140652   -6.1957487    40.858334  0.034392537  0.039418975            7 
  100000    1.1009563   -6.1882407    41.146247  0.034288539   0.03930174            4 
  101000    1.0918221   -6.1991126    41.557702  0.034288533  0.039193229            5 
  102000    1.1207612   -6.2055085     42.04122  0.034347402  0.039084721            5 
  103000    1.1181853   -6.2118469    42.186509   0.03413148  0.038969448            3 
  104000     1.128941   -6.2511619    42.429226  0.033997777  0.038847713            3 
  105000     1.103675   -6.2367604    43.088258   0.03419703  0.038731015            3 
  106000    1.1166844   -6.2209813     43.24467  0.033997382  0.038619311            3 
  107000    1.0930326   -6.2204893     43.53471  0.033905537  0.038501212            4 
  108000    1.1091387   -6.2526292    44.072559  0.034006604  0.038386938            2 
  109000    1.0954556   -6.2389204    44.299659  0.033868241  0.038277926            6 
  110000    1.0818628   -6.2671314    44.574915  0.033768875  0.038167063            4 
  111000    1.1065202   -6.2697779    44.788323  0.033624867  0.038051265            2 
  112000    1.1113366   -6.3139391     45.29855  0.033704278  0.037938448            5 
  113000    1.1095671   -6.2362115    45.715093  0.033713195  0.037827429            3 
  114000    1.0900111   -6.2641475    45.981693  0.033612349  0.037720492            5 
  115000    1.0616521   -6.2734593    46.390262  0.033616132  0.037615392           14 
  116000    1.0905125   -6.2607879    46.766342   0.03359651  0.037511099            4 
  117000    1.0828402   -6.2595699    47.202878  0.033620283  0.037412419            4 
  118000    1.0813908   -6.2271205    47.630298  0.033637216  0.037318674            4 
  119000    1.0742902   -6.2568552    47.868049  0.033521043  0.037221599            3 
  120000    1.0870314   -6.2872919    48.063077  0.033377137  0.037125122            3 
  121000    1.0468179    -6.251591    48.329405  0.033284714   0.03702704            5 
  122000    1.0776529   -6.2842601    48.660128  0.033237792  0.036925636            4 
  123000    1.0694283   -6.3144924    49.066371  0.033242799  0.036827171            3 
  124000    1.0728336   -6.2962053    49.104399  0.033000268  0.036724276            5 
  125000    1.0773962   -6.3142839    49.724257  0.033149505  0.036627085            2 
  126000    1.0795743   -6.2781384    50.039898   0.03309517  0.036531248            7 
  127000     1.082122   -6.3037185    50.317705  0.033016866  0.036431869            6 
  128000    1.0557159    -6.305643    50.280119  0.032734452     0.036331            5 
  129000    1.0644344   -6.2968907    50.820433  0.032829737  0.036229392            7 
  130000    1.0721823   -6.3214511     51.00136   0.03269318   0.03612796            5 
  131000    1.0379137   -6.3289608    51.353835  0.032667834  0.036028269            4 
  132000    1.0779146   -6.3037288    51.639423  0.032600646  0.035931014            5 
  133000    1.0719941   -6.3261713     52.11787  0.032655307   0.03583498            4 
  134000     1.038863   -6.2878641    52.425032  0.032602632  0.035740272            4 
  135000    1.0579993   -6.3006316    52.892823   0.03264989  0.035650452            7 
  136000    1.0554594   -6.3046684    53.090792  0.032531122  0.035560972            5 
  137000     1.034454   -6.3156732    53.568766  0.032584408  0.035472246            4 
  138000     1.043434   -6.3279421    53.893279  0.032544251  0.035386969            8 
  139000    1.0440548   -6.3648064    54.376098  0.032599579  0.035306557            4 
  140000    1.0569434   -6.3456624    55.002048  0.032739314  0.035230033            5 
  141000    1.0375211    -6.350576    55.019207  0.032517262  0.035154924            5 
  142000    1.0636606   -6.3486997    55.311024  0.032459521  0.035077814            3 
  143000    1.0473419   -6.3285825    55.827586  0.032533558  0.035002564            6 
  144000    1.0322117   -6.3238395    55.926691  0.032364983  0.034929385            8 
  145000    1.0318377   -6.3554121    56.591919  0.032524091   0.03485762            8 
  146000    1.0380132   -6.3493811    56.757186  0.032395654  0.034785068            3 
  147000    1.0379896   -6.3319871    57.085111  0.032361174  0.034711199            7 
  148000    1.0320723   -6.3634639     57.07019  0.032134116  0.034637825           10 
  149000     1.038699   -6.3461947    57.500283  0.032158995  0.034559548            9 
  150000    1.0384856    -6.377975    57.747639  0.032082022  0.034482733            5 
  151000    1.0118804   -6.3487387    58.014109  0.032016617  0.034405804            5 
  152000    1.0143956   -6.3692375    58.214853  0.031916038  0.034328593            2 
  153000    1.0141117   -6.3343768     58.60367   0.03191921  0.034251164            8 
  154000    1.0305887    -6.357434    58.935013  0.031891241   0.03417541            8 
  155000    1.0384722   -6.3735913    59.214574  0.031835792  0.034099517            3 
  156000    1.0325911     -6.33311     59.63844  0.031858141  0.034023161            3 
  157000    1.0231293   -6.3897508    59.798764   0.03174032  0.033948494           10 
  158000      1.00331   -6.4159029    60.097987   0.03169725  0.033874021            4 
  159000    1.0308547   -6.4310182    60.305907   0.03160687  0.033798123            6 
  160000    1.0154001   -6.3717381    60.674851  0.031601485  0.033723428            4 
  161000    1.0229715   -6.4158617     60.78327   0.03146132  0.033647432            3 
  162000   0.99593451   -6.4221911    60.963959  0.031360061  0.033570803            5 
  163000    1.0077487   -6.4225712    61.234854  0.031306162  0.033495012           10 
  164000    0.9892045   -6.4465824    61.735056  0.031369439   0.03341729            4 
  165000   0.99236807   -6.4411384    61.715512  0.031169451   0.03333908            8 
  166000   0.95909119    -6.426667    62.253942  0.031251979  0.033260676            6 
  167000    1.0148661   -6.4195582    62.386151  0.031130814  0.033184846            6 
  168000    1.0095679   -6.3918829    62.739182  0.031120626  0.033109314            7 
  169000    1.0008979   -6.4242866    62.828682  0.030980612   0.03303119            8 
  170000   0.99315603   -6.3843853    63.195828  0.030978347  0.032952059            5 
  171000   0.99593596   -6.4215203     63.31708  0.030856277  0.032872083            3 
  172000    0.9972647   -6.4470548    63.513353  0.030771973  0.032792583            4 
  173000   0.98188707   -6.4529385    63.811137  0.030737542  0.032715227           16 
  174000   0.99431117   -6.4695691    64.253591  0.030772792   0.03263932            9 
  175000    1.0034303   -6.4473382    64.551403  0.030738763  0.032564661            7 
  176000   0.99469217   -6.4532238    64.774903  0.030669935  0.032490647            4 
  177000    0.9969246   -6.4216159    65.082742  0.030641592   0.03241481            6 
  178000   0.99209502   -6.4127728    65.169794  0.030510203  0.032340808            7 
  179000   0.99584845   -6.4418672    65.418149  0.030455377  0.032265505            6 
  180000   0.99292264   -6.5008133     65.52991  0.030337921  0.032187623            5 
  181000   0.98826145   -6.4289826    65.729269  0.030262094  0.032108721            4 
  182000   0.98574567    -6.443559     66.08543  0.030258897  0.032031559            6 
  183000   0.97509711   -6.4839143    66.341217  0.030210026  0.031954332            5 
  184000   0.96225173   -6.4666805    66.131548  0.029950882   0.03187798            9 
  185000   0.96797621   -6.4788823    66.333059  0.029879756  0.031797188            3 
  186000   0.96602833   -6.4841157    66.642126  0.029857583  0.031716454            6 
  187000    0.9495309   -6.4939013    66.856775  0.029793572  0.031635584            5 
  188000   0.96222373   -6.4672832    67.005729  0.029701121  0.031555242            7 
  189000   0.95612809   -6.4962308    67.269292  0.029660181  0.031474756            4 
  190000   0.97667511   -6.4729831     67.52678  0.029617009   0.03139317           10 
  191000   0.94822439    -6.504424    67.660817  0.029520426  0.031313527            7 
  192000   0.95841494   -6.4928097    68.304852  0.029646203   0.03123493            6 
  193000   0.95628153    -6.478561    68.460098  0.029559628  0.031158576            7 
  194000   0.97415612    -6.506147    68.558359  0.029449467  0.031084394           19 
  195000   0.96354777   -6.5053473    68.931114  0.029457741  0.031010113           10 
  196000   0.97600466     -6.51314    69.383635  0.029499845  0.030937082            8 
  197000   0.94382918   -6.4969242    69.420814  0.029365827  0.030863642            7 
  198000   0.95468139   -6.5313041    69.489455  0.029246403  0.030789966            6 
  199000   0.95626832   -6.5017976    69.667751    0.0291741  0.030716293           10 
  200000   0.93322706   -6.5076622    70.014502  0.029172709   0.03064167            5 
  201000   0.95344477   -6.5031275    70.072678  0.029051691   0.03056819            7 
  202000   0.93654067   -6.5422898    70.441685  0.029060101  0.030495657            6 
  203000   0.94725437   -6.5482026    70.650997  0.029002872  0.030422447           10 
  204000   0.92044923   -6.5372758    70.910218  0.028966592  0.030349141            6 
  205000   0.95008067   -6.5308583    71.082166  0.028895189   0.03027522            7 
  206000   0.93085402   -6.5289438    71.034894  0.028735799  0.030199765            6 
  207000   0.93398829   -6.5311058    71.157557   0.02864636  0.030123538            7 
  208000   0.93899025   -6.5269719    71.343506  0.028583135  0.030047329            6 
  209000   0.93183061   -6.5535749    71.848999  0.028647926  0.029972497            5 
  210000   0.94665332   -6.5276734    71.700582  0.028452612  0.029897102            7 
  211000    0.9545477   -6.5515959    71.956986  0.028419031  0.029820933           12 
  212000    0.9238666   -6.5715529    72.067001  0.028328224  0.029745282            5 
  213000   0.91646866   -6.5504041    72.341292   0.02830254  0.029669154            3 
  214000   0.90811432   -6.5264243    72.492595  0.028229204  0.029594323           11 
  215000   0.93328789   -6.5679814    72.747911  0.028196865  0.029520276            7 
  216000   0.93767787   -6.5697671    73.165541  0.028227446  0.029447517            7 
  217000   0.93235604   -6.5505329    73.569711  0.028252577  0.029375584            8 
  218000   0.91872254   -6.5514793    73.645768  0.028152052  0.029305051            6 
  219000   0.91365177   -6.5854431    73.733576  0.028056916  0.029234653            4 
  220000   0.92566545   -6.5642988    74.152118  0.028087923  0.029164366            4 
  221000   0.89751891   -6.5799281    73.992462  0.027900626  0.029093282           10 
  222000   0.92986791   -6.5947843     74.21204  0.027857372  0.029020892           13 
  223000   0.92290019   -6.5750499    74.268506  0.027753552  0.028948645            6 
  224000   0.89205705   -6.5899268    74.475625  0.027706706  0.028875377            6 
  225000    0.9343697   -6.5938197    74.762695  0.027689887    0.0288026            8 
  226000   0.89958551   -6.5570706     74.84058  0.027596084  0.028730493            6 
  227000    0.9019512   -6.6089104    74.807529  0.027462382  0.028658809            8 
  228000   0.90602404   -6.5764323    75.317078  0.027528172  0.028587228            7 
  229000   0.90713731   -6.6072261    75.321178  0.027409453  0.028515858            6 
  230000   0.89604086    -6.610363    75.438848  0.027332916  0.028444437            7 
  231000   0.90696194   -6.5984279     75.74909  0.027326511   0.02837247            6 
  232000   0.88171349   -6.5908254    75.787072  0.027222368  0.028301106           21 
  233000    0.8900504   -6.6384247    75.674359  0.027065221  0.028227322           11 
  234000   0.91171641   -6.6266508    75.836481  0.027007294  0.028153603           11 
  235000   0.89285096   -6.6392711     76.06627  0.026973855  0.028078862            7 
  236000   0.89859976   -6.6277058    76.033378  0.026847944  0.028003715            6 
  237000    0.8788288   -6.6256748    76.427108  0.026873104  0.027930721            4 
  238000   0.87647125   -6.6288583    76.914497  0.026930846  0.027858588            5 
  239000   0.88548882   -6.6392526    76.996498  0.026846756  0.027786965            5 
  240000   0.90263391   -6.6281275    76.759296  0.026652533  0.027715573            9 
  241000   0.88431657   -6.6527954    77.004926  0.026626876  0.027644168            6 
  242000   0.88870974   -6.6309394    76.972718  0.026505757  0.027572371           31 
  243000   0.88347151   -6.6314208    77.101358  0.026440795  0.027498945           10 
  244000   0.87689187   -6.6497386    77.250531  0.026383378  0.027425348            6 
  245000    0.8844992   -6.6470548    77.389837  0.026323074  0.027352237           18 
  246000   0.86218841   -6.6667733     77.48247  0.026247449  0.027279554            7 
  247000   0.87816398   -6.6773011     77.44185   0.02612748  0.027206847            8 
  248000   0.85394061   -6.6729237    78.020959   0.02621672  0.027135213            6 
  249000   0.86267797   -6.6610217    78.205582   0.02617322  0.027064828           13 
  250000   0.87679351    -6.680961    78.195799  0.026065266   0.02699425            8 
  251000   0.86634619   -6.6878847    78.317516  0.026001831  0.026923677            9 
  252000   0.85825032   -6.6373219    78.624162  0.026000053  0.026853267            5 
  253000    0.8504613    -6.664209    78.633592  0.025900392  0.026783608           10 
  254000   0.86342472   -6.6898548    78.801346   0.02585346   0.02671296            9 
  255000   0.84724977   -6.6679231    79.017971  0.025822866  0.026642952           13 
  256000   0.86528015   -6.6563836    79.214421  0.025785944  0.026573341            7 
  257000   0.86913948   -6.6738213    79.140707  0.025661708  0.026503969            6 
  258000   0.85646886   -6.7241534    79.442875  0.025659843  0.026434801            8 
  259000   0.86288787    -6.723802    79.474763   0.02557103    0.0263652            9 
  260000   0.83315847    -6.707571    79.636378   0.02552448   0.02629584           17 
  261000   0.84507831   -6.6661076    80.028512  0.025551888  0.026227408            6 
  262000    0.8469351    -6.717653    80.072363  0.025468309   0.02615931            9 
  263000   0.83924599   -6.7190925    80.166893  0.025401423  0.026091171           11 
  264000   0.84660959   -6.6964609    80.316229  0.025352345   0.02602352           12 
  265000   0.84304721   -6.6976319    80.339598  0.025264025   0.02595625           14 
  266000   0.83199733    -6.715971    80.546338  0.025233815   0.02588903            6 
  267000   0.85607232   -6.7416192    80.633173  0.025166408  0.025821566           10 
  268000   0.84006757    -6.727081    80.557157  0.025048867  0.025753375            9 
  269000   0.85890965   -6.7187959     80.47225  0.024929445  0.025684787            9 
  270000   0.83995177   -6.7362196    80.661937  0.024895659  0.025616337           19 
  271000   0.84382146   -6.7401203    80.906165  0.024878894  0.025548018            9 
  272000   0.84830757   -6.7656012    80.865279  0.024774902  0.025479575            7 
  273000   0.81848224   -6.7385547     80.92995  0.024703892  0.025411562           16 
  274000   0.82633029   -6.7345942     81.27771  0.024719498  0.025343685           11 
  275000   0.83196021   -6.7361775      81.4862  0.024692788  0.025276606           12 
  276000   0.82985533   -6.7515303    81.579603  0.024631523  0.025209322            5 
  277000   0.83051994   -6.7819875    81.589659  0.024545625  0.025141831           10 
  278000    0.8234707   -6.7668015    81.797167  0.024519534  0.025075115           24 
  279000   0.80709349   -6.7879563    81.984091  0.024487482  0.025008628           10 
  280000   0.81564814   -6.7429593    82.154032  0.024450605  0.024942386           14 
  281000   0.83401892   -6.7765168    82.144254  0.024360692  0.024876231           10 
  282000    0.8174552   -6.7631942    82.069862  0.024252323  0.024810622            8 
  283000   0.81047872   -6.7599029    82.486167  0.024289213  0.024744867           10 
  284000   0.81932837   -6.7818397    82.569352  0.024228096  0.024680333           22 
  285000   0.81863272   -6.7469158     82.47225  0.024114693  0.024615932           15 
  286000   0.80354086   -6.7804259    82.515572  0.024042999  0.024550443           18 
  287000   0.80430678   -6.8055469    82.574818  0.023976428  0.024484164           36 
  288000   0.79644574   -6.7956839    82.599373  0.023900282  0.024417846           50 
  289000   0.79164503     -6.78133    82.727188  0.023854437  0.024351943           13 
  290000    0.8108931   -6.7835679    82.793479  0.023791229  0.024285951           11 
  291000   0.80092859   -6.8016681    82.733028  0.023692161  0.024219852           25 
  292000   0.79264648   -6.7863839    82.845934  0.023643246   0.02415366           23 
  293000   0.79700369   -6.8064289    83.037524  0.023617043   0.02408811           11 
  294000   0.81524732   -6.8447538    83.095511  0.023553149  0.024022406            8 
  295000   0.80463207    -6.833083    82.957665  0.023434369  0.023956485           15 
  296000   0.79711743   -6.8173204    83.180875  0.023418039  0.023890138           21 
  297000   0.79335733   -6.8089696    83.250181  0.023358637  0.023823868           17 
  298000   0.79700239   -6.8097388    83.052786  0.023225052  0.023757446           23 
  299000   0.78518912   -6.8285982    83.473711  0.023264691  0.023690361           14 
  300000   0.76932586    -6.823073    83.351229  0.023153119  0.023623949           47 
  301000   0.79470588   -6.8149277    83.441644   0.02310123  0.023558015           28 
  302000   0.78601345    -6.821052    83.480721  0.023035519  0.023491684           10 
  303000   0.78067518   -6.8282463    83.475537  0.022958068  0.023425473           11 
  304000   0.78222915   -6.8326887    83.571578  0.022908876  0.023359015           14 
  305000   0.76956122   -6.8407251    83.824991  0.022903003  0.023292736           11 
  306000   0.78921906   -6.8471892    83.600596  0.022767047   0.02322654            9 
  307000   0.78241842   -6.8536843    83.658113    0.0227085  0.023160074           15 
  308000   0.76496046   -6.8501892    83.671275  0.022638332  0.023093899           27 
  309000    0.7685288   -6.8289474    84.032457  0.022662475  0.023028151           27 
  310000   0.77504142   -6.8433365    83.986965  0.022577141  0.022962828           16 
  311000   0.77716654   -6.8304702    83.983364  0.022503581  0.022897245           21 
  312000   0.77811369   -6.8844395    84.121059  0.022468232  0.022831342           17 
  313000   0.75579613   -6.8496909    83.759793  0.022300264  0.022765297           16 
  314000   0.76892575   -6.8706344     84.19554  0.022344888  0.022699682           11 
  315000   0.76616949   -6.8897608    84.492822  0.022352598  0.022634869           12 
  316000   0.77537635   -6.8683312    84.428931  0.022265013  0.022570643           10 
  317000   0.75929904   -6.8919153    84.409798  0.022189747  0.022506444           17 
  318000   0.75010457   -6.8828108    84.520852   0.02214907  0.022442252            6 
  319000   0.76225755   -6.8525106    84.785737  0.022148834  0.022378347           14 
  320000   0.75348488   -6.8658197    84.708774  0.022059577  0.022314931           16 
  321000   0.74525777   -6.9061113    84.690072     0.021986  0.022251483            8 
  322000   0.75683079   -6.8836702      84.8189  0.021951061  0.022188173           10 
  323000   0.74126257   -6.8974846    84.929226  0.021911565  0.022124856            9 
  324000   0.76525384   -6.8738966    85.084652  0.021883913  0.022061809           23 
  325000   0.75589152    -6.916181    85.204328  0.021847263  0.021999315           15 
  326000   0.75423688   -6.9415816    84.958194   0.02171733   0.02193684            9 
  327000   0.74094354   -6.9220615    84.981753   0.02165692  0.021874023            9 
  328000   0.75301999   -6.9024334    85.240212  0.021656558  0.021811318           29 
  329000   0.72850161    -6.890544    85.226077  0.021587152  0.021749263            9 
  330000   0.75096931    -6.929023    85.376813  0.021559801  0.021687449           14 
  331000   0.73595147   -6.9205131    85.355492  0.021489298  0.021625453           13 
  332000   0.72554343   -6.9449115     85.45766  0.021450216  0.021563915           17 
  333000   0.74679034   -6.9470848    85.368061  0.021363379  0.021502465           18 
  334000   0.72708627   -6.9215945    85.616998  0.021361526  0.021441506           26 
  335000   0.74017839   -6.9256461    85.756301  0.021332413  0.021380896           23 
  336000    0.7369858   -6.9553689    85.704077  0.021255972  0.021320336           22 
  337000   0.72220218   -6.9465729    85.783488  0.021212534  0.021259653           29 
  338000   0.71946993   -6.9771248    85.682995  0.021124999  0.021199072           23 
  339000    0.7209819     -6.93552    85.846496  0.021102875  0.021138635            9 
  340000   0.72298501   -6.9651962    86.064824   0.02109432  0.021078398           11 
  341000   0.72235189   -6.9824445    86.062345  0.021031854  0.021018446           48 
  342000   0.72116548   -6.9718547    85.890276   0.02092843  0.020958427           26 
  343000   0.71738525   -6.9847762    86.163955  0.020933905  0.020898699           19 
  344000    0.7294028   -6.9888523    86.180908  0.020877158    0.0208394           39 
  345000   0.71148173    -6.977902    86.236135  0.020829984  0.020780194           20 
  346000   0.71626826   -7.0007751    86.209182   0.02076329  0.020721231           39 
  347000   0.72123594   -6.9835363    86.448461  0.020760918  0.020662538           70 
  348000   0.70718372   -6.9977379    86.357376  0.020679448  0.020604092           65 
  349000   0.71330544   -6.9716002    86.590308  0.020675814  0.020546015           43 
  350000    0.7083536   -6.9664715     86.60891  0.020621169  0.020487963           50 
  351000   0.71068792   -6.9988612    86.527721  0.020543144   0.02043028           59 
  352000    0.7023985   -6.9891178    86.495038  0.020477045  0.020372354           50 
  353000   0.70605214   -7.0063137    86.821816  0.020496179  0.020314615           53 
  354000   0.70982621   -7.0286448    86.802058  0.020433629  0.020257297           49 
  355000   0.69543964   -7.0298973    86.806104   0.02037702  0.020200177           51 
  356000   0.69549116   -7.0097012    86.638457  0.020280538  0.020143084           50 
  357000   0.69930619   -7.0135081    86.675058  0.020232273  0.020086182           95 
  358000   0.69830343     -7.04285     86.76276  0.020196173  0.020029418           89 
  359000   0.68509581   -7.0138415    86.700456  0.020125454  0.019972444           66 
  360000   0.68393684   -7.0370004    86.715028  0.020072923  0.019915527           85 
  361000   0.69519598   -7.0159435    87.072649  0.020099873  0.019859145          101 
  362000   0.67183307   -7.0274256    87.054291  0.020040122   0.01980292           43 
  363000    0.6960854   -7.0272462    86.871181  0.019942879  0.019746807           51 
  364000   0.66840901   -7.0266874    87.085883  0.019937244  0.019690665           77 
  365000   0.68662412   -7.0147985    87.159249  0.019899372  0.019634923           56 
  366000   0.69130269   -7.0559205    86.915397   0.01978948  0.019579097           39 
  367000   0.69387009   -7.0553002    87.049867  0.019766092  0.019523349           83 
  368000   0.66338037   -7.0630061    87.227304   0.01975256  0.019467663          134 
  369000   0.68818761   -7.0561777     87.28875  0.019712906  0.019412725          119 
  370000   0.66716129   -7.0473815    87.422426  0.019689736  0.019357862           66 
  371000   0.67898488    -7.070244    87.205913  0.019588031  0.019302983          190 
  372000   0.67859562   -7.0666066    87.359491  0.019569779  0.019247833          101 
  373000   0.68090175   -7.0549345    87.138847  0.019468018  0.019192998          170 
  374000   0.66253702   -7.0748548     87.20373  0.019430421  0.019138099          120 
  375000   0.66416819   -7.0939106    87.389985  0.019419997  0.019083114           75 
  376000   0.67936717   -7.0909985    87.363788  0.019362542  0.019028246           41 
  377000   0.65749849   -7.0697407     87.25553  0.019287252  0.018973498           65 
  378000   0.65715461     -7.09008     87.35728   0.01925866  0.018918952          102 
  379000   0.66496578   -7.0912245    87.187749  0.019170569  0.018864691           38 
  380000   0.66900052   -7.0966668    87.496086  0.019187738  0.018810111           66 
  381000   0.66250232   -7.1064118    87.244196  0.019082283  0.018755865           77 
  382000   0.66519567   -7.1328309    87.374895  0.019060841  0.018701761           61 
  383000   0.67434001   -7.1227823    87.388921  0.019014125  0.018647573          146 
  384000   0.66086457   -7.1049162    87.426269  0.018972715  0.018593659          149 
  385000   0.66156723   -7.1140066    87.605562  0.018962243  0.018539612           51 
  386000    0.6462447   -7.1110369    87.446852  0.018878854  0.018485875          154 
  387000   0.65480748   -7.0966314    87.214467  0.018780032  0.018432172           85 
  388000   0.66152678   -7.1461804    87.478537  0.018788346  0.018378454          387 
  389000   0.64618801   -7.1276069    87.531839  0.018751465  0.018324792          322 
  390000   0.64485635   -7.1417714    87.461338   0.01868832  0.018270965          381 
  391000   0.63335162   -7.1287292    87.468542  0.018642059  0.018217258          354 
  392000   0.65433854   -7.1301559    87.632344  0.018629325  0.018163842          290 
  393000   0.63751223   -7.1403377    87.230559  0.018496726  0.018110559          542 
  394000   0.62904914   -7.1547331    87.406392   0.01848697  0.018057288          430 
  395000   0.63579846   -7.1733683    87.164908  0.018389221  0.018004008          508 
  396000   0.64354636   -7.1491881    87.262362  0.018363292  0.017950553          481 
  397000   0.63533475   -7.1830569     87.19972  0.018303887  0.017896961          519 
  398000   0.62526455   -7.1548088    87.259826  0.018270483  0.017843407          473 
  399000   0.62448088    -7.171514    87.289874  0.018230968  0.017790012          472 
  400000   0.62509797   -7.1538312    87.175452  0.018161553  0.017736782          395 
  401000   0.63077196   -7.1819141    87.190605  0.018119411  0.017683788          501 
  402000   0.61689351     -7.17437    87.313452  0.018099803  0.017630656          541 
  403000   0.61534266   -7.1697147    87.276309   0.01804721  0.017577772          458 
  404000    0.6132328   -7.1768482    87.273576  0.018001975  0.017525092          561 
  405000   0.62401114   -7.1785817    87.312743  0.017965585  0.017472445          467 
  406000    0.6021902   -7.1687634    87.137239  0.017885312  0.017419835          532 
  407000   0.62180398   -7.1955707    87.243719  0.017863169   0.01736723          536 
  408000   0.62099217   -7.2059475    87.162435  0.017802785  0.017315037          581 
  409000   0.61386854   -7.1985089    87.183089  0.017763466  0.017262937          633 
  410000   0.61368392     -7.21276    87.061358  0.017695398  0.017210837          765 
  411000   0.60004689   -7.2106162    87.198267  0.017680103  0.017158721          676 
  412000   0.61854062   -7.2246216    87.278542  0.017653427  0.017106749          755 
  413000   0.60468926   -7.2302158    87.236021  0.017602103  0.017055109          763 
  414000   0.59884345   -7.2404529    87.201196  0.017552576  0.017003538          754 
  415000   0.60711283   -7.2305043     87.25241  0.017520564  0.016952146          804 
  416000   0.60340532   -7.2257282    87.177892   0.01746352   0.01690095          898 
  417000   0.59544552   -7.2561754    87.227178   0.01743149   0.01684966          904 
  418000    0.6062486   -7.2398002    87.064351  0.017357327  0.016798483          869 
  419000   0.60367981   -7.2680064    87.101497  0.017323289  0.016747467          996 
  420000   0.59180598   -7.2287981    87.157589  0.017293172   0.01669672          954 
  421000   0.60276614   -7.2547015    87.209124  0.017262297  0.016646103          951 
  422000   0.59226664   -7.2646425    87.175348  0.017214721  0.016595561          962 
  423000   0.59891469   -7.2690104    87.164914  0.017171969  0.016545269          997 
  424000   0.58394298   -7.2541423    86.999619  0.017098982  0.016495039         1001 
  425000   0.61094273   -7.2699695    87.079101  0.017074333  0.016445006          978 
  426000   0.57882164   -7.2738236    87.167665  0.017051578  0.016395034          917 
  427000     0.573594   -7.2678935    87.327106  0.017042761  0.016345344         1024 
  428000   0.59514178   -7.2867023    87.158653  0.016970143  0.016295754         1088 
  429000    0.5915084   -7.2892075    87.392977  0.016976103  0.016246368         1039 
  430000    0.5845568   -7.2850524    87.158527  0.016891187  0.016197115         1092 
  431000   0.58800023   -7.2962419    87.134054  0.016847265  0.016147918         1184 
  432000   0.57658689   -7.2905837     87.19086  0.016819225  0.016099022         1180 
  433000   0.56974334   -7.2871599    87.185024  0.016779258  0.016050275         1114 
  434000   0.57459228   -7.2981721    87.079818  0.016720395  0.016001722         1149 
  435000   0.57095822   -7.2962578    87.274219  0.016719199  0.015953367         1139 
  436000   0.57075862   -7.3034217    87.231923  0.016672768  0.015905126         1229 
  437000    0.5794636   -7.3020073    87.048437  0.016599626   0.01585695         1282 
  438000   0.57447859   -7.3249136    87.231698  0.016596594  0.015808911         1199 
  439000   0.56165592   -7.3138519    87.324563  0.016576417  0.015760992         1243 
  440000      0.57024   -7.3350554    87.209893  0.016517025   0.01571321         1255 
  441000   0.56474926   -7.3336788    87.363517  0.016508601  0.015665609         1261 
  442000   0.56698812   -7.3102864    87.072017  0.016416293  0.015618237         1259 
  443000   0.56190606   -7.3351781    87.267068  0.016415927  0.015571068         1279 
  444000   0.54509701   -7.3533026    87.210966  0.016368425  0.015523919         1330 
  445000   0.55695212   -7.3440944    87.023384  0.016296514  0.015476832         1368 
  446000   0.56140043   -7.3269808    87.257168  0.016303656  0.015429955         1286 
  447000   0.56448446   -7.3450866    87.032476  0.016225294  0.015383069         1376 
  448000   0.55150336   -7.3508245    87.197326  0.016219741  0.015336356         1383 
  449000   0.55404739   -7.3753798    87.219404  0.016187714  0.015289774         1353 
  450000    0.5428299   -7.3550644    87.238623  0.016155301  0.015243295         1352 
  451000   0.54820027   -7.3346103    87.185238  0.016109615  0.015196955         1395 
  452000   0.54835663   -7.3399919    87.026919  0.016044786  0.015150871         1355 
  453000   0.54684848   -7.3657218    87.111829  0.016024987  0.015104901         1455 
  454000   0.54036671   -7.3654544    87.144132  0.015995619  0.015059003         1482 
  455000   0.54559408   -7.3685288    86.943066  0.015923639  0.015013191         1399 
  456000    0.5461542   -7.3877883    87.077267  0.015913243  0.014967575         1475 
  457000   0.53947992   -7.3902974    86.941119  0.015853596  0.014922079         1478 
  458000   0.53384095   -7.3842921    87.118208  0.015851202  0.014876777         1486 
  459000   0.54514893   -7.3923094     86.97149  0.015790031   0.01483148         1495 
  460000   0.52960621   -7.3757315    86.989499  0.015758967   0.01478641         1467 
  461000   0.53065112   -7.3905883    87.011731  0.015728802  0.014741532         1478 
  462000   0.52357431   -7.4133056    86.933798    0.0156807  0.014696754         1385 
  463000   0.53009692    -7.406242    86.879961  0.015637142  0.014652045         1492 
  464000   0.52085279   -7.4003837    86.762103  0.015582274   0.01460752         1447 
  465000   0.52365052   -7.4268945     87.14564  0.015617498  0.014563122         1551 
  466000   0.52876501   -7.4143827    86.991549  0.015556429  0.014518975         1500 
  467000   0.51175391   -7.4066416    86.883827  0.015503895  0.014474882         1509 
  468000   0.51153603   -7.4237543    86.968249  0.015485799  0.014430969         1559 
  469000   0.53054692   -7.4213504      86.9152  0.015443355  0.014387181         1470 
  470000   0.52568613   -7.4091492    86.779551  0.015386445  0.014343485         1480 
  471000   0.51842502   -7.4305145     86.88728  0.015372838  0.014299906         1594 
  472000   0.51006478   -7.4266027    86.843249  0.015332495    0.0142565         1575 
  473000   0.52307783   -7.4299609    86.787577  0.015290271  0.014213265         1497 
  474000   0.51042841   -7.4451981    86.907072  0.015279021   0.01417006         1535 
  475000   0.51479974    -7.422493    86.792537  0.015226761  0.014127096         1566 
  476000   0.50321526   -7.4248838     86.89044  0.015211912  0.014084246         1528 
  477000   0.49164709   -7.4148674    86.872313  0.015176854  0.014041587         1484 
  478000   0.50061749   -7.4507313    86.832919  0.015138235  0.013998929         1540 
  479000   0.50891661   -7.4473107     86.80775  0.015102253   0.01395645         1538 
  480000   0.50234068   -7.4454486    86.652434  0.015043825  0.013914001         1537 
  481000    0.4901683   -7.4556198    86.696954  0.015020262  0.013871764         1509 
  482000   0.49777931   -7.4467674    86.821161  0.015010574  0.013829723         1529 
  483000   0.50809397   -7.4484552     86.61206  0.014943419  0.013787734         1550 
  484000   0.48430288   -7.4487845    86.801489   0.01494516  0.013745925         1513 
  485000   0.50423914   -7.4332177    86.618569  0.014882916  0.013704259         1502 
  486000   0.49520382   -7.4591381    86.831786  0.014888852  0.013662763         1526 
  487000   0.50029642   -7.4661788    86.733059  0.014841386  0.013621434         1572 
  488000    0.4906866   -7.4666466    86.632282  0.014793764  0.013580157         1544 
  489000   0.49167192   -7.4615449    86.795091  0.014791256  0.013539075         1519 
  490000   0.48611976   -7.4623401    86.618494  0.014731036  0.013498107         1529 
  491000   0.48419526   -7.4919448    86.707573  0.014716153  0.013457329         1501 
  492000   0.47950317   -7.4525765    86.691818  0.014683573  0.013416739         1553 
  493000   0.48021541   -7.4884126    86.710998  0.014657031  0.013376205         1607 
  494000   0.48155246   -7.4785547    86.787012  0.014640184  0.013335882         1566 
  495000   0.47675933   -7.4801598    86.690395  0.014594343  0.013295686         1536 
  496000   0.48159455   -7.4791754    86.661636  0.014560087  0.013255598         1563 
  497000   0.48005258   -7.4747799     86.50954  0.014505288  0.013215703         1617 
  498000   0.47605066   -7.4982314    86.660386  0.014501403  0.013175917         1632 
  499000   0.47753252   -7.5030344    86.686074  0.014476632  0.013136241         1580 
  500000   0.47694664    -7.499831    86.612609  0.014435435  0.013096671         1631 
  501000   0.45895264   -7.4941922    86.562029  0.014398208  0.013057283         1618 
  502000   0.46207452   -7.4953089    86.604746  0.014376618  0.013018073         1625 
  503000   0.46930625    -7.489818     86.53362  0.014336252  0.012978969         1595 
  504000   0.46747864   -7.5047932    86.565556  0.014313088  0.012939957         1612 
  505000   0.46250038   -7.5136047     86.51886   0.01427704  0.012901107         1642 
  506000   0.46008531    -7.517369    86.736012  0.014284587  0.012862454         1679 
  507000   0.45954299   -7.5067236    86.557436   0.01422706  0.012823829         1597 
  508000   0.45855681   -7.5000452    86.527892  0.014194208  0.012785466         1610 
  509000   0.45108464   -7.4908883    86.519426  0.014164935  0.012747155         1687 
  510000   0.44992535   -7.5028306     86.42685  0.014122034   0.01270904         1639 
  511000    0.4496326     -7.53037    86.582057  0.014119709  0.012671015         1635 
  512000   0.46189284   -7.5033208    86.501229  0.014078976   0.01263314         1631 
Loop time of 1068.42 on 48 procs for 500000 steps with 4000 atoms

Performance: 80867.345 tau/day, 467.982 timesteps/s
99.4% CPU use with 48 MPI tasks x no OpenMP threads

MPI task timing breakdown:
Section |  min time  |  avg time  |  max time  |%varavg| %total
---------------------------------------------------------------
Pair    | 64.587     | 68.387     | 72.888     |  19.0 |  6.40
Neigh   | 6.6161     | 6.7719     | 6.9833     |   3.3 |  0.63
Comm    | 55.617     | 60.805     | 65.66      |  27.6 |  5.69
Output  | 0.86265    | 0.86317    | 0.87188    |   0.1 |  0.08
Modify  | 912.96     | 920        | 924.72     |   8.3 | 86.11
Other   |            | 11.59      |            |       |  1.08

Nlocal:        83.3333 ave          90 max          76 min
Histogram: 1 2 5 5 7 14 4 4 3 3
Nghost:        1748.38 ave        1764 max        1728 min
Histogram: 1 0 4 6 7 9 8 4 8 1
Neighs:        10607.6 ave       11554 max        9561 min
Histogram: 3 0 3 6 6 16 5 2 5 2
FullNghs:      21213.5 ave       22857 max       19200 min
Histogram: 1 2 4 6 6 11 6 4 4 4

Total # of neighbors = 1018247
Ave neighs/atom = 254.56175
Neighbor list builds = 27006
Dangerous builds = 0

#clear
#
#next RN
#
#jump SELF
Total wall time: 0:17:51
