
units lj                  # Use reduced LJ style units
atom_style atomic         # Uncharged point particles
atom_modify map hash      # Needed for indexing of clusters etc
                          # Used to be able to find where atoms are in relation to each other.

lattice fcc 1.0 spacing 1 1 1
Lattice spacing in x,y,z = 1.5874011 1.5874011 1.5874011
region box block 0 10 0 10 0 10 units lattice
create_box 2 box
Created orthogonal box = (0.0000000 0.0000000 0.0000000) to (15.874011 15.874011 15.874011)
  3 by 4 by 4 MPI processor grid
create_atoms 1 box
Created 4000 atoms
  using lattice units in orthogonal box = (0.0000000 0.0000000 0.0000000) to (15.874011 15.874011 15.874011)
  create_atoms CPU = 0.003 seconds
set type 1 type/fraction 2 0.54 78393
Setting atom values ...
  2170 settings made for type/fraction
mass 1 1.0
mass 2 1.0
pair_style lj/cut  3.5
pair_modify tail  yes
pair_coeff 1  1  1.0  1.0   # Intearaction between 1 and 1 set with epsilon = 1 and sigma = 1
pair_coeff 1  2  1.5  0.8
pair_coeff 2  2  0.5  0.88

write_data data.0
System init for write_data ...
Neighbor list info ...
  update every 1 steps, delay 10 steps, check yes
  max neighbors/atom: 2000, page size: 100000
  master list distance cutoff = 3.8
  ghost atom cutoff = 3.8
  binsize = 1.9, bins = 9 9 9
  1 neighbor lists, perpetual/occasional/extra = 1 0 0
  (1) pair lj/cut, perpetual
      attributes: half, newton on
      pair build: half/bin/atomonly/newton
      stencil: half/bin/3d
      bin: standard
WARNING: Not all mixed pair coeffs generated from mixing. Use write_data with 'pair ij' option to store all pair coeffs. (../write_data.cpp:312)


#############################
#   M E L T   S Y S T E M   #
#############################

velocity all create 2.4 1741580 mom yes dist gaussian # Assign velocities
                                                    # Temperature 2.4, random number seed, zero linear momentum
                                                                                # Gaussian distribution

timestep 0.002   # simulation timestep
thermo 1000       # output thermodynamic data every 1000 steps bf 100

# Define a fix  in this case with index 1 applied to all
# particles in the simulation. This fix is for simulations
# in the anisotropic NPT ensemble. Note that we use the MTK
# correction.
fix 1 all npt temp 2.4 2.4 0.1 iso 5.68 5.68 0.5 mtk yes tchain 5 pchain 5 # Use NPT ensemble
                                                                         # Set temperature and pressure and damping
                                                                         # Numbers of thermostats in chain and in barostat
run 10000          # run for 10000 steps
Per MPI rank memory allocation (min/avg/max) = 3.642 | 3.644 | 3.648 Mbytes
Step Temp E_pair E_mol TotEng Press Volume 
       0          2.4   -5.0605359            0   -1.4614359   -4.1673139         4000 
    1000     2.391353   -4.6940644            0   -1.1079316    5.6708638    3679.0167 
    2000    2.3963103   -4.8154047            0   -1.2218379    5.7587761    3608.4147 
    3000    2.4654389   -4.7570265            0   -1.0597927    5.5514611    3661.1278 
    4000    2.4711359    -4.701905            0  -0.99612793    5.4160339    3695.5778 
    5000    2.4061232   -4.8144443            0   -1.2061618    5.6280213    3620.0586 
    6000    2.3675355    -4.776794            0   -1.2263786    5.4856243    3657.2072 
    7000    2.4564008   -4.6917925            0   -1.0081125    6.0360148    3657.8084 
    8000    2.3632449   -4.6525462            0    -1.108565    5.8372248    3679.0049 
    9000    2.3912388   -4.7596131            0   -1.1736516    5.6282543    3650.9973 
   10000    2.3864751    -4.766266            0   -1.1874482    5.9490946    3627.7933 
Loop time of 2.68028 on 48 procs for 10000 steps with 4000 atoms

Performance: 644709.000 tau/day, 3730.955 timesteps/s
99.6% CPU use with 48 MPI tasks x no OpenMP threads

MPI task timing breakdown:
Section |  min time  |  avg time  |  max time  |%varavg| %total
---------------------------------------------------------------
Pair    | 1.1992     | 1.2715     | 1.3872     |   3.2 | 47.44
Neigh   | 0.21322    | 0.22431    | 0.23234    |   0.8 |  8.37
Comm    | 0.75993    | 0.88337    | 0.96181    |   4.0 | 32.96
Output  | 0.00024802 | 0.000255   | 0.00032057 |   0.0 |  0.01
Modify  | 0.26154    | 0.28492    | 0.31053    |   2.1 | 10.63
Other   |            | 0.01593    |            |       |  0.59

Nlocal:        83.3333 ave          92 max          75 min
Histogram: 1 4 6 1 12 12 4 4 2 2
Nghost:        1756.38 ave        1789 max        1732 min
Histogram: 2 4 11 5 10 7 1 5 2 1
Neighs:        10523.8 ave       11645 max        9373 min
Histogram: 2 2 6 7 6 10 5 5 3 2

Total # of neighbors = 505143
Ave neighs/atom = 126.28575
Neighbor list builds = 902
Dangerous builds = 190

# Equilibrate just above the melting temperature to avoid step fn in T

fix 1 all npt temp 1.25 1.25 0.1 iso 5.68 5.68 0.5 mtk yes tchain 5 pchain 5
run 2000
Per MPI rank memory allocation (min/avg/max) = 3.644 | 3.646 | 3.649 Mbytes
Step Temp E_pair E_mol TotEng Press Volume 
   10000    2.3864751    -4.766266            0   -1.1874482    5.9490946    3627.7933 
   11000    1.2507427   -6.8534749            0   -4.9778298    5.8886883    2817.9745 
   12000     1.252052   -6.9944117            0   -5.1168031     5.974706     2783.011 
Loop time of 0.65553 on 48 procs for 2000 steps with 4000 atoms

Performance: 527206.605 tau/day, 3050.964 timesteps/s
99.7% CPU use with 48 MPI tasks x no OpenMP threads

MPI task timing breakdown:
Section |  min time  |  avg time  |  max time  |%varavg| %total
---------------------------------------------------------------
Pair    | 0.28814    | 0.32583    | 0.35318    |   2.4 | 49.70
Neigh   | 0.042069   | 0.044733   | 0.047099   |   0.6 |  6.82
Comm    | 0.20513    | 0.23507    | 0.27613    |   3.1 | 35.86
Output  | 5.2658e-05 | 5.4156e-05 | 6.8783e-05 |   0.0 |  0.01
Modify  | 0.041198   | 0.044848   | 0.049213   |   1.1 |  6.84
Other   |            | 0.005      |            |       |  0.76

Nlocal:        83.3333 ave          89 max          76 min
Histogram: 1 0 2 9 7 7 12 4 1 5
Nghost:        2098.19 ave        2112 max        2077 min
Histogram: 1 0 4 1 7 10 8 7 6 4
Neighs:        13715.8 ave       15413 max       11845 min
Histogram: 1 1 1 9 8 12 9 4 1 2

Total # of neighbors = 658357
Ave neighs/atom = 164.58925
Neighbor list builds = 144
Dangerous builds = 6

#############################
# L I N E A R  Q U E N C H  #
#############################

# Define solid atoms. This closely follows ten Wolde  Ruiz-Montero and Frenkel  Faraday Discuss  1996  104  93-110
# Compute components of the per-atom q6 vector
compute q6 all orientorder/atom degrees 1 6 components 6 nnn NULL cutoff 1.3 # compute the Q6 parameter.
                                                                             # Use all neighbours within 1.3 unit cell.

# get number of connections
compute coord_number all coord/atom orientorder q6 0.5

# An atom is solid if it has 8 or more connections (of a possible 14)
variable is_solid atom c_coord_number>=8
group solid dynamic all var is_solid    # Must be dynamic to update
dynamic group solid defined

# do clustering
compute cluster solid cluster/atom 1.3 # Create a cluster where all atoms within are solid and max 1.3 units from another member

# define chunks one chunk per cluster
compute clus_chunks solid chunk/atom c_cluster nchunk every compress yes  # Says which atoms are in which chunk

# count the size of each chunk
compute size_chunks solid property/chunk clus_chunks count


# Find the maximum entry in the vector of chunk sizes
variable max_n equal max(c_size_chunks)


# Thermo style which includes this variable
# thermo_style custom step temp pe vol v_max_n

thermo ${N}  # Print the thermo information every 100 steps
thermo 1000  

# Reset the npt fix at a lower temperature (below freezing)
fix 1  all npt temp  ${temp} ${temp}  0.1  iso  5.68  5.68  0.5  mtk yes tchain  5  pchain  5
fix 1  all npt temp  0.45 ${temp}  0.1  iso  5.68  5.68  0.5  mtk yes tchain  5  pchain  5
fix 1  all npt temp  0.45 0.45  0.1  iso  5.68  5.68  0.5  mtk yes tchain  5  pchain  5

dump dmp2 all dcd ${N} traj.dcd
dump dmp2 all dcd 1000 traj.dcd


compute msd all msd com yes
variable twopoint equal c_msd[4]/6/(step*dt+1.0e-6)
fix 9 all vector 10 c_msd[4]
variable fit equal slope(f_9)/6/(10*dt)
thermo_style custom step temp pe c_msd[4] v_twopoint v_fit v_max_n

fix 1 all npt temp 1.25 ${temp} 0.1 iso 5.68 5.68 0.5 mtk yes tchain 5 pchain 5
fix 1 all npt temp 1.25 0.45 0.1 iso 5.68 5.68 0.5 mtk yes tchain 5 pchain 5
run 500000 # 5000000  # Run for this many steps
Neighbor list info ...
  update every 1 steps, delay 10 steps, check yes
  max neighbors/atom: 2000, page size: 100000
  master list distance cutoff = 3.8
  ghost atom cutoff = 3.8
  binsize = 1.9, bins = 8 8 8
  4 neighbor lists, perpetual/occasional/extra = 1 3 0
  (1) pair lj/cut, perpetual
      attributes: half, newton on
      pair build: half/bin/atomonly/newton
      stencil: half/bin/3d
      bin: standard
  (2) compute orientorder/atom, occasional
      attributes: full, newton on
      pair build: full/bin/atomonly
      stencil: full/bin/3d
      bin: standard
  (3) compute coord/atom, occasional
      attributes: full, newton on
      pair build: full/bin/atomonly
      stencil: full/bin/3d
      bin: standard
  (4) compute cluster/atom, occasional
      attributes: full, newton on
      pair build: full/bin/atomonly
      stencil: full/bin/3d
      bin: standard
Per MPI rank memory allocation (min/avg/max) = 9.843 | 9.849 | 9.853 Mbytes
Step Temp PotEng c_msd[4] v_twopoint v_fit v_max_n 
   12000     1.252052   -6.9944117            0            0 8.3333333e+20            3 
   13000    1.2356498   -7.0224108   0.43638826 0.0027973605  0.035561786            3 
   14000    1.2571418   -6.9576039    0.8522865 0.0050731337  0.034395125            2 
   15000    1.2271885   -6.9693407    1.2752092 0.0070844951  0.034866904            4 
   16000    1.2539523   -6.9281549    1.6942014 0.0088239651  0.034572276            2 
   17000    1.2561232   -7.0160626    2.0863893  0.010227398  0.034384331            4 
   18000    1.2420818   -6.9932013    2.4650627  0.011412327  0.033952957            2 
   19000    1.2367085   -7.0214981    2.8270712  0.012399435  0.033358018            1 
   20000    1.2410207    -7.036835    3.2706833  0.013627847  0.033310521            2 
   21000     1.236194   -7.0376578    3.6325434  0.014414854   0.03338089            3 
   22000    1.2371155   -7.0468197    4.0072299  0.015178901  0.033217944            3 
   23000     1.217923   -7.0423088    4.3587063  0.015792414  0.032947461            2 
   24000    1.2687191   -7.0634273    4.7543773  0.016508254  0.032769598            1 
   25000    1.2366202   -7.0687759    5.1358708  0.017119569  0.032656354            2 
   26000    1.2314985   -7.0662907    5.5407007  0.017758656  0.032572417            2 
   27000    1.2145292   -7.0023579    5.9341992  0.018315429  0.032495254            1 
   28000    1.2411958   -7.0730496    6.3077781  0.018773149  0.032454233            3 
   29000    1.2351129   -7.0585689    6.7935637  0.019521734  0.032495886            3 
   30000    1.2305471   -7.0820676    7.1363933  0.019823314  0.032578746            2 
   31000    1.2204261   -7.0990495    7.4874383  0.020127522  0.032545426            4 
   32000    1.2098397   -7.0613487    7.8787239   0.02051751    0.0325389            6 
   33000    1.2241272   -7.0126811    8.3440653  0.021070872  0.032520128            2 
   34000    1.1956979   -7.0999853    8.6644472   0.02123639  0.032565908            1 
   35000    1.1913745   -7.0171545    9.0379024  0.021518815  0.032543936            4 
   36000    1.1989692   -7.0677171     9.252296  0.021417351  0.032432829            2 
   37000    1.2266648   -7.0306496    9.6525008  0.021739866  0.032255963            2 
   38000    1.1936322   -7.0593438    10.088636  0.022124201  0.032162156            1 
   39000    1.2216725   -7.1105028    10.487082  0.022408294  0.032092645            1 
   40000    1.1800149   -7.0768329    10.811027  0.022522972  0.032051562            2 
   41000    1.1863589   -7.0759815    11.086781  0.022534107  0.031949133            1 
   42000    1.2096314   -7.1119382    11.443086  0.022704536  0.031845234            1 
   43000    1.2150373   -7.1595244    11.831112  0.022928511  0.031784095            1 
   44000    1.1903444   -7.0965195     12.12575  0.022965435  0.031696039            2 
   45000    1.1873077   -7.1004414    12.378093  0.022922393  0.031549928            1 
   46000    1.1971018   -7.1185124    12.738556  0.023077093  0.031410586            2 
   47000    1.2039421   -7.1154009    13.053893  0.023145201  0.031267324            3 
   48000    1.1883241   -7.1071985    13.317061  0.023119897  0.031134878            1 
   49000    1.2036768   -7.1365055    13.579521  0.023094424  0.030962937            2 
   50000    1.1908333   -7.1069443    14.002791  0.023337985  0.030809626            5 
   51000    1.1970858   -7.1249654    14.181468  0.023172332  0.030662552            2 
   52000    1.1831314   -7.1333724    14.622629    0.0234337  0.030524046            3 
   53000    1.2166762    -7.135719    15.026734  0.023626941  0.030425862            3 
   54000     1.189271   -7.0991598    15.497407  0.023915751  0.030358732            1 
   55000    1.1815986   -7.2112592    15.647312  0.023708048  0.030286674            1 
   56000    1.1805134   -7.1716563    16.036616  0.023864011  0.030207745            2 
   57000    1.1953213   -7.1525803    16.337671  0.023885483  0.030125478            3 
   58000    1.1680173   -7.1541699     16.62004  0.023879367  0.030040445            2 
   59000    1.1618535    -7.189271    16.924521   0.02390469  0.029946954            2 
   60000    1.1690601   -7.1785739     17.22874  0.023928806  0.029852056            3 
   61000    1.1757913   -7.1654463    17.527614  0.023944828  0.029755933            3 
   62000    1.1694606   -7.1908614    17.812643  0.023941724  0.029655993            1 
   63000    1.1441951   -7.2032219    18.118542  0.023966325   0.02956043            4 
   64000    1.1796047   -7.1725519    18.573502  0.024184247  0.029474601            3 
   65000    1.1641189   -7.1956166    18.916614  0.024252068  0.029408375            2 
   66000     1.185465   -7.1975144    19.032533  0.024030976  0.029328861            2 
   67000     1.148926   -7.1533514    19.545098  0.024309823   0.02925156            1 
   68000    1.1769361   -7.2240588    19.858297  0.024336148   0.02918522            5 
   69000     1.158428   -7.2363419    20.123031  0.024303177  0.029119309            1 
   70000     1.142756   -7.2430552    20.337251  0.024211013  0.029042781            6 
   71000    1.1487216   -7.2151943     20.50229  0.024063721  0.028956509            2 
   72000    1.1231289   -7.2570532    20.743757  0.024008977  0.028855628            1 
   73000    1.1793081   -7.2873777    20.903829  0.023862818  0.028748493            1 
   74000     1.144012   -7.2369181    21.222704  0.023899441  0.028640332            4 
   75000    1.1650316    -7.259594    21.461798  0.023846442  0.028529205            4 
   76000    1.1437371    -7.266074    21.639081  0.023727063  0.028418864            2 
   77000    1.1332147   -7.2199011    22.104789  0.023922931  0.028314005            6 
   78000    1.1347576   -7.2788126    22.313703  0.023839427  0.028218157            4 
   79000    1.1561175    -7.258715    22.700848  0.023946042  0.028132123            4 
   80000    1.1490858   -7.2537478    23.005282  0.023963835  0.028045685            8 
   81000    1.1406837   -7.2682769    23.359001  0.024031893  0.027971658            5 
   82000     1.116716   -7.2444964    23.563837  0.023946989  0.027895212            5 
   83000    1.1474331    -7.212707    23.843954  0.023939713   0.02781343            5 
   84000    1.1187454   -7.2465806    24.141891  0.023950289   0.02773306            4 
   85000    1.1543378   -7.2999654    24.436866  0.023957711  0.027655818            2 
   86000    1.1227085   -7.3035122    24.811718  0.024042362   0.02758737            2 
   87000    1.1548831   -7.3004556    24.980764  0.023927935   0.02751513            2 
   88000    1.1383371   -7.3139953     25.14615  0.023812642   0.02743609            1 
   89000    1.1466671   -7.2769528    25.543607  0.023917235  0.027358874            4 
   90000    1.1284739   -7.2923232    25.836246   0.02392245  0.027282738            2 
   91000    1.1416426   -7.2867112    26.081549  0.023884202  0.027210597            2 
   92000    1.1090463   -7.2964982     26.37723  0.023892418  0.027146409            4 
   93000    1.1145053   -7.3226467    26.603037  0.023837847  0.027076805            2 
   94000    1.1148364   -7.3438804     26.88665  0.023835683  0.027012513            3 
   95000    1.1236717   -7.3261061    27.236618   0.02389177  0.026948091            3 
   96000    1.1252103   -7.3524359    27.498594  0.023870307  0.026884838            1 
   97000    1.1119441   -7.3686413    27.548395  0.023667006  0.026819341            2 
   98000    1.1060066   -7.3423169    27.751658  0.023598349  0.026743462            3 
   99000    1.1135722   -7.3266992    28.049398  0.023610604  0.026671104            1 
  100000    1.1047806   -7.3625006    28.130053  0.023441711  0.026593514            2 
  101000    1.0940292   -7.3528944    28.475754  0.023494847  0.026512215            4 
  102000    1.0986987   -7.3894034    28.750074  0.023488623  0.026435287            3 
  103000    1.1139179   -7.3575953    28.964175  0.023433799  0.026361404            1 
  104000    1.1096586   -7.3717269     29.21151  0.023406659  0.026283542            2 
  105000    1.0917557   -7.4041226    29.432766  0.023359338  0.026204769            5 
  106000    1.0901079   -7.3695636    29.767017  0.023401743  0.026129944            4 
  107000    1.1066126   -7.3827848    29.904884  0.023290408  0.026058277            4 
  108000    1.0963372   -7.4085906    30.067187   0.02319999  0.025982804            4 
  109000    1.1040075   -7.3848464     30.45209  0.023281415  0.025907453            1 
  110000    1.0999427   -7.3804153      30.6663  0.023232045  0.025835694            9 
  111000    1.1066494   -7.4077584    30.853534  0.023163314  0.025763159            7 
  112000    1.1013539   -7.3889846     31.01194   0.02307436  0.025692604            6 
  113000    1.0673757   -7.3958966    31.060212  0.022905761  0.025613655            4 
  114000     1.054585   -7.4052098    31.330909  0.022902711  0.025534435            3 
  115000    1.0700719   -7.4489609    31.381335  0.022740098   0.02545359            2 
  116000    1.0887051   -7.4281301    31.585543  0.022690764    0.0253691            3 
  117000    1.0600536   -7.3881324    31.831881   0.02267228  0.025282091            3 
  118000    1.0781202   -7.3995318    32.084744  0.022658717  0.025198634            6 
  119000    1.0766778   -7.4464651     32.43489  0.022713508  0.025122001            4 
  120000    1.0711305   -7.4402929    32.559922  0.022611057  0.025044024            4 
  121000    1.0876594    -7.485883    32.745998   0.02255234  0.024965331            1 
  122000    1.0855922    -7.444888     33.00895  0.022547097  0.024887205            6 
  123000    1.0549247   -7.4818161    33.251209   0.02252792  0.024809302            3 
  124000     1.078732   -7.4275738    33.612596   0.02258911  0.024736116            5 
  125000    1.0806111   -7.4761483    33.736771   0.02249118   0.02466693            2 
  126000    1.0555229   -7.4430585    33.958605  0.022459395  0.024594736            5 
  127000    1.0614666   -7.4489453    34.213726  0.022449951  0.024524973            3 
  128000    1.0893953   -7.4114014      34.4323  0.022416862  0.024456715            3 
  129000    1.0641223    -7.491714    34.491707  0.022281464  0.024387991            6 
  130000    1.0648369   -7.5091384    34.675558  0.022227921  0.024314021            2 
  131000     1.069904   -7.5274121     34.83886  0.022162125  0.024241935           12 
  132000     1.098413   -7.4752142     35.05225  0.022128946  0.024165881            4 
  133000    1.0502731   -7.4854448    35.216184  0.022065278   0.02409213            1 
  134000    1.0433499   -7.4492732    35.627125  0.022156172  0.024023243            3 
  135000    1.0436761   -7.5288668    35.625778  0.021991221  0.023950948            4 
  136000    1.0450182   -7.4716448    35.722039  0.021888504  0.023875337            3 
  137000    1.0669635   -7.4974554    35.848309  0.021805541  0.023797854            3 
  138000     1.023152   -7.5342747    35.939604  0.021702659  0.023719078            3 
  139000    1.0421205   -7.5511788    35.942313  0.021548149  0.023638174            4 
  140000    1.0708515   -7.4830649    36.205937  0.021551153  0.023557004            6 
  141000     1.038769   -7.5485081    36.393108  0.021508929  0.023478202            6 
  142000    1.0376617   -7.5177953    36.691435  0.021532532   0.02340278            1 
  143000    1.0478154   -7.5424813    37.020901  0.021573952  0.023329321            2 
  144000    1.0444022   -7.5461368    37.150816  0.021499315  0.023255723            3 
  145000    1.0235633   -7.5919151     37.00959  0.021269879  0.023178996            3 
  146000    1.0367126   -7.5494797    37.307185  0.021294055  0.023102115            3 
  147000    1.0396023   -7.5082003    37.686062  0.021363981  0.023027709            4 
  148000    1.0328953   -7.5906309    37.670739  0.021211002  0.022956125            4 
  149000    1.0258566   -7.5453449    37.955655  0.021227995  0.022882401            2 
  150000     1.045865   -7.5690441     38.14743  0.021193017  0.022811252            3 
  151000    1.0357184    -7.563338    38.274926  0.021123027   0.02274028            3 
  152000    1.0226604   -7.5945252    38.450901  0.021080538  0.022670918            2 
  153000     1.026928   -7.5898526    38.597277  0.021022482   0.02260053            4 
  154000    1.0518817   -7.6285982    38.683168   0.02093245  0.022530408            3 
  155000   0.99427656   -7.6015831    39.066064   0.02100326   0.02246043            2 
  156000    1.0218557   -7.5979413    39.274513  0.020979975  0.022391315            8 
  157000    1.0242349   -7.6856012    39.229328  0.020822361  0.022323298            3 
  158000     1.042716   -7.5944751    39.598484  0.020885276  0.022254764            3 
  159000      1.01909   -7.5809251    39.598869  0.020754124  0.022185689            3 
  160000    1.0252744   -7.6001781    39.712651  0.020683672  0.022116624            7 
  161000     1.034413    -7.607639    39.772891  0.020586382  0.022047577            2 
  162000    1.0015068   -7.5880991    40.052039  0.020602901  0.021978934            4 
  163000    0.9897799   -7.6222881    40.103754  0.020502942  0.021911071            3 
  164000   0.99292461   -7.6092957    40.130789  0.020391661  0.021839385            5 
  165000     1.013056   -7.6305291    40.126363   0.02026584  0.021766472            4 
  166000    1.0009931   -7.6382283    40.393767  0.020277996  0.021694242            5 
  167000    1.0108781    -7.678523    40.268048  0.020093836  0.021620936            2 
  168000    1.0164454   -7.6670766     40.44763  0.020063308   0.02154749            4 
  169000   0.98956492   -7.6517234    40.703008  0.020070517  0.021472838            4 
  170000   0.98308492   -7.7130994    40.730785  0.019966071  0.021397938            5 
  171000    1.0045939   -7.7194662    40.887368  0.019925618  0.021323432            4 
  172000   0.98869332   -7.6910766    40.948992  0.019839628   0.02124909            6 
  173000   0.96537841   -7.7135064    41.053358  0.019775221  0.021175104            3 
  174000   0.99927411   -7.7063119    41.190846  0.019727417  0.021100271            8 
  175000    1.0052475   -7.6998796    41.264056   0.01964955  0.021024856            3 
  176000   0.97514417   -7.7236852    41.383377  0.019594402  0.020949134            4 
  177000   0.98471215   -7.6958468    41.425489  0.019503526  0.020874113            3 
  178000   0.95663046   -7.6988437    41.725197  0.019534268  0.020800014           19 
  179000   0.97132628   -7.6845806    41.712376  0.019419169  0.020726123            7 
  180000   0.97738917   -7.6828563    41.884557  0.019390998  0.020651649            7 
  181000   0.98443515   -7.7027456    42.086458  0.019376822  0.020579328            3 
  182000   0.97259587   -7.7576487    42.050622  0.019253948  0.020507404            4 
  183000   0.97067063   -7.7261021    42.223238   0.01922734  0.020435606            7 
  184000   0.98004779   -7.7515471    42.489092  0.019243248  0.020363711            2 
  185000   0.97512803   -7.7205947    42.374636  0.019087674  0.020291635            4 
  186000   0.96766408   -7.7538864    42.647825  0.019107449  0.020220675            7 
  187000    0.9823681   -7.7260062    42.702877  0.019029803  0.020149653            2 
  188000   0.95303957   -7.7564362    42.876094  0.019005361  0.020079656            3 
  189000   0.98860285   -7.7859731    42.927722  0.018927567  0.020010408            4 
  190000   0.95816168   -7.7455593    43.232317  0.018961542  0.019942211            2 
  191000   0.96085774   -7.7605254    43.268169  0.018877909  0.019875008            3 
  192000   0.96739095   -7.7731129    43.417015   0.01884419  0.019808384            3 
  193000   0.96181332   -7.7594881    43.576865  0.018815572  0.019743135            4 
  194000   0.97062462   -7.7967971    43.614784  0.018734873  0.019677896            2 
  195000   0.95185145    -7.747196    43.902709  0.018761841  0.019613042            5 
  196000   0.94859161   -7.7726237    43.764194  0.018607225  0.019547442            4 
  197000   0.95124193   -7.8088675    43.838716  0.018544296  0.019481319            5 
  198000   0.95517743   -7.7959828    43.969206  0.018505558  0.019414518            7 
  199000   0.95988365   -7.8537549    43.870053  0.018371044  0.019346583            2 
  200000    0.9504167   -7.8338968    43.835864  0.018264943  0.019278228            5 
  201000   0.95669221    -7.796796    44.150461  0.018304503  0.019209299            5 
  202000   0.93588636    -7.809754    44.373244  0.018305794  0.019141283            3 
  203000   0.92456002   -7.7942195     44.41555  0.018232984  0.019074864            7 
  204000   0.94983164   -7.8089829    44.578051  0.018209988  0.019009327           10 
  205000   0.93896318   -7.8403489    44.526689   0.01810028  0.018943216            6 
  206000   0.94525801   -7.8749046    44.515421  0.018007856     0.018876            8 
  207000     0.955126   -7.8398695     44.70481  0.017997105  0.018809841            9 
  208000   0.93972028   -7.8078628    44.748578  0.017928116  0.018744867            2 
  209000   0.94079542   -7.8564424    45.046221  0.017961013  0.018680545            3 
  210000   0.91818843   -7.8216825    45.177513  0.017927584  0.018617965           13 
  211000   0.93810785   -7.8166639    45.320439  0.017899068  0.018555342            5 
  212000    0.9420364   -7.8221902    45.557209  0.017907708  0.018493312            7 
  213000   0.90908073   -7.8543116    45.454472   0.01778344  0.018431408            4 
  214000   0.92316638   -7.8862764    45.401787  0.017679824  0.018369836            2 
  215000    0.9245026   -7.8704423    45.694844   0.01771118  0.018308279            5 
  216000   0.92092235   -7.9002143    45.654307  0.017613544  0.018247374            9 
  217000   0.92087083    -7.874998    45.801134  0.017588761  0.018186316            9 
  218000   0.95190038   -7.8570895    45.975478  0.017574724  0.018125732            5 
  219000   0.91383518   -7.8875553    46.076681  0.017532984  0.018065615            4 
  220000   0.91012463    -7.894546    46.227382  0.017510372  0.018007329           14 
  221000   0.90500359    -7.913729    46.288934  0.017454349  0.017949596            3 
  222000   0.90831014   -7.8772648    46.406658  0.017419917  0.017890886            6 
  223000   0.91924048   -7.9244489    46.352113  0.017321417  0.017831927           18 
  224000   0.91379059   -7.9468929     46.49384  0.017296815  0.017773135            3 
  225000   0.92480478   -7.9440682    46.461193  0.017207849  0.017713736            5 
  226000   0.90673187   -7.9338244    46.613423   0.01718784   0.01765476           10 
  227000    0.9060373   -7.9231122    46.551209  0.017089284  0.017595412           19 
  228000   0.89324585    -7.962658    46.732027  0.017080419  0.017536699            9 
  229000   0.91700824   -7.9519295    46.843988  0.017046575  0.017478678           15 
  230000   0.88516632   -7.9485292      46.7766  0.016948043   0.01741988            6 
  231000   0.90257719    -7.931268    47.056354  0.016975597  0.017361583            8 
  232000   0.87998467   -7.9698643    47.004497  0.016883799  0.017303659            5 
  233000   0.90334171   -8.0040145    47.138018  0.016859091  0.017246261            5 
  234000   0.86664002   -7.9775144     47.06285  0.016760274  0.017187551            5 
  235000   0.89416891   -7.9976373    47.044989   0.01668262  0.017129155            7 
  236000   0.88989879   -7.9711251    47.220443  0.016673885  0.017070602            9 
  237000   0.88297521   -7.9825483    47.183441  0.016590521  0.017011804            9 
  238000    0.8840371   -7.9604044    47.180633   0.01651983  0.016953267            5 
  239000   0.88285599   -7.9534443    47.229997  0.016467921  0.016893992           10 
  240000   0.88556331   -8.0044511    47.222754   0.01639679  0.016834834            6 
  241000   0.87562614   -7.9909496    47.300641  0.016355685  0.016775292           11 
  242000   0.88084855   -8.0248772    47.447961   0.01633883  0.016715645            5 
  243000   0.87934733   -8.0135358    47.377526  0.016247437  0.016656615            5 
  244000   0.85934229   -8.0171398    47.404764  0.016190152  0.016597273            6 
  245000   0.86009491   -8.0460936    47.429665  0.016132539  0.016537601           10 
  246000   0.89063042   -7.9877508    47.476735  0.016082905  0.016477887           21 
  247000   0.88517385   -8.0087465    47.563766  0.016047154  0.016418686           20 
  248000   0.88125131    -8.056174    47.505966  0.015963026  0.016359878            9 
  249000   0.86043118   -8.0405796    47.520339  0.015903728  0.016301013           12 
  250000   0.87516074   -8.0533131    47.659133  0.015886377  0.016242202            6 
  251000   0.87155392    -8.039006    47.816055  0.015875184  0.016183741           11 
  252000   0.87115747    -8.076799    47.892207   0.01583737  0.016126131            9 
  253000   0.84176505   -8.0585807    48.049614  0.015826619  0.016069268            8 
  254000   0.85480227   -8.0611041    48.094245  0.015778952  0.016013284            5 
  255000    0.8713839    -8.061972    48.170133  0.015741873  0.015957186            8 
  256000   0.83864011   -8.0601225    48.272603  0.015713738  0.015901651           10 
  257000    0.8670401   -8.0529546    48.233545   0.01563993  0.015846021            4 
  258000   0.86588994   -8.0876746     48.30138  0.015601221  0.015790381            5 
  259000   0.85134442   -8.0739563    48.452084  0.015589474  0.015735246            9 
  260000   0.84888504   -8.0992735    48.468714  0.015534844  0.015680186            9 
  261000   0.84632992   -8.0794129    48.488555  0.015481659  0.015625022           16 
  262000   0.85082836   -8.1088168    48.365285   0.01538336  0.015569908           23 
  263000   0.86894636   -8.1248283    48.242957  0.015286108   0.01551423            7 
  264000   0.84342093   -8.0964349    48.366417  0.015267177  0.015458653            6 
  265000   0.84110429   -8.1641418    48.450265  0.015235932  0.015403392           20 
  266000   0.82674451   -8.1127497    48.604947  0.015227114  0.015348768           29 
  267000     0.850478   -8.1698342    48.414716   0.01511071  0.015294251            8 
  268000   0.85351017   -8.1527686    48.525927  0.015088907  0.015239629           12 
  269000    0.8205385   -8.1299802    48.606554  0.015057792  0.015185194           13 
  270000   0.84711868   -8.1620043    48.671878  0.015022185  0.015131191           35 
  271000   0.82820017   -8.2003308    48.606345  0.014946601  0.015076752           25 
  272000   0.81610945   -8.1861933    48.681603  0.014914707  0.015022314           19 
  273000   0.80830723   -8.2007139    48.779025  0.014889812   0.01496813           18 
  274000   0.83439597   -8.1845756    48.728845  0.014820208  0.014914302           19 
  275000   0.82380744   -8.1688721    48.728843  0.014766316  0.014860399           29 
  276000   0.82412929   -8.2000391    48.789632  0.014731169  0.014807054           21 
  277000   0.80120145   -8.1821488    48.839319  0.014692936  0.014753747           29 
  278000   0.80930981   -8.1843893    48.740571  0.014610483  0.014700194           29 
  279000   0.83086087   -8.1869094    49.109511  0.014668313  0.014647189           28 
  280000   0.79905604   -8.2136841    49.048039  0.014597631  0.014594642           26 
  281000   0.81188975   -8.2330302    48.968092  0.014521973  0.014542501           26 
  282000   0.81109779   -8.1970031     49.02719   0.01448794   0.01449016           25 
  283000   0.80613402   -8.1567591    49.150476   0.01447305  0.014438077           42 
  284000   0.81442521    -8.219568    49.071336  0.014398866  0.014386344           53 
  285000   0.81957293   -8.2144326    49.178375  0.014379642  0.014334973           15 
  286000   0.82863231    -8.165753    49.320849  0.014370877  0.014283899           23 
  287000   0.79613496   -8.2273456    49.274006  0.014307203   0.01423327           39 
  288000    0.8208943   -8.2219136     49.34271  0.014277404  0.014183037           22 
  289000   0.80563352    -8.237949    49.347683  0.014229436   0.01413284           35 
  290000   0.80279903    -8.246541    49.493715  0.014222332  0.014082889           48 
  291000   0.79029731   -8.2408346    49.497923  0.014174663  0.014033399           38 
  292000   0.76962582   -8.2486161    49.432172  0.014107355  0.013983596           20 
  293000    0.7906841   -8.2540915    49.387798  0.014046587  0.013933693           59 
  294000    0.7959129   -8.2676695    49.205003  0.013946996  0.013883524           54 
  295000   0.78577978   -8.2617203    49.388428  0.013951533  0.013833261           53 
  296000   0.79296223    -8.273644    49.387004  0.013903999   0.01378373           11 
  297000       0.7936   -8.2809022    49.433431  0.013870211  0.013733884           43 
  298000   0.80945636   -8.2870972    49.336663  0.013796606  0.013684074           43 
  299000   0.78197676   -8.2811212     49.38355  0.013763531  0.013634158           63 
  300000   0.78044981   -8.2952858    49.466531  0.013740703  0.013584717           27 
  301000   0.78289245   -8.3011804    49.503697  0.013705342  0.013535534           57 
  302000   0.78455624   -8.3017702    49.532004  0.013667772  0.013486366           30 
  303000   0.78417326   -8.2784308    49.584784  0.013637179  0.013437492           37 
  304000   0.77336231   -8.3471358    49.550014  0.013582789  0.013388803           33 
  305000   0.79241306   -8.2884406    49.615991  0.013556282  0.013340372           43 
  306000   0.78561389    -8.311856    49.549342  0.013493829   0.01329205           43 
  307000   0.77496968   -8.3238114     49.48061  0.013431219  0.013243714           25 
  308000   0.78025377   -8.3428322    49.567088  0.013411009  0.013195532           28 
  309000   0.75091185   -8.3696068    49.395523  0.013321339  0.013146798           41 
  310000   0.76333696   -8.3665593    49.416977  0.013284134   0.01309821           35 
  311000   0.78698108   -8.3449948    49.503023  0.013264476  0.013049867           22 
  312000   0.78650217    -8.364958    49.623196  0.013254059  0.013001728           23 
  313000   0.76950368   -8.3588645    49.502572  0.013179598  0.012953427           33 
  314000   0.76808461   -8.3699861    49.559689  0.013152784  0.012905343           16 
  315000    0.7593325   -8.3610804     49.59094  0.013119296  0.012857402           28 
  316000   0.76217951   -8.3706239    49.546281  0.013066002  0.012809818           17 
  317000   0.76407272   -8.3807749    49.601237  0.013039231  0.012762418           29 
  318000   0.75223031   -8.3897579    49.442731   0.01295669  0.012714862           31 
  319000   0.75781898   -8.3893931    49.610239  0.012959832  0.012667664           37 
  320000   0.74613067   -8.3905394    49.594351  0.012915196  0.012620623           23 
  321000   0.77065769   -8.3829721    49.567798  0.012868068  0.012573609           26 
  322000   0.75681076   -8.3850194      49.5469  0.012822697  0.012526666           44 
  323000   0.75601348   -8.4116841    49.578314  0.012791103  0.012479769           49 
  324000   0.74763418   -8.3997625    49.659808  0.012772584   0.01243317           45 
  325000   0.75509646   -8.4000005    49.569181  0.012710047  0.012386614           55 
  326000   0.75386058   -8.3937379    49.726989  0.012711398   0.01234029           46 
  327000   0.75509112   -8.4206892    49.605566  0.012641582  0.012294276           51 
  328000   0.74402163   -8.4522566    49.663529  0.012617766  0.012248609           58 
  329000   0.74419144   -8.4114769    49.729609  0.012596152   0.01220299           36 
  330000   0.73741996   -8.4407269     49.70103  0.012550765  0.012157589           49 
  331000   0.74252983   -8.4492802     49.69732  0.012511913  0.012112366           51 
  332000   0.75438021   -8.4267899    49.704862   0.01247612  0.012067425           47 
  333000   0.73259311   -8.4215099    49.724444  0.012443555  0.012022524           40 
  334000   0.74331961   -8.4593094    49.554141  0.012363808   0.01197749           56 
  335000   0.74829404   -8.4459543    49.583057  0.012334094  0.011932715           53 
  336000   0.74575963   -8.4533117    49.660539  0.012316602  0.011888165           66 
  337000   0.75062175   -8.4532126    49.775104  0.012308384  0.011843693           33 
  338000   0.72651529   -8.4638043    49.485364  0.012200534  0.011799564           60 
  339000   0.72160094   -8.4847375     49.52467  0.012174206  0.011755156           55 
  340000   0.73711644   -8.5050934    49.602466  0.012157467  0.011710949           38 
  341000   0.71985373   -8.5063398    49.623351  0.012126919  0.011667047           49 
  342000   0.72005992   -8.5294455    49.636902  0.012094762  0.011623065           48 
  343000   0.71541876   -8.4986454    49.576265  0.012044768  0.011579163           67 
  344000   0.71480114   -8.4912769    49.549704   0.01200332  0.011535413           47 
  345000   0.70541914   -8.5297065    49.531816  0.011964207  0.011491814           56 
  346000   0.71789751   -8.4856006    49.504258  0.011922991  0.011448304           71 
  347000   0.71339836   -8.5399942     49.56511  0.011903244  0.011404876           61 
  348000   0.70697596   -8.5184496    49.545178  0.011864267  0.011361868           62 
  349000   0.70905449   -8.5238424    49.633606  0.011851386  0.011318934           71 
  350000   0.69600813    -8.527792    49.635937   0.01181808  0.011276195           88 
  351000    0.7264209   -8.5306501    49.557478  0.011765783  0.011233648           86 
  352000   0.70881987   -8.5406324    49.532067  0.011726342  0.011191086           63 
  353000   0.70486607    -8.538176    49.608874  0.011711254   0.01114878           71 
  354000   0.70646238    -8.552189     49.54323  0.011662719   0.01110637           83 
  355000   0.69789726   -8.5429152      49.5267  0.011625986  0.011064376           83 
  356000   0.70836053   -8.5570802    49.517872  0.011591262  0.011022407           73 
  357000    0.6900967   -8.5638205    49.549262  0.011566121  0.010980598           70 
  358000   0.69860812    -8.576728    49.416515  0.011502913  0.010938741           82 
  359000    0.7017179   -8.5615463    49.436384  0.011475484  0.010897108           85 
  360000   0.69771718   -8.5557425    49.499526  0.011458224  0.010855671           56 
  361000   0.68757276   -8.5716557    49.448982  0.011414816  0.010814543           67 
  362000   0.68432182   -8.5724304    49.431481  0.011379254  0.010773335           85 
  363000    0.6760587   -8.5772209     49.41613  0.011344382  0.010732308           68 
  364000   0.67714213   -8.5857078    49.427202  0.011315751  0.010691337           93 
  365000   0.67818979   -8.5516207    49.509936  0.011303638  0.010650521           78 
  366000   0.69220683   -8.5971516    49.344229  0.011235025  0.010609772           45 
  367000   0.66666535   -8.5958193    49.412806  0.011219983  0.010569192           97 
  368000   0.67261956   -8.5762285     49.41869  0.011190827  0.010528869           95 
  369000   0.68846567   -8.5932331    49.462478  0.011170388  0.010488855           90 
  370000   0.66372114   -8.5856756    49.366879  0.011118666  0.010448793          101 
  371000   0.67705954   -8.5948452      49.3645  0.011088162  0.010409027           66 
  372000   0.69409074   -8.5965661    49.429466  0.011072909  0.010369377          102 
  373000   0.66761558   -8.6206398    49.294855  0.011013149  0.010329836           94 
  374000   0.67340947    -8.610832    49.428724   0.01101353  0.010290365          100 
  375000   0.66656679   -8.6207613    49.334189  0.010963153  0.010251017          101 
  376000   0.67674903    -8.625379    49.250293  0.010915402  0.010211743           60 
  377000   0.68555834   -8.6083986    49.298416  0.010897086  0.010172685           83 
  378000   0.67159296   -8.6171328    49.353755  0.010880457  0.010133881           89 
  379000   0.65112141   -8.6191293    49.317583  0.010843796  0.010095408           96 
  380000   0.66025688   -8.6167568    49.338059   0.01081975  0.010056887           79 
  381000   0.65403794   -8.6461035    49.361626  0.010796506  0.010018618          115 
  382000   0.65785756   -8.6689328    49.273332  0.010748982 0.0099804116          102 
  383000   0.66210497   -8.6846144     49.12674  0.010689021 0.0099423087          112 
  384000   0.65442342   -8.6666812    49.231212  0.010683857 0.0099042651          115 
  385000   0.66197202    -8.649132    49.230237  0.010655896 0.0098665066          123 
  386000   0.67177573   -8.6371494    49.236985  0.010629746   0.00982875          108 
  387000   0.66888071   -8.6487666    49.341032  0.010624684 0.0097912821          138 
  388000    0.6475161   -8.6912345    49.165157  0.010559527 0.0097538367          147 
  389000   0.63821659   -8.6816895    49.278314  0.010556622 0.0097166068          114 
  390000   0.64993014   -8.6706686    49.226811  0.010518549 0.0096795368          136 
  391000   0.64600839   -8.6847646     49.13693  0.010472491 0.0096426141          139 
  392000   0.63873145   -8.6715705    49.233751  0.010466359   0.00960578          125 
  393000   0.65427738   -8.6862738    49.129206  0.010417558 0.0095691377          121 
  394000   0.62883133   -8.6816267    49.083565  0.010381465 0.0095327026          119 
  395000   0.63165886   -8.6672802     49.23191  0.010386479 0.0094963727          123 
  396000   0.63510759   -8.6879921    49.236935  0.010361308 0.0094602741          116 
  397000    0.6169203   -8.6892469    49.234988    0.0103348  0.009424355          103 
  398000   0.62322236   -8.6994209    49.236268  0.010309101 0.0093886845          123 
  399000    0.6221625   -8.7051193    49.206645  0.010277077 0.0093531931          136 
  400000    0.6284804   -8.7076712    49.186364  0.010247159 0.0093177605          131 
  401000   0.62092427   -8.7224493    49.196558  0.010223724  0.009282524          121 
  402000    0.6223744   -8.7063039     49.13199  0.010184907 0.0092474902          101 
  403000   0.61264381   -8.7143624    49.129395  0.010159097 0.0092124881          115 
  404000    0.6244052   -8.7203036    49.148011  0.010137791 0.0091776796          104 
  405000   0.60814974   -8.7311012    49.237337  0.010131139 0.0091430226          114 
  406000   0.60923682   -8.7151934    49.222168  0.010103072 0.0091085839           82 
  407000    0.6223872   -8.7158297    49.172471  0.010068073 0.0090743265          111 
  408000   0.61811438   -8.7190827    49.180993  0.010045137 0.0090401792          122 
  409000   0.62372305   -8.7061975    48.995158 0.0099827135 0.0090060718          149 
  410000   0.62562047   -8.7487733    49.094912 0.0099786406  0.008972207          116 
  411000   0.61637521   -8.7416044    49.054508 0.0099461695 0.0089384324          130 
  412000   0.61069126   -8.7281101    49.192832 0.0099500064 0.0089048978           92 
  413000   0.62601125     -8.74598    49.135601 0.0099143666 0.0088715006          115 
  414000   0.61023254   -8.7551964    49.132845 0.0098898641 0.0088382862          102 
  415000   0.61153967   -8.7533888     49.02467 0.0098443112 0.0088052433          142 
  416000   0.60712301   -8.7439204    49.165268 0.0098488117 0.0087722867          156 
  417000   0.58993793    -8.767625    49.172392 0.0098266171 0.0087394048          142 
  418000   0.59016985   -8.7746748    49.079827 0.0097846546 0.0087067212          155 
  419000   0.59540279   -8.7803173    49.080698 0.0097614753 0.0086742091          168 
  420000   0.60316732   -8.7503319    49.032569 0.0097286844 0.0086417531          114 
  421000   0.59680198   -8.7555302    49.091782 0.0097172965 0.0086093805          152 
  422000   0.59274742   -8.7817881    49.081952 0.0096923287 0.0085772404          109 
  423000   0.59704258   -8.7616385    49.017388 0.0096566958  0.008545299          119 
  424000   0.58556451   -8.7979048    49.029938 0.0096363871 0.0085134435          131 
  425000   0.60374039   -8.7683487    49.043818 0.0096164349 0.0084816942          150 
  426000   0.59226651   -8.7892951    48.984313 0.0095822208 0.0084501534          137 
  427000   0.58851064   -8.8040126    49.068675 0.0095762441 0.0084187769          142 
  428000   0.59643185   -8.7841516    49.071604 0.0095544401 0.0083875559          118 
  429000   0.59224119   -8.8074556    49.055455 0.0095290316 0.0083565446          129 
  430000   0.59044837   -8.7799715    48.948324 0.0094861092  0.008325522          153 
  431000     0.565237   -8.7923776    48.979576 0.0094701424 0.0082946983          157 
  432000   0.57874601   -8.7937377    48.970886 0.0094465443  0.008263978          129 
  433000   0.58589378   -8.7861926    48.982522 0.0094269673 0.0082333991          183 
  434000   0.58382279    -8.824375     48.89137 0.0093877439 0.0082029136          174 
  435000   0.57842622   -8.8166315    49.005691 0.0093880633 0.0081725864          154 
  436000   0.56764379   -8.8296384    48.967463 0.0093592246 0.0081423804          152 
  437000   0.58019178   -8.8140436    49.036774 0.0093510248 0.0081123535          198 
  438000   0.56715327   -8.8456287    48.970734 0.0093171107 0.0080824718          124 
  439000   0.55990233   -8.8161957    48.945735 0.0092911418 0.0080527494          159 
  440000   0.56582849   -8.8108311    48.949906 0.0092708155 0.0080231854          147 
  441000   0.55947621   -8.8161004    48.953725  0.009250515 0.0079937302          136 
  442000   0.55753381   -8.8227191    48.954496 0.0092297315   0.00796437          114 
  443000   0.55750708    -8.827692    48.921324 0.0092026568 0.0079351703          155 
  444000   0.56661425   -8.8328616    48.894286 0.0091768554 0.0079060393          161 
  445000   0.56315709   -8.8313218    48.854638 0.0091488086  0.007877079          144 
  446000   0.55806061    -8.851103     48.85042 0.0091275075 0.0078482081          151 
  447000   0.53540314   -8.8515976    48.907031 0.0091176419 0.0078195009          144 
  448000   0.54555861   -8.8479025    48.987737 0.0091123022 0.0077909375          145 
  449000   0.55213497   -8.8353706    48.903804 0.0090764298 0.0077625053          159 
  450000   0.55112794   -8.8576802    48.920501  0.009059352 0.0077341929          130 
  451000   0.55540672   -8.8564168    48.945185 0.0090438258 0.0077059412          134 
  452000   0.53983589   -8.8558129    48.869758 0.0090099111 0.0076779359          122 
  453000   0.54813072   -8.8579038    48.826567 0.0089820764 0.0076500933          189 
  454000   0.53924463   -8.8610768    48.895189 0.0089748879 0.0076223431          134 
  455000   0.54474809   -8.8906144    48.873424 0.0089511765 0.0075947801          182 
  456000   0.53417873     -8.87169    48.853075  0.008927828 0.0075672905          151 
  457000   0.53084312   -8.8826668    48.906661 0.0089180637 0.0075399589          152 
  458000   0.53207746    -8.862203    48.858206 0.0088897755 0.0075127674          163 
  459000   0.52466538   -8.8585388    48.925949 0.0088827068 0.0074857028          121 
  460000   0.52690303   -8.8810398    48.841624 0.0088481203 0.0074587568          155 
  461000   0.53212051   -8.8897731    48.982305 0.0088543574 0.0074319399          174 
  462000   0.51937413   -8.8955645    48.843451 0.0088101463 0.0074052501          151 
  463000   0.52380374   -8.8822707    48.833329 0.0087892961 0.0073786766          124 
  464000   0.52776367   -8.8646997    48.821296 0.0087681925 0.0073521652          110 
  465000   0.53049436   -8.8862735    48.855046 0.0087553847 0.0073257768          156 
  466000   0.52146308   -8.8922952    48.783628 0.0087238247 0.0072995272          139 
  467000   0.51995073   -8.9086942    48.805718 0.0087090859 0.0072733446          139 
  468000   0.53097672   -8.8785192    48.862194 0.0087005331 0.0072473954          127 
  469000   0.51136666   -8.9178923    48.772068  0.008665968 0.0072214706          198 
  470000   0.51709203   -8.9098352    48.792633 0.0086511761 0.0071957057          145 
  471000   0.51531607   -8.9108429    48.731314 0.0086219593  0.007170039          159 
  472000   0.51624639   -8.9023594    48.851281  0.008624873 0.0071445103          133 
  473000   0.50435086   -8.9209817    48.758163 0.0085902331 0.0071191199          143 
  474000   0.50282871   -8.9116777    48.757122 0.0085719273 0.0070939064          164 
  475000    0.5135648   -8.9274772    48.821482 0.0085651723 0.0070687609          140 
  476000   0.50950146    -8.920277    48.783232 0.0085404818 0.0070437305          141 
  477000   0.49752285   -8.9211325    48.759714 0.0085184685 0.0070187955          162 
  478000   0.50114998   -8.9141664    48.771933 0.0085027777 0.0069939553          157 
  479000   0.49512233    -8.922625    48.810146 0.0084916747 0.0069692071          142 
  480000   0.50936407   -8.9245187    48.764914 0.0084661309  0.006944625          166 
  481000   0.50873142   -8.9402678    48.676881  0.008433278 0.0069201242          141 
  482000    0.4970944   -8.9258369    48.797695 0.0084366693 0.0068957463          160 
  483000   0.49420769   -8.9294996    48.642488 0.0083924237 0.0068714262          147 
  484000   0.49155682   -8.9237996    48.687002 0.0083827483 0.0068472683          151 
  485000   0.48622973   -8.9422064    48.726001 0.0083721652 0.0068231464          161 
  486000   0.49023082   -8.9567014    48.683565  0.008347662 0.0067991543          161 
  487000   0.49191253    -8.942586    48.682233 0.0083302931  0.006775264          152 
  488000   0.49483523   -8.9427595    48.663472 0.0083100191 0.0067515261          135 
  489000    0.4812952   -8.9589202    48.717277 0.0083021945 0.0067278806          167 
  490000   0.47568426   -8.9594556    48.710046 0.0082840213 0.0067043293          171 
  491000   0.47555069   -8.9504188    48.622152 0.0082522322 0.0066809039          191 
  492000   0.48876277   -8.9666722     48.63172   0.00823708 0.0066575739          153 
  493000   0.47400396   -8.9654006    48.612232 0.0082170777 0.0066344046          150 
  494000   0.48270092   -8.9638342    48.670843 0.0082103311 0.0066113294          161 
  495000   0.47460583   -8.9650307    48.628353 0.0081865914 0.0065883217          169 
  496000    0.4717163   -8.9620123    48.637388 0.0081716041 0.0065653894          163 
  497000   0.46682821   -8.9574457    48.628342 0.0081536456 0.0065425775          147 
  498000   0.47303014   -8.9814276    48.576463 0.0081285915 0.0065198349          146 
  499000   0.47541814   -8.9651806    48.577803 0.0081125256 0.0064972487          164 
  500000   0.46847874   -8.9755993    48.614094  0.008102349 0.0064747602          154 
  501000   0.45776199   -8.9833093    48.573826 0.0080794787 0.0064523737          142 
  502000   0.45962155   -8.9939668    48.605296 0.0080686081 0.0064300664          145 
  503000      0.46103   -8.9808675    48.593574 0.0080506252 0.0064078413          152 
  504000   0.46645768   -8.9944603    48.600777 0.0080358427 0.0063857003          157 
  505000    0.4522173   -8.9870357    48.579335 0.0080163919 0.0063636373          164 
  506000   0.46951126   -8.9904407    48.573865 0.0079996484 0.0063417333          158 
  507000   0.45779211   -9.0017374    48.630156 0.0079931223 0.0063199123          144 
  508000    0.4558679   -8.9955793    48.586723  0.007970263 0.0062981754          152 
  509000   0.44479949    -8.998596    48.553455 0.0079491577 0.0062765403          142 
  510000   0.45744313    -8.997976     48.57299  0.007936763 0.0062550031          174 
  511000   0.46187118   -8.9952561    48.564028 0.0079197697 0.0062335791          147 
  512000   0.44198523   -8.9978336    48.488047 0.0078919347 0.0062122421          184 
Loop time of 1293.97 on 48 procs for 500000 steps with 4000 atoms

Performance: 66771.478 tau/day, 386.409 timesteps/s
99.4% CPU use with 48 MPI tasks x no OpenMP threads

MPI task timing breakdown:
Section |  min time  |  avg time  |  max time  |%varavg| %total
---------------------------------------------------------------
Pair    | 90.113     | 97.792     | 105.18     |  34.7 |  7.56
Neigh   | 8.6972     | 9.0744     | 9.6814     |   7.8 |  0.70
Comm    | 79.664     | 89.451     | 97.998     |  39.5 |  6.91
Output  | 0.93933    | 0.94141    | 1.0201     |   1.2 |  0.07
Modify  | 1081       | 1084.6     | 1088.6     |   5.5 | 83.82
Other   |            | 12.09      |            |       |  0.93

Nlocal:        83.3333 ave          92 max          76 min
Histogram: 1 5 4 7 5 15 8 1 1 1
Nghost:        2360.96 ave        2386 max        2343 min
Histogram: 3 3 7 11 8 7 4 3 1 1
Neighs:        16179.9 ave       19706 max       14168 min
Histogram: 3 13 7 6 6 8 2 1 0 2
FullNghs:      32359.2 ave       35925 max       29310 min
Histogram: 1 2 7 6 13 9 7 1 1 1

Total # of neighbors = 1553241
Ave neighs/atom = 388.31025
Neighbor list builds = 26613
Dangerous builds = 0

#clear
#
#next RN
#
#jump SELF
Total wall time: 0:21:37
