
units lj                  # Use reduced LJ style units
atom_style atomic         # Uncharged point particles
atom_modify map hash      # Needed for indexing of clusters etc
                          # Used to be able to find where atoms are in relation to each other.

lattice fcc 1.0 spacing 1 1 1
Lattice spacing in x,y,z = 1.5874011 1.5874011 1.5874011
region box block 0 10 0 10 0 10 units lattice
create_box 2 box
Created orthogonal box = (0.0000000 0.0000000 0.0000000) to (15.874011 15.874011 15.874011)
  3 by 4 by 4 MPI processor grid
create_atoms 1 box
Created 4000 atoms
  using lattice units in orthogonal box = (0.0000000 0.0000000 0.0000000) to (15.874011 15.874011 15.874011)
  create_atoms CPU = 0.004 seconds
set type 1 type/fraction 2 0.15 78393
Setting atom values ...
  634 settings made for type/fraction
mass 1 1.0
mass 2 1.0
pair_style lj/cut  3.5
pair_modify tail  yes
pair_coeff 1  1  1.0  1.0   # Intearaction between 1 and 1 set with epsilon = 1 and sigma = 1
pair_coeff 1  2  1.5  0.8
pair_coeff 2  2  0.5  0.88

write_data data.0
System init for write_data ...
Neighbor list info ...
  update every 1 steps, delay 10 steps, check yes
  max neighbors/atom: 2000, page size: 100000
  master list distance cutoff = 3.8
  ghost atom cutoff = 3.8
  binsize = 1.9, bins = 9 9 9
  1 neighbor lists, perpetual/occasional/extra = 1 0 0
  (1) pair lj/cut, perpetual
      attributes: half, newton on
      pair build: half/bin/atomonly/newton
      stencil: half/bin/3d
      bin: standard
WARNING: Not all mixed pair coeffs generated from mixing. Use write_data with 'pair ij' option to store all pair coeffs. (../write_data.cpp:312)


#############################
#   M E L T   S Y S T E M   #
#############################

velocity all create 2.4 1741580 mom yes dist gaussian # Assign velocities
                                                    # Temperature 2.4, random number seed, zero linear momentum
                                                                                # Gaussian distribution

timestep 0.002   # simulation timestep
thermo 1000       # output thermodynamic data every 1000 steps bf 100

# Define a fix  in this case with index 1 applied to all
# particles in the simulation. This fix is for simulations
# in the anisotropic NPT ensemble. Note that we use the MTK
# correction.
fix 1 all npt temp 2.4 2.4 0.1 iso 5.68 5.68 0.5 mtk yes tchain 5 pchain 5 # Use NPT ensemble
                                                                         # Set temperature and pressure and damping
                                                                         # Numbers of thermostats in chain and in barostat
run 10000          # run for 10000 steps
Per MPI rank memory allocation (min/avg/max) = 3.642 | 3.644 | 3.648 Mbytes
Step Temp E_pair E_mol TotEng Press Volume 
       0          2.4   -7.3553801            0   -3.7562801   -3.3553213         4000 
    1000    2.3734417   -4.7476281            0   -1.1883556    5.6636276    4636.1295 
    2000    2.3748342   -4.7336075            0   -1.1722467    5.8653062     4627.984 
    3000    2.3617873   -4.7160257            0   -1.1742304    5.8428081    4638.4703 
    4000    2.3776688   -4.6976701            0   -1.1320586    5.8036347    4653.1778 
    5000    2.3638147   -4.8153372            0   -1.2705015    5.4190742    4624.4661 
    6000    2.4422788   -4.7304202            0   -1.0679178    5.4339084    4670.6405 
    7000    2.3840065   -4.6322833            0   -1.0571675    5.9144599    4671.9144 
    8000    2.3904425   -4.7282155            0   -1.1434481    5.6403505    4650.3635 
    9000    2.4072995   -4.7087118            0   -1.0986653     5.863361    4640.0483 
   10000    2.4648479   -4.7436424            0   -1.0472949    5.6946062    4645.2464 
Loop time of 2.29757 on 48 procs for 10000 steps with 4000 atoms

Performance: 752098.906 tau/day, 4352.424 timesteps/s
99.6% CPU use with 48 MPI tasks x no OpenMP threads

MPI task timing breakdown:
Section |  min time  |  avg time  |  max time  |%varavg| %total
---------------------------------------------------------------
Pair    | 0.95016    | 1.0118     | 1.1352     |   3.4 | 44.04
Neigh   | 0.19369    | 0.20211    | 0.22839    |   1.3 |  8.80
Comm    | 0.65755    | 0.79983    | 0.88975    |   4.9 | 34.81
Output  | 0.00024965 | 0.00025626 | 0.00042812 |   0.0 |  0.01
Modify  | 0.22248    | 0.26863    | 0.31932    |   5.0 | 11.69
Other   |            | 0.01497    |            |       |  0.65

Nlocal:        83.3333 ave          91 max          75 min
Histogram: 4 1 1 9 4 11 10 2 3 3
Nghost:        1491.17 ave        1517 max        1465 min
Histogram: 2 6 3 2 11 9 5 2 4 4
Neighs:        8204.71 ave        9497 max        7071 min
Histogram: 2 2 4 10 6 14 6 1 2 1

Total # of neighbors = 393826
Ave neighs/atom = 98.456500
Neighbor list builds = 902
Dangerous builds = 191

# Equilibrate just above the melting temperature to avoid step fn in T

fix 1 all npt temp 1.25 1.25 0.1 iso 5.68 5.68 0.5 mtk yes tchain 5 pchain 5
run 2000
Per MPI rank memory allocation (min/avg/max) = 3.642 | 3.644 | 3.648 Mbytes
Step Temp E_pair E_mol TotEng Press Volume 
   10000    2.4648479   -4.7436424            0   -1.0472949    5.6946062    4645.2464 
   11000    1.2655329   -6.3579539            0   -4.4601291    5.7156685    3817.6638 
   12000    1.2397433   -6.3792484            0   -4.5200983    5.5004267    3821.3169 
Loop time of 0.49775 on 48 procs for 2000 steps with 4000 atoms

Performance: 694324.240 tau/day, 4018.080 timesteps/s
99.6% CPU use with 48 MPI tasks x no OpenMP threads

MPI task timing breakdown:
Section |  min time  |  avg time  |  max time  |%varavg| %total
---------------------------------------------------------------
Pair    | 0.21845    | 0.23954    | 0.27463    |   2.1 | 48.12
Neigh   | 0.03149    | 0.033664   | 0.038838   |   0.6 |  6.76
Comm    | 0.13151    | 0.16997    | 0.19451    |   2.8 | 34.15
Output  | 5.0315e-05 | 5.1276e-05 | 6.5644e-05 |   0.0 |  0.01
Modify  | 0.04172    | 0.04981    | 0.057361   |   1.9 | 10.01
Other   |            | 0.004723   |            |       |  0.95

Nlocal:        83.3333 ave          93 max          76 min
Histogram: 4 2 8 5 10 11 1 6 0 1
Nghost:        1694.79 ave        1711 max        1663 min
Histogram: 1 0 2 3 4 5 9 13 6 5
Neighs:        9974.75 ave       11316 max        8896 min
Histogram: 3 3 6 8 8 9 4 5 1 1

Total # of neighbors = 478788
Ave neighs/atom = 119.69700
Neighbor list builds = 140
Dangerous builds = 7

#############################
# L I N E A R  Q U E N C H  #
#############################

# Define solid atoms. This closely follows ten Wolde  Ruiz-Montero and Frenkel  Faraday Discuss  1996  104  93-110
# Compute components of the per-atom q6 vector
compute q6 all orientorder/atom degrees 1 6 components 6 nnn NULL cutoff 1.3 # compute the Q6 parameter.
                                                                             # Use all neighbours within 1.3 unit cell.

# get number of connections
compute coord_number all coord/atom orientorder q6 0.5

# An atom is solid if it has 8 or more connections (of a possible 14)
variable is_solid atom c_coord_number>=8
group solid dynamic all var is_solid    # Must be dynamic to update
dynamic group solid defined

# do clustering
compute cluster solid cluster/atom 1.3 # Create a cluster where all atoms within are solid and max 1.3 units from another member

# define chunks one chunk per cluster
compute clus_chunks solid chunk/atom c_cluster nchunk every compress yes  # Says which atoms are in which chunk

# count the size of each chunk
compute size_chunks solid property/chunk clus_chunks count


# Find the maximum entry in the vector of chunk sizes
variable max_n equal max(c_size_chunks)


# Thermo style which includes this variable
# thermo_style custom step temp pe vol v_max_n

thermo ${N}  # Print the thermo information every 100 steps
thermo 1000  

# Reset the npt fix at a lower temperature (below freezing)
fix 1  all npt temp  ${temp} ${temp}  0.1  iso  5.68  5.68  0.5  mtk yes tchain  5  pchain  5
fix 1  all npt temp  0.45 ${temp}  0.1  iso  5.68  5.68  0.5  mtk yes tchain  5  pchain  5
fix 1  all npt temp  0.45 0.45  0.1  iso  5.68  5.68  0.5  mtk yes tchain  5  pchain  5

dump dmp2 all dcd ${N} traj.dcd
dump dmp2 all dcd 1000 traj.dcd


compute msd all msd com yes
variable twopoint equal c_msd[4]/6/(step*dt+1.0e-6)
fix 9 all vector 10 c_msd[4]
variable fit equal slope(f_9)/6/(10*dt)
thermo_style custom step temp pe c_msd[4] v_twopoint v_fit v_max_n

fix 1 all npt temp 1.25 ${temp} 0.1 iso 5.68 5.68 0.5 mtk yes tchain 5 pchain 5
fix 1 all npt temp 1.25 0.45 0.1 iso 5.68 5.68 0.5 mtk yes tchain 5 pchain 5
run 5000000 # 5000000  # Run for this many steps
Neighbor list info ...
  update every 1 steps, delay 10 steps, check yes
  max neighbors/atom: 2000, page size: 100000
  master list distance cutoff = 3.8
  ghost atom cutoff = 3.8
  binsize = 1.9, bins = 9 9 9
  4 neighbor lists, perpetual/occasional/extra = 1 3 0
  (1) pair lj/cut, perpetual
      attributes: half, newton on
      pair build: half/bin/atomonly/newton
      stencil: half/bin/3d
      bin: standard
  (2) compute orientorder/atom, occasional
      attributes: full, newton on
      pair build: full/bin/atomonly
      stencil: full/bin/3d
      bin: standard
  (3) compute coord/atom, occasional
      attributes: full, newton on
      pair build: full/bin/atomonly
      stencil: full/bin/3d
      bin: standard
  (4) compute cluster/atom, occasional
      attributes: full, newton on
      pair build: full/bin/atomonly
      stencil: full/bin/3d
      bin: standard
Per MPI rank memory allocation (min/avg/max) = 9.762 | 9.767 | 9.772 Mbytes
Step Temp PotEng c_msd[4] v_twopoint v_fit v_max_n 
   12000    1.2397433   -6.3792484 4.8008103e-30 3.3338959e-32 8.3333333e+20            1 
   13000    1.2561813   -6.3500833   0.53843647 0.0034515157  0.044219249            3 
   14000     1.253291   -6.3316725    1.0189481 0.0060651672  0.041727902            3 
   15000    1.2424832   -6.3944241    1.5277073 0.0084872627  0.041906461            2 
   16000     1.228268   -6.4247334    2.0544975  0.010700507  0.042261222            1 
   17000    1.2555097   -6.3783527    2.6508346  0.012994287  0.042949419            4 
   18000    1.2485598   -6.3576711    3.2048673  0.014837348  0.043939264            2 
   19000    1.2523837   -6.3996564    3.7595622  0.016489308  0.044507018            1 
   20000    1.2302207   -6.3997453     4.222638  0.017594324  0.044557432            1 
   21000    1.2339152   -6.4097245    4.7829689  0.018980035  0.044581916            2 
   22000     1.229713   -6.4089588    5.3200077  0.020151544  0.044406848            3 
   23000    1.2479801   -6.3881112    5.8267825  0.021111531  0.044378509            2 
   24000    1.2660447   -6.3985021    6.2833967  0.021817349  0.044276265            2 
   25000    1.2595273   -6.3975244    6.8061515  0.022687171  0.044029696            1 
   26000    1.2241636   -6.3981012    7.3454681  0.023543166  0.043886503            1 
   27000    1.2321336   -6.4140739    7.8908594  0.024354504  0.043856034            2 
   28000    1.2441973   -6.4174373    8.3789151  0.024937247  0.043793148            4 
   29000    1.2622672     -6.42119    8.8773961  0.025509759  0.043762998            6 
   30000    1.2560356     -6.40183    9.4145287  0.026151468  0.043668102            3 
   31000    1.2173935   -6.3447525     10.01333  0.026917552  0.043649826            4 
   32000    1.2420446   -6.3791255    10.480593  0.027293211  0.043662492            6 
   33000    1.2265943   -6.4178561    10.913425  0.027559153  0.043588676            2 
   34000    1.2591929    -6.410686    11.525067  0.028247713  0.043521065            1 
   35000    1.2607291   -6.3533632    12.072748  0.028744638  0.043526359            2 
   36000    1.2485933   -6.4183433     12.55886  0.029071435  0.043515062            4 
   37000    1.2242978   -6.4278919    13.048869  0.029389344  0.043528055            1 
   38000    1.2359334   -6.3643723     13.56797  0.029754321  0.043513043            2 
   39000     1.259309   -6.4120484    14.073171  0.030070878  0.043480423            3 
   40000    1.2408964   -6.3937664     14.55872  0.030330666   0.04347313            3 
   41000    1.2781238   -6.4148636     15.10648  0.030704226   0.04343881            3 
   42000    1.2529013   -6.4041281    15.590193  0.030932921  0.043389472            2 
   43000    1.2589154    -6.395665      16.1461  0.031290891  0.043366978            1 
   44000    1.2652406   -6.4025209    16.796316  0.031811204   0.04338785            3 
   45000    1.2480675   -6.4211807    17.324073  0.032081617  0.043424157            1 
   46000    1.2326685   -6.3666379    17.985712  0.032582811  0.043494903            2 
   47000    1.2189747   -6.4098529    18.642073   0.03305332  0.043599253            3 
   48000    1.2532751     -6.38681    19.287648    0.0334855  0.043737004            2 
   49000    1.2425054   -6.3581948     19.71479  0.033528554  0.043874102            3 
   50000    1.2392156   -6.4174699    20.227387  0.033712311  0.043966278            1 
   51000    1.2634683   -6.4178122    20.787874  0.033967114   0.04404946            2 
   52000    1.2676875   -6.4209783    21.438434  0.034356465  0.044128463            2 
   53000    1.2585389    -6.373526     21.94384  0.034502893  0.044214775            2 
   54000    1.2455229   -6.4005846    22.646262  0.034947935  0.044310205            3 
   55000    1.2489939   -6.4082847     23.02953  0.034893227  0.044398529            1 
   56000    1.2418645   -6.3484437    23.635892  0.035172457  0.044456229            2 
   57000    1.2567203   -6.3786582    24.152334  0.035310429  0.044511683            3 
   58000    1.2761036   -6.4101703    24.607784  0.035356012  0.044559892            1 
   59000    1.2403808   -6.4198963    25.040837  0.035368413  0.044569947            2 
   60000    1.2494241   -6.3918269    25.724876  0.035728994  0.044603524            2 
   61000    1.2758969   -6.4082601    26.329289  0.035968974  0.044643379            6 
   62000     1.253633    -6.378904    26.753018  0.035958357  0.044655549            3 
   63000    1.2392779    -6.398935    27.167894  0.035936368  0.044666454            3 
   64000    1.2340092   -6.3791703    27.545942  0.035867112  0.044650247            2 
   65000     1.267479    -6.405525    28.115803  0.036045901  0.044616506            5 
   66000    1.2353434   -6.4369124     28.60896  0.036122424  0.044605396            2 
   67000    1.2119339   -6.3677785    29.069103    0.0361556  0.044588236            2 
   68000    1.2304042   -6.4377211    29.619419  0.036298307  0.044553643            3 
   69000    1.2329927   -6.4366428    30.043554  0.036284486  0.044520935            4 
   70000    1.2341424   -6.4290044    30.698189  0.036545462  0.044492889            2 
   71000    1.2189185   -6.4380023    31.093888  0.036495173  0.044467914            2 
   72000    1.2820387    -6.395925    31.558504  0.036526046   0.04442593            4 
   73000    1.2697773   -6.4255642     31.88246  0.036395502  0.044370668            2 
   74000    1.2394872   -6.4427145    32.391582  0.036477007  0.044303392            3 
   75000    1.2560232   -6.3717518     32.80673  0.036451922  0.044232671            1 
   76000    1.2471853    -6.414506    33.498026  0.036730292   0.04417391            2 
   77000    1.2383341   -6.3929459    33.948602  0.036740911  0.044117506            4 
   78000    1.2104864   -6.3858073    34.534036  0.036895337  0.044069368            2 
   79000    1.2396337   -6.4041617    34.907612  0.036822376  0.044027482            2 
   80000    1.2199095   -6.3970855    35.550102  0.037031356  0.043983463            2 
   81000    1.2359482   -6.4198551    35.836302  0.036868623  0.043934484            3 
   82000    1.2370884   -6.4441139    36.171439  0.036759592  0.043877736            3 
   83000    1.2528153    -6.486381    36.767625  0.036915286  0.043821664            4 
   84000    1.2339763   -6.4354756    37.402467  0.037105621  0.043771353            4 
   85000    1.2449907    -6.381552    37.798745  0.037057593  0.043720722            2 
   86000    1.2548392   -6.4557259    38.236662  0.037051029  0.043671823            4 
   87000    1.2545666   -6.3831829    38.980461  0.037337606  0.043622885            2 
   88000    1.2300557   -6.3595553    39.565215  0.037467059   0.04358572            4 
   89000     1.221907   -6.3687588     39.83483   0.03729853  0.043538547            2 
   90000    1.2432499   -6.3929234    40.489039  0.037489851  0.043497886            1 
   91000    1.2306832   -6.4452228    40.899476  0.037453733    0.0434604            1 
   92000    1.2467395   -6.4313735    41.366934  0.037470049  0.043418065            1 
   93000    1.2379368   -6.4253422    41.788769  0.037445133  0.043376211            2 
   94000    1.2388244   -6.4366714     41.99026  0.037225407   0.04332992            1 
   95000    1.2276802   -6.3910149    42.877074  0.037611468  0.043285215            1 
   96000    1.2577413   -6.4062019    43.194572  0.037495288  0.043244509            2 
   97000    1.2394483   -6.4714216    43.406855  0.037291112  0.043199009            2 
   98000     1.265023   -6.4491413    44.099777   0.03749981  0.043152143            6 
   99000    1.2684143   -6.3781155    44.828952  0.037734808  0.043111443            2 
  100000    1.2265752   -6.3604823    45.409728   0.03784144  0.043079191            2 
  101000    1.2331909   -6.3797324    45.645646  0.037661424  0.043046442            3 
  102000    1.2655633   -6.3974481    46.271709  0.037803684  0.043017876            1 
  103000    1.2176347   -6.4032036    47.058509  0.038073227  0.042996687            2 
  104000     1.207841   -6.4330739     47.44432  0.038016282  0.042976919            2 
  105000     1.215533   -6.4412412    47.787954  0.037926948  0.042950093            2 
  106000    1.2292947   -6.3794823    48.267421  0.037946086  0.042918631            3 
  107000    1.2301089   -6.4180352    48.778305  0.037989334  0.042888503            2 
  108000    1.2395427   -6.4171019    49.235354  0.037990242  0.042860243            2 
  109000    1.2419391   -6.4288813      49.7514  0.038036238  0.042834446            1 
  110000    1.2572662   -6.4233026    50.367631  0.038157296  0.042811336            1 
  111000    1.2270014   -6.3963762    51.053907  0.038328759  0.042793075            2 
  112000     1.242866    -6.418725     51.30192  0.038171071  0.042770803            2 
  113000    1.2564038   -6.4171948    51.488209  0.037970656  0.042745352            1 
  114000    1.2511345    -6.420201    52.204076  0.038160874  0.042721306            3 
  115000    1.2320586   -6.4200592    52.635456  0.038141635  0.042702152            3 
  116000    1.2101426   -6.4244816    53.217564  0.038231009  0.042682363            2 
  117000    1.2559594   -6.4629235    53.780626  0.038305289  0.042659891            3 
  118000    1.2358277     -6.40786    54.386124   0.03840828   0.04264319            1 
  119000    1.2403329   -6.3964902     54.88663  0.038436015  0.042628008            3 
  120000    1.2236192   -6.4476641    55.265826  0.038379045  0.042615688            1 
  121000    1.2533194    -6.417461    55.999724  0.038567303  0.042601018            1 
  122000    1.2494802   -6.4543843    56.355259  0.038494029  0.042589418            2 
  123000    1.2444384   -6.4027658    56.664502  0.038390584  0.042569697            2 
  124000    1.2320576   -6.4317244    57.049821  0.038339934  0.042545371            1 
  125000    1.2319649   -6.4394872    57.336262  0.038224175  0.042513742            1 
  126000    1.2410857   -6.4194667    57.690821  0.038155305  0.042483232            1 
  127000     1.230842   -6.4570278    58.127198  0.038141206  0.042447549            4 
  128000    1.2416985   -6.4063668    58.816086  0.038291722  0.042413582            1 
  129000    1.2223559   -6.4562378    59.179908  0.038229915  0.042381752            1 
  130000    1.2487078   -6.4588757    59.734098  0.038291089  0.042352795            5 
  131000    1.2408119   -6.4419602    60.212135  0.038302885  0.042327055            1 
  132000    1.2373036   -6.3683852    61.067631  0.038552797   0.04230331            1 
  133000    1.2291828   -6.4270068    61.561223  0.038572194   0.04228026            3 
  134000    1.2466315   -6.4208803    62.134442  0.038640822  0.042261427            3 
  135000    1.2425955   -6.4172463    62.489268  0.038573622  0.042244685            2 
  136000    1.2391648   -6.4042645     62.98462  0.038593517  0.042229611            2 
  137000    1.2021349   -6.4402502     63.41158  0.038571521  0.042215498            2 
  138000    1.2413897   -6.4249045    63.907993  0.038591783  0.042198232            3 
  139000    1.2211352   -6.4361149    64.475531  0.038654395  0.042181539            2 
  140000     1.229395   -6.4340134     64.85485  0.038604077   0.04216916            3 
  141000    1.2052564   -6.3991653    65.348464  0.038622024  0.042152379            2 
  142000    1.2206233   -6.4766922    66.134495  0.038811323  0.042139393            3 
  143000    1.2454411   -6.4362818    66.831095  0.038945859  0.042132053            3 
  144000    1.2054887   -6.4436054    67.240401  0.038912269  0.042124874            3 
  145000    1.2105439   -6.4220572    67.693124  0.038904094  0.042115112            1 
  146000     1.199424   -6.4231901    68.084268  0.038860883  0.042104376            1 
  147000    1.2367126    -6.421357    68.397461  0.038774071   0.04209461            3 
  148000     1.222214   -6.4102793    69.082728  0.038897932  0.042083323            2 
  149000    1.2208194   -6.4416966    69.615172   0.03893466   0.04207299            3 
  150000     1.231932   -6.4669544    69.879656  0.038822031  0.042063073            4 
  151000    1.2419872   -6.4730754    70.666115  0.038998959  0.042052974            3 
  152000    1.2188799   -6.4519315    71.525468  0.039213524  0.042054002            2 
  153000     1.236729   -6.4316752    71.980904  0.039205285  0.042058138            6 
  154000    1.2235849   -6.4334733    72.296698   0.03912159   0.04205656            4 
  155000    1.2233313   -6.4653372    72.428478  0.038940042  0.042050732            2 
  156000    1.2420879   -6.4332177    72.541414  0.038750755  0.042035937            1 
  157000     1.189808   -6.4637207    72.999495  0.038747078  0.042020007            3 
  158000    1.2169823    -6.413634    73.585356  0.038810842   0.04199878            2 
  159000    1.2262423   -6.4487403    73.477498  0.038510219  0.041973618            2 
  160000    1.1943488   -6.4239731    74.202882  0.038647334  0.041947349            4 
  161000    1.2354183   -6.4171831    74.241569  0.038427313  0.041918209            2 
  162000    1.1931403   -6.3962797    74.772121  0.038463025   0.04188501            1 
  163000    1.2065674   -6.4445552    75.193382  0.038442424  0.041853398            1 
  164000    1.2161453   -6.3918688    75.609468  0.038419445  0.041820602            1 
  165000    1.2469034   -6.3994427    76.556748  0.038665024  0.041792204            1 
  166000    1.2104588   -6.4485634    76.940424  0.038624711  0.041768063            2 
  167000    1.2399123   -6.4341913    77.764772  0.038804776  0.041746367            1 
  168000    1.2356805   -6.4122654    78.282444  0.038830577  0.041730159            2 
  169000    1.2379167    -6.422155    78.382604  0.038650199  0.041709704            2 
  170000    1.1900975   -6.4400942    79.117794  0.038783232  0.041689819            1 
  171000    1.2269172   -6.4481977    79.639105   0.03881048  0.041671436            2 
  172000    1.2247849   -6.4496183    79.791764    0.0386588  0.041655787            1 
  173000    1.2216999   -6.4423189    80.713245  0.038879212   0.04163876            3 
  174000    1.2378093   -6.4403506     81.20278   0.03889022  0.041626073            2 
  175000    1.2513698     -6.42431    81.767941  0.038937115   0.04161397            1 
  176000    1.1798024   -6.4485735    82.014118  0.038832442  0.041601314            2 
  177000    1.2324017   -6.4299389    82.392091  0.038791003  0.041585501            2 
  178000    1.2129182   -6.4433146     82.98485  0.038850585  0.041570368            2 
  179000    1.2170493   -6.4233605    83.523211  0.038884176  0.041555666            5 
  180000    1.2200549   -6.4378799    84.032613  0.038903988  0.041540748            2 
  181000     1.223056   -6.4445064    84.415406  0.038865288   0.04152837            2 
  182000    1.2283923   -6.4333246    85.106757  0.038968295  0.041517197            4 
  183000     1.251038   -6.4815875    85.436012  0.038905287  0.041505356            5 
  184000    1.2396244   -6.4287173    86.182522  0.039031939  0.041496816            2 
  185000    1.1925072   -6.4423227    86.742777  0.039073323  0.041490702            4 
  186000    1.2412171   -6.4731413    86.708265  0.038847789  0.041482775            2 
  187000    1.2269242   -6.4785463    87.503278   0.03899433  0.041472131            3 
  188000    1.2452299   -6.4349096    87.737937   0.03889093  0.041458966            1 
  189000    1.2193498   -6.4757744     88.17109  0.038876142  0.041440746            2 
  190000    1.2447346   -6.4188772    88.617531  0.038867338  0.041425393            2 
  191000    1.2389005   -6.4659853    89.173332   0.03890634  0.041411664            3 
  192000    1.2134167   -6.4800684     89.66746  0.038918168  0.041395421            2 
  193000    1.2090149    -6.427385     90.16569  0.038931645  0.041381508            3 
  194000     1.195701   -6.4574292    90.408535  0.038835281  0.041365765            2 
  195000    1.2203564   -6.4412371     90.89064  0.038842154  0.041350818            1 
  196000      1.18419   -6.4316901    91.036606   0.03870604  0.041333409            2 
  197000    1.2117508   -6.4245941    91.624795  0.038758373  0.041313277            3 
  198000    1.2286064   -6.4113325    92.287284  0.038841449  0.041292554            3 
  199000    1.2309317   -6.4462873    92.578437   0.03876819  0.041273632            3 
  200000    1.1855189   -6.4298622    92.955305  0.038731377  0.041254392            2 
  201000    1.2074905   -6.4240861    93.320642   0.03869015  0.041236089            2 
  202000    1.2318352    -6.437201     93.88282  0.038730536  0.041215777            3 
  203000    1.2204822   -6.4869104    93.980234  0.038579735  0.041194154            4 
  204000    1.2113904   -6.4401891    94.494534  0.038600708   0.04117023            4 
  205000    1.2055765    -6.451258    95.154981  0.038680886  0.041148166            2 
  206000    1.2151508   -6.4410446    95.493924  0.038630228  0.041124952            2 
  207000    1.2077524   -6.4834708     95.50342  0.038447431  0.041101858            3 
  208000    1.2122016   -6.4311543    96.194565  0.038539489   0.04107652            5 
  209000    1.2543775   -6.4119683    96.625592   0.03852695  0.041050746            1 
  210000    1.1916417   -6.4534571    96.768889  0.038400353  0.041025362            3 
  211000    1.2220119   -6.4150713    97.887899  0.038660308  0.041002022            1 
  212000    1.2130168   -6.4293289    98.578752  0.038749509  0.040982584            5 
  213000    1.1876131   -6.4649455    98.804802  0.038656026  0.040964629            2 
  214000    1.2084806   -6.4749487    98.910936  0.038516719   0.04094606            2 
  215000    1.2234885    -6.489285    99.520838  0.038573968  0.040925189            1 
  216000    1.2169893   -6.4987487    99.783165  0.038496591  0.040905554            1 
  217000     1.242249   -6.4745175    100.62031  0.038640672  0.040888525            2 
  218000    1.2420797   -6.4659514    101.46998  0.038788218  0.040871922            2 
  219000    1.2302813   -6.4723828    101.72508  0.038708172  0.040856037            2 
  220000    1.2382604   -6.4603251    102.28195  0.038743165   0.04084151            4 
  221000    1.2199337   -6.4557803    103.27635  0.038942817  0.040832513            2 
  222000    1.2082279   -6.4821949    104.62805  0.039274794    0.0408267            3 
  223000    1.2130615   -6.5043938    104.19759  0.038937814  0.040823905            3 
  224000    1.2108384   -6.4386972    105.33407  0.039186783  0.040819621            2 
  225000    1.1998405   -6.4542968    105.77539  0.039176071  0.040816171            2 
  226000    1.2072719   -6.4263436    106.21281  0.039164015  0.040813592            2 
  227000    1.2269507   -6.4087861    106.96441  0.039267406  0.040813487            2 
  228000    1.2269957   -6.4511031    107.44917  0.039272359  0.040812154            3 
  229000    1.1858937   -6.4561977    108.06752  0.039325881  0.040810258            1 
  230000    1.2053769   -6.4353764    108.27524  0.039230161   0.04080977            4 
  231000    1.1888611   -6.4653962    108.73652   0.03922674  0.040806446            2 
  232000    1.1989078    -6.507582    109.34359  0.039275713   0.04080414            2 
  233000    1.1926115   -6.4801073    110.17567  0.039404744  0.040806063            1 
  234000    1.2308621   -6.4499045    111.17077  0.039590731  0.040809402            2 
  235000    1.1980294   -6.4669419    111.49225  0.039536258  0.040814241            2 
  236000    1.1948267   -6.4463515    112.07468  0.039574394  0.040821332            1 
  237000    1.2164888   -6.4816356     112.5507  0.039574789  0.040828995            2 
  238000    1.2142238   -6.4810539    113.07213  0.039591083  0.040835699            2 
  239000    1.2267477   -6.4786959    113.30757  0.039507521  0.040843088            3 
  240000    1.2448452   -6.4616694     114.1683  0.039641769  0.040850189            1 
  241000    1.1993726   -6.4360118    114.97819  0.039757326  0.040857999            4 
  242000    1.1866236   -6.4945575    114.75358  0.039515696   0.04086589            1 
  243000    1.1984549   -6.4657338    115.95102  0.039763725  0.040872759            4 
  244000    1.1906375    -6.444379    116.15849  0.039671616  0.040881287            1 
  245000    1.2367668   -6.4575486      117.432  0.039942856   0.04089151            2 
  246000    1.2202406   -6.4746025    117.51484  0.039808551  0.040903697            1 
  247000     1.219606   -6.4626509    118.33239  0.039923208  0.040914755            1 
  248000    1.2278659   -6.4577109    118.59295  0.039849781  0.040925217            1 
  249000    1.1849628   -6.4385033     118.7662  0.039747724  0.040931186            2 
  250000    1.2449407   -6.4471298    119.49041  0.039830136  0.040937988            2 
  251000    1.2196569   -6.4377971    120.23462  0.039918532   0.04094831            3 
  252000    1.2136158   -6.4685193    119.98675  0.039678157  0.040955216            3 
  253000    1.2106312    -6.461619    120.67274  0.039747278   0.04096019            2 
  254000    1.2107976   -6.4551967    121.23256  0.039774461  0.040965454            6 
  255000     1.194647   -6.4819512    120.79168  0.039474404  0.040966993            2 
  256000    1.1922749   -6.4388566    121.86086  0.039668248  0.040967193            1 
  257000    1.1928591   -6.4729378    122.10598  0.039593377  0.040968457            2 
  258000    1.1984576   -6.4463359     122.6232  0.039606975  0.040970615            2 
  259000    1.2022041   -6.4727141    122.94882  0.039558822  0.040971122            1 
  260000    1.2446731   -6.4883252    123.47263  0.039574559  0.040971879            3 
  261000    1.2099367   -6.4345939     124.0137  0.039595689  0.040973627            3 
  262000     1.207485   -6.4425211    124.79072  0.039691705  0.040975501            1 
  263000    1.2010128   -6.4693501    124.91747  0.039580948  0.040977483            2 
  264000    1.2137458   -6.4108082    125.55088   0.03963096   0.04097815            2 
  265000    1.1963018   -6.4702692    125.91077  0.039594582  0.040978986            2 
  266000     1.200802   -6.4432808    127.00409  0.039788249  0.040980141            3 
  267000    1.2322242   -6.4765052    127.32451  0.039739236  0.040982066            1 
  268000    1.2140217   -6.4968368    127.15223  0.039537384  0.040983049            2 
  269000    1.2062331   -6.4156509    127.81427  0.039595499  0.040984592            2 
  270000    1.2183885   -6.4317509    128.66203  0.039710502  0.040986658            4 
  271000    1.2131521   -6.4811522     128.7266  0.039583825  0.040987069            1 
  272000    1.1664682   -6.4744713    129.25242  0.039599394  0.040989122            4 
  273000    1.2062085   -6.4276226    130.43703  0.039815943  0.040990544            4 
  274000    1.1919428   -6.4355344    130.60447  0.039721554  0.040991562            3 
  275000    1.1967475   -6.4331727    131.05137  0.039712535  0.040992574            2 
  276000    1.1892341   -6.4640359    131.79824  0.039794155  0.040994365            4 
  277000    1.2258761   -6.4643499    132.50358   0.03986269  0.040994951            1 
  278000    1.2064401   -6.4634859      132.276   0.03965108  0.040997439            2 
  279000    1.1981776   -6.4669443    133.59246  0.039902169  0.041000805            2 
  280000    1.2207759   -6.4499452    133.99511  0.039879498  0.041006256            2 
  281000    1.1803149   -6.4551098    134.39199  0.039855276  0.041009996            2 
  282000    1.2114006   -6.4464472    134.73314  0.039814758  0.041012435            1 
  283000     1.201347    -6.472481    135.59383  0.039927512  0.041014669            1 
  284000    1.2244717   -6.4660781    135.96434   0.03989564  0.041017007            2 
  285000    1.2254096     -6.49667    136.31332  0.039857695  0.041019935            3 
  286000    1.2127939   -6.4486464    137.09076   0.03994486  0.041024958            2 
  287000    1.2080234   -6.4760366    137.65451  0.039969369  0.041029915            3 
  288000    1.2009166   -6.4932209    137.75142   0.03985863  0.041033327            2 
  289000    1.2056725   -6.4825648    138.47781  0.039930165  0.041038071            1 
  290000    1.1964919   -6.4729496    139.16575  0.039990158  0.041044148            2 
  291000    1.1831729   -6.4686786    140.17556  0.040141912   0.04105151            1 
  292000     1.198472   -6.5134916    139.87848  0.039919657  0.041057823            2 
  293000    1.1933029   -6.5010093    140.83748  0.040056167  0.041064158            2 
  294000     1.227321   -6.4394469    141.55777  0.040124083  0.041070785            2 
  295000    1.2081156   -6.4723371    141.44969   0.03995754  0.041075926            2 
  296000     1.196144   -6.4751811    142.15028  0.040019785  0.041079487            2 
  297000    1.2119707   -6.4873398    141.85513  0.039802224  0.041082787            2 
  298000    1.2080395   -6.4902009    142.33029  0.039801534  0.041083081            2 
  299000    1.2043056   -6.5068226    142.89221  0.039825032  0.041084478            3 
  300000    1.2232125   -6.5082355    143.40603  0.039835008  0.041085747            1 
  301000    1.1855613   -6.4639005    144.39269  0.039975829  0.041088259            1 
  302000    1.1868088   -6.4765512    144.14633  0.039775478  0.041089138            2 
  303000    1.1926764   -6.5130414    144.51881  0.039746647  0.041089665            1 
  304000    1.1820965   -6.4960796     145.9203  0.040000083  0.041089649            2 
  305000     1.172683   -6.4820995    145.96525  0.039881215  0.041089728            1 
  306000    1.1781898   -6.5173534     146.8354  0.039987854  0.041090203            2 
  307000    1.2128073   -6.4272337    147.33651  0.039993623  0.041091968            2 
  308000    1.1961603   -6.4912841    147.28152  0.039848897  0.041093658            1 
  309000    1.2179542   -6.4706853    148.18762  0.039964299  0.041095533            2 
  310000    1.2217881   -6.4902858    148.46069  0.039908786  0.041097056            3 
  311000    1.2028799   -6.4936607    148.53783  0.039801133  0.041097304            2 
  312000    1.1733044   -6.4462593    149.56915  0.039949025  0.041096624            1 
  313000    1.2013986   -6.4737827    149.93587  0.039919028  0.041096383            3 
  314000    1.2193135   -6.5006136     150.0066  0.039810669  0.041096061            8 
  315000    1.1940408   -6.5041569    150.30377  0.039762901  0.041095016            2 
  316000    1.2063729   -6.4728014    151.36607  0.039917213  0.041093626            3 
  317000    1.1931662   -6.4371148    151.47577  0.039820129   0.04109175            2 
  318000    1.2134487   -6.4800851    152.53466  0.039972394  0.041091033            4 
  319000    1.2229587   -6.4612259    152.96817  0.039960338  0.041091151            2 
  320000    1.1828195   -6.4659991    153.57488  0.039993458  0.041091177            4 
  321000    1.2158708    -6.472205    154.04875  0.039991886  0.041091144            2 
  322000     1.215546   -6.5296217    154.29325  0.039930966   0.04109224            2 
  323000    1.1904399   -6.4929666    154.11962  0.039762545  0.041093244            1 
  324000    1.1827169   -6.4906704    154.97864   0.03986076  0.041094523            2 
  325000    1.1803115   -6.4998508    155.14844  0.039781651  0.041094505            4 
  326000    1.1925757   -6.4892335    156.11363  0.039906347  0.041093934            5 
  327000    1.2090213   -6.5228032    156.22276   0.03981212  0.041094302            3 
  328000    1.1814191   -6.4914661    157.24983  0.039951685  0.041093207            5 
  329000    1.2021338   -6.4784218    157.46468   0.03988467  0.041092311            2 
  330000    1.2043072   -6.4977373     157.9435  0.039884723  0.041091188            2 
  331000    1.1927971   -6.4841173     158.8734   0.03999834  0.041092031            2 
  332000    1.1869821   -6.4511848    159.76825  0.040102471  0.041093279            2 
  333000     1.215165   -6.4778891    159.43453   0.03989853  0.041094594            3 
  334000    1.2173199   -6.4722319    159.65985  0.039835291  0.041094746            1 
  335000    1.2179592   -6.4683078    160.52608   0.03993186  0.041093625            1 
  336000    1.1753808   -6.5040965    160.88169  0.039901212  0.041092378            4 
  337000    1.2168621   -6.4903173    161.22869  0.039868619  0.041090071            5 
  338000    1.1941944   -6.4682355    162.06323  0.039956418  0.041087935            3 
  339000    1.1783462   -6.4539987    162.05723  0.039837078  0.041086435            1 
  340000    1.1938256   -6.4785613    163.40434  0.040050083   0.04108687            4 
  341000      1.21151   -6.4680168    163.72797  0.040011724  0.041086638            3 
  342000    1.1638052   -6.4410806    164.61518   0.04011091   0.04108735            2 
  343000    1.1892695   -6.4985458    164.79629  0.040037972  0.041089052            1 
  344000    1.1953712   -6.5257998    165.30314  0.040044366  0.041089672            2 
  345000    1.1818707   -6.4830818    166.07154  0.040113899  0.041090456            1 
  346000     1.221245   -6.4635737      166.292  0.040051059  0.041091357            3 
  347000    1.1656664   -6.4899396    167.06536  0.040121363  0.041093811            4 
  348000    1.1815086   -6.5233601    167.23292  0.040046197  0.041095932            2 
  349000    1.1854603    -6.494186    168.12015  0.040143303  0.041097602            2 
  350000    1.1975537   -6.4993433     168.8749  0.040208309  0.041099662            1 
  351000      1.21827   -6.5306342    168.41907  0.039985535   0.04110128            1 
  352000    1.1812156   -6.4937103    169.43748  0.040113041  0.041101839            2 
  353000    1.2065805   -6.4881724    169.84212  0.040094929  0.041102819            1 
  354000    1.1951036   -6.4433687    170.80388  0.040208069   0.04110388            1 
  355000    1.2110396     -6.48573    170.49794   0.04002299  0.041104425            3 
  356000    1.1890718   -6.4649137    171.07235  0.040045027  0.041104524            1 
  357000    1.2097299   -6.4970206    171.71798  0.040083563  0.041104122            3 
  358000    1.1523766   -6.4652567    172.84613  0.040234201  0.041105175            4 
  359000    1.1646749   -6.5056704    172.84932  0.040122868  0.041105989            3 
  360000    1.1984807   -6.4771876     172.6637  0.039968448  0.041106491            2 
  361000    1.1944519   -6.4828459    173.57315  0.040067672  0.041106101            5 
  362000    1.1839314   -6.5429935    173.11859  0.039852347  0.041103974            6 
  363000    1.2085278   -6.4907415    173.53973   0.03983924  0.041101337            2 
  364000    1.2006432   -6.5131202    174.27325  0.039897722  0.041098716            3 
  365000     1.205844   -6.5030347    174.78414  0.039905055  0.041096555            2 
  366000     1.201889   -6.4929042    175.06007  0.039858851  0.041095063            2 
  367000    1.1952051   -6.4936952    176.04372  0.039973596  0.041092974            3 
  368000    1.1901393   -6.4869178    176.37067   0.03993901  0.041091548            1 
  369000    1.1796925      -6.4811    177.22008  0.040022602  0.041089903            1 
  370000    1.1869288   -6.4593001    177.59622  0.039999149  0.041089314            2 
  371000    1.1693873   -6.5054861     177.5752  0.039886614  0.041087874            3 
  372000      1.17505   -6.4847909    178.53148  0.039993611  0.041085827            4 
  373000    1.1561873   -6.4834928    179.24026  0.040044741  0.041084606            2 
  374000     1.207074   -6.4735601    179.78803  0.040059721  0.041082917            1 
  375000    1.1849214   -6.5124282    179.75057   0.03994457  0.041082076            1 
  376000    1.1842579   -6.5133421    180.42957  0.039988824  0.041081223            2 
  377000     1.182194   -6.4794898    180.60627  0.039921811  0.041080019            2 
  378000    1.1986045   -6.5318801    181.19407  0.039945782  0.041077408            2 
  379000    1.1929435   -6.5120489    181.42448  0.039891046   0.04107408            2 
  380000    1.1791877   -6.4802719    181.69548  0.039845501  0.041070193            3 
  381000    1.2057869   -6.5130486    181.62032   0.03972448  0.041066056            3 
  382000    1.2088786   -6.4894049    182.40379  0.039791402   0.04106207            2 
  383000    1.2071953   -6.4993027    182.45099  0.039697779  0.041058135            2 
  384000    1.1994989   -6.5059983    183.26399   0.03977083  0.041053703            3 
  385000    1.1882979    -6.492594    184.64211  0.039965824  0.041049373            3 
  386000    1.1950439   -6.5380217    184.61565  0.039856574  0.041044634            1 
  387000    1.1779121   -6.4856887    184.78137  0.039789269   0.04104068            1 
  388000    1.1996759   -6.5072714    185.62718  0.039868381   0.04103691            2 
  389000    1.1934835   -6.4749208    185.43906  0.039725592  0.041031619            4 
  390000    1.1826215   -6.4994697    185.86484   0.03971471  0.041026243            1 
  391000    1.2095209   -6.5418569    185.95028  0.039631348  0.041021245            2 
  392000    1.1869129    -6.514557    186.81325  0.039713701  0.041016433            4 
  393000     1.178817   -6.4812793     187.2691  0.039709308  0.041010867            3 
  394000     1.173855    -6.497092    188.49917  0.039868691   0.04100553            2 
  395000    1.2129989   -6.4928297    188.54669  0.039777784  0.041001018            1 
  396000    1.1632399   -6.4670498    190.21351  0.040028096   0.04099724            4 
  397000    1.2088831    -6.518759    189.42439  0.039761626  0.040993802            3 
  398000    1.1899887   -6.5430449    190.13885  0.039811318  0.040988992            4 
  399000     1.171124   -6.5317232    189.82242  0.039645452  0.040984752            1 
  400000    1.1834012   -6.5178484    190.82206  0.039754597  0.040980474            4 
  401000    1.1701962   -6.5061739    191.58103  0.039813181  0.040977101            3 
  402000    1.1716924   -6.5231695    192.91927  0.039991556  0.040973565            3 
  403000    1.1773602   -6.4640193    192.85875  0.039879807  0.040970041            5 
  404000       1.1795    -6.494495     193.0325  0.039816935  0.040966131            2 
  405000     1.164301   -6.5068732    193.76757   0.03986987   0.04096287            2 
  406000    1.1659197   -6.5236054    193.51434  0.039719691  0.040958199            1 
  407000    1.1745333   -6.5016668    194.38161  0.039799675  0.040953647            2 
  408000     1.194132   -6.5671896    194.25355   0.03967597  0.040948841            2 
  409000    1.1890358   -6.4867603    195.63012  0.039859437  0.040944337            2 
  410000    1.1771563    -6.515177    195.54732  0.039745391  0.040939921            3 
  411000    1.1717838   -6.4818732    196.62006  0.039866192  0.040935177            2 
  412000    1.1894076   -6.5195051     196.9877  0.039843791  0.040931188            1 
  413000    1.1902296   -6.5257803    197.23053  0.039796313   0.04092684            1 
  414000    1.1831871   -6.5269509    196.83233  0.039620033  0.040922251            1 
  415000    1.1991359   -6.5006698    197.67045  0.039692861  0.040917907            1 
  416000    1.1540807    -6.458772    199.31475  0.039926834   0.04091412            1 
  417000    1.1672214   -6.5039715    199.11985  0.039792137  0.040910512            4 
  418000    1.1807844   -6.5398168    199.93038  0.039858529  0.040907625            9 
  419000    1.1664194   -6.5330863    200.81389  0.039939118  0.040904599            1 
  420000    1.2111488   -6.5163807    200.75097  0.039831541  0.040901491            5 
  421000    1.1536117   -6.4751542     201.9681   0.03997785  0.040898534            2 
  422000    1.1802828   -6.5006483    201.48606  0.039787927  0.040894405            2 
  423000     1.173794   -6.5069693    201.32673  0.039662476  0.040889945            2 
  424000    1.1641448   -6.5245273    202.21136  0.039742799   0.04088565            3 
  425000    1.1747434   -6.5130152    202.49372  0.039704651  0.040880168            4 
  426000    1.1900003   -6.4970749    203.23046  0.039755568  0.040875149            1 
  427000    1.1874647   -6.4703419    203.13892  0.039644598   0.04086945            2 
  428000     1.161384   -6.5278034    203.32971  0.039589119   0.04086408            2 
  429000    1.2057847   -6.5258494    204.21024  0.039667879   0.04085759            3 
  430000    1.1712386   -6.4958085    204.16652  0.039567155  0.040851495            3 
  431000    1.1685018   -6.4858216    205.21164  0.039677425  0.040845506            1 
  432000    1.1799153   -6.5150553    205.69502  0.039678823  0.040839386            6 
  433000    1.1826894   -6.4733742    206.17708  0.039679961  0.040832849            2 
  434000    1.1943679   -6.5637531    205.40547  0.039440375  0.040826101            5 
  435000    1.2068214   -6.4855873    206.28716  0.039518613  0.040818943            4 
  436000    1.1783374   -6.4708299    207.11004  0.039585252  0.040811329            1 
  437000    1.1778632   -6.4741066    207.77291  0.039621074   0.04080386            2 
  438000    1.1585868   -6.5465308    207.47253  0.039473465  0.040796818            2 
  439000    1.1964254   -6.5488582    207.96431  0.039476901  0.040789666            1 
  440000    1.2073827   -6.5573816    208.42894  0.039475178  0.040782865            1 
  441000    1.1760854   -6.4960963     209.6849  0.039622997  0.040775915            2 
  442000    1.1841055   -6.4971048     209.8243  0.039559634  0.040769099            2 
  443000    1.1758844   -6.4960089    210.07138  0.039516813  0.040762594            1 
  444000    1.1513241   -6.5401128    210.19063  0.039450194   0.04075489            3 
  445000    1.1717408   -6.5270622    211.32918  0.039574754  0.040747659            3 
  446000    1.1454037   -6.4942664    212.00927  0.039613092  0.040740875            3 
  447000    1.1642511   -6.5038351    212.27625  0.039574245  0.040735694            2 
  448000    1.1616668   -6.5166652    212.73761  0.039571727  0.040730353            2 
  449000    1.1787207   -6.5399811    212.99732  0.039531796   0.04072454            2 
  450000    1.1544935   -6.5310229    212.95779  0.039436628  0.040717693            3 
  451000    1.1902371    -6.553172     213.5894   0.03946589  0.040709998            1 
  452000    1.1920336   -6.5316777    214.22391  0.039495558  0.040703067            1 
  453000    1.1669218   -6.4972304    214.40116  0.039440978  0.040696379            2 
  454000    1.2050505   -6.5111543    214.79152  0.039425756   0.04068866            2 
  455000    1.1803232   -6.5325269    215.29095  0.039430578  0.040680708            1 
  456000    1.1487821   -6.4728096    215.73983  0.039426139  0.040672666            5 
  457000    1.1669956   -6.5072394    215.36963  0.039272361  0.040664138            3 
  458000    1.1660069   -6.5288284    215.80998  0.039266737   0.04065541            2 
  459000    1.1477217   -6.5321198    217.07481  0.039410823  0.040647681            2 
  460000    1.1692646    -6.500463    217.57477   0.03941572  0.040639539            1 
  461000    1.2172386   -6.5141315     217.9027  0.039389497  0.040632197            1 
  462000    1.1779439   -6.5026405    218.81796  0.039469328  0.040625017            1 
  463000    1.1610381   -6.5408826    218.92786  0.039403862  0.040616802            2 
  464000    1.1612822    -6.501616    219.17886  0.039364019  0.040608762            3 
  465000    1.1914917   -6.4892161    219.43914  0.039326011  0.040601301            3 
  466000    1.1578961   -6.4889028    220.76952  0.039479528  0.040593262            1 
  467000    1.1601601   -6.5089736    220.96647  0.039430134  0.040584792            8 
  468000    1.1856044   -6.5141066    221.21315  0.039389807  0.040577306            2 
  469000    1.1548419    -6.519529    221.75261  0.039401672  0.040569461            2 
  470000    1.1633729    -6.542872    221.69687  0.039307956   0.04056149            2 
  471000    1.1582325   -6.5179258     222.0958  0.039295081  0.040553717            1 
  472000    1.1834527   -6.5276464    222.59474  0.039299919   0.04054683            2 
  473000    1.1592552   -6.5266215    223.28688  0.039338774  0.040540207            1 
  474000    1.1691879   -6.5677454    223.49857  0.039292997  0.040533612            3 
  475000    1.1747734   -6.5465079    224.31298  0.039353155   0.04052658            6 
  476000     1.154964   -6.5308365    224.83274  0.039361474  0.040519654            3 
  477000    1.1670614   -6.5502775    225.31725  0.039363601  0.040512817            3 
  478000    1.1447431   -6.5269337    225.24069  0.039267903  0.040505942            3 
  479000    1.1884751    -6.562807    225.82394  0.039287394  0.040499014            3 
  480000    1.1603698   -6.5392406    227.37312  0.039474501  0.040491961            2 
  481000    1.1926267   -6.4980095    227.62464  0.039436007  0.040484568            4 
  482000    1.1864141   -6.5534092    227.01405  0.039248625  0.040476627            3 
  483000    1.1718299    -6.544523    228.17103  0.039366982     0.040468           10 
  484000     1.150595   -6.5514622    227.95823  0.039249006  0.040459744            1 
  485000    1.1732543   -6.5031144    228.55211  0.039270122  0.040451198            2 
  486000    1.1712602   -6.5560324    228.44072   0.03917022  0.040442686            2 
  487000    1.1851108   -6.5247659    228.90235   0.03916878  0.040434571            3 
  488000    1.1569455   -6.5329393    229.88038   0.03925553  0.040426812            2 
  489000    1.2045102   -6.5222518    230.05857  0.039205618   0.04041887            2 
  490000    1.1796478   -6.5350778    230.52286  0.039204567  0.040409922            5 
  491000     1.179789   -6.5551972    230.92913  0.039193675   0.04040049            2 
  492000    1.1830801   -6.5252533     230.3869  0.039022172  0.040390819            2 
  493000    1.1711042   -6.5406556      231.128  0.039068289  0.040380682            2 
  494000    1.1818373   -6.5594905    231.12632   0.03898892   0.04037005            1 
  495000    1.1738526   -6.5638697    231.90205  0.039040749  0.040360104            5 
  496000    1.1769639   -6.5679514    232.09294  0.038994109  0.040350054            3 
  497000    1.1779327   -6.5249038    233.47129  0.039146762  0.040339974            4 
  498000    1.1573498   -6.5442719    232.68124   0.03893595  0.040330101            4 
  499000     1.192279   -6.5276133    233.91764  0.039064403  0.040319989            2 
  500000    1.1414275   -6.5458335    234.14361  0.039023935  0.040309777            3 
  501000    1.1823949   -6.5213342    234.34888  0.038980186  0.040299187            2 
  502000    1.1948465   -6.5442506     234.4604   0.03892105  0.040288968            2 
  503000    1.1696536   -6.5433324    235.19416  0.038965234  0.040278346            2 
  504000    1.1612232   -6.4997017    235.79279  0.038986903  0.040268035            2 
  505000    1.1863536   -6.5034304    235.83284   0.03891631  0.040256752            2 
  506000    1.1639587   -6.5594928    235.66753  0.038812175  0.040246463            2 
  507000    1.1553847     -6.53696    237.00797  0.038955944  0.040235858            2 
  508000    1.1723345   -6.5388294    237.43585  0.038949451  0.040225132            2 
  509000    1.1967424   -6.5166231    238.13163  0.038986842  0.040215368            2 
  510000    1.1647502   -6.5542337    238.79044  0.039018045  0.040205836            3 
  511000    1.1861864    -6.525638    239.51959  0.039060598  0.040196838            4 
  512000    1.1741946   -6.5414278    239.46621  0.038975621  0.040187451            3 
  513000    1.1727093   -6.5537445    238.66105  0.038768851  0.040177621            3 
  514000    1.1603413   -6.5419797     239.4619  0.038823265  0.040167478            2 
  515000    1.1549979   -6.5247682    239.96345  0.038829037  0.040157273            2 
  516000    1.1673954   -6.5863237    240.88865  0.038903206  0.040147188            3 
  517000    1.1724201   -6.5645374    241.70853  0.038960111   0.04013671            3 
  518000    1.1613055   -6.5504342    241.15623  0.038796047  0.040125826            3 
  519000    1.1588599   -6.5484184     241.7468   0.03881612  0.040114914            2 
  520000     1.187444   -6.5312044    241.88263  0.038763243  0.040104334            2 
  521000    1.1649839   -6.5138713    242.61929  0.038806668  0.040093366            1 
  522000    1.1786085   -6.5448248    243.40737  0.038858136  0.040083131            3 
  523000    1.1498981   -6.5340608    244.14326  0.038901093  0.040072995            1 
  524000    1.1351092   -6.5720624    243.56607  0.038735061  0.040062645            3 
  525000    1.1382365   -6.5226519    244.17754   0.03875834  0.040052712            3 
  526000    1.1699385   -6.5344615     245.3631  0.038872481  0.040042893            2 
  527000    1.1599903   -6.5217821    246.47889  0.038975156  0.040033732            2 
  528000    1.1743713    -6.536365    246.85618  0.038960887  0.040025264            3 
  529000    1.2039808   -6.5632858    247.48512  0.038986314  0.040016853            3 
  530000    1.1548154   -6.5535839    248.01126  0.038995481  0.040008167            1 
  531000    1.1591229   -6.5049155    247.92239  0.038908097  0.040000444            2 
  532000    1.1798249   -6.5112155    248.87361  0.038983961  0.039992378            2 
  533000    1.1696809   -6.5393203    249.15774  0.038955244  0.039984334            2 
  534000    1.1649188   -6.5427704    249.08629  0.038871144   0.03997544            2 
  535000    1.1816277   -6.5372428    249.46284  0.038857141  0.039966856            4 
  536000    1.1826164   -6.5462796     249.7438  0.038828326  0.039957676            2 
  537000    1.1687466   -6.5557375    249.77491  0.038760848  0.039948061            2 
  538000    1.1387744   -6.5617702     249.8706  0.038703625  0.039938591            1 
  539000    1.1469535   -6.5528321    250.66498  0.038754635   0.03992941            4 
  540000    1.1566834   -6.5350876    251.12712  0.038754186   0.03992013            3 
  541000    1.1732298   -6.5333624     252.1158  0.038834843  0.039911192            5 
  542000    1.1469776   -6.5142542    253.40743  0.038961782  0.039902722            2 
  543000     1.150627   -6.5257085     253.1728  0.038854021   0.03989434            2 
  544000    1.1678954   -6.5579549     253.1665  0.038781632  0.039886601            3 
  545000    1.1887951   -6.5230399    253.30816  0.038732134  0.039878083            3 
  546000    1.1843501   -6.5711949    253.86905  0.038746803  0.039869928            3 
  547000    1.1913191   -6.5314049     254.1047  0.038711868  0.039861021            1 
  548000    1.1738632   -6.5208529    254.25456  0.038664014  0.039852081            2 
  549000    1.1434218   -6.5583678    254.97924  0.038703588  0.039843509            3 
  550000    1.1658278   -6.5746757    254.74997   0.03859848  0.039833945            1 
  551000    1.1541552   -6.5446455    255.54962  0.038649368  0.039824545            2 
  552000    1.1840979   -6.5386343    255.66002  0.038596018  0.039814914            2 
  553000    1.1397272   -6.5544435    256.07377  0.038588573  0.039804793            2 
  554000    1.1640649   -6.5645223    256.72221  0.038616458  0.039794852            3 
  555000    1.1439278   -6.5681998    256.56066  0.038522621  0.039784956            2 
  556000    1.1681006   -6.5450598     257.8263  0.038643031  0.039774502            2 
  557000     1.169488   -6.5190428    259.07279  0.038760142  0.039764578            2 
  558000    1.1523904   -6.5705505    258.55881   0.03861392  0.039755317            2 
  559000    1.1669698   -6.5529601    259.97547  0.038756034  0.039746037            2 
  560000    1.1529532    -6.559123    260.16535  0.038715082  0.039736419            2 
  561000    1.1540085   -6.5422598     260.4367  0.038686378  0.039727553            2 
  562000    1.1518349   -6.5113742      261.112  0.038717674  0.039719141            1 
  563000    1.1459098   -6.5736826    260.98461  0.038630049  0.039710684            3 
  564000    1.1533756   -6.5496286    261.88281  0.038694269  0.039702087            5 
  565000    1.1617177   -6.5900192    261.44609   0.03856137  0.039693076            2 
  566000    1.1730061   -6.5654704    262.05451  0.038582819  0.039684244            2 
  567000    1.1551429   -6.5478269    262.72454  0.038613248  0.039675515            2 
  568000    1.1847803   -6.5795731    263.12782  0.038604434  0.039666617            1 
  569000    1.1428589   -6.5596652    263.43008  0.038580855  0.039658025            2 
  570000    1.1771177   -6.5413877    264.80948  0.038714836  0.039649986            2 
  571000    1.1591633   -6.5813526    264.75466  0.038639034  0.039642058            1 
  572000    1.1407966   -6.5532556    265.07935  0.038618787  0.039633764            2 
  573000    1.1244805   -6.5800076    265.04039  0.038545722  0.039624653            4 
  574000    1.1836953   -6.5708833     265.8059  0.038589706  0.039616462            5 
  575000    1.1582112   -6.5627501    266.32485  0.038597804  0.039608806            2 
  576000    1.1548576   -6.5639386     267.8379  0.038749696  0.039601597            3 
  577000    1.1663481   -6.5574829    268.56391  0.038787394  0.039594022            3 
  578000    1.1695108   -6.5355479    268.49105  0.038709782  0.039587067            2 
  579000    1.1339063   -6.5579465    268.56728  0.038653897  0.039579749            2 
  580000    1.1771692   -6.5280575    269.38294  0.038704445  0.039572206            2 
  581000    1.1338771   -6.5369719    269.90261  0.038712365  0.039565061            2 
  582000    1.1781439   -6.5576022    271.09207  0.038816161  0.039558101            1 
  583000    1.1423294   -6.5664771    271.50134  0.038808082  0.039551412            4 
  584000    1.1587756   -6.5340731    271.62666  0.038759511  0.039544467            1 
  585000    1.1866094   -6.5642623    271.43636  0.038666148  0.039537866            2 
  586000    1.1654963   -6.5490764    271.97198  0.038676334  0.039530852            2 
  587000    1.1716418   -6.5516924    273.31039  0.038800452  0.039524025            2 
  588000    1.1558926   -6.5500382    273.23728  0.038724104  0.039516793            5 
  589000    1.1727946     -6.55488    273.58701   0.03870784  0.039509584            1 
  590000    1.1943009   -6.5592672    273.84874  0.038679201  0.039502588            2 
  591000    1.1639877   -6.5878935    275.12248  0.038793355  0.039495909            3 
  592000    1.1902681   -6.5581662     274.8368  0.038687613  0.039489079            2 
  593000    1.1479219   -6.5463247       275.28  0.038684654  0.039482026            5 
  594000     1.125497   -6.5658948    275.93475  0.038711384  0.039475565            2 
  595000    1.1603959   -6.5226781    276.99241  0.038794454  0.039469644            3 
  596000    1.1390855   -6.5784453    276.39212   0.03864543   0.03946317            4 
  597000    1.1444619   -6.5915423    275.67561  0.038480682  0.039456541            3 
  598000    1.1517546   -6.5612413    277.26361  0.038637627  0.039449751            2 
  599000     1.135407   -6.5745775    277.02352  0.038539722  0.039442479            3 
  600000    1.1602313   -6.5675115    277.90317  0.038597662  0.039434986            3 
  601000    1.1417767   -6.5678752    278.82683  0.038661513  0.039428178            1 
  602000    1.1252122   -6.5749069    278.83059  0.038597812   0.03942133            3 
  603000    1.1817995   -6.5525645    278.92806  0.038547271  0.039414206            3 
  604000    1.1668446    -6.579459    279.75987  0.038598216  0.039406986            1 
  605000    1.1426138   -6.5691722    279.02864  0.038433697  0.039399378            4 
  606000    1.1806593   -6.5383949    280.09172  0.038516463  0.039391802            3 
  607000     1.167382   -6.5329226    280.41285  0.038497096  0.039384678            3 
  608000    1.1608337   -6.5938186    280.72813  0.038476992  0.039377004            1 
  609000    1.1884918   -6.5672902    282.20444  0.038615824  0.039369679            1 
  610000    1.1678286   -6.5632641    281.07051   0.03839761  0.039362054            3 
  611000    1.1606315    -6.565535    281.96201  0.038456358   0.03935452            1 
  612000    1.1548461   -6.6048061     282.3521  0.038446637  0.039346715            1 
  613000    1.1502208   -6.5617802    282.51743  0.038406393   0.03933864            3 
  614000    1.1852932   -6.5549422    282.76146  0.038376963  0.039330883            4 
  615000    1.1468508    -6.561122    284.02385  0.038485617  0.039323032            3 
  616000    1.1573986   -6.5235937    284.92629  0.038545224   0.03931544            2 
  617000    1.1598952   -6.5430875    284.15603  0.038378718  0.039307425            1 
  618000    1.1394413   -6.5755187    284.96316  0.038425452   0.03929925            3 
  619000    1.1499467   -6.5914506    285.41612  0.038424357  0.039290821            1 
  620000    1.1449913   -6.6239111    286.28645  0.038479362  0.039283311            3 
  621000    1.1565243   -6.6087993    286.00576  0.038379732  0.039276114            3 
  622000    1.1385279   -6.5915593    286.76463  0.038419699  0.039268993            3 
  623000    1.1553053   -6.5626299    286.62506   0.03833936  0.039261634            6 
  624000     1.150989    -6.531634    288.88803  0.038580133  0.039254806            2 
  625000      1.13464   -6.5752608    288.77158  0.038502877  0.039248115            4 
  626000    1.1540056   -6.5676815    289.10046  0.038485152   0.03924217            2 
  627000    1.1580393   -6.5745876    288.99687  0.038410004  0.039235768            1 
  628000    1.1588029   -6.5734335    290.75582  0.038582248  0.039230334            2 
  629000    1.1593471   -6.5576148    291.84955  0.038665812  0.039225468            6 
  630000    1.1391101   -6.5726254    292.87143  0.038739608  0.039221304            3 
  631000    1.1647382   -6.5901151    293.36236  0.038743048  0.039217487            2 
  632000    1.1479422    -6.595322    292.61932  0.038583772  0.039213579            2 
  633000    1.1287354   -6.5856712    293.36784  0.038621359   0.03920862            3 
  634000    1.1989179   -6.5988069    292.77722  0.038482811  0.039203198            3 
  635000    1.1500126   -6.5693628    293.64663  0.038536303  0.039198166            2 
  636000     1.149339   -6.5471357    294.74366  0.038619452  0.039192744            2 
  637000    1.1615891   -6.5571676    294.75337  0.038560096  0.039186852            2 
  638000    1.1255787   -6.5345147    294.09488  0.038413646  0.039181892            4 
  639000    1.1619499   -6.5967826    294.88704  0.038456839  0.039176292            2 
  640000    1.1798114   -6.5965648    296.12341  0.038557735  0.039170633            2 
  641000    1.1641197   -6.5704711    296.40101  0.038533672  0.039165386            5 
  642000    1.1720355   -6.5452202    296.79218  0.038524426   0.03915959            4 
  643000    1.1465421   -6.5856395    297.60594  0.038569976   0.03915381            1 
  644000     1.121752   -6.5435363    297.50966  0.038497627  0.039147888            2 
  645000    1.1515525   -6.5905782    298.93367  0.038621921  0.039142646            3 
  646000    1.1653192   -6.5335726    299.41466  0.038624182  0.039137563            2 
  647000    1.1417825   -6.5956459    299.07178  0.038520322  0.039132524            2 
  648000     1.151418   -6.5715419    300.14005  0.038598257  0.039127844            3 
  649000    1.1315888   -6.5901651    300.84555  0.038629372  0.039123343            2 
  650000    1.1363931   -6.5863172    301.94533   0.03871094  0.039118675            5 
  651000    1.1437556   -6.5414527    301.45085  0.038588178  0.039114093            3 
  652000     1.133244    -6.605478    301.69739  0.038560505  0.039109303            2 
  653000    1.1795578   -6.5653643    302.17232  0.038562062  0.039104227            2 
  654000    1.1648124   -6.5636822    303.11771  0.038623561  0.039099659            2 
  655000    1.1216185    -6.585411    303.34225  0.038593162  0.039095136            2 
  656000     1.137673   -6.5968462    303.81578  0.038594485  0.039090681            3 
  657000    1.1483337   -6.5762454    304.05563  0.038566163  0.039086157            4 
  658000    1.1343973   -6.5739122    303.89425  0.038487113  0.039081803            2 
  659000     1.186842   -6.5821939    305.51739  0.038633964  0.039077521            2 
  660000    1.1451059   -6.5877339    305.31892  0.038550369  0.039073303            2 
  661000    1.1242794   -6.5918119    306.20701   0.03860401  0.039068985            1 
  662000    1.1267179    -6.554615    307.08715  0.038656489  0.039065037            4 
  663000    1.1486657   -6.5821452    307.03391  0.038591491  0.039061036            2 
  664000    1.1127833   -6.5991175     307.9422  0.038647365  0.039056436            5 
  665000    1.1379304   -6.5995369    307.57492  0.038543222  0.039051466            3 
  666000    1.1426441   -6.5489694    308.93622  0.038655683  0.039047187            1 
  667000    1.1538259   -6.5841307    308.85411  0.038587471  0.039043344            2 
  668000    1.1424981   -6.5916177    309.56853  0.038618829  0.039039463            8 
  669000    1.1549077   -6.5607565    311.22048  0.038766876  0.039036057            1 
  670000    1.1622621   -6.5563682    311.58314  0.038754122  0.039032575            3 
  671000    1.1331402    -6.604966    310.06634   0.03850799  0.039028998            4 
  672000    1.1689556   -6.6201599     310.7894  0.038540352  0.039025425            4 
  673000    1.1400177   -6.5863676    312.14093  0.038650437   0.03902188            2 
  674000    1.1423304   -6.5636365     311.7295  0.038542223  0.039017873            4 
  675000     1.168496   -6.5669317    312.96911  0.038638162  0.039014063            4 
  676000    1.1279343   -6.5766345     312.4429  0.038516137  0.039009778            3 
  677000    1.1643217   -6.5887935    313.48412   0.03858741  0.039005602            2 
  678000    1.1296204   -6.6002581    313.27059  0.038504251  0.039001762            3 
  679000    1.1328653   -6.5789062     314.8451  0.038640783  0.038998019            3 
  680000    1.1403475    -6.545539    315.27729  0.038636922  0.038994359            4 
  681000    1.1664524   -6.5797025    314.89898  0.038533893  0.038990437            2 
  682000    1.1507954   -6.5759549    315.90463  0.038600273  0.038986527            3 
  683000    1.1690088   -6.5567815    315.88718  0.038541627  0.038982952            6 
  684000    1.1195939   -6.5581226    316.68365  0.038582316   0.03897907            5 
  685000    1.1519683   -6.5745291    316.40129  0.038491641  0.038975217            4 
  686000    1.1585051     -6.63287    316.34863  0.038429134  0.038970967            2 
  687000    1.1530927   -6.6241378    316.80154  0.038428134  0.038966674            2 
  688000     1.129433   -6.5642217    318.62915  0.038593646  0.038962823            2 
  689000    1.1191136   -6.5946179    317.84697  0.038443029  0.038959045            3 
  690000     1.143006    -6.571659    319.51541  0.038588818  0.038955121            1 
  691000    1.1319399    -6.571228    319.69789   0.03855498  0.038951118            2 
  692000    1.1330001   -6.5975075    319.07571  0.038424339  0.038946995            2 
  693000    1.1205657   -6.5806458    318.92506  0.038350777  0.038942428            3 
  694000    1.1546821   -6.6441604    319.69901   0.03838845  0.038937614            2 
  695000    1.1104231   -6.6094771    321.33184  0.038528998  0.038932733            4 
  696000    1.1271152   -6.5926946     321.5379  0.038498311  0.038927888            1 
  697000     1.125025   -6.5799255    322.14077  0.038515156  0.038923069            3 
  698000    1.1503713   -6.6075913    321.76673  0.038415321   0.03891813            3 
  699000    1.1397276   -6.5659249    322.02961  0.038391704  0.038912684            4 
  700000    1.1532771   -6.6048693    321.19826  0.038237888  0.038906405            2 
  701000    1.1356569   -6.5752577    321.00676  0.038160575  0.038900067            2 
  702000    1.1336168   -6.5910074     321.9253  0.038215253  0.038893585            4 
  703000    1.1472521   -6.5677562    322.76501  0.038260433  0.038887304            6 
  704000    1.1340083   -6.6025507    321.77361  0.038088732  0.038880978            4 
  705000    1.1262383   -6.5936232    323.15113  0.038197533  0.038874108            3 
  706000    1.1285649   -6.6462571     322.3958  0.038054273  0.038867615            3 
  707000    1.1311125   -6.5944502    323.14354  0.038088583  0.038860563            2 
  708000    1.1321406   -6.5615908    324.80943  0.038230865  0.038853999            4 
  709000    1.1496768   -6.6235569    324.39578  0.038128324  0.038847052            2 
  710000    1.1421447   -6.5736461    324.32072  0.038065812  0.038840203            4 
  711000    1.1190438     -6.56283    325.84419  0.038190833  0.038833045            2 
  712000    1.1143758   -6.6113912    325.82577  0.038135038     0.038826            1 
  713000    1.1273914   -6.5529879    325.95988  0.038097228  0.038818629            4 
  714000     1.144019     -6.59044    325.63463  0.038005909  0.038811596            5 
  715000    1.1226571   -6.5640796     327.0903  0.038122412  0.038804589            2 
  716000    1.1491408   -6.5907184    326.57134  0.038008769  0.038797158            1 
  717000    1.1379704   -6.6035226    327.57566  0.038072485   0.03878973            4 
  718000    1.1142501   -6.6269248    326.96323  0.037948378  0.038781988            2 
  719000    1.1206294   -6.6093892    327.19146  0.037922052  0.038774428            3 
  720000    1.1353913   -6.6017117     327.4991  0.037904989  0.038766403            1 
  721000    1.1449513   -6.5623482    328.17253   0.03793025  0.038758173            2 
  722000    1.1140311   -6.6112967    328.15455   0.03787564  0.038750395            2 
  723000    1.1386723   -6.5895577    329.58646  0.037988297  0.038742852            1 
  724000    1.1478166   -6.5969323    329.10526  0.037880439  0.038735165            8 
  725000    1.1334441   -6.6075168    328.91454  0.037806269  0.038726998            9 
  726000    1.1499133   -6.6079136    328.39742  0.037694837  0.038718694            2 
  727000    1.1435332   -6.6050396    330.48246  0.037881987  0.038709941            3 
  728000    1.1466367   -6.6058341    329.65323  0.037735031  0.038701082            1 
  729000    1.1360508   -6.6129657     330.5807  0.037789288  0.038692255            2 
  730000     1.111199   -6.5851157    330.45363  0.037723017  0.038683397            4 
  731000    1.1332468   -6.5859823    330.96113  0.037729267  0.038674477            2 
  732000    1.1311129   -6.5823943     331.9079  0.037785507  0.038665134            4 
  733000    1.1349308   -6.5990409    331.17397   0.03765052  0.038655704            1 
  734000    1.1460564   -6.6024437    331.66838  0.037655357  0.038646235            4 
  735000    1.1489959   -6.5789864    332.56887  0.037706221  0.038636773            2 
  736000     1.140139   -6.6554004     330.7348  0.037447328  0.038627123            4 
  737000    1.1406893      -6.6292    332.56672  0.037603655  0.038617378            2 
  738000    1.1464576   -6.6150579    331.97701  0.037486112  0.038608043            2 
  739000    1.1652068   -6.6086402    334.82156  0.037756153  0.038598598            3 
  740000    1.1453629   -6.5988266    334.71061  0.037692636  0.038589613            3 
  741000    1.1534831   -6.6256489    333.43077  0.037497838  0.038580348            2 
  742000    1.0993482   -6.5983115    334.28296   0.03754301  0.038570738            2 
  743000    1.1242981   -6.5979054    335.70786  0.037652295  0.038561259            3 
  744000    1.1477775   -6.5893338    335.80187  0.037612216  0.038551948            1 
  745000     1.144262   -6.6101242    336.45272  0.037634532  0.038542535            4 
  746000    1.1472513   -6.6431922    334.23458  0.037336302  0.038532472            3 
  747000    1.1327596   -6.5870628    336.27798  0.037514278  0.038522545            2 
  748000    1.1367062   -6.6083103    336.72892  0.037514363  0.038512507            2 
  749000    1.1643211    -6.606071    336.57203  0.037446822  0.038502623            4 
  750000    1.1432008   -6.5986058    337.72457  0.037524952  0.038492443            2 
  751000    1.1213011   -6.5697259    337.20627  0.037417474  0.038482469            3 
  752000    1.1327555   -6.6032263    337.94824  0.037449938   0.03847252            2 
  753000    1.1102733   -6.6197997    338.73731  0.037487529  0.038462555            2 
  754000    1.1315732   -6.6436947    337.67985  0.037320938  0.038452611            1 
  755000    1.1712718   -6.6166411    339.23959  0.037443664  0.038442485            2 
  756000    1.1102419   -6.6328852    338.97575  0.037365052  0.038432665            4 
  757000    1.1406836    -6.603739    340.16031  0.037446093  0.038423213            3 
  758000    1.1246466   -6.6255511    340.22543  0.037403851  0.038413475            1 
  759000    1.1207463   -6.5885952    340.49399  0.037384057  0.038403435            3 
  760000    1.1233856   -6.6488993    341.32334  0.037425805  0.038393585            3 
  761000    1.1287058   -6.6032099    340.72073  0.037310637  0.038383661            2 
  762000    1.1218562   -6.5772623    341.14165  0.037307704  0.038373461            4 
  763000    1.1414538   -6.6026667    341.91805  0.037343605  0.038363499            2 
  764000    1.1120558   -6.6089235    342.60268  0.037369403  0.038353622            3 
  765000    1.1216609   -6.6270526    342.84926  0.037347414  0.038343729            4 
  766000    1.1465592   -6.6093879    342.91795   0.03730613   0.03833382            3 
  767000    1.0984401   -6.6412652     343.5796  0.037329378  0.038324118            3 
  768000      1.12082   -6.6025982    344.32675  0.037361844  0.038314397            3 
  769000    1.1097243   -6.6223043    345.40991  0.037430637  0.038304867            6 
  770000    1.1456613   -6.6026046    344.95723  0.037333034  0.038295518            4 
  771000    1.1233269    -6.653479     346.0704  0.037404928  0.038285994            3 
  772000     1.144435   -6.6187626    345.82879  0.037330396  0.038276302            3 
  773000    1.1067812   -6.6222273    346.75073  0.037381493  0.038266978            2 
  774000    1.1455145   -6.6234709    346.49857  0.037306048  0.038258104            2 
  775000    1.1305301    -6.624405     348.0173  0.037421215  0.038249481            1 
  776000    1.1490551   -6.6428732    347.03218  0.037267201  0.038240716            2 
  777000    1.1249522   -6.6262444    348.33368  0.037358824  0.038231794            1 
  778000    1.1273981   -6.5994007    349.25276   0.03740925  0.038223057            3 
  779000    1.1225202   -6.6448198     348.9172  0.037325332  0.038214192            3 
  780000    1.1132519   -6.6012485     349.5529  0.037345395   0.03820548            4 
  781000     1.133541   -6.6732914    349.76007  0.037319683  0.038196873            4 
  782000    1.1209716   -6.6425268    351.00908   0.03740506  0.038188423            3 
  783000    1.1418824   -6.6393392     352.0074  0.037463538  0.038180081            2 
  784000     1.130655   -6.5977922    352.55069    0.0374735  0.038171954            1 
  785000    1.1536933   -6.6089078    352.54877   0.03742556  0.038164022            5 
  786000    1.1328893   -6.6305365    352.35602  0.037357508  0.038155667            4 
  787000    1.1117947   -6.5896261    353.71625  0.037454071  0.038147572            3 
  788000    1.1405073   -6.6528575     352.1067  0.037236326   0.03813941            2 
  789000    1.1007541   -6.6377675    353.32584  0.037317896  0.038130867            2 
  790000    1.1077381   -6.5895779    353.98905  0.037340617  0.038122233            2 
  791000    1.1280261   -6.6238428    355.82275  0.037486594  0.038114012            2 
  792000    1.1311903   -6.6546467    353.75771  0.037221981  0.038105871            4 
  793000    1.1434624   -6.6294831    354.39192   0.03724169  0.038097161            2 
  794000    1.1270611    -6.649164    355.11202  0.037270363  0.038088574            2 
  795000    1.1411793   -6.6471005    355.02168  0.037214012  0.038079653            2 
  796000    1.1299971   -6.6443798    354.56687  0.037119647  0.038070837            3 
  797000    1.1280435   -6.6168667    355.82162  0.037204268  0.038061793            4 
  798000    1.1282088   -6.6119299    355.25177  0.037098138  0.038052783            2 
  799000    1.1446671   -6.6704146     355.9264  0.037122069  0.038043194            2 
  800000    1.1232809   -6.5833981    357.46294  0.037235723  0.038034002            1 
  801000    1.1190043   -6.6063043    357.46784  0.037189746  0.038025137            2 
  802000    1.1243531    -6.625245    357.42406  0.037138826  0.038016134            3 
  803000    1.1213933   -6.6195151     358.2854  0.037181963  0.038006968            2 
  804000    1.1226212   -6.6422887    359.13341  0.037223612  0.037997999            2 
  805000    1.1283784   -6.6556763    358.57094  0.037119145  0.037988832            2 
  806000    1.1438315   -6.6499026    358.42682  0.037058191  0.037979815            5 
  807000    1.1242764   -6.6175953    360.18863  0.037194199  0.037970961            3 
  808000    1.1224299   -6.6568966    359.98137  0.037126792  0.037962355            2 
  809000    1.0865208   -6.6032478    360.42507  0.037126604  0.037953758            2 
  810000    1.1237187   -6.6458737    360.81806  0.037121199  0.037945227            2 
  811000    1.0880046    -6.612754    361.09106  0.037103479  0.037936896            3 
  812000    1.1175605   -6.6114813     361.9665  0.037147629  0.037928797            1 
  813000    1.1173587   -6.6356443    363.39938  0.037248809  0.037920438            1 
  814000    1.1289869   -6.6071771    362.46977  0.037107879  0.037912021            2 
  815000    1.0921384   -6.5989735      365.368  0.037358691  0.037904112            7 
  816000    1.1433899   -6.6585215    364.10793  0.037184225  0.037896188            2 
  817000    1.1351965   -6.6298159    364.70606   0.03719972  0.037888312            8 
  818000    1.1077549   -6.6005261    364.75354  0.037159081  0.037880019            1 
  819000    1.1314638   -6.5835897    365.87134  0.037227446  0.037871765            1 
  820000    1.1306846   -6.6359931    364.70623  0.037063641  0.037863487            1 
  821000    1.1047704   -6.6441582    365.00777  0.037049104  0.037854753            4 
  822000    1.1189542   -6.6908127    364.95593  0.036998776  0.037846306            2 
  823000    1.1233296   -6.6308733    365.96418  0.037055911  0.037838194            1 
  824000    1.1213453   -6.6360169    366.71519  0.037086892  0.037829875            2 
  825000    1.1146459   -6.6501629    366.44382  0.037014527  0.037821647            4 
  826000     1.091006   -6.6489967    367.36336  0.037062486  0.037813163            4 
  827000    1.1040565   -6.6601098    367.57518  0.037039014  0.037804703            2 
  828000    1.1262323   -6.6535029    368.27407  0.037064621  0.037796436            2 
  829000    1.1538702   -6.6386787     369.6708  0.037160314  0.037788441            7 
  830000    1.1197736   -6.6556739    368.82254  0.037030375   0.03778014            1 
  831000    1.1014174   -6.6272295    369.80426  0.037084262  0.037771959            5 
  832000    1.1188269   -6.6304632    370.17906   0.03707723  0.037763736            2 
  833000    1.1330933    -6.599705    370.23606  0.037038422  0.037756194            2 
  834000    1.1058717   -6.6413958    370.52974  0.037023355  0.037748131            4 
  835000    1.1017656   -6.6252613    371.11792  0.037037716  0.037739927            7 
  836000    1.0956239   -6.6364893    371.53093  0.037034582  0.037731417            3 
  837000    1.1174759    -6.649495    371.16254  0.036953658  0.037723058            3 
  838000    1.0901658   -6.6266692    370.78053  0.036871572  0.037714074            2 
  839000    1.1207803   -6.6423313    370.88735  0.036838235  0.037705233            2 
  840000    1.1207651   -6.6473368    371.96307  0.036901098  0.037696217            3 
  841000    1.1117138   -6.5924809    373.46002  0.037005551  0.037687875            2 
  842000    1.1138533   -6.6569764    372.40818    0.0368575  0.037679287            3 
  843000    1.1154275   -6.6207596    372.73031  0.036845622  0.037670652            2 
  844000    1.1178982   -6.6015135    373.54797  0.036882698   0.03766223            2 
  845000    1.1237501   -6.6293053    373.58719  0.036842918  0.037653468            5 
  846000    1.1210637   -6.6654012       374.07  0.036846927    0.0376447            2 
  847000    1.1100589   -6.6491143      374.086  0.036804998  0.037635681            1 
  848000    1.1377145   -6.6458562    375.80699  0.036930718   0.03762709            2 
  849000    1.1057091   -6.6449873    375.71648  0.036878335  0.037618642            7 
  850000    1.1079613   -6.5958489    376.30967  0.036893105  0.037610151            3 
  851000    1.1127304   -6.6518091    377.11388  0.036928504  0.037601908            3 
  852000    1.1242177   -6.6674235    377.12915  0.036886654  0.037593823            2 
  853000     1.111264   -6.6319372    378.07601  0.036935913  0.037585767            3 
  854000    1.1211699   -6.6429118    378.17844  0.036902658  0.037577675            3 
  855000    1.1021883   -6.6643996    379.54155  0.036992354  0.037570045            1 
  856000    1.1014103   -6.6412506    378.96345  0.036892859  0.037562034            1 
  857000    1.1151073   -6.6185284    379.19384  0.036872213  0.037553788            4 
  858000    1.1097907   -6.6499821    378.86812  0.036797603  0.037545648            4 
  859000    1.1228259   -6.6168495    379.68236  0.036833757   0.03753748            2 
  860000     1.098912   -6.6303647    378.82877  0.036708214  0.037528912            7 
  861000     1.126659   -6.6349643    380.30219  0.036808187  0.037520396            2 
  862000    1.1130952   -6.6140969    381.22169  0.036854378  0.037512118            2 
  863000    1.1019482   -6.6834056    380.43601  0.036735806  0.037503586            4 
  864000    1.1101371   -6.6616477    379.84708  0.036636486  0.037494444            3 
  865000    1.1299961   -6.6782142    382.40763  0.036840812  0.037485777            3 
  866000    1.1221603   -6.6416441    380.94844  0.036657856  0.037476991            2 
  867000    1.1195984   -6.6647901    382.72373   0.03678621  0.037468297            2 
  868000     1.116566   -6.6253379    382.77519   0.03674877  0.037459705            4 
  869000    1.0928457   -6.6514851    383.10279  0.036737897  0.037451073            1 
  870000    1.1126871   -6.6339267    384.93386  0.036871059  0.037442432            3 
  871000    1.1093231   -6.6268377    384.00864  0.036740207   0.03743376            3 
  872000    1.1006526   -6.6526406    384.09793  0.036706606  0.037425362            1 
  873000    1.0927932   -6.6326864    385.04397  0.036754865  0.037416699            5 
  874000    1.1155244   -6.6538711    384.42671  0.036653957  0.037408071            3 
  875000    1.1254168   -6.6219225    386.06517  0.036768112  0.037399499            6 
  876000    1.1106248   -6.6502165    384.58343  0.036585182  0.037390726            2 
  877000    1.1142111   -6.6805714    386.00297  0.036678351  0.037381937            1 
  878000    1.1021551   -6.6370548    386.37821  0.036672191  0.037373268            2 
  879000    1.1182519   -6.6241428    386.76463  0.036667106  0.037364652            3 
  880000    1.1019513   -6.6702605    387.06925  0.036654285  0.037355881            4 
  881000    1.0992846   -6.6272507    388.65458  0.036762635  0.037347147            1 
  882000    1.0731929   -6.6337284    387.31976  0.036594837  0.037338399            2 
  883000    1.1142635    -6.644713    388.88465  0.036701081  0.037329843            1 
  884000    1.1214243   -6.6323185    388.46264  0.036619782  0.037321242            4 
  885000     1.105217   -6.6454361    388.26218  0.036559528  0.037312916            3 
  886000    1.0643109   -6.6654858    388.97963  0.036585744  0.037304415            3 
  887000    1.1037032   -6.6895246    389.31373  0.036575886   0.03729586            4 
  888000    1.0873758   -6.6282732     391.3192  0.036722898  0.037287577            2 
  889000    1.1032345   -6.6428627    390.93065  0.036645168  0.037279441            2 
  890000    1.1046164   -6.6353578    391.94576  0.036699041  0.037271197            4 
  891000    1.1072208   -6.6321817    391.05496  0.036574538  0.037263096            6 
  892000    1.0933974   -6.6359521    390.41521  0.036473768  0.037254956            3 
  893000    1.0885423   -6.7072108    392.39568  0.036617738  0.037246671            2 
  894000    1.0830059   -6.6356092    392.09686  0.036548924  0.037238541            3 
  895000    1.1081253   -6.7176181    392.73634  0.036567629  0.037230483            3 
  896000     1.117951   -6.6707881    393.16857  0.036567017   0.03722278            4 
  897000    1.1203337   -6.6512311    394.10661  0.036613397  0.037214786            3 
  898000    1.0902308   -6.6708118    394.37089  0.036597151  0.037206854            3 
  899000    1.0988528   -6.6563249    395.02175  0.036616773  0.037199075            3 
  900000    1.1199508   -6.6351645    394.14411  0.036494825   0.03719092            2 
  901000    1.1171859   -6.6435803    394.42492  0.036480293  0.037182444            3 
  902000    1.0958305    -6.627994     395.2499  0.036516066  0.037174567            2 
  903000    1.1057435   -6.6383198    396.23012  0.036566087  0.037166688            5 
  904000    1.1259618   -6.6369901    397.65952  0.036657404  0.037158923            2 
  905000    1.1098147   -6.6372435    396.31507  0.036493101  0.037150788            5 
  906000    1.1293446   -6.6349649    397.83417  0.036592547  0.037142794            4 
  907000    1.1028484   -6.6237663    396.24771  0.036406442  0.037134749            2 
  908000    1.0933755   -6.6781945    396.44021  0.036384014  0.037126531            2 
  909000    1.1119498   -6.6793761    397.66437  0.036456213  0.037117914            2 
  910000    1.0996222   -6.6558532    397.33641  0.036386118  0.037109425            1 
  911000    1.1045667   -6.6393769    397.59904  0.036370201  0.037100794            3 
  912000    1.1133343   -6.6631153    399.74474  0.036526383  0.037092322            3 
  913000    1.1106611   -6.6442804    400.40626  0.036546756  0.037084055            5 
  914000    1.0837272   -6.6612967    400.70059  0.036533606  0.037075884            3 
  915000    1.0955044   -6.6864848    400.52239  0.036477449  0.037068028            2 
  916000    1.0986582   -6.6642552    400.94696  0.036476252  0.037060204            3 
  917000    1.1185285     -6.68125    401.23143  0.036462326  0.037052552            3 
  918000    1.1110471   -6.6789031    401.67975  0.036463304  0.037044664            4 
  919000    1.1200041    -6.673545    401.99222   0.03645196  0.037036941            1 
  920000    1.0872013   -6.6569803    401.32216  0.036351645  0.037029137            3 
  921000    1.1115934   -6.6655338     403.2139  0.036483342  0.037021301            4 
  922000    1.1053632   -6.6817219    403.05693  0.036429585  0.037013569            3 
  923000    1.0798972   -6.6666125    403.35796  0.036417295  0.037005692            4 
  924000     1.114852   -6.6595236    404.52024  0.036482706  0.036997811            2 
  925000     1.093668   -6.6738233    404.47625  0.036439302  0.036989944            2 
  926000    1.1120053   -6.7231548    403.57013  0.036318407  0.036981869            2 
  927000    1.0888084   -6.6391628    403.98935  0.036316914  0.036973827            3 
  928000     1.112087   -6.6317418    406.42632  0.036496617  0.036966001            5 
  929000    1.0955709   -6.6555657    405.38301  0.036363744  0.036958264            2 
  930000    1.1028213   -6.7009951    405.39479  0.036325698  0.036950464            6 
  931000    1.1156754    -6.666905    405.01955  0.036253093  0.036942469            4 
  932000    1.1105935   -6.7275337    404.71659  0.036187106   0.03693441            3 
  933000    1.0753277   -6.6931833    406.91417  0.036344603  0.036926071            3 
  934000    1.0792551    -6.664112    407.23113  0.036333969  0.036917982            3 
  935000    1.1192239    -6.656488    409.25401  0.036475402  0.036909849            2 
  936000    1.0856518   -6.7200326    406.40123  0.036182445  0.036901501            3 
  937000    1.1358176   -6.6751999    406.86827  0.036185367  0.036893014            4 
  938000    1.0898477   -6.6623795    408.36958  0.036280169  0.036884678            2 
  939000    1.1028307   -6.6226674    408.48957   0.03625218  0.036876322            2 
  940000    1.1125719   -6.6623013     408.4053  0.036206144  0.036868042            3 
  941000    1.0842737     -6.69222    409.71659  0.036283793  0.036859823            4 
  942000    1.0939882   -6.6580158    410.63396   0.03632643  0.036851801            3 
  943000    1.0808033   -6.6590016    410.73066  0.036296453  0.036844047            2 
  944000     1.132989    -6.648341    410.66914  0.036252573  0.036836408            2 
  945000    1.0947732   -6.6721592     411.5282  0.036289965  0.036828778            5 
  946000    1.0759382   -6.6791408    410.40957  0.036153063  0.036821027            3 
  947000    1.0929879   -6.6716071     411.9287  0.036248566  0.036813134            2 
  948000     1.110506    -6.631051    410.52286  0.036086749   0.03680478            3 
  949000    1.0889669   -6.6522132    412.40848  0.036214303  0.036796873            2 
  950000    1.0960757   -6.6589598    411.97227  0.036137919  0.036788594            3 
  951000     1.109833   -6.6698617    412.45727  0.036142417  0.036780135            4 
  952000     1.110631   -6.6804805    413.12449  0.036162858  0.036771749            4 
  953000      1.11014    -6.663485    414.25573  0.036223831   0.03676346            2 
  954000    1.1369472   -6.6389866      414.848  0.036237596  0.036755437            3 
  955000    1.0903807   -6.7000537    413.23921  0.036059268  0.036747424            2 
  956000    1.1027902   -6.6611692    414.20217  0.036105489  0.036739158            2 
  957000    1.1029954   -6.6547501    415.96793   0.03622152  0.036730998            2 
  958000    1.0768546   -6.6451217    415.93748  0.036181061  0.036723082            3 
  959000    1.1042961   -6.6711612    415.63035  0.036116645  0.036715111            3 
  960000    1.1078773   -6.6663413    417.97296  0.036282375  0.036706854            1 
  961000    1.0841932   -6.6422419    416.77215  0.036140492   0.03669906            4 
  962000    1.0772862    -6.664083    417.11635   0.03613274  0.036690961            2 
  963000    1.0955343   -6.6962931    416.85242   0.03607238  0.036682755            3 
  964000    1.1047466   -6.6428668    418.93343  0.036214854  0.036674445            3 
  965000    1.1005632   -6.6919293    418.46932  0.036137247  0.036666146            5 
  966000    1.0914266    -6.657551    418.34233  0.036088883  0.036658137            2 
  967000      1.11787   -6.6702936    419.46031  0.036147907  0.036650084            2 
  968000     1.100207   -6.6687903    418.79225  0.036053052  0.036642027            2 
  969000    1.1115866   -6.6771595    419.06409  0.036039224  0.036634299            3 
  970000    1.0937773   -6.7219033    419.46177  0.036036235  0.036626478            2 
  971000     1.087839   -6.6888516     420.6981  0.036105227  0.036618622            2 
  972000    1.1083747   -6.6782981    420.80784  0.036077489  0.036610918            3 
  973000    1.1214827   -6.7045088    421.11956  0.036067109  0.036602858            7 
  974000    1.1073315   -6.6687226    421.41766  0.036055583  0.036594927            1 
  975000    1.0919754   -6.6558744    421.94597  0.036063758  0.036587106            3 
  976000    1.0998348    -6.709303     420.7218  0.035922285  0.036579003            3 
  977000    1.0900123   -6.7012248    422.02549  0.035996715   0.03657075            2 
  978000    1.0971691   -6.6601022    423.72652   0.03610485  0.036562846            2 
  979000    1.1020434   -6.6589522    423.98687  0.036090132  0.036554995            5 
  980000    1.0805316   -6.6606536    424.77624  0.036120428  0.036547195            2 
  981000    1.1163992   -6.6817799     423.5981  0.035983529  0.036539328            3 
  982000    1.0919292   -6.6522171    425.28175  0.036089762  0.036531658            3 
  983000    1.0799876   -6.6469549    423.85163   0.03593181  0.036523881            2 
  984000    1.0862367   -6.6712422    424.34764    0.0359373  0.036515779            2 
  985000    1.0928282   -6.7207205    424.64614   0.03592607  0.036507855            3 
  986000    1.0972934   -6.6574391    425.11892  0.035929591  0.036500024            2 
  987000    1.0752123   -6.6587656     425.7138  0.035943415  0.036492183            3 
  988000    1.1016102   -6.7001803    425.72277  0.035907791  0.036484318            3 
  989000    1.0801063   -6.6561476      427.245  0.035999747  0.036476527            2 
  990000    1.0927728   -6.7152519    425.40389  0.035808408  0.036468312            2 
  991000     1.096156   -6.7117417    426.31755  0.035849104  0.036460205            5 
  992000    1.0562709   -6.7020154    425.52877  0.035746705  0.036452323            2 
  993000    1.0744515   -6.7112164    427.34327   0.03586298  0.036444189            5 
  994000     1.076907    -6.682517    426.86929  0.035787163    0.0364357            2 
  995000    1.0741034   -6.6748635     428.1523  0.035858651  0.036427708            2 
  996000    1.0727883   -6.6796016    429.58558  0.035942569  0.036419738            2 
  997000    1.0807363   -6.6793356    427.98475  0.035772714  0.036411477            3 
  998000    1.0818444   -6.6684239    429.41957  0.035856677  0.036403323            7 
  999000    1.0877158   -6.7006456    428.56841  0.035749784  0.036395467            3 
 1000000    1.0903287   -6.6431954    430.13382  0.035844485  0.036387336            4 
 1001000    1.0908351   -6.6992166    430.41755  0.035832297  0.036379434            1 
 1002000    1.1029914   -6.6966252    431.47689  0.035884639  0.036371235            5 
 1003000    1.0897877   -6.6773715    430.74642   0.03578817  0.036363359            4 
 1004000    1.0860315   -6.7165089    431.28279  0.035797044   0.03635529            4 
 1005000    1.0993372   -6.6742706    432.32115  0.035847525  0.036347367            4 
 1006000    1.0911571   -6.6241717    433.41172   0.03590223  0.036339519            3 
 1007000    1.0736562   -6.6966001    433.08022  0.035839144   0.03633162            4 
 1008000    1.1047041   -6.6790016    432.72151  0.035773934  0.036323919            3 
 1009000    1.0722631   -6.6525512    434.27549  0.035866823  0.036316223            3 
 1010000    1.0843777   -6.6578912    433.76857  0.035789486  0.036308703            2 
 1011000    1.0684353   -6.6838129    433.31384  0.035716604  0.036300795            4 
 1012000    1.0707812   -6.7215761    434.15249   0.03575037  0.036292548            2 
 1013000    1.1070916   -6.6934103    434.63053  0.035754404  0.036284637            3 
 1014000    1.0922449   -6.6896358    433.57318  0.035632247  0.036276701            2 
 1015000    1.0980327   -6.6911995      434.897  0.035705829   0.03626871            7 
 1016000    1.0964003   -6.6685425    437.09461  0.035850936   0.03626101            2 
 1017000    1.0662136   -6.7302238    437.03997  0.035811207  0.036253275            2 
 1018000    1.0936973   -6.7173711    436.45305  0.035727984  0.036245068            4 
 1019000    1.0807412    -6.677208      437.027   0.03573986  0.036237014            1 
 1020000    1.0792375   -6.6831572    436.84581  0.035690017  0.036229039            5 
 1021000    1.1029821   -6.6742191    437.78324  0.035731574  0.036221088            3 
 1022000    1.0978156   -6.7046723    438.06896  0.035719909  0.036213031            3 
 1023000    1.0749213   -6.6796519    439.50563  0.035802023  0.036205271            3 
 1024000     1.086442    -6.676571    440.08399  0.035814127  0.036197764            3 
 1025000    1.0832488   -6.6941199    439.24942  0.035711335  0.036189979            1 
 1026000    1.0975669   -6.6966979    440.54743  0.035781955  0.036182207            1 
 1027000    1.1003532    -6.669345    439.00059  0.035621599  0.036174247            3 
 1028000    1.0867098   -6.7057582    439.72123  0.035645365  0.036166252            5 
 1029000    1.0962119   -6.7226409     438.3875  0.035502713  0.036157865            4 
 1030000    1.0786795   -6.6882189    439.77172  0.035580236  0.036149598            2 
 1031000    1.0789373   -6.7284339    438.41747  0.035436265  0.036141179            3 
 1032000    1.0892769   -6.6873243    440.56375  0.035575238  0.036132765            2 
 1033000    1.1022631   -6.6642839    440.32653  0.035521663  0.036124382            2 
 1034000    1.0811671   -6.7016066    440.46403   0.03549839  0.036115882            2 
 1035000    1.0761375   -6.7441061    440.84999  0.035495168  0.036107309            3 
 1036000    1.0961824   -6.6819868    440.70594  0.035449319  0.036098655            2 
 1037000     1.113164   -6.7194699    441.52763  0.035481166  0.036090206            3 
 1038000    1.0649639   -6.6979645       443.67  0.035618979  0.036081957            1 
 1039000    1.0576613   -6.6594356    442.55617  0.035495362   0.03607335            4 
 1040000    1.0697298   -6.7045017    441.79984  0.035400628   0.03606488            3 
 1041000    1.0904887   -6.7089964    443.32113  0.035488403  0.036056447            3 
 1042000    1.0985094   -6.7022375    442.33703  0.035375642  0.036048069            2 
 1043000    1.1014478   -6.7389047    443.36251  0.035423658  0.036039533            3 
 1044000    1.0994939   -6.6866297    443.93011  0.035435034  0.036030982            4 
 1045000    1.0814235   -6.6935564    443.68908  0.035381904   0.03602261            3 
 1046000    1.1362639    -6.705202     444.1009  0.035380887  0.036014045            3 
 1047000    1.0611932    -6.722492    443.60323  0.035307484  0.036005526            3 
 1048000    1.0999216   -6.6849426    443.84324  0.035292878  0.035996676            3 
 1049000    1.0851068   -6.6936413     444.8931  0.035342636  0.035987695            5 
 1050000    1.0850422   -6.6641966    445.61148   0.03536599  0.035978719            4 
 1051000    1.0723917   -6.7099257     444.5309  0.035246662  0.035969866            3 
 1052000    1.0841871   -6.6847804    444.97481  0.035248321  0.035960889            1 
 1053000    1.0660095   -6.6991442    443.84086  0.035125108  0.035951873            2 
 1054000    1.0877658   -6.7056155    445.82361  0.035248546  0.035942732            5 
 1055000    1.0667877   -6.6781403    446.28432  0.035251526  0.035933509            5 
 1056000    1.0769458   -6.7484188     446.3667  0.035224645  0.035924254            2 
 1057000     1.102985   -6.6919421    446.15449   0.03517459  0.035915169            3 
 1058000    1.0861717   -6.7057799    448.38647  0.035317145   0.03590646            4 
 1059000    1.0784448   -6.7093441    446.52407  0.035137242   0.03589767            3 
 1060000    1.0880185    -6.721826    448.42547  0.035253575  0.035888628            2 
 1061000    1.0814516   -6.6644972    448.32413  0.035212388  0.035879767            2 
 1062000    1.0687661   -6.6765276    449.02527  0.035234249  0.035870891            2 
 1063000    1.0745704   -6.7229368    447.86096  0.035109828  0.035861828            2 
 1064000    1.1016245   -6.7273381    449.96684  0.035241764  0.035852909            1 
 1065000    1.0688002   -6.7026391    448.94304  0.035128563  0.035844113            4 
 1066000     1.082432   -6.6832092    452.25457  0.035354485  0.035835529            1 
 1067000    1.0490494   -6.7744639    450.07951  0.035151477  0.035826879            3 
 1068000    1.0854021    -6.739294    450.32998  0.035138107  0.035818055            3 
 1069000    1.0844694    -6.716215    451.13544  0.035168026  0.035809596            1 
 1070000    1.0855565   -6.7220239    450.67567  0.035099351  0.035800851            3 
 1071000    1.0776228   -6.6931621    452.46801  0.035206039  0.035792018            2 
 1072000    1.0593031   -6.7190948    452.51003  0.035176464  0.035783403            3 
 1073000    1.0751262   -6.6943916      453.134  0.035192141  0.035774873            3 
 1074000     1.071388   -6.7075362    453.94486  0.035222289  0.035766248            3 
 1075000    1.0764472   -6.6795879    454.23742  0.035212203  0.035757824            3 
 1076000    1.1038472   -6.7181618     454.4818  0.035198404  0.035749213            4 
 1077000    1.0850966     -6.69595    456.54241  0.035325163   0.03574086            1 
 1078000    1.0485646   -6.7037512    455.87661  0.035240926   0.03573264            3 
 1079000    1.0670342   -6.6951821     456.1901  0.035232476   0.03572444            1 
 1080000    1.0778899   -6.7199637    455.47914  0.035144995  0.035716281            4 
 1081000    1.0881729   -6.7329079    457.41734  0.035261898  0.035708108            3 
 1082000    1.1142386   -6.7547883    455.15572  0.035055123  0.035699842            3 
 1083000    1.0669376   -6.6963971    457.15981  0.035176963  0.035691441            2 
 1084000    1.0662858   -6.7248881    456.86346   0.03512173  0.035683017            5 
 1085000    1.0596724   -6.7080746     456.4288  0.035055975  0.035674502            5 
 1086000     1.086921   -6.7050349    457.49849  0.035105777  0.035665982            5 
 1087000    1.0657398   -6.6700556    459.61648  0.035235854  0.035657803            3 
 1088000    1.0715905    -6.726019    457.82333  0.035066125  0.035649603            6 
 1089000    1.0762402   -6.7049005    459.23018  0.035141581  0.035641173            1 
 1090000    1.0639336   -6.7191954    460.00477   0.03516856  0.035632675            4 
 1091000    1.1001022   -6.7320083    457.79913  0.034967853  0.035623919            5 
 1092000    1.0756403   -6.7236883    459.06205  0.035032207  0.035615358            4 
 1093000    1.0732933   -6.6957546    459.21073  0.035011492  0.035607056            5 
 1094000    1.0829983   -6.7007257    459.44784   0.03499755  0.035598544            3 
 1095000    1.0549645   -6.7436326    459.89514   0.03499963  0.035590005            2 
 1096000    1.1134123   -6.7186355    461.03507  0.035054369  0.035581414            1 
 1097000    1.0714611    -6.703493    461.95604  0.035092376  0.035572958            3 
 1098000    1.0735184   -6.7644584    460.40555  0.034942741  0.035564477            7 
 1099000    1.0759715   -6.7540022    461.03745  0.034958861  0.035555956            1 
 1100000    1.0733759   -6.7035686    461.28526  0.034945853  0.035547537            2 
 1101000    1.0561316   -6.7167937     462.1515  0.034979678  0.035539128            3 
 1102000    1.0397677   -6.7100214    463.54119  0.035053024  0.035531056            2 
 1103000    1.0739053   -6.6955409    464.01867  0.035057319  0.035522834            1 
 1104000    1.0574689    -6.748026    462.49463  0.034910525  0.035514508            2 
 1105000    1.0571181   -6.7545672    463.43316   0.03494971  0.035506079            4 
 1106000    1.0690135   -6.7237121    464.74343  0.035016835  0.035497894            3 
 1107000     1.097489   -6.7195398    464.73842  0.034984825  0.035489654            3 
 1108000    1.0768747    -6.721168    465.70407  0.035025877   0.03548168            2 
 1109000    1.0563822   -6.7104498    467.65644  0.035141001  0.035473726            3 
 1110000    1.0905207    -6.703542    464.90276   0.03490261  0.035465767            3 
 1111000    1.0729272   -6.7165158    465.26274  0.034898195  0.035457666            3 
 1112000    1.0736899   -6.7447331    467.15264  0.035008441  0.035449832            7 
 1113000    1.0770633   -6.7086413     466.8629  0.034955294  0.035441758            7 
 1114000    1.0801071   -6.7239527    467.92225  0.035003161  0.035433865            2 
 1115000    1.0844247   -6.7227324    467.85997  0.034967113  0.035425797            1 
 1116000    1.0593092   -6.7258781    467.40896  0.034902103  0.035417695            2 
 1117000    1.0545274   -6.6930064    468.67305  0.034965163   0.03540977            6 
 1118000    1.0571056   -6.7572131    466.95745  0.034806011  0.035401657            3 
 1119000     1.057852    -6.713281    468.33518  0.034877508  0.035393412            2 
 1120000     1.078347   -6.6912333    469.30947   0.03491886   0.03538532            3 
 1121000    1.0579824   -6.7245319    469.45731    0.0348987  0.035377248            7 
 1122000    1.0752998    -6.727254     469.2624  0.034853119  0.035369173            3 
 1123000    1.0752329   -6.7362438    469.76114  0.034859093  0.035360763            4 
 1124000     1.082226    -6.704554    468.88995   0.03476349  0.035352081            3 
 1125000    1.0945573   -6.7549517     469.9006  0.034807452  0.035343634            2 
 1126000    1.0642255   -6.7279763    469.99043  0.034783187  0.035335082            2 
 1127000    1.0713771   -6.7155372    470.67509   0.03480295  0.035326437            3 
 1128000    1.0887497   -6.6926599    471.45852  0.034829973   0.03531804            4 
 1129000    1.0641814   -6.7265272    469.76404  0.034674051  0.035309461            3 
 1130000    1.0633269   -6.7051909    472.48403  0.034843955  0.035301043            2 
 1131000    1.0693269   -6.7291493    472.48036  0.034812876  0.035292886            2 
 1132000    1.0575492    -6.722679    473.58138  0.034863176  0.035284906            2 
 1133000    1.0657146    -6.689457    472.74832  0.034771133   0.03527676            5 
 1134000    1.0468485   -6.7333162    473.88373  0.034823907  0.035268281            2 
 1135000    1.0430118   -6.7729755    472.69664  0.034706068  0.035259965            2 
 1136000    1.0580193   -6.7362213    472.50237  0.034661266  0.035251367            6 
 1137000    1.0707822   -6.7327686     473.0975  0.034674399  0.035242793            3 
 1138000    1.0798335   -6.7560583    473.85964  0.034699739  0.035234086            3 
 1139000    1.0940958   -6.7246023    474.92879  0.034747497  0.035225259            2 
 1140000    1.0749128   -6.7272007    473.87243  0.034639797  0.035216401            5 
 1141000    1.0728089   -6.7325619    473.44207  0.034578007  0.035207607            2 
 1142000     1.067944   -6.7477239    475.01387  0.034662425  0.035198769            3 
 1143000    1.0805803   -6.7280634    473.94673  0.034554297  0.035190117            5 
 1144000    1.0695811    -6.703316    475.23316    0.0346178  0.035181413            5 
 1145000    1.0605588   -6.7577733    474.34232  0.034522731  0.035172807            8 
 1146000    1.0611889   -6.7243491    474.01866  0.034469071  0.035164097            8 
 1147000    1.0634119   -6.6814928    477.07171  0.034660833  0.035155279            2 
 1148000    1.0800195   -6.7549358    475.36124  0.034506478  0.035146458            5 
 1149000    1.0668062   -6.7634109    475.77324  0.034506327  0.035137386            2 
 1150000    1.0666839   -6.6986557    476.84542  0.034554016  0.035128511            5 
 1151000    1.0390685   -6.7676587     476.6742  0.034511599  0.035119642            4 
 1152000    1.0653542   -6.7530882    475.97221   0.03443086  0.035110563            2 
 1153000    1.0732816   -6.7257458    476.09803  0.034410092  0.035101286            5 
 1154000     1.062084   -6.7303171    477.58603  0.034487726  0.035092091            2 
 1155000    1.0676238   -6.7443844     476.6253   0.03438855  0.035082935            2 
 1156000    1.0832886   -6.7268404    477.66869  0.034434017  0.035073882            2 
 1157000    1.0831535    -6.742493    478.37194  0.034454908  0.035064598            3 
 1158000    1.0334997   -6.6993883     478.2401  0.034415667  0.035055454            4 
 1159000    1.0660304   -6.6870106    478.57896  0.034410337  0.035046418            4 
 1160000     1.040985   -6.7092401    478.52752  0.034376977  0.035037372            7 
 1161000    1.0585208   -6.7469831    478.89562  0.034373789  0.035028421            3 
 1162000    1.0846866    -6.722752     478.8292  0.034339443  0.035019433            2 
 1163000    1.0802073   -6.7078619    481.92608   0.03453182   0.03501058            4 
 1164000    1.0680846   -6.7664849    480.21819  0.034379882  0.035001843            3 
 1165000    1.0807533   -6.7521824    479.54602   0.03430229  0.034993242            4 
 1166000    1.0733052   -6.7259732    481.26641  0.034395827  0.034984687            5 
 1167000     1.074224   -6.7385154    482.47686  0.034452789  0.034976214            2 
 1168000     1.055135   -6.7574212    482.38553  0.034416776  0.034967589            2 
 1169000    1.0538811   -6.7295074    481.74028  0.034341337  0.034958921            4 
 1170000    1.0613982   -6.7530909     483.6423  0.034447457  0.034950196            2 
 1171000    1.0665287   -6.7267134    481.79668  0.034286698  0.034941492            3 
 1172000    1.0822042   -6.7475031    483.74094  0.034395687  0.034932802            3 
 1173000    1.0599817    -6.753602    481.62905  0.034216329  0.034924175            2 
 1174000     1.069478   -6.7563631    485.23921  0.034443442  0.034915405            4 
 1175000    1.0738117   -6.7739362    484.19439  0.034340028  0.034906752            4 
 1176000    1.0584365   -6.7613505    485.11296  0.034375919  0.034898048            4 
 1177000    1.0662533   -6.7037551    485.81839  0.034396657   0.03488924            2 
 1178000    1.0554903   -6.7413789    485.32254  0.034332381  0.034880369            2 
 1179000    1.0611957   -6.7326451    485.09657  0.034287289  0.034871612            2 
 1180000    1.0845769   -6.7338202    486.60341  0.034364648  0.034863034            4 
 1181000    1.0544416   -6.7424853    485.43973  0.034253438  0.034854445            1 
 1182000    1.0723633   -6.7253973     487.8738  0.034396066  0.034845994            4 
 1183000    1.0419257   -6.7727351    487.17791  0.034317971  0.034837614            2 
 1184000    1.0569984   -6.7416901    487.00222  0.034276621  0.034829254            2 
 1185000    1.0636935    -6.733695    488.83423  0.034376528   0.03482109            4 
 1186000    1.0496251   -6.7283985     489.3966  0.034387057  0.034813012            6 
 1187000    1.0728644   -6.7524672     488.8063  0.034316645  0.034804997            3 
 1188000     1.056621   -6.7319096    489.28524  0.034321355  0.034796846            1 
 1189000    1.0396488   -6.7471536    489.81815   0.03432984  0.034788667            5 
 1190000    1.0535711   -6.7704877    489.62608   0.03428754  0.034780455            3 
 1191000    1.0627515    -6.772513    490.22032   0.03430033  0.034771997            2 
 1192000    1.0708444   -6.7863541    488.49886  0.034151206  0.034763582            3 
 1193000    1.0768256   -6.7108634    491.91967   0.03436153  0.034755075            3 
 1194000     1.078299    -6.737402    490.38375  0.034225555  0.034746726            3 
 1195000     1.050884   -6.7224473     490.8002  0.034225955  0.034738272            2 
 1196000     1.065561   -6.7199501    491.51054  0.034246833   0.03472994            3 
 1197000    1.0324118   -6.7356317    490.84128  0.034171629    0.0347211            4 
 1198000    1.0529972   -6.7641137    490.41456  0.034113422  0.034712352            3 
 1199000    1.0709196    -6.766076    491.97273  0.034193267  0.034703297            5 
 1200000    1.0492936   -6.7463202    491.68552  0.034144828  0.034694426            2 
 1201000    1.0468317   -6.7571666    490.84622  0.034058161  0.034685522            3 
 1202000    1.0693265   -6.7972993     491.7754  0.034094246  0.034676462            3 
 1203000    1.0685676   -6.7458247    492.07592  0.034086722  0.034667572            4 
 1204000    1.0755289   -6.7675252    492.20089   0.03406706  0.034658672            2 
 1205000    1.0325051    -6.774958    493.05392  0.034097781  0.034649998            3 
 1206000    1.0634918    -6.716613    495.36318  0.034229075  0.034641304            2 
 1207000    1.0793125   -6.7674035    493.93289  0.034101967  0.034632711            2 
 1208000    1.0339897   -6.7860916    493.52868  0.034045853  0.034624013            7 
 1209000    1.0823137   -6.7600215    495.59083  0.034159831  0.034615422            3 
 1210000    1.0411635   -6.7444159     493.5165   0.03398874  0.034606734            4 
 1211000    1.0442416   -6.7287015    494.92889  0.034057865  0.034598029            2 
 1212000    1.0887199   -6.7645518    495.11026  0.034042234  0.034589416            2 
 1213000    1.0502515   -6.7521123     497.1319  0.034153057  0.034580724            2 
 1214000    1.0518036   -6.7486412    496.17327   0.03405912  0.034572152            2 
 1215000     1.051999   -6.7496814    496.41827  0.034047892  0.034563492            2 
 1216000    1.0613102   -6.7568745    496.55803   0.03402947  0.034554843            4 
 1217000    1.0464617    -6.787239    495.80215   0.03394975  0.034546025            2 
 1218000    1.0441731    -6.722407    496.56501   0.03397407  0.034537179            2 
 1219000    1.0447051   -6.7462263    497.28465  0.033995396  0.034528303            3 
 1220000    1.0278102   -6.7638443    497.27964  0.033967188  0.034519694            2 
 1221000    1.0639608   -6.7298885    497.59948  0.033961199  0.034511195            3 
 1222000     1.059907   -6.7935362    497.78905  0.033946334  0.034502459            8 
 1223000     1.053267   -6.7813885     498.1559  0.033943574  0.034493607            2 
 1224000    1.0515188   -6.7172611    499.52088  0.034008774   0.03448469            2 
 1225000    1.0591748   -6.7642307    498.54265  0.033914466  0.034475867            2 
 1226000    1.0683319   -6.7678972    497.80024   0.03383634  0.034467339            2 
 1227000    1.0470434   -6.7512124    499.85762  0.033948493  0.034458716            2 
 1228000    1.0384128    -6.785089    499.42674  0.033891608  0.034450089            3 
 1229000    1.0467852   -6.7660644     499.7402  0.033885286  0.034441349            2 
 1230000    1.0628707   -6.7504343     501.2784  0.033961951  0.034432597            3 
 1231000    1.0555003   -6.7632214    500.33481  0.033870485  0.034423957            6 
 1232000     1.060818   -6.7713002    500.88276  0.033880056  0.034415085            3 
 1233000    1.0696522   -6.7773135    499.42636  0.033754147  0.034406227            4 
 1234000    1.0464125   -6.7457911    502.35539  0.033924594  0.034397455            1 
 1235000    1.0517789   -6.7479802    501.61513  0.033847175    0.0343887            4 
 1236000    1.0772168   -6.7606941    501.93173  0.033841136  0.034379832            3 
 1237000    1.0473934   -6.7343139    501.09801  0.033757613  0.034370921            3 
 1238000    1.0504709   -6.7711268    502.93276  0.033853848  0.034361979            2 
 1239000    1.0518125   -6.7303595    503.29444   0.03385085  0.034352963            3 
 1240000    1.0440002   -6.7782429    502.32445  0.033758364  0.034343913            5 
 1241000    1.0487153   -6.7279462    501.98599  0.033708433  0.034334951            2 
 1242000    1.0665381   -6.7681182    502.79025  0.033735256  0.034325963            2 
 1243000    1.0678966   -6.7505337    502.05609  0.033658896   0.03431703            3 
 1244000    1.0456413   -6.7776102    502.87583  0.033686751  0.034308227            4 
 1245000    1.0465205   -6.7439358     503.5256  0.033703186  0.034299207            2 
 1246000     1.029166    -6.713146    503.79841  0.033694383  0.034290076            2 
 1247000    1.0433451   -6.7289192    505.59142  0.033787184  0.034281068            1 
 1248000    1.0543922   -6.7608384    504.10535  0.033660881  0.034271774            1 
 1249000    1.0616556   -6.7282452    505.61136  0.033734411  0.034262823            3 
 1250000      1.03858   -6.7782868    505.10983  0.033673989  0.034253724            5 
 1251000    1.0650368    -6.797787     505.0657  0.033644132  0.034244636            2 
 1252000    1.0473334   -6.7556511     505.5666  0.033650599  0.034235584            4 
 1253000    1.0631647   -6.7917452    505.35874  0.033609919   0.03422656            3 
 1254000    1.0605646   -6.7476889    506.91138  0.033686296  0.034217412            3 
 1255000    1.0683729   -6.7534921    506.73889  0.033648001  0.034208469            5 
 1256000    1.0594172   -6.7321415    507.40762   0.03366558  0.034199562            3 
 1257000    1.0699345   -6.7540869    506.28642  0.033564467  0.034190596            4 
 1258000    1.0425363   -6.7632136    508.67339  0.033695906  0.034181899            3 
 1259000    1.0495998   -6.8025503    508.42309  0.033652574  0.034173111            2 
 1260000    1.0509558   -6.7616767    508.87089  0.033655482  0.034164348            6 
 1261000    1.0416967   -6.7522748    509.37246  0.033661939  0.034155745            4 
 1262000    1.0284307   -6.7641845    509.27315  0.033628708  0.034147149            2 
 1263000    1.0338106   -6.7409195    509.57939  0.033622287  0.034138596            2 
 1264000    1.0677433   -6.7660904    512.07181  0.033760009   0.03412994            2 
 1265000    1.0434542   -6.7935539    508.91004  0.033525036  0.034121218            4 
 1266000    1.0439713   -6.7752938    510.45142  0.033600015  0.034112519            2 
 1267000    1.0512298   -6.7426231    510.45771  0.033573909  0.034103844            2 
 1268000    1.0511679   -6.7866829    510.57656  0.033555242  0.034094867            1 
 1269000    1.0423721   -6.7647522    510.88769  0.033549231  0.034086206            3 
 1270000    1.0349594   -6.7624033    512.02126  0.033597196  0.034077522            2 
 1271000    1.0447007   -6.7855452    511.56873  0.033541092  0.034069052            2 
 1272000    1.0482756    -6.763355    513.48863  0.033640503  0.034060443            6 
 1273000     1.046997    -6.775383    511.55049  0.033487202  0.034051825            3 
 1274000    1.0634032   -6.8051729    512.81283  0.033543487  0.034043129            3 
 1275000    1.0580632   -6.7810053    512.76498  0.033514051  0.034034479            3 
 1276000    1.0412344   -6.7948281    514.13643  0.033577353    0.0340257            3 
 1277000    1.0420478   -6.7512972    514.85742  0.033598109   0.03401708            3 
 1278000    1.0608592   -6.7512903    516.72495  0.033693593  0.034008749            3 
 1279000    1.0573491    -6.775709    514.44737  0.033518854  0.034000424            3 
 1280000    1.0674443    -6.772265    514.39357  0.033489165   0.03399195            4 
 1281000    1.0187637   -6.7972851    514.92124  0.033497349    0.0339834            3 
 1282000     1.036463   -6.7840067    515.93134  0.033536879   0.03397512            7 
 1283000    1.0272223   -6.7642485    516.84091  0.033569817  0.033966888            4 
 1284000    1.0397562   -6.8032703    517.27124  0.033571602  0.033958608            2 
 1285000    1.0628564   -6.7911472    517.19046  0.033540237  0.033950256            2 
 1286000    1.0444977   -6.7845031    517.35964  0.033525119  0.033941791            2 
 1287000    1.0570334   -6.7821111     518.0862  0.033546115  0.033933373            3 
 1288000    1.0536757   -6.7620086     517.9693  0.033512507  0.033924912            3 
 1289000    1.0132324   -6.7594968    518.66617   0.03353156  0.033916663            8 
 1290000    1.0563282   -6.7824796    519.05652  0.033530783   0.03390827            3 
 1291000    1.0450983   -6.7868706    518.86823  0.033492656  0.033899749            3 
 1292000    1.0514798   -6.7506275    519.63389  0.033516118  0.033891258            1 
 1293000    1.0417774   -6.7761616    518.13997  0.033393914  0.033882783            4 
 1294000    1.0555656   -6.7901872    517.55247  0.033330272  0.033874317            3 
 1295000    1.0347571   -6.7882762    519.54589  0.033432812  0.033865658            3 
 1296000     1.038715   -6.7462339    518.28786  0.033326123  0.033857011            4 
 1297000    1.0415425   -6.7624143    519.86068  0.033401483  0.033848393            2 
 1298000    1.0428187   -6.8258502    518.06584  0.033260519  0.033839807            3 
 1299000    1.0361681   -6.7869761    519.04193  0.033297532   0.03383113            2 
 1300000    1.0340991   -6.7800956    519.83622  0.033322834  0.033822524            3 
 1301000    1.0486473    -6.762351    520.77248  0.033357192  0.033814079            3 
 1302000    1.0241072   -6.7609225    521.39766  0.033371586   0.03380562            3 
 1303000    1.0351754   -6.7709146    521.58816  0.033358158  0.033797196            4 
 1304000    1.0370812   -6.7694294    521.32537  0.033315783  0.033788859            4 
 1305000    1.0218604   -6.7739994     521.7636  0.033318238  0.033780376            6 
 1306000    1.0365556   -6.7674592    522.87261   0.03336349  0.033772037            4 
 1307000    1.0752913   -6.7957305    523.01719  0.033347181  0.033763576            1 
 1308000    1.0450167   -6.7550294    522.26994  0.033274079  0.033755167            3 
 1309000     1.060138   -6.7624742    522.25149  0.033247485  0.033746863            5 
 1310000    1.0382535   -6.7891658    524.35941  0.033356197  0.033738495            5 
 1311000    1.0265916    -6.778483    523.00759  0.033244825  0.033730166            4 
 1312000    1.0426079   -6.7945129    525.08933   0.03335171  0.033721922            2 
 1313000    1.0399722    -6.769002      525.911  0.033378459  0.033713646            3 
 1314000    1.0202332   -6.7859978    525.13929  0.033304115  0.033705431            2 
 1315000    1.0467616   -6.7600611    526.60284  0.033371536  0.033697282            3 
 1316000    1.0305107   -6.8361669     526.3081  0.033327514   0.03368929            3 
 1317000    1.0319787   -6.7841669    527.63786  0.033386349  0.033681339            3 
 1318000    1.0139878   -6.7521677    528.93978  0.033443335   0.03367352            3 
 1319000    1.0276374   -6.7790022    526.94278  0.033291811  0.033665838            3 
 1320000    1.0526529    -6.824316    529.18003   0.03340783  0.033658153            2 
 1321000    1.0544542   -6.7503852    528.25778  0.033324362  0.033650605            4 
 1322000    1.0518689   -6.8004616    530.25149  0.033424829  0.033643055            4 
 1323000    1.0540939   -6.8031151     530.4607  0.033412743  0.033635601            2 
 1324000    1.0398487   -6.7899596    530.81988  0.033410113  0.033628196            4 
 1325000    1.0300605   -6.8112852    530.89712  0.033389756  0.033620727            2 
 1326000    1.0413552   -6.7630344    534.11224  0.033566631  0.033613447            3 
 1327000    1.0575565   -6.8243163    531.58853  0.033382852  0.033606227            2 
 1328000    1.0409111   -6.8136301    531.95379  0.033380634  0.033599053            4 
 1329000    1.0619479   -6.8069092    532.72095  0.033403621  0.033591842            3 
 1330000    1.0483641   -6.7769331    532.78607  0.033382586  0.033584679            2 
 1331000    1.0399677   -6.7898837    533.94042  0.033429778  0.033577513            2 
 1332000    1.0312416   -6.7799842     534.3846   0.03343247  0.033570514            2 
 1333000    1.0483235   -6.7663786    535.29125  0.033464069  0.033563344            4 
 1334000    1.0475295   -6.7909565     536.2497  0.033498857  0.033556522            3 
 1335000    1.0187948   -6.8157839    535.45519  0.033424169  0.033549624            3 
 1336000    1.0467502   -6.8175564    536.01588  0.033434124  0.033542611            2 
 1337000    1.0120653   -6.7785635    537.22694  0.033484601  0.033535591            2 
 1338000    1.0114383   -6.8060469    534.83067   0.03331033  0.033528449            3 
 1339000    1.0337155   -6.7717202    538.53809  0.033516187  0.033521396            3 
 1340000    1.0351447   -6.7945539    537.69282  0.033438608  0.033514546            5 
 1341000    1.0235739   -6.7780584    537.26567  0.033387128  0.033507585            2 
 1342000    1.0343579   -6.7746257     539.6236  0.033508669   0.03350085            1 
 1343000     1.027745   -6.7747475    538.97535  0.033443494  0.033494018            2 
 1344000    1.0460532   -6.8004641    537.64433  0.033336082  0.033487142            2 
 1345000    1.0517344   -6.7635775    539.17859  0.033406356  0.033480256            3 
 1346000    1.0454208   -6.8136844    538.19188  0.033320448  0.033473205            3 
 1347000    1.0194978   -6.8044189    537.93498  0.033279818  0.033466123            3 
 1348000     1.037796   -6.7877981    539.02491  0.033322509  0.033459112            2 
 1349000    1.0347634   -6.7869087    540.60254  0.033395265  0.033452151            3 
 1350000    1.0302071   -6.8037731    539.45048  0.033299412  0.033445165            2 
 1351000    1.0324514   -6.7791209    540.73193  0.033353807  0.033438218            2 
 1352000    1.0420065    -6.772352    540.64545  0.033323807  0.033431107            3 
 1353000    1.0385582   -6.8162402    538.33114  0.033156636  0.033423902            3 
 1354000    1.0535012   -6.8234683    540.30474  0.033253615  0.033416656            3 
 1355000    1.0076168   -6.8011244     542.0553  0.033336734  0.033409641            4 
 1356000    1.0472688   -6.8168177    541.26918  0.033263838  0.033402668            4 
 1357000    1.0362783    -6.778972    542.05883  0.033287818   0.03339571            2 
 1358000    1.0207433   -6.8058934    542.57746  0.033295131  0.033388728            3 
 1359000    1.0409086   -6.7933625    541.75741  0.033220347  0.033381873            3 
 1360000    1.0411232   -6.8286683    544.12769  0.033341157  0.033375087            4 
 1361000    1.0479235   -6.8042422    543.04233  0.033250204  0.033368494            5 
 1362000    1.0161293   -6.7946113    544.94747  0.033342356  0.033362016            4 
 1363000     1.018674    -6.803477     543.9153  0.033254787  0.033355378            6 
 1364000    1.0248223   -6.8360393    544.64161  0.033274781  0.033348649            3 
 1365000    1.0404941   -6.7922519    546.02869  0.033335085  0.033341854            3 
 1366000    1.0554423   -6.8154713    545.43886  0.033274699  0.033335003            3 
 1367000    1.0473837   -6.8219861    544.70881  0.033205853   0.03332795            4 
 1368000    1.0224546    -6.768219    544.90317  0.033193419  0.033321008            3 
 1369000    1.0530464   -6.8020838    546.66856  0.033276635   0.03331424            3 
 1370000    1.0208792   -6.8405279    546.16052  0.033221443  0.033307449            3 
 1371000    1.0440738   -6.7683498    547.48312  0.033277603  0.033300702            3 
 1372000    1.0267236   -6.7784556    547.68295  0.033265485  0.033293937            5 
 1373000    1.0243955   -6.8092547    546.77714  0.033186279  0.033287135            2 
 1374000    1.0344966   -6.8023727    548.01233  0.033237041  0.033280369            4 
 1375000    1.0265386   -6.8128331    547.00808  0.033152005  0.033273479            2 
 1376000    1.0336198    -6.811308    547.47358  0.033156104  0.033266481            2 
 1377000    1.0602472   -6.8303536    547.27759  0.033120164   0.03325961            4 
 1378000    1.0171005   -6.7916548    549.40991  0.033225079   0.03325276            4 
 1379000    1.0246902   -6.7925296    548.91875  0.033171305  0.033245874            2 
 1380000    1.0281938   -6.8068337     548.4155  0.033116878  0.033238983            1 
 1381000    1.0264366   -6.8221846    550.45679  0.033216075  0.033232155            2 
 1382000    1.0368208   -6.7832048    552.07601  0.033289677  0.033225454            2 
 1383000    1.0479454   -6.8197648    549.57389   0.03311484  0.033218735            3 
 1384000    1.0034864   -6.8283839     551.2543  0.033192094  0.033212006            3 
 1385000    1.0455102   -6.7842641    552.27969  0.033229825  0.033205228            2 
 1386000    1.0379667   -6.7947739    553.38276  0.033272172  0.033198488            2 
 1387000     1.021757   -6.7633369    552.32189  0.033184444  0.033191913            3 
 1388000    1.0403814   -6.8100658     551.0671  0.033085201  0.033185272            2 
 1389000    1.0320844    -6.800257    554.09412  0.033242988  0.033178469            2 
 1390000    1.0340977   -6.8355665    551.97564  0.033092065  0.033171716            2 
 1391000     1.034298   -6.8669895    551.84871   0.03306067  0.033164778            3 
 1392000    1.0101364   -6.8091636     552.3501  0.033066936  0.033157868            5 
 1393000    1.0062613   -6.8158053    552.99529  0.033081795  0.033151046            3 
 1394000    1.0182954   -6.8258844    555.05891  0.033181427  0.033144248            3 
 1395000    1.0465867     -6.82403    554.18996  0.033105733  0.033137584            1 
 1396000     1.021497   -6.8146778    555.12502  0.033137836  0.033130863            5 
 1397000    1.0434288   -6.8174725    554.63272  0.033084748   0.03312417            3 
 1398000    1.0391796   -6.7644444     555.8103  0.033131277  0.033117539            6 
 1399000    1.0294387   -6.8774725    552.79764  0.032928142  0.033110924            7 
 1400000    1.0287347     -6.79751    555.51341  0.033066274  0.033104136            2 
 1401000    1.0306798    -6.824185    556.89794  0.033125026  0.033097414            4 
 1402000    1.0227339    -6.789706    556.71301  0.033090407  0.033090725            2 
 1403000    1.0518401    -6.775161    558.04051  0.033145671  0.033084149            4 
 1404000    1.0131069   -6.8034393    555.65236  0.032980315   0.03307761            3 
 1405000    1.0197581   -6.8410068    556.44647  0.033003943  0.033070887            7 
 1406000      1.04946   -6.7937389    558.97487  0.033130327  0.033064275            2 
 1407000    1.0228009   -6.8443215    556.93764   0.03298612  0.033057494            3 
 1408000    1.0285139    -6.764756    558.33931  0.033045651  0.033050927            7 
 1409000    1.0276696   -6.8200137    556.64073  0.032921737  0.033044208            7 
 1410000    1.0369704    -6.808371    557.87662  0.032971432  0.033037614            3 
 1411000    1.0104046   -6.8087403    560.14611    0.0330821   0.03303098            7 
 1412000     1.038467   -6.8275969     560.0203  0.033051245  0.033024341            2 
 1413000    1.0163171   -6.8562855     559.4227   0.03299261   0.03301775            3 
 1414000    1.0168438   -6.8041391    560.06444  0.033007098  0.033011379            2 
 1415000    1.0200251   -6.8021634    562.65105  0.033136104  0.033005102            2 
 1416000    1.0170089   -6.8523449    559.52005   0.03292844  0.032998616            2 
 1417000    1.0163836   -6.8095413    561.52467  0.033023093  0.032992166            5 
 1418000    1.0192901    -6.812337    562.41907  0.033052367  0.032985838            3 
 1419000    1.0005683   -6.8184581    561.71379  0.032987655  0.032979455            1 
 1420000    1.0060163   -6.7842071    561.98612  0.032980406  0.032973029            4 
 1421000    1.0339272   -6.8440296    562.86984  0.033009022  0.032966464            4 
 1422000    1.0229659   -6.8385468    562.69928  0.032975813  0.032959913            1 
 1423000    1.0340543   -6.8298973     561.8734  0.032904275  0.032953438            3 
 1424000      1.01693   -6.8229043    561.43291   0.03285539  0.032947042            3 
 1425000    1.0259271   -6.8415784    562.02378  0.032866888  0.032940453            4 
 1426000     1.001706    -6.853664    561.81964   0.03283191    0.0329338            4 
 1427000    1.0305023   -6.8155651    564.67687  0.032975758    0.0329271            4 
 1428000    1.0235279   -6.7993385    563.92798  0.032908963  0.032920541            2 
 1429000    1.0173128   -6.8067486    563.68029  0.032871489  0.032913972            2 
 1430000     1.019597   -6.8034488    563.35425  0.032829502  0.032907177            3 
 1431000    1.0340722   -6.8253567    563.32795  0.032805028  0.032900369            3 
 1432000    1.0305015    -6.797339    565.78853   0.03292531  0.032893671            1 
 1433000    1.0117335   -6.8223531    563.99163  0.032797839  0.032887064            4 
 1434000    1.0327075   -6.8174911    565.47798  0.032861343  0.032880242            2 
 1435000    1.0454152   -6.8073084    566.14516  0.032877187  0.032873577            4 
 1436000   0.99977871   -6.8073103    564.65694  0.032767928  0.032866777            7 
 1437000    1.0207821   -6.8141936    563.92807  0.032702857  0.032859866            3 
 1438000    1.0330933   -6.8426134    565.43306  0.032767331  0.032852904            2 
 1439000    1.0166466   -6.8533671    564.66976  0.032700357  0.032845998            4 
 1440000    1.0134884   -6.8366898    564.52007  0.032668985  0.032838967            3 
 1441000    1.0207379   -6.8595988    565.71388  0.032715353   0.03283204            7 
 1442000   0.99893694   -6.8196711    565.17867  0.032661736  0.032825044            2 
 1443000    1.0255963   -6.8229441     567.0164   0.03274523  0.032817889            2 
 1444000    1.0233298   -6.8239217    567.48032  0.032749326  0.032811044            2 
 1445000   0.99390589   -6.8524932    566.03944  0.032643566  0.032803965            3 
 1446000     1.014733   -6.8280468    567.27914  0.032692435  0.032797133            5 
 1447000    1.0318879   -6.8411396     568.5175   0.03274116  0.032790226            4 
 1448000    1.0028219   -6.7928906    568.08393  0.032693596   0.03278345            2 
 1449000    1.0171729   -6.8294813    567.72858  0.032650597  0.032776718            1 
 1450000    1.0315028   -6.8467543    567.85648   0.03263543    0.0327698            2 
 1451000    1.0334026   -6.8561592    567.55669  0.032595721   0.03276296            4 
 1452000    1.0364241   -6.8314964    569.66954  0.032694533  0.032756089            5 
 1453000    1.0127162   -6.8400462    568.36255  0.032597072  0.032749147            3 
 1454000    1.0323635    -6.837267    569.19971  0.032622634  0.032742129            2 
 1455000    1.0099079   -6.8283531    570.93375  0.032699527  0.032735127            3 
 1456000    1.0346816   -6.8065365    571.32618  0.032699529  0.032728217            3 
 1457000    1.0317785   -6.8129961    571.19256  0.032669444   0.03272132            2 
 1458000    1.0215408   -6.8889844    568.82743  0.032511856  0.032714341            5 
 1459000    1.0332388   -6.8837385    570.42753  0.032580965   0.03270738            5 
 1460000    1.0195745   -6.8418118    570.96815  0.032589506  0.032700362            3 
 1461000    1.0255324   -6.8498115    572.01271   0.03262678  0.032693287            2 
 1462000    1.0287002    -6.842389    569.05648   0.03243596   0.03268605            2 
 1463000   0.99849686   -6.8387308    570.77573  0.032511719  0.032678861            3 
 1464000    1.0134906   -6.8363085    571.63755  0.032538567  0.032671805            2 
 1465000     1.023038   -6.8597913     569.8757  0.032416138  0.032664482            4 
 1466000    1.0028132   -6.8627665    569.79673  0.032389537  0.032657062            2 
 1467000    1.0137935   -6.8585084    572.16498  0.032501987  0.032649792            2 
 1468000    1.0158163   -6.8384807    570.60377  0.032391222  0.032642491            4 
 1469000    1.0119169   -6.8159846    573.95344  0.032559192  0.032635206            4 
 1470000   0.99487238   -6.8119582     572.5622  0.032458175  0.032627989            2 
 1471000    1.0097552   -6.8471862    571.27681  0.032363291  0.032620732            4 
 1472000    1.0222739   -6.8630688    572.85987  0.032430926  0.032613475            1 
 1473000    1.0117955   -6.8081931     573.1199   0.03242362  0.032606236            2 
 1474000     1.015759   -6.7868663    574.42808  0.032475581   0.03259904            2 
 1475000   0.99763188   -6.8179687    573.59348  0.032406411   0.03259187            3 
 1476000    1.0049547   -6.8284342    574.24794  0.032421406  0.032584599            2 
 1477000    1.0249182    -6.842444    574.45083  0.032410902  0.032577308            5 
 1478000    1.0101118   -6.8464688    573.89777  0.032357791  0.032570095            3 
 1479000    1.0059916    -6.847692    575.11395  0.032404437  0.032562947            5 
 1480000   0.99711538   -6.8451654    575.61344  0.032410666   0.03255582            2 
 1481000    1.0084751     -6.82736    576.60916   0.03244481  0.032548849            3 
 1482000     1.019331   -6.8309277    575.94915  0.032385805  0.032541745            4 
 1483000    1.0028431    -6.817113    577.51912  0.032452187  0.032534598            4 
 1484000    1.0130414   -6.8331985    577.16616  0.032410499  0.032527615            4 
 1485000    1.0156198   -6.8288945    579.24974  0.032505597  0.032520701            3 
 1486000    1.0156205   -6.8546637    576.92008  0.032353078  0.032513787            4 
 1487000    1.0181107    -6.871297    578.61574  0.032426347  0.032506886            4 
 1488000    1.0501939   -6.8351943    578.12577  0.032377115  0.032499993            2 
 1489000     1.028031    -6.838777    579.55937  0.032435604  0.032493053            2 
 1490000    1.0136965   -6.8503528     578.4969  0.032354413  0.032486005            2 
 1491000    1.0331712   -6.8348672    580.66588  0.032453939  0.032478918            2 
 1492000    1.0323229   -6.8212056    580.82217  0.032440916  0.032471973            4 
 1493000   0.99357829   -6.8691968     579.9209  0.032368883  0.032465121            2 
 1494000    1.0015115   -6.8400861    582.59395  0.032496316  0.032458264            8 
 1495000    1.0208057   -6.8657745     580.5131   0.03235859  0.032451283            2 
 1496000    1.0194411   -6.8490558    579.95633  0.032305945  0.032444381            6 
 1497000      1.00894   -6.8821534    577.88854  0.032169258  0.032437264            3 
 1498000    1.0067214   -6.8142849    579.72784  0.032250102  0.032430153            3 
 1499000     1.005463   -6.8336476    580.70442  0.032282878  0.032423151            3 
 1500000    1.0170918   -6.8320907    580.90973  0.032272763  0.032416051            3 
 1501000     1.036604   -6.8425205    581.11282  0.032262537  0.032408933            3 
 1502000    1.0149867   -6.8743359    582.07408   0.03229439  0.032401845            2 
 1503000    1.0005372   -6.8370458    582.32294  0.032286701  0.032394774            5 
 1504000      1.00919   -6.8478871    581.00869  0.032192414  0.032387719            3 
 1505000      1.00395   -6.8286372    582.40488  0.032248332   0.03238065            6 
 1506000    1.0025806   -6.8390715    582.40225  0.032226774  0.032373712            1 
 1507000     1.011715   -6.8390763    583.18223  0.032248519  0.032366667            3 
 1508000    1.0054845   -6.8607481    583.70688  0.032256127  0.032359752            3 
 1509000     1.012902   -6.8855044    584.29881   0.03226744  0.032352835            4 
 1510000    1.0131806   -6.8173043    585.87615  0.032333121  0.032346061            5 
 1511000    1.0266286   -6.8224177    586.17186  0.032328031  0.032339336            5 
 1512000    0.9989624   -6.8818776    583.91792  0.032182425  0.032332419            6 
 1513000     1.017663   -6.8976585    584.51937  0.032194281  0.032325345            2 
 1514000     1.020867   -6.8695391    584.21474   0.03215625  0.032318444            3 
 1515000    1.0228342   -6.8589432    586.60959  0.032266754  0.032311645            2 
 1516000     1.017146   -6.8256211    587.64915  0.032302614  0.032304825            4 
 1517000    1.0104097   -6.8254699    586.95555  0.032243219  0.032298086            4 
 1518000    1.0080938   -6.8255916    587.97364  0.032277868  0.032291247            5 
 1519000    1.0004991   -6.8712804    587.07263  0.032207188  0.032284479            3 
 1520000    1.0120642   -6.8493833    587.26041  0.032196295  0.032277566            2 
 1521000    1.0091887   -6.8291231    587.66114  0.032197082  0.032270751            2 
 1522000    1.0085401   -6.8505581     587.8762  0.032187703  0.032263829            2 
 1523000    1.0148918   -6.8854427    586.49319  0.032090895  0.032256841            2 
 1524000    1.0011312   -6.8713903    587.36702  0.032117619   0.03224977            3 
 1525000    1.0018074   -6.8522038    589.00628  0.032186135   0.03224278            1 
 1526000   0.99778504   -6.8271336    589.02636   0.03216614  0.032235777            2 
 1527000    1.0288401   -6.8271803    589.42556  0.032166861  0.032228892            2 
 1528000    1.0325249    -6.863023    588.77795   0.03211049  0.032221914            3 
 1529000    1.0059315   -6.8615749    589.01352  0.032102328  0.032215001            5 
 1530000    1.0114054   -6.8453852    591.23371  0.032202272  0.032208074            2 
 1531000    1.0098611   -6.8791752     589.2429  0.032072877   0.03220103            1 
 1532000    1.0128977   -6.8254123    589.47647  0.032064647  0.032193911            2 
 1533000    1.0130415   -6.8235092    592.40482  0.032202915  0.032186855            3 
 1534000    1.0183857    -6.838899     590.1488  0.032059366   0.03217984            4 
 1535000    1.0054158   -6.8354623    590.39593  0.032051896  0.032172792            1 
 1536000    1.0116588   -6.8711955    590.28242  0.032024871  0.032165706            2 
 1537000   0.99934636   -6.8727106    588.82716  0.031925133  0.032158541            2 
 1538000     1.008917   -6.8586376    589.51455  0.031941621  0.032151332            5 
 1539000   0.98690526    -6.892302    590.84385  0.031992844  0.032144198            2 
 1540000     1.018165   -6.8327442    592.57973  0.032066003  0.032137174            4 
 1541000    1.0132767   -6.8540186    591.57736  0.031990989  0.032130054            7 
 1542000    1.0003929   -6.8632887    591.66148  0.031974788  0.032122869            2 
 1543000   0.98889387    -6.851274    592.04141  0.031974585  0.032115781            4 
 1544000   0.99654019   -6.8394207    593.74416  0.032045777   0.03210872            4 
 1545000    1.0051275   -6.8979517    591.38109  0.031897578  0.032101483            4 
 1546000    1.0031384   -6.8623802    592.24616  0.031923575  0.032094178            2 
 1547000    1.0043275   -6.8713532    591.65095  0.031870876  0.032086795            2 
 1548000    0.9892058   -6.8553561     592.7626  0.031910131  0.032079443            3 
 1549000    1.0074041   -6.8860763    592.26357  0.031862684  0.032072082            5 
 1550000   0.99511131   -6.8272839    592.90103  0.031876399  0.032064756            4 
 1551000   0.99988778   -6.8361719    591.99931  0.031807399  0.032057481            3 
 1552000    1.0092779   -6.8667988    592.60347  0.031819344  0.032050071            4 
 1553000   0.99793263   -6.8509884    592.45953  0.031791132  0.032042682            3 
 1554000   0.99854127   -6.8441616    594.82451  0.031897496  0.032035413            6 
 1555000   0.99705857   -6.8695507    594.28522  0.031848083  0.032028104            3 
 1556000   0.99490345   -6.8470518    595.53815  0.031894717  0.032020861            5 
 1557000    1.0110718   -6.8520241    593.73799  0.031777884  0.032013627            2 
 1558000   0.99972309   -6.8891894    594.42005  0.031793969  0.032006232            2 
 1559000    1.0007082   -6.8832459    593.49579  0.031724171  0.031998742            1 
 1560000    1.0000102   -6.8938029    595.97492  0.031836267  0.031991296            5 
 1561000   0.98766672   -6.8715686    596.30445  0.031833464  0.031983875            3 
 1562000   0.97893194   -6.8798831    595.44102   0.03176702  0.031976342            2 
 1563000    1.0125175   -6.8705014    595.45231  0.031747297  0.031968843            2 
 1564000   0.99385907   -6.8780448    596.21159  0.031767454  0.031961371            4 
 1565000   0.99323124   -6.8740272    596.78541  0.031777711  0.031953993            2 
 1566000    1.0145073   -6.8640584    595.26973  0.031676763   0.03194656            2 
 1567000     1.017835    -6.892997    596.72841  0.031734121  0.031939184            4 
 1568000    1.0128595   -6.8727737    596.58487  0.031706254  0.031931782            4 
 1569000   0.99955185   -6.8568717    598.58869  0.031792473  0.031924453            4 
 1570000    1.0156089   -6.8643028    597.31868  0.031704813  0.031917058            4 
 1571000   0.98056168   -6.8449332    597.87355  0.031714065  0.031909701            5 
 1572000   0.99357021   -6.8913569    596.97569  0.031646294  0.031902263            5 
 1573000   0.98679042   -6.8781888    597.61715  0.031660158  0.031894783            6 
 1574000   0.96475234   -6.8570782    598.32517  0.031677529  0.031887321            1 
 1575000   0.97967939   -6.8901675    599.89129   0.03174028  0.031879824            3 
 1576000   0.99937565   -6.8746558    599.25257  0.031686367    0.0318724            5 
 1577000   0.99587973   -6.8793897    599.99697   0.03170561  0.031865006            2 
 1578000    1.0100652   -6.8814968    600.30865  0.031701978  0.031857754            2 
 1579000    1.0146018   -6.8993224    598.65483  0.031594618  0.031850332            3 
 1580000    1.0078845   -6.8707332    601.23672  0.031710797  0.031843032            5 
 1581000    1.0022923   -6.8884497    600.32585  0.031642729  0.031835775            4 
 1582000    0.9989876   -6.8682408    600.90019  0.031652981  0.031828571            6 
 1583000    0.9977609   -6.8951028    602.94483  0.031740621   0.03182147            2 
 1584000    0.9971444   -6.8580494    602.50672  0.031697534    0.0318144            5 
 1585000   0.99647151    -6.872572    601.99272  0.031650511   0.03180733            8 
 1586000    1.0071786   -6.8910523    602.98375  0.031682627   0.03180025            1 
 1587000    1.0022228   -6.8268167    604.48006  0.031741234  0.031793229            9 
 1588000    1.0017104   -6.8748104    604.19907  0.031706501  0.031786204            6 
 1589000     1.021856   -6.8921165    602.93747  0.031620383  0.031779115            2 
 1590000    1.0000639   -6.8828939    604.52304  0.031683597  0.031771929            2 
 1591000    1.0079286   -6.8204914    604.40747   0.03165763  0.031764952            3 
 1592000    1.0030132   -6.9080024     603.4098  0.031585522  0.031757938            5 
 1593000    1.0165836   -6.8899658    604.09313   0.03160144  0.031750745            5 
 1594000   0.98411829   -6.8316552    605.76583  0.031669062  0.031743724            6 
 1595000   0.98740185   -6.8665818    605.64703  0.031643001  0.031736658            2 
 1596000    1.0115673    -6.885076    605.99375  0.031641278  0.031729579            3 
 1597000   0.99871427   -6.8489453    605.37786  0.031589327  0.031722479            2 
 1598000    0.9775513    -6.861529    604.80863  0.031539874  0.031715356            6 
 1599000    0.9980731   -6.8920591    606.03981  0.031584314   0.03170824            6 
 1600000   0.99563154   -6.9011272    605.04216  0.031512613  0.031701157            6 
 1601000   0.99010883   -6.8335499    607.50565  0.031621156  0.031694188            2 
 1602000    1.0127677   -6.8643799    607.52807  0.031602584  0.031687215            4 
 1603000   0.99793243   -6.8601142    608.28697  0.031622321  0.031680112            3 
 1604000    1.0176341   -6.8581963    607.75837  0.031575144  0.031673068            2 
 1605000   0.98235037   -6.8975339    606.68701  0.031499845  0.031665895            4 
 1606000   0.99217932   -6.8783834    607.73973  0.031534855  0.031658647            2 
 1607000   0.97962852   -6.8970801    607.11129  0.031482643  0.031651351            2 
 1608000    0.9954156   -6.8997851    607.09154  0.031462041   0.03164408            5 
 1609000   0.98692126   -6.8745111    608.32804  0.031506528  0.031636755            3 
 1610000   0.98556263    -6.883964    608.60098  0.031501086  0.031629598           12 
 1611000   0.97770693   -6.8411529    608.74291  0.031488874  0.031622512            2 
 1612000   0.99820214   -6.9040008    609.49659  0.031508302  0.031615328            4 
 1613000   0.99866093   -6.8993061    608.47428  0.031435951  0.031608049            3 
 1614000    1.0078346    -6.826757    610.50019  0.031521075  0.031600878            3 
 1615000   0.99854905   -6.8704947    608.81778  0.031414746  0.031593734            6 
 1616000   0.96445535   -6.8811948    608.55015  0.031381505  0.031586391            4 
 1617000    1.0098992   -6.9151521    608.43989  0.031356416  0.031579026            4 
 1618000   0.98614954    -6.896775    607.69424  0.031298632  0.031571694            4 
 1619000   0.99404385   -6.8995938    609.27646   0.03136074  0.031564326            4 
 1620000   0.99823974   -6.8910278    609.72952  0.031364687   0.03155692            2 
 1621000    1.0057573   -6.8763428     609.9975  0.031359115   0.03154957            7 
 1622000   0.99326436   -6.9095234    608.80285  0.031278404   0.03154231            4 
 1623000   0.98931662   -6.9205373    608.94631  0.031266498  0.031534851            2 
 1624000    1.0023926   -6.8863781    611.47235  0.031376865  0.031527485            3 
 1625000   0.99630181   -6.8689441    610.29618   0.03129724  0.031520046            2 
 1626000   0.98079177    -6.872217    611.71253  0.031350581  0.031512602            3 
 1627000   0.97196111   -6.8996043    609.86927  0.031236902  0.031505157            2 
 1628000   0.99290262   -6.8794092    610.35066  0.031242356  0.031497663            5 
 1629000    1.0012436   -6.9012245    612.42674  0.031329381  0.031490175            1 
 1630000   0.97350893   -6.8901134     612.0332  0.031290041  0.031482751            2 
 1631000   0.98551173   -6.8747978    612.46143  0.031292736  0.031475259            5 
 1632000    1.0186323   -6.9160491    611.44602  0.031221713  0.031467719            4 
 1633000    1.0092214   -6.8969643    611.06101  0.031182946  0.031460141            5 
 1634000   0.97823091   -6.8994915    612.46402  0.031235415  0.031452581            5 
 1635000     1.006709   -6.8828031    613.42499   0.03126529  0.031444893            3 
 1636000   0.97549741   -6.9150595    612.94908  0.031221938  0.031437134            4 
 1637000   0.97620073   -6.9124205    611.83536   0.03114617  0.031429378            3 
 1638000   0.99830197   -6.8797325     612.3887  0.031155306  0.031421693            5 
 1639000   0.99508833   -6.9205709    611.54683  0.031093493  0.031414059            3 
 1640000   0.99606609    -6.917409    611.99126  0.031097117  0.031406338            9 
 1641000   0.98281653   -6.9150468    610.94811  0.031025194  0.031398495            8 
 1642000    1.0059846   -6.9099097    611.51612  0.031035126  0.031390644            6 
 1643000   0.98123027   -6.8892135    613.10243  0.031096695  0.031382901            2 
 1644000    0.9822504   -6.9131914    612.19943  0.031032007   0.03137509            7 
 1645000    1.0184092   -6.8828866     613.9799  0.031103338   0.03136733            4 
 1646000   0.96720083   -6.8896034    616.07327  0.031190425  0.031359686            4 
 1647000   0.98409877   -6.9106066    614.13021  0.031073174  0.031352233            5 
 1648000    1.0065581   -6.9084161    615.27139  0.031112024   0.03134467            2 
 1649000   0.97177357   -6.8828968    615.52349  0.031105897  0.031337148            3 
 1650000    1.0013079   -6.8929851    617.74638  0.031199312  0.031329681            3 
 1651000    1.0049252   -6.8644927    615.89684   0.03108706  0.031322195            5 
 1652000    0.9946658   -6.8915861    615.15804  0.031030975   0.03131468            3 
 1653000   0.97779018   -6.8872011    617.27957  0.031119156  0.031307171            2 
 1654000   0.97223892   -6.8935991    618.10615  0.031141986  0.031299719            4 
 1655000   0.98718857   -6.8902709    617.35479  0.031085337  0.031292137            2 
 1656000    1.0089444   -6.9048649    617.69896  0.031083885  0.031284634            2 
 1657000   0.98732668    -6.904734    618.18621   0.03108963  0.031277209            2 
 1658000   0.99981217   -6.9097026    618.68207  0.031095802  0.031269707            2 
 1659000   0.98232023   -6.8763556    618.88196  0.031087099  0.031262261            4 
 1660000   0.97440558   -6.9051116    616.14896  0.030931173   0.03125458            4 
 1661000   0.99366741   -6.9213068     618.6616  0.031038611  0.031246926            4 
 1662000    0.9648166   -6.8570279    618.71353   0.03102254  0.031239313            3 
 1663000   0.96585817   -6.9152247    618.60482  0.030998438  0.031231709            4 
 1664000   0.98636919   -6.8719599    619.48153  0.031023714  0.031224068            3 
 1665000   0.99173413   -6.8758337    618.71114  0.030966524  0.031216407            4 
 1666000    1.0002245   -6.8987365    618.15984   0.03092036  0.031208719            2 
 1667000   0.98153735   -6.9172667    617.30924   0.03085929  0.031200917            5 
 1668000   0.97523887   -6.8970977     619.3041  0.030940453    0.0311931            7 
 1669000   0.97544231   -6.8833366     620.2689  0.030970087  0.031185399            7 
 1670000   0.97368128   -6.8784167     620.4112  0.030958643  0.031177606            5 
 1671000   0.97391679   -6.9046149     618.1156  0.030825633  0.031169868            3 
 1672000   0.99754285    -6.887046    620.42964   0.03092253  0.031161938            3 
 1673000   0.98376698   -6.9382922    618.83886  0.030824809  0.031154047            3 
 1674000   0.98908666   -6.8794486    619.88909  0.030858677  0.031146178            2 
 1675000    1.0013145   -6.8889728    619.77396  0.030834525  0.031138412            2 
 1676000   0.96997736   -6.8813611    618.78472  0.030766941  0.031130579            2 
 1677000    1.0029663   -6.9265733     620.9284  0.030855118  0.031122803            3 
 1678000   0.98474323   -6.8668782    621.26779  0.030853585  0.031114993            5 
 1679000   0.97679155   -6.9045367    620.35714  0.030790011  0.031107292            4 
 1680000    0.9703217   -6.9006096    620.36904  0.030772274  0.031099397            4 
 1681000   0.96825623   -6.9163479    619.86541  0.030729001  0.031091406            5 
 1682000   0.95440056   -6.8717777    621.37286  0.030785417  0.031083517            3 
 1683000    0.9829742   -6.8558108    620.24813  0.030711434  0.031075646            4 
 1684000    0.9834636   -6.9299081    620.90521  0.030725713  0.031067785            4 
 1685000   0.97820996   -6.9573803    621.16421  0.030720287  0.031059786            4 
 1686000   0.99466028   -6.8740295    623.10061  0.030797776  0.031051855            4 
 1687000   0.97790798   -6.9375141    621.37849  0.030694452  0.031043989            3 
 1688000   0.97631653   -6.9192541    623.27072  0.030769684  0.031036054            2 
 1689000   0.96936585   -6.9051191    623.84411  0.030779757  0.031028222            2 
 1690000   0.96131064    -6.896933    621.78166  0.030659845  0.031020239            8 
 1691000   0.96389626   -6.9160893    623.39869  0.030721402  0.031012336            3 
 1692000   0.97420145   -6.8949688    624.20512  0.030742963   0.03100443            4 
 1693000   0.97409713   -6.8907324    623.95341  0.030712415  0.030996383            2 
 1694000   0.99990179   -6.9080748    623.38499  0.030666322  0.030988385            5 
 1695000   0.96630714   -6.8891448    624.06481  0.030681653  0.030980377            5 
 1696000   0.96943263   -6.9104453     623.5198  0.030636783  0.030972402            3 
 1697000   0.96026404   -6.8733595    624.44408  0.030664117    0.0309644            3 
 1698000   0.95857624   -6.9011633     625.2285  0.030684555  0.030956474            4 
 1699000   0.99650933    -6.891414    624.71588  0.030641352  0.030948566            4 
 1700000    0.9826844   -6.8892283     628.5939  0.030813427  0.030940755            2 
 1701000   0.98689154   -6.8786504    625.90997  0.030663824   0.03093298            3 
 1702000   0.97099765   -6.8985254    625.88305  0.030644489  0.030925204            2 
 1703000    0.9845249   -6.9297235    625.93918  0.030629242  0.030917386            5 
 1704000   0.98539941   -6.9242463    625.88754  0.030608741  0.030909474            3 
 1705000   0.98156615   -6.8895254    626.49327  0.030620394  0.030901663            2 
 1706000   0.98697977   -6.9152305    626.68376  0.030611751  0.030893807            3 
 1707000   0.96750013   -6.9286541    628.42196  0.030678674  0.030885959            2 
 1708000   0.97078593     -6.90594    628.92565  0.030685288  0.030878139            5 
 1709000     1.000254   -6.9359713     627.0598  0.030576351  0.030870281            3 
 1710000   0.96811087   -6.9061537    626.69732  0.030540805  0.030862448            3 
 1711000   0.99498511   -6.9073725    626.52943  0.030514778  0.030854583            4 
 1712000   0.97886924   -6.9072214    628.70017  0.030602617  0.030846804            3 
 1713000   0.97761329   -6.9056051    630.11691  0.030653673  0.030839098            6 
 1714000   0.98883905   -6.8894951    629.51462  0.030606506  0.030831498            5 
 1715000   0.96447554   -6.9210994    629.75153  0.030600171  0.030823744            2 
 1716000    0.9698619   -6.9209538    630.01173  0.030594975  0.030816045            3 
 1717000   0.98882641   -6.9147994    629.79917   0.03056684  0.030808435            3 
 1718000   0.97348061    -6.908279    630.92158  0.030603491  0.030800876            3 
 1719000    0.9786794   -6.9212846    630.13865  0.030547734  0.030793254            3 
 1720000   0.97642591   -6.9247628    631.90538  0.030615571  0.030785651            3 
 1721000    1.0054459   -6.9240565    630.56689   0.03053297  0.030777999            5 
 1722000   0.96589582   -6.9138198    629.88778  0.030482374  0.030770331            4 
 1723000   0.95979205   -6.9180117    632.39329  0.030585862  0.030762712            3 
 1724000   0.95088119   -6.9057851    630.94703  0.030498213  0.030755122            2 
 1725000   0.97431094   -6.9031022    632.30165  0.030545973  0.030747558            4 
 1726000   0.99056999   -6.9165137    631.48776   0.03048898  0.030739928            4 
 1727000   0.96839258   -6.9010108    633.33875  0.030560642  0.030732324            5 
 1728000   0.97390696   -6.9113434    632.41975  0.030498638  0.030724813            3 
 1729000   0.97992785   -6.9288043    633.23353   0.03052022   0.03071727            6 
 1730000   0.99361841   -6.9361741    634.89761  0.030582737  0.030709724            6 
 1731000   0.95317071    -6.885351    633.73598  0.030509146  0.030702261            3 
 1732000   0.96650855   -6.9084478    633.18419  0.030464982  0.030694675            8 
 1733000   0.96840275   -6.9229336     633.7829  0.030476193  0.030687001            5 
 1734000   0.97823186    -6.940373    633.81261  0.030460045  0.030679396            3 
 1735000   0.98150462   -6.9153527    635.32442  0.030515102  0.030671935            6 
 1736000   0.98129898   -6.9174159    634.19792  0.030443448  0.030664345            7 
 1737000   0.98745653    -6.920265    635.63844  0.030495032  0.030656804            2 
 1738000   0.97154079   -6.9238461    634.93077  0.030443554  0.030649307            3 
 1739000   0.97757135   -6.9549023    636.51919  0.030502165  0.030641735            2 
 1740000   0.97533524   -6.9238535    636.35966  0.030476995   0.03063426            2 
 1741000   0.97215216   -6.9175688    637.56342  0.030517108  0.030626783            3 
 1742000   0.97005184   -6.8895482    640.18113  0.030624815  0.030619441            8 
 1743000   0.97258105   -6.9198992    638.20763  0.030512891  0.030612244            5 
 1744000   0.96905246   -6.9264948    637.09297  0.030442134  0.030604918            4 
 1745000   0.96597923   -6.9533852    635.88485  0.030366994  0.030597555            3 
 1746000   0.99200431   -6.9455047    637.95918  0.030448605    0.0305902            4 
 1747000   0.98689277   -6.9106193    640.66819  0.030560398  0.030582943            2 
 1748000   0.95222632   -6.9455439    638.90064   0.03045865  0.030575657            5 
 1749000    0.9912833   -6.9006808    639.52356  0.030470915  0.030568368            6 
 1750000   0.95241056    -6.926619    637.89637  0.030376018   0.03056097            6 
 1751000   0.96619118   -6.9172594    639.90467  0.030454249  0.030553596            2 
 1752000   0.96141045   -6.9297277    638.35935  0.030363364   0.03054619            3 
 1753000     1.005453   -6.9074957    641.73586  0.030506553  0.030538942            3 
 1754000   0.97068142   -6.9190612    638.01956  0.030312598  0.030531619            2 
 1755000    0.9886782   -6.9428082    639.52795  0.030366949  0.030524341            3 
 1756000   0.97921287   -6.9134556     640.6183    0.0304014   0.03051711            3 
 1757000   0.98629453   -6.8762447    642.28901  0.030463337  0.030509993            4 
 1758000   0.97301006   -6.9147087    640.33878  0.030353564  0.030502907            3 
 1759000   0.97111933    -6.938396    641.80573  0.030405805  0.030495703            5 
 1760000   0.97552959   -6.9625751    640.61102  0.030331961  0.030488448            2 
 1761000   0.95926011   -6.8893584    642.57523  0.030407686  0.030481223            2 
 1762000   0.96436177   -6.9079867    642.71757  0.030397161  0.030474079            4 
 1763000   0.94200005   -6.9574948    639.83346  0.030243593  0.030466903            2 
 1764000   0.97254491   -6.9465975    644.23311  0.030434293  0.030459733            6 
 1765000   0.97704062    -6.919279    643.57996  0.030386211  0.030452527            7 
 1766000   0.97919837   -6.9278561    642.96219  0.030339854  0.030445263            3 
 1767000   0.97486719   -6.9294657    642.84336   0.03031708  0.030437999            3 
 1768000   0.98648563   -6.9312758      643.349  0.030323765  0.030430726            4 
 1769000   0.95574029   -6.9362066    643.86806  0.030331075  0.030423458            4 
 1770000   0.94923702    -6.953153    643.59139  0.030300913  0.030416286            1 
 1771000   0.96349918   -6.9499835    644.37703  0.030320771  0.030409031            3 
 1772000    0.9803676   -6.9503332    645.19315   0.03034204  0.030401809            3 
 1773000   0.94859566   -6.9399705    642.64411  0.030205119  0.030394604            4 
 1774000   0.95831273   -6.9121379    644.07545  0.030255329  0.030387421            3 
 1775000   0.95036522   -6.9123711    646.02412  0.030329771  0.030380256            4 
 1776000   0.97276947   -6.9290431    643.90381  0.030213204  0.030373031            3 
 1777000   0.98099117   -6.9132072    644.96065  0.030245763  0.030365792            3 
 1778000   0.97949765   -6.9531236    644.72485    0.0302177  0.030358496            3 
 1779000    1.0037207   -6.9681415    645.16554  0.030221357  0.030351147            3 
 1780000   0.97249459   -6.9237487    646.61248   0.03027212  0.030343863            1 
 1781000   0.94783365   -6.9569394    645.86411  0.030220106  0.030336569            2 
 1782000   0.97614754    -6.911934    647.45758  0.030277665  0.030329346            4 
 1783000   0.95222229   -6.9251322    646.04458  0.030194643   0.03032213            7 
 1784000   0.94053678   -6.9293291     648.5007  0.030292447  0.030315093            4 
 1785000   0.97510859   -6.9286874    647.61715  0.030234228   0.03030809            2 
 1786000   0.96742559   -6.9553437    646.49707  0.030165037  0.030300908            5 
 1787000   0.96087477   -6.9122603    647.80241  0.030209029    0.0302937            3 
 1788000    0.9480179   -6.9640375    646.25223  0.030119884  0.030286431            5 
 1789000   0.96002133   -6.9591678     647.1094  0.030142976  0.030279184            5 
 1790000   0.96469974    -6.933942    647.23016  0.030131758  0.030271947            3 
 1791000   0.95333936   -6.9082643    649.14006    0.0302038  0.030264827            5 
 1792000   0.96923397    -6.911633    649.02708  0.030181691  0.030257675            5 
 1793000   0.99772784   -6.9085929    648.72052   0.03015061  0.030250563            6 
 1794000   0.97413016   -6.9691326    648.20605  0.030109906  0.030243433            9 
 1795000   0.97889509   -6.9314427    649.30234  0.030144027  0.030236341            3 
 1796000   0.96771638   -6.9509633    650.13006  0.030165649  0.030229222            3 
 1797000   0.95693309   -6.9209267    651.30767  0.030203472  0.030222141            4 
 1798000   0.96366969   -6.9578329    648.49497  0.030056311  0.030214983            6 
 1799000   0.96378463   -6.9648745    648.99811  0.030062911  0.030207633            6 
 1800000   0.95980301   -6.9228464    649.63181  0.030075547  0.030200424            2 
 1801000   0.96544222    -6.965381    649.28632  0.030042861  0.030193143            3 
 1802000   0.97169816   -6.9111398    649.27022  0.030025445  0.030185843            5 
 1803000   0.97134877   -6.9377374    650.66433  0.030073226  0.030178535            3 
 1804000   0.97457027    -6.963248     650.1138  0.030031125  0.030171277            2 
 1805000   0.95444049   -6.9121345    652.07275  0.030104928  0.030164153            6 
 1806000   0.97695255    -6.923435    651.72925  0.030072409  0.030156955            2 
 1807000   0.95275604   -6.9328346    650.49524  0.029998858  0.030149729            4 
 1808000    0.9675337   -6.9229781    651.64103  0.030035077  0.030142514            3 
 1809000   0.95728751   -6.9321197    652.99174  0.030080695  0.030135272            2 
 1810000   0.97004308   -6.9881554    651.35708  0.029988816  0.030127941            2 
 1811000   0.96630357    -6.966491    652.48798  0.030024295  0.030120709            4 
 1812000   0.96866535   -6.9484428    652.94087  0.030028554  0.030113478            3 
 1813000   0.97811795   -6.9456435    654.81375  0.030098077  0.030106352            5 
 1814000   0.95448231   -6.9292638    655.15839  0.030097317  0.030099144            2 
 1815000     0.993334    -6.915573    654.69561  0.030059486  0.030092068            4 
 1816000   0.96650862   -6.9326667    653.96763  0.030009528  0.030084995            2 
 1817000    0.9519182   -6.9292363    654.63769  0.030023743  0.030077808            5 
 1818000   0.94524939   -6.9233417    653.61448  0.029960326  0.030070719            6 
 1819000   0.95573461    -6.969723    652.93213  0.029912595  0.030063576            7 
 1820000   0.96372788    -6.954782    654.51529  0.029968649  0.030056285            3 
 1821000   0.96889546   -6.9472035    655.13789  0.029980683  0.030049101            3 
 1822000   0.95822083   -6.9620419    652.76386  0.029855647  0.030041967            7 
 1823000   0.95545295   -6.9136236    656.08725  0.029991189  0.030034811            5 
 1824000   0.96815651   -6.9611877    654.87557  0.029919388  0.030027554           13 
 1825000   0.94890824   -6.9440317    653.76406   0.02985224  0.030020302            3 
 1826000   0.97324593   -6.9319953    654.69226  0.029878252  0.030013049            4 
 1827000   0.96514571   -6.9471247    655.01929  0.029876815  0.030005702            3 
 1828000   0.96188693   -6.9376569    653.97694  0.029812953  0.029998311            3 
 1829000   0.95840142   -6.9389637     655.2777  0.029855919  0.029990847            4 
 1830000    0.9726626    -6.938645    655.80802  0.029863753   0.02998339            5 
 1831000   0.94697113   -6.9346636    654.61092   0.02979296  0.029975971            5 
 1832000   0.96109981   -6.9609712    655.80559   0.02983104  0.029968537            5 
 1833000   0.95792442   -6.9752367     656.4176   0.02984259  0.029961091            2 
 1834000   0.97926041   -6.9554992    656.64597  0.029836694  0.029953659            2 
 1835000    0.9512873   -6.9800506    656.49695  0.029813667  0.029946203            4 
 1836000   0.95301998   -6.9517743    654.20039  0.029693191  0.029938779            4 
 1837000   0.93346048   -6.9795577    655.12798  0.029719106  0.029931285            3 
 1838000   0.94953691   -6.9735439    655.98963  0.029742004  0.029923783            8 
 1839000   0.93749872   -6.9590136    656.01792  0.029727113  0.029916373            6 
 1840000   0.95880297   -6.9465009    656.64823  0.029739503  0.029908919            4 
 1841000   0.97015228   -6.9515792    656.79022  0.029729777  0.029901407            3 
 1842000   0.94940715    -6.958563     657.6945  0.029754546  0.029893935            2 
 1843000   0.96402145   -6.9902493    656.47856  0.029683422  0.029886386            4 
 1844000   0.94725602   -6.9798016    655.92817  0.029642451  0.029878973            2 
 1845000   0.97568413   -6.9836682    658.73224  0.029753037  0.029871616            2 
 1846000   0.96743734   -6.9752723    657.75438  0.029692776  0.029864257            3 
 1847000   0.93846391   -6.9753604    657.98932    0.0296873  0.029856927            2 
 1848000   0.96904788   -6.9797716    659.03187  0.029718248  0.029849543            3 
 1849000   0.97251799   -6.9562822    659.37202  0.029717506  0.029842119            4 
 1850000   0.99683806   -6.9415626    657.29705  0.029607975  0.029834762            2 
 1851000   0.94929795    -6.971059    660.56163  0.029738953  0.029827356            2 
 1852000   0.97103511   -6.9872043    661.55672  0.029767671  0.029820071            2 
 1853000   0.96617365   -6.9063968    662.20041  0.029780554  0.029812723            3 
 1854000    0.9452393   -6.9603976    661.49983  0.029733002  0.029805598            5 
 1855000   0.95074091   -6.9698512    659.80823  0.029640981  0.029798382            9 
 1856000   0.96333971   -6.9467633    662.08632  0.029727295  0.029791141            4 
 1857000   0.95464251   -6.9513656    661.61853  0.029690295  0.029783846            2 
 1858000      0.98517   -6.9812239    661.61613  0.029674208  0.029776593            3 
 1859000    0.9569045   -6.9827416     662.5209  0.029698803  0.029769295            3 
 1860000   0.94786506   -6.9681583    660.71002  0.029601703  0.029761993            5 
 1861000   0.96117208   -6.9587258    660.04354  0.029555953  0.029754646            5 
 1862000   0.97197881   -6.9112697    662.05051  0.029629901  0.029747391            2 
 1863000   0.94541139   -6.9672288    660.77115   0.02955677  0.029740091            4 
 1864000    0.9309787   -6.9721041    661.57776  0.029576974  0.029732676           10 
 1865000   0.96084248   -6.9730864    663.08031  0.029628253   0.02972531            3 
 1866000   0.95402241   -6.9518781    661.94315  0.029561591  0.029717994            5 
 1867000   0.94466942      -6.9646    661.86548   0.02954229  0.029710692            5 
 1868000   0.94224105   -6.9663196    664.72088  0.029653858  0.029703388            4 
 1869000   0.95036663   -6.9605789     663.0939  0.029565449  0.029696036            2 
 1870000   0.98198095   -6.9714224    662.39261  0.029518387  0.029688624            2 
 1871000   0.93624293   -6.9621531    664.23838   0.02958482  0.029681239            2 
 1872000   0.96188645   -6.9656381    661.67026  0.029454695  0.029673756            4 
 1873000   0.95566379   -7.0001392    661.26119  0.029420768  0.029666254            3 
 1874000   0.95107604    -6.964294    664.21222  0.029536296  0.029658868            3 
 1875000   0.94986359   -6.9338036     664.0052  0.029511342  0.029651387            3 
 1876000   0.97178263   -6.9869801    661.06769  0.029365125  0.029644029            5 
 1877000   0.94294402   -6.9786804    663.76274  0.029469133  0.029636659            3 
 1878000   0.96154938    -6.957445    664.56248  0.029488928  0.029629261            3 
 1879000   0.95299546   -6.9781018    663.60655  0.029430839  0.029621854            4 
 1880000   0.97484751   -6.9518595    665.61437  0.029504183  0.029614425            6 
 1881000   0.94880077   -6.9496953    664.90491  0.029457067  0.029607014            4 
 1882000    0.9802692   -6.9613009    665.59056  0.029471775  0.029599626            3 
 1883000   0.97283032   -6.9742744    665.21329  0.029439427  0.029592224            6 
 1884000   0.94955346   -6.9709114    663.81063  0.029361758  0.029584736            4 
 1885000   0.94245177   -6.9647147    665.23644  0.029409215  0.029577264            4 
 1886000   0.94761234   -6.9869651    666.14253  0.029433657  0.029569889            3 
 1887000   0.97104073   -6.9853743    665.62094  0.029395025  0.029562392            2 
 1888000   0.96511694   -6.9827712    666.97844  0.029439373  0.029554962            4 
 1889000    0.9412186    -6.981897    666.38235  0.029397492  0.029547614            3 
 1890000   0.95592874   -6.9171306    668.37629  0.029469854  0.029540269            5 
 1891000   0.94660181   -6.9688011    668.05828  0.029440255  0.029532958            5 
 1892000   0.94145487   -6.9739215    668.26741  0.029433906  0.029525593            3 
 1893000   0.93416687    -6.969667    667.91117  0.029402675  0.029518202            4 
 1894000    0.9326768   -6.9768841    666.51364  0.029325662  0.029510722            3 
 1895000   0.96812013    -6.966774    665.65528   0.02927244  0.029503161            3 
 1896000   0.95285916   -6.9732685    667.90595  0.029355922  0.029495673            4 
 1897000   0.95520683   -6.9716185    668.24346  0.029355274  0.029488156            4 
 1898000    0.9523461   -6.9732309    668.61898  0.029356295  0.029480761            2 
 1899000    0.9516054   -6.9660668    668.57547  0.029338927  0.029473343            2 
 1900000    0.9463692    -6.961721    667.42561  0.029273053  0.029465918            4 
 1901000   0.93887376   -6.9727041    667.65967  0.029267914  0.029458522            3 
 1902000    0.9512166    -6.972721      669.307  0.029324702  0.029450994            3 
 1903000   0.94356962   -7.0097283    669.12097  0.029301146  0.029443627           12 
 1904000   0.96856149   -7.0051895    667.58279  0.029218434  0.029436183            3 
 1905000   0.95492059   -6.9678312    667.00373  0.029177766  0.029428722            2 
 1906000   0.96420813   -6.9955217    668.82833  0.029242232  0.029421335            7 
 1907000   0.94676876   -6.9347648    670.08973  0.029282019   0.02941386            6 
 1908000   0.95744591   -6.9791888    671.10201  0.029310884   0.02940658            5 
 1909000   0.96330821    -6.968339    669.27612  0.029215825  0.029399173           11 
 1910000   0.94380814   -6.9892226    669.87537  0.029226674  0.029391826            3 
 1911000   0.95491993   -6.9720119    672.66247  0.029332918  0.029384493            5 
 1912000    0.9363099   -7.0025072     669.1939  0.029166401  0.029377084            5 
 1913000   0.93816768   -7.0017075    671.28435  0.029242218  0.029369631            2 
 1914000   0.95216609   -6.9787469    671.17658  0.029222248  0.029362234            3 
 1915000    0.9444427   -6.9642745    671.19538  0.029207806  0.029354871            3 
 1916000   0.92431799    -6.974257    670.48383  0.029161614  0.029347493            2 
 1917000   0.94489603   -6.9705985    673.87153  0.029293667  0.029340148            2 
 1918000   0.93145535   -6.9756471    671.12142  0.029158908  0.029332884            4 
 1919000   0.95211939   -6.9801126    672.73866  0.029213942  0.029325656           11 
 1920000   0.94524255    -6.984042    671.72917  0.029154912   0.02931833            8 
 1921000   0.96382985    -6.992346    674.03281  0.029239667  0.029311059            4 
 1922000   0.92958351   -6.9370073    674.01317  0.029223603  0.029303904            4 
 1923000   0.95469454   -7.0006161    673.91608  0.029204198  0.029296714            3 
 1924000   0.92230755   -6.9844732    673.68409  0.029178971  0.029289496            3 
 1925000   0.95391532   -7.0046041    673.32825  0.029148409  0.029282185            2 
 1926000   0.95249531   -6.9463054    674.18619  0.029170396  0.029274871            4 
 1927000    0.9100454   -6.9885618    673.11032  0.029108732  0.029267565            5 
 1928000   0.94774829   -7.0118348    673.32333  0.029102841  0.029260188            3 
 1929000    0.9435495   -7.0057294    675.14484  0.029166444  0.029252801            3 
 1930000   0.94765363   -6.9599288     674.2933  0.029114564  0.029245343            4 
 1931000   0.93789488   -6.9543928     674.3461  0.029101765   0.02923792            4 
 1932000    0.9266953   -7.0115144    673.94973  0.029069605  0.029230431            3 
 1933000    0.9490576   -6.9800213    674.99166  0.029099485  0.029223021            4 
 1934000   0.92513448   -6.9908394    674.42327  0.029059948  0.029215523            8 
 1935000   0.94565271   -7.0194176    673.58245  0.029008719  0.029207983            4 
 1936000   0.94010209   -7.0018727    674.63562  0.029039067  0.029200482            3 
 1937000   0.95006528   -6.9859149    673.34973  0.028968754  0.029192919            5 
 1938000   0.94249891   -6.9875588    674.06603  0.028984608  0.029185396            6 
 1939000   0.93682173    -6.988948    675.73993  0.029041599  0.029177911            5 
 1940000    0.9500555   -6.9929815    675.60727  0.029020931  0.029170546            2 
 1941000   0.95100009   -6.9753107    675.43641  0.028998644  0.029163179            7 
 1942000   0.92068298   -6.9817318    675.90037  0.029003621  0.029155741            4 
 1943000   0.93248308   -6.9831469    677.19615  0.029044268  0.029148313            4 
 1944000   0.92903962   -6.9806996    677.52219  0.029043304  0.029140938           12 
 1945000   0.95078907   -7.0133156    675.37442  0.028936351  0.029133523            9 
 1946000    0.9400318   -6.9761686    677.34337  0.029005797  0.029126058            4 
 1947000   0.94763598   -6.9731514    677.19624  0.028984602  0.029118672            4 
 1948000   0.95609682    -7.002853    676.01312   0.02891911  0.029111305            5 
 1949000   0.97620142   -7.0044448    678.30535  0.029002281  0.029103955            5 
 1950000   0.95333565    -7.008015    677.76496  0.028964314   0.02909667            3 
 1951000   0.95003467   -6.9705269    677.97299  0.028958354  0.029089324            4 
 1952000   0.92835812   -7.0031389    679.10133  0.028991689  0.029082048            3 
 1953000   0.91952551   -6.9971907    678.06233  0.028932511  0.029074812            2 
 1954000   0.93090143   -6.9701139    680.44771  0.029019435  0.029067607            4 
 1955000   0.96429062   -6.9748414    680.59067  0.029010685  0.029060379            8 
 1956000   0.93376935   -7.0213827    677.80266  0.028877073  0.029053157            3 
 1957000   0.94426772   -6.9966007    678.67151  0.028899315  0.029045776            6 
 1958000   0.92435549    -7.022033     679.3237  0.028912313  0.029038316            2 
 1959000   0.94905139   -7.0173139    677.82044  0.028833607  0.029030924            3 
 1960000      0.93143   -6.9532988    680.25302  0.028922322  0.029023404            3 
 1961000    0.9262526   -6.9900003    679.67681  0.028883087  0.029015922            2 
 1962000   0.94088211   -6.9783538    678.04188  0.028798925  0.029008476            5 
 1963000   0.92687201   -6.9720961    680.20626  0.028876136  0.029001022            7 
 1964000   0.91426276   -6.9858159    678.16796  0.028774947  0.028993574            6 
 1965000    0.9091981   -6.9770548      678.634  0.028780068  0.028986027            5 
 1966000   0.93132854   -7.0024898    678.40254  0.028755618  0.028978492            4 
 1967000   0.93902677    -7.013748    679.52873  0.028788711  0.028971007            5 
 1968000   0.92516834   -6.9993718    678.72599  0.028740091  0.028963607            5 
 1969000   0.92580744   -6.9832622    681.69281  0.028851058  0.028956101            6 
 1970000   0.93312739   -6.9850588    680.15357  0.028771302  0.028948666            7 
 1971000   0.92925376   -6.9824349    680.28765  0.028762373  0.028941208            2 
 1972000   0.94717227   -7.0131221    679.00996  0.028693795  0.028933699            3 
 1973000    0.9407948   -7.0156657    682.56666  0.028829475  0.028926124            3 
 1974000   0.93242928   -7.0057518    681.00047  0.028748754  0.028918568            6 
 1975000    0.9338766   -7.0355009    682.11483  0.028781216   0.02891109            3 
 1976000   0.94752547   -6.9539189     681.7015   0.02874922  0.028903619            2 
 1977000   0.91616303    -6.998594    683.91879   0.02882814  0.028896168            2 
 1978000   0.94185649   -6.9893609    683.60794  0.028800469  0.028888731            6 
 1979000   0.95318705   -7.0044827    680.28101  0.028645823  0.028881311            4 
 1980000   0.95813207   -6.9705302    682.98019  0.028744957  0.028873892           10 
 1981000   0.92528951    -7.020633     682.7012  0.028718711  0.028866541            4 
 1982000   0.94376477   -7.0108879    682.03019  0.028676009  0.028859111            8 
 1983000   0.93255415    -7.000872    683.22493  0.028711755  0.028851702            7 
 1984000   0.91034384   -7.0055352    682.42702  0.028663769  0.028844325            3 
 1985000   0.92664345   -7.0170375    684.67397  0.028743659  0.028836944            2 
 1986000   0.94483905   -7.0019977    684.13693  0.028706652  0.028829524            2 
 1987000   0.92013644   -6.9868969    685.26671  0.028739587  0.028822083            2 
 1988000   0.92927554   -6.9981566    685.75028  0.028745401   0.02881475            7 
 1989000   0.93698708   -7.0036173    687.30934  0.028796269  0.028807414            3 
 1990000   0.94721976   -7.0016381    684.44442  0.028661826  0.028800078            2 
 1991000   0.91162422   -7.0107053    685.20112  0.028679103  0.028792699            3 
 1992000   0.91480185   -6.9926847    685.48372  0.028676528  0.028785284            5 
 1993000   0.92665842   -7.0161199    685.19418  0.028650033  0.028777932            3 
 1994000   0.95076607   -7.0209499    683.33979  0.028558166  0.028770625            3 
 1995000   0.92659922   -6.9968415    685.30949  0.028626127  0.028763283            3 
 1996000   0.91140958   -7.0093761    686.99582   0.02868219   0.02875593            3 
 1997000   0.93301023    -6.994861    686.59367  0.028651046  0.028748608            7 
 1998000    0.9198055   -7.0107579    685.53737   0.02859265  0.028741365            3 
 1999000   0.91904099   -7.0045894     686.2882  0.028609646  0.028734062            2 
 2000000   0.92730399    -7.002213    687.13577  0.028630657  0.028726755            5 
 2001000   0.93043549   -7.0007325    687.71993  0.028640677  0.028719452            6 
 2002000   0.93451013   -7.0085551    687.42664  0.028614162  0.028712167            3 
 2003000   0.93951719   -7.0398347    686.65549  0.028567794  0.028704719           12 
 2004000   0.90985218   -7.0126462     687.5836  0.028592133  0.028697451            7 
 2005000   0.90404108   -7.0260905    689.26274  0.028647661  0.028690162            4 
 2006000   0.93356179   -7.0390661    687.56443   0.02856283  0.028682894           17 
 2007000   0.92489065   -6.9885103    686.81737  0.028517579  0.028675562            6 
 2008000   0.91106027   -6.9973237    687.23637  0.028520766  0.028668287            5 
 2009000   0.93126329   -6.9539313    688.77894  0.028570555  0.028661066            2 
 2010000   0.93924878   -7.0286412    687.42605  0.028500251  0.028653729            2 
 2011000   0.92641047   -7.0148174    689.54476  0.028573875  0.028646445            2 
 2012000   0.92934444   -7.0040011    689.42688  0.028554791   0.02863923            2 
 2013000   0.93367339   -6.9868964    691.79878  0.028638797  0.028631945            6 
 2014000   0.93832741   -7.0273915    686.40859  0.028401547   0.02862467            4 
 2015000   0.93844867   -7.0150909    689.83393  0.028529112  0.028617331            3 
 2016000   0.93026733    -7.005598     688.8651  0.028474913  0.028610055            3 
 2017000   0.94782661   -7.0058577    690.53616  0.028529836   0.02860276            3 
 2018000   0.92137703   -7.0330585    689.69851  0.028481108  0.028595459            2 
 2019000   0.93237501   -7.0069828    690.66939  0.028507074  0.028588086            3 
 2020000   0.92730049   -7.0157778    690.72727  0.028495349  0.028580734            4 
 2021000   0.92786943   -7.0326066    690.19656  0.028459367  0.028573384            6 
 2022000   0.91831199   -6.9746681    691.79725  0.028511262   0.02856607            7 
 2023000   0.92749661   -7.0248639    691.19348  0.028472297  0.028558844            4 
 2024000   0.91215317   -6.9731647    692.90773   0.02852881  0.028551607           11 
 2025000   0.93047967   -6.9930646    690.13971  0.028400811  0.028544378            5 
 2026000    0.9277302   -6.9759051    694.07202  0.028548537  0.028537177            3 
 2027000   0.91635612   -7.0294172    691.33241  0.028421822  0.028529896            6 
 2028000   0.92124789   -7.0295423    691.92224  0.028432045  0.028522563            5 
 2029000     0.932844   -7.0511009    694.09932  0.028507447  0.028515269            2 
 2030000   0.91075479   -7.0149499    692.43342  0.028425017  0.028508021            2 
 2031000   0.93619054   -7.0389392    693.12121  0.028439242  0.028500769            3 
 2032000   0.92059338   -7.0346642    693.36159  0.028435105  0.028493512            4 
 2033000   0.92576224   -7.0130156    693.06571   0.02840899  0.028486218            2 
 2034000    0.9204879   -7.0490653    691.75308  0.028341244  0.028478919            5 
 2035000   0.89955987    -7.030239     694.3523  0.028433755  0.028471632            3 
 2036000   0.92160107   -7.0335825    691.03905  0.028284178  0.028464361            5 
 2037000   0.91184502   -7.0242058    695.73658  0.028462469  0.028457099            4 
 2038000   0.93316015   -7.0063712    695.89466  0.028454966  0.028449862            3 
 2039000   0.92262407   -6.9828483    694.29884   0.02837579  0.028442696            3 
 2040000   0.94026722    -7.031681    695.48154  0.028410194  0.028435554            4 
 2041000   0.92539269   -7.0211441    696.16757  0.028424284  0.028428399            3 
 2042000   0.92647403   -7.0068495    694.12423  0.028326977  0.028421309            1 
 2043000   0.91837439    -7.015749    695.90278  0.028385658  0.028414221            4 
 2044000   0.91167558    -7.040002    696.98919  0.028416063  0.028407061            7 
 2045000   0.92749897   -7.0194802    697.58622  0.028426496  0.028399948           14 
 2046000   0.90738081   -7.0024344    697.61532  0.028413788  0.028392945            6 
 2047000   0.91768797   -7.0285599    696.01657  0.028334822  0.028385938            5 
 2048000   0.92560587   -7.0129341    698.80852  0.028434591  0.028378926            3 
 2049000   0.92539824   -7.0184138    697.39709  0.028363311  0.028371978            4 
 2050000   0.92813139   -7.0411904    698.69993  0.028402436  0.028364997            5 
 2051000   0.93315438   -7.0156428    696.29953  0.028291059  0.028358019            6 
 2052000   0.91896747   -7.0264814    699.78327  0.028418749  0.028351043            4 
 2053000   0.93646934   -7.0311704    697.51195  0.028312711  0.028344066            4 
 2054000   0.92132231   -7.0140297    701.18372  0.028447895  0.028337091            3 
 2055000   0.91546922   -7.0273357    699.09288  0.028349265  0.028330001            3 
 2056000   0.92137287   -7.0231468    698.68494  0.028318942  0.028322938           11 
 2057000   0.89054752   -7.0363463    699.35274  0.028332229  0.028315906            3 
 2058000   0.92519524   -7.0289893    698.23889   0.02827336  0.028308826            3 
 2059000   0.91114247   -7.0125599    697.09679  0.028213404  0.028301784            4 
 2060000   0.92392524   -7.0395379    698.97972  0.028275879  0.028294742            9 
 2061000   0.94731001   -7.0541828    700.05562  0.028305662  0.028287749            3 
 2062000   0.91022692   -7.0442768    699.87179  0.028284505  0.028280706            3 
 2063000   0.90909847   -7.0205502    699.08136  0.028238866  0.028273651            3 
 2064000   0.93519909    -7.012537     701.0065  0.028302911  0.028266649            3 
 2065000   0.92451833   -7.0336191    699.04401  0.028210009  0.028259608            6 
 2066000   0.92776191   -6.9902457    700.19984  0.028242975  0.028252552            2 
 2067000   0.90938133   -7.0329009    700.07864  0.028224425  0.028245445            4 
 2068000   0.93629558   -7.0329878    702.82136  0.028321299  0.028238367            3 
 2069000   0.91859762   -7.0084235    699.89811  0.028189871  0.028231331            3 
 2070000   0.92528516   -7.0506144    700.97313   0.02821953  0.028224199            4 
 2071000   0.93504424    -7.007244    700.77593  0.028197969  0.028217056            3 
 2072000   0.92660289   -7.0473428    700.11005  0.028157579  0.028209925            4 
 2073000   0.93638637   -6.9964175     700.7714  0.028170582  0.028202813            4 
 2074000   0.91684166   -7.0247195    701.24157  0.028175891  0.028195792            4 
 2075000   0.93163377   -7.0759041    698.99653   0.02807215  0.028188647            4 
 2076000   0.91227169   -7.0488097    700.92418  0.028136006  0.028181491           19 
 2077000   0.92101954   -7.0427511    701.34224  0.028139233  0.028174329            2 
 2078000   0.91545053   -7.0433561    703.73407   0.02822161  0.028167258            7 
 2079000   0.91556956   -7.0475481    701.09603  0.028102294  0.028160217            6 
 2080000   0.92485611   -7.0016682    702.34826  0.028138953  0.028153162            4 
 2081000   0.92182903   -7.0082004    703.58656  0.028175018  0.028146122            4 
 2082000   0.90657546   -7.0023322    704.31181  0.028190514  0.028139084            5 
 2083000   0.92572782   -7.0470746    702.59794  0.028108415  0.028131979            3 
 2084000   0.90192808    -7.061966    702.64293  0.028096726  0.028124833            6 
 2085000   0.91957056   -7.0353598    702.82965  0.028090714  0.028117717            3 
 2086000   0.90235427   -7.0093825    703.39575  0.028099862  0.028110612            4 
 2087000   0.92865021   -7.0596422     702.1698  0.028037446  0.028103455            3 
 2088000   0.92514039   -7.0274216    704.75278  0.028127107   0.02809622            7 
 2089000   0.93022685   -7.0320205    702.70557  0.028031976  0.028089121            3 
 2090000   0.92212342   -7.0352539    703.61729  0.028054916  0.028082072            5 
 2091000    0.9003951   -7.0323503    704.69285  0.028084364  0.028074836            4 
 2092000   0.90788162   -7.0540248    702.91567  0.028000146  0.028067647            4 
 2093000   0.90923904   -7.0643984    701.47599  0.027929447  0.028060475            3 
 2094000   0.94112053   -7.0426048    702.82493  0.027969792  0.028053276            6 
 2095000   0.92057658   -7.0550779    704.17074  0.028009974  0.028046036            3 
 2096000   0.94067578   -7.0347343    704.01353   0.02799036   0.02803878            3 
 2097000   0.90913825   -7.0392463    705.35134  0.028030176   0.02803161            3 
 2098000   0.90168064   -7.0634776     704.0058   0.02796337  0.028024432            3 
 2099000   0.91084807   -7.0743541    703.83046  0.027943086  0.028017183            7 
 2100000   0.92327382   -7.0459886     703.2502  0.027906754  0.028009941            4 
 2101000   0.89734929   -7.0329195    704.81538  0.027955552  0.028002677            3 
 2102000   0.89619398   -7.0473765    705.28663  0.027960935  0.027995495            4 
 2103000   0.91825566   -7.0259508    705.11235  0.027940733  0.027988348            5 
 2104000   0.92019448   -7.0315871    705.90398  0.027958808  0.027981257            6 
 2105000   0.94048338   -7.0387427    706.43743  0.027966644  0.027974103            2 
 2106000   0.89825307   -7.0629025    704.77411  0.027887548  0.027966895            4 
 2107000    0.9010781   -7.0603593    704.50895  0.027863825  0.027959673            5 
 2108000   0.91227622    -7.042787     705.4977  0.027889694  0.027952461            7 
 2109000   0.90137258    -7.033797    707.11591   0.02794041  0.027945287            4 
 2110000   0.92803193   -7.0367502    706.68228  0.027910043  0.027938131            6 
 2111000   0.90722186   -7.0739826    704.46121  0.027809143  0.027930966            4 
 2112000   0.90892115     -7.06023    706.50129  0.027876471  0.027923796            4 
 2113000   0.93141148   -7.0390692    708.64433  0.027947797  0.027916639            3 
 2114000   0.91087353   -7.0470763    706.63308  0.027855293  0.027909529            5 
 2115000   0.90792593   -7.0532292    709.09977  0.027939313  0.027902442            3 
 2116000   0.91807392   -7.0357283     707.3215  0.027856077  0.027895315            4 
 2117000   0.92201939   -7.0464578     707.1602  0.027836569  0.027888191            8 
 2118000   0.93322586   -7.0459948    706.59079  0.027801022  0.027881022            2 
 2119000   0.91300412   -7.0518319    710.23091  0.027931057  0.027873918            3 
 2120000    0.9160252   -7.0707166    707.44655  0.027808433  0.027866766            4 
 2121000   0.91619031    -7.004169    708.35692  0.027831091  0.027859589            3 
 2122000    0.9194296   -7.0696189    707.94678  0.027801869  0.027852462            5 
 2123000   0.91088045   -7.0632797    708.77899   0.02782144  0.027845294            5 
 2124000   0.91655712   -7.0351494    708.46733  0.027796113  0.027838129            3 
 2125000   0.90882812   -7.0640926    707.20646  0.027733587  0.027830998            3 
 2126000   0.92862636    -7.081722    710.06237  0.027832485  0.027823736            3 
 2127000   0.89985166   -7.0313358    709.09451  0.027781481  0.027816448            3 
 2128000   0.92227008   -7.0993642     708.7358  0.027754378  0.027809186            4 
 2129000   0.89720574   -7.0559879    709.42005  0.027768125  0.027801924            4 
 2130000     0.926576   -7.0343651    708.81981  0.027731605   0.02779466            5 
 2131000   0.90921919   -7.0495588    708.28288  0.027697594  0.027787428            6 
 2132000   0.90175387   -7.0734024    707.91798   0.02767034  0.027780249            4 
 2133000    0.8951561   -7.0256382    709.50514  0.027719376  0.027773023            5 
 2134000   0.89054186   -7.0451882    710.18682  0.027733006  0.027765845            5 
 2135000   0.91829141   -7.0355984    710.70581  0.027740274  0.027758752            4 
 2136000   0.92212269   -7.0433386    710.76942  0.027729768  0.027751617           11 
 2137000   0.88713257   -7.0699225     712.6708  0.027790937  0.027744495            4 
 2138000   0.90915461   -7.0563819    709.31181  0.027647015  0.027737384            5 
 2139000   0.90367815    -7.030191    709.92301  0.027657901  0.027730178            6 
 2140000   0.90830026   -7.0416177    711.85309  0.027720136  0.027723006            3 
 2141000   0.89789178   -7.0379532    710.63872  0.027659922  0.027715903            3 
 2142000   0.91255097   -7.0917777    709.85204  0.027616404  0.027708736            4 
 2143000   0.88182561    -7.055498    712.70918   0.02771462  0.027701558            3 
 2144000   0.90238144   -7.0470586    712.16505  0.027680545  0.027694419            4 
 2145000   0.90201876   -7.0648678    712.91296  0.027696696  0.027687327            5 
 2146000   0.89390049   -7.0453348    710.08606  0.027574016  0.027680148            5 
 2147000   0.89800436   -7.0801754    710.61227  0.027581597  0.027672994            8 
 2148000   0.90745604    -7.145502    711.07532  0.027586721  0.027665796            5 
 2149000   0.93158968   -7.0705376    712.04898   0.02761164  0.027658588            4 
 2150000   0.91202713   -7.0648977    710.31901  0.027531745  0.027651402            4 
 2151000   0.92547326   -7.0650975    711.50588  0.027564926  0.027644163            5 
 2152000   0.90307869   -7.0779403    710.58076  0.027516293  0.027636984            2 
 2153000     0.890338    -7.070416    712.48999  0.027577411  0.027629809            5 
 2154000   0.91960747    -7.042908    713.49098  0.027603334    0.0276227            5 
 2155000   0.93090659   -7.0383346    713.58194  0.027594042  0.027615583            5 
 2156000   0.92224909   -7.0992295    713.16431  0.027565102  0.027608441            3 
 2157000    0.9049951   -7.0690871     713.8608   0.02757923  0.027601263            3 
 2158000    0.9206172   -7.1085354    711.68876  0.027482575  0.027594151            3 
 2159000   0.91109145   -7.0700223    712.73503  0.027510229  0.027586983            3 
 2160000   0.91230163   -7.0176076     714.5861  0.027568908  0.027579862            4 
 2161000   0.89477185   -7.0696262    714.62271  0.027557562  0.027572777            3 
 2162000   0.91719799   -7.0439062    713.04159  0.027483872  0.027565697           11 
 2163000   0.90212879   -7.0800535    712.61774  0.027454837  0.027558509            2 
 2164000   0.90413364   -7.0489451    714.57964    0.0275177  0.027551418            4 
 2165000   0.90895908   -7.0480633    714.73673  0.027511036  0.027544337            5 
 2166000   0.89786028   -7.0426616    716.83158  0.027578931  0.027537304            5 
 2167000   0.91140329   -7.0315475    716.38062  0.027548862  0.027530291            5 
 2168000   0.90288903   -7.0858508    714.03239  0.027445894  0.027523273            8 
 2169000    0.8748985   -7.0635697    715.56685  0.027492195  0.027516261            2 
 2170000   0.91538706   -7.0720031    716.48066  0.027514618  0.027509164            4 
 2171000    0.9285457   -7.0487944     716.1506  0.027489275  0.027502065            6 
 2172000   0.93439329   -7.0370974    717.34057  0.027522275  0.027495021            2 
 2173000   0.90373336   -7.0426438    718.58901  0.027557486  0.027487989            4 
 2174000   0.89896875    -7.035732    719.69442  0.027587183  0.027480981            1 
 2175000   0.88288427   -7.0475174    716.59193   0.02745563  0.027473995            4 
 2176000   0.89599559   -7.0316034    718.83607  0.027528955  0.027467048            5 
 2177000   0.88325325   -7.0898945    717.07026  0.027448716  0.027460075            3 
 2178000   0.89843783   -7.0376981    719.53809  0.027530536  0.027453105            2 
 2179000   0.91168288   -7.0839196    720.38883  0.027550437  0.027446157            4 
 2180000    0.9157349   -7.0668626    717.47488   0.02742641  0.027439187            3 
 2181000   0.93244433   -7.0397967    719.93862  0.027507971  0.027432278            6 
 2182000   0.89701574   -7.1098805    717.77155  0.027412601  0.027425344            3 
 2183000   0.90733874   -7.0642341    718.96207   0.02744549    0.0274184            4 
 2184000   0.89333077   -7.0970091    718.08399   0.02739942  0.027411402            3 
 2185000   0.89738437   -7.0304749    720.91598  0.027494889  0.027404416            5 
 2186000   0.87661333   -7.0515808    717.74956  0.027361602  0.027397403            6 
 2187000   0.92460561    -7.085808     719.4699  0.027414643  0.027390318            3 
 2188000    0.9054128    -7.093394    719.73589  0.027412244  0.027383281            8 
 2189000   0.88800041   -7.0981568    717.85099  0.027327965  0.027376209            3 
 2190000   0.88404525   -7.0895396    717.41977  0.027299078  0.027369165            5 
 2191000    0.9069837   -7.1099427    717.66539   0.02729596  0.027362116           13 
 2192000   0.91197033   -7.0860135    718.54516  0.027316954  0.027355079            4 
 2193000   0.90147272   -7.0759599    721.89852  0.027431924  0.027348129            4 
 2194000   0.89687241   -7.0636962    719.95444   0.02734558  0.027341118            5 
 2195000   0.87788345   -7.0486519    721.63127  0.027396783  0.027334062            4 
 2196000   0.91498179   -7.0737768    719.44198  0.027301229  0.027327044            4 
 2197000   0.89277292   -7.0811728    721.86526  0.027380718  0.027320103            5 
 2198000   0.90963501   -7.0820442    720.30552  0.027309126  0.027313179            5 
 2199000   0.90261289   -7.1242931    722.31803  0.027372974  0.027306159            7 
 2200000   0.89103393   -7.0693876    720.99883  0.027310562  0.027299132            1 
 2201000   0.89910348   -7.0927958    721.20757  0.027306057  0.027292094            5 
 2202000   0.89101246   -7.0631964    722.07713  0.027326564  0.027285125            2 
 2203000   0.90709629   -7.0903931    721.60795  0.027296412  0.027278096            4 
 2204000   0.90766954   -7.0539566    721.55396  0.027281986  0.027271107            3 
 2205000   0.89885724   -7.0953558    719.69503  0.027199359  0.027264067            4 
 2206000   0.89704445   -7.0593202    722.67008  0.027299414  0.027256992            4 
 2207000   0.92037536   -7.0306357     719.3637    0.0271622  0.027249984            3 
 2208000   0.90238149   -7.0551755    721.86309  0.027244229  0.027242982            8 
 2209000   0.90600478   -7.0478583    720.68222  0.027187348  0.027235859            4 
 2210000   0.88903502   -7.0711175    721.32013    0.0271991  0.027228828            4 
 2211000   0.87455753   -7.0807078     722.4782  0.027230446  0.027221761            3 
 2212000   0.89756901   -7.1015436     723.1323  0.027242778  0.027214677            4 
 2213000   0.89741757   -7.0955686    720.47122  0.027130261  0.027207606            7 
 2214000   0.90631624   -7.0429921    723.08321  0.027216321  0.027200521            4 
 2215000   0.91240805   -7.0715027    723.45887  0.027218167  0.027193482            3 
 2216000   0.88141911   -7.1006592    723.12558  0.027193351  0.027186416            3 
 2217000   0.89405824   -7.0928278    723.00946   0.02717672  0.027179328            3 
 2218000   0.88925639   -7.0694914    722.23363  0.027135318  0.027172269            5 
 2219000   0.89995553   -7.0933876    722.94318  0.027149736  0.027165155            9 
 2220000   0.91442743   -7.0578056    722.62586  0.027125596  0.027158088            7 
 2221000   0.89153722   -7.0622989    723.43916  0.027143898  0.027151001            4 
 2222000   0.91152871   -7.0909027    723.58914  0.027137306   0.02714397            6 
 2223000   0.90783332   -7.0996829    724.08223  0.027143583   0.02713686            5 
 2224000   0.87610992   -7.0643975    723.88688  0.027124059  0.027129793            2 
 2225000   0.90083829   -7.0700543    724.35208  0.027129291  0.027122832            4 
 2226000   0.89821303   -7.1025179    724.16674  0.027110166  0.027115756            5 
 2227000   0.88668961   -7.0715325    724.40632  0.027106957  0.027108734            3 
 2228000   0.89556394   -7.0712086    726.00022  0.027154407  0.027101627            5 
 2229000   0.90322036   -7.0889642    726.27315  0.027152428  0.027094613            4 
 2230000   0.89929142   -7.0617095    724.41689  0.027070885  0.027087627            6 
 2231000   0.90428782   -7.0968175     724.5388  0.027063305  0.027080593            5 
 2232000   0.89777878   -7.0759276    726.17999  0.027112455   0.02707355            4 
 2233000   0.89400072   -7.1039766    724.54095  0.027039146  0.027066545            7 
 2234000   0.90308596   -7.0880198    725.16626  0.027050368  0.027059495            3 
 2235000    0.8920831   -7.0871591    723.72011  0.026984344  0.027052421           12 
 2236000   0.88329081   -7.0773115    724.94019  0.027017747  0.027045384            4 
 2237000   0.88724462   -7.0938563    726.65273  0.027069465  0.027038322            2 
 2238000   0.87758038   -7.1085986    726.94672  0.027068317  0.027031243            6 
 2239000   0.89094506   -7.0911861    724.63195  0.026970074  0.027024217            6 
 2240000   0.88923028   -7.0691988    726.59993  0.027031247  0.027017203            4 
 2241000   0.88766936   -7.0935931    726.16637  0.027003063  0.027010138            6 
 2242000   0.90356971   -7.0972219    728.09786  0.027062811  0.027003087            3 
 2243000    0.9073581   -7.0680319    727.09677  0.027013552  0.026996058            3 
 2244000   0.88546401   -7.1053023    724.48512  0.026904528  0.026989055            4 
 2245000   0.89819878   -7.0950769    728.44144    0.0270394  0.026981977            3 
 2246000   0.90782116   -7.0841402    727.05508  0.026975923  0.026974952            2 
 2247000   0.88549134   -7.1008204     726.8815   0.02695748  0.026967873           12 
 2248000   0.88038349   -7.1291285    724.62964  0.026862012  0.026960725            4 
 2249000   0.89678627   -7.1090395    727.48917  0.026956024  0.026953618            4 
 2250000    0.8632865   -7.0727445    727.14989  0.026931477  0.026946526            4 
 2251000   0.90824102   -7.1115896    725.96238  0.026875551  0.026939357            5 
 2252000   0.88756789   -7.0876879     727.1086  0.026906032  0.026932275            3 
 2253000   0.88695946   -7.0881519    727.73838  0.026917383   0.02692523            4 
 2254000   0.89099744   -7.1104842    729.43027  0.026967993  0.026918249            4 
 2255000   0.89149682   -7.0749889     727.9656  0.026901907  0.026911133            3 
 2256000   0.89471234   -7.0926868    729.55904  0.026948842  0.026904033            4 
 2257000   0.89605725   -7.1113009    726.66459  0.026830032  0.026896908            8 
 2258000   0.88587426   -7.0456782    728.96374  0.026903002   0.02688987            2 
 2259000   0.89101534   -7.0930065    727.33971  0.026831183  0.026882825            8 
 2260000   0.88224508   -7.0924188    730.15643  0.026923172  0.026875838           10 
 2261000   0.86948136   -7.1025714    729.47127  0.026886012  0.026868799            5 
 2262000   0.86616022   -7.0946516    730.76222  0.026921685  0.026861782            7 
 2263000   0.89491216   -7.0699862    729.96642  0.026880484  0.026854768            6 
 2264000   0.90316596   -7.1090673    731.83324  0.026937325  0.026847786            4 
 2265000   0.89816625   -7.1136101    729.15855  0.026827025  0.026840795            3 
 2266000   0.87709605   -7.0965888    730.35346   0.02685913    0.0268338            3 
 2267000   0.88423513   -7.1080394    730.05232  0.026836212  0.026826764            6 
 2268000    0.8910534   -7.0912499    731.63329  0.026882469  0.026819793            4 
 2269000   0.89197391   -7.0733207    730.55008  0.026830839  0.026812784            5 
 2270000   0.88238024   -7.1000447      730.476  0.026816299  0.026805729            4 
 2271000   0.87778779   -7.0905964    728.57509  0.026734738  0.026798633            4 
 2272000    0.8819683   -7.0989902    729.08462   0.02674166  0.026791539            4 
 2273000   0.88165226   -7.1253695    730.01891  0.026764148  0.026784496           10 
 2274000   0.89075009   -7.1101079     730.1615  0.026757604  0.026777365            7 
 2275000   0.89162342   -7.0782375    731.35184  0.026789445  0.026770331            5 
 2276000   0.88605046   -7.0666439    733.24731  0.026847075  0.026763313           10 
 2277000   0.88975959   -7.0841811    732.90934  0.026822915  0.026756293            8 
 2278000    0.8720119   -7.0778585    730.99555  0.026741131  0.026749244            7 
 2279000   0.92478248   -7.1522647    730.73662  0.026719929  0.026742134            9 
 2280000   0.88657094   -7.1072441    731.31056  0.026729187   0.02673499            5 
 2281000   0.89065547   -7.0882704    732.63507  0.026765858  0.026727927            7 
 2282000    0.8901473   -7.1019959    732.41166  0.026745971  0.026720866            9 
 2283000   0.87267647   -7.1082034    731.04067  0.026684212  0.026713775            4 
 2284000   0.88831005   -7.1060671    732.05003  0.026709356  0.026706697            3 
 2285000   0.88968521   -7.1415698     732.1619  0.026701747  0.026699657            4 
 2286000   0.88111983   -7.1215678    732.02184  0.026684961  0.026692541            3 
 2287000   0.88026168    -7.152012    732.01243   0.02667295  0.026685461            5 
 2288000   0.90131078   -7.0952354    733.71999  0.026723484  0.026678376            6 
 2289000    0.8958946   -7.1128222    732.59944  0.026671015  0.026671379            3 
 2290000    0.8832074   -7.0826196     732.2171  0.026645455  0.026664374            3 
 2291000   0.89071484   -7.1267073    732.01148  0.026626345  0.026657373            4 
 2292000     0.880068   -7.0725252     732.5244  0.026633377  0.026650284            3 
 2293000    0.8871478   -7.1324937    732.57244  0.026623508  0.026643178            6 
 2294000   0.88442729   -7.1098438    732.67959  0.026615794  0.026635997            3 
 2295000   0.91076571   -7.1193441    733.79696   0.02664477  0.026628958            5 
 2296000   0.88868081   -7.1153611    733.26517  0.026613863  0.026621923            6 
 2297000   0.86945302   -7.1129814    734.48397  0.026646494   0.02661487            6 
 2298000   0.87899448   -7.1087455     734.1868  0.026624122  0.026607789            7 
 2299000   0.87924966   -7.0901926    734.28366  0.026616053  0.026600716            6 
 2300000    0.8988685   -7.1011296    734.26548  0.026603822   0.02659369            7 
 2301000   0.88701601   -7.0848274    733.22553  0.026554597  0.026586712            3 
 2302000   0.88637635   -7.0836614    735.72436   0.02663352  0.026579714            8 
 2303000   0.91913102   -7.1062169    737.55995  0.026688376  0.026572726           10 
 2304000   0.87191982   -7.1099325    737.82167  0.026686258  0.026565818            5 
 2305000   0.89759511    -7.065324     735.8495   0.02660338  0.026558936            3 
 2306000   0.88993832   -7.1105836     735.2463  0.026570046  0.026551987            8 
 2307000   0.87517565    -7.135767    736.40544  0.026600399  0.026545037            4 
 2308000   0.90715216   -7.1342453    737.82674  0.026640192  0.026538065            3 
 2309000   0.89348593   -7.0946713    735.69281  0.026551639  0.026531124            5 
 2310000   0.86688223   -7.1063263    736.55047  0.026571085  0.026524196            3 
 2311000   0.89385957   -7.1122297     735.9525  0.026538025   0.02651726            4 
 2312000   0.89253382   -7.0770741    738.14707  0.026605647  0.026510333            5 
 2313000   0.87632244    -7.121901     737.3625  0.026565878  0.026503356            2 
 2314000   0.88922421   -7.1149429    736.35507  0.026518117  0.026496351            4 
 2315000    0.8902494   -7.0989501    735.79676  0.026486564  0.026489362           11 
 2316000   0.87131877   -7.1115627    737.53144  0.026537545  0.026482379            7 
 2317000   0.89393336   -7.1118582    735.67213  0.026459219  0.026475407            4 
 2318000   0.87460493   -7.1052617    736.76215  0.026486991  0.026468406            3 
 2319000   0.86706759   -7.1396723    738.14017  0.026525089  0.026461318            8 
 2320000   0.86694994   -7.1230273    736.48123  0.026454067  0.026454266            2 
 2321000   0.87968966   -7.1118572    738.33264  0.026509143  0.026447314            7 
 2322000   0.88065989   -7.1056477    738.59831  0.026507261  0.026440347            4 
 2323000   0.86405027   -7.1373973    736.91877  0.026435599  0.026433365            5 
 2324000   0.88293357   -7.1372177    736.52309  0.026410036  0.026426274            2 
 2325000   0.89008503   -7.1144141    737.07231  0.026418362  0.026419274            4 
 2326000   0.86477026   -7.0962607    737.37521  0.026417856  0.026412297            4 
 2327000   0.88724682   -7.1209104    736.43705  0.026372907  0.026405308            5 
 2328000   0.85517242   -7.1661405    736.82672  0.026375527  0.026398243            3 
 2329000   0.88905849   -7.1334884     736.9287  0.026367851  0.026391197            7 
 2330000   0.88134726   -7.1580858    736.50214  0.026341278  0.026384117            4 
 2331000   0.88009394   -7.1202097    738.50807   0.02640169  0.026377062            5 
 2332000   0.86138819   -7.1087905    738.79293  0.026400548  0.026370033            7 
 2333000   0.89546344   -7.0810969    739.82733   0.02642618  0.026363027            4 
 2334000   0.85844104    -7.147093    737.76742   0.02634131  0.026356027            3 
 2335000   0.88135417    -7.109415     739.1047  0.026377755  0.026349004            1 
 2336000   0.88514935   -7.1339448    740.78742  0.026426492  0.026342006            3 
 2337000    0.8791955   -7.1223818    738.21654  0.026323511  0.026334982            4 
 2338000   0.88451873    -7.147296    738.56353   0.02632462  0.026328043            9 
 2339000   0.87206788   -7.1459907    739.13931  0.026333879  0.026321099            3 
 2340000   0.89042838   -7.1281542      740.372  0.026366524  0.026314116            2 
 2341000   0.88444641    -7.143948    738.95626  0.026304865  0.026307086            5 
 2342000   0.87840627   -7.0996587    738.91341  0.026292108  0.026300076            3 
 2343000   0.88654942   -7.1530176    741.32939  0.026366816  0.026293039            5 
 2344000   0.87305894   -7.0924523    740.94335  0.026341843  0.026286024            4 
 2345000   0.86889506   -7.1379417     739.6529  0.026284751  0.026279072            4 
 2346000    0.8673484   -7.1147461    740.81849  0.026314951   0.02627208            4 
 2347000   0.90001852   -7.1257893    738.20908  0.026211088   0.02626507            7 
 2348000   0.88364043   -7.1486141    738.51463  0.026210769  0.026258073            4 
 2349000   0.88705684   -7.0993206    740.99486    0.0262876  0.026251121            5 
 2350000   0.88717847   -7.1321511    739.04207  0.026207165  0.026244137            5 
 2351000   0.86973167   -7.1326273    739.75032  0.026221123  0.026237056            2 
 2352000    0.8527269    -7.140101    739.66697  0.026207021  0.026230008            6 
 2353000   0.87545175   -7.1150253    740.10572  0.026211422  0.026222964            7 
 2354000    0.8574801   -7.1470185    741.21588  0.026239588   0.02621592            3 
 2355000   0.87842808   -7.1525017    740.76605  0.026212528  0.026208891            4 
 2356000     0.867831   -7.1109136    740.57298  0.026194573   0.02620189            6 
 2357000   0.86982018   -7.1268318    738.99488  0.026127665  0.026194854            3 
 2358000   0.87314734   -7.1627756    740.13388  0.026156838  0.026187753            2 
 2359000   0.87983514   -7.1298141    742.55561  0.026231299  0.026180731            3 
 2360000   0.86947023   -7.1160586     740.1538  0.026135374   0.02617372            5 
 2361000   0.87806273    -7.097089    742.84837  0.026219412  0.026166708            5 
 2362000   0.86926753   -7.1302049    740.64972  0.026130741  0.026159715            5 
 2363000   0.87677379    -7.121469    741.59236  0.026152926  0.026152691            4 
 2364000   0.86673503   -7.1104336    742.18715   0.02616283  0.026145691            4 
 2365000   0.87065411       -7.136    742.31369  0.026156226  0.026138645            6 
 2366000   0.88138843    -7.131696    742.99274  0.026169088  0.026131655            3 
 2367000   0.86775236   -7.1413772    744.14828  0.026198714   0.02612466            6 
 2368000   0.89487255   -7.1283936    741.52574   0.02609536  0.026117607            4 
 2369000    0.8730492   -7.1691503    741.02928  0.026066881    0.0261105            7 
 2370000   0.89321326   -7.1419262    741.31984  0.026066099   0.02610341            3 
 2371000   0.86578259   -7.1281799    742.73288  0.026104769  0.026096374            4 
 2372000   0.86515935   -7.1387206    742.16213  0.026073712  0.026089333            7 
 2373000   0.87210128   -7.1621823    741.10341  0.026025545  0.026082202            7 
 2374000   0.85253096   -7.1397144    742.01969  0.026046746  0.026075121            4 
 2375000   0.88101178   -7.1428236    741.22329  0.026007835  0.026068039            4 
 2376000   0.86115798    -7.092651    741.35876   0.02600164  0.026061005            3 
 2377000   0.85865995   -7.1444316    741.24467  0.025986701  0.026053944            4 
 2378000   0.87110844   -7.1353311     743.2616  0.026046454  0.026046817            3 
 2379000   0.89668886   -7.1490648     744.5258  0.026079788  0.026039783            7 
 2380000   0.84719119   -7.1473435    744.76841  0.026077325  0.026032779            4 
 2381000   0.86537543   -7.1321842    745.03501  0.026075704  0.026025711            2 
 2382000   0.87398471   -7.1082838    744.30852  0.026039341  0.026018646            4 
 2383000    0.8854904   -7.1388202    743.48157  0.025999495  0.026011678            7 
 2384000   0.87520222   -7.1307737    744.68405  0.026030622  0.026004693            6 
 2385000   0.86899106   -7.1067988    744.34382   0.02600782  0.025997695            4 
 2386000   0.86336975   -7.1264912    744.87569  0.026015496  0.025990724            6 
 2387000   0.86059948   -7.1359332    745.27097  0.026018397  0.025983769            8 
 2388000    0.8631691    -7.140557    744.94367   0.02599608  0.025976812            3 
 2389000   0.88100398   -7.1474338    747.71642  0.026081918  0.025969891            5 
 2390000   0.89082495   -7.1486878    745.04692  0.025977926  0.025962937            4 
 2391000   0.87199534    -7.126339    746.60139  0.026021239  0.025956015            6 
 2392000   0.85647832   -7.0979083    747.18312  0.026030627  0.025949059            2 
 2393000    0.8692825   -7.0971295    747.49745  0.026030696  0.025942139            3 
 2394000   0.87191824   -7.1749779    744.37114  0.025910998   0.02593513            3 
 2395000   0.87966541   -7.1211316    746.28894  0.025966908  0.025928139            5 
 2396000   0.85498512   -7.1318482    744.98583  0.025910748  0.025921232            7 
 2397000   0.86866459   -7.1153793    746.33704  0.025946914  0.025914317            4 
 2398000   0.88861111   -7.0984236    747.39735  0.025972941  0.025907408            6 
 2399000   0.88733533   -7.1489035    746.97331  0.025947385   0.02590047            4 
 2400000   0.86336331   -7.1186434    747.42842  0.025952376  0.025893492            6 
 2401000   0.86537317   -7.1460646    747.56669  0.025946366  0.025886573            3 
 2402000    0.8787646   -7.1320551    748.65533  0.025973332  0.025879656            4 
 2403000   0.85145252   -7.1258227    747.60604  0.025926135  0.025872718           10 
 2404000   0.87568673    -7.174336    746.80977  0.025887748  0.025865789            7 
 2405000   0.87440765   -7.1521655    746.93422  0.025881297  0.025858818            5 
 2406000   0.84541792   -7.1493859    745.89663  0.025834602  0.025851814            4 
 2407000   0.86952442    -7.130297    748.52655   0.02591492  0.025844838            6 
 2408000   0.86739667   -7.1587047    746.94421  0.025849398  0.025837846            4 
 2409000   0.87630607   -7.1526196    746.96337  0.025839331  0.025830841            7 
 2410000   0.86177664    -7.116937    747.42915  0.025844715  0.025823849            4 
 2411000   0.88426379   -7.1468491    746.01483  0.025785111  0.025816854            4 
 2412000   0.85736459   -7.1355276    747.62991  0.025830221  0.025809865            4 
 2413000   0.85914122   -7.0983037    750.60761  0.025922352  0.025802958            2 
 2414000    0.8705423   -7.1605741    747.01215  0.025787495  0.025796071            9 
 2415000   0.85984531     -7.14623    747.87714  0.025806664  0.025789132            6 
 2416000    0.8889434   -7.1299464    747.41604  0.025780079  0.025782132            2 
 2417000   0.86512912   -7.1538683    748.43457  0.025804529  0.025775145            8 
 2418000    0.8757076   -7.1463701    749.48747  0.025830145   0.02576807            3 
 2419000   0.87504061   -7.1575103    747.87828  0.025764031  0.025761013            8 
 2420000   0.83583253   -7.1345891    748.88908  0.025788191  0.025753938            7 
 2421000   0.86777683   -7.1151475    749.02796   0.02578232  0.025746881            3 
 2422000   0.86900066   -7.1463164    747.64807  0.025724197  0.025739895            4 
 2423000   0.86311835   -7.1807724    747.42251  0.025705823  0.025732806            3 
 2424000   0.88341408   -7.1339363    747.95289  0.025713452  0.025725722            6 
 2425000   0.85776091   -7.1544775    748.38723  0.025717774  0.025718689            3 
 2426000   0.85461811   -7.1460522    749.13136  0.025732734  0.025711673            2 
 2427000   0.85867392   -7.1342516    750.23745   0.02576011  0.025704686            8 
 2428000   0.84646308   -7.1514739    747.94597  0.025670853  0.025697626            4 
 2429000   0.85602234   -7.1092434    748.85082  0.025691328   0.02569061            4 
 2430000   0.88014624   -7.1384684    748.38637  0.025664827  0.025683607            8 
 2431000   0.85141806   -7.1318873    749.19536  0.025682002  0.025676596            3 
 2432000   0.85407455   -7.1918133    750.55033   0.02571787   0.02566952            4 
 2433000    0.8589384   -7.1537423    749.54973  0.025673028  0.025662473            5 
 2434000   0.85592041   -7.1513265    749.51769  0.025661384  0.025655462            6 
 2435000   0.85193196   -7.1175284    750.00796  0.025667624  0.025648422            2 
 2436000   0.85204479   -7.1403307     749.8941  0.025653192  0.025641323            2 
 2437000   0.86594249   -7.1543651    749.72385  0.025636843  0.025634237            4 
 2438000   0.86793887     -7.17882    748.43647  0.025582324  0.025627163            6 
 2439000   0.84850346   -7.1793952    750.98536  0.025658923  0.025620109            4 
 2440000   0.84859405   -7.1698548    751.17808  0.025654989  0.025613017           11 
 2441000   0.86270184   -7.1538473    749.58891  0.025590226  0.025605886            2 
 2442000   0.85141329   -7.1745051    749.46437  0.025575497  0.025598822            9 
 2443000   0.85600149   -7.1643677    749.87159  0.025578919  0.025591734            7 
 2444000   0.86138093   -7.1651584    748.73538  0.025529711  0.025584652            3 
 2445000   0.85244991    -7.173404    747.49873  0.025477121   0.02557752            8 
 2446000    0.8535096   -7.1526514    750.52123   0.02556968  0.025570391            5 
 2447000   0.87576331   -7.1160761     749.5861  0.025527384  0.025563281            2 
 2448000   0.86473455    -7.156965    749.42576  0.025511498  0.025556158            4 
 2449000     0.869211   -7.1642147    749.97448  0.025519752  0.025549077            6 
 2450000   0.87278581   -7.1597934    750.66069  0.025532677  0.025541938            5 
 2451000   0.85840993   -7.1602288    750.43235  0.025514496  0.025534847            4 
 2452000   0.84608475   -7.1603686    751.04768  0.025525003  0.025527724            5 
 2453000    0.8627898   -7.1573547    751.53353  0.025531102  0.025520613            5 
 2454000    0.8508032   -7.1413252     750.3554  0.025480692  0.025513523            7 
 2455000   0.87590543   -7.1752461    750.92089  0.025489508  0.025506507           11 
 2456000   0.86223744     -7.19398    750.98895  0.025481438  0.025499392           15 
 2457000   0.85396551   -7.2050865    751.51616  0.025488948  0.025492269            5 
 2458000   0.85378561   -7.1463005    752.22434  0.025502588  0.025485197           10 
 2459000   0.85049271   -7.1874889    749.90732  0.025413695  0.025478072            5 
 2460000   0.83175808   -7.1495073     752.0111  0.025474631   0.02547098            6 
 2461000   0.84534856   -7.1715281    750.40128  0.025409768  0.025463883            5 
 2462000   0.86223863   -7.1727578    751.12414  0.025423915  0.025456776            8 
 2463000   0.85226283   -7.1523464    751.71999  0.025433752  0.025449702            3 
 2464000   0.85125578   -7.1790292    751.18441  0.025405317  0.025442631            5 
 2465000   0.87603053   -7.1514537    750.59406  0.025375053  0.025435568            4 
 2466000   0.83362732   -7.1672341    752.22916  0.025420018  0.025428523            8 
 2467000    0.8617112   -7.1827641    752.71252  0.025426041   0.02542148            2 
 2468000   0.85399239   -7.1551038      753.484  0.025441788  0.025414417            4 
 2469000    0.8579453   -7.1565375    754.16883  0.025454598  0.025407291            3 
 2470000   0.86036089   -7.1725407    753.76849  0.025430786  0.025400153            4 
 2471000   0.83476827   -7.1447402    753.49324  0.025411212  0.025393098            7 
 2472000   0.86622006   -7.1634483    751.58155  0.025336487  0.025385991            5 
 2473000   0.85745559   -7.1702144    751.68438  0.025329707  0.025378913            4 
 2474000    0.8653282   -7.1520718    754.62113  0.025418389   0.02537183            4 
 2475000   0.82957358   -7.1529507    754.61894  0.025408045  0.025364779            4 
 2476000   0.84592249   -7.1815553    755.43484  0.025425244   0.02535771            5 
 2477000   0.84599698   -7.1800657    752.10834  0.025303066  0.025350653            6 
 2478000   0.88668683   -7.1300794    754.52255  0.025374043   0.02534365            4 
 2479000   0.85855666   -7.1432341    753.72092   0.02533686  0.025336571            5 
 2480000   0.84920508   -7.1695123    753.45864  0.025317831  0.025329493            5 
 2481000   0.84176407   -7.1783988    752.61792  0.025279387  0.025322362            6 
 2482000   0.84824573   -7.1564307    754.04358  0.025317069  0.025315237            2 
 2483000   0.87145194    -7.184887    753.51101  0.025288999  0.025308094            3 
 2484000   0.85464253   -7.1746964    753.36662  0.025273974  0.025300961            2 
 2485000   0.83716569   -7.1605975    754.81551  0.025312391  0.025293829            7 
 2486000   0.83701463   -7.1719218     754.8908  0.025304733  0.025286734            4 
 2487000   0.84007847   -7.1472899    755.14369  0.025303032  0.025279644            5 
 2488000   0.85450345   -7.1853712    754.75172  0.025279733  0.025272577            5 
 2489000   0.84210155   -7.1608499    754.02149  0.025245128   0.02526548            8 
 2490000   0.86544733   -7.1938593    753.66339  0.025223005  0.025258387            4 
 2491000   0.86151605   -7.1720364    754.87651  0.025253463  0.025251274            2 
 2492000   0.82373432   -7.1853829    754.93357  0.025245237  0.025244203            7 
 2493000   0.87283201   -7.1873088     754.9452  0.025235499  0.025237133            5 
 2494000   0.84489527    -7.169359    755.38073  0.025239934  0.025230134            3 
 2495000   0.86707367   -7.2038074     755.9746  0.025249653  0.025223068           11 
 2496000   0.86166808   -7.1678091    755.68194  0.025229766  0.025216061            6 
 2497000   0.84969427   -7.1772306    757.22706  0.025271228  0.025209053            5 
 2498000   0.85892483   -7.1781121    756.33964  0.025231506  0.025202026            4 
 2499000   0.82374764   -7.1593563     756.5856  0.025229612  0.025194997            6 
 2500000   0.85669747   -7.1939574    757.30799    0.0252436  0.025187976            5 
 2501000    0.8412757    -7.174732    755.50809  0.025173534  0.025180982            3 
 2502000   0.85519141   -7.1759881    755.56977  0.025165527  0.025173938            3 
 2503000   0.85646074   -7.1680974     758.1609   0.02524174  0.025166898            2 
 2504000   0.84201486   -7.2164711     755.1939  0.025132917  0.025159844            3 
 2505000   0.84052787   -7.2005259    757.91576  0.025213432  0.025152817            3 
 2506000   0.86152829   -7.1970243    757.28731  0.025182472  0.025145828            3 
 2507000   0.84382957   -7.2072548    757.26129  0.025171563  0.025138868            4 
 2508000   0.85455767   -7.2155859    756.34789  0.025131177  0.025131877            4 
 2509000   0.83814811   -7.1867555    756.90193  0.025139562  0.025124818            6 
 2510000   0.86163919    -7.186287    757.40983  0.025146409   0.02511774            7 
 2511000   0.85403216   -7.1932975    758.32883  0.025166893  0.025110699            6 
 2512000   0.86203765   -7.1832657     758.4855  0.025162072  0.025103688            4 
 2513000   0.85091844   -7.1654845    758.64645  0.025157396  0.025096701            5 
 2514000   0.83432215   -7.1790053    759.33646  0.025170262   0.02508971            6 
 2515000    0.8527429   -7.1683336    756.06591  0.025051886  0.025082717            7 
 2516000     0.850174   -7.1927916    758.85957  0.025134458   0.02507574            3 
 2517000    0.8512135   -7.1863018    759.58708  0.025148559  0.025068752            5 
 2518000    0.8553121   -7.2039555    756.91195  0.025050038  0.025061784            3 
 2519000   0.83535963   -7.1650316     759.4081  0.025122671  0.025054803            3 
 2520000   0.83334948    -7.164951    759.11514  0.025103014    0.0250478            6 
 2521000   0.84874362   -7.1658925    757.52835  0.025040604  0.025040759            8 
 2522000   0.83487286   -7.1862173     757.2139  0.025020285  0.025033714            6 
 2523000   0.85529801   -7.1642672    759.18988  0.025075634  0.025026679            5 
 2524000   0.86251134   -7.2007756    757.24269   0.02500141  0.025019701            4 
 2525000   0.86313368   -7.1964783    756.80388  0.024977026  0.025012703            4 
 2526000   0.83357105   -7.1797553    759.56593  0.025058258  0.025005663            8 
 2527000   0.85975028   -7.1664298    759.95647  0.025061221  0.024998685            4 
 2528000   0.85694191   -7.1859032    757.94566  0.024985023  0.024991655            2 
 2529000     0.826088   -7.1625081    759.26351  0.025018568   0.02498464           11 
 2530000   0.84875591   -7.1546383    760.73897  0.025057278  0.024977714            7 
 2531000   0.84066024    -7.149315    761.02645  0.025056844  0.024970802            9 
 2532000   0.85845396   -7.1473272    761.23637  0.025053856  0.024963922            3 
 2533000   0.84701148   -7.1802202    760.55589  0.025021578  0.024957038            3 
 2534000   0.84928557   -7.1835503    760.40303  0.025006677  0.024950099           11 
 2535000    0.8429674   -7.1715368    760.54461  0.025001466  0.024943113           12 
 2536000   0.84638891   -7.1835686    760.50894  0.024990436  0.024936152            4 
 2537000   0.84644218   -7.1957979    759.51254  0.024947856  0.024929137            6 
 2538000    0.8427027   -7.1836958    759.46816  0.024936569  0.024922133            6 
 2539000   0.85541204   -7.1710511    760.43189  0.024958379  0.024915165            5 
 2540000    0.8493871   -7.1917815    760.81778  0.024961213  0.024908166            7 
 2541000   0.82943112   -7.2022388    761.69557  0.024980177  0.024901159            7 
 2542000   0.83674922   -7.2004189     761.1996  0.024954091   0.02489421            6 
 2543000   0.85531996   -7.1634525    762.35435  0.024982119  0.024887297            5 
 2544000   0.83879178   -7.1633692    761.68596  0.024950405  0.024880398            5 
 2545000   0.86279323   -7.1670032    760.64517  0.024906522  0.024873458            4 
 2546000   0.82981506   -7.2020168    760.61272  0.024895677  0.024866531            6 
 2547000   0.83819534   -7.1833756    761.35494  0.024910186  0.024859574            6 
 2548000   0.83833539   -7.1944517    761.88942   0.02491789  0.024852585            5 
 2549000   0.84015667   -7.2247515    761.50727  0.024895621  0.024845616           11 
 2550000   0.86013169   -7.1823764    762.26666  0.024910675  0.024838659            4 
 2551000   0.84838434   -7.1897029    759.42866  0.024808201  0.024831714            3 
 2552000   0.83978939   -7.2173002    760.59932  0.024836707  0.024824779            6 
 2553000   0.84865862   -7.1946202    760.33169  0.024818243  0.024817884            4 
 2554000   0.83117527   -7.1756492    761.55972  0.024848594  0.024810955            6 
 2555000   0.84560308   -7.1547212    762.16833  0.024858719  0.024804042            5 
 2556000   0.83857842   -7.1932649    760.99921  0.024810877  0.024797118            5 
 2557000   0.84994472   -7.1922632    761.37395  0.024813386  0.024790165            3 
 2558000   0.84391461   -7.2069307    761.45723  0.024806399  0.024783242            5 
 2559000   0.82467902   -7.2497397    761.53193  0.024799138  0.024776292            4 
 2560000   0.83715103   -7.1822237    763.39547  0.024850113   0.02476936            8 
 2561000   0.85014225   -7.1887341    762.71977  0.024818423  0.024762422            3 
 2562000   0.83620139   -7.2243859    762.12173  0.024789283  0.024755465            5 
 2563000   0.82768861   -7.1917897    761.73446   0.02476702  0.024748515            7 
 2564000   0.84188921   -7.2355809     762.5546  0.024784016  0.024741517            9 
 2565000   0.82608526   -7.1958755    763.85331  0.024816547  0.024734528            7 
 2566000   0.83852311   -7.1749306    764.50464  0.024828028  0.024727619            5 
 2567000   0.84470964   -7.2264994    761.51073  0.024721164   0.02472061            6 
 2568000   0.84967792   -7.1990504    763.25069     0.024768  0.024713612            6 
 2569000   0.83751439   -7.2226688    761.62794   0.02470572  0.024706587            7 
 2570000   0.84288816   -7.2120934    760.89389  0.024672305  0.024699582            3 
 2571000    0.8358996   -7.1971476    762.94095   0.02472906  0.024692568            5 
 2572000   0.82460291   -7.2083471    765.07221  0.024788498   0.02468554            3 
 2573000   0.84787089   -7.2226668    762.44141  0.024693659  0.024678494            3 
 2574000   0.85417106   -7.2547067     760.7937  0.024630721  0.024671425            4 
 2575000   0.85049306   -7.2137436    760.34043  0.024606486  0.024664343            9 
 2576000    0.8487762   -7.2088032    762.68389  0.024672745  0.024657299            6 
 2577000   0.85061028   -7.1681048    762.67826  0.024662989  0.024650271            2 
 2578000   0.83406942   -7.2218948    760.32294  0.024577287  0.024643234            6 
 2579000   0.83742733   -7.1879626    763.19276  0.024660487  0.024636166            5 
 2580000   0.84529767     -7.20117    762.56418  0.024630626  0.024629091            6 
 2581000   0.82306568   -7.2126846    763.01951  0.024635784  0.024622013            7 
 2582000   0.81923779   -7.1887121    763.64726  0.024646503  0.024614931            4 
 2583000   0.83640225   -7.2032774    762.15474   0.02458881  0.024607884            4 
 2584000   0.85020182   -7.2004131    761.58011  0.024560762  0.024600864            5 
 2585000   0.83243756    -7.190127    764.76034  0.024653783  0.024593859            5 
 2586000   0.85127688   -7.1707434    763.95547  0.024618312  0.024586823            4 
 2587000    0.8522528   -7.1795091    764.59354   0.02462935  0.024579843            9 
 2588000   0.82739874   -7.2138166    762.95506  0.024567074  0.024572846            6 
 2589000    0.8401148   -7.2286086    763.10799  0.024562508  0.024565833            4 
 2590000   0.83790413   -7.2138529    762.83042  0.024544093   0.02455883            4 
 2591000   0.83516809   -7.2003635     763.6349  0.024560495  0.024551836            6 
 2592000   0.83670164   -7.2124478    764.01268  0.024563165  0.024544895            6 
 2593000   0.84401416   -7.2063488    764.58783  0.024572176  0.024537904            3 
 2594000   0.80998759   -7.2185997    764.92197  0.024573438  0.024530886            5 
 2595000   0.83209466   -7.2044405    764.82413  0.024560826  0.024523901           12 
 2596000   0.85249871   -7.2078389    764.14832  0.024529671  0.024516867            5 
 2597000   0.81971755   -7.2330413    763.16397   0.02448864  0.024509818            4 
 2598000   0.81503782   -7.2232014    765.44767  0.024552466  0.024502769           11 
 2599000   0.84499393   -7.2261319    766.22804   0.02456804  0.024495784            4 
 2600000   0.83687227   -7.2281644    764.70212  0.024509683  0.024488775            5 
 2601000   0.84080871   -7.2189771    766.89869  0.024570636  0.024481751            4 
 2602000   0.83814164   -7.2164809    766.04963     0.024534  0.024474706            3 
 2603000    0.8168666   -7.2176934    764.09693  0.024462061  0.024467688            3 
 2604000    0.8261213   -7.2218627    765.96513  0.024512453  0.024460708            2 
 2605000   0.82955878   -7.2172716    765.54936  0.024489743  0.024453703            5 
 2606000   0.82896707   -7.2009794    766.50864  0.024511021  0.024446722            6 
 2607000   0.83665432   -7.2047931    765.17599   0.02445902   0.02443972            5 
 2608000   0.84272417   -7.2149154    767.30459  0.024517657  0.024432774            6 
 2609000   0.84225236   -7.2260256    766.17967  0.024472329  0.024425782            3 
 2610000   0.83898462   -7.2162843    768.67677  0.024542681  0.024418827            4 
 2611000   0.83346932   -7.2313201    765.20196  0.024422378  0.024411871           10 
 2612000   0.81864334   -7.2212196    766.70433   0.02446096  0.024404869            7 
 2613000   0.83461626   -7.1982124    766.99958  0.024461015  0.024397887            3 
 2614000   0.81100815   -7.2208286    766.14568  0.024424435  0.024390893            3 
 2615000    0.8488398   -7.2441698    765.06554  0.024380674  0.024383926            5 
 2616000   0.85078143   -7.2391252    767.27853  0.024441849  0.024376954            5 
 2617000    0.8374264    -7.254807    764.79585  0.024353453  0.024369951            5 
 2618000   0.83230665   -7.2103302     766.6646  0.024403635  0.024362994            4 
 2619000   0.86285149   -7.1956702     766.4037  0.024386016  0.024356084            8 
 2620000   0.84978801   -7.2047088    767.70181  0.024417997  0.024349219            4 
 2621000    0.8398425   -7.2102093    767.52633  0.024403101  0.024342386            4 
 2622000   0.83305701   -7.2076447    766.40852  0.024358267  0.024335507            4 
 2623000   0.84985996   -7.1885633     771.0943  0.024497849  0.024328704            4 
 2624000   0.82896305   -7.2219788    766.66591  0.024347876  0.024321888            4 
 2625000    0.8334694   -7.2457564    770.34636   0.02445544  0.024315026            4 
 2626000     0.832559   -7.2306864    768.46171   0.02438632  0.024308118            3 
 2627000   0.83174303   -7.2329323    766.91803  0.024328069   0.02430118            7 
 2628000   0.82159479   -7.2159404    768.92919  0.024382585  0.024294249            4 
 2629000   0.85069834    -7.227132    768.05614  0.024345637  0.024287388            3 
 2630000   0.82202733   -7.2428094    766.86169  0.024298533  0.024280489            6 
 2631000   0.83641361   -7.2437828    767.61477   0.02431315  0.024273552            2 
 2632000   0.82495626   -7.2442739    766.99345   0.02428424  0.024266664            6 
 2633000   0.82924786   -7.2190269    768.54527  0.024324132  0.024259777            8 
 2634000    0.8253594   -7.2214362    771.23952  0.024400137  0.024252903           12 
 2635000   0.81540425   -7.2010099    770.74633  0.024375279   0.02424602            7 
 2636000   0.82879354   -7.2368654    768.94106  0.024308961   0.02423916            6 
 2637000   0.83333346   -7.2474015    768.29832  0.024279431  0.024232289            6 
 2638000   0.82700753   -7.2326428    768.81875  0.024286668  0.024225424            5 
 2639000    0.8225064   -7.2731227     767.9787  0.024250938  0.024218544            3 
 2640000   0.81993547   -7.2415716    769.97232  0.024304682  0.024211666            7 
 2641000   0.84326638   -7.2051444    770.57371  0.024314455  0.024204812            4 
 2642000    0.8382094   -7.2183537    769.90415  0.024284133  0.024197969            6 
 2643000   0.82020778   -7.2514011    769.30651  0.024256101  0.024191077            7 
 2644000   0.83625302   -7.2451298    771.12834  0.024304348  0.024184184            3 
 2645000   0.82314897   -7.1959133    770.64594   0.02427996  0.024177306            6 
 2646000   0.81251823   -7.2366423    770.98983  0.024281615  0.024170483            7 
 2647000   0.81299761   -7.2323224    771.12182  0.024276597  0.024163634            4 
 2648000   0.82514345    -7.196683    773.04084  0.024327821  0.024156835            9 
 2649000   0.82273606   -7.2151981    771.21902  0.024261326  0.024150047            3 
 2650000   0.82382266   -7.2415881     773.4556  0.024322503  0.024143229            2 
 2651000   0.80676956   -7.2277367    771.04764  0.024237635  0.024136447            5 
 2652000   0.83318337   -7.2260367    770.30957  0.024205303  0.024129682            7 
 2653000   0.82878098   -7.2473669     768.4945  0.024139166  0.024122826            5 
 2654000   0.82100856    -7.234615    771.45147  0.024222917  0.024116002            3 
 2655000   0.80893229   -7.2267331     772.8186  0.024256704  0.024109203            3 
 2656000   0.82168711   -7.2214613    772.70885  0.024244128    0.0241024            3 
 2657000   0.81891513   -7.2084653    772.73143  0.024235712  0.024095624            2 
 2658000   0.82251002   -7.1999622    772.47844  0.024218662  0.024088814            2 
 2659000   0.83603798   -7.2229664    771.84421  0.024189677  0.024081971            9 
 2660000   0.84743782   -7.2424855    771.57383  0.024172112  0.024075136            4 
 2661000   0.83040489   -7.2251337    771.46027  0.024159472  0.024068264            5 
 2662000   0.81224928    -7.236929    770.11171   0.02410818   0.02406135            5 
 2663000   0.81772584   -7.2632721    770.20228  0.024101961  0.024054408            4 
 2664000   0.83086585   -7.2462689     771.0103   0.02411819  0.024047521            7 
 2665000   0.82056783   -7.2216623    769.33929  0.024056888  0.024040657            4 
 2666000   0.81489554   -7.2206716     771.8119  0.024125153  0.024033789            9 
 2667000   0.84191191   -7.2528201    771.12833  0.024094748  0.024026929            5 
 2668000   0.83855519   -7.2295168    775.57234  0.024224523  0.024020098            3 
 2669000   0.83078154    -7.229374    771.21607  0.024079433  0.024013218            6 
 2670000   0.83764897   -7.2334581    771.51451  0.024079729   0.02400636            4 
 2671000   0.84307861   -7.2404217    773.63089  0.024136743  0.023999538            7 
 2672000   0.80403869   -7.2262512    771.95887  0.024075563  0.023992718           11 
 2673000   0.83359176   -7.2613024    771.34921   0.02404755  0.023985892            7 
 2674000   0.82916938   -7.2455228    772.68575  0.024080209  0.023979049            6 
 2675000   0.83049984    -7.202163    773.14771  0.024085598  0.023972209           14 
 2676000   0.85360175   -7.2268404    771.53487  0.024026372  0.023965418           10 
 2677000   0.84047546   -7.2235066    773.64025  0.024082936  0.023958639            2 
 2678000   0.82242862    -7.243026      773.117  0.024057661  0.023951833            6 
 2679000   0.82212382   -7.2597791    774.03301  0.024077175  0.023945059           10 
 2680000   0.84337514   -7.2300336    772.87813   0.02403228  0.023938263            3 
 2681000   0.81628729   -7.2636469    772.13755  0.024000297  0.023931432            4 
 2682000    0.8165751   -7.2490466     775.9568  0.024110017  0.023924621            6 
 2683000   0.82471861   -7.2575505    772.87475  0.024005304  0.023917802           12 
 2684000   0.82485672    -7.263771    775.03031  0.024063286  0.023911031           11 
 2685000   0.82934349    -7.225868     774.8588  0.024049001  0.023904249            5 
 2686000   0.82088803    -7.224068    775.78329  0.024068729  0.023897473            4 
 2687000   0.82931632   -7.2349667    774.93467  0.024033453  0.023890734            6 
 2688000   0.81764244   -7.2327484    775.19156  0.024032477  0.023884008            5 
 2689000   0.81140503   -7.2471619    772.05518  0.023926341  0.023877231            5 
 2690000   0.81467686   -7.2344291    775.04262  0.024009994  0.023870462            4 
 2691000   0.82584533    -7.251711     774.5526  0.023985897  0.023863646            5 
 2692000   0.81425591   -7.2530709    775.34941  0.024001653  0.023856848            6 
 2693000   0.82130617   -7.2216301    773.85251   0.02394642  0.023850047            4 
 2694000   0.83080176   -7.2493973    773.93026  0.023939936  0.023843204            6 
 2695000   0.81794925   -7.2684827     774.0952  0.023936153  0.023836343            4 
 2696000   0.82539177   -7.2266922    775.02192   0.02395592  0.023829533            7 
 2697000   0.83063197   -7.2361139    775.30632  0.023955825  0.023822733            5 
 2698000   0.83100346   -7.2362752    774.42859  0.023919835  0.023815952            4 
 2699000   0.83175427   -7.2182537    775.59778  0.023947072  0.023809208            4 
 2700000   0.82099474    -7.245399    775.19331  0.023925719  0.023802419            3 
 2701000   0.81213917   -7.2773468    774.07953  0.023882498  0.023795568            5 
 2702000   0.83231685    -7.234349    774.75916   0.02389462  0.023788748            4 
 2703000   0.81683172   -7.2452411    776.40784  0.023936609  0.023781922            2 
 2704000   0.81625294   -7.2399167     774.5845  0.023871564  0.023775128            6 
 2705000   0.82309578   -7.2142302    775.77721  0.023899483  0.023768319            3 
 2706000   0.81143212   -7.2526383    776.04235  0.023898816  0.023761527            7 
 2707000   0.83504603   -7.2310776    775.66523  0.023878378  0.023754741            6 
 2708000   0.81339106   -7.2393849    775.74169  0.023871913  0.023747915            5 
 2709000   0.81953022   -7.2324838    773.11381  0.023782263  0.023741101            7 
 2710000   0.81675492   -7.2307282    775.17198  0.023836777  0.023734297            3 
 2711000   0.79825761   -7.2323817    774.62805  0.023811264  0.023727462            5 
 2712000   0.82824922   -7.2501449    775.23438  0.023821116  0.023720653            8 
 2713000   0.81584473   -7.2392576    775.01115  0.023805478  0.023713836            4 
 2714000   0.82560609   -7.2661686    775.06038  0.023798218  0.023706988            5 
 2715000   0.80873762     -7.25147    775.64616  0.023807433  0.023700127            8 
 2716000   0.82442835   -7.2129165    776.17009  0.023814743  0.023693269            4 
 2717000   0.81742635   -7.2657804    776.09101  0.023803552  0.023686384            9 
 2718000   0.80588159   -7.2564495    775.12589  0.023765204  0.023679523           10 
 2719000   0.81448304   -7.2617512    774.41956  0.023734816  0.023672631            3 
 2720000   0.82270369   -7.2533179    774.38925  0.023725161  0.023665748            4 
 2721000   0.81523707   -7.2450263    777.59708  0.023814684  0.023658897            6 
 2722000   0.82371505   -7.2399005    776.35782  0.023767996  0.023652047            6 
 2723000   0.82494974   -7.2684375    774.89767  0.023714582  0.023645159           11 
 2724000   0.82902187   -7.2976443    773.81909   0.02367288  0.023638285            8 
 2725000   0.81544609   -7.2443176    774.90793   0.02369749   0.02363138            4 
 2726000   0.80926252    -7.232054    776.67278  0.023742748  0.023624535            5 
 2727000    0.8191679   -7.2639159    774.27208   0.02366068  0.023617676           14 
 2728000   0.80087503   -7.2409937    776.78397  0.023728738  0.023610813           13 
 2729000   0.82211452    -7.236712    774.82374  0.023660185   0.02360397            7 
 2730000   0.82728478   -7.2556873    776.34137  0.023697844  0.023597082            7 
 2731000   0.82159756   -7.2589593     775.4628  0.023662358  0.023590193            9 
 2732000   0.81039042   -7.2644515    777.38033  0.023712187  0.023583308           10 
 2733000   0.83585496   -7.2625947    776.36764  0.023672632  0.023576471            5 
 2734000   0.81894401   -7.2427201    776.30795  0.023662154  0.023569643            3 
 2735000   0.82196521    -7.244289    778.45742  0.023718995   0.02356284            3 
 2736000   0.81882109   -7.2652817    776.42236  0.023648342  0.023556017           10 
 2737000   0.82195015   -7.2630083      776.614  0.023645536  0.023549175            5 
 2738000   0.79628174   -7.2626447    774.88491  0.023584274  0.023542345            9 
 2739000   0.80023681   -7.2681169    775.30126  0.023588331  0.023535506            5 
 2740000   0.80474005   -7.2917399    775.84965    0.0235964  0.023528666            6 
 2741000    0.8161051   -7.2477614     776.2864   0.02360107  0.023521811            4 
 2742000   0.81927486   -7.2755277    774.18558  0.023528616  0.023514974            3 
 2743000    0.7966341   -7.2435392    776.20335  0.023581339  0.023508094            5 
 2744000   0.81352338   -7.2797579    775.78831  0.023560141  0.023501209            8 
 2745000   0.81803115   -7.2605831    777.56503  0.023605496  0.023494365            5 
 2746000   0.80549599   -7.2426706    776.74028   0.02357187  0.023487522            5 
 2747000   0.79940717    -7.246778    777.24626  0.023578639  0.023480684            5 
 2748000   0.80024576    -7.248873    777.49842  0.023577706  0.023473788            3 
 2749000   0.81175123   -7.2855228    775.98129  0.023523138  0.023466886            3 
 2750000   0.80761243   -7.2820181    776.54521  0.023531673  0.023459995            7 
 2751000   0.81183792   -7.2360392    774.63273  0.023465186  0.023453096            5 
 2752000   0.81610035    -7.296141    775.34236  0.023478148  0.023446146            5 
 2753000   0.82169599   -7.2760182    777.48483  0.023534473  0.023439207            4 
 2754000   0.81835828    -7.269337    774.40287   0.02343267  0.023432272            8 
 2755000    0.8110355   -7.2724836    774.13331  0.023416011  0.023425326            6 
 2756000   0.79316953   -7.2699117     777.1493  0.023498709  0.023418359            3 
 2757000   0.81427156   -7.2538036    775.79669  0.023449301  0.023411411            9 
 2758000   0.80973754   -7.2509003    777.19364  0.023483008  0.023404467            7 
 2759000   0.81634752   -7.2240814    777.82772  0.023493649  0.023397527            4 
 2760000   0.81787504   -7.2708907    775.75313  0.023422498  0.023390623            2 
 2761000   0.81278321   -7.2580418    777.42492  0.023464473  0.023383756            3 
 2762000   0.79935187   -7.2444183    776.98734  0.023442775  0.023376869            5 
 2763000   0.79809693   -7.2490964    777.00445  0.023434807  0.023369977            6 
 2764000   0.80691649   -7.2701122    777.41936  0.023438838  0.023363047            4 
 2765000   0.80171176   -7.2722622     778.0016  0.023447908  0.023356121            4 
 2766000   0.78848926   -7.2633576    776.76154  0.023402071  0.023349125            6 
 2767000   0.80855011   -7.2478171    776.54867  0.023387202  0.023342163           12 
 2768000   0.80529738   -7.2643267     775.9923  0.023362003   0.02333519            3 
 2769000   0.78296847   -7.2783602    775.70143  0.023344813  0.023328187            4 
 2770000   0.80548835   -7.2673069     777.3649  0.023386429   0.02332122            3 
 2771000   0.81576592   -7.2473129    775.79955  0.023330914  0.023314285            4 
 2772000   0.82728586   -7.2292753    778.72133  0.023410333  0.023307348            3 
 2773000   0.80711614   -7.2726166    778.61733  0.023398766  0.023300382            3 
 2774000    0.8073028   -7.2574142    777.33819  0.023351904   0.02329345            5 
 2775000   0.79943094   -7.2973564    777.81645  0.023357851  0.023286528            8 
 2776000   0.81861174   -7.2691594    778.31289   0.02336434  0.023279596            4 
 2777000   0.80397234   -7.2520944    777.87631  0.023342825  0.023272688           16 
 2778000   0.80735629   -7.2629279    779.54012  0.023384333  0.023265801            5 
 2779000   0.79814728   -7.2519362      778.326   0.02333951  0.023258918           11 
 2780000   0.80750635   -7.2912421    777.09935  0.023294345  0.023251998            8 
 2781000   0.82109524   -7.2687938     778.4935  0.023327745  0.023245076            9 
 2782000    0.7927539   -7.2623249    775.63712  0.023233798  0.023238157            2 
 2783000    0.7913068   -7.2276735    778.91942  0.023323734  0.023231246            4 
 2784000    0.8114483   -7.3020186    776.64281  0.023247211  0.023224326            5 
 2785000   0.81369264   -7.2910845    778.35466  0.023290085    0.0232174            5 
 2786000   0.81891079   -7.2461269    777.97408  0.023270342   0.02321048            5 
 2787000   0.80233469    -7.283286    777.52784   0.02324865  0.023203584            5 
 2788000   0.79983828   -7.2659841    779.19603  0.023290173  0.023196659            3 
 2789000   0.81977545   -7.2825902    778.58149   0.02326346  0.023189733            8 
 2790000   0.79362877   -7.3133272    777.72675  0.023229592  0.023182828            5 
 2791000   0.80659466   -7.2812175    778.48866  0.023244018  0.023175903            4 
 2792000   0.81385798    -7.278882    778.61092  0.023239342   0.02316902            4 
 2793000   0.80256844   -7.2685912    779.90351  0.023269588   0.02316215            5 
 2794000   0.79645112   -7.2783146    780.45779  0.023277791  0.023155307            6 
 2795000   0.82290809   -7.2780988    780.22905  0.023262643  0.023148455            3 
 2796000   0.81012078   -7.2616087     778.7187  0.023209308  0.023141609            6 
 2797000   0.82281555   -7.2747303     778.2553  0.023187203  0.023134739           10 
 2798000   0.81721337   -7.2732465    779.03165  0.023202039  0.023127886            6 
 2799000   0.80139365   -7.2606129    780.24734  0.023229943  0.023121042            3 
 2800000   0.79620104   -7.2736011     781.4537  0.023257551  0.023114197           11 
 2801000   0.79846323   -7.2506657    780.54613  0.023222246  0.023107362            5 
 2802000   0.81021022   -7.2612497    780.38943  0.023209298  0.023100542            3 
 2803000   0.81590775   -7.2874731    779.53919   0.02317574  0.023093692            8 
 2804000   0.83128235    -7.291257     780.2745  0.023189328  0.023086807            5 
 2805000   0.81679665   -7.2887683    780.47333  0.023186968  0.023079949            6 
 2806000   0.79079142    -7.287416    779.27093  0.023142995  0.023073089           11 
 2807000   0.80346737   -7.2772719     779.5208  0.023142168  0.023066211            8 
 2808000   0.80837849   -7.2952364    779.50601  0.023133488  0.023059334            5 
 2809000   0.80514588    -7.287936    780.95711  0.023168302  0.023052428            4 
 2810000   0.80671991   -7.2811991    780.63468  0.023150495  0.023045511            6 
 2811000   0.80944389    -7.292933    780.98108  0.023152528  0.023038624            6 
 2812000   0.79848944    -7.276583    780.22995  0.023122035  0.023031792           10 
 2813000   0.79091933   -7.2911316    778.43883  0.023060755  0.023024913            6 
 2814000   0.80350421   -7.3177367     780.7744  0.023121725  0.023018023            4 
 2815000   0.79275223   -7.3004693    779.71134  0.023082041  0.023011164            7 
 2816000   0.81418404   -7.2342793    781.35814  0.023122578  0.023004324            9 
 2817000   0.80003031   -7.2720814    781.37408  0.023114841  0.022997497            4 
 2818000   0.77418589   -7.3074233    781.34686  0.023105833  0.022990672            7 
 2819000   0.79606247   -7.2474565    782.14385  0.023121197  0.022983829            8 
 2820000    0.8059974   -7.3025535    780.47971  0.023063821  0.022977022            4 
 2821000    0.8012979   -7.2494283    780.71722  0.023062661  0.022970215            6 
 2822000   0.81829196   -7.3034301     781.3845  0.023074194   0.02296345           10 
 2823000   0.78481544   -7.2997747    780.92877  0.023052567  0.022956677           10 
 2824000    0.8385737   -7.2907435    781.29295  0.023055151  0.022949885            4 
 2825000   0.80759052   -7.2880094    780.41706  0.023021152  0.022943124            3 
 2826000   0.79340567   -7.2699077    781.72281   0.02305151  0.022936318           10 
 2827000   0.80283321   -7.2928143    782.14359   0.02305576  0.022929497            5 
 2828000   0.81393482   -7.2537496    782.50542  0.023058269  0.022922675            7 
 2829000   0.80549959   -7.2925473    782.58067  0.023052335  0.022915849            3 
 2830000   0.78852486   -7.2961886    780.09269  0.022970927  0.022909006            6 
 2831000   0.78092281    -7.268059     779.6146   0.02294874  0.022902138            5 
 2832000   0.79587411   -7.3074396    781.17046  0.022986419  0.022895254            9 
 2833000   0.79603973    -7.302296    780.48525   0.02295815   0.02288839            3 
 2834000   0.79763792   -7.2888044    782.53125  0.023010211  0.022881547            5 
 2835000   0.79413309   -7.3017359    782.55689  0.023002848  0.022874672            3 
 2836000   0.79631956   -7.2894671    781.55838  0.022965397  0.022867815            2 
 2837000   0.79544182   -7.2875095    781.63329  0.022959502  0.022860985            5 
 2838000   0.78952281   -7.2916815    782.28445  0.022970532   0.02285415            8 
 2839000   0.80735243   -7.3175728    782.40556  0.022965996  0.022847307            8 
 2840000   0.78757316   -7.3210679    782.79906  0.022969456  0.022840434            7 
 2841000   0.79686466   -7.3030582    781.54215  0.022924503  0.022833575            4 
 2842000   0.79610921   -7.2863628    782.40876  0.022941847  0.022826712            4 
 2843000   0.78103665   -7.3267453    782.94932  0.022949622  0.022819871            6 
 2844000   0.77907106   -7.2998175    781.95318  0.022912365  0.022812998            7 
 2845000   0.79907897   -7.2951941    781.68573  0.022896477  0.022806138            8 
 2846000   0.78930227    -7.302099     782.2984  0.022906372  0.022799296            4 
 2847000   0.81217353   -7.3079701    780.97276  0.022859523  0.022792468            6 
 2848000   0.81194926   -7.2965705    782.55422  0.022897771  0.022785639            7 
 2849000   0.79840375   -7.3237558      781.848  0.022869077  0.022778783            5 
 2850000   0.80558079   -7.3273354    781.37849  0.022847324  0.022771889            4 
 2851000    0.7987622   -7.3167595    781.94483  0.022855864  0.022764981            7 
 2852000   0.79063026   -7.2763389    782.72698  0.022870704  0.022758105            5 
 2853000   0.79018914   -7.3045717    782.05451  0.022843046  0.022751292            6 
 2854000   0.81516047   -7.2785181    784.26553  0.022899601  0.022744512            3 
 2855000   0.79725258    -7.250474    782.41923  0.022837689  0.022737706            8 
 2856000   0.78331761   -7.3068843    784.17853  0.022881026  0.022730889            6 
 2857000    0.7980446    -7.304626    782.99027  0.022838358  0.022724063            5 
 2858000   0.78881666   -7.2762686    781.80996  0.022795952  0.022717261            4 
 2859000   0.79940097   -7.3192719    782.79922  0.022816813  0.022710449            3 
 2860000   0.78464133   -7.2845851      783.981  0.022843269  0.022703644            4 
 2861000   0.79592881    -7.262669    782.63573  0.022796101  0.022696928           12 
 2862000   0.76943718   -7.2650305    783.65394  0.022817783  0.022690161            4 
 2863000   0.79106914    -7.290346    782.91265  0.022788236  0.022683356            7 
 2864000   0.78021278   -7.3047192    783.69735  0.022803112  0.022676576            6 
 2865000   0.78338274   -7.3134941    785.54309  0.022848839  0.022669786            5 
 2866000   0.78881177   -7.3223169    783.96672  0.022795031  0.022663012            9 
 2867000   0.78466846   -7.2707393    783.17689  0.022764123   0.02265625            7 
 2868000   0.78533629   -7.3084234    785.55416   0.02282526  0.022649489            9 
 2869000   0.79755266    -7.311811    783.49894  0.022757608  0.022642696            6 
 2870000   0.78637067   -7.2893138    785.22443   0.02279978  0.022635978            5 
 2871000   0.80041334   -7.3091863    785.25941  0.022792854  0.022629247            3 
 2872000    0.7977175   -7.3110274    784.82312  0.022772258  0.022622536            6 
 2873000   0.78291799    -7.304712    785.01764  0.022769975  0.022615828            2 
 2874000   0.79374149   -7.3146325    785.94647  0.022788984   0.02260914            3 
 2875000    0.8004681   -7.3058775    786.98839  0.022811258  0.022602444            5 
 2876000   0.79165402   -7.3351578    786.96289  0.022802587  0.022595724            9 
 2877000   0.78980902   -7.3045498    787.02274  0.022796395  0.022589043            4 
 2878000   0.78851826   -7.2989059    786.40082  0.022770466  0.022582369            3 
 2879000   0.80329797   -7.3234246    784.55631  0.022709167  0.022575698            6 
 2880000    0.7731066   -7.3167896    785.29439  0.022722639     0.022569            6 
 2881000    0.7821002   -7.3160215    787.59356  0.022781255  0.022562313            6 
 2882000   0.78493569   -7.2978922    786.61526  0.022745063  0.022555654            6 
 2883000    0.7983958   -7.3163371    786.79318  0.022742316  0.022548994            4 
 2884000   0.78513484   -7.2801181    785.86404  0.022707583  0.022542305            6 
 2885000   0.80389094   -7.3153093    785.53654  0.022690253  0.022535637            4 
 2886000   0.78995056   -7.3254601    787.47234  0.022738286  0.022528953            5 
 2887000   0.78922306   -7.2876144     786.6396  0.022706373  0.022522283            4 
 2888000   0.80409728   -7.3127299    787.00709  0.022709115  0.022515618            8 
 2889000    0.7995069   -7.2887171    785.99107  0.022671947  0.022508976           11 
 2890000   0.77331485   -7.3111467    785.39621   0.02264695  0.022502281            7 
 2891000   0.80303784   -7.3480556    785.41477  0.022639651  0.022495538            5 
 2892000   0.80303809    -7.312582    783.69186  0.022582177   0.02248883            8 
 2893000   0.78293661   -7.2800272    789.15513  0.022731741  0.022482146            5 
 2894000   0.77942089   -7.2836321    786.66463  0.022652172  0.022475468            6 
 2895000   0.79384595   -7.3058633    785.28627  0.022604671  0.022468792            5 
 2896000   0.79226703   -7.2899072    785.16916  0.022593496  0.022462075            5 
 2897000   0.78940665   -7.2899907    785.56124  0.022596975  0.022455344            2 
 2898000   0.78297933   -7.2929777    787.37108   0.02264122   0.02244863            3 
 2899000   0.78721495    -7.289905    786.05137  0.022595475  0.022441969            4 
 2900000   0.76753502   -7.3289882    786.92773  0.022612866  0.022435276            4 
 2901000   0.78220335   -7.3093181    786.37881  0.022589303  0.022428586            4 
 2902000   0.80019277   -7.3241894    787.11485  0.022602655  0.022421864            9 
 2903000   0.78747353    -7.319447    785.87676  0.022559328  0.022415165            9 
 2904000   0.79532819   -7.3006145    785.78565  0.022548945  0.022408472           10 
 2905000   0.77561493   -7.3324317    785.70317  0.022538817   0.02240178           10 
 2906000   0.80077948   -7.3257211    785.66376  0.022529931  0.022395088            7 
 2907000   0.78838481   -7.2999774    788.30684  0.022597949  0.022388431            4 
 2908000    0.7793054   -7.3256901    787.25096   0.02255992  0.022381779            3 
 2909000    0.7663378   -7.3063817    786.20573  0.022522222  0.022375065            9 
 2910000   0.78175199   -7.3327416    785.99057  0.022508321  0.022368386            8 
 2911000   0.78280583   -7.3326631    785.95186  0.022499481  0.022361713            6 
 2912000   0.78689307   -7.3289739    785.40964  0.022476237  0.022354995            9 
 2913000    0.7816856   -7.3283086    785.34691  0.022466727   0.02234828            6 
 2914000   0.76841459    -7.304757    788.92802  0.022561428  0.022341593            4 
 2915000   0.78925502   -7.2873784    786.99474   0.02249842   0.02233494            5 
 2916000   0.78270793   -7.3502244    787.76854  0.022512818  0.022328263            4 
 2917000   0.78089329   -7.3480924     785.9537  0.022453254  0.022321545            5 
 2918000   0.78439258   -7.3407696    786.64074   0.02246518  0.022314816            4 
 2919000   0.78889897   -7.3332977    786.98824  0.022467404  0.022308114            7 
 2920000    0.7870629   -7.3463427    786.86527  0.022456201  0.022301411            7 
 2921000   0.78610955     -7.33082    785.24922  0.022402408  0.022294699            8 
 2922000   0.78189934   -7.3350726     785.2319  0.022394248  0.022287972            5 
 2923000   0.76763079   -7.3302946    786.47612  0.022422058  0.022281214            9 
 2924000   0.77598412   -7.3236458    786.80691  0.022423818  0.022274468           13 
 2925000   0.80517636   -7.3491543    786.01583  0.022393613  0.022267712            6 
 2926000   0.77266751   -7.3332795    787.45776  0.022427027  0.022261013           12 
 2927000   0.75910687   -7.3310192    787.68795  0.022425918  0.022254341            6 
 2928000    0.7938848   -7.3284547    787.78072  0.022420899  0.022247676            8 
 2929000    0.7853079   -7.3378445     786.9659  0.022390062  0.022240952            5 
 2930000   0.77205956   -7.3420537    788.18527  0.022417101  0.022234284            4 
 2931000   0.78703561   -7.3269475    788.60337   0.02242134  0.022227592            4 
 2932000   0.77745016   -7.3424407     788.2852   0.02240465  0.022220887            5 
 2933000   0.78396555   -7.3269389    786.33409  0.022341575  0.022214128            6 
 2934000   0.76770762   -7.3224597    787.94453  0.022379702  0.022207374            4 
 2935000   0.78532567   -7.3549108     785.6937  0.022308169  0.022200651            5 
 2936000   0.79538899   -7.3446201      788.346  0.022375851  0.022193908            4 
 2937000   0.77853893   -7.3365749    788.87265  0.022383176  0.022187235            6 
 2938000   0.78793446   -7.3648529    786.45263  0.022306916  0.022180565           19 
 2939000   0.76778651   -7.3015333     788.8246  0.022366582  0.022173901            5 
 2940000   0.79687754   -7.3067102    787.31074  0.022316064  0.022167263            4 
 2941000   0.78343512   -7.3068893    788.23265  0.022334598   0.02216059            6 
 2942000    0.7948351   -7.3312179    787.65619  0.022310678  0.022153888            3 
 2943000   0.76936276   -7.3161621    789.43353  0.022353424  0.022147192            6 
 2944000   0.78974071   -7.3579026    787.03664  0.022277985  0.022140469            4 
 2945000   0.77242397   -7.3366627    789.46659  0.022339179  0.022133779            8 
 2946000   0.78135753   -7.3398074    788.69603  0.022309799  0.022127086           11 
 2947000   0.78140548   -7.3473844    787.52035  0.022268984  0.022120403            5 
 2948000    0.7685292   -7.3492967    787.67536  0.022265812  0.022113703            4 
 2949000   0.78657214   -7.3683691     789.7278   0.02231626  0.022107018            5 
 2950000   0.77916944   -7.3303563     788.9732  0.022287379  0.022100371            3 
 2951000    0.7784767   -7.3362061    786.80046   0.02221847  0.022093712            8 
 2952000   0.78057424   -7.3348475    791.02121  0.022330093  0.022087047            9 
 2953000    0.7812277   -7.3181592    788.31914  0.022246279  0.022080441            3 
 2954000   0.78445944   -7.3129533    790.07811  0.022288369  0.022073845            2 
 2955000   0.77476795   -7.3234245    790.38382  0.022289448  0.022067241            7 
 2956000    0.7743686   -7.3241506    790.36286  0.022281316  0.022060643            4 
 2957000   0.79883306   -7.3304862    788.39027   0.02221819  0.022054017           14 
 2958000   0.76633239   -7.3293568    789.12206  0.022231295  0.022047413            8 
 2959000    0.7798324   -7.3190342    790.97874  0.022276071  0.022040792            3 
 2960000   0.78812753    -7.353143    790.39845  0.022252208   0.02203418           11 
 2961000   0.78199784   -7.3683319    790.69652  0.022253082  0.022027566            8 
 2962000   0.78915575   -7.3421972    789.07504  0.022199951  0.022020955            8 
 2963000   0.75770668    -7.351159    789.25505  0.022197521  0.022014368           12 
 2964000   0.78113582     -7.34158    789.34221  0.022192482  0.022007776           17 
 2965000    0.7869687   -7.3290751    790.64647  0.022221655  0.022001194           11 
 2966000   0.77984937   -7.3452449    791.13164  0.022227794  0.021994629           12 
 2967000   0.78212473   -7.3262454    792.22495   0.02225101  0.021988058            6 
 2968000   0.77988447   -7.3559956    791.41716  0.022220832  0.021981498            6 
 2969000   0.77990247   -7.3249318    791.70797   0.02222151  0.021974915            4 
 2970000   0.76520499   -7.3298122    790.83172  0.022189442  0.021968329            2 
 2971000    0.7535159   -7.3720038    788.60226   0.02211944  0.021961711            4 
 2972000   0.77699537   -7.3540561     790.3861  0.022162015  0.021955106            5 
 2973000   0.77256824   -7.3397514    790.73192  0.022164254  0.021948522            3 
 2974000   0.77604288   -7.3216765    791.42639  0.022176261  0.021941935            7 
 2975000   0.76201103   -7.3359838    791.26145  0.022164186  0.021935367            5 
 2976000   0.76740735   -7.3243642    790.06749  0.022123306   0.02192877            4 
 2977000   0.78654814   -7.3073768    792.90209  0.022195221  0.021922191            4 
 2978000   0.77556377   -7.3102721    792.44749  0.022175047  0.021915634            8 
 2979000   0.77615072   -7.3330646    792.47209  0.022168292  0.021909066            4 
 2980000     0.798009   -7.3008785    791.77617  0.022141392  0.021902514            3 
 2981000   0.76157287   -7.3327098     791.1456  0.022116337  0.021895976            4 
 2982000   0.77475655   -7.3268005    791.29228  0.022113019  0.021889438            4 
 2983000   0.78922413   -7.3523757    792.34734   0.02213508  0.021882901            7 
 2984000   0.76550347   -7.3415394    790.54672  0.022077377  0.021876313            8 
 2985000   0.79124825   -7.3336748    790.60695  0.022071663  0.021869707            6 
 2986000   0.77837557   -7.3377112    790.92182  0.022073058  0.021863134            9 
 2987000   0.77490219   -7.3358844    791.90758   0.02209317  0.021856542            3 
 2988000   0.76893251   -7.3305458    791.94483  0.022086815  0.021849949            3 
 2989000   0.77791455   -7.3520968    791.10424   0.02205599  0.021843382            5 
 2990000   0.77434493   -7.3595142    791.29095  0.022053817  0.021836816            4 
 2991000   0.78631024   -7.3371732    790.51002  0.022024686  0.021830229           11 
 2992000   0.77823718   -7.3651481    791.97381  0.022058094  0.021823612            4 
 2993000    0.7721878   -7.3331474    791.16655  0.022028248  0.021816998            4 
 2994000   0.77498562   -7.3372186    791.65419  0.022034463  0.021810409            4 
 2995000   0.76860344   -7.3277819    791.29431  0.022017093  0.021803838            9 
 2996000   0.76729606   -7.3403411    791.59305  0.022018053  0.021797245            5 
 2997000   0.78312953   -7.3459726    792.41324  0.022033512  0.021790649            5 
 2998000   0.76045324   -7.3276423    793.45052  0.022054995  0.021784067            7 
 2999000   0.77518758   -7.3356999    791.14289  0.021983519  0.021777509            5 
 3000000   0.78004154   -7.3371755    792.36364  0.022010101  0.021770958            6 
 3001000    0.7802531   -7.3519316    791.45654  0.021977578  0.021764397            8 
 3002000   0.79090168   -7.3610283     793.5456  0.022028248  0.021757841            7 
 3003000   0.76555363   -7.3446085    790.47627  0.021935738  0.021751294            5 
 3004000   0.76392739   -7.3258025    793.61863  0.022015608  0.021744749            9 
 3005000   0.77064686   -7.3721828    793.35996  0.022001108   0.02173819            9 
 3006000   0.77313628   -7.3714244    793.53018  0.021998508  0.021731611            6 
 3007000   0.76148051   -7.3574532     791.8397  0.021944344  0.021725081           11 
 3008000   0.76367052   -7.3655196    790.50086  0.021899957  0.021718516           11 
 3009000   0.78284723   -7.3443193    794.26036  0.021996797  0.021711987            6 
 3010000   0.76029753   -7.3198013    792.70897  0.021946539  0.021705466            4 
 3011000   0.77580935   -7.3692375    792.19242  0.021924953  0.021698879            7 
 3012000   0.76078091    -7.374647    792.51993  0.021926735  0.021692314           17 
 3013000   0.77745472   -7.3930525    789.79375  0.021844058  0.021685698            6 
 3014000   0.76976808   -7.3850213    790.48201   0.02185584  0.021679069            6 
 3015000   0.77823634   -7.3836096    790.33493  0.021844525  0.021672401            7 
 3016000   0.76178217   -7.3755801    790.96863  0.021854792  0.021665724            9 
 3017000   0.75920732   -7.3911926    790.02671  0.021821531  0.021659046            6 
 3018000   0.77248883   -7.3849891    790.02654  0.021814296  0.021652361            7 
 3019000   0.77616164   -7.3758792    789.96956  0.021805497  0.021645669            7 
 3020000   0.75683659   -7.3657833    789.69404  0.021790674  0.021639041            6 
 3021000   0.77126321   -7.3782294    790.05167  0.021793326   0.02163239           11 
 3022000     0.773359   -7.3540916    790.01912  0.021785217  0.021625755            5 
 3023000   0.75379387   -7.3740129    791.26648  0.021812396  0.021619106            6 
 3024000   0.78363879   -7.3564317    792.23815   0.02183196  0.021612513           10 
 3025000   0.77025621   -7.3702709    790.70026  0.021782376  0.021605902            5 
 3026000   0.75353553   -7.3918278    791.16962  0.021788104  0.021599299            4 
 3027000   0.77155946   -7.3780906    791.45048  0.021788638  0.021592697            5 
 3028000   0.78380282   -7.3623013    792.45381  0.021809055  0.021586106            5 
 3029000    0.7702693   -7.3534854    792.53966  0.021804216  0.021579547            9 
 3030000   0.77908387   -7.3549498    794.40279  0.021848261  0.021573001            4 
 3031000   0.77737638   -7.3379175     792.7395  0.021795323  0.021566446            2 
 3032000   0.77267803   -7.3620412     793.2638  0.021802545  0.021559873            5 
 3033000   0.76063957   -7.3789358     791.5299  0.021747717    0.0215533           15 
 3034000   0.76496163   -7.3568858      790.793  0.021720309  0.021546687           12 
 3035000   0.74952521   -7.3690815    790.31976  0.021700158  0.021540101            3 
 3036000   0.76774442   -7.3590939    791.85081  0.021735035   0.02153349            6 
 3037000   0.77988119   -7.3784786    793.29045  0.021767382  0.021526911            7 
 3038000   0.76264021   -7.3827069     790.6947  0.021689014  0.021520283            8 
 3039000   0.77445803    -7.370753    793.43813  0.021757106  0.021513678            8 
 3040000   0.78346859   -7.3791605    791.83252  0.021705935  0.021507097           10 
 3041000   0.76311591   -7.3659318    791.39985  0.021686941  0.021500514            7 
 3042000   0.76396938   -7.4098527    792.54705  0.021711239  0.021493892           10 
 3043000   0.76505716   -7.3627833    792.42315  0.021700711  0.021487281            5 
 3044000   0.76941723    -7.366775    792.15468  0.021686232  0.021480682            9 
 3045000   0.76657574   -7.4054235    791.81542  0.021669825   0.02147411            7 
 3046000   0.76287884   -7.3757736    793.59903  0.021711508  0.021467492            4 
 3047000   0.76778855   -7.4003474    791.58997  0.021649436  0.021460853           10 
 3048000   0.75316685   -7.3901381    792.28419  0.021661313  0.021454203            8 
 3049000   0.77090849   -7.3930928    791.60325  0.021635598   0.02144756            5 
 3050000   0.75898516    -7.409507    791.77641  0.021633235  0.021440924            3 
 3051000   0.76169414   -7.3741628    792.50949  0.021646168    0.0214343            4 
 3052000   0.76313297   -7.3859685    791.01027   0.02159814  0.021427672            5 
 3053000   0.75465719   -7.3558977    791.68204  0.021609402  0.021421071            9 
 3054000   0.77517359    -7.361687    792.62419  0.021628034  0.021414477           11 
 3055000   0.77105613   -7.3602233    794.31596  0.021667102  0.021407882            7 
 3056000   0.76853466   -7.3928808    791.47178  0.021582455  0.021401274            3 
 3057000   0.77883415   -7.3777916    792.11358   0.02159289  0.021394685            6 
 3058000   0.76157255   -7.3828109    791.06703  0.021557309  0.021388098           14 
 3059000   0.76594391   -7.3769298    793.78655  0.021624347  0.021381506           11 
 3060000   0.77703112   -7.3673921     794.0327  0.021623984  0.021374947            3 
 3061000   0.76437966   -7.3617192    792.33741  0.021570767  0.021368394            4 
 3062000   0.76065613   -7.3716991    793.94682  0.021607523  0.021361865           10 
 3063000   0.75522341   -7.3545691    795.44723  0.021641289  0.021355329            5 
 3064000   0.76351845   -7.3818773    794.58015  0.021610644  0.021348781            6 
 3065000   0.75879334   -7.4019161    791.84373  0.021529193  0.021342215           12 
 3066000   0.76560846   -7.3752967     793.1886  0.021558725  0.021335642            8 
 3067000   0.78185969   -7.3566782    793.21605  0.021552441  0.021329098            9 
 3068000   0.76286653   -7.3792403    792.93734  0.021537846  0.021322567            4 
 3069000   0.76359356   -7.3646763    793.50848  0.021546337  0.021316035            7 
 3070000   0.76591064   -7.3743953    794.42819  0.021564283  0.021309487            8 
 3071000   0.75734046   -7.3934467    794.28322  0.021553327  0.021302941            6 
 3072000   0.77116753   -7.3758647    793.33031  0.021520462  0.021296386            4 
 3073000   0.78004709   -7.3870221    794.92154   0.02155661  0.021289829            6 
 3074000   0.76378619   -7.3800207    794.26747  0.021531866  0.021283275            4 
 3075000   0.76274625   -7.3968203    792.59523  0.021479545  0.021276727            5 
 3076000   0.75780359   -7.3760406    793.22596   0.02148965  0.021270204            7 
 3077000   0.77429337   -7.3719058    794.07277    0.0215056    0.0212637            3 
 3078000     0.764121   -7.3606094    794.11829  0.021499845  0.021257199            6 
 3079000   0.75896053   -7.3876592    795.16618  0.021521224  0.021250676            5 
 3080000   0.75720356    -7.375644    794.64862  0.021500233  0.021244149            5 
 3081000   0.76638887    -7.378417      795.372  0.021512821  0.021237677            6 
 3082000   0.77203968   -7.3579062    794.57032  0.021484164  0.021231175            5 
 3083000   0.74915966   -7.3797608    794.64731  0.021479276  0.021224677            4 
 3084000   0.74962256   -7.4239344    794.68681  0.021473379  0.021218174            7 
 3085000   0.75838444   -7.3871181    795.81121  0.021496791  0.021211662            4 
 3086000   0.76108327   -7.3922329    796.33895  0.021504076  0.021205179            7 
 3087000   0.76420579   -7.3948664    795.24407  0.021467554   0.02119869           14 
 3088000   0.75916183   -7.3633216    794.39366  0.021437653  0.021192213            4 
 3089000    0.7621031   -7.3668262    797.01845  0.021501523  0.021185737           15 
 3090000   0.75411052   -7.4041609    793.57531  0.021401707  0.021179274            6 
 3091000   0.75318188   -7.3828237    795.20661  0.021438763   0.02117279            5 
 3092000   0.75861142   -7.3791251    794.52362  0.021413422  0.021166323            3 
 3093000   0.76886449    -7.380414    794.40115  0.021403199  0.021159866            3 
 3094000   0.75898236   -7.3642919    797.26905  0.021473525  0.021153399            7 
 3095000   0.76349549   -7.3874744    795.78591  0.021426654  0.021146926           12 
 3096000   0.76954471   -7.4031807    794.59782  0.021387754   0.02114045           12 
 3097000   0.75229784   -7.3887626    796.50834  0.021432255  0.021133978            6 
 3098000   0.77318333   -7.3838328    795.04275  0.021385914  0.021127531           12 
 3099000   0.75261118   -7.4196735    796.52733  0.021418934  0.021121052           13 
 3100000   0.75168859    -7.405836     794.9741  0.021370272  0.021114563           13 
 3101000   0.78202942   -7.4128376    795.93185  0.021389118  0.021108091            9 
 3102000   0.75336678   -7.3927574    797.33436    0.0214199  0.021101664           13 
 3103000   0.75104469   -7.3937525    796.07606  0.021379204  0.021095266            7 
 3104000   0.76228913   -7.4025551    797.26667  0.021404281  0.021088869            6 
 3105000   0.75554181   -7.3645903    801.03893  0.021498629  0.021082496            6 
 3106000   0.74854546   -7.3856934    797.05782  0.021384895   0.02107614            4 
 3107000   0.74347776   -7.3803995    796.00794  0.021349854  0.021069761            7 
 3108000   0.76225858   -7.4067151    797.74654  0.021389601   0.02106335            4 
 3109000   0.73330823   -7.3909241    797.22017  0.021368612  0.021056953            8 
 3110000   0.76389885   -7.3881622    797.11112  0.021358819  0.021050569            5 
 3111000    0.7518693   -7.3954673     799.5547  0.021417409  0.021044185           10 
 3112000   0.75591856   -7.4005605    794.78219  0.021282728  0.021037803            4 
 3113000   0.75477014   -7.4245216    798.27603  0.021369419   0.02103139            6 
 3114000   0.74512679   -7.3874162    798.87118  0.021378484  0.021025001            5 
 3115000   0.74793937   -7.3985388    797.87921  0.021345083  0.021018616            5 
 3116000    0.7695854     -7.41093    798.99992  0.021368205  0.021012238            5 
 3117000   0.76385846   -7.3729588    795.70462  0.021273249  0.021005854            5 
 3118000   0.75308087   -7.3883574    796.84947  0.021297025   0.02099947            4 
 3119000   0.74679659   -7.3752052    797.16679  0.021298675  0.020993109            7 
 3120000   0.74228448   -7.3831392    798.39644  0.021324691  0.020986737            7 
 3121000   0.73359173    -7.410952    796.22844  0.021259971  0.020980372            5 
 3122000   0.75308344   -7.3602588    798.67797  0.021318545  0.020973998            5 
 3123000   0.74087246    -7.392047    797.36775  0.021276757  0.020967644            5 
 3124000   0.75797254   -7.3960691    800.51217  0.021353824  0.020961299           10 
 3125000   0.75109844   -7.3983356    797.71114  0.021272297  0.020954946            9 
 3126000   0.74150393   -7.3799285    797.33759  0.021255534  0.020948603            7 
 3127000    0.7412845   -7.3898223    799.85504  0.021315826  0.020942281            9 
 3128000   0.75793985   -7.3853778    799.04842  0.021287522  0.020935959            4 
 3129000   0.76310904   -7.3632024    796.32248   0.02120812   0.02092962           11 
 3130000   0.75862741   -7.3854015    799.00982  0.021272892  0.020923282            6 
 3131000   0.74793868   -7.3766095     798.9015  0.021263215  0.020916934            4 
 3132000   0.74910066    -7.387212    798.37606  0.021242445   0.02091059            5 
 3133000   0.72556598   -7.4038508    797.67113  0.021216915  0.020904233           16 
 3134000   0.74148679   -7.4254698    797.25289  0.021199024  0.020897849            5 
 3135000   0.75587736   -7.3883723    798.41955  0.021223273  0.020891455            3 
 3136000   0.74384631   -7.4168123    796.83128    0.0211743  0.020885054            3 
 3137000   0.74842532   -7.3937937    798.67528  0.021216536  0.020878655            6 
 3138000   0.76320193   -7.4267282    796.19224  0.021143835  0.020872247            6 
 3139000   0.75274989   -7.4093057    796.62382  0.021148556  0.020865838            5 
 3140000   0.76519726   -7.4209622    796.74513  0.021145041  0.020859436            4 
 3141000   0.74901774   -7.4087896    799.56483  0.021213118  0.020853033            5 
 3142000   0.75942682   -7.4046014    798.45564  0.021176948  0.020846631            4 
 3143000    0.7629561     -7.39406    796.49452  0.021118213  0.020840239            6 
 3144000   0.73919786   -7.3957211     796.4822  0.021111169  0.020833858            5 
 3145000   0.76284493   -7.4015804     798.6947  0.021163082  0.020827475            9 
 3146000   0.73951178   -7.4038935    798.45917  0.021150116  0.020821096           11 
 3147000   0.73886184    -7.393419    798.46984  0.021143678  0.020814738           11 
 3148000   0.73532451   -7.4121901    798.19888  0.021129788  0.020808346            6 
 3149000   0.78877502   -7.4189713    799.28832  0.021151908  0.020801972            7 
 3150000   0.73625456   -7.4018633    798.22419  0.021117042  0.020795619            6 
 3151000   0.73487058    -7.404637    799.62976  0.021147513  0.020789278            5 
 3152000   0.75904764   -7.3800846    798.71092  0.021116511  0.020782947            3 
 3153000   0.74889065   -7.4034545    797.68907  0.021082806  0.020776588            7 
 3154000   0.74126436   -7.3999492    796.92297  0.021055881   0.02077023           23 
 3155000    0.7456031   -7.4064963    795.67751   0.02101631  0.020763841            7 
 3156000   0.75187932   -7.4169336    799.11353  0.021100378  0.020757442            4 
 3157000   0.75799871   -7.3847477    799.52198  0.021104476  0.020751074            9 
 3158000   0.75536446   -7.3998378    796.57752  0.021020095  0.020744717            3 
 3159000   0.73742824   -7.4165263    799.58213  0.021092701  0.020738353            5 
 3160000   0.75524514   -7.4206167    798.45278  0.021056244  0.020731999            7 
 3161000    0.7336368   -7.4340157    797.25493  0.021018004  0.020725638            9 
 3162000   0.74027021   -7.3919906    798.91949  0.021055226  0.020719285            6 
 3163000   0.73512672   -7.3889807    797.97651  0.021023725  0.020712949           17 
 3164000   0.74270787   -7.4378981    797.50204  0.021004584  0.020706606            5 
 3165000   0.74661876   -7.4073998    798.62121  0.021027415  0.020700265            5 
 3166000   0.72110096   -7.4222468    798.55791  0.021019107  0.020693928            3 
 3167000   0.74564114   -7.4111081    798.26203  0.021004684  0.020687575            6 
 3168000   0.72308127   -7.3939913    801.35829    0.0210795  0.020681257            5 
 3169000   0.76057408   -7.4295953    797.65948  0.020975583  0.020674948            7 
 3170000    0.7549757   -7.4130288    799.68348  0.021022174  0.020668611           11 
 3171000   0.76402058   -7.4137783    799.00905   0.02099782  0.020662285            8 
 3172000   0.75931222   -7.4281981    799.56438   0.02100579  0.020655961            5 
 3173000   0.74782558   -7.4029758    797.66154  0.020949195   0.02064964            4 
 3174000   0.73978035   -7.4150664    799.95874  0.021002907  0.020643334            7 
 3175000   0.74929495   -7.4037326    799.99543  0.020997255  0.020637033            5 
 3176000   0.75369662    -7.402613    798.37966  0.020948249  0.020630742            5 
 3177000   0.74025082   -7.3949681    799.78457  0.020978506   0.02062446            4 
 3178000   0.74581572    -7.412762      800.271   0.02098466  0.020618144            8 
 3179000   0.74761718   -7.4203857    799.60419   0.02096058   0.02061185            7 
 3180000   0.75025997   -7.3862165    799.79892  0.020959091  0.020605569            7 
 3181000   0.72896767   -7.3887674    800.48119  0.020970376  0.020599269           22 
 3182000    0.7281126   -7.3796241     800.4529  0.020963045  0.020592963            5 
 3183000     0.733465   -7.4229709     799.1279  0.020921769  0.020586683           16 
 3184000   0.75864525    -7.409549    800.69165  0.020956126   0.02058038            4 
 3185000   0.72937083    -7.414642    799.21013  0.020910783  0.020574106            5 
 3186000   0.72805007   -7.4318628    798.95195  0.020897467  0.020567789            6 
 3187000   0.75076578    -7.437356    798.79148  0.020886714  0.020561472           12 
 3188000   0.73753676   -7.4403556    800.28007  0.020919073  0.020555154            7 
 3189000   0.74175274   -7.4320965    799.82837   0.02090071  0.020548841            9 
 3190000   0.73506522   -7.4345649     800.6711  0.020916173  0.020542553           15 
 3191000   0.76344536   -7.4325949    800.11383  0.020895065  0.020536267            4 
 3192000   0.74260505   -7.4275116     801.3016  0.020919528  0.020529964            6 
 3193000   0.73438519   -7.4276261    801.15559  0.020909166   0.02052366           13 
 3194000   0.74517349   -7.4352474    801.80975  0.020919687   0.02051735            5 
 3195000   0.73578985   -7.4092063    798.94858  0.020838513  0.020511068            6 
 3196000   0.75571454   -7.4050328    800.38215  0.020869372  0.020504802            3 
 3197000   0.72742635   -7.4084676    800.62497  0.020869173  0.020498558            6 
 3198000   0.73090507   -7.3978969    801.37927  0.020882303  0.020492311           14 
 3199000    0.7443726   -7.4223827     799.8748  0.020836584  0.020486054           12 
 3200000   0.74742799   -7.3772023    800.65132  0.020850295  0.020479818            8 
 3201000   0.75190713   -7.3925361    801.97251  0.020878176   0.02047361            5 
 3202000   0.73268637   -7.3884889    802.12898  0.020875728  0.020467381            4 
 3203000   0.73883391    -7.392173    802.26978  0.020872874  0.020461129            3 
 3204000   0.75483381    -7.410071    801.10636    0.0208361    0.0204549            2 
 3205000   0.73812743   -7.4197312    803.52556    0.0208925  0.020448697            4 
 3206000    0.7314732   -7.4279032    800.70103  0.020812566  0.020442462            6 
 3207000   0.74624319   -7.4170572    802.70217  0.020858075  0.020436235            9 
 3208000   0.72134617   -7.4018355    802.86391  0.020855775  0.020430031            6 
 3209000   0.74607933   -7.4112762    801.02429  0.020801503  0.020423828            7 
 3210000   0.73510513   -7.4362514    800.87744  0.020791211  0.020417601            7 
 3211000   0.73170075   -7.4116592    800.86876  0.020784511  0.020411385            5 
 3212000   0.74254802   -7.4428622    802.27121  0.020814425   0.02040519           17 
 3213000   0.71619617   -7.4240299    801.57518  0.020789895  0.020398992            7 
 3214000   0.74243098   -7.4321808    801.94333  0.020792972  0.020392794            5 
 3215000   0.72580353   -7.3903124    801.87107  0.020784631  0.020386588           10 
 3216000   0.74260209   -7.4324026    801.99357  0.020781343  0.020380378            4 
 3217000    0.7320688   -7.4103021    802.84586   0.02079696  0.020374171           10 
 3218000   0.73727474   -7.4410282     800.7235  0.020735537  0.020367955            5 
 3219000    0.7121531   -7.4192441    801.50325  0.020749281  0.020361736            5 
 3220000   0.73517129   -7.4483786    801.21173  0.020735293  0.020355506            3 
 3221000   0.73179662   -7.4332097    801.83023  0.020744857  0.020349266            7 
 3222000   0.73960701   -7.4312863    801.08848  0.020719234  0.020343034           10 
 3223000   0.72100809   -7.4270664    801.80705  0.020731385   0.02033681           10 
 3224000   0.74631172   -7.4196106    803.04121  0.020756855  0.020330623            6 
 3225000   0.74809665   -7.4085896    801.78316  0.020717911  0.020324431           10 
 3226000     0.751328   -7.4480605    802.59987  0.020732586   0.02031824            9 
 3227000   0.72264095   -7.4410484    802.96634  0.020735625  0.020312055            5 
 3228000   0.73511287   -7.4316491    803.66857   0.02074733  0.020305855            7 
 3229000   0.73975354    -7.427141    802.51258  0.020711071   0.02029967            7 
 3230000   0.75908584   -7.4301759      802.957  0.020716125  0.020293499           10 
 3231000   0.73595729   -7.4246299      803.088  0.020713092  0.020287322            8 
 3232000   0.72809633   -7.4502559    802.45414   0.02069034  0.020281145            8 
 3233000   0.73509739   -7.4331514     801.6717  0.020663772  0.020274937            8 
 3234000   0.73102209   -7.4448231    802.65821  0.020682803  0.020268747            7 
 3235000   0.74393822   -7.4206233    803.07059  0.020687032  0.020262576           10 
 3236000   0.74547441   -7.4411123    803.34107  0.020687605  0.020256409           12 
 3237000   0.73244446   -7.4376705    801.36667  0.020630385  0.020250223            9 
 3238000   0.72618236   -7.4526171    803.49982  0.020678912  0.020244023            3 
 3239000   0.73477022   -7.4695977    801.88531   0.02063099  0.020237832            7 
 3240000   0.75537427   -7.4408135    802.21715  0.020633157  0.020231647            9 
 3241000   0.74631621   -7.4296907    802.47483  0.020633416  0.020225458            5 
 3242000   0.74503302   -7.4744214    802.24284  0.020621089  0.020219251           10 
 3243000    0.7245266   -7.4430422    800.99588  0.020582688  0.020213046            7 
 3244000   0.71982011   -7.4367595    802.73277  0.020620961  0.020206847            8 
 3245000   0.73416927   -7.4453138    802.13054  0.020599141  0.020200663            6 
 3246000   0.72589437   -7.4588214    799.70051  0.020530409  0.020194443           20 
 3247000   0.73893498   -7.4533747    801.53635  0.020571203  0.020188241            7 
 3248000    0.7107775   -7.4497858    802.37944    0.0205865  0.020182062            6 
 3249000   0.73473838   -7.4527192    802.68543  0.020588012  0.020175875            7 
 3250000   0.71352763   -7.4506852    802.23376  0.020570096  0.020169696            6 
 3251000   0.73458213   -7.4408568    802.84017  0.020579313  0.020163509           18 
 3252000   0.72195021   -7.4557869    802.55363  0.020565643  0.020157349           12 
 3253000   0.73882397    -7.437629    802.75189  0.020564399  0.020151194            9 
 3254000   0.73053677   -7.4551329    803.84139  0.020585981  0.020145054           10 
 3255000   0.73853111   -7.4670963    805.08442   0.02061148  0.020138921           11 
 3256000   0.73557883   -7.4295644    803.29233  0.020559284  0.020132786            6 
 3257000   0.71641926   -7.4447729    803.95558  0.020569941  0.020126611           13 
 3258000   0.72684409   -7.4601989    802.09413  0.020516015  0.020120445           13 
 3259000   0.72743531   -7.4603416    802.45901   0.02051905  0.020114301            5 
 3260000   0.73311221   -7.4134576    803.08862   0.02052885  0.020108171            7 
 3261000   0.71795374   -7.4251683    803.73332   0.02053903  0.020102028            4 
 3262000   0.72321538   -7.4450912     803.9979  0.020539493  0.020095891            5 
 3263000   0.71813848   -7.4308278    802.65915  0.020499008  0.020089741           13 
 3264000   0.73110801   -7.4361635    802.96102  0.020500434  0.020083589            6 
 3265000   0.72229333   -7.4641301    801.86577  0.020466201  0.020077455            4 
 3266000   0.73317469   -7.4640224    803.74687  0.020507932  0.020071291            7 
 3267000   0.71781549   -7.4677746    802.86532  0.020479168  0.020065148            5 
 3268000   0.71697576   -7.4380326     803.6242  0.020492253  0.020059006           10 
 3269000    0.7187775   -7.4519562    803.12421  0.020473239  0.020052893            6 
 3270000   0.73385033   -7.4514988    804.56387  0.020503666  0.020046795           20 
 3271000   0.70901858   -7.4413551    803.67005  0.020474627  0.020040683            5 
 3272000   0.71859826   -7.4455932    805.27105  0.020509145  0.020034559            6 
 3273000   0.72539423   -7.4468446    805.21265  0.020501392   0.02002843            9 
 3274000   0.74170417   -7.4603491    805.10225   0.02049232  0.020022313           11 
 3275000   0.73565026   -7.4622505    803.54434  0.020446421  0.020016194            6 
 3276000   0.72584445   -7.4377328    805.57062  0.020491723  0.020010091            8 
 3277000    0.7299877   -7.4492585    803.96863  0.020444732  0.020003987            5 
 3278000   0.73604644   -7.4631746    804.99692  0.020464636  0.019997872            8 
 3279000   0.74452008   -7.4578472    805.23364  0.020464411  0.019991771           18 
 3280000   0.73372534   -7.4246078      803.748  0.020420427  0.019985692            7 
 3281000    0.7142791   -7.4196396    805.05875  0.020447494  0.019979639           13 
 3282000   0.72825026   -7.4389872    803.78444  0.020408908  0.019973579            7 
 3283000     0.727529   -7.4085481    804.48526  0.020420481  0.019967515            7 
 3284000    0.7269731   -7.4371757    806.43491  0.020463736   0.01996148            6 
 3285000   0.72806516   -7.4339276    806.25037  0.020452825   0.01995542            8 
 3286000   0.72581207    -7.436104    806.01411  0.020440609  0.019949357            8 
 3287000     0.716945   -7.4544282    804.38718  0.020393144  0.019943285           10 
 3288000   0.70435681   -7.4486344    805.13603  0.020405921  0.019937201            5 
 3289000   0.70896681   -7.4327508    805.30569  0.020404016  0.019931123           10 
 3290000   0.71818626   -7.4546369    803.94031   0.02036323  0.019925066            8 
 3291000   0.73769472    -7.468227    803.62558  0.020349073  0.019918989            4 
 3292000   0.73297184   -7.4582703    803.99431  0.020352225  0.019912902            5 
 3293000   0.71431139    -7.465844    805.35797  0.020380554  0.019906804           10 
 3294000   0.74025352   -7.4940031    805.47908  0.020377431   0.01990071            7 
 3295000   0.73677427   -7.4323081    804.75388  0.020352905  0.019894619           11 
 3296000   0.72773745   -7.4388651    803.95155  0.020326445  0.019888553           12 
 3297000   0.71181021   -7.4751633    803.01193   0.02029653  0.019882478            5 
 3298000   0.71267589   -7.4533109    803.75367  0.020309118  0.019876372           12 
 3299000   0.72366589   -7.4616474    804.17565  0.020313621  0.019870286           13 
 3300000   0.71338266   -7.4770679    805.76968  0.020347719  0.019864193           22 
 3301000   0.72022635    -7.465513    805.28089  0.020329216  0.019858095            8 
 3302000   0.71810079   -7.4679901    803.44714   0.02027678  0.019851987            7 
 3303000   0.71710383   -7.4761912    802.95342  0.020258185  0.019845886           16 
 3304000   0.72831335   -7.4634262     805.8916   0.02032616  0.019839787            7 
 3305000   0.71771723   -7.4387851    804.56079  0.020286455  0.019833713            6 
 3306000   0.71278458   -7.4509784    804.54836  0.020280005  0.019827628           15 
 3307000     0.723573   -7.4654638    805.35176  0.020294118  0.019821564            8 
 3308000   0.71655052   -7.4343373    805.83184  0.020300077  0.019815495           12 
 3309000   0.70881296   -7.4869205    805.63948  0.020289097  0.019809429            8 
 3310000   0.71565109   -7.4361638    805.88229  0.020289081  0.019803377            3 
 3311000   0.71850339   -7.4399706    805.82726  0.020281568  0.019797329           11 
 3312000   0.72742595    -7.450877    806.26812  0.020286537   0.01979126           10 
 3313000    0.7113625   -7.4368489    805.91802  0.020271607  0.019785231            6 
 3314000   0.73663232   -7.4477137    806.34156  0.020276141  0.019779201            7 
 3315000   0.73438365   -7.4607511    805.50589  0.020249017  0.019773166           10 
 3316000   0.71963829   -7.4708893    806.14661  0.020259012   0.01976715           13 
 3317000   0.71326817   -7.4522899    806.26305   0.02025583   0.01976113            5 
 3318000   0.71632014   -7.4261584    804.81265  0.020213297  0.019755117            8 
 3319000   0.72145002   -7.4692339    806.46714  0.020248748  0.019749115           16 
 3320000   0.71769018   -7.4781031    805.85038  0.020227168  0.019743085           13 
 3321000   0.70945445   -7.4555821    804.55382  0.020188543  0.019737057            6 
 3322000   0.71218172   -7.4676939    805.63361  0.020209553  0.019731034           13 
 3323000   0.73776809   -7.5001773     807.0759   0.02023964  0.019725021           22 
 3324000   0.69987016   -7.4917047    804.23201  0.020162255  0.019718995           12 
 3325000   0.73054732   -7.4505711    804.75833  0.020169382  0.019712951           12 
 3326000   0.71432329   -7.4727818    806.37127   0.02020373  0.019706891           10 
 3327000   0.74361636   -7.4621631    805.83203  0.020184151  0.019700858            9 
 3328000   0.73288284   -7.4839571    805.15996  0.020161257  0.019694831            8 
 3329000     0.711593   -7.4621051    806.11257  0.020179047    0.0196888            6 
 3330000   0.71560828   -7.4736946    806.85617  0.020191596  0.019682783            3 
 3331000   0.72126368   -7.4824953      805.766  0.020158261   0.01967678            5 
 3332000   0.72476786    -7.474288    806.26925  0.020164797  0.019670749            5 
 3333000   0.72103302   -7.4735212    806.32655   0.02016018  0.019664711            6 
 3334000   0.72155773   -7.4698394    805.09274  0.020123294   0.01965867            7 
 3335000   0.74453583   -7.4647089    806.24421  0.020146032  0.019652667            5 
 3336000   0.71600907   -7.4792555    807.62931  0.020174593  0.019646649            5 
 3337000   0.71011766   -7.4914389    805.97504  0.020127236  0.019640617            4 
 3338000   0.72485213   -7.5080394     805.4392  0.020107829  0.019634574            6 
 3339000   0.71706956   -7.4918079    804.03286  0.020066708  0.019628539            3 
 3340000   0.72180082   -7.4843226    807.41224  0.020145016  0.019622511            6 
 3341000   0.72125489   -7.4612546    806.88956  0.020125949  0.019616501            6 
 3342000   0.69546246   -7.4883603    805.80036  0.020092768  0.019610485            8 
 3343000    0.7157203   -7.4953031    807.28449  0.020123753  0.019604466            7 
 3344000   0.72091893   -7.4538842    806.99342  0.020110482   0.01959847           11 
 3345000   0.72117924   -7.4719904    808.38722  0.020139193  0.019592489            7 
 3346000   0.72320828   -7.4791381    806.79899  0.020093619  0.019586478            8 
 3347000   0.71704963   -7.4849334    806.40709  0.020077858  0.019580463            4 
 3348000   0.71849824   -7.4769067    806.77761  0.020081083   0.01957444           11 
 3349000   0.72221163   -7.4789909    805.00007  0.020030857  0.019568431           16 
 3350000   0.70935103   -7.4738894    806.86245  0.020071205  0.019562443            7 
 3351000   0.72402813   -7.4568744    807.56259  0.020082627  0.019556459            9 
 3352000   0.72893072   -7.4947088    805.71373  0.020030671   0.01955048           10 
 3353000    0.7115114   -7.4774957    807.28789  0.020063821   0.01954448           10 
 3354000   0.72418351   -7.4952421    807.55606  0.020064502  0.019538458           10 
 3355000   0.71189418   -7.4923899    806.67604  0.020036663  0.019532467            8 
 3356000   0.72612425   -7.4876025    806.46136  0.020025362  0.019526468            6 
 3357000   0.70771011   -7.4947779    805.61316  0.019998341  0.019520488           11 
 3358000   0.71300941   -7.4608345    806.92972  0.020025058  0.019514513            6 
 3359000   0.72010367   -7.4852824    806.98944  0.020020578  0.019508529           15 
 3360000   0.70516355   -7.4775939    809.61401  0.020079713  0.019502555           10 
 3361000   0.71577514   -7.4919324    808.30535  0.020041291  0.019496612            7 
 3362000   0.71132784   -7.4585567    806.85867  0.019999471  0.019490641            8 
 3363000   0.71261931   -7.4832318    805.83882  0.019968253  0.019484683            5 
 3364000   0.70296785   -7.4603508    808.34867  0.020024491  0.019478719            6 
 3365000   0.71014685   -7.4921161    807.69585  0.020002374   0.01947275            5 
 3366000   0.73039093   -7.4918717    806.38252  0.019963917  0.019466781            8 
 3367000   0.71577449   -7.5002613    806.94537  0.019971918  0.019460805           16 
 3368000   0.70549729   -7.4799586    807.38097  0.019976766  0.019454837            6 
 3369000   0.71312171   -7.4826872    806.05874  0.019938131  0.019448866           12 
 3370000   0.71313687   -7.4692349    805.91635  0.019928693  0.019442882            5 
 3371000   0.72633496   -7.4757504    805.82923  0.019920628   0.01943692           11 
 3372000    0.7038714   -7.4679617    806.13135  0.019922186  0.019430959            9 
 3373000   0.70802333   -7.4628043    806.62612  0.019928504  0.019425034            8 
 3374000   0.70735568    -7.496566    808.06219  0.019958066   0.01941909            9 
 3375000    0.7243774   -7.4960622    807.25827  0.019932303  0.019413156            3 
 3376000   0.70685618    -7.494653    806.77565  0.019914486  0.019407199            6 
 3377000    0.7078183    -7.496122    806.59698   0.01990418  0.019401252            5 
 3378000   0.69065518   -7.4726323    806.74886  0.019902034  0.019395311            9 
 3379000   0.71607376   -7.4974095    805.04441  0.019854109  0.019389361            9 
 3380000   0.71438719   -7.4802533    806.09237  0.019874072  0.019383388           12 
 3381000   0.72044388   -7.4931764    807.04712  0.019891726  0.019377441            5 
 3382000   0.71056181   -7.4790254    807.10034  0.019887156   0.01937147            4 
 3383000   0.71386894   -7.5108473    805.84658  0.019850394  0.019365495            5 
 3384000    0.7190197   -7.4976613    807.31363  0.019880655  0.019359521            6 
 3385000   0.71796541   -7.5065703     805.0991  0.019820263  0.019353552           15 
 3386000   0.70466392   -7.4899296    804.73651  0.019805486  0.019347578            9 
 3387000   0.70424445   -7.4961628    805.33073  0.019814259   0.01934162           13 
 3388000    0.7044248    -7.486006    808.25651  0.019880374  0.019335679            4 
 3389000    0.7150166    -7.498035    808.81651  0.019888278  0.019329736            4 
 3390000   0.71438269   -7.4886506    808.69137  0.019879335  0.019323785            3 
 3391000   0.69071734    -7.479071     806.1719  0.019811558  0.019317851            4 
 3392000   0.71431551   -7.4929461    807.52928  0.019839065  0.019311894            8 
 3393000   0.69165468   -7.4924193     808.2158  0.019850079  0.019305919            7 
 3394000    0.7130758   -7.4886116    806.67205  0.019806326  0.019299958           14 
 3395000   0.70128172   -7.4634024    808.40372  0.019842997  0.019294043           15 
 3396000   0.69924949    -7.479856     806.3593  0.019786987  0.019288108           15 
 3397000   0.71632977   -7.5000026    807.60252   0.01981166  0.019282171           10 
 3398000   0.72294425   -7.5295139    808.17881  0.019819963   0.01927621            8 
 3399000   0.71401933   -7.4923186    807.06645   0.01978686  0.019270268            6 
 3400000   0.71143357   -7.4778229    805.97586   0.01975431  0.019264322           11 
 3401000   0.73636786   -7.4968141    809.95499  0.019846001  0.019258396           12 
 3402000     0.713221   -7.4708953      808.577  0.019806413  0.019252492           11 
 3403000   0.71645527   -7.5125378    807.45132  0.019773027  0.019246568            6 
 3404000   0.70776335   -7.4789259    807.46006  0.019767432  0.019240643            5 
 3405000   0.70529115   -7.4756309    808.61252  0.019789832  0.019234735           16 
 3406000   0.70192415    -7.450154    810.19972  0.019822855  0.019228857            5 
 3407000   0.71230628   -7.4935948    806.16434  0.019718333  0.019222968            5 
 3408000   0.70162803   -7.4790751    807.82355  0.019753119  0.019217069            4 
 3409000   0.71802974   -7.4723327    807.30493  0.019734647  0.019211148            5 
 3410000   0.71380278   -7.4859698    807.44026  0.019732167  0.019205231            4 
 3411000   0.69804454   -7.4587768    809.72605  0.019782225  0.019199328            4 
 3412000   0.71071274   -7.4946996    808.47104  0.019745776  0.019193432            4 
 3413000   0.69801236   -7.4976788    807.08268  0.019706091  0.019187522            4 
 3414000   0.70779493   -7.4719182    808.65897  0.019738795  0.019181597           11 
 3415000   0.71773331   -7.5153225    806.72379  0.019685793  0.019175659           24 
 3416000   0.70095203   -7.4978726    805.99529  0.019662258  0.019169709            3 
 3417000   0.70018815   -7.5114508    806.24431  0.019662577  0.019163779            4 
 3418000   0.71964702   -7.4763036    807.16049  0.019679162   0.01915785            5 
 3419000   0.69928386   -7.4955403    807.16018  0.019673398   0.01915191            8 
 3420000   0.71032204    -7.503471    806.93868  0.019662249   0.01914599            5 
 3421000    0.6959768   -7.4866599    808.48283  0.019694116  0.019140054            5 
 3422000   0.69703577   -7.5380623    805.94278  0.019626505  0.019134116            9 
 3423000   0.70271514   -7.5130251    806.49038  0.019634102   0.01912816           17 
 3424000   0.70137925   -7.5071072     807.6809  0.019657343  0.019122199            9 
 3425000   0.71138376   -7.5126656    806.44913  0.019621633  0.019116252            6 
 3426000   0.71568571   -7.4930982    808.37719  0.019662804  0.019110327            6 
 3427000   0.70190271   -7.4813937    807.08466  0.019625636  0.019104398            8 
 3428000   0.68879485   -7.5109448    807.82934  0.019638014  0.019098474           10 
 3429000   0.69443905   -7.4810028    808.22419  0.019641883  0.019092542           10 
 3430000   0.70356932   -7.4806338    807.22204  0.019611809  0.019086622            5 
 3431000   0.70613499   -7.4868062    807.21687  0.019605967  0.019080705            2 
 3432000   0.69286366   -7.4974924    807.69144  0.019611778  0.019074787            6 
 3433000    0.6959889   -7.5133626    808.68016  0.019630065  0.019068885           10 
 3434000   0.72256782    -7.496353    807.68058  0.019600092  0.019062983            8 
 3435000   0.72111966    -7.517533    808.37138  0.019611144  0.019057092            7 
 3436000   0.69403309   -7.5011624    808.59849  0.019610945  0.019051223            8 
 3437000   0.69756045   -7.5177198     806.8991  0.019564036  0.019045339            9 
 3438000   0.69250626   -7.4986914    806.26556  0.019542989  0.019039451           10 
 3439000   0.70676723   -7.5127628    808.52127  0.019591966  0.019033566           12 
 3440000   0.69355401   -7.4951423    807.88696  0.019570905   0.01902769           11 
 3441000   0.69221702   -7.5005038    808.65131  0.019583728  0.019021828            4 
 3442000    0.6945165    -7.496049    808.67382  0.019578584  0.019015966            3 
 3443000   0.69446005   -7.4679182     808.5022  0.019568743  0.019010097            8 
 3444000   0.71086068   -7.4963711    808.75368  0.019569146  0.019004237            5 
 3445000    0.7085388   -7.5255026    809.74301  0.019587398  0.018998363            7 
 3446000   0.68821106   -7.5088098    807.44263  0.019526084  0.018992497            8 
 3447000   0.70572746    -7.526391    806.89956  0.019507291  0.018986638           12 
 3448000   0.70903456   -7.5032139     809.0504  0.019553616   0.01898078            7 
 3449000   0.70190931   -7.5319235     808.6949  0.019539357   0.01897493            8 
 3450000   0.71797194    -7.509711    808.96625  0.019540248  0.018969092           14 
 3451000   0.69715555   -7.4877589    810.22495   0.01956498  0.018963286           16 
 3452000   0.70595086   -7.4989881    809.59942  0.019544212  0.018957487            8 
 3453000   0.70527639   -7.5053892     809.3055  0.019531458  0.018951682            6 
 3454000   0.70166877    -7.492962    810.56933  0.019556295  0.018945893            7 
 3455000   0.68620521   -7.4926711    812.80486  0.019604555  0.018940118           17 
 3456000   0.71314735   -7.5009105     811.8837  0.019576671  0.018934327           10 
 3457000   0.69725766   -7.4943368    808.56648  0.019491044  0.018928499            5 
 3458000   0.70048904   -7.5163671    809.42799  0.019506169  0.018922684           10 
 3459000   0.69637256    -7.495149      811.348  0.019546786   0.01891687            9 
 3460000   0.70205416   -7.4985284    808.30427  0.019467829  0.018911057            8 
 3461000   0.70628333   -7.5297592    808.56155  0.019468399  0.018905252            8 
 3462000   0.70132713   -7.4850731    809.29704  0.019480479  0.018899425            6 
 3463000   0.69606299    -7.489045    808.28202  0.019450429  0.018893623           10 
 3464000   0.69005609   -7.5292604    809.57409  0.019475897  0.018887801            3 
 3465000   0.69586807   -7.5503609    807.97094  0.019431721  0.018881983           10 
 3466000    0.6909619   -7.5154807    808.03212  0.019427585  0.018876163           10 
 3467000   0.68866903   -7.5206943    808.87426  0.019442223  0.018870341           10 
 3468000   0.69959683   -7.5053308    807.74913  0.019409581  0.018864503           18 
 3469000   0.71537759    -7.502868    808.62247  0.019424966  0.018858696           12 
 3470000      0.71136   -7.5248442    808.49761  0.019416369  0.018852885           12 
 3471000   0.69011037   -7.5197037    808.93329  0.019421235  0.018847091            9 
 3472000   0.70550398   -7.5180099    808.18975  0.019397795  0.018841271           14 
 3473000   0.69126894   -7.5275793    810.62475  0.019450637  0.018835448            7 
 3474000   0.69530416   -7.5116428     809.7367  0.019423736  0.018829661            5 
 3475000   0.69789833   -7.5122873    810.06296   0.01942597  0.018823862            7 
 3476000   0.68998028   -7.5143395    811.00356  0.019442931  0.018818058           11 
 3477000   0.69914895   -7.5270545     808.7652  0.019383693  0.018812257           10 
 3478000   0.68894346   -7.5185393    809.53015  0.019396448  0.018806445            6 
 3479000   0.68156924   -7.5415042    809.90009  0.019399734  0.018800639           13 
 3480000   0.68920202   -7.5143845    809.28238  0.019379367  0.018794841           15 
 3481000     0.686319   -7.5235087    809.46513  0.019378175  0.018789051            6 
 3482000   0.69589191   -7.5169659    809.27669    0.0193681  0.018783265            5 
 3483000   0.68790452   -7.5175751    810.72451  0.019397179  0.018777494            5 
 3484000   0.69266741   -7.5227041    808.92673  0.019348611  0.018771731            5 
 3485000   0.70253768   -7.5218979    809.67007  0.019360834  0.018765931            5 
 3486000    0.6858229   -7.5341455    810.49125   0.01937491  0.018760143            9 
 3487000   0.70018892   -7.5261456    811.24384   0.01938734  0.018754348            8 
 3488000   0.69394999   -7.4962012    809.75993  0.019346329  0.018748575            5 
 3489000   0.69204142   -7.5183097    808.07506  0.019300541  0.018742807            6 
 3490000   0.69224748    -7.505647     809.7682  0.019335439  0.018737047            7 
 3491000   0.69141626   -7.5226443    809.99109  0.019335221    0.0187313           11 
 3492000    0.6867256   -7.5178242    812.85465   0.01939802   0.01872556            5 
 3493000   0.70296607   -7.5232695    810.35628  0.019332863  0.018719813            6 
 3494000   0.69548367   -7.5015191    809.48739  0.019306606  0.018714066            6 
 3495000   0.68504424   -7.5307771     809.8224   0.01930907  0.018708309            5 
 3496000   0.68511055   -7.5485947    811.32598  0.019339387  0.018702548            5 
 3497000   0.69147891   -7.5474393     809.2786  0.019285068  0.018696786            9 
 3498000   0.70414099   -7.4915576    810.45913  0.019307679  0.018691024           13 
 3499000   0.69524964   -7.5455677    807.41009  0.019229544  0.018685256            8 
 3500000   0.69120857   -7.5392142     808.7095  0.019254988  0.018679477            8 
 3501000   0.67886924   -7.5677696    809.49701  0.019268233  0.018673682            9 
 3502000   0.68063352    -7.534647    809.58258  0.019264767  0.018667902            5 
 3503000   0.69557457    -7.529996    809.84861  0.019265596  0.018662128            6 
 3504000   0.67842757   -7.5123319    809.86626  0.019260518   0.01865637            5 
 3505000   0.68483516   -7.5566207    809.61821  0.019249125    0.0186506            5 
 3506000    0.6967105    -7.563094    810.46214  0.019263694  0.018644831            6 
 3507000   0.69361405    -7.565865    809.61474  0.019238065  0.018639064            9 
 3508000   0.69866097   -7.5311313    809.83725  0.019237867  0.018633308            9 
 3509000   0.69529268   -7.5423502    809.96241  0.019235357  0.018627565            9 
 3510000   0.69017408   -7.5326234    811.41769  0.019264428  0.018621822            7 
 3511000   0.69460362   -7.5416339    811.07548  0.019250818  0.018616064            8 
 3512000   0.68166707   -7.5688762    809.26987  0.019202493  0.018610316           11 
 3513000   0.69469912   -7.5604096    811.46813  0.019249173  0.018604569           20 
 3514000   0.69367414   -7.5281958      810.668   0.01922472  0.018598813           13 
 3515000   0.69782302    -7.541859    810.59229  0.019217456  0.018593079           12 
 3516000   0.70009951   -7.5529419    810.48022  0.019209334  0.018587335            9 
 3517000   0.67958354   -7.5407377    810.29768  0.019199547  0.018581608            8 
 3518000   0.68262678   -7.5246145    811.06595  0.019212288  0.018575897           19 
 3519000   0.69042452   -7.5447693    811.98679  0.019228635  0.018570176           11 
 3520000   0.67755475   -7.5349882    812.37679  0.019232405  0.018564449           11 
 3521000   0.70130448   -7.5176548    811.25922  0.019200493  0.018558744           12 
 3522000   0.68699716   -7.5185679    812.39791  0.019221983  0.018553047            7 
 3523000   0.68562892   -7.5249081    810.92623  0.019181716  0.018547355            8 
 3524000    0.7027911   -7.5107176    810.84468  0.019174345  0.018541654           10 
 3525000    0.6987895   -7.5146228    811.44479  0.019183092  0.018535945            9 
 3526000   0.68643131   -7.5504024    810.26145  0.019149685  0.018530249           10 
 3527000   0.69371287   -7.5310505    811.06186  0.019163167  0.018524552           11 
 3528000   0.69181039   -7.5256131    812.85467  0.019200082  0.018518853           22 
 3529000   0.69718825   -7.5402899     810.6309  0.019142129  0.018513146           14 
 3530000   0.68935669   -7.5504584    810.46113  0.019132699  0.018507433           21 
 3531000   0.70151054   -7.5253423    812.76551  0.019181665  0.018501722           18 
 3532000   0.70102529   -7.5555181    810.73306  0.019128281  0.018496022           15 
 3533000   0.67070483   -7.5290359    813.44723  0.019186886   0.01849034            7 
 3534000    0.6866015    -7.539765    811.86862  0.019144233  0.018484641           14 
 3535000   0.67819749   -7.5670803    811.05818  0.019119712  0.018478935           10 
 3536000   0.68984623   -7.5502527    811.52741  0.019125363  0.018473236            8 
 3537000    0.6838982   -7.5389406    812.18677  0.019135491  0.018467555           11 
 3538000   0.68288702   -7.5087644    812.24724  0.019131507  0.018461898           12 
 3539000   0.68493261   -7.5122704    811.37638  0.019105594  0.018456249            4 
 3540000   0.68451472   -7.5135016     811.8221   0.01911069  0.018450588            6 
 3541000   0.67465031   -7.5270592    812.13672  0.019112697  0.018444923           24 
 3542000   0.68024407   -7.5333683    813.98731   0.01915084  0.018439273           25 
 3543000   0.68054784   -7.5369735    810.62684  0.019066395  0.018433618           15 
 3544000   0.68001361   -7.5342174    811.97331  0.019092676  0.018427946           12 
 3545000   0.69283436   -7.5324243    812.26979  0.019094259  0.018422277           16 
 3546000   0.69748268   -7.5423774     810.8814  0.019056247  0.018416623           22 
 3547000   0.68800784   -7.5452291    810.35575  0.019038524  0.018410973            8 
 3548000   0.67945838    -7.540427    812.09656  0.019074045  0.018405307            7 
 3549000   0.66817671   -7.5372766     813.1096  0.019092458  0.018399665            6 
 3550000   0.67137118     -7.53249    812.02419  0.019061601   0.01839402            4 
 3551000   0.68931935   -7.5334132    811.34281  0.019040242  0.018388375            4 
 3552000   0.68182913   -7.5502814    812.05914  0.019051688   0.01838274            4 
 3553000   0.68845858   -7.5550359    812.59407  0.019058872  0.018377109            7 
 3554000   0.68213151   -7.5368958    812.78122  0.019057898   0.01837147            5 
 3555000   0.67455327   -7.5353647    813.18942  0.019062106  0.018365837           10 
 3556000   0.68816024    -7.545645    811.09595  0.019007685  0.018360212            8 
 3557000   0.68193135   -7.5433826    811.86898  0.019020452  0.018354569           10 
 3558000    0.6876085   -7.5428106    812.67091  0.019033889  0.018348928           18 
 3559000   0.67515985    -7.524908    812.42514  0.019022786  0.018343303            4 
 3560000   0.67517477   -7.5376212    811.83412  0.019003608  0.018337672            7 
 3561000   0.68879695      -7.5281     811.9396  0.019000739  0.018332048            8 
 3562000   0.69783659   -7.5258635     813.7018  0.019036632  0.018326431            9 
 3563000   0.66877791   -7.5539148    811.73229  0.018985225  0.018320812            8 
 3564000   0.66475165    -7.543657    811.59312  0.018976644  0.018315181            5 
 3565000   0.69794953   -7.5600739    811.79913  0.018976137  0.018309548           11 
 3566000   0.67596771   -7.5365089     812.4485   0.01898599  0.018303929            8 
 3567000   0.68097193   -7.5513182     811.9582  0.018969213  0.018298318           19 
 3568000   0.68813742   -7.5580445    811.66501  0.018957049  0.018292701           15 
 3569000   0.67428678   -7.5682941    811.89981   0.01895722   0.01828708           14 
 3570000   0.68041376   -7.5711422     812.7491  0.018971734  0.018281454           16 
 3571000   0.69208238   -7.5744871    812.69693  0.018965204   0.01827584           17 
 3572000   0.68379097   -7.5730888     811.6405  0.018935249  0.018270212           11 
 3573000   0.69475528   -7.5575422      811.959  0.018937378  0.018264577           12 
 3574000   0.69352069   -7.5726741    811.95612  0.018932012   0.01825893           15 
 3575000   0.68443628   -7.5448664    812.11488  0.018930417    0.0182533            9 
 3576000   0.67110969   -7.5816879    811.85684   0.01891911  0.018247679           15 
 3577000   0.68417615   -7.5764486    811.41121  0.018903439  0.018242049           12 
 3578000   0.67408482   -7.5789739    810.71757     0.018882  0.018236418           10 
 3579000   0.66911405    -7.577044    811.13999   0.01888656   0.01823078           13 
 3580000   0.68671333   -7.5691458    811.69628  0.018894234   0.01822516           10 
 3581000   0.67216996    -7.569573    810.75477  0.018867048  0.018219531           16 
 3582000   0.67269236   -7.5570327    811.89651  0.018888342  0.018213909           12 
 3583000   0.66982236   -7.5614649    813.31255  0.018916005  0.018208296           11 
 3584000   0.67827997   -7.5624403    812.80686  0.018898969   0.01820268            5 
 3585000   0.67951128   -7.5646632    812.12691  0.018877892  0.018197059            7 
 3586000   0.67381919   -7.5684341     811.8492  0.018866174  0.018191451           11 
 3587000   0.69260261   -7.5611843     811.0816  0.018843082  0.018185841           10 
 3588000    0.6807483   -7.5792421     813.0775  0.018884186  0.018180228            8 
 3589000   0.68097855   -7.5576227    813.37791  0.018885899  0.018174625           22 
 3590000   0.68780048   -7.5640131    813.17987  0.018876041  0.018169031           28 
 3591000   0.69370791   -7.5634354    812.75347   0.01886089  0.018163444            8 
 3592000   0.68263754   -7.5526538    813.04776  0.018862467  0.018157854           13 
 3593000   0.68730688   -7.5824819    812.76836  0.018850737   0.01815227           13 
 3594000   0.67762618    -7.561675     813.1323   0.01885393  0.018146685            7 
 3595000   0.67499566   -7.5799201    813.40869  0.018855092  0.018141105            8 
 3596000   0.67024692   -7.5691476    816.07323  0.018911597  0.018135543           13 
 3597000    0.6674138   -7.5717518    814.23168  0.018863675  0.018129968           12 
 3598000   0.67857356   -7.5820922    814.26329  0.018859164  0.018124419            6 
 3599000   0.67599619   -7.5504641    813.00426  0.018824772  0.018118858            8 
 3600000   0.66616969   -7.5789466    814.30434  0.018849637  0.018113289           28 
 3601000   0.67511673   -7.6011427     813.0816  0.018816107  0.018107721           22 
 3602000   0.68368841   -7.5751233    812.69619  0.018801966  0.018102156           13 
 3603000   0.69009046   -7.5721005    814.47761   0.01883795   0.01809658            9 
 3604000    0.6731384   -7.5480558    813.42257  0.018808328   0.01809101            8 
 3605000   0.67126828   -7.5575313    814.00124  0.018816487  0.018085435           18 
 3606000   0.67684346   -7.5583302    811.27272  0.018748214  0.018079867           11 
 3607000   0.66955834     -7.58392    812.43771  0.018769931  0.018074317           13 
 3608000   0.67384803   -7.5909949    813.04166  0.018778678  0.018068758            6 
 3609000   0.68013085   -7.5649856    813.92366  0.018793841  0.018063195            8 
 3610000   0.67866691   -7.5619759    814.12175  0.018793208  0.018057646            7 
 3611000   0.67217365   -7.5528718    813.50534  0.018773778  0.018052105            7 
 3612000   0.67160016   -7.5662049    813.82603  0.018775979  0.018046581            8 
 3613000   0.67884227    -7.535911    813.59698  0.018765499  0.018041063           13 
 3614000   0.67535429   -7.5622886    812.59717  0.018737253  0.018035542            7 
 3615000   0.67632544   -7.5854962    814.13034  0.018767412  0.018030003            8 
 3616000   0.67647787   -7.5526123    812.97025  0.018735487  0.018024472            8 
 3617000   0.67587009   -7.5574711    812.66714  0.018723324  0.018018946            7 
 3618000   0.66399547   -7.5578032    813.43301  0.018735789  0.018013431            4 
 3619000   0.67366873     -7.55134    813.45861  0.018731201   0.01800789            5 
 3620000   0.66218503    -7.589342    813.57273  0.018728654  0.018002351           10 
 3621000   0.67620877   -7.5762765    812.93758  0.018708865  0.017996804           18 
 3622000   0.67620457   -7.5737434    813.16291  0.018708883  0.017991266           12 
 3623000   0.68240049   -7.5549125    812.69233  0.018692896  0.017985731            9 
 3624000   0.66004136   -7.5700732    811.58315  0.018662232   0.01798019           11 
 3625000   0.66989678   -7.6116451    814.39909  0.018721818  0.017974635            7 
 3626000   0.67385448   -7.5836991    814.49634   0.01871889  0.017969113            7 
 3627000   0.66206978   -7.5558992    813.80498  0.018697844  0.017963591           12 
 3628000   0.68189838   -7.5884915    812.52555  0.018663303  0.017958055            9 
 3629000   0.66939305   -7.5650939    813.15736  0.018672668  0.017952515           21 
 3630000   0.65866257   -7.5604745    812.38582  0.018649812  0.017946998           11 
 3631000   0.68051309   -7.5641279    813.68966    0.0186746  0.017941481            7 
 3632000    0.6624101   -7.5844339    813.27875   0.01866003  0.017935938            7 
 3633000   0.67040756   -7.6124996    812.83099  0.018644623  0.017930383           10 
 3634000   0.67245149   -7.5835784    811.29122  0.018604183  0.017924816           11 
 3635000   0.66522115   -7.5655622     813.8939  0.018658732  0.017919249           15 
 3636000   0.68325726   -7.5999144    812.26017  0.018616157  0.017913693           10 
 3637000   0.66438719   -7.5780862    812.64945  0.018619958  0.017908143           10 
 3638000    0.6627508   -7.5631857     813.5656  0.018635826  0.017902609           11 
 3639000   0.66761178   -7.6007831    813.64739  0.018632577  0.017897071            6 
 3640000   0.67152358   -7.6032335    813.65579  0.018627651  0.017891539            8 
 3641000   0.68230953   -7.5630077     813.3457  0.018615438     0.017886            7 
 3642000    0.6809766   -7.5789306    811.43323  0.018566567  0.017880464            8 
 3643000   0.67137699   -7.5731563    812.20128  0.018579039  0.017874926           17 
 3644000   0.66748875   -7.5891346    812.09119  0.018571423  0.017869402            9 
 3645000   0.67598048   -7.5923872    812.63512  0.018578764  0.017863869            9 
 3646000   0.67263396   -7.5925425    813.42241  0.018591662  0.017858344           10 
 3647000   0.66740381   -7.5900228    812.27345  0.018560311   0.01785281           16 
 3648000   0.67838279    -7.577109    813.01543  0.018572173   0.01784729            9 
 3649000   0.66981121    -7.565398      813.798  0.018584955  0.017841768           14 
 3650000   0.67169052   -7.5783056    814.50173   0.01859593   0.01783625           11 
 3651000   0.65207809   -7.5789584    813.85677  0.018576115  0.017830722            6 
 3652000   0.67374227   -7.5812015    813.68743  0.018567165  0.017825214            7 
 3653000   0.66152768   -7.5803915    815.77044    0.0186096  0.017819694            5 
 3654000   0.66754143   -7.5877614    812.45071  0.018528797  0.017814165            6 
 3655000   0.68034898   -7.5962143    811.39618  0.018499685  0.017808634            7 
 3656000   0.65431431   -7.5816576    813.92669  0.018552304  0.017803116            9 
 3657000   0.65781205   -7.5721524    812.62622  0.018517597  0.017797584           19 
 3658000   0.66418683   -7.5745472    813.32416  0.018528434  0.017792068            6 
 3659000   0.67474564   -7.5987149    812.51554  0.018504955  0.017786531            9 
 3660000   0.65701837   -7.5815207    812.46798  0.018498816  0.017780994            9 
 3661000   0.67819113   -7.5869821    811.93079  0.018481535  0.017775463            6 
 3662000   0.67103328   -7.5955508     812.9189  0.018498974  0.017769933           13 
 3663000   0.67076859   -7.5960698    810.37485  0.018436046  0.017764389           10 
 3664000   0.68580954    -7.604122    812.71763  0.018484298  0.017758851            7 
 3665000   0.66577451   -7.6068217    810.19737   0.01842195  0.017753295           11 
 3666000   0.66380922   -7.5946603    812.37368  0.018466396  0.017747739           11 
 3667000   0.64402766    -7.581212    811.88734  0.018450308  0.017742185            5 
 3668000   0.67027732   -7.5956943    812.46785  0.018458466  0.017736642            8 
 3669000   0.65258952   -7.6223703    811.87644  0.018440003  0.017731118           10 
 3670000   0.65630587   -7.6091098    812.21523  0.018442671  0.017725583           15 
 3671000   0.66019943   -7.5875378    812.32239   0.01844008  0.017720053            6 
 3672000   0.64554588   -7.5999387    812.30846  0.018434742  0.017714522            8 
 3673000   0.65983384   -7.6112739    812.53787  0.018434928  0.017708974            6 
 3674000   0.64702213   -7.6288498    811.08291  0.018396909  0.017703436           10 
 3675000   0.66999259   -7.5913114    811.85484  0.018409407   0.01769788           11 
 3676000   0.65377833   -7.6108318    810.40667  0.018371569  0.017692344            7 
 3677000   0.66842745   -7.5860757    810.02942  0.018358023  0.017686814            5 
 3678000   0.66148813   -7.6117719    812.86648  0.018417312  0.017681286            5 
 3679000   0.65147818   -7.6151898    811.50951  0.018381569  0.017675747            4 
 3680000   0.66878741   -7.6203515    811.47738  0.018375847  0.017670211            6 
 3681000    0.6550737   -7.6133569    811.04829   0.01836114  0.017664662            8 
 3682000   0.66665177   -7.6117728      812.589  0.018391024  0.017659114           11 
 3683000   0.65514923   -7.6240228    809.43947  0.018314768  0.017653571            8 
 3684000   0.65697338   -7.5980532    813.03699  0.018391173  0.017648041            5 
 3685000   0.65032368   -7.6002556    812.25652  0.018368533  0.017642533           20 
 3686000   0.64983153   -7.6179657    811.91247  0.018355771  0.017637011            5 
 3687000   0.66537844   -7.6161393    814.24466  0.018403505  0.017631495           11 
 3688000   0.65880393   -7.6009885    812.01758  0.018348192   0.01762598           10 
 3689000   0.65184706   -7.6010196    813.39491  0.018374332   0.01762046            8 
 3690000   0.64589973   -7.6132554    811.34116  0.018322971  0.017614942            7 
 3691000   0.65010668   -7.6038089    811.99247  0.018332712  0.017609434           10 
 3692000   0.66109447   -7.5659309    812.91936  0.018348667  0.017603946           10 
 3693000   0.65942625   -7.5822571    813.15906  0.018349108  0.017598477            8 
 3694000   0.66294116   -7.5898449    813.88297  0.018360471  0.017592994           15 
 3695000   0.67025903   -7.5971133    812.55234  0.018325493  0.017587512           11 
 3696000   0.65035822   -7.6170497    811.82472  0.018304129  0.017582026           12 
 3697000    0.6606003   -7.5954912    811.85221  0.018299797  0.017576529            5 
 3698000   0.66442996   -7.5865267     812.5985  0.018311666  0.017571053           18 
 3699000   0.65858329   -7.6190662    811.99165  0.018293044  0.017565558           14 
 3700000   0.66898041   -7.6023008    812.82138  0.018306788  0.017560069            7 
 3701000   0.67669986    -7.600113    812.77433  0.018300782  0.017554595           11 
 3702000   0.66681648    -7.590989     812.9601   0.01830002  0.017549107            8 
 3703000   0.65984446   -7.5868386    813.69816  0.018311688  0.017543642           10 
 3704000   0.66136557   -7.6004444    812.39622  0.018277453  0.017538181            6 
 3705000   0.65201228   -7.5487476    813.32206  0.018293344  0.017532708            7 
 3706000   0.65222561   -7.5903669    814.44891  0.018313746  0.017527249           10 
 3707000   0.67260565    -7.568912    814.19386  0.018303072  0.017521793           28 
 3708000   0.65607989   -7.6306467    811.72812  0.018242721  0.017516336           12 
 3709000   0.65329649   -7.6073987    812.24779  0.018249479  0.017510883           10 
 3710000   0.65104677   -7.5988205    812.70879  0.018254914  0.017505433            8 
 3711000   0.66847839   -7.6090385    811.89006   0.01823161  0.017499985           10 
 3712000   0.64814204   -7.5886627    813.77086  0.018268922  0.017494542            7 
 3713000   0.66926672   -7.6069444    812.72372    0.0182405   0.01748908           21 
 3714000   0.66949548   -7.5986789    812.34829  0.018227165  0.017483603           17 
 3715000   0.64323011   -7.5949866    813.28093  0.018243179  0.017478146            9 
 3716000    0.6668595   -7.6236662    812.08608  0.018211475  0.017472695           14 
 3717000   0.65435654    -7.593148    812.84894  0.018223678  0.017467248            8 
 3718000   0.66088764   -7.5969584    812.31109  0.018206721  0.017461791           21 
 3719000    0.6386582    -7.629295    811.68282  0.018187748  0.017456335            8 
 3720000   0.65205072   -7.6185773    812.09051  0.018191992  0.017450874           18 
 3721000   0.65428018   -7.6058836    813.21843  0.018212363  0.017445427           24 
 3722000   0.65249154   -7.6087145    811.63996  0.018172129  0.017439985           16 
 3723000   0.65112489    -7.601716    813.77238  0.018214979  0.017434553            7 
 3724000   0.66357583   -7.5981605    813.79856  0.018210673  0.017429123           16 
 3725000   0.65814356   -7.5895425     813.7595   0.01820491  0.017423703           20 
 3726000   0.66337826   -7.5900413    814.50735  0.018216751  0.017418291            9 
 3727000    0.6427634   -7.5972774    813.94716  0.018199337  0.017412882           13 
 3728000   0.65797177   -7.6185291    813.45789  0.018183519  0.017407476            8 
 3729000   0.65692681   -7.6064297     812.6613  0.018160841  0.017402066           20 
 3730000   0.67314072   -7.6126774    814.39474  0.018194699  0.017396649            6 
 3731000   0.66476309   -7.6031909    813.85584  0.018177786  0.017391237            4 
 3732000   0.64931971   -7.5995691    813.37499  0.018162178  0.017385822            5 
 3733000   0.64917837   -7.6096996    814.57359   0.01818407  0.017380411            4 
 3734000   0.65188594   -7.6028469    816.00181  0.018211074   0.01737501           14 
 3735000   0.65920488   -7.6083336    813.78182  0.018156667  0.017369607           12 
 3736000   0.65652092   -7.6129957    814.64014  0.018170952    0.0173642           12 
 3737000   0.64750775   -7.6221998    812.48339  0.018117996  0.017358797            8 
 3738000   0.65882507   -7.6000444    814.60073  0.018160351  0.017353403            9 
 3739000   0.66376011   -7.6103799    814.17037  0.018145903  0.017348004            6 
 3740000    0.6657522    -7.630028    812.83497  0.018111296  0.017342605            7 
 3741000   0.65524295   -7.6253987    813.94761   0.01813124   0.01733722            4 
 3742000   0.65166335   -7.5980436    814.61536  0.018141265  0.017331837            7 
 3743000   0.63922212   -7.6216017    813.39302  0.018109204   0.01732645            8 
 3744000   0.65369259   -7.6187346    813.27695  0.018101784  0.017321073           10 
 3745000   0.67428653   -7.6172054    813.07338  0.018092421  0.017315689            6 
 3746000   0.64788694   -7.6228665    812.77168  0.018080879  0.017310296            5 
 3747000   0.65114252   -7.6081748    813.81498  0.018099257  0.017304904           10 
 3748000    0.6552068    -7.615301    812.58912  0.018067172  0.017299507           11 
 3749000   0.64366084   -7.6129216     814.7691  0.018110809  0.017294114            6 
 3750000   0.65832033   -7.6217564    815.07286   0.01811273  0.017288732            6 
 3751000   0.67026143   -7.6068115     813.8155  0.018079968  0.017283368           12 
 3752000   0.64848342   -7.5965359    813.87494  0.018076469  0.017277998            9 
 3753000   0.64489535   -7.6202827    813.73797  0.018068611  0.017272621            8 
 3754000   0.64980304   -7.6246034    814.33247  0.018076995  0.017267236           17 
 3755000    0.6508353   -7.6090881    814.66902   0.01807965  0.017261855           14 
 3756000   0.65091444   -7.6255492    813.31402  0.018044773   0.01725649            6 
 3757000   0.63646141   -7.6470218    813.99501  0.018055075  0.017251126           11 
 3758000   0.66431945   -7.6399669    814.50519  0.018061584   0.01724576           15 
 3759000   0.64777106   -7.6207838    812.74035  0.018017654   0.01724039            5 
 3760000   0.65333285   -7.6097651    815.22557  0.018067943  0.017235042           14 
 3761000   0.66902718   -7.6247824     814.0034  0.018036059  0.017229704           12 
 3762000   0.65342753   -7.5962826    813.38707  0.018017612  0.017224346           12 
 3763000   0.64503856   -7.6027827    814.01398  0.018026707  0.017218995            9 
 3764000   0.65427178   -7.6141178     814.5422  0.018033612  0.017213639           12 
 3765000   0.64850696   -7.6169985    814.95203  0.018037893  0.017208277           13 
 3766000    0.6499659   -7.6225756     813.7899  0.018007388  0.017202912            9 
 3767000   0.65975313   -7.6426854    815.07842  0.018031113   0.01719755           10 
 3768000   0.65454352   -7.6505083    813.25017  0.017985894  0.017192175            9 
 3769000   0.64467301   -7.6402862    814.23545  0.018002906    0.0171868            6 
 3770000   0.64596396   -7.6487494    811.65029  0.017940988  0.017181427            8 
 3771000   0.63314239   -7.6223906    812.07607  0.017945639  0.017176049           20 
 3772000   0.66056314   -7.6158358    813.71586  0.017977109  0.017170676            9 
 3773000   0.65740507   -7.6393981    811.98113   0.01793403  0.017165308           11 
 3774000   0.64198225   -7.6171428    812.61192  0.017943206  0.017159952            6 
 3775000   0.64357857   -7.6107416    813.85578  0.017965911  0.017154585            7 
 3776000   0.64891917   -7.6393363    813.84115   0.01796083  0.017149219            8 
 3777000   0.64798913   -7.6213687    814.11946  0.017962216  0.017143855           12 
 3778000   0.64697914   -7.6249851    812.59882   0.01792392  0.017138495            8 
 3779000   0.64419423    -7.651064      813.834  0.017946414  0.017133149            8 
 3780000   0.64534811   -7.6437419    812.89241  0.017920908  0.017127794            6 
 3781000   0.64045164   -7.6507235    812.58212   0.01790933  0.017122426            7 
 3782000   0.62892195   -7.6328736    812.31412  0.017898689  0.017117039            9 
 3783000   0.64349732   -7.6446073    813.43479  0.017918644  0.017111671           10 
 3784000   0.64743511   -7.6456129    812.36488  0.017890347  0.017106311            8 
 3785000   0.66180277   -7.6511468    813.48151  0.017910205  0.017100952           10 
 3786000   0.64816256    -7.631617    814.06262  0.017918265  0.017095594           10 
 3787000   0.64969423   -7.6407316    813.76904  0.017907073  0.017090238           11 
 3788000   0.65003584   -7.6581943    813.74175  0.017901746  0.017084893           32 
 3789000   0.64240015   -7.6571165    812.65679  0.017873159   0.01707956           23 
 3790000   0.63657464   -7.6561984    814.41867  0.017907183  0.017074222           17 
 3791000   0.65062051   -7.6365828    813.98286  0.017892879  0.017068895           21 
 3792000   0.63455305   -7.6612518      813.737  0.017882758  0.017063569           12 
 3793000   0.65295135   -7.6609195    813.78541  0.017879106  0.017058252           16 
 3794000   0.64693953   -7.6373138    814.45239  0.017889044   0.01705294            8 
 3795000   0.65013667    -7.635896    813.28593  0.017858716  0.017047614           13 
 3796000   0.63639127   -7.6402744    814.72203  0.017885538  0.017042285            8 
 3797000   0.63750128   -7.6898981    813.67593  0.017857869  0.017036964            6 
 3798000   0.63957506   -7.6587417    812.48122  0.017826953  0.017031624            7 
 3799000   0.66079905   -7.6573792     811.9497  0.017810602  0.017026293            8 
 3800000   0.64311364   -7.6548411    813.54071  0.017840805  0.017020958            6 
 3801000   0.64974425   -7.6509238    813.56213  0.017836581   0.01701564           11 
 3802000   0.63280616   -7.6470617    812.48488  0.017808278  0.017010315            8 
 3803000   0.64498375   -7.6271307    813.15951  0.017818378  0.017005001            8 
 3804000   0.65332809   -7.6538381    815.59398  0.017867026  0.016999694            8 
 3805000   0.64026428   -7.6373689    813.61376  0.017818961  0.016994386            7 
 3806000   0.63956621   -7.6179056    813.32154  0.017807881  0.016989087           14 
 3807000   0.63746889   -7.6124744      814.592  0.017831013  0.016983783           10 
 3808000   0.65470891   -7.6274689    813.38646  0.017799949  0.016978486           12 
 3809000   0.63995653   -7.6585247    814.41917  0.017817869  0.016973185            6 
 3810000   0.62669305   -7.6620497    814.09365  0.017806073  0.016967891           15 
 3811000   0.63990175   -7.6535944    813.34325  0.017784992  0.016962583           12 
 3812000   0.62895179   -7.6588864    813.53719  0.017784566  0.016957284            9 
 3813000   0.63320363   -7.6522005    812.41425   0.01775536  0.016951982           18 
 3814000   0.63206122   -7.6794521    812.66263  0.017756132  0.016946677           43 
 3815000   0.64407245   -7.6573644    812.08137   0.01773878  0.016941379           32 
 3816000   0.64215335   -7.6559687     813.5369  0.017765918  0.016936078           35 
 3817000    0.6503326   -7.6393291    814.25422  0.017776924  0.016930789           14 
 3818000   0.63950238   -7.6359286    815.21351  0.017793206  0.016925497           12 
 3819000   0.63551534   -7.6400032    814.72412  0.017777868  0.016920225           16 
 3820000    0.6480491   -7.6292862    815.31211  0.017786041  0.016914957           12 
 3821000   0.63732189   -7.6418457    814.06079  0.017754096  0.016909692            9 
 3822000    0.6345398   -7.6324075    812.89037  0.017723931   0.01690443           11 
 3823000   0.65266933   -7.6556114    812.32847  0.017707047  0.016899166           11 
 3824000   0.63056133   -7.6458361    813.12808  0.017719841  0.016893898           10 
 3825000   0.63431859   -7.6465815    814.80659  0.017751778  0.016888623           22 
 3826000   0.63223534    -7.664222    814.70412  0.017744906  0.016883352           14 
 3827000   0.64963823    -7.647967    815.46369  0.017756809  0.016878091           14 
 3828000   0.62299458    -7.634657    814.78587  0.017737414  0.016872835            8 
 3829000   0.64165466   -7.6503908    813.55484   0.01770599  0.016867578           14 
 3830000   0.64211285   -7.6507073    813.70082  0.017704543   0.01686232           18 
 3831000   0.64054072   -7.6502454    813.45994  0.017694682  0.016857058           13 
 3832000   0.64453356   -7.6447971    814.48769  0.017712415  0.016851807           19 
 3833000   0.64878261   -7.6393197    814.16227  0.017700719  0.016846567           19 
 3834000   0.63855542   -7.6547968    812.89125  0.017668476  0.016841324           17 
 3835000   0.64164576   -7.6354258     815.2046  0.017714137  0.016836073           10 
 3836000    0.6445986   -7.6333562    813.92538   0.01768173  0.016830829           10 
 3837000   0.64415363   -7.6276046     813.8445  0.017675365  0.016825609           18 
 3838000   0.64672281   -7.6359718    814.83795   0.01769233  0.016820384            9 
 3839000   0.64966271    -7.632328    814.55999  0.017681688  0.016815148           11 
 3840000   0.63862931   -7.6199401    814.09979  0.017667096  0.016809911            9 
 3841000   0.64036767    -7.647155    815.20011  0.017686369   0.01680467           15 
 3842000   0.63098316   -7.6591315    812.40255  0.017621086  0.016799424           12 
 3843000   0.64888103   -7.6480388    814.56699  0.017663436  0.016794182           11 
 3844000   0.62952642   -7.6479183    813.59572  0.017637784  0.016788941            9 
 3845000   0.64897424   -7.6590805    815.22235  0.017668452  0.016783705           13 
 3846000     0.641921   -7.6615545    814.34707  0.017644892  0.016778473            5 
 3847000   0.64591888   -7.6438091    814.39102  0.017641258  0.016773229           11 
 3848000   0.63988012   -7.6299287    814.34708  0.017635722  0.016767985           12 
 3849000   0.63639192   -7.6443756    814.86058  0.017642257  0.016762762           18 
 3850000   0.63022121   -7.6542466    812.85187  0.017594196  0.016757529            8 
 3851000   0.64512193   -7.6470401    814.31602  0.017621311  0.016752303            6 
 3852000   0.62529845   -7.6605347    813.16275  0.017591787  0.016747077            4 
 3853000   0.64275327   -7.6530257    813.54419  0.017595471  0.016741853            6 
 3854000   0.61878314   -7.6537595    814.63083  0.017614401  0.016736619            9 
 3855000   0.63801885   -7.6595213    813.18248  0.017578523   0.01673139            5 
 3856000   0.63281803    -7.664918    813.34829  0.017577548  0.016726158            8 
 3857000    0.6391551   -7.6426392    814.46405  0.017597097  0.016720926            6 
 3858000   0.63436695   -7.6635402    813.48407  0.017571368  0.016715701            5 
 3859000   0.64045371   -7.6727225    814.87447   0.01759684  0.016710474           10 
 3860000   0.64353205   -7.6747412    813.62664  0.017565342  0.016705249            6 
 3861000   0.63937242   -7.6558663    814.45878  0.017578753  0.016700016            8 
 3862000   0.65266028   -7.6514376    814.22586  0.017569175  0.016694793            4 
 3863000   0.64106204   -7.6534599    813.19035  0.017542289  0.016689579            9 
 3864000    0.6157718   -7.6528799    815.11143   0.01757918  0.016684362            9 
 3865000   0.62549221   -7.6557488    814.86475  0.017569313  0.016679144            5 
 3866000    0.6318651   -7.6721669    814.02129  0.017546587  0.016673911            9 
 3867000   0.62430408   -7.6491873    814.93239  0.017561684  0.016668686            4 
 3868000   0.64316184   -7.6549833    813.57679  0.017527938  0.016663472            7 
 3869000   0.64414029   -7.6694215    815.39121  0.017562488   0.01665825            8 
 3870000    0.6298821   -7.6625866      815.207  0.017553984  0.016653025            7 
 3871000   0.62876492   -7.6644815    814.58319   0.01753602  0.016647794            5 
 3872000   0.63752817   -7.6437049    814.22391  0.017523758  0.016642575           11 
 3873000   0.62766239   -7.6724481    813.34951   0.01750042  0.016637352            9 
 3874000   0.62954604   -7.6549972    814.67919  0.017524505  0.016632123            7 
 3875000   0.63241036   -7.6725355    812.82679  0.017480146  0.016626902            6 
 3876000   0.63555858   -7.6666009      814.224  0.017505676  0.016621691            6 
 3877000   0.63053739   -7.6579127    813.90742  0.017494356  0.016616473           11 
 3878000   0.63672056   -7.6695339     813.8583  0.017488789  0.016611277            9 
 3879000   0.62803207     -7.65068    814.28847  0.017493522  0.016606065           13 
 3880000   0.64414561   -7.6523493    811.91653   0.01743807  0.016600861            7 
 3881000   0.63718285    -7.665723    813.36685  0.017464718   0.01659565           11 
 3882000   0.62644563      -7.6588    814.86657  0.017492413  0.016590461           12 
 3883000   0.62605589   -7.6444023    813.73703  0.017463667  0.016585284           15 
 3884000   0.63853895   -7.6392722    813.77252  0.017459932  0.016580108           11 
 3885000    0.6278066   -7.6655177     812.8667  0.017436008  0.016574922            9 
 3886000   0.62217345   -7.6556407    815.33487   0.01748445  0.016569743            5 
 3887000   0.62840955   -7.6348002     814.4789  0.017461601  0.016564571            8 
 3888000   0.63312267   -7.6516418    815.00953  0.017468483  0.016559393           10 
 3889000   0.62221774   -7.6652235     815.2192  0.017468484   0.01655422           13 
 3890000   0.62355465    -7.650073     814.5284  0.017449195  0.016549059           10 
 3891000   0.62026042   -7.6569215    815.45499  0.017464555  0.016543898            9 
 3892000   0.62929883     -7.65325    813.97583  0.017428396  0.016538725           20 
 3893000   0.62679043   -7.6333127    814.94698  0.017444708   0.01653355            9 
 3894000   0.63115459   -7.6477245    813.50172  0.017409299   0.01652839            9 
 3895000   0.61831795   -7.6456361    815.39245  0.017445281  0.016523218           11 
 3896000   0.62841098   -7.6644259    815.11447  0.017434858  0.016518045            7 
 3897000   0.63012826   -7.6659075    814.15801  0.017409931  0.016512873           11 
 3898000    0.6056073   -7.6652617    813.32519   0.01738766    0.0165077           11 
 3899000   0.63009048   -7.6839039    814.11641  0.017400111  0.016502509            7 
 3900000   0.62353424    -7.671952    814.41399  0.017402008  0.016497332           22 
 3901000   0.62573572   -7.6792376    814.20164  0.017393011  0.016492145            8 
 3902000   0.63151896   -7.6582207    813.64956  0.017376763  0.016486958            8 
 3903000    0.6325603    -7.657174    814.43101  0.017388996  0.016481779           11 
 3904000   0.62926912   -7.6569776    813.60714  0.017366956  0.016476602           12 
 3905000    0.6303338   -7.6689004    813.64431  0.017363302  0.016471417            8 
 3906000   0.64388982   -7.6580164    813.07443  0.017346698  0.016466248           15 
 3907000   0.61912942   -7.6834118    813.86837  0.017359192   0.01646108           11 
 3908000   0.62141585   -7.6562779    813.44864    0.0173458   0.01645591           11 
 3909000   0.62502138   -7.6882572    814.36467  0.017360891  0.016450728           10 
 3910000   0.62353067   -7.6855042    813.37932   0.01733545  0.016445557           21 
 3911000   0.64596683    -7.685011    813.83175  0.017340658  0.016440378           21 
 3912000   0.62564784   -7.7103948    811.61514  0.017289007    0.0164352           19 
 3913000   0.62614789   -7.6867681    813.36164  0.017321783   0.01643002           19 
 3914000   0.62157019   -7.6799287    813.20164  0.017313951  0.016424857           13 
 3915000   0.62961323   -7.6695926    814.95559  0.017346862  0.016419691           20 
 3916000   0.62618001   -7.6557162    813.08554  0.017302637  0.016414528           15 
 3917000   0.62367386   -7.6569945    814.08349  0.017319451  0.016409358           12 
 3918000   0.63607937   -7.6822789    813.04177  0.017292874  0.016404197           32 
 3919000   0.61586525   -7.6714352     813.5097  0.017298412  0.016399024           26 
 3920000   0.62839236   -7.6810634    814.21526  0.017308998  0.016393859           16 
 3921000   0.62836551   -7.6768764    813.09236  0.017280718  0.016388684           25 
 3922000   0.61972489   -7.6920065    812.24721  0.017258355  0.016383513           33 
 3923000    0.6168258   -7.6971055    813.68598  0.017284518   0.01637835           29 
 3924000     0.606748   -7.6542377    812.88305  0.017263062  0.016373187           17 
 3925000   0.61892648   -7.6875796    813.66799  0.017275329  0.016368017           25 
 3926000   0.62507157    -7.691773    813.11298  0.017259148  0.016362854           14 
 3927000   0.61780534   -7.6759247    813.59281  0.017264935  0.016357699           18 
 3928000   0.60666122   -7.6840588    812.18259  0.017230622  0.016352542           11 
 3929000   0.62680156   -7.6852886    812.66638  0.017236497  0.016347375           15 
 3930000   0.61974422   -7.6750244    812.69233  0.017232662  0.016342215           22 
 3931000   0.63089153   -7.6718416    814.62074  0.017269158   0.01633706           12 
 3932000   0.60980645    -7.675649    814.17095  0.017255234   0.01633191           18 
 3933000   0.61302254   -7.6945235    814.25135   0.01725255  0.016326748           24 
 3934000   0.62743615   -7.6953101    812.83366  0.017218134  0.016321583           17 
 3935000    0.6222578   -7.7142298    813.99444  0.017238341  0.016316419           18 
 3936000   0.62584868   -7.6970086    812.43337   0.01720091  0.016311263           14 
 3937000   0.63050795   -7.7020467    812.31982  0.017194137    0.0163061            8 
 3938000   0.62701786   -7.7117587    812.84687  0.017200924  0.016300937           39 
 3939000   0.60488087   -7.7069902    812.70761  0.017193611   0.01629577           12 
 3940000   0.62316863   -7.6994908    811.07331  0.017154681  0.016290606           20 
 3941000   0.63293236   -7.6863766    812.44163  0.017179261  0.016285431           14 
 3942000   0.61222502   -7.7017239    811.60002  0.017157112  0.016280262           23 
 3943000   0.61468807   -7.6803349      811.395  0.017148428  0.016275099           17 
 3944000   0.62570567   -7.6862147    811.92947  0.017155373  0.016269931           17 
 3945000   0.63366914   -7.6936203    811.31109  0.017137961  0.016264772           15 
 3946000   0.62954531   -7.7052265    811.80597  0.017144069  0.016259607           21 
 3947000   0.61015518     -7.71271     813.1766  0.017168664  0.016254441           18 
 3948000   0.63158657   -7.7092077    812.69728  0.017154198  0.016249278           30 
 3949000   0.61550299    -7.692293    811.71629  0.017129153  0.016244109           53 
 3950000   0.62474829   -7.6945206    810.53829  0.017099964  0.016238943           39 
 3951000   0.61489071   -7.7325864    812.05864  0.017127703  0.016233775           33 
 3952000   0.61475084   -7.7046319    811.69582  0.017115718  0.016228614           25 
 3953000   0.61174401   -7.7185988    811.92149  0.017116146  0.016223445           31 
 3954000   0.61153721   -7.7244038    810.96166  0.017091588  0.016218283           31 
 3955000   0.62151747   -7.7207767    813.15296  0.017133438  0.016213125           24 
 3956000   0.61814711   -7.6948579    812.32124  0.017111587  0.016207968           16 
 3957000   0.61534456   -7.7283559    811.65526  0.017093237  0.016202817           21 
 3958000   0.63531108   -7.7170352    811.32052   0.01708187  0.016197661           14 
 3959000   0.60687724   -7.7077795    813.08056  0.017114603  0.016192508           17 
 3960000   0.61739371   -7.7116093      811.454  0.017076052  0.016187353           23 
 3961000   0.62341707    -7.703309      813.351  0.017111651  0.016182206           27 
 3962000   0.62016311   -7.7035385    813.23738  0.017104942  0.016177059           17 
 3963000    0.6253966    -7.708086    812.33897  0.017081735  0.016171915           26 
 3964000   0.61192593   -7.7185374    813.07799  0.017092961  0.016166775           18 
 3965000   0.61769475   -7.7076517    811.92577  0.017064434  0.016161635           22 
 3966000   0.62029269    -7.703439    811.20659   0.01704502  0.016156495           25 
 3967000    0.6309919   -7.6839779    811.86168  0.017054485  0.016151363            9 
 3968000   0.62192715   -7.7061471    812.97738  0.017073618  0.016146234           12 
 3969000   0.60799335   -7.6878087    812.26552   0.01705437  0.016141107           10 
 3970000   0.61231188   -7.7007129    812.30095  0.017050818  0.016135976           12 
 3971000   0.61873403   -7.6825165    811.79976  0.017036006  0.016130845            8 
 3972000   0.61155713   -7.7070989    812.04719  0.017036908  0.016125715           19 
 3973000   0.60885888   -7.6836559     813.6273  0.017065763  0.016120594            9 
 3974000   0.61714447   -7.7016576    812.30452   0.01703373   0.01611548           23 
 3975000   0.61030955   -7.6941736     813.6896  0.017058482  0.016110367           12 
 3976000     0.616751   -7.7009369    810.62204  0.016989898   0.01610525            9 
 3977000   0.61327461   -7.7061415    811.11266  0.016995907  0.016100144            8 
 3978000   0.62163253   -7.7046182    812.77023  0.017026358  0.016095028            7 
 3979000   0.61729994   -7.6904645    812.68082  0.017020207  0.016089916           11 
 3980000   0.62420441   -7.7096136    813.32119  0.017029338  0.016084803           16 
 3981000   0.61197437   -7.7114541    811.44643  0.016985817  0.016079692           10 
 3982000   0.60563982   -7.7084977    812.90754  0.017012128   0.01607459            8 
 3983000   0.60805074   -7.7233059    811.25593  0.016973302  0.016069482            9 
 3984000   0.63126954   -7.7071068    813.39006  0.017013681  0.016064373           11 
 3985000   0.61362092   -7.7272267    812.27868  0.016986171  0.016059266           13 
 3986000   0.60905551   -7.7138507    812.90762  0.016995058  0.016054157            7 
 3987000   0.61514878   -7.7399193    811.26154   0.01695639  0.016049055           10 
 3988000   0.62712024   -7.7200287    811.67479  0.016960774  0.016043954            9 
 3989000    0.6124916   -7.6913091    812.28623  0.016969295  0.016038853            9 
 3990000   0.60620488    -7.686246    811.58243  0.016950343  0.016033768            8 
 3991000   0.61279594   -7.7042472    811.61935  0.016946867  0.016028687           11 
 3992000   0.62226536   -7.6994684    812.57968  0.016962669  0.016023606           13 
 3993000   0.61474003   -7.7022197    811.32695  0.016932276  0.016018531           11 
 3994000   0.60783955   -7.6848983    812.37136  0.016949828  0.016013458           18 
 3995000   0.60686084   -7.7068313    811.24587  0.016922108  0.016008382           17 
 3996000   0.60261586   -7.6875032    812.01363  0.016933884  0.016003304           17 
 3997000   0.60251263   -7.7084304    811.32477  0.016915286   0.01599823           13 
 3998000   0.60331814   -7.6987202    812.76914  0.016941161  0.015993158           11 
 3999000   0.59929262   -7.7126051    810.75455  0.016894944  0.015988089            8 
 4000000   0.61969943   -7.6976214    812.89526  0.016935318  0.015983018           21 
 4001000   0.61312668   -7.7126613    812.28625  0.016918401  0.015977955           14 
 4002000   0.61045619   -7.7213189    812.43035  0.016917174  0.015972888           19 
 4003000    0.6058067   -7.7127588    813.26207  0.016930262  0.015967825            9 
 4004000   0.61408414   -7.7096594    812.75612  0.016915504  0.015962774           11 
 4005000    0.6183005   -7.7110878     810.5635  0.016865658  0.015957718           39 
 4006000   0.60989733   -7.7188056    813.87961   0.01693043  0.015952657           17 
 4007000   0.62263335   -7.7160612    810.89442  0.016864122  0.015947601           30 
 4008000   0.62283731   -7.7007997    812.95241  0.016902703  0.015942554           24 
 4009000   0.61723899   -7.7038156    814.55566  0.016931813  0.015937513           23 
 4010000   0.60624626   -7.7290506    812.07809  0.016876103  0.015932466           15 
 4011000   0.61142667   -7.7031264    813.40306  0.016899424  0.015927417            6 
 4012000   0.60890839   -7.7041497     812.2632  0.016871535  0.015922371            8 
 4013000   0.60845682   -7.7059198    812.70267  0.016876457  0.015917323            9 
 4014000   0.59897755   -7.7134701    813.85032  0.016896079  0.015912278           16 
 4015000   0.60279146    -7.682656    812.81033  0.016870285  0.015907237           15 
 4016000   0.60010721   -7.7102228    813.55189  0.016881472  0.015902194           18 
 4017000   0.61732452   -7.7242291    812.44222  0.016854249   0.01589716           10 
 4018000   0.60853733   -7.6958529    811.35203  0.016827444  0.015892118           15 
 4019000   0.61647367   -7.7110822    812.47321  0.016846504  0.015887087           19 
 4020000     0.606796   -7.7149125    811.45551  0.016821217   0.01588205           12 
 4021000   0.61561129   -7.7114962    812.12637  0.016830937  0.015877011           14 
 4022000   0.61596234   -7.7225665    812.14721  0.016827184  0.015871978           15 
 4023000   0.61870737   -7.7226789    812.10329  0.016822092  0.015866954            7 
 4024000   0.60749652   -7.7182773    811.97741  0.016815304  0.015861924            7 
 4025000   0.60748273   -7.7336963    811.00527  0.016790999  0.015856889           16 
 4026000   0.60804253   -7.7168007    812.79201  0.016823812  0.015851866            5 
 4027000   0.60705386   -7.7399685    810.43708  0.016770902  0.015846836            7 
 4028000   0.59863694   -7.7286842    812.28709  0.016805013  0.015841797            7 
 4029000   0.61892525   -7.7149396    813.18623  0.016819439   0.01583677            4 
 4030000   0.58766549   -7.7017801    811.29642  0.016776187  0.015831741            6 
 4031000   0.61819186   -7.7095273    810.50877  0.016755742  0.015826715            6 
 4032000   0.60810892   -7.7312645    810.64083  0.016754316   0.01582168            5 
 4033000   0.61579977   -7.7133544    810.72482  0.016751897  0.015816641           15 
 4034000   0.58909101   -7.7225463    809.65935  0.016725734  0.015811602           12 
 4035000   0.60461067   -7.7210792    812.59897    0.0167823  0.015806564            9 
 4036000   0.61293428   -7.7389967     812.0551  0.016766912  0.015801526           13 
 4037000   0.60724733   -7.7228885    811.55497  0.016752435  0.015796486           22 
 4038000   0.60354041   -7.7175157    812.23701  0.016762362  0.015791463           11 
 4039000   0.60794874   -7.7223014    811.91213  0.016751509  0.015786434           21 
 4040000   0.61222493    -7.719226    812.59946   0.01676154  0.015781409           24 
 4041000   0.59597337   -7.7131757    812.93112  0.016764232   0.01577639            9 
 4042000   0.61580838   -7.7539658    811.28288  0.016726103   0.01577137           10 
 4043000   0.60613199   -7.7126331    810.87624  0.016713584  0.015766348           19 
 4044000   0.61837592   -7.7183594    810.52469  0.016702207  0.015761337           14 
 4045000   0.60844311   -7.7247196    811.07325  0.016709379  0.015756321           21 
 4046000   0.59628386   -7.7281668    812.54271  0.016735515  0.015751302           19 
 4047000   0.61550762   -7.7390652    812.18776  0.016724071  0.015746289           49 
 4048000   0.59784027   -7.7384194    811.34904  0.016702673  0.015741273           28 
 4049000   0.60830562   -7.7306431    812.65695  0.016725466  0.015736259           21 
 4050000   0.60696548   -7.7206999    811.14756  0.016690279  0.015731245           38 
 4051000   0.60202245   -7.7345003    810.41028  0.016670992  0.015726232           23 
 4052000   0.59403899   -7.7222464    812.31749  0.016706102   0.01572123            7 
 4053000   0.60259784    -7.733309    811.29789  0.016681016  0.015716221           37 
 4054000    0.6068523   -7.7370777    811.40517  0.016679107  0.015711223            6 
 4055000   0.59816305   -7.7603949    810.59425  0.016658328  0.015706199           24 
 4056000   0.60330189    -7.727546    811.66253   0.01667617  0.015701194           22 
 4057000   0.60168391   -7.7312481    811.78583  0.016674592   0.01569619           17 
 4058000   0.59170621    -7.716489    813.29262  0.016701426  0.015691194           13 
 4059000   0.61396294   -7.7191893    812.22108  0.016675312  0.015686204           20 
 4060000   0.59962091   -7.7130972    812.45378  0.016675981  0.015681221           27 
 4061000   0.60165546   -7.7318052    810.45104  0.016630777  0.015676236           16 
 4062000   0.61520381   -7.7179219    811.27194  0.016643524  0.015671246           14 
 4063000   0.59465405   -7.7271132    811.29333  0.016639866  0.015666263           25 
 4064000   0.59052956   -7.7436459    812.04294  0.016651143   0.01566129           21 
 4065000   0.59829794    -7.706088    811.01341  0.016625941  0.015656314           19 
 4066000   0.60556183   -7.7108222    811.46493  0.016631106  0.015651348           18 
 4067000   0.60049377    -7.726709    812.42182  0.016646624  0.015646376           16 
 4068000    0.5961161   -7.7328542    812.75129  0.016649281  0.015641405           11 
 4069000   0.59410886   -7.7139991    811.57241  0.016621045  0.015636434           13 
 4070000   0.60865786   -7.7048223    811.91926  0.016624063  0.015631463           18 
 4071000   0.60227394   -7.7207048    812.93997  0.016640874  0.015626503            9 
 4072000     0.592797   -7.7475884    811.86787  0.016614847   0.01562154           13 
 4073000   0.57804927   -7.7404534    810.55227   0.01658385  0.015616573            6 
 4074000   0.60172133   -7.7260984    812.54522  0.016620545   0.01561161           18 
 4075000   0.59640988   -7.7380831    812.21506  0.016609715  0.015606651           25 
 4076000   0.59983268   -7.7406745    811.64162  0.016593916   0.01560169           25 
 4077000   0.58644481   -7.7316753    810.98124  0.016576348  0.015596725           21 
 4078000   0.60349989   -7.7352379    811.67538  0.016586468  0.015591769           17 
 4079000   0.59630919   -7.7348505     811.7856  0.016584653  0.015586811           17 
 4080000   0.59633062   -7.7372231    811.79263  0.016580732  0.015581849           10 
 4081000   0.60577602    -7.749205     812.1413  0.016583789  0.015576884           12 
 4082000     0.592173   -7.7405071    812.44697  0.016585966  0.015571925           22 
 4083000   0.59839328      -7.7453    810.69758  0.016546199  0.015566974           15 
 4084000   0.59735653    -7.763536    812.85378  0.016586145  0.015562018           10 
 4085000   0.58361458   -7.7216039    811.14473   0.01654722  0.015557062           17 
 4086000   0.59904662   -7.7391353    810.64086  0.016532894  0.015552105           18 
 4087000   0.59741448   -7.7613574    810.97176  0.016535596  0.015547146           13 
 4088000   0.59866792   -7.7326548    811.15348  0.016535255  0.015542197            9 
 4089000   0.59458433   -7.7488969    810.71815  0.016522339  0.015537247           21 
 4090000   0.60247235   -7.7387423    810.52255  0.016514314  0.015532298            9 
 4091000    0.6046368   -7.7406004    811.80483  0.016536398  0.015527353           10 
 4092000   0.59458888   -7.7341652    811.31091  0.016522298  0.015522418           21 
 4093000   0.58374874   -7.7449795    810.27632  0.016497197  0.015517475           14 
 4094000   0.58904791   -7.7377558    813.27422  0.016554189  0.015512533           22 
 4095000   0.59869072   -7.7442337    810.78966  0.016499586  0.015507594           24 
 4096000   0.60506288   -7.7488869    811.17963  0.016503492   0.01550265           19 
 4097000   0.60023702   -7.7509381    812.36154  0.016523504  0.015497705           19 
 4098000   0.59372724   -7.7534271    811.92779  0.016510651  0.015492762           13 
 4099000   0.59470706   -7.7640257    810.98984  0.016487555  0.015487821           26 
 4100000   0.60155255    -7.750229    811.50208  0.016493945  0.015482884           18 
 4101000   0.60141559   -7.7455433    811.64021   0.01649273  0.015477947           28 
 4102000   0.58884699   -7.7456414    811.80234  0.016492003  0.015473014           22 
 4103000    0.6037209   -7.7474222    812.49498  0.016502051  0.015468077           13 
 4104000   0.58699865   -7.7471759    810.91919  0.016466033  0.015463142           12 
 4105000   0.60255717   -7.7417119    811.52046  0.016474228   0.01545821           14 
 4106000   0.58861632   -7.7809838    811.02762  0.016460213   0.01545328           14 
 4107000     0.598838   -7.7694287    811.22411  0.016460192  0.015448347           11 
 4108000   0.59779726   -7.7476944    810.89546  0.016449518   0.01544342           13 
 4109000   0.60618351   -7.7670837    810.90259   0.01644566  0.015438509           12 
 4110000   0.58022495   -7.7495516    811.73279  0.016458491  0.015433597           14 
 4111000   0.59770973   -7.7642581    813.31662  0.016486593  0.015428693           16 
 4112000    0.5947606   -7.7599115    811.50249  0.016445819  0.015423782            9 
 4113000   0.59442418   -7.7664364    811.62284  0.016444259   0.01541887           11 
 4114000   0.61130989   -7.7521268    810.12215  0.016409864  0.015413964           20 
 4115000   0.59491745   -7.7667737    811.94754  0.016442842  0.015409056           24 
 4116000   0.58863958   -7.7633708    811.71292  0.016434097  0.015404139           20 
 4117000   0.59741725   -7.7510301    811.73634  0.016430579  0.015399227           25 
 4118000   0.58723424   -7.7519189    810.46654  0.016400893  0.015394318           29 
 4119000   0.58856068    -7.760463    810.24109   0.01639235  0.015389407           16 
 4120000   0.59163609   -7.7681213    810.61027  0.016395839  0.015384491           22 
 4121000   0.59718233   -7.7537063    808.92172  0.016357715  0.015379586           21 
 4122000     0.576642   -7.7726637    810.96283  0.016395011  0.015374665           22 
 4123000   0.60420245    -7.770344    810.12562  0.016374113  0.015369748           27 
 4124000   0.58962984   -7.7569015    811.13584  0.016390556  0.015364835           11 
 4125000   0.59230822   -7.7695026    810.87164  0.016381245  0.015359927           29 
 4126000   0.59450854   -7.7654718    809.41595  0.016347874  0.015355005           17 
 4127000   0.58949275   -7.7775475      810.732  0.016370487  0.015350092           13 
 4128000   0.59928893   -7.7755761    809.91699  0.016350068  0.015345182            8 
 4129000   0.59506082    -7.764154    811.91048  0.016386342  0.015340275           12 
 4130000   0.57702131   -7.7817718    810.36221  0.016351134  0.015335364           12 
 4131000   0.58281807   -7.7629202    811.02142  0.016360474   0.01533046           17 
 4132000    0.5846006   -7.7860918    811.13409  0.016358787  0.015325557           23 
 4133000    0.5811745   -7.7793636    811.12398  0.016354625  0.015320648           25 
 4134000   0.58069239   -7.7488484    809.44199  0.016316763  0.015315743           17 
 4135000   0.60180066   -7.7512917    811.36739   0.01635162  0.015310854           17 
 4136000   0.58568209   -7.7676049    809.94831  0.016319075  0.015305954           19 
 4137000   0.58935606   -7.7835076    809.59682   0.01630805  0.015301048           14 
 4138000   0.58532903   -7.7679125    810.78842  0.016328106  0.015296143           11 
 4139000   0.59515743   -7.7529539    809.61551  0.016300546  0.015291243           15 
 4140000   0.58942614   -7.7973131    810.45597  0.016313526  0.015286344           18 
 4141000   0.59646185   -7.7931283    810.96756  0.016319882   0.01528144           20 
 4142000   0.57852788   -7.7696994    808.24064  0.016261078   0.01527653           33 
 4143000    0.5820285   -7.7862193    809.82654  0.016289053  0.015271613           12 
 4144000   0.58842059   -7.7902149    809.39487  0.016276441  0.015266711           46 
 4145000   0.60430754   -7.7832793    808.55382  0.016255606  0.015261812            8 
 4146000    0.5845548   -7.7820244    810.78141  0.016296459  0.015256911            7 
 4147000   0.57750552   -7.7769064    810.60839  0.016289052  0.015252016           23 
 4148000   0.59127934   -7.7807931    809.61703  0.016265209   0.01524712           23 
 4149000   0.59293618   -7.8042909    809.88063  0.016266583  0.015242226           18 
 4150000    0.6005105   -7.7783733    809.33036  0.016251614  0.015237336           31 
 4151000   0.58931739   -7.7822481    809.61074  0.016253327  0.015232449           11 
 4152000   0.58820637   -7.7875298    808.52144   0.01622755  0.015227563           14 
 4153000   0.59033724   -7.7862162    810.07088  0.016254733  0.015222681           21 
 4154000   0.59061595    -7.772346    812.23165  0.016294167  0.015217804           17 
 4155000   0.58651889   -7.7716219    809.72129  0.016239898  0.015212924           14 
 4156000   0.59410651   -7.7754191     811.1649  0.016264936  0.015208047            9 
 4157000   0.59135248   -7.7696107    809.83737  0.016234411   0.01520317           12 
 4158000   0.57968676   -7.7836101    810.05814  0.016234932  0.015198296            9 
 4159000   0.58579627   -7.7758432    809.24538  0.016214743  0.015193421           12 
 4160000   0.59443604   -7.7925823    809.84731  0.016222903   0.01518855           10 
 4161000   0.57565469   -7.7713381    809.43448  0.016210736  0.015183684           18 
 4162000   0.58075933   -7.7620047    810.39925  0.016226158  0.015178819            9 
 4163000   0.58448092   -7.7764791    809.75443  0.016209353  0.015173956           11 
 4164000   0.57727801   -7.7657936     808.9711  0.016189783  0.015169097           13 
 4165000   0.57626127   -7.7962861    810.19408  0.016210366  0.015164235            6 
 4166000   0.58792929   -7.8093015    810.53575  0.016213309  0.015159374           11 
 4167000   0.59274965   -7.7775624    810.62051  0.016211113  0.015154511           15 
 4168000   0.58100244   -7.7857182    811.02911  0.016215393  0.015149649           19 
 4169000   0.57797629   -7.7682831    810.34914  0.016197912  0.015144794           13 
 4170000   0.59642805   -7.7843025    809.40079  0.016175076  0.015139938           21 
 4171000   0.57854073   -7.7911335    810.09849  0.016185137  0.015135084           11 
 4172000   0.57973274   -7.7768989    812.85505  0.016236318   0.01513023           14 
 4173000    0.5934215   -7.7582088    809.90028  0.016173422  0.015125378           11 
 4174000   0.58869088   -7.7918756    809.16322  0.016154832  0.015120533           21 
 4175000    0.6042321   -7.7707823    809.55053  0.016158693  0.015115684           14 
 4176000   0.59086505   -7.7900211    810.76545  0.016179068  0.015110849           24 
 4177000   0.58847052   -7.7895721     808.6664  0.016133317  0.015106005            9 
 4178000   0.58645777   -7.7974841    810.12025  0.016158454  0.015101164           13 
 4179000   0.59717675   -7.7597179    809.10336   0.01613431  0.015096313           34 
 4180000   0.57742799   -7.8077034    809.38877   0.01613614  0.015091466           16 
 4181000    0.5815787   -7.7797745    810.63628  0.016157145  0.015086622           11 
 4182000   0.56710647   -7.7841154    809.85026  0.016137619   0.01508178            9 
 4183000   0.60521522   -7.7738868    809.71825  0.016131131  0.015076945           16 
 4184000   0.58203256   -7.7801546    810.26488  0.016138163  0.015072113           13 
 4185000   0.59202887   -7.7651116    810.29565  0.016134919  0.015067289           11 
 4186000   0.59403482   -7.7821012    809.77413  0.016120683  0.015062458           19 
 4187000   0.58230071    -7.789203    809.89277  0.016119194  0.015057627           10 
 4188000   0.59247144   -7.7986456    808.61517  0.016089923  0.015052796            9 
 4189000   0.58447537   -7.7916833    808.89126  0.016091574  0.015047972           14 
 4190000   0.56967966   -7.7952103    809.89441  0.016107685  0.015043147           16 
 4191000   0.57890045   -7.7860708    808.10745   0.01606831  0.015038324           13 
 4192000    0.5954159   -7.7939841    809.38287  0.016089831  0.015033499           12 
 4193000   0.57853038   -7.8007122    810.18048  0.016101846  0.015028676           10 
 4194000   0.58069993   -7.7777027    809.96867  0.016093798  0.015023851           13 
 4195000   0.58424932   -7.7834868    809.09081  0.016072523  0.015019026           13 
 4196000   0.58318791   -7.7968287    809.91432  0.016085048    0.0150142           14 
 4197000   0.58517014   -7.7949853    810.47457  0.016092339  0.015009377           16 
 4198000   0.57097236   -7.8059304    809.49042   0.01606897  0.015004551           10 
 4199000   0.57263659   -7.7831505    810.45795  0.016084344  0.014999733           15 
 4200000   0.58167209   -7.7807275    809.71193  0.016065713   0.01499492           13 
 4201000   0.58768918   -7.8031552    809.15097  0.016050761  0.014990106           14 
 4202000    0.5778807    -7.769999    809.41189  0.016052116  0.014985297           14 
 4203000   0.57816151   -7.7907484    810.56562  0.016071172  0.014980488           17 
 4204000   0.58489124   -7.7906184    810.70241  0.016070061  0.014975679           14 
 4205000   0.56906985   -7.7847084    809.87996   0.01604994  0.014970879           12 
 4206000   0.58116554   -7.7792168    809.73638  0.016043279   0.01496607           14 
 4207000   0.56966447    -7.797595    809.85746  0.016041864  0.014961261           10 
 4208000   0.57483712    -7.786675    809.25875  0.016026195  0.014956462           21 
 4209000   0.58344275   -7.7857309     809.7655  0.016032421  0.014951654           17 
 4210000    0.5895959   -7.8040901    808.42414  0.016002061  0.014946858           12 
 4211000   0.58256182   -7.8009494    810.45299  0.016038411  0.014942064           14 
 4212000   0.57461236   -7.8249148    809.30372  0.016011865  0.014937268           15 
 4213000   0.57437591   -7.8042932    811.64085  0.016054293  0.014932469           20 
 4214000     0.579943   -7.7978555     807.3553  0.015965735   0.01492768           24 
 4215000   0.58589709   -7.8164679    808.84032  0.015991307  0.014922892           13 
 4216000   0.57478562   -7.7904712    808.93237  0.015989334  0.014918099           14 
 4217000   0.58233821   -7.8065144    808.96926  0.015986271  0.014913305           18 
 4218000   0.56301665   -7.7922771    808.46483  0.015972515   0.01490851           14 
 4219000   0.56282232   -7.7940737    809.51788  0.015989529  0.014903718           14 
 4220000   0.58904372   -7.7909345    808.37847   0.01596324  0.014898932           12 
 4221000   0.57839342   -7.8025459     810.3906  0.015999183  0.014894147           13 
 4222000   0.57246009   -7.7959039      809.673  0.015981229  0.014889364           21 
 4223000   0.56299034   -7.7991341    808.61853  0.015956637  0.014884585           28 
 4224000    0.5854295   -7.8140542    811.31389  0.016006035  0.014879806           19 
 4225000   0.57497799   -7.8023437    809.54484  0.015967354   0.01487502           18 
 4226000   0.57355169   -7.7951813    809.29457   0.01595864  0.014870239           21 
 4227000   0.57813033   -7.8204355    810.22058  0.015973121  0.014865466           22 
 4228000   0.57601433   -7.7809972    807.89093  0.015923426   0.01486069           14 
 4229000   0.57938605   -7.8109981    809.01976  0.015941904  0.014855915           15 
 4230000   0.55887021   -7.7930807    808.72189  0.015932267  0.014851143           21 
 4231000   0.57458751   -7.8072442    808.01356  0.015914551  0.014846371           19 
 4232000   0.56957777   -7.8134229    808.56654  0.015921679  0.014841598           10 
 4233000   0.57075682   -7.8097272    810.65233   0.01595898   0.01483683           15 
 4234000   0.57063585   -7.8336167    808.30799  0.015909069  0.014832056           16 
 4235000   0.57577661    -7.798367    808.84137  0.015915808  0.014827289           13 
 4236000   0.56989407   -7.8127758    808.48797  0.015905099  0.014822517           20 
 4237000   0.56352897   -7.8141853    808.96678  0.015910762   0.01481775           16 
 4238000   0.55827067   -7.7958092    809.71449   0.01592171  0.014812985           12 
 4239000   0.58373168   -7.8203482    809.78953  0.015919429  0.014808218           15 
 4240000   0.57268295   -7.8087066    810.46154  0.015928882  0.014803454           17 
 4241000   0.57107714   -7.8270252    809.88249  0.015913748  0.014798693           19 
 4242000   0.55495936   -7.8293797     808.6552  0.015885887  0.014793934           18 
 4243000   0.57309969   -7.8121592    809.17094  0.015892272  0.014789179           12 
 4244000   0.58453257    -7.805241    808.47742   0.01587491  0.014784427           13 
 4245000   0.57617841    -7.801611    808.39232    0.0158695  0.014779682           15 
 4246000    0.5730342    -7.819594    810.30384  0.015903278  0.014774927           16 
 4247000   0.56256222   -7.8031413    809.87356  0.015891091  0.014770181           21 
 4248000   0.58309376   -7.8101064    809.23554  0.015874834  0.014765427           15 
 4249000   0.56981992   -7.8101481    807.91683  0.015845235  0.014760676           11 
 4250000   0.56350806   -7.8170326    809.96054  0.015881579  0.014755929           13 
 4251000   0.57600246    -7.821155    809.17108  0.015862367  0.014751184           22 
 4252000   0.56141178   -7.8052407    809.53768  0.015865822  0.014746443           21 
 4253000    0.5788315   -7.8058742    808.61707  0.015844053  0.014741696           20 
 4254000   0.57131622   -7.7948028    808.30638  0.015834242  0.014736956           14 
 4255000   0.56991899   -7.8018898    809.34877  0.015850936  0.014732216           14 
 4256000    0.5624523    -7.813478    809.07861  0.015841921  0.014727475           13 
 4257000   0.57544516   -7.8056181    807.65877  0.015810406  0.014722732           25 
 4258000    0.5747544   -7.8020154    808.80355  0.015829097  0.014717989           21 
 4259000   0.56331664   -7.8317657    808.08454  0.015811312  0.014713249           17 
 4260000   0.56171088   -7.8182102    809.83685  0.015841879  0.014708518           15 
 4261000   0.57408642   -7.8015247    809.79161  0.015837276  0.014703789           11 
 4262000   0.57546396   -7.8000209    808.65686  0.015811373  0.014699062           17 
 4263000   0.56628635   -7.8111431    808.46533   0.01580392  0.014694334           21 
 4264000   0.57377324   -7.8331381    808.89134  0.015808539  0.014689617           11 
 4265000    0.5735117    -7.823852    810.17338  0.015829882  0.014684896           17 
 4266000   0.57125332   -7.8101212    808.03471  0.015784394  0.014680173            9 
 4267000   0.57312033   -7.8010758    808.32646  0.015786393  0.014675449           15 
 4268000   0.58154501   -7.7999017    807.55278  0.015767588  0.014670732           14 
 4269000   0.56880004   -7.8266438    808.25173  0.015777538  0.014666011           13 
 4270000   0.57932777   -7.8248688    808.95941  0.015787654  0.014661292           16 
 4271000    0.5693943   -7.8237401    808.94418  0.015783661  0.014656576           16 
 4272000   0.56985716   -7.8218789    808.14284  0.015764334  0.014651866           19 
 4273000     0.573062   -7.8109622    808.86178  0.015774666  0.014647153           14 
 4274000   0.56121001   -7.8205291    808.42528  0.015762465   0.01464245           15 
 4275000   0.56874294    -7.812653    809.02324  0.015770433  0.014637745           14 
 4276000   0.55191579   -7.8398485    807.84154  0.015743716   0.01463304           11 
 4277000   0.58013662   -7.8147493    807.86117  0.015740417  0.014628332           17 
 4278000   0.57706865   -7.8386669     807.8003  0.015735552  0.014623627           10 
 4279000   0.56558504   -7.8304476    809.04992  0.015756211  0.014618925           22 
 4280000   0.57141806   -7.8186839    809.92875  0.015769641  0.014614231           23 
 4281000   0.55967655    -7.829624    809.65191  0.015760568   0.01460954           21 
 4282000   0.56192621   -7.8294858    809.13843  0.015746895  0.014604856           12 
 4283000   0.56185987   -7.8251327    808.79718  0.015736578  0.014600167           22 
 4284000   0.56825647   -7.8249933    808.50933  0.015727306  0.014595477           12 
 4285000   0.56172036   -7.8243346    809.11045  0.015735326  0.014590792           21 
 4286000   0.56016773   -7.8205114    809.61067   0.01574138  0.014586113           20 
 4287000   0.57228613   -7.8348884    809.67342  0.015738928  0.014581432           15 
 4288000   0.56885224   -7.8180068     809.4001  0.015729946  0.014576749           12 
 4289000   0.56160181   -7.8154221    809.25723  0.015723503   0.01457207           12 
 4290000   0.57387986   -7.8313431    809.13303  0.015717425  0.014567394           17 
 4291000   0.56785372   -7.8350737     808.1502  0.015694675  0.014562721           13 
 4292000   0.56109231   -7.8261179    808.71215  0.015701929  0.014558056           13 
 4293000   0.56835771   -7.8223528     808.0704  0.015685814  0.014553391           12 
 4294000   0.57160236   -7.8320172    809.03987  0.015700976  0.014548722           15 
 4295000   0.56185872   -7.8270445    808.59908  0.015688768  0.014544053           16 
 4296000    0.5609703   -7.8405808    808.63382  0.015685789  0.014539387           22 
 4297000   0.55768472     -7.82733    809.35386  0.015696103  0.014534721           12 
 4298000   0.55634751   -7.8396681    809.54438  0.015696145  0.014530063           14 
 4299000    0.5635092   -7.8232448    808.77481  0.015677576  0.014525395           10 
 4300000   0.56147419   -7.8269546    808.29284   0.01566459  0.014520737           17 
 4301000   0.56440629   -7.8340293    809.32155  0.015680879  0.014516087           20 
 4302000   0.55978529   -7.8080372    807.70716  0.015645962  0.014511436           16 
 4303000   0.56315564   -7.8349318    807.87983   0.01564567  0.014506786           32 
 4304000   0.56603717   -7.8193439    808.52401  0.015654508  0.014502145           11 
 4305000   0.55742357   -7.8241478     808.9093  0.015658329  0.014497505           14 
 4306000    0.5497935   -7.8146297    808.89029  0.015654325  0.014492863           16 
 4307000   0.54331103   -7.8315753    808.24999  0.015638302  0.014488224           17 
 4308000   0.55849312   -7.8257502    809.61715  0.015661118  0.014483589           16 
 4309000   0.56541108   -7.8146642    809.27158    0.0156508  0.014478955           16 
 4310000   0.56737427   -7.8034151    809.83096  0.015657985  0.014474322           11 
 4311000   0.56548841   -7.8315263    809.09989  0.015640221  0.014469686           20 
 4312000   0.57343202   -7.8194223    808.37059  0.015622499  0.014465056           14 
 4313000   0.57026236   -7.8305821    808.23412   0.01561624  0.014460428           17 
 4314000    0.5680795   -7.8361232    808.67116  0.015621062  0.014455803            8 
 4315000   0.54978165   -7.8317408     807.6047  0.015596846  0.014451177           18 
 4316000   0.55241002   -7.8264517    808.26469  0.015605976  0.014446549           13 
 4317000   0.56581845   -7.8331565    809.67702  0.015629624  0.014441925           24 
 4318000   0.56037688   -7.8261678    809.73326  0.015627089  0.014437308           14 
 4319000   0.55923168   -7.8113034    808.91392  0.015607662  0.014432688           16 
 4320000   0.56233611   -7.7926559    808.16667  0.015589635  0.014428079           14 
 4321000   0.56074031   -7.8361726    808.22946  0.015587238  0.014423464           17 
 4322000   0.55994595   -7.8335668    809.23244   0.01560297  0.014418851           19 
 4323000   0.57097145   -7.8137315    809.44365  0.015603432  0.014414244           11 
 4324000   0.57412576   -7.8301903    808.51661  0.015581957   0.01440963           11 
 4325000   0.55495246   -7.8180484     808.8461  0.015584703  0.014405018           14 
 4326000   0.56584534    -7.816632    808.42254  0.015572942  0.014400404           14 
 4327000   0.56131467   -7.8266055    808.08444  0.015562831  0.014395793           17 
 4328000   0.55525502   -7.8124679    808.67922  0.015570687  0.014391183           19 
 4329000   0.56527019   -7.8310562    808.74786  0.015568412  0.014386578           10 
 4330000    0.5685541   -7.8433827    808.89576  0.015567663  0.014381974           18 
 4331000   0.56100025   -7.8285285    808.49691  0.015556394  0.014377371           14 
 4332000   0.56094171   -7.8108419    809.68587  0.015575675  0.014372772           11 
 4333000   0.55894591   -7.8300333     810.2819  0.015583543  0.014368171           19 
 4334000   0.57190784    -7.827417    810.14376  0.015577291  0.014363575           35 
 4335000    0.5565192   -7.8143179    809.14992  0.015554593  0.014358978           24 
 4336000   0.56438803    -7.838097    808.67685  0.015541914  0.014354392           15 
 4337000   0.54709325    -7.837137    810.62334  0.015575731  0.014349807           15 
 4338000   0.55319475   -7.8231342    809.15923  0.015544015  0.014345225           11 
 4339000   0.56613935   -7.8326539    809.35496  0.015544192  0.014340631           18 
 4340000   0.56660203    -7.835718    808.51329  0.015524449  0.014336043           21 
 4341000   0.54777657   -7.8389423    808.13731  0.015513655   0.01433146           15 
 4342000    0.5593058   -7.8202675    809.53811  0.015536967  0.014326879           14 
 4343000   0.55845163   -7.8348556    807.82419  0.015500503  0.014322294           14 
 4344000   0.56225527   -7.8478633    807.95193  0.015499385  0.014317709           15 
 4345000   0.55594346   -7.8277581     809.5181  0.015525855   0.01431313           30 
 4346000   0.55579625   -7.8425434    809.23216    0.0155168  0.014308548           14 
 4347000   0.55961288   -7.8406108    807.89751  0.015487645  0.014303972           17 
 4348000   0.55856011   -7.8368309    808.94921   0.01550424  0.014299403           20 
 4349000    0.5486907   -7.8412334    807.99883  0.015482464  0.014294827           12 
 4350000   0.56196325   -7.8301487     808.6771  0.015491898  0.014290258           19 
 4351000   0.56192564   -7.8190777    809.07013  0.015495866  0.014285691           14 
 4352000   0.55132621   -7.8445667    808.05565  0.015472879  0.014281123           18 
 4353000    0.5460988   -7.8491907    809.07563  0.015488851  0.014276555           16 
 4354000   0.55120399    -7.840571    807.99439  0.015464599  0.014271985           21 
 4355000    0.5532324   -7.8506791    806.15165  0.015425787  0.014267419           14 
 4356000   0.56695685   -7.8429867    809.84475  0.015492898  0.014262856           11 
 4357000   0.55848707   -7.8509995     807.6038  0.015446481  0.014258297           15 
 4358000   0.55561195   -7.8447935    807.78788  0.015446456  0.014253737           10 
 4359000   0.55304197   -7.8323355    808.07809  0.015448461  0.014249181           10 
 4360000    0.5560155   -7.8152933    807.95562  0.015442577  0.014244623            9 
 4361000   0.55187914   -7.8434557    808.57887  0.015450945  0.014240065           16 
 4362000   0.55004848   -7.8323841    807.73447  0.015431271    0.0142355           15 
 4363000   0.55597936    -7.840999    807.98183  0.015432459  0.014230939           15 
 4364000   0.55659707   -7.8365568    807.67797   0.01542312  0.014226374           18 
 4365000    0.5422212   -7.8481827    806.58535  0.015398728  0.014221813           17 
 4366000   0.54749884    -7.828783    808.45032  0.015430797  0.014217257           22 
 4367000   0.56509967   -7.8617784    808.21627  0.015422797  0.014212702           12 
 4368000   0.56259884    -7.840833    809.09044  0.015435944  0.014208151           13 
 4369000   0.54747148   -7.8493486    807.52765  0.015402603  0.014203597           10 
 4370000   0.57499037   -7.8606236    808.43563  0.015416393  0.014199048           16 
 4371000   0.54900513   -7.8518034    808.01113  0.015404773  0.014194497           12 
 4372000   0.55612382   -7.8450423    808.66707  0.015413752  0.014189952           12 
 4373000   0.54957419   -7.8502448    808.75583  0.015411918    0.0141854           14 
 4374000    0.5480425   -7.8531761    808.18298  0.015397481  0.014180855           24 
 4375000     0.540028    -7.850097    806.90906  0.015369696  0.014176304           27 
 4376000   0.56914567   -7.8514463    807.58593  0.015379074  0.014171757           23 
 4377000   0.53851443   -7.8371258    807.56368  0.015375137  0.014167211           14 
 4378000   0.55141392   -7.8535219    808.00218  0.015379971  0.014162668           15 
 4379000   0.55573087   -7.8419361    808.43379  0.015384673  0.014158132           14 
 4380000   0.55937911   -7.8382808    807.38762  0.015361256  0.014153588           22 
 4381000   0.55137463    -7.850175    807.33865  0.015356818  0.014149048           16 
 4382000     0.552935   -7.8594116    807.42264  0.015354911  0.014144507           22 
 4383000   0.54677135   -7.8356974    808.28877  0.015367875  0.014139966           19 
 4384000   0.54954598   -7.8519119    808.79111  0.015373919  0.014135429           12 
 4385000   0.55917123    -7.862716    806.96804  0.015335767  0.014130893           10 
 4386000    0.5632716   -7.8719819    808.76356  0.015366385  0.014126359           14 
 4387000   0.55197846   -7.8492266    808.54528  0.015358736  0.014121828           11 
 4388000   0.54755321   -7.8573997    807.68402  0.015338879  0.014117304           12 
 4389000   0.55987305   -7.8390681    809.71183  0.015373886   0.01411279           18 
 4390000   0.55263292   -7.8606283    808.34081  0.015344359  0.014108269            9 
 4391000   0.54657349   -7.8607346     807.6419    0.0153276  0.014103753           15 
 4392000   0.56675924   -7.8412917    807.11848  0.015314179   0.01409923           12 
 4393000   0.54747126    -7.844472    808.03407  0.015328061  0.014094707           20 
 4394000   0.54820454   -7.8598967    808.33885  0.015330353  0.014090189           17 
 4395000   0.55458073   -7.8715156    807.60072  0.015312869  0.014085668           12 
 4396000   0.54307854   -7.8544066    807.48001  0.015307098  0.014081155           16 
 4397000   0.54851781   -7.8382565    808.71568  0.015327035  0.014076651           15 
 4398000    0.5521306   -7.8496848    807.91329  0.015308346  0.014072143           24 
 4399000    0.5537453   -7.8509713    808.92092  0.015323955  0.014067642           18 
 4400000   0.54055749   -7.8337417    807.91789  0.015301475  0.014063134            8 
 4401000   0.54263669   -7.8586171    807.93017  0.015298231  0.014058632           15 
 4402000   0.54694029   -7.8437214    808.98666  0.015314756  0.014054131           13 
 4403000   0.53761179    -7.834545    807.94072  0.015291482  0.014049629           17 
 4404000   0.53892038   -7.8612574    808.53743    0.0152993  0.014045133           12 
 4405000   0.54243896   -7.8396777    808.01936  0.015286026  0.014040634            9 
 4406000   0.55325814   -7.8427086    807.49836  0.015272703  0.014036141            6 
 4407000   0.54219312   -7.8593609    806.76484  0.015255367  0.014031643           16 
 4408000   0.54426147   -7.8473513    808.63773  0.015287313   0.01402715           23 
 4409000   0.54457612   -7.8549282    807.70552  0.015266227  0.014022654            8 
 4410000   0.54020475   -7.8570379    808.02921  0.015268882  0.014018154           27 
 4411000   0.54593116   -7.8507533    806.34925  0.015233682  0.014013656           14 
 4412000    0.5318798   -7.8696695    808.12893  0.015263843  0.014009164            9 
 4413000   0.54366756   -7.8672462    808.26196  0.015262897  0.014004673           15 
 4414000     0.551565   -7.8351742    806.13401  0.015219265  0.014000182           14 
 4415000   0.54434027    -7.863438    807.93811   0.01524987  0.013995694           12 
 4416000   0.53864371   -7.8667972    807.76348  0.015243121  0.013991206           14 
 4417000   0.55137434   -7.8509801    808.06839  0.015245423  0.013986721           11 
 4418000   0.53297987   -7.8468028    807.35401  0.015228497  0.013982237           11 
 4419000   0.54939219   -7.8675598    808.23996  0.015241758  0.013977753            9 
 4420000   0.55048937   -7.8544494    807.33815  0.015221308  0.013973274           11 
 4421000   0.54274744   -7.8611586    808.17824    0.0152337  0.013968802           16 
 4422000   0.54073169   -7.8638643    808.62597  0.015238692  0.013964328           21 
 4423000   0.53996298   -7.8594137    807.74456   0.01521864  0.013959856           13 
 4424000   0.54823475   -7.8449376    808.11618    0.0152222  0.013955389           13 
 4425000   0.54215496   -7.8451962    807.92129   0.01521509  0.013950924           19 
 4426000   0.53622436   -7.8620516    807.68092  0.015207127  0.013946465           14 
 4427000   0.54493237   -7.8758083    807.85827   0.01520703  0.013941999           23 
 4428000   0.53668781   -7.8457004    807.26607  0.015192451  0.013937538           12 
 4429000   0.55329498   -7.8685163    807.93479  0.015201603  0.013933072           23 
 4430000   0.54107153   -7.8577805      807.315  0.015186512  0.013928609           13 
 4431000   0.55486689   -7.8577977    807.75238  0.015191311   0.01392415           14 
 4432000    0.5377364   -7.8634235    808.44236  0.015200857  0.013919694           13 
 4433000   0.53480067   -7.8793197    808.50295  0.015198567  0.013915239           10 
 4434000   0.53833395   -7.8777563    807.49332  0.015176164  0.013910784           13 
 4435000   0.54861151      -7.8707    808.80274  0.015197346  0.013906332           13 
 4436000   0.53317789   -7.8627896    807.52248  0.015169869  0.013901882            9 
 4437000   0.54836308   -7.8604817     806.6529  0.015150118  0.013897435           16 
 4438000   0.54633544   -7.8470314    807.16187  0.015156262  0.013892984           14 
 4439000   0.53905278   -7.8741749    808.27174  0.015173683  0.013888533            8 
 4440000    0.5367499   -7.8715971    807.12542   0.01514875  0.013884091           13 
 4441000    0.5437307   -7.8537109    807.07558  0.015144404  0.013879645           21 
 4442000   0.54093563   -7.8636993    808.88712   0.01517498  0.013875204           18 
 4443000   0.54425026   -7.8711395    806.49949  0.015126782  0.013870761           12 
 4444000   0.54341788   -7.8714625    807.83946  0.015148505  0.013866323           13 
 4445000   0.53227076   -7.8523378    807.07604  0.015130784   0.01386189           17 
 4446000   0.54138033   -7.8637724    806.38221  0.015114376  0.013857451           20 
 4447000    0.5414276   -7.8457523    806.33369  0.015110068  0.013853015           15 
 4448000    0.5484872   -7.8593242    807.72932  0.015132818  0.013848583           24 
 4449000   0.55273054   -7.8548111    806.89513  0.015113792  0.013844151           20 
 4450000   0.53204828   -7.8655395     807.1368  0.015114921  0.013839717           12 
 4451000   0.53901034   -7.8651582    807.09984  0.015110834  0.013835289           21 
 4452000   0.54632157   -7.8597462    806.42826  0.015094869  0.013830858           15 
 4453000   0.53780924   -7.8547198    807.30364  0.015107861  0.013826436           20 
 4454000    0.5482081   -7.8646106    807.90005  0.015115627  0.013822018           20 
 4455000   0.53199138   -7.8669692    807.73334  0.015109116  0.013817594           13 
 4456000   0.53216929   -7.8714627    808.60094  0.015121951  0.013813174           18 
 4457000   0.53394971   -7.8625522    805.97822   0.01506952  0.013808758           21 
 4458000   0.53189718   -7.8635937    807.13537   0.01508777  0.013804342           15 
 4459000   0.55522016   -7.8619044    807.45322  0.015090327  0.013799922           12 
 4460000   0.54625309   -7.8531534    807.64932  0.015090608   0.01379551           28 
 4461000   0.54286185   -7.8772416    808.23772  0.015098216  0.013791098           14 
 4462000   0.52697309   -7.8596886    808.27295  0.015095491  0.013786685           16 
 4463000   0.53165809   -7.8674956    806.99345  0.015068217  0.013782272           23 
 4464000   0.52890093     -7.86453    806.41312  0.015054008  0.013777868           18 
 4465000   0.54116071   -7.8595136    807.54809   0.01507182  0.013773462           14 
 4466000   0.54428106   -7.8842197    806.20645   0.01504341  0.013769056           26 
 4467000    0.5337636   -7.8741887    808.13867  0.015076089  0.013764656           25 
 4468000    0.5347508   -7.8586611    807.63377  0.015063298  0.013760257           22 
 4469000   0.53167308   -7.8728228    808.29888  0.015072329  0.013755853           20 
 4470000   0.52669571   -7.8596159    806.88022   0.01504251  0.013751454           12 
 4471000   0.52827336   -7.8850266    808.11801  0.015062216  0.013747056           16 
 4472000   0.54364876   -7.8836108    806.57173  0.015030034  0.013742659           16 
 4473000   0.54175584   -7.8781867    806.96585  0.015034016  0.013738261           16 
 4474000   0.52879645    -7.864502    807.49817  0.015040571  0.013733872           19 
 4475000   0.54840268   -7.8472673    807.01827  0.015028273  0.013729482           17 
 4476000    0.5316372   -7.8737302    807.22211  0.015028711  0.013725098           18 
 4477000   0.52960402   -7.8624053    807.31884  0.015027154  0.013720712           20 
 4478000   0.53911298   -7.8830863    807.70289  0.015030946  0.013716324           22 
 4479000   0.54436269   -7.8635761    807.36567  0.015021316  0.013711935           20 
 4480000    0.5308513   -7.8677625    807.28933  0.015016543  0.013707547           10 
 4481000   0.53351291   -7.8754773    807.16432  0.015010867  0.013703165           18 
 4482000   0.53676384   -7.8592885    807.82367  0.015019777  0.013698785           16 
 4483000   0.54493246   -7.8650326    807.22435  0.015005286  0.013694408           12 
 4484000   0.52793103   -7.8808104    807.34653   0.01500421  0.013690031           14 
 4485000   0.53772714   -7.8762776    807.71658   0.01500774  0.013685654           15 
 4486000   0.54228211   -7.8713074    806.99874   0.01499106  0.013681282           20 
 4487000   0.54139687    -7.886381    808.64409  0.015018277  0.013676907           19 
 4488000   0.53905556   -7.8699013    806.75048   0.01497977  0.013672526           12 
 4489000   0.53169322   -7.8844947    806.60201  0.014973677  0.013668146           23 
 4490000   0.52924441   -7.8788007    807.70079  0.014990735  0.013663771           15 
 4491000   0.52782247   -7.8791841    806.47711  0.014964691  0.013659397           15 
 4492000   0.52981155   -7.8719682    807.66794  0.014983451  0.013655024           21 
 4493000   0.54103857   -7.8752402    806.10937  0.014951209   0.01365065           18 
 4494000   0.53364861   -7.8737146    806.75463  0.014959847  0.013646277           15 
 4495000   0.54509469   -7.8640442    806.21519  0.014946518  0.013641907           18 
 4496000   0.53365375   -7.8772757    808.90845  0.014993113  0.013637541           17 
 4497000    0.5337191   -7.8832454    807.03238  0.014955014  0.013633176           26 
 4498000   0.54032619   -7.8908885    808.83509  0.014985088  0.013628815           18 
 4499000   0.53695009   -7.8855057    806.43067  0.014937221  0.013624455           17 
 4500000   0.54118094   -7.8775835    807.62282  0.014955978  0.013620097           25 
 4501000   0.53035808   -7.8686751    805.35419  0.014910653  0.013615739           22 
 4502000   0.53315141   -7.8623335    806.13325  0.014921762  0.013611388           24 
 4503000    0.5265627   -7.8636155    807.47053  0.014943196  0.013607042           15 
 4504000   0.51931724   -7.8845807    807.81704  0.014946289    0.0136027           16 
 4505000    0.5235025   -7.8912019    806.85829  0.014925236  0.013598357           16 
 4506000   0.53386869   -7.8648104    807.09153  0.014926238  0.013594013           16 
 4507000    0.5259149   -7.8905323    807.03454  0.014921872  0.013589671           20 
 4508000   0.52759147    -7.897093    807.42309  0.014925745  0.013585326           19 
 4509000    0.5331525   -7.8787558    806.77188  0.014910399  0.013580985           28 
 4510000   0.52684924   -7.8830563    806.70857  0.014905923  0.013576644           11 
 4511000   0.52029729    -7.886568    806.67637  0.014902024  0.013572304           24 
 4512000   0.52643659   -7.8774047    806.90874  0.014903013  0.013567969           15 
 4513000   0.52864108   -7.8814027    806.88185  0.014899214  0.013563633           26 
 4514000   0.52380154   -7.9006987    807.03162  0.014898678    0.0135593           10 
 4515000   0.52774167   -7.8925451    805.98504  0.014876062  0.013554966           20 
 4516000   0.53932171   -7.8791963     806.8876  0.014889423  0.013550635           11 
 4517000   0.55294358   -7.8653733    807.79293  0.014902829  0.013546313           16 
 4518000   0.52806364   -7.8690162    806.49819  0.014875649  0.013541985           19 
 4519000   0.52920055   -7.8675222    806.28103  0.014868353  0.013537664           21 
 4520000   0.52609202   -7.8857719    806.87538  0.014876021  0.013533342           19 
 4521000   0.53055238   -7.8772819    806.28323  0.014861816  0.013529016           17 
 4522000   0.52471519   -7.8963236    808.48634  0.014899129  0.013524696           23 
 4523000   0.53521983   -7.8723487    806.52896  0.014859772  0.013520374           20 
 4524000   0.52222493   -7.8870208     805.2979   0.01483381  0.013516058           18 
 4525000   0.53027807   -7.8839895    806.96594  0.014861251   0.01351174           24 
 4526000   0.51764976   -7.8786872    806.32339  0.014846137  0.013507422           15 
 4527000   0.52900493   -7.8772162     806.9087  0.014853632  0.013503107           20 
 4528000   0.53538828   -7.8866707    806.51446  0.014843096  0.013498801           13 
 4529000   0.53175113   -7.8779342    806.12593   0.01483267  0.013494494           10 
 4530000   0.53203667    -7.884859    805.86048  0.014824512  0.013490185           28 
 4531000   0.52288857   -7.8860927    806.39266  0.014831028  0.013485879           13 
 4532000   0.51464632   -7.8994503    805.93548  0.014819349  0.013481572           29 
 4533000   0.52106186   -7.8952544     806.6863  0.014829883  0.013477264           14 
 4534000   0.53454945   -7.8671778    805.85687  0.014811367  0.013472958           25 
 4535000   0.51728255   -7.8959242    807.35314  0.014835596  0.013468655           12 
 4536000   0.53389362   -7.8863762    806.29276  0.014812845  0.013464349           14 
 4537000   0.52191819   -7.8924188    806.41839  0.014811887  0.013460045           11 
 4538000   0.51962612   -7.8880903    805.79649  0.014797203  0.013455741           18 
 4539000   0.53412897   -7.8774578    805.85371  0.014794993  0.013451439           25 
 4540000   0.51302237   -7.8980803    806.04296  0.014795209  0.013447134           24 
 4541000    0.5311237   -7.8896336    805.83694   0.01478817  0.013442831           19 
 4542000   0.53185717   -7.9001791    806.31025  0.014793598  0.013438532           30 
 4543000    0.5261131    -7.899258    805.85161  0.014781928  0.013434232           15 
 4544000   0.51521005   -7.8969461    804.58202  0.014755392  0.013429935           20 
 4545000   0.52209881   -7.8997666    804.40305  0.014748864  0.013425637           17 
 4546000   0.52612537   -7.9081774    805.88833  0.014772847  0.013421344           19 
 4547000   0.51724645   -7.8945295    806.83721  0.014786988  0.013417051           17 
 4548000   0.52419364   -7.8856909    806.89586  0.014784811  0.013412759           12 
 4549000   0.52435514   -7.8962701    805.46292  0.014755311  0.013408474           15 
 4550000   0.52312614   -7.8854342    805.59751  0.014754533  0.013404188           27 
 4551000   0.51666246   -7.8851876    806.23278  0.014762924  0.013399904           25 
 4552000   0.53199095   -7.8999329    806.64615  0.014767248  0.013395622           12 
 4553000   0.51720701   -7.8925746    805.78367  0.014748219  0.013391345           24 
 4554000   0.51645183   -7.9089645    806.56226  0.014759227  0.013387066           18 
 4555000   0.52666826   -7.9020824    806.01608  0.014745995  0.013382789           25 
 4556000   0.53141557   -7.8949078    805.74661  0.014737829  0.013378514           15 
 4557000   0.51567626   -7.8911717    805.37561  0.014727811  0.013374238            9 
 4558000   0.52933327   -7.9074334    805.55053  0.014727778   0.01336996           23 
 4559000   0.52509694   -7.8942618    805.77694  0.014728686  0.013365683           15 
 4560000    0.5168257     -7.91448    805.61927  0.014722574  0.013361409           18 
 4561000   0.51364101   -7.9102251    805.30647  0.014713631  0.013357136           22 
 4562000   0.51561336   -7.8908282    805.95938  0.014722333   0.01335287           12 
 4563000   0.53028256   -7.8947485    807.04449  0.014738923  0.013348604           33 
 4564000   0.52481388   -7.9153567     806.9094  0.014733227  0.013344342           23 
 4565000   0.53288744   -7.9021004    804.61607  0.014688136  0.013340081           25 
 4566000   0.52066274    -7.893272    805.51412  0.014701309  0.013335814           24 
 4567000   0.51537921   -7.9050616    805.72691  0.014701973  0.013331557           13 
 4568000   0.51988131   -7.9152844    804.93233  0.014684259  0.013327303           17 
 4569000    0.5234822   -7.8878552    805.73592  0.014695701   0.01332305           16 
 4570000   0.52280578   -7.9210152    805.00944  0.014679238  0.013318797           23 
 4571000   0.51139857   -7.9061848    806.44111  0.014702128  0.013314536           25 
 4572000   0.51889533   -7.9114813    805.52908  0.014682288  0.013310282           17 
 4573000   0.51698876   -7.8949831    805.20973  0.014673258  0.013306031           29 
 4574000   0.52229828   -7.8988368    805.73276  0.014679579  0.013301783           30 
 4575000   0.51651648   -7.8989089    806.69555  0.014693908  0.013297535           26 
 4576000   0.52381476   -7.8895798    806.79445  0.014692498  0.013293289           26 
 4577000   0.51451046   -7.8978813    806.00638   0.01467494  0.013289043           24 
 4578000   0.52606149   -7.8913392    806.04537  0.014672444  0.013284804           13 
 4579000   0.51643005   -7.9059774    806.31817  0.014674204  0.013280562           17 
 4580000   0.51703642   -7.8910267    804.79875  0.014643354  0.013276319           30 
 4581000    0.5113102   -7.9095001    804.31235   0.01463131  0.013272077           35 
 4582000   0.52022031   -7.9024684    805.13945  0.014643159  0.013267837           26 
 4583000   0.50962049   -7.8955189    806.38822   0.01466267    0.0132636           23 
 4584000   0.52927436   -7.8994701    806.05946  0.014653495  0.013259368           22 
 4585000   0.51616729   -7.8957279    806.02872   0.01464974  0.013255141           24 
 4586000   0.51144178   -7.9122874     806.2999  0.014651474   0.01325091           18 
 4587000   0.51710126   -7.9087057    805.51819  0.014634078   0.01324668           21 
 4588000   0.51363391   -7.9073918    805.63214  0.014632958  0.013242455           23 
 4589000   0.50162259   -7.9036816    805.80272  0.014632867  0.013238229           37 
 4590000    0.5287917   -7.8896791      806.278  0.014638308  0.013234006           16 
 4591000   0.51715536   -7.9144115    804.58374  0.014604366  0.013229784           28 
 4592000   0.51758185   -7.9135813    805.04964  0.014609641  0.013225561           13 
 4593000   0.51751978   -7.9085331    806.15138  0.014626449  0.013221345           13 
 4594000   0.51260234   -7.9170284    807.13987  0.014641196  0.013217126           23 
 4595000   0.50961911   -7.9026328    806.26681  0.014622176  0.013212905           17 
 4596000   0.51788615   -7.9292432    805.17923  0.014599275  0.013208692           18 
 4597000   0.51443404   -7.9108858     805.7216  0.014605931  0.013204476           24 
 4598000   0.50328593   -7.9089049    805.79576  0.014604099  0.013200263           19 
 4599000    0.5069815    -7.903962    806.29037  0.014609886  0.013196051           12 
 4600000    0.5201397   -7.9142855    804.03934   0.01456593  0.013191844           25 
 4601000   0.50083614   -7.9206815    805.87697  0.014596047   0.01318763           21 
 4602000   0.50834467    -7.916087    806.15757  0.014597957  0.013183423           28 
 4603000   0.50829856   -7.9263412    805.59838  0.014584662  0.013179213           28 
 4604000   0.51856308   -7.9291224    805.28882  0.014575891  0.013175003           22 
 4605000   0.51869651   -7.9192894    805.60845   0.01457851  0.013170798           20 
 4606000   0.50730946   -7.9130572     804.9327  0.014563119  0.013166594           22 
 4607000   0.51529083   -7.9077408    805.25545  0.014565796  0.013162394           29 
 4608000   0.51031424   -7.9006332    804.09948   0.01454173  0.013158191           33 
 4609000   0.52332334   -7.9253157    805.65591  0.014566716  0.013153995           35 
 4610000   0.48646321   -7.9158678    804.75063  0.014547191  0.013149795           31 
 4611000   0.50706662   -7.9340525    805.75006  0.014562099  0.013145593           36 
 4612000   0.52240859    -7.898052    804.94278  0.014544355  0.013141393           29 
 4613000   0.50858135   -7.8998634     804.3111  0.014529791    0.0131372           12 
 4614000   0.51290366   -7.9054292    805.68867  0.014551522  0.013133008           24 
 4615000   0.52382961   -7.9334746    805.32827  0.014541861  0.013128811           33 
 4616000   0.51209529   -7.9156832    806.11738  0.014552957  0.013124614           38 
 4617000   0.50927041   -7.9216634    805.19457  0.014533149  0.013120423           39 
 4618000   0.50473707   -7.9050071    804.37699  0.014515248  0.013116235           31 
 4619000   0.50465437   -7.9253206    804.55146  0.014515253  0.013112044           19 
 4620000   0.51352175   -7.9169457    805.19912  0.014523794   0.01310786           43 
 4621000   0.51314898   -7.9234796    803.98485  0.014498753  0.013103676           20 
 4622000   0.50742584   -7.9319359    805.93415  0.014530761  0.013099492           26 
 4623000   0.50678861   -7.9367695    804.06825  0.014493984  0.013095307           30 
 4624000    0.5108424   -7.9408127    804.76565  0.014503418  0.013091125           33 
 4625000   0.51433044   -7.9281855    805.32175  0.014510302  0.013086943           45 
 4626000    0.5052327   -7.9304726    804.51814  0.014492689  0.013082766           27 
 4627000   0.50202344   -7.9225965    805.75851  0.014511896  0.013078589           44 
 4628000   0.51170152   -7.9317799    805.49072  0.014503938  0.013074416           37 
 4629000   0.50914065   -7.9152232    805.39539  0.014499089  0.013070246           55 
 4630000   0.51199605   -7.9253994    804.94935  0.014487929  0.013066075           23 
 4631000   0.51804341   -7.9197813    805.33813  0.014491797  0.013061907           38 
 4632000    0.5094056   -7.9224819    804.25652  0.014469209  0.013057737           24 
 4633000   0.51254566   -7.9127404    803.28656  0.014448639  0.013053567           36 
 4634000   0.50612124   -7.8937226    804.57418  0.014468677  0.013049402           32 
 4635000   0.50538567   -7.9202491    804.10037  0.014457037  0.013045237           34 
 4636000   0.49855182   -7.9185027    805.40352  0.014477342  0.013041071           31 
 4637000   0.51356867   -7.9186589    804.31408  0.014454642  0.013036906           31 
 4638000    0.5055716   -7.9140271      805.409  0.014471198  0.013032745           36 
 4639000   0.49538094   -7.9338172    805.95744  0.014477931  0.013028586           29 
 4640000   0.50818179   -7.9373647    805.84856  0.014472855   0.01302443           25 
 4641000   0.51344885    -7.930104    804.77396  0.014450441  0.013020273           29 
 4642000   0.51150828   -7.9190834    804.11571  0.014435511   0.01301612           31 
 4643000   0.51488014   -7.9355766    804.27361  0.014435236  0.013011966           25 
 4644000   0.50490968   -7.9177688    804.82285  0.014441983  0.013007814           21 
 4645000   0.50225739   -7.9348258     804.7913  0.014438308  0.013003665           30 
 4646000   0.50782406   -7.9408782     804.6549  0.014432754  0.012999512           24 
 4647000   0.49759288   -7.9171697    804.51029  0.014427055  0.012995362           24 
 4648000   0.51259416    -7.906649     804.7848  0.014428873  0.012991214           28 
 4649000   0.50280974   -7.9247176    804.43465  0.014419492  0.012987066           38 
 4650000   0.50176021   -7.9267064    805.76052  0.014440153  0.012982923           47 
 4651000   0.51603679   -7.9244788    803.72568  0.014400589  0.012978781           31 
 4652000   0.50618676    -7.922951    803.79417   0.01439872  0.012974639           28 
 4653000   0.49828097   -7.9394298    803.98007  0.014398955  0.012970498           34 
 4654000   0.51166111   -7.9242258    805.12107  0.014416292  0.012966354           18 
 4655000   0.51140192   -7.9341541    805.41061  0.014418378  0.012962215           28 
 4656000   0.51249177   -7.9207857    804.87851  0.014405758  0.012958078           22 
 4657000    0.5143926   -7.9417011    803.86866  0.014384594  0.012953943           22 
 4658000    0.5002462   -7.9206995    804.68982  0.014396197  0.012949811           37 
 4659000     0.504753   -7.9273403    804.55864  0.014390761  0.012945681           46 
 4660000   0.50984756   -7.9191245    804.47942  0.014386256  0.012941556           32 
 4661000   0.50059573   -7.9240086    805.17277  0.014395566  0.012937432           27 
 4662000   0.51053903    -7.907031    804.08224  0.014372984  0.012933308           37 
 4663000   0.51406912   -7.9333662    804.79196  0.014382586   0.01292919           33 
 4664000   0.50788348   -7.9232083    803.40776   0.01435477  0.012925069           24 
 4665000   0.50608061   -7.9287617    804.68838  0.014374569  0.012920953           34 
 4666000     0.508146    -7.933182    803.66813  0.014353267  0.012916838           23 
 4667000   0.49943183   -7.9283923    803.75895  0.014351813  0.012912723           26 
 4668000   0.49379628   -7.9348278    803.82762  0.014349965  0.012908606           28 
 4669000   0.50278793   -7.9277025    804.99508  0.014367728  0.012904493           31 
 4670000   0.50091235   -7.9351948     805.1179  0.014366843   0.01290038           27 
 4671000     0.504787     -7.92819    804.08773  0.014345389  0.012896269           27 
 4672000   0.50203826   -7.9426048    804.58747  0.014351232  0.012892161           30 
 4673000   0.50888298   -7.9261906    805.69762  0.014367958  0.012888052           33 
 4674000   0.50566766   -7.9281963    803.44933  0.014324799  0.012883945           29 
 4675000   0.50258814   -7.9254525    804.68936  0.014343839  0.012879842           34 
 4676000   0.50393519   -7.9400255    803.91915  0.014327045  0.012875744           37 
 4677000   0.49368016   -7.9217878    805.24422  0.014347591  0.012871646           28 
 4678000   0.49635274   -7.9266714    806.31912  0.014363673  0.012867547           20 
 4679000   0.49627942   -7.9312968    805.75954  0.014350636  0.012863453           33 
 4680000   0.51052403    -7.947974    803.69485  0.014310806  0.012859358           30 
 4681000   0.50586382   -7.9268689    804.67351  0.014325171   0.01285526           18 
 4682000   0.50475602      -7.9398    802.12409  0.014276735  0.012851166           31 
 4683000   0.50185435    -7.925648    804.52977  0.014316495  0.012847071           29 
 4684000   0.50310103   -7.9294372    803.96023  0.014303306  0.012842975           30 
 4685000   0.51702651   -7.9259962    804.02714  0.014301443  0.012838884           33 
 4686000   0.49876802   -7.9367333    803.70832  0.014292722  0.012834795           29 
 4687000   0.49481667   -7.9384607    804.80101    0.0143091  0.012830703           21 
 4688000   0.50853952   -7.9430626     803.6494  0.014285577  0.012826615           23 
 4689000   0.50160079   -7.9367702    804.50939  0.014297814  0.012822532           32 
 4690000   0.49905872   -7.9335459    804.10643  0.014287605  0.012818451           22 
 4691000    0.5090205   -7.9329287    804.21218  0.014286438  0.012814372           25 
 4692000   0.50779501   -7.9400482    803.42641  0.014269438  0.012810292           30 
 4693000   0.50239977   -7.9391794    804.61874  0.014287569  0.012806212           26 
 4694000   0.50134559   -7.9413741    805.18367  0.014294555  0.012802126           26 
 4695000   0.50471291   -7.9419761    804.73106  0.014283476  0.012798045           24 
 4696000    0.5104749   -7.9404754    803.17752  0.014252866  0.012793966           27 
 4697000   0.50753043   -7.9304913    803.36358  0.014253133  0.012789889           28 
 4698000   0.49387936   -7.9287746    803.96214  0.014260716  0.012785815           26 
 4699000   0.50487157   -7.9255426    804.11751  0.014260437  0.012781745           29 
 4700000   0.48857382   -7.9451371    804.00296  0.014255372  0.012777672           21 
 4701000   0.50092395   -7.9332188    803.83212  0.014249311  0.012773601           30 
 4702000    0.5034078   -7.9602628    803.48028  0.014240045  0.012769528           28 
 4703000   0.49916827   -7.9420167     804.8946  0.014262077  0.012765457           24 
 4704000   0.49642153   -7.9492808    804.25538  0.014247721  0.012761392           30 
 4705000   0.50820286   -7.9337526    804.26826  0.014244921  0.012757331           15 
 4706000   0.50571593   -7.9464094    803.94664  0.014236199  0.012753266           29 
 4707000   0.48595226   -7.9453959    803.67689  0.014228399  0.012749206           21 
 4708000   0.49801764    -7.944038    805.49704  0.014257594  0.012745146           30 
 4709000   0.49576085   -7.9405505    804.41496  0.014235417  0.012741091           26 
 4710000   0.50188208   -7.9601297    803.85248  0.014222443  0.012737036           19 
 4711000   0.49138811   -7.9485638    802.70932  0.014199203  0.012732983           22 
 4712000    0.5085027   -7.9657645    803.41377  0.014208648  0.012728929           25 
 4713000   0.49152136   -7.9498405    804.72122  0.014228751  0.012724874           23 
 4714000   0.50364937   -7.9379541     803.9743  0.014212528  0.012720824           30 
 4715000   0.49502612   -7.9254346    803.86293  0.014207546  0.012716778           21 
 4716000   0.47927171   -7.9404453    803.62427  0.014200316  0.012712731           23 
 4717000   0.49501055   -7.9314884    803.66668  0.014198055  0.012708684           27 
 4718000    0.4940444   -7.9465449    804.13241  0.014203271  0.012704637           27 
 4719000   0.49983033   -7.9326718    802.39306  0.014169546   0.01270059           18 
 4720000   0.50563462   -7.9254992    803.77748  0.014190987   0.01269655           26 
 4721000   0.48434448   -7.9557918    803.75395  0.014187565  0.012692507           27 
 4722000   0.50136605    -7.959032    804.67319  0.014200783   0.01268847           22 
 4723000    0.5066573   -7.9383645    803.03538  0.014168879  0.012684428           21 
 4724000   0.49910516   -7.9435576    804.03122  0.014183447  0.012680393           25 
 4725000    0.4968768   -7.9502829    804.11505  0.014181923  0.012676362           25 
 4726000   0.48453997   -7.9528932    804.14242  0.014179405  0.012672327           22 
 4727000   0.49883333   -7.9500234    804.13145  0.014176212  0.012668298           29 
 4728000   0.48790275   -7.9436898    804.20362  0.014174486  0.012664273           29 
 4729000   0.50659883   -7.9328435     803.2644  0.014154938  0.012660245           24 
 4730000   0.51513897   -7.9324186    804.31722  0.014170494  0.012656218           24 
 4731000   0.50017965   -7.9308944    804.49867  0.014170694  0.012652193           35 
 4732000   0.50256218   -7.9582471    804.36225  0.014165297  0.012648169           26 
 4733000   0.49221813   -7.9363258    804.26692  0.014160626  0.012644143           20 
 4734000   0.50111696   -7.9482093    803.63218  0.014146461  0.012640121           29 
 4735000   0.50394247    -7.958227    802.04234  0.014115494  0.012636102           40 
 4736000   0.48801267   -7.9512384    803.29236  0.014134508  0.012632082           33 
 4737000    0.5019408   -7.9542814    804.41225  0.014151225  0.012628065           31 
 4738000    0.4995391   -7.9590539    802.61275  0.014116588  0.012624051           32 
 4739000   0.49007004   -7.9540955    803.50381  0.014129279  0.012620035           40 
 4740000   0.50463488   -7.9540457    803.97959  0.014134662  0.012616024           30 
 4741000    0.4948898   -7.9318118    803.86693  0.014129701  0.012612017           24 
 4742000   0.49523926   -7.9491264     804.1673     0.014132  0.012608011           42 
 4743000   0.49596565   -7.9759349    804.34992  0.014132229  0.012604008           29 
 4744000   0.49024423   -7.9570693    803.49953  0.014114312  0.012600005           29 
 4745000   0.49187622   -7.9622966    803.23328  0.014106661  0.012595999           27 
 4746000   0.48771318   -7.9514851    803.48985  0.014108194  0.012591995           41 
 4747000   0.48359058    -7.957357     803.9999  0.014114176  0.012587994           33 
 4748000   0.49078444   -7.9592869    803.75904  0.014106976  0.012583996           31 
 4749000   0.49708765   -7.9455257    803.93594  0.014107109      0.01258           39 
 4750000   0.49084468   -7.9296595    804.17667  0.014108363  0.012576007           29 
 4751000   0.49573247   -7.9582918     804.6735  0.014114108  0.012572014           29 
 4752000   0.49604099    -7.953161    803.20136  0.014085321  0.012568022           32 
 4753000   0.48312903   -7.9599437    803.34622  0.014084898  0.012564036           27 
 4754000   0.49518573   -7.9504886    802.99173  0.014075721  0.012560048           27 
 4755000    0.4846766   -7.9554126    804.19631  0.014093872  0.012556059           28 
 4756000   0.48985091   -7.9599496    804.00375  0.014087534  0.012552071           32 
 4757000   0.48360953   -7.9506619    803.83811  0.014081671   0.01254809           30 
 4758000   0.49702623   -7.9702344    803.47313  0.014072319   0.01254411           48 
 4759000   0.49459685   -7.9531662     804.3108   0.01408403  0.012540129           37 
 4760000   0.48736449   -7.9644746    803.95176  0.014074786  0.012536153           22 
 4761000   0.48655386   -7.9467968    804.16179  0.014075506  0.012532174           39 
 4762000   0.48785522   -7.9622333    804.12069  0.014071831  0.012528199           29 
 4763000   0.48406974   -7.9523749    803.07296  0.014050545  0.012524225           25 
 4764000   0.48252327   -7.9699578    804.59838  0.014074279  0.012520253           25 
 4765000   0.48750472   -7.9587518    802.59815  0.014036344  0.012516279           33 
 4766000   0.48856373   -7.9549603    803.87417   0.01405571  0.012512308           27 
 4767000   0.48192058   -7.9448515    803.65212   0.01404888  0.012508342           33 
 4768000   0.48266356   -7.9607911    802.65105  0.014028437  0.012504378           31 
 4769000   0.48661933   -7.9528076    803.69266  0.014043696  0.012500408           30 
 4770000   0.48891913   -7.9358334    804.76726  0.014059526  0.012496447           30 
 4771000    0.5032363     -7.95301    804.38725  0.014049942  0.012492487           38 
 4772000   0.50005697   -7.9487389    803.59916  0.014033235  0.012488527           22 
 4773000   0.48581091   -7.9496118    803.95084  0.014036435  0.012484571           27 
 4774000   0.48324554   -7.9565576    804.78263  0.014048014  0.012480614           37 
 4775000   0.49208193   -7.9680432    802.91496  0.014012478  0.012476656           22 
 4776000   0.48549366   -7.9645809    803.46858  0.014019203  0.012472703           25 
 4777000   0.47864172   -7.9639203    802.79996  0.014004605  0.012468748           35 
 4778000   0.49504014   -7.9618402    802.78927  0.014001487  0.012464798           37 
 4779000   0.48167779   -7.9688037    803.26412  0.014006838  0.012460848           38 
 4780000   0.48991172   -7.9464219    802.05377  0.013982806  0.012456898           29 
 4781000   0.49098024   -7.9392796    803.22786  0.014000346  0.012452952           31 
 4782000   0.47846899   -7.9550586    803.55822  0.014003175  0.012449006           35 
 4783000   0.50094719   -7.9615217    803.63707  0.014001621  0.012445062           35 
 4784000   0.49094208   -7.9611014    802.91245  0.013986072  0.012441121           41 
 4785000   0.48490342   -7.9602076      803.043  0.013985423  0.012437181           26 
 4786000    0.4913709   -7.9763961    803.56833  0.013991648   0.01243324           28 
 4787000   0.48743595   -7.9524938    802.34573  0.013967442  0.012429298           27 
 4788000   0.48338191   -7.9650671      804.179  0.013996432  0.012425359           27 
 4789000   0.48499416   -7.9561712    803.08696  0.013974507  0.012421425           23 
 4790000   0.47524779   -7.9583924     803.0323  0.013970638  0.012417489           20 
 4791000   0.48784328   -7.9585281    803.20317  0.013970695  0.012413555           29 
 4792000     0.493494   -7.9503093    802.15167  0.013949493  0.012409624           25 
 4793000   0.47905424   -7.9670616    803.41145  0.013968486  0.012405693           24 
 4794000   0.48135064   -7.9519069    803.88136  0.013973741  0.012401764           33 
 4795000   0.49785469   -7.9737733    803.08839  0.013957045  0.012397839           31 
 4796000   0.48362817    -7.956984    803.34068  0.013958519  0.012393911           23 
 4797000   0.47845675   -7.9498714    803.22214   0.01395355  0.012389984           27 
 4798000   0.48229751   -7.9653592    803.41332  0.013953962  0.012386059           26 
 4799000    0.4874896   -7.9598163    803.96998  0.013960721  0.012382136           32 
 4800000   0.47392116   -7.9716039    803.15474  0.013943659  0.012378215           28 
 4801000   0.48831407   -7.9577598    804.16398  0.013958272  0.012374296           34 
 4802000   0.49057335   -7.9549413    803.49499  0.013943756  0.012370376           28 
 4803000    0.4875667   -7.9532963    803.14113  0.013934713  0.012366457           26 
 4804000   0.48578945   -7.9665177    802.51815  0.013921006  0.012362539           22 
 4805000   0.47487954   -7.9591595    804.48239  0.013952175  0.012358626           26 
 4806000    0.4739002   -7.9527444    802.95626  0.013922809  0.012354713           23 
 4807000   0.49197645   -7.9706976    802.22264  0.013907195  0.012350801           30 
 4808000   0.48526874   -7.9599839    801.70509  0.013895332  0.012346891           25 
 4809000   0.48191316   -7.9662863    802.94168  0.013913871  0.012342981           35 
 4810000   0.48398048   -7.9676118    802.19691  0.013898075  0.012339073           27 
 4811000   0.48437249   -7.9660259     802.3953  0.013898623  0.012335166           26 
 4812000   0.48341124   -7.9670353    803.65851  0.013917611  0.012331265           29 
 4813000   0.48048463   -7.9697227    802.85681  0.013900838  0.012327363           25 
 4814000   0.47627131   -7.9600764    802.27114  0.013887812  0.012323462           25 
 4815000   0.47999683   -7.9681538    802.23025   0.01388422   0.01231956           20 
 4816000   0.48148445   -7.9863134    802.57186  0.013887248  0.012315664           30 
 4817000   0.48638085   -7.9799151    804.51516  0.013917984  0.012311768           31 
 4818000   0.47819536   -7.9619313    803.50363    0.0138976  0.012307872           28 
 4819000   0.47704804   -7.9591491    802.49969  0.013877355   0.01230398           43 
 4820000   0.48962237   -7.9701806    803.17412  0.013886136  0.012300092           33 
 4821000   0.48944794   -7.9556764    803.78614  0.013893835  0.012296204           34 
 4822000   0.48694375   -7.9764328    802.14095  0.013862522  0.012292316           43 
 4823000   0.48427236   -7.9737748    802.82464   0.01387146  0.012288428           28 
 4824000   0.48461548   -7.9866105    803.19795  0.013875034  0.012284543           31 
 4825000   0.47668813   -7.9653119    803.10262  0.013870512  0.012280657           31 
 4826000   0.47102301   -7.9639453    803.54105  0.013875208  0.012276774           23 
 4827000   0.47627268   -7.9698163    802.62577  0.013856532  0.012272895           23 
 4828000   0.47863913   -7.9787531     803.6967  0.013872147  0.012269019           22 
 4829000    0.4833274   -7.9696168      802.397  0.013846845  0.012265143           24 
 4830000   0.48349923   -7.9587696     802.7738   0.01385048  0.012261268           31 
 4831000   0.47627696   -7.9758052     802.7898  0.013847889  0.012257395           28 
 4832000   0.48358623   -7.9637059    802.55193  0.013840921  0.012253524           29 
 4833000   0.48263428   -7.9762736     803.4884  0.013854204  0.012249653           27 
 4834000   0.48143465   -7.9808705    802.20112  0.013829146  0.012245785           31 
 4835000   0.47813498   -7.9710144    802.91068  0.013838516  0.012241918           33 
 4836000    0.4776929    -7.966694    803.46529  0.013845211  0.012238051           31 
 4837000    0.4871829   -7.9764268     803.1684  0.013837234  0.012234189           37 
 4838000    0.4809092   -7.9578714     804.0361   0.01384932  0.012230327           24 
 4839000   0.47524782   -7.9795395    802.82907  0.013825671   0.01222647           34 
 4840000   0.48162254   -7.9699648    802.97911  0.013825398  0.012222609           30 
 4841000   0.47895897   -7.9854404    804.55412  0.013849654  0.012218752           39 
 4842000   0.47899661   -7.9841832    803.41223  0.013827141  0.012214893           34 
 4843000   0.47465452    -7.964577    804.04169  0.013835118   0.01221104           26 
 4844000   0.48089403   -7.9689164    802.87803  0.013812242  0.012207184           27 
 4845000    0.4750247   -7.9504125    803.30427  0.013816723   0.01220333           16 
 4846000   0.46883252    -7.981581    803.61457  0.013819208   0.01219948           34 
 4847000   0.47716714   -7.9845076    802.42357   0.01379588  0.012195631           38 
 4848000   0.47365273   -7.9859321    802.35339  0.013791828  0.012191783           37 
 4849000   0.48919924   -7.9851535    803.41036  0.013807148  0.012187935           26 
 4850000   0.47892013   -7.9651207    803.35164  0.013803293  0.012184088           25 
 4851000   0.47755225   -7.9710003     802.8804  0.013792352  0.012180243           28 
 4852000   0.47437207   -7.9920961    802.98625  0.013791327  0.012176401           30 
 4853000   0.47987669   -7.9785039    802.45488  0.013779361  0.012172557           25 
 4854000   0.48614908   -7.9711939    803.24726  0.013790126  0.012168717           20 
 4855000   0.48615861   -8.0043933    803.38242  0.013789606  0.012164881           21 
 4856000   0.47257726   -7.9763636    802.73915  0.013775727  0.012161042           23 
 4857000   0.46862562   -8.0047242    803.48703  0.013785722  0.012157203           21 
 4858000   0.47483121   -7.9680675    803.08885  0.013776054  0.012153368           14 
 4859000   0.47564336   -7.9888539    803.72584  0.013784144  0.012149538           26 
 4860000    0.4739988   -7.9710696     802.7911  0.013765279  0.012145708           25 
 4861000   0.47825556   -7.9709317    801.76279  0.013744819  0.012141879           30 
 4862000   0.47781162   -7.9749491    802.54803  0.013755451  0.012138053           32 
 4863000    0.4778274   -7.9804937    804.55817  0.013787069  0.012134228           29 
 4864000   0.47472433   -7.9715628    802.63193  0.013751232  0.012130404           22 
 4865000   0.47315505   -7.9877902    802.96928  0.013754184  0.012126579           21 
 4866000   0.47699943    -7.973819    803.03059  0.013752408  0.012122757           41 
 4867000   0.46962122    -7.977318    803.60784  0.013759466  0.012118935           36 
 4868000   0.46388407    -8.004342    802.91091  0.013744709  0.012115115           16 
 4869000   0.47096375   -7.9826737    802.94531  0.013742475  0.012111294           30 
 4870000   0.46153496   -7.9845505    803.07506  0.013741873  0.012107479           21 
 4871000   0.47403433   -7.9940873    802.85424  0.013735274  0.012103663           29 
 4872000   0.47112099   -7.9920095    803.70355  0.013746982  0.012099847           20 
 4873000   0.46250981   -7.9742367    801.86747  0.013712762  0.012096035           22 
 4874000   0.47739355   -7.9921442    802.58641  0.013722241  0.012092224           33 
 4875000   0.47479263   -7.9877382    802.64616  0.013720447  0.012088416           23 
 4876000   0.47349501   -7.9666321    803.13813  0.013726041  0.012084609           22 
 4877000   0.46562405   -7.9788177    802.70411  0.013715811  0.012080801           27 
 4878000   0.47533711   -7.9914504    803.38109  0.013724564  0.012076997           24 
 4879000   0.45889839   -7.9890722    802.70961  0.013710282  0.012073195           22 
 4880000    0.4712667   -7.9873794    802.85851  0.013710016  0.012069396           16 
 4881000   0.48459692   -7.9705266    802.00246  0.013692591  0.012065596           15 
 4882000   0.46377369   -7.9712777    802.81492  0.013703655    0.0120618           28 
 4883000   0.46975689   -7.9867263    803.87837  0.013718997  0.012058004           21 
 4884000   0.46796354   -7.9892785    802.29076    0.0136891  0.012054206           28 
 4885000   0.46907667    -7.986403    802.16843  0.013684211  0.012050411           23 
 4886000    0.4733081   -7.9806411    800.85654  0.013659035  0.012046615           33 
 4887000   0.46985615   -7.9826303    801.96507  0.013675143  0.012042822           23 
 4888000   0.47164379   -7.9984863    803.39967  0.013696803  0.012039029           22 
 4889000   0.46365953   -7.9904454    802.71678  0.013682361  0.012035238           31 
 4890000   0.47209197   -8.0054745    801.92607  0.013666088  0.012031449           26 
 4891000   0.47600571   -7.9848873    803.54449  0.013690869  0.012027664           22 
 4892000   0.47324606   -7.9845236    802.23253  0.013665722   0.01202388           34 
 4893000   0.46780031   -7.9817426    801.55029   0.01365131  0.012020095           18 
 4894000   0.46807352   -7.9649988    804.16309   0.01369301  0.012016316           23 
 4895000   0.46120505   -7.9802142    803.67828  0.013681959  0.012012538           22 
 4896000   0.46657633   -7.9848778    803.24585  0.013671804  0.012008761           24 
 4897000    0.4641182   -7.9923315    802.78387  0.013661151  0.012004982           26 
 4898000   0.46890805     -7.98126    803.93541  0.013677954  0.012001208           27 
 4899000   0.47576537   -7.9884768     803.0784  0.013660584   0.01199743           27 
 4900000    0.4660315   -7.9974744    801.36346   0.01362863  0.011993653           20 
 4901000   0.46267073   -7.9803925    803.38504  0.013660223  0.011989877           18 
 4902000   0.46685816   -7.9745927    802.60756  0.013644219  0.011986106           25 
 4903000   0.47352567   -7.9836026    801.85729  0.013628685  0.011982337           18 
 4904000   0.47480895   -7.9930695    802.54925  0.013637664  0.011978569           24 
 4905000   0.47835925   -7.9932236    802.66813  0.013636903  0.011974804           28 
 4906000   0.44508612   -7.9831487    801.31389  0.013611121  0.011971037           23 
 4907000   0.45827179   -7.9810918     802.8705  0.013634782  0.011967272           26 
 4908000   0.47423272   -7.9831246    799.86515  0.013580976  0.011963507           28 
 4909000   0.46314492   -7.9880716    801.90019  0.013612755  0.011959746           24 
 4910000   0.45915266   -7.9939108    803.79689  0.013642174  0.011955983           23 
 4911000   0.46626686   -7.9901185    802.08969  0.013610427  0.011952222           23 
 4912000   0.46815198   -7.9955203    802.04037   0.01360682  0.011948464           25 
 4913000   0.46837557   -8.0173256    801.94273  0.013602394  0.011944712           17 
 4914000   0.47356286   -7.9952952    801.05073  0.013584499  0.011940956           28 
 4915000   0.46697861     -7.98986    802.54132  0.013607008  0.011937199           40 
 4916000   0.45890203   -7.9999997    802.07048  0.013596259  0.011933444           18 
 4917000   0.46254365   -7.9662284    802.47898  0.013600417  0.011929693           20 
 4918000   0.46396088   -8.0096916    801.77234  0.013585677  0.011925944           17 
 4919000   0.46840607   -7.9972158    801.94024   0.01358576  0.011922194           26 
 4920000   0.46223421   -7.9993125    802.31981  0.013589428  0.011918445           23 
 4921000   0.47849506   -7.9893128    801.38547  0.013570844    0.0119147           24 
 4922000   0.45803165   -7.9887626     802.7089  0.013590493  0.011910955           27 
 4923000   0.46872895   -7.9960457     803.2723   0.01359727  0.011907213           26 
 4924000   0.46869079   -7.9871689    801.97309   0.01357252  0.011903472           22 
 4925000   0.45309118   -7.9847628    802.08431  0.013571646  0.011899736           17 
 4926000   0.46930889   -7.9815987    802.03831  0.013568113  0.011895999           24 
 4927000   0.46669305   -7.9863136    801.87498  0.013562597   0.01189226           32 
 4928000   0.47553421   -7.9836449    801.76228  0.013557939  0.011888523           25 
 4929000    0.4646383   -7.9989395    801.31694  0.013547659  0.011884786           39 
 4930000   0.46167148    -7.977167    802.48728  0.013564694  0.011881057           36 
 4931000   0.46185343   -7.9910294    801.37462  0.013543139  0.011877328           16 
 4932000   0.45616027    -7.984778    800.83067  0.013531202  0.011873597           23 
 4933000   0.44313932   -7.9985961    802.75892  0.013561033  0.011869869           25 
 4934000   0.45810455   -7.9907844    801.65053  0.013539564   0.01186614           38 
 4935000   0.46817907    -7.979892    802.69553  0.013554467  0.011862415           24 
 4936000   0.46228934   -7.9839534    800.89337  0.013521295  0.011858687           33 
 4937000   0.46191085   -8.0083151    802.29659  0.013542242  0.011854965           23 
 4938000   0.46822194   -7.9834994     802.2346  0.013538453  0.011851248           23 
 4939000   0.45769798   -7.9790453    802.18956  0.013534952  0.011847529           19 
 4940000   0.45897579   -7.9968215    802.78575   0.01354227  0.011843812           26 
 4941000   0.45804658   -7.9963188    803.16216  0.013545877  0.011840099           17 
 4942000   0.46530831   -7.9983835    802.24173  0.013527616  0.011836384           23 
 4943000   0.46003548   -8.0067594     802.1387  0.013523142   0.01183267           24 
 4944000   0.45983069    -7.990353    802.18095  0.013521119  0.011828959           20 
 4945000   0.46272425    -8.000726     802.0808  0.013516697   0.01182525           24 
 4946000     0.466351   -8.0000529     802.4021  0.013519378  0.011821543           26 
 4947000   0.45780717   -8.0033344    802.56174  0.013519334  0.011817834           21 
 4948000   0.45890946   -7.9942269    801.11022  0.013492155  0.011814129           23 
 4949000   0.47000645   -7.9848514    801.70058   0.01349937  0.011810423           25 
 4950000    0.4659493   -7.9899851    802.30697  0.013506851  0.011806719           23 
 4951000   0.46103127   -7.9921559    802.06137  0.013499989  0.011803016           24 
 4952000   0.45721462   -7.9931075    801.54063    0.0134885  0.011799315           34 
 4953000   0.46289358   -8.0041002    802.19564  0.013496797  0.011795619           16 
 4954000   0.45521217   -7.9917324    801.34469  0.013479759  0.011791919           12 
 4955000   0.46566176   -7.9930604    801.19801  0.013474571  0.011788221           23 
 4956000   0.45848026   -7.9998613     802.2603  0.013489715  0.011784525           13 
 4957000   0.46270128    -8.009798    801.91633  0.013481211  0.011780831           35 
 4958000   0.46331967   -8.0019383    801.16933  0.013465936  0.011777135           21 
 4959000   0.45341636   -7.9974742    802.77036  0.013490125  0.011773441           29 
 4960000   0.45735111   -7.9953175    801.31605  0.013462971  0.011769749           26 
 4961000   0.45360078    -7.993324    802.57452  0.013481397  0.011766062           20 
 4962000    0.4523353    -7.990246    801.72125   0.01346435  0.011762374           23 
 4963000   0.45538063   -8.0003541    801.71542  0.013461539  0.011758689           27 
 4964000   0.46077166    -8.004124    802.08564  0.013465042  0.011755007           17 
 4965000   0.46431196   -8.0043899    802.13156  0.013463101  0.011751325           25 
 4966000   0.44785559   -8.0024222    801.32738  0.013446895  0.011747645           19 
 4967000   0.45357964   -7.9917755    802.47127  0.013463379  0.011743964           25 
 4968000   0.46196291   -7.9891257    801.52532  0.013444802  0.011740286           21 
 4969000   0.45806905   -7.9949458    803.23952  0.013470845  0.011736609           24 
 4970000   0.46435465   -8.0023796    801.13997   0.01343293  0.011732932           26 
 4971000    0.4709211   -8.0180848    801.43112  0.013435109  0.011729258           18 
 4972000   0.46218788   -8.0127315    802.24725  0.013446086  0.011725588           14 
 4973000   0.44707838   -7.9979185    800.88334  0.013420527  0.011721916           19 
 4974000   0.45452544      -7.9984    801.39277  0.013426363  0.011718245           22 
 4975000   0.44885422   -7.9942747    802.93061  0.013449424  0.011714578           21 
 4976000   0.46962806   -8.0194429    800.84022  0.013411713  0.011710912           20 
 4977000   0.45973613   -8.0096552    802.56535  0.013437904  0.011707252           32 
 4978000    0.4598876     -7.99237     801.4881  0.013417171   0.01170359           14 
 4979000   0.45721555   -8.0108299    801.35783  0.013412295  0.011699928           16 
 4980000   0.45952494   -8.0078946    801.86192  0.013418037  0.011696265           24 
 4981000   0.45822584   -7.9981762    802.05495  0.013418573  0.011692604           28 
 4982000   0.45365194   -7.9848343    800.81853  0.013395198  0.011688945           28 
 4983000   0.45601217    -7.999868     801.3517  0.013401427  0.011685288           21 
 4984000   0.44363757   -8.0008988    801.49413  0.013401119  0.011681634           27 
 4985000   0.44597878   -7.9955554    802.76816  0.013419728  0.011677981           21 
 4986000    0.4491882   -7.9966681    803.06396  0.013421981  0.011674331           29 
 4987000   0.44857587    -7.996619    802.31717   0.01340681  0.011670679           26 
 4988000    0.4509912   -8.0168857    801.96689  0.013398271  0.011667031           35 
 4989000   0.45989867    -8.001475    801.55086  0.013388636  0.011663382           31 
 4990000   0.45591061   -8.0024228    801.92164  0.013392145  0.011659735           31 
 4991000    0.4545388    -8.003346    801.29793  0.013379048  0.011656089           31 
 4992000   0.45883606   -8.0166476    801.23244  0.013375274  0.011652443           23 
 4993000   0.45512425   -8.0109755    801.99085  0.013385253  0.011648796           20 
 4994000   0.45349803   -8.0113749    800.79405  0.013362603  0.011645151           20 
 4995000   0.45476327   -7.9993784    801.60768  0.013373501  0.011641508           31 
 4996000   0.46409062   -8.0129534    801.62548  0.013371122  0.011637869           16 
 4997000   0.44735276    -7.994684    801.76716  0.013370809  0.011634231           14 
 4998000   0.45859048   -8.0035325    801.04447  0.013356084  0.011630595           17 
 4999000    0.4581404   -8.0142963    800.84641   0.01335011   0.01162696           18 
 5000000   0.44915169   -8.0023733    800.66239  0.013344373  0.011623327           22 
 5001000   0.43844013   -8.0167633    801.42391  0.013354394  0.011619691           24 
 5002000   0.45165108   -8.0250659    802.14029  0.013363659  0.011616061           28 
 5003000     0.451345   -7.9888975    800.92187  0.013340693  0.011612431           25 
 5004000   0.45309066   -8.0276453    801.48779  0.013347452  0.011608799           29 
 5005000   0.44986885   -8.0053523    801.57983  0.013346317  0.011605172           21 
 5006000    0.4643841   -8.0285381    801.92493  0.013349396  0.011601543           27 
 5007000   0.44700537    -8.018843    800.34211  0.013320387  0.011597915           23 
 5008000   0.45981532   -8.0139987    801.32769  0.013334127  0.011594288           28 
 5009000   0.44380021   -8.0017998    801.12935  0.013328165  0.011590663           18 
 5010000   0.45332517   -8.0132059     800.1342  0.013308952   0.01158704           22 
 5011000   0.45173958   -8.0193493    801.18501  0.013323771   0.01158342           13 
 5012000   0.44369483   -8.0045784    800.63861  0.013312028    0.0115798           14 
Loop time of 11144 on 48 procs for 5000000 steps with 4000 atoms

Performance: 77530.510 tau/day, 448.672 timesteps/s
99.4% CPU use with 48 MPI tasks x no OpenMP threads

MPI task timing breakdown:
Section |  min time  |  avg time  |  max time  |%varavg| %total
---------------------------------------------------------------
Pair    | 722.22     | 755.55     | 796.94     |  56.6 |  6.78
Neigh   | 70.856     | 72.963     | 75.484     |  11.1 |  0.65
Comm    | 639.46     | 691.46     | 726.85     |  66.0 |  6.20
Output  | 13.615     | 13.621     | 13.72      |   0.4 |  0.12
Modify  | 9472.6     | 9496.3     | 9531.8     |  13.9 | 85.21
Other   |            | 114.1      |            |       |  1.02

Nlocal:        83.3333 ave          94 max          74 min
Histogram: 1 4 3 7 8 8 13 3 0 1
Nghost:        1874.96 ave        1904 max        1855 min
Histogram: 4 4 7 12 5 8 1 3 2 2
Neighs:        11701.9 ave       13305 max       10344 min
Histogram: 3 5 4 5 11 8 5 3 3 1
FullNghs:      23403.6 ave       26555 max       20504 min
Histogram: 1 4 5 7 8 9 11 2 0 1

Total # of neighbors = 1123374
Ave neighs/atom = 280.84350
Neighbor list builds = 269041
Dangerous builds = 0

#clear
#
#next RN
#
#jump SELF
Total wall time: 3:05:47
