
units lj                  # Use reduced LJ style units
atom_style atomic         # Uncharged point particles
atom_modify map hash      # Needed for indexing of clusters etc
                          # Used to be able to find where atoms are in relation to each other.

lattice fcc 1.0 spacing 1 1 1
Lattice spacing in x,y,z = 1.5874011 1.5874011 1.5874011
region box block 0 10 0 10 0 10 units lattice
create_box 2 box
Created orthogonal box = (0.0000000 0.0000000 0.0000000) to (15.874011 15.874011 15.874011)
  3 by 4 by 4 MPI processor grid
create_atoms 1 box
Created 4000 atoms
  using lattice units in orthogonal box = (0.0000000 0.0000000 0.0000000) to (15.874011 15.874011 15.874011)
  create_atoms CPU = 0.002 seconds
set type 1 type/fraction 2 0.33 78393
Setting atom values ...
  1342 settings made for type/fraction
mass 1 1.0
mass 2 1.0
pair_style lj/cut  3.5
pair_modify tail  yes
pair_coeff 1  1  1.0  1.0   # Intearaction between 1 and 1 set with epsilon = 1 and sigma = 1
pair_coeff 1  2  1.5  0.8
pair_coeff 2  2  0.5  0.88

write_data data.0
System init for write_data ...
Neighbor list info ...
  update every 1 steps, delay 10 steps, check yes
  max neighbors/atom: 2000, page size: 100000
  master list distance cutoff = 3.8
  ghost atom cutoff = 3.8
  binsize = 1.9, bins = 9 9 9
  1 neighbor lists, perpetual/occasional/extra = 1 0 0
  (1) pair lj/cut, perpetual
      attributes: half, newton on
      pair build: half/bin/atomonly/newton
      stencil: half/bin/3d
      bin: standard
WARNING: Not all mixed pair coeffs generated from mixing. Use write_data with 'pair ij' option to store all pair coeffs. (../write_data.cpp:312)


#############################
#   M E L T   S Y S T E M   #
#############################

velocity all create 2.4 6229865 mom yes dist gaussian # Assign velocities
                                                    # Temperature 2.4, random number seed, zero linear momentum
                                                                                # Gaussian distribution

timestep 0.002   # simulation timestep
thermo 1000       # output thermodynamic data every 1000 steps bf 100

# Define a fix  in this case with index 1 applied to all
# particles in the simulation. This fix is for simulations
# in the anisotropic NPT ensemble. Note that we use the MTK
# correction.
fix 1 all npt temp 2.4 2.4 0.1 iso 5.68 5.68 0.5 mtk yes tchain 5 pchain 5 # Use NPT ensemble
                                                                         # Set temperature and pressure and damping
                                                                         # Numbers of thermostats in chain and in barostat
run 10000          # run for 10000 steps
Per MPI rank memory allocation (min/avg/max) = 3.642 | 3.644 | 3.648 Mbytes
Step Temp E_pair E_mol TotEng Press Volume 
       0          2.4   -6.2616635            0   -2.6625635   -4.0519521         4000 
    1000    2.3908591   -4.9906135            0   -1.4052215    5.9478389    4052.9431 
    2000    2.3814311   -5.0804387            0   -1.5091852    5.2440349    4074.1218 
    3000    2.3734297   -5.0076829            0   -1.4484283    5.3488038    4096.8991 
    4000    2.3898412   -4.9560405            0   -1.3721749    5.5145515    4095.7182 
    5000    2.3735891   -5.0992527            0   -1.5397592    5.9384275    4008.5006 
    6000    2.4223616   -5.0233961            0   -1.3907622    5.6264367    4075.0289 
    7000    2.3840468   -5.0230762            0   -1.4478999     5.701998    4065.1416 
    8000      2.41009   -5.0059986            0   -1.3917674    5.9415371    4044.6831 
    9000    2.3473308   -4.9887296            0   -1.4686137    5.6174197    4078.2508 
   10000    2.4433648   -5.0212386            0   -1.3571077    5.5780609    4074.2998 
Loop time of 2.4786 on 48 procs for 10000 steps with 4000 atoms

Performance: 697168.934 tau/day, 4034.542 timesteps/s
99.6% CPU use with 48 MPI tasks x no OpenMP threads

MPI task timing breakdown:
Section |  min time  |  avg time  |  max time  |%varavg| %total
---------------------------------------------------------------
Pair    | 1.0749     | 1.1412     | 1.2799     |   4.1 | 46.04
Neigh   | 0.20501    | 0.21277    | 0.23109    |   1.3 |  8.58
Comm    | 0.70769    | 0.86354    | 0.93888    |   5.3 | 34.84
Output  | 0.00023854 | 0.00024518 | 0.00040073 |   0.0 |  0.01
Modify  | 0.22107    | 0.24561    | 0.27659    |   3.2 |  9.91
Other   |            | 0.01528    |            |       |  0.62

Nlocal:        83.3333 ave          93 max          76 min
Histogram: 4 4 7 5 9 10 2 3 3 1
Nghost:        1620.77 ave        1647 max        1591 min
Histogram: 4 0 3 7 6 10 4 6 5 3
Neighs:        9364.50 ave       10635 max        8309 min
Histogram: 3 5 5 9 3 10 6 3 2 2

Total # of neighbors = 449496
Ave neighs/atom = 112.37400
Neighbor list builds = 901
Dangerous builds = 166

# Equilibrate just above the melting temperature to avoid step fn in T

fix 1 all npt temp 1.25 1.25 0.1 iso 5.68 5.68 0.5 mtk yes tchain 5 pchain 5
run 2000
Per MPI rank memory allocation (min/avg/max) = 3.643 | 3.645 | 3.649 Mbytes
Step Temp E_pair E_mol TotEng Press Volume 
   10000    2.4433648   -5.0212386            0   -1.3571077    5.5780609    4074.2998 
   11000    1.2622426    -6.900984            0   -5.0080934    5.5060831    3276.6696 
   12000    1.2360986   -6.9587035            0   -5.1050191    5.7619872    3250.5259 
Loop time of 0.56971 on 48 procs for 2000 steps with 4000 atoms

Performance: 606624.319 tau/day, 3510.557 timesteps/s
99.7% CPU use with 48 MPI tasks x no OpenMP threads

MPI task timing breakdown:
Section |  min time  |  avg time  |  max time  |%varavg| %total
---------------------------------------------------------------
Pair    | 0.25855    | 0.27714    | 0.30169    |   1.7 | 48.65
Neigh   | 0.038098   | 0.039908   | 0.042633   |   0.5 |  7.00
Comm    | 0.17968    | 0.20458    | 0.22555    |   2.3 | 35.91
Output  | 4.9792e-05 | 5.1274e-05 | 6.6229e-05 |   0.0 |  0.01
Modify  | 0.040508   | 0.043471   | 0.04666    |   0.9 |  7.63
Other   |            | 0.004567   |            |       |  0.80

Nlocal:        83.3333 ave          89 max          75 min
Histogram: 4 1 5 1 7 3 2 13 6 6
Nghost:        1889.71 ave        1912 max        1861 min
Histogram: 1 1 1 5 8 14 10 2 4 2
Neighs:        11770.7 ave       12779 max       10208 min
Histogram: 2 3 3 1 8 3 9 6 7 6

Total # of neighbors = 564994
Ave neighs/atom = 141.24850
Neighbor list builds = 142
Dangerous builds = 9

#############################
# L I N E A R  Q U E N C H  #
#############################

# Define solid atoms. This closely follows ten Wolde  Ruiz-Montero and Frenkel  Faraday Discuss  1996  104  93-110
# Compute components of the per-atom q6 vector
compute q6 all orientorder/atom degrees 1 6 components 6 nnn NULL cutoff 1.3 # compute the Q6 parameter.
                                                                             # Use all neighbours within 1.3 unit cell.

# get number of connections
compute coord_number all coord/atom orientorder q6 0.5

# An atom is solid if it has 8 or more connections (of a possible 14)
variable is_solid atom c_coord_number>=8
group solid dynamic all var is_solid    # Must be dynamic to update
dynamic group solid defined

# do clustering
compute cluster solid cluster/atom 1.3 # Create a cluster where all atoms within are solid and max 1.3 units from another member

# define chunks one chunk per cluster
compute clus_chunks solid chunk/atom c_cluster nchunk every compress yes  # Says which atoms are in which chunk

# count the size of each chunk
compute size_chunks solid property/chunk clus_chunks count


# Find the maximum entry in the vector of chunk sizes
variable max_n equal max(c_size_chunks)


# Thermo style which includes this variable
# thermo_style custom step temp pe vol v_max_n

thermo ${N}  # Print the thermo information every 100 steps
thermo 1000  

# Reset the npt fix at a lower temperature (below freezing)
fix 1  all npt temp  ${temp} ${temp}  0.1  iso  5.68  5.68  0.5  mtk yes tchain  5  pchain  5
fix 1  all npt temp  0.45 ${temp}  0.1  iso  5.68  5.68  0.5  mtk yes tchain  5  pchain  5
fix 1  all npt temp  0.45 0.45  0.1  iso  5.68  5.68  0.5  mtk yes tchain  5  pchain  5

dump dmp2 all dcd ${N} traj.dcd
dump dmp2 all dcd 1000 traj.dcd


compute msd all msd com yes
variable twopoint equal c_msd[4]/6/(step*dt+1.0e-6)
fix 9 all vector 10 c_msd[4]
variable fit equal slope(f_9)/6/(10*dt)
thermo_style custom step temp pe c_msd[4] v_twopoint v_fit v_max_n

fix 1 all npt temp 1.25 ${temp} 0.1 iso 5.68 5.68 0.5 mtk yes tchain 5 pchain 5
fix 1 all npt temp 1.25 0.45 0.1 iso 5.68 5.68 0.5 mtk yes tchain 5 pchain 5
run 500000 # 5000000  # Run for this many steps
Neighbor list info ...
  update every 1 steps, delay 10 steps, check yes
  max neighbors/atom: 2000, page size: 100000
  master list distance cutoff = 3.8
  ghost atom cutoff = 3.8
  binsize = 1.9, bins = 8 8 8
  4 neighbor lists, perpetual/occasional/extra = 1 3 0
  (1) pair lj/cut, perpetual
      attributes: half, newton on
      pair build: half/bin/atomonly/newton
      stencil: half/bin/3d
      bin: standard
  (2) compute orientorder/atom, occasional
      attributes: full, newton on
      pair build: full/bin/atomonly
      stencil: full/bin/3d
      bin: standard
  (3) compute coord/atom, occasional
      attributes: full, newton on
      pair build: full/bin/atomonly
      stencil: full/bin/3d
      bin: standard
  (4) compute cluster/atom, occasional
      attributes: full, newton on
      pair build: full/bin/atomonly
      stencil: full/bin/3d
      bin: standard
Per MPI rank memory allocation (min/avg/max) = 9.814 | 9.820 | 9.825 Mbytes
Step Temp PotEng c_msd[4] v_twopoint v_fit v_max_n 
   12000    1.2360986   -6.9587035 8.7447203e-30 6.0727222e-32 8.3333333e+20            2 
   13000    1.2528724   -6.9907905   0.48270604 0.0030942694  0.039107637            2 
   14000    1.2440172   -6.9708713   0.94105657  0.005601527  0.037845498            3 
   15000    1.2669664   -6.9031767     1.403132 0.0077951775  0.038457238            1 
   16000    1.2671695   -6.9761875    1.8713815 0.0097467783  0.038494603            1 
   17000    1.2358566   -7.0136565      2.32372  0.011390784  0.038613905            2 
   18000    1.2354948   -6.9689496    2.7285901  0.012632361   0.03798083            2 
   19000    1.2239941    -7.019625    3.3037824  0.014490273  0.038347323            2 
   20000    1.2542591   -7.0211618    3.6554642    0.0152311  0.038475754            1 
   21000    1.2587331   -7.0248018    4.0808367  0.016193796  0.038066784            2 
   22000    1.2175843   -6.9901974    4.5419059  0.017204189  0.037873014            2 
   23000      1.22796   -7.0122261    4.9792207  0.018040654  0.037802694            2 
   24000    1.2460542   -7.0129039     5.460922  0.018961534  0.037654755            1 
   25000    1.2224416   -6.9487259    5.9421035  0.019807011  0.037573692            2 
   26000    1.2429631    -7.012025    6.2985691  0.020187721  0.037534291            1 
   27000    1.2066206   -7.0135416    6.6779833  0.020611059  0.037389475            3 
   28000    1.2407333   -7.0393103    7.1174236  0.021182808  0.037202407            2 
   29000    1.2322666   -6.9953332    7.5313866  0.021641915  0.037068152            1 
   30000    1.1947995   -7.0329364    7.9140303  0.021983417   0.03684513            1 
   31000    1.2099548    -7.014692    8.3651682  0.022487011  0.036665206            1 
   32000     1.196553   -7.0459191    8.7674871  0.022831997   0.03653019            1 
   33000     1.225249   -7.0165877    9.2586045  0.023380314  0.036433144            2 
   34000    1.2103954   -7.0170241    9.6422381  0.023632936  0.036373411            2 
   35000    1.1849321   -7.0897381    10.064306  0.023962632   0.03627165            1 
   36000    1.1997923   -7.0114383    10.542291  0.024403451  0.036213755            1 
   37000    1.2030035   -7.0396384     10.94813   0.02465795  0.036167471            1 
   38000    1.2031041    -7.057595    11.473062  0.025160224  0.036146113            1 
   39000    1.1814481   -7.0446637    11.890276  0.025406572  0.036164403            2 
   40000    1.1909194   -7.0028491    12.431057  0.025898036  0.036175612            1 
   41000    1.2325413   -7.0460042    12.728384  0.025870699  0.036207755            1 
   42000    1.1845102   -7.0919781    13.233558   0.02625706  0.036215756            2 
   43000    1.2105905   -7.0862085    13.650448  0.026454356  0.036255605            1 
   44000    1.1945561    -7.066426    14.029161  0.026570381  0.036245787            2 
   45000    1.2087902   -7.0816593    14.432282  0.026726447  0.036217904            3 
   46000    1.2178494   -7.0856752    14.708656  0.026646116  0.036155669            2 
   47000    1.2158632    -7.037809    15.184155  0.026922261  0.036095462            1 
   48000    1.2248457   -7.0563493    15.466992  0.026852416  0.035996589            1 
   49000    1.1940043   -7.1103445    15.703951  0.026707399  0.035876711            1 
   50000    1.2098245   -7.0777976    15.963157  0.026605261  0.035704084            1 
   51000    1.1932749   -7.0803855    16.293741  0.026623759  0.035511752            1 
   52000    1.1891034   -7.0905019    16.729009  0.026809309  0.035339064            1 
   53000    1.1730141    -7.122514    17.089924  0.026870949  0.035180842            1 
   54000    1.1941715   -7.1462526    17.455294  0.026937182  0.035027072            2 
   55000    1.1856662   -7.0830386    17.838859  0.027028575  0.034874668            1 
   56000    1.1755738   -7.1141663    18.211377  0.027100263  0.034741053            1 
   57000    1.1646602   -7.0767709     18.66956  0.027294679  0.034613259            2 
   58000     1.183618   -7.0927531    18.902206  0.027158342  0.034503643            2 
   59000    1.1790352   -7.1609164    19.257858  0.027200364  0.034381275            4 
   60000    1.1654817   -7.0977934    19.543512  0.027143767  0.034242545            3 
   61000    1.1875449   -7.1281231    19.953042  0.027258253  0.034103464            1 
   62000    1.1625579   -7.1536547    20.256032  0.027225849  0.033976269            1 
   63000    1.1675393    -7.128679    20.525741   0.02715045  0.033846758            3 
   64000    1.1798419   -7.1207281    20.803342  0.027087684  0.033699295            1 
   65000    1.1481283    -7.142056    21.119593  0.027076401  0.033560373            1 
   66000     1.183407   -7.1227122    21.590291  0.027260468   0.03342643            1 
   67000    1.1700408   -7.1323255    21.768035   0.02707467  0.033288173            2 
   68000    1.1914415   -7.1892203     22.23578  0.027249731  0.033153383            2 
   69000    1.1695431   -7.1346847     22.64513   0.02734919  0.033043003            2 
   70000    1.1733127    -7.122742    23.185641  0.027601953  0.032943181            1 
   71000    1.1492758   -7.1427462    23.607367  0.027708177  0.032864051       -1e+20 
   72000    1.1578505   -7.1276571    23.838063  0.027590351  0.032792385            2 
   73000    1.1174537    -7.153093    24.218994  0.027647254   0.03271267            1 
   74000    1.1120164    -7.165002    24.570239  0.027669188   0.03264303            1 
   75000     1.177477   -7.1883379     24.74373  0.027493033  0.032568124            1 
   76000    1.1464728   -7.1971098    25.155819  0.027583134  0.032493151            1 
   77000    1.1255457   -7.1567665    25.603248  0.027709142  0.032419685            1 
   78000    1.1323177   -7.1735951    25.852372  0.027620055  0.032342703            2 
   79000    1.1533334   -7.1869211    26.319709  0.027763405  0.032264518            1 
   80000    1.1123675   -7.1949544    26.636332  0.027746179   0.03219467            4 
   81000    1.1399631    -7.194169    26.978169  0.027755317  0.032125459            3 
   82000    1.1371837    -7.208271    27.274963  0.027718458  0.032062315            2 
   83000    1.1459819   -7.1917682    27.592565  0.027703379  0.031999134            1 
   84000    1.1142948   -7.1821255    27.887584  0.027666254  0.031927996            1 
   85000    1.1483159   -7.1461972    28.468666  0.027910457  0.031859007            3 
   86000    1.1430269   -7.2310223    28.818207  0.027924619  0.031810523            2 
   87000     1.134592   -7.2249799    29.103983  0.027877379  0.031768646            2 
   88000    1.1406055   -7.2011406    29.643127  0.028071143  0.031725357            1 
   89000    1.1312395    -7.218212    29.839959  0.027940037  0.031687215            1 
   90000    1.1176794   -7.2163798    30.321237   0.02807522  0.031645172            1 
   91000    1.1283209   -7.1879999    30.633819  0.028052948  0.031609806            2 
   92000     1.135454   -7.1964394     30.90393   0.02799269  0.031575317            2 
   93000    1.1421575    -7.250695    31.322869  0.028067086  0.031543264            1 
   94000    1.1348092   -7.2408109    31.605381  0.028018955  0.031504682            1 
   95000     1.108862   -7.2032138    31.754937  0.027855208  0.031455199            1 
   96000    1.1185999   -7.2298102     31.89337  0.027685217  0.031396692            1 
   97000    1.1203495    -7.202965    32.320036  0.027766354  0.031332909            2 
   98000    1.1080379    -7.282498    32.480347  0.027619342  0.031271177            5 
   99000    1.1261826   -7.2535921    32.835861  0.027639613  0.031208601            1 
  100000    1.0885317   -7.2397983    33.091705  0.027576421  0.031142528            1 
  101000    1.1062873   -7.2666546    33.377277  0.027539007  0.031074385            2 
  102000    1.0913711    -7.241655    33.670848  0.027508863  0.031005364            2 
  103000    1.1153788   -7.2802211    33.816579  0.027359692  0.030934018            1 
  104000    1.1064948   -7.2821204    34.197071  0.027401499  0.030854822            1 
  105000    1.1170612   -7.2491278    34.574403  0.027440002   0.03078258            1 
  106000    1.0820962   -7.3032938    34.889567  0.027428905  0.030716077            3 
  107000    1.0971988   -7.3077818    35.341344  0.027524411  0.030652479            1 
  108000    1.1080061   -7.3026672    35.543243  0.027425342  0.030588207            1 
  109000     1.095794   -7.2879074    35.919892  0.027461691  0.030526605            1 
  110000    1.0875927   -7.3452601    36.116721  0.027361152  0.030469527            1 
  111000    1.0726593   -7.2767913    36.498025   0.02740092  0.030407768            1 
  112000    1.0718369   -7.3640142    36.627365  0.027252504  0.030345923            4 
  113000    1.0827227   -7.2989223    36.947454  0.027247385  0.030280852            1 
  114000    1.0817543   -7.3740241    37.207704  0.027198614  0.030214545            1 
  115000    1.0748837   -7.2930357    37.304303  0.027032104  0.030144929            2 
  116000    1.0777639   -7.3112971    37.533799  0.026963936  0.030071105            1 
  117000    1.0957483   -7.3132869    37.628664  0.026801043  0.029992853            2 
  118000    1.0911147   -7.3322914    37.803268  0.026697223  0.029908368            3 
  119000    1.0965807   -7.3450886     38.03962  0.026638389   0.02981912            2 
  120000    1.0713057   -7.3282329    38.330003  0.026618058  0.029729234            3 
  121000    1.0739244   -7.3460195    38.647016  0.026616402  0.029643652            2 
  122000    1.0902261   -7.3287792    39.065757   0.02668426   0.02956292            2 
  123000    1.0716971   -7.3714582    39.105524  0.026494257  0.029480619            1 
  124000    1.0774171   -7.3258718    39.648462  0.026645472  0.029401089            1 
  125000    1.0670315   -7.4011719    39.891458  0.026594305  0.029327998            3 
  126000    1.0684989    -7.365256    40.135664  0.026544751  0.029257104            1 
  127000    1.0808878   -7.3525207    40.390953   0.02650325  0.029185296            1 
  128000    1.0403051   -7.3358478    40.791076   0.02655669  0.029113209            2 
  129000    1.0528472   -7.3404999    40.994146  0.026482007  0.029044554            3 
  130000    1.0764345   -7.3717993    41.444548  0.026567018  0.028978464            1 
  131000    1.0510819   -7.3861037    41.640284   0.02648873  0.028911739            1 
  132000    1.0595783     -7.39048    41.818868    0.0264008  0.028845616            1 
  133000    1.0384107   -7.3524283    42.355656  0.026538632  0.028781808            2 
  134000    1.0764779   -7.4234448    42.326435   0.02632241  0.028719455            2 
  135000    1.0483024   -7.3749171    42.732819  0.026378283  0.028658931            1 
  136000    1.0616576   -7.4025987    43.048439   0.02637772  0.028598738            3 
  137000    1.0502366   -7.4246815    43.165836  0.026256591  0.028535835            1 
  138000    1.0720927   -7.3926388    43.388313  0.026200672  0.028470043            1 
  139000    1.0487269   -7.4056504    43.496505  0.026077041  0.028401571            2 
  140000    1.0514961   -7.4194209     43.57148  0.025935405   0.02832965            2 
  141000    1.0461591   -7.4173888    43.883894  0.025936107  0.028256499            3 
  142000    1.0274944   -7.4264939    44.064294  0.025859328  0.028183294            2 
  143000    1.0497535    -7.416608    44.195522  0.025754966  0.028109206            2 
  144000    1.0309229   -7.4117058     44.49342  0.025748507  0.028034235            1 
  145000    1.0350028   -7.4367425    44.576266  0.025618544  0.027959779            2 
  146000    1.0294143   -7.3991153    44.972249  0.025669092  0.027885198            3 
  147000    1.0218806   -7.4281421     45.31068  0.025686327  0.027813179            1 
  148000    1.0334277   -7.4610231    45.467149  0.025600872  0.027742915            4 
  149000     1.018081   -7.4333878    45.681725  0.025549063  0.027671942            3 
  150000    1.0255482   -7.4307139    46.178124  0.025654513   0.02760354            2 
  151000    1.0232889   -7.4392663    46.075041  0.025427727  0.027534868            1 
  152000    1.0308994   -7.4496262    46.376598  0.025425767  0.027464956            2 
  153000    1.0152366   -7.4664934    46.701821  0.025436722  0.027397525            5 
  154000    1.0389872   -7.4565645    46.830495  0.025341177  0.027330242            2 
  155000    1.0117437    -7.483945    47.097842   0.02532142  0.027261043            2 
  156000    1.0248368    -7.452414    47.158078  0.025191281  0.027192638            1 
  157000    1.0491354   -7.5016899    47.553353  0.025240633  0.027123318            2 
  158000    1.0133753   -7.5014414    47.668907  0.025141828  0.027056159            2 
  159000    1.0024059   -7.5127602    47.859283  0.025083481  0.026990562            1 
  160000   0.99516318    -7.526468    47.906278  0.024951186  0.026922361            2 
  161000    1.0073354   -7.5087612    48.114193  0.024903826  0.026850848            1 
  162000   0.98371344    -7.506796    48.425816  0.024910399  0.026780991            2 
  163000    1.0249029   -7.5115601    48.354647   0.02472119  0.026707664            1 
  164000    1.0089821    -7.507296    48.663498  0.024727387  0.026633577            2 
  165000   0.99268517   -7.5074871    48.698268  0.024595085  0.026558834            2 
  166000   0.96371153   -7.5096063     48.87575  0.024536019  0.026485034            1 
  167000   0.99741411    -7.511198    49.213398  0.024557584   0.02641337            4 
  168000   0.99241393   -7.5317987    49.405691  0.024506791  0.026340957            1 
  169000   0.98853411    -7.495949    49.871198  0.024591321  0.026271092            2 
  170000    1.0242584   -7.5408275    49.957157  0.024488802  0.026202606            1 
  171000   0.98585889    -7.532263     50.15223  0.024440658  0.026135356            1 
  172000    1.0242638   -7.5295482    50.265008  0.024353202  0.026067545            1 
  173000   0.99212428   -7.5672567    50.542901  0.024346291  0.025999526            3 
  174000   0.98879637   -7.5587278     50.60776  0.024237433  0.025930007            4 
  175000   0.97926762   -7.4957419    50.947692  0.024260806  0.025860462            2 
  176000    1.0310458    -7.533887    51.026283  0.024160172  0.025791397            1 
  177000   0.98453741   -7.5162871     51.11675  0.024066266  0.025722768            1 
  178000    1.0051087   -7.6120231    51.186287  0.023963618  0.025653213            2 
  179000    0.9727624   -7.5879703    51.387505  0.023923419  0.025583474            2 
  180000   0.98794592   -7.5670051    51.510644   0.02384752   0.02551328            1 
  181000   0.96167441   -7.5794907    51.669437  0.023788875  0.025440909            2 
  182000   0.99474783   -7.5823557    51.814489  0.023724583   0.02536912            1 
  183000   0.99936774   -7.5741465    51.932897   0.02364886  0.025296736            3 
  184000   0.97515607   -7.5995206    52.041071  0.023569326  0.025222599            1 
  185000   0.96594654   -7.5975124    52.004841  0.023425604  0.025148093            2 
  186000   0.98430537   -7.6005899    52.149871  0.023364638  0.025072971            1 
  187000   0.97091552   -7.5554842    52.343132  0.023325816  0.024997402            2 
  188000   0.96521831   -7.6186596    52.596707  0.023314143  0.024922281            3 
  189000   0.96455539   -7.5640046    52.538167  0.023164977  0.024847771            1 
  190000   0.95896207   -7.6116838    52.651212  0.023092637  0.024771762            3 
  191000   0.95636453   -7.6273261    52.768066  0.023022716  0.024694361            2 
  192000   0.95981031   -7.6217307    52.988093  0.022998304  0.024617795            1 
  193000   0.98084479   -7.5931795    53.227458  0.022982495   0.02454339            2 
  194000   0.96279379   -7.6010265    53.540607  0.022998543  0.024469676            1 
  195000   0.95367752   -7.6139626    53.591708  0.022902439  0.024394455            2 
  196000   0.97331464   -7.6324466    53.621458  0.022798239  0.024319921            1 
  197000   0.96101077   -7.6563443     53.69255  0.022712585  0.024245532            4 
  198000   0.94692736   -7.6603042    54.148385  0.022789724   0.02417186            1 
  199000   0.93764985    -7.644987    54.219846  0.022705128  0.024099498            3 
  200000   0.94589211   -7.6237778    54.415519  0.022673133  0.024027794            2 
  201000   0.94197469   -7.6912667    54.461761  0.022579503  0.023956086            5 
  202000   0.92691126   -7.6445492    54.788586  0.022602552  0.023885581            2 
  203000   0.95527989   -7.6379478    54.808666  0.022499452  0.023815538            4 
  204000   0.96962532    -7.656665    54.937361  0.022441733  0.023745364            1 
  205000   0.93552883   -7.6372311    54.839936  0.022292657  0.023675068            2 
  206000   0.92633357   -7.6240326    55.363146  0.022396095   0.02360502            2 
  207000   0.93755161   -7.6428334    55.337293  0.022277493  0.023535424            2 
  208000   0.93260109   -7.6620106    55.459805  0.022219473  0.023466431            2 
  209000   0.93633895   -7.6416373    55.775544  0.022239053  0.023398377            1 
  210000   0.93339364   -7.6399087    56.035216  0.022236197  0.023330649            1 
  211000   0.92956068   -7.6632439    56.230382  0.022207892   0.02326414            1 
  212000    0.9428695   -7.7282231    55.999615  0.022012427   0.02319695            2 
  213000   0.94348225   -7.7163172    56.179133  0.021979317  0.023128623            2 
  214000   0.93233155   -7.6737146    56.265347  0.021910182  0.023060995            1 
  215000   0.92086815    -7.709817    56.250419  0.021802488   0.02299284            1 
  216000    0.9194382   -7.6932795    56.615694  0.021842475  0.022924807            1 
  217000     0.918483   -7.6871916     56.60025  0.021735887   0.02285773            2 
  218000   0.92312659   -7.7285083    56.739975  0.021689593  0.022790099            3 
  219000   0.91318769   -7.7139236    56.845865  0.021630847  0.022722796            2 
  220000   0.90555862    -7.676937    57.066712  0.021616179  0.022656152            2 
  221000   0.93096739   -7.7318586    57.149889  0.021549732  0.022590678            2 
  222000   0.90430317   -7.7230591    57.394321  0.021544415  0.022525307            3 
  223000   0.91496776   -7.7371614    57.438563  0.021464336  0.022460664            2 
  224000   0.93608407   -7.7423861    57.788992  0.021498881  0.022395269            1 
  225000   0.90827132   -7.7368439    57.675139  0.021361163  0.022330128            3 
  226000   0.88683203   -7.7561519    57.741783  0.021291218  0.022263953            2 
  227000   0.91570785   -7.7354704    57.917966  0.021262102  0.022197583            1 
  228000    0.9272091   -7.7369047    58.075345  0.021226369  0.022131861            4 
  229000   0.90345699   -7.7444841    58.162101  0.021165248   0.02206722            2 
  230000   0.89256927    -7.722168    58.465504  0.021183153  0.022003026            1 
  231000   0.89740708   -7.7741817    58.449232  0.021085582  0.021939585            2 
  232000   0.88911831   -7.7591353    58.643123   0.02106434   0.02187666            2 
  233000   0.90336253   -7.7652332    58.702781  0.020995272  0.021813482            4 
  234000   0.88730476   -7.8129397    58.716161  0.020910314  0.021750466            2 
  235000   0.87612966   -7.7868557    58.923933  0.020895012  0.021688327            1 
  236000   0.89798045   -7.7684036    59.054794  0.020852681  0.021626291            1 
  237000   0.87658713   -7.8247423    59.223678  0.020824078  0.021564245            2 
  238000    0.8765147   -7.7667707    59.287478  0.020758921  0.021502464            2 
  239000   0.86433894   -7.7575466    59.643819  0.020796311  0.021441503            2 
  240000   0.90467714   -7.7860854    59.651265  0.020712245  0.021381422            1 
  241000   0.87191585   -7.8390361    59.735298  0.020655359  0.021320855            3 
  242000   0.88407731   -7.7745606    59.718918  0.020564366  0.021260862            2 
  243000   0.88749021   -7.8371225    59.877028   0.02053396  0.021200474            3 
  244000   0.87331326    -7.844465    59.935559  0.020469795  0.021139783            2 
  245000   0.86307977   -7.8222201    60.034978   0.02042006  0.021079069            2 
  246000   0.86108678   -7.8108549    60.146594  0.020374862  0.021019264            2 
  247000   0.89135926   -7.8181385    60.382973  0.020372123  0.020959724            1 
  248000    0.8636915   -7.8260845    60.453138  0.020313555  0.020899829            1 
  249000   0.87341361   -7.8433516    60.383043  0.020208515  0.020840338            1 
  250000   0.87247414   -7.8444852     60.59147  0.020197157  0.020780643            1 
  251000   0.89699443   -7.8504306    60.650318  0.020136228  0.020721095            1 
  252000   0.86524411   -7.8372821    60.631917  0.020050237  0.020661374            5 
  253000    0.8822264   -7.8333349    60.724514  0.020001487  0.020601599            1 
  254000   0.86697295   -7.8419624    60.853925  0.019965198  0.020541742            4 
  255000   0.87475376   -7.8364165    61.053177  0.019952018  0.020482462            2 
  256000      0.85954   -7.8578774    61.074581  0.019881049  0.020424011            1 
  257000   0.85435958   -7.8290165    61.133549  0.019822811  0.020364839            2 
  258000   0.85361744   -7.8452817    61.295303  0.019798225  0.020305241            6 
  259000   0.86030203   -7.8799193    61.188821  0.019687523  0.020245817            1 
  260000   0.86258953   -7.9005714    61.299651  0.019647324  0.020185959            1 
  261000   0.84734329   -7.8743001    61.434531  0.019615112  0.020126284            4 
  262000   0.86135467   -7.9029598    61.372114  0.019520392  0.020067072            2 
  263000   0.83734852   -7.9016154    61.308356  0.019425968  0.020006734            2 
  264000   0.86458641   -7.8874151    61.562368  0.019432566   0.01994595            2 
  265000   0.81901511   -7.9050421    61.562426  0.019359254  0.019885401            2 
  266000   0.85087261   -7.9014464    61.435239  0.019246629  0.019824465            3 
  267000   0.84431621   -7.9048375    61.498478  0.019194282  0.019763267            1 
  268000   0.83383978   -7.8944395    61.591391  0.019151552  0.019702199            2 
  269000   0.84817647   -7.9384446    61.572558  0.019074522  0.019640777            3 
  270000   0.82946853   -7.9055335    61.759017  0.019061425  0.019580119            2 
  271000   0.83352398   -7.9000085    61.768286  0.018993938  0.019519621            3 
  272000   0.82975345   -7.9076547    61.794686  0.018932196  0.019458438            3 
  273000   0.82213169   -7.9359698    61.767566  0.018854568  0.019397481            3 
  274000   0.82662484   -7.9347515    61.758148  0.018782892  0.019336859            5 
  275000   0.84246202   -7.9319291    61.954424  0.018774068  0.019275611            1 
  276000   0.82827024   -7.9321194    61.993645  0.018717888  0.019214289            1 
  277000   0.82899863   -7.9499934    61.856813   0.01860915  0.019153404            1 
  278000   0.81826581   -7.9895225    61.972561  0.018576907  0.019092533            2 
  279000   0.83448746    -7.954944    62.099703  0.018548298  0.019032317            2 
  280000   0.81962138   -7.9878125    61.948273  0.018436986  0.018971654            2 
  281000   0.81831767   -7.9540593    62.325702  0.018483304  0.018911233            2 
  282000   0.83794136   -7.9885177    62.134374  0.018361222  0.018851132            2 
  283000    0.8253209   -7.9773841    62.291149  0.018342506  0.018790907            1 
  284000   0.84472222   -7.9708539    62.404493  0.018311177  0.018731127            3 
  285000    0.8233426   -7.9763302    62.514925  0.018279218  0.018671786            2 
  286000   0.81546174   -7.9554292    62.629047  0.018248557   0.01861299            3 
  287000   0.82156136   -7.9664727     62.60139  0.018176942  0.018554053            2 
  288000   0.80058575   -7.9708301    62.576121  0.018106516  0.018494739            2 
  289000   0.79124732   -8.0167664    62.434376  0.018002992  0.018435089            1 
  290000   0.81160344   -8.0336575    62.660353  0.018005849  0.018376062            2 
  291000   0.79819913   -8.0202599    62.548654  0.017911986  0.018317231            3 
  292000    0.7928149   -8.0391701     62.50837  0.017839147  0.018257992            3 
  293000   0.79488376   -8.0251978    62.772534  0.017853394  0.018199136            3 
  294000   0.79671299   -8.0469629    62.768057  0.017791399  0.018140518            1 
  295000     0.798262   -8.0578885    62.732095  0.017720931  0.018081777            3 
  296000   0.79234087   -8.0429835     62.84424  0.017692635  0.018022944            2 
  297000    0.7752991   -8.0333431    62.809603  0.017623345  0.017963999            2 
  298000   0.78591605   -8.0605443    62.832525  0.017570617   0.01790482            1 
  299000   0.78157957   -8.0475588     62.88248  0.017525775  0.017846611            2 
  300000   0.79506077   -8.0736388    62.839655   0.01745546  0.017788267            1 
  301000    0.7797225   -8.0486879    62.945569  0.017426791  0.017730085            2 
  302000   0.79353602   -7.9881134    63.033935   0.01739347  0.017671948            1 
  303000   0.80545456   -8.0160374    63.248896  0.017395186  0.017614791            3 
  304000   0.77110068   -8.0379009    63.180795  0.017319297  0.017557581            3 
  305000   0.76840443   -8.0483523    63.093183  0.017238574  0.017500086            2 
  306000    0.8025916   -8.0843248    63.207224  0.017213296  0.017442888            3 
  307000   0.78680256    -8.067167     63.19606  0.017154197  0.017385986            1 
  308000   0.77188794   -8.1063078     63.18854  0.017096466   0.01732969            2 
  309000   0.79527679   -8.0817065    63.256777  0.017059541  0.017272879            2 
  310000   0.76632978   -8.0940007    63.495658  0.017068725  0.017216971            2 
  311000   0.77104876   -8.0905819    63.495069  0.017013684   0.01716121            2 
  312000   0.76062656   -8.1360857    63.423366  0.016940002  0.017105417            2 
  313000   0.77298592   -8.1280824    63.526075  0.016913226  0.017049888            2 
  314000   0.77964342   -8.1183924    63.518668  0.016857396  0.016994209            2 
  315000   0.77314179    -8.122796    63.554476  0.016813353  0.016938836            3 
  316000   0.76337635   -8.0984329    63.616912  0.016776612  0.016883484            5 
  317000   0.76452816   -8.1238799    63.555405   0.01670752   0.01682829            2 
  318000    0.7532803   -8.1158716    63.738956  0.016703081  0.016773373            2 
  319000   0.76075958   -8.1187201     63.64467  0.016626089  0.016718474            1 
  320000   0.75351248   -8.1460876    63.654968  0.016576815  0.016663368            2 
  321000   0.77913037   -8.1655856    63.592829  0.016509042  0.016608838            1 
  322000   0.76257864   -8.1516759    63.626047  0.016466368  0.016554188            1 
  323000   0.73754065   -8.1558961    63.638736  0.016418663  0.016499508            1 
  324000   0.74585065   -8.1514732    63.684304  0.016379708  0.016445092            2 
  325000   0.75323238   -8.1780808    63.672191  0.016326203     0.016391            2 
  326000   0.74529462   -8.1599832    63.768031  0.016300621  0.016337071            2 
  327000   0.75587559   -8.1541588    63.887882  0.016281315   0.01628362            1 
  328000   0.75445234   -8.1614623    63.934669  0.016243564  0.016230556            2 
  329000   0.72133323   -8.1744238    64.005542  0.016212143  0.016177767            1 
  330000   0.74015628   -8.1549518    64.040257  0.016171782  0.016125278            1 
  331000   0.75129563   -8.1593008    64.011244   0.01611562   0.01607274            2 
  332000   0.73872866   -8.1830527    63.982659  0.016059904  0.016020216            5 
  333000   0.74526365   -8.1809753    64.089546  0.016038425  0.015967802            4 
  334000   0.73021295   -8.1610408    64.150323   0.01600557  0.015915908            2 
  335000   0.73894565   -8.1813649    64.101768  0.015945713  0.015864128            4 
  336000   0.73032829   -8.1939373     64.10269  0.015898485  0.015812202            1 
  337000    0.7268776   -8.2280789    64.137576  0.015859935  0.015760225            2 
  338000   0.71645949   -8.2232513    64.013661  0.015782461  0.015708336            2 
  339000   0.71417429   -8.2185146    64.083849  0.015753158  0.015656346            1 
  340000   0.73909195   -8.2132398    64.073369  0.015704257  0.015604718            3 
  341000   0.72557361   -8.2341466    64.128736  0.015671734  0.015553004            3 
  342000    0.7249405   -8.2284187    64.083021  0.015614771   0.01550151            2 
  343000   0.72699333   -8.2305495    64.077226  0.015567839  0.015450231            2 
  344000   0.72207416   -8.2084446    64.178606  0.015547143  0.015399076            3 
  345000   0.72671109   -8.2361209    63.997267  0.015458277  0.015347729            1 
  346000   0.72556006   -8.2229177    64.139983  0.015447973  0.015296691            4 
  347000   0.71311781   -8.2024314    64.180012  0.015413067  0.015245753            2 
  348000   0.71203577   -8.2557354    64.159183  0.015363789  0.015195034            1 
  349000   0.71489848   -8.2435216    64.093298  0.015304035  0.015144474            2 
  350000   0.71867129   -8.2436558    64.206085  0.015287163  0.015094078            1 
  351000   0.71150596    -8.242799    64.156137  0.015231751  0.015043616            2 
  352000   0.69602499   -8.2506649    64.317927  0.015226782  0.014993346            2 
  353000    0.7093626   -8.2431683    64.232702  0.015163527  0.014943259            1 
  354000   0.69464221   -8.2405596    64.189998   0.01511064  0.014893325            2 
  355000   0.71506757   -8.2745299    64.231713  0.015077867   0.01484345            2 
  356000   0.69645776   -8.2761538    64.174376  0.015022092  0.014793524            4 
  357000   0.68978981   -8.3028804    64.135444  0.014970925  0.014743841            3 
  358000    0.6968561   -8.2988567     64.20939   0.01494632  0.014694396            3 
  359000   0.69108686   -8.2815989    64.379696  0.014944219  0.014645108            2 
  360000   0.68288776    -8.315047    64.386927  0.014904381   0.01459643            2 
  361000   0.67323998   -8.3029605    64.058828  0.014787356  0.014547663            2 
  362000   0.70325629   -8.2836749    64.350762  0.014813711   0.01449913            4 
  363000   0.69518119   -8.2813566    64.464668  0.014799051  0.014450775            2 
  364000   0.69418974   -8.2985474    64.463076   0.01475803  0.014402681            3 
  365000   0.68237088   -8.3049475    64.399921  0.014703178  0.014354812            2 
  366000   0.68386956   -8.3131959    64.267044  0.014632751  0.014307045            2 
  367000   0.67305998   -8.3191686    64.371196  0.014616529  0.014259348            2 
  368000   0.66944249   -8.3177497    64.233013  0.014545519   0.01421134            5 
  369000   0.67944121   -8.3139243    64.377921  0.014538826  0.014163615            2 
  370000   0.68716037   -8.3328852    64.129091  0.014443489  0.014116009            3 
  371000   0.66616069   -8.3540024    64.338918  0.014451689  0.014068432            2 
  372000    0.6531399    -8.347807    64.184923  0.014378343  0.014020956            2 
  373000   0.66307999   -8.3382713    64.367311  0.014380543  0.013973704            2 
  374000   0.68779833   -8.3352324    64.268412  0.014320056  0.013926504            1 
  375000   0.67785976    -8.327892    64.203408  0.014267424  0.013879419            2 
  376000   0.67006324   -8.3523877    64.293325  0.014249407  0.013832383            1 
  377000   0.66495788   -8.3662634    64.213985  0.014194073  0.013785431            1 
  378000   0.64621343   -8.3691217    64.118366  0.014135442  0.013738503            1 
  379000   0.66739076   -8.3694298    64.264101  0.014130189  0.013691838            3 
  380000   0.65410256   -8.3822813    64.192968  0.014077405  0.013645322            1 
  381000   0.66052539   -8.3464006    64.193342  0.014040538   0.01359887            5 
  382000   0.67244326   -8.3602826    64.190715   0.01400321  0.013552621            2 
  383000   0.65500796   -8.3770412    64.060309  0.013938274  0.013506526            3 
  384000   0.63924707   -8.4046513    64.076748  0.013905544  0.013460339            1 
  385000   0.64682729   -8.3980805     64.22879  0.013902335  0.013414278            4 
  386000   0.64884188   -8.3899039    63.958679  0.013808005  0.013368497            2 
  387000   0.64148251   -8.3933446    64.168791  0.013817569  0.013322815            2 
  388000   0.64663884   -8.3919228    64.122278  0.013771967  0.013277336            2 
  389000   0.63962516   -8.3811859    64.281787  0.013770734  0.013232064            3 
  390000   0.65087671   -8.3882673    64.248338  0.013728277  0.013186936            3 
  391000   0.65284199   -8.3938827     64.08784   0.01365896  0.013142109            1 
  392000    0.6310263   -8.3942805    64.178572  0.013643404  0.013097434            2 
  393000   0.64109909   -8.4107822    64.107009  0.013593513  0.013052908            2 
  394000   0.64660003   -8.4200192    64.248687  0.013588978  0.013008525            3 
  395000   0.63144774   -8.4102176    64.142607  0.013532196  0.012964328            3 
  396000   0.62554673   -8.4388598    64.206348  0.013511437  0.012920085            2 
  397000   0.64434886   -8.4285552    64.134816  0.013462388  0.012876047            3 
  398000   0.63673198   -8.4200909    64.210175  0.013444341   0.01283209            2 
  399000   0.63349328   -8.4445946    64.121721  0.013392172  0.012788285            4 
  400000   0.62423053   -8.4434632    64.031335  0.013339861  0.012744674            3 
  401000    0.6336695   -8.4348864    64.067518  0.013314114  0.012701234            3 
  402000   0.63681154   -8.4261049    64.061639  0.013279776  0.012657897            4 
  403000   0.64191902   -8.4293807    64.219833  0.013279535  0.012614747            5 
  404000   0.62030717   -8.4614465    64.093619  0.013220631   0.01257175            4 
  405000   0.62304378   -8.4453968    64.209581  0.013211848  0.012528952            3 
  406000   0.62041078   -8.4592999    63.955754  0.013127207  0.012486268            2 
  407000    0.6088711   -8.4613587    64.010416  0.013106146  0.012443798            2 
  408000   0.61901684   -8.4630438    64.045419  0.013081172   0.01240146            2 
  409000   0.61729748   -8.4581177    64.032681  0.013046593  0.012359297            2 
  410000   0.61901996   -8.4549091    64.220359  0.013052919   0.01231724            1 
  411000   0.61102893   -8.4698612    64.254643  0.013028111   0.01227545            4 
  412000   0.60355109   -8.4872924    64.065032  0.012958137  0.012233765            8 
  413000    0.6061342   -8.4936389    64.092232   0.01293225  0.012192217            4 
  414000    0.6080448   -8.4689927     64.11717  0.012906033  0.012150801            2 
  415000   0.60466025   -8.4878551    64.135039  0.012878522  0.012109587            4 
  416000   0.59614709    -8.488122    64.055629  0.012831656  0.012068614            5 
  417000   0.60123361   -8.5011272    64.104923  0.012810736  0.012027794            2 
  418000   0.59616642    -8.497834    64.057867  0.012770707  0.011987024            2 
  419000   0.60729552   -8.5089857    64.023864  0.012733465  0.011946383            2 
  420000   0.58653524   -8.5065482     64.01445   0.01270128  0.011905944            5 
  421000   0.60791373   -8.4840055    64.131251   0.01269423  0.011865767            1 
  422000   0.59090234   -8.4988184    64.073465  0.012652738  0.011825587            2 
  423000   0.58754304   -8.5086515    64.067747  0.012621699  0.011785601            3 
  424000   0.60194678   -8.4911887    64.041716  0.012586815  0.011745773            2 
  425000   0.59750109   -8.5282164    64.124884  0.012573507  0.011706156            2 
  426000   0.59634544    -8.537803    64.116832  0.012542416  0.011666676            3 
  427000   0.59419866   -8.5339968    64.123227  0.012514291  0.011627252            3 
  428000   0.58484347     -8.53467    63.978394  0.012456852  0.011588141            2 
  429000   0.56959421   -8.5198713    64.157297  0.012462567  0.011549124            2 
  430000   0.58893126   -8.5119394    64.088285   0.01242021  0.011510258            3 
  431000   0.57651139   -8.5447517    63.976302  0.012369741  0.011471596            4 
  432000   0.58784733   -8.5379845    64.027503  0.012350984  0.011432996            3 
  433000   0.58067113   -8.5401253      64.0799  0.012332544    0.0113947            3 
  434000   0.56743868   -8.5561302    64.065806  0.012301422  0.011356385            2 
  435000   0.56298707   -8.5562402    64.046989  0.012269538   0.01131813            4 
  436000    0.5708183   -8.5418432    64.122708  0.012255869  0.011280196            3 
  437000   0.56262923   -8.5452884    64.106007  0.012224639  0.011242376            3 
  438000   0.56513304   -8.5447419    64.099786  0.012195545  0.011204731            2 
  439000   0.57435168   -8.5759892    64.070169  0.012162143  0.011167268            2 
  440000   0.57474977   -8.5632302    63.956771  0.012113025  0.011129977            2 
  441000   0.55656686   -8.5929546     63.96668   0.01208743  0.011092817            3 
  442000   0.55860809   -8.5713419    64.067938  0.012079174  0.011055674            3 
  443000   0.56333803   -8.5832223    64.069081  0.012052122  0.011018618            5 
  444000    0.5632224   -8.5696841    63.989529  0.012010047   0.01098175            2 
  445000   0.56331524   -8.5878401    64.044868  0.011993421  0.010945109            2 
  446000   0.56981099   -8.5725556    63.905101  0.011940415  0.010908568            5 
  447000   0.55298967   -8.5852058    63.972491  0.011926266  0.010872117            2 
  448000    0.5567297    -8.582531    63.996078  0.011904032  0.010835796            2 
  449000   0.55356065   -8.6046641    63.987503  0.011875929  0.010799605            2 
  450000   0.54577087   -8.5863902    63.980195  0.011848184  0.010763574            2 
  451000   0.55597376    -8.597683     64.02139  0.011829525  0.010727794            2 
  452000   0.54040447   -8.6057414    63.915325  0.011783799  0.010692083            2 
  453000    0.5447605   -8.6111314     63.91787  0.011758254  0.010656515            3 
  454000   0.54309355   -8.6304234    63.856391   0.01172107  0.010621095            3 
  455000   0.55100341   -8.6150425    63.942393  0.011711061  0.010585768            3 
  456000   0.53888004   -8.6092027    63.950835  0.011686922  0.010550586            2 
  457000   0.54410616   -8.6151092     63.94186  0.011659712  0.010515597            1 
  458000   0.54978864   -8.6070568    63.887213  0.011624311  0.010480716            1 
  459000    0.5433714   -8.6299459    63.897295  0.011600816  0.010445945            2 
  460000   0.52658087   -8.6411186    63.870975  0.011570829   0.01041132            1 
  461000   0.53358113   -8.6357593     63.85068  0.011542061  0.010376812            1 
  462000   0.53831382    -8.629882    63.891666  0.011524471  0.010342463            2 
  463000   0.51724209   -8.6230414    63.853646  0.011492737  0.010308236            4 
  464000   0.53590125   -8.6243423    63.659142  0.011433035  0.010274109            1 
  465000   0.52881894   -8.6262647    63.834597  0.011439892  0.010240132            3 
  466000   0.53003692    -8.627658    63.828997  0.011414341  0.010206217            1 
  467000   0.52726824   -8.6415407    63.798975  0.011384542  0.010172498            2 
  468000   0.52409855   -8.6511714    63.829926  0.011365727  0.010138858            2 
  469000   0.52342474   -8.6501334    63.729847  0.011323711  0.010105461            2 
  470000   0.52337738   -8.6604713    63.841475   0.01131941  0.010072197            2 
  471000   0.50841605   -8.6534062    63.816234  0.011290912  0.010039046            4 
  472000   0.50154847   -8.6504179    63.761451  0.011257318  0.010005976            2 
  473000   0.51469013   -8.6728897    63.666073  0.011216715 0.0099729845            4 
  474000   0.51113227    -8.680778    63.721297   0.01120276 0.0099400694            3 
  475000   0.51485496   -8.6674514    63.796262  0.011192327 0.0099073458            3 
  476000    0.5041952   -8.6638384    63.732185  0.011157595 0.0098746951            2 
  477000    0.5128315    -8.678243    63.723972  0.011132769 0.0098422208            5 
  478000   0.49725103   -8.6844778    63.706944   0.01110651  0.009809818            2 
  479000   0.50077272   -8.6649174    63.724171  0.011086321 0.0097776149            3 
  480000   0.49633404   -8.6676906    63.705173  0.011059926 0.0097455153            2 
  481000   0.50172846   -8.6784576     63.72463  0.011040303 0.0097136246            3 
  482000    0.5041359   -8.6753659    63.759873  0.011023491 0.0096818328            2 
  483000    0.4844632   -8.6990046    63.654893  0.010982556  0.009650067            1 
  484000   0.49292934   -8.7026107    63.609819  0.010952104 0.0096184631            1 
  485000   0.50409946   -8.7081404     63.64503  0.010935572 0.0095869552            2 
  486000   0.49670413   -8.7030001     63.61428  0.010907798 0.0095555778            2 
  487000   0.49040318   -8.7102226    63.552616  0.010874849 0.0095243254            2 
  488000   0.49170823   -8.7129765    63.633962  0.010866455 0.0094931927            1 
  489000   0.48216667   -8.6895014    63.659788  0.010848635 0.0094622472            1 
  490000   0.48918372   -8.7036331    63.651791  0.010825135 0.0094313561            2 
  491000   0.48351375   -8.7136526    63.607571  0.010795582 0.0094006408            2 
  492000   0.49325222   -8.7068591    63.597095  0.010771866 0.0093700168            2 
  493000   0.48421897   -8.7190456     63.56554  0.010744682 0.0093395306            2 
  494000   0.47838614   -8.7120765    63.585387   0.01072628 0.0093091982            2 
  495000   0.47664797     -8.71091    63.589535  0.010705309 0.0092789665            1 
  496000   0.47319506   -8.7234021    63.521156  0.010672237 0.0092488444            2 
  497000   0.46954264   -8.7246602    63.640073  0.010670703 0.0092188596            1 
  498000    0.4775921   -8.7376331    63.574028  0.010638224 0.0091890089            2 
  499000   0.47671742   -8.7304141    63.630489  0.010626334 0.0091593037            2 
  500000   0.46596481   -8.7352954    63.605501  0.010600917 0.0091297056            2 
  501000   0.47102876   -8.7235178    63.545322  0.010569747 0.0091002671            2 
  502000   0.46674508   -8.7415355    63.561979  0.010551457 0.0090709487            2 
  503000   0.47268814   -8.7504219    63.572254  0.010532183 0.0090417084            2 
  504000   0.46741449    -8.729446    63.536791  0.010505422 0.0090125476            2 
  505000   0.45282164   -8.7501746    63.591589  0.010493662 0.0089835479            1 
  506000   0.46329503   -8.7407441     63.57504  0.010470198 0.0089546556            2 
  507000   0.45988522   -8.7570348    63.573611  0.010449311 0.0089258935            2 
  508000   0.45561764   -8.7592432    63.506888  0.010417797 0.0088972189            1 
  509000    0.4596354   -8.7550567    63.532859  0.010401581 0.0088687349            2 
  510000   0.44904592   -8.7596788    63.505598  0.010376732 0.0088402708            1 
  511000   0.45101961   -8.7482206    63.475483  0.010351514 0.0088119184            2 
  512000   0.45604491   -8.7642221    63.532175  0.010340523 0.0087836946            1 
Loop time of 1240.27 on 48 procs for 500000 steps with 4000 atoms

Performance: 69662.361 tau/day, 403.139 timesteps/s
99.4% CPU use with 48 MPI tasks x no OpenMP threads

MPI task timing breakdown:
Section |  min time  |  avg time  |  max time  |%varavg| %total
---------------------------------------------------------------
Pair    | 74.642     | 81.741     | 89.003     |  29.0 |  6.59
Neigh   | 8.0053     | 8.3544     | 8.7583     |   5.8 |  0.67
Comm    | 75.007     | 82.166     | 89.715     |  34.9 |  6.62
Output  | 0.86503    | 0.86583    | 0.88805    |   0.3 |  0.07
Modify  | 1051.2     | 1055.3     | 1058.4     |   5.3 | 85.08
Other   |            | 11.87      |            |       |  0.96

Nlocal:        83.3333 ave          92 max          75 min
Histogram: 1 2 6 5 10 14 3 3 3 1
Nghost:        2088.77 ave        2116 max        2065 min
Histogram: 3 4 5 4 10 6 10 4 0 2
Neighs:        13690.8 ave       15266 max       11956 min
Histogram: 1 2 6 3 8 11 9 3 2 3
FullNghs:      27381.5 ave       30320 max       24431 min
Histogram: 1 2 2 9 8 11 8 4 2 1

Total # of neighbors = 1314311
Ave neighs/atom = 328.57775
Neighbor list builds = 26764
Dangerous builds = 1

#clear
#
#next RN
#
#jump SELF
Total wall time: 0:20:43
