
units lj                  # Use reduced LJ style units
atom_style atomic         # Uncharged point particles
atom_modify map hash      # Needed for indexing of clusters etc
                          # Used to be able to find where atoms are in relation to each other.

lattice fcc 1.0 spacing 1 1 1
Lattice spacing in x,y,z = 1.5874011 1.5874011 1.5874011
region box block 0 10 0 10 0 10 units lattice
create_box 2 box
Created orthogonal box = (0.0000000 0.0000000 0.0000000) to (15.874011 15.874011 15.874011)
  3 by 4 by 4 MPI processor grid
create_atoms 1 box
Created 4000 atoms
  using lattice units in orthogonal box = (0.0000000 0.0000000 0.0000000) to (15.874011 15.874011 15.874011)
  create_atoms CPU = 0.039 seconds
set type 1 type/fraction 2 0.56 78393
Setting atom values ...
  2252 settings made for type/fraction
mass 1 1.0
mass 2 1.0
pair_style lj/cut  3.5
pair_modify tail  yes
pair_coeff 1  1  1.0  1.0   # Intearaction between 1 and 1 set with epsilon = 1 and sigma = 1
pair_coeff 1  2  1.5  0.8
pair_coeff 2  2  0.5  0.88

write_data data.0
System init for write_data ...
Neighbor list info ...
  update every 1 steps, delay 10 steps, check yes
  max neighbors/atom: 2000, page size: 100000
  master list distance cutoff = 3.8
  ghost atom cutoff = 3.8
  binsize = 1.9, bins = 9 9 9
  1 neighbor lists, perpetual/occasional/extra = 1 0 0
  (1) pair lj/cut, perpetual
      attributes: half, newton on
      pair build: half/bin/atomonly/newton
      stencil: half/bin/3d
      bin: standard
WARNING: Not all mixed pair coeffs generated from mixing. Use write_data with 'pair ij' option to store all pair coeffs. (../write_data.cpp:312)


#############################
#   M E L T   S Y S T E M   #
#############################

velocity all create 2.4 1741580 mom yes dist gaussian # Assign velocities
                                                    # Temperature 2.4, random number seed, zero linear momentum
                                                                                # Gaussian distribution

timestep 0.002   # simulation timestep
thermo 1000       # output thermodynamic data every 1000 steps bf 100

# Define a fix  in this case with index 1 applied to all
# particles in the simulation. This fix is for simulations
# in the anisotropic NPT ensemble. Note that we use the MTK
# correction.
fix 1 all npt temp 2.4 2.4 0.1 iso 5.68 5.68 0.5 mtk yes tchain 5 pchain 5 # Use NPT ensemble
                                                                         # Set temperature and pressure and damping
                                                                         # Numbers of thermostats in chain and in barostat
run 10000          # run for 10000 steps
Per MPI rank memory allocation (min/avg/max) = 3.642 | 3.644 | 3.648 Mbytes
Step Temp E_pair E_mol TotEng Press Volume 
       0          2.4   -4.9459583            0   -1.3468583   -4.1435722         4000 
    1000    2.4241229   -4.7248856            0   -1.0896103     5.705433    3605.2035 
    2000    2.4430058   -4.6866134            0   -1.0230208    5.7134704     3628.244 
    3000    2.3669954    -4.685941            0   -1.1363356     5.583663     3628.333 
    4000    2.4379925   -4.6074761            0  -0.95140153    5.4224361    3678.7273 
    5000    2.4098588   -4.6833166            0    -1.069432    5.5963391    3635.2802 
    6000    2.3982975   -4.7014671            0   -1.1049202    5.4256419    3637.9426 
    7000    2.4259506   -4.6557993            0   -1.0177831    5.9281559    3625.7911 
    8000    2.4084927   -4.7398192            0   -1.1279833    5.7436425    3592.2797 
    9000    2.4523413    -4.680797            0   -1.0032047    5.9969337    3601.6107 
   10000    2.4503669   -4.7080056            0   -1.0333742    5.9263396    3597.5238 
Loop time of 2.66718 on 48 procs for 10000 steps with 4000 atoms

Performance: 647875.329 tau/day, 3749.279 timesteps/s
99.6% CPU use with 48 MPI tasks x no OpenMP threads

MPI task timing breakdown:
Section |  min time  |  avg time  |  max time  |%varavg| %total
---------------------------------------------------------------
Pair    | 1.2185     | 1.2786     | 1.3318     |   2.2 | 47.94
Neigh   | 0.22149    | 0.22722    | 0.23795    |   0.6 |  8.52
Comm    | 0.82971    | 0.89613    | 0.97221    |   3.2 | 33.60
Output  | 0.00025324 | 0.00025946 | 0.00032523 |   0.0 |  0.01
Modify  | 0.21794    | 0.2492     | 0.27798    |   3.3 |  9.34
Other   |            | 0.01581    |            |       |  0.59

Nlocal:        83.3333 ave          92 max          71 min
Histogram: 1 0 3 6 7 10 5 7 4 5
Nghost:        1761.98 ave        1787 max        1740 min
Histogram: 4 1 2 7 13 9 6 5 0 1
Neighs:        10613.6 ave       12342 max        8955 min
Histogram: 1 2 7 6 10 9 8 1 2 2

Total # of neighbors = 509452
Ave neighs/atom = 127.36300
Neighbor list builds = 911
Dangerous builds = 226

# Equilibrate just above the melting temperature to avoid step fn in T

fix 1 all npt temp 1.25 1.25 0.1 iso 5.68 5.68 0.5 mtk yes tchain 5 pchain 5
run 2000
Per MPI rank memory allocation (min/avg/max) = 3.644 | 3.646 | 3.650 Mbytes
Step Temp E_pair E_mol TotEng Press Volume 
   10000    2.4503669   -4.7080056            0   -1.0333742    5.9263396    3597.5238 
   11000    1.2495702   -6.8034386            0   -4.9295519    5.4957595    2799.8019 
   12000     1.250466   -6.8526272            0   -4.9773971    5.3940093    2791.0089 
Loop time of 0.663214 on 48 procs for 2000 steps with 4000 atoms

Performance: 521098.599 tau/day, 3015.617 timesteps/s
99.6% CPU use with 48 MPI tasks x no OpenMP threads

MPI task timing breakdown:
Section |  min time  |  avg time  |  max time  |%varavg| %total
---------------------------------------------------------------
Pair    | 0.30521    | 0.32825    | 0.34968    |   1.9 | 49.49
Neigh   | 0.042178   | 0.044282   | 0.046429   |   0.4 |  6.68
Comm    | 0.216      | 0.23894    | 0.2641     |   2.5 | 36.03
Output  | 5.544e-05  | 5.6746e-05 | 7.1923e-05 |   0.0 |  0.01
Modify  | 0.042737   | 0.046633   | 0.050953   |   1.0 |  7.03
Other   |            | 0.005056   |            |       |  0.76

Nlocal:        83.3333 ave          97 max          74 min
Histogram: 2 3 4 16 14 4 4 0 0 1
Nghost:        2100.65 ave        2121 max        2074 min
Histogram: 1 1 2 7 7 13 3 5 7 2
Neighs:        13678.5 ave       15997 max       11357 min
Histogram: 1 1 5 11 2 13 10 4 0 1

Total # of neighbors = 656566
Ave neighs/atom = 164.14150
Neighbor list builds = 142
Dangerous builds = 10

#############################
# L I N E A R  Q U E N C H  #
#############################

# Define solid atoms. This closely follows ten Wolde  Ruiz-Montero and Frenkel  Faraday Discuss  1996  104  93-110
# Compute components of the per-atom q6 vector
compute q6 all orientorder/atom degrees 1 6 components 6 nnn NULL cutoff 1.3 # compute the Q6 parameter.
                                                                             # Use all neighbours within 1.3 unit cell.

# get number of connections
compute coord_number all coord/atom orientorder q6 0.5

# An atom is solid if it has 8 or more connections (of a possible 14)
variable is_solid atom c_coord_number>=8
group solid dynamic all var is_solid    # Must be dynamic to update
dynamic group solid defined

# do clustering
compute cluster solid cluster/atom 1.3 # Create a cluster where all atoms within are solid and max 1.3 units from another member

# define chunks one chunk per cluster
compute clus_chunks solid chunk/atom c_cluster nchunk every compress yes  # Says which atoms are in which chunk

# count the size of each chunk
compute size_chunks solid property/chunk clus_chunks count


# Find the maximum entry in the vector of chunk sizes
variable max_n equal max(c_size_chunks)


# Thermo style which includes this variable
# thermo_style custom step temp pe vol v_max_n

thermo ${N}  # Print the thermo information every 100 steps
thermo 1000  

# Reset the npt fix at a lower temperature (below freezing)
fix 1  all npt temp  ${temp} ${temp}  0.1  iso  5.68  5.68  0.5  mtk yes tchain  5  pchain  5
fix 1  all npt temp  0.45 ${temp}  0.1  iso  5.68  5.68  0.5  mtk yes tchain  5  pchain  5
fix 1  all npt temp  0.45 0.45  0.1  iso  5.68  5.68  0.5  mtk yes tchain  5  pchain  5

dump dmp2 all dcd ${N} traj.dcd
dump dmp2 all dcd 1000 traj.dcd


compute msd all msd com yes
variable twopoint equal c_msd[4]/6/(step*dt+1.0e-6)
fix 9 all vector 10 c_msd[4]
variable fit equal slope(f_9)/6/(10*dt)
thermo_style custom step temp pe c_msd[4] v_twopoint v_fit v_max_n

fix 1 all npt temp 1.25 ${temp} 0.1 iso 5.68 5.68 0.5 mtk yes tchain 5 pchain 5
fix 1 all npt temp 1.25 0.45 0.1 iso 5.68 5.68 0.5 mtk yes tchain 5 pchain 5
run 500000 # 5000000  # Run for this many steps
Neighbor list info ...
  update every 1 steps, delay 10 steps, check yes
  max neighbors/atom: 2000, page size: 100000
  master list distance cutoff = 3.8
  ghost atom cutoff = 3.8
  binsize = 1.9, bins = 8 8 8
  4 neighbor lists, perpetual/occasional/extra = 1 3 0
  (1) pair lj/cut, perpetual
      attributes: half, newton on
      pair build: half/bin/atomonly/newton
      stencil: half/bin/3d
      bin: standard
  (2) compute orientorder/atom, occasional
      attributes: full, newton on
      pair build: full/bin/atomonly
      stencil: full/bin/3d
      bin: standard
  (3) compute coord/atom, occasional
      attributes: full, newton on
      pair build: full/bin/atomonly
      stencil: full/bin/3d
      bin: standard
  (4) compute cluster/atom, occasional
      attributes: full, newton on
      pair build: full/bin/atomonly
      stencil: full/bin/3d
      bin: standard
Per MPI rank memory allocation (min/avg/max) = 9.844 | 9.849 | 9.853 Mbytes
Step Temp PotEng c_msd[4] v_twopoint v_fit v_max_n 
   12000     1.250466   -6.8526272 1.5226988e-30 1.0574297e-32 8.3333333e+20            2 
   13000    1.2145043   -6.9257323   0.45064262 0.0028887347  0.037043127            3 
   14000    1.2294002   -6.8991228   0.84057245 0.0050034073  0.033961072            4 
   15000    1.2292425   -6.8745645    1.2449915 0.0069166191  0.033864155            3 
   16000    1.2713627   -6.8736113    1.6836206 0.0087688573  0.034250094            2 
   17000    1.2221445   -6.9469521    2.0911284  0.010250629  0.034183316            3 
   18000    1.2332181   -6.9100894     2.518241  0.011658523  0.034496919            2 
   19000     1.233905   -6.9410934    2.9006245  0.012722037  0.034404093            2 
   20000    1.2336101   -6.9256731    3.2388261  0.013495108  0.034011801            2 
   21000    1.2360129    -6.925457    3.6080581   0.01431769   0.03360569            2 
   22000    1.2301777   -6.9384652    3.9406213  0.014926595  0.033152855            2 
   23000    1.2514006   -6.9167915    4.3695504  0.015831704  0.032762375            2 
   24000    1.2588059   -6.9804614    4.6978896  0.016312116  0.032609327            2 
   25000    1.2230454   -6.9124302    5.1318409  0.017106136  0.032425223            3 
   26000    1.2333941   -6.9812117    5.5087337  0.017656197  0.032363489            1 
   27000    1.2239115   -6.9568346    5.9255151  0.018288626  0.032363057            3 
   28000    1.2463993   -6.9538235    6.2751513  0.018676045  0.032313437            2 
   29000    1.2157034   -6.9568714    6.6117868  0.018999387  0.032194887            3 
   30000    1.2069247   -6.9959698    6.9772457  0.019381238  0.032108395            5 
   31000    1.2473519    -6.979569    7.3944854  0.019877649  0.032018334            2 
   32000    1.1986527   -6.9877051    7.8112679  0.020341843  0.032017103            1 
   33000    1.2342593   -6.9482566    8.2298577  0.020782469  0.032028161            6 
   34000     1.210609   -6.9555065    8.6464984  0.021192398  0.032074824            2 
   35000    1.1990009   -7.0030436    9.0461874  0.021538541  0.032128851            4 
   36000    1.2225927   -7.0157249    9.3506747   0.02164508  0.032155417            3 
   37000    1.2393174   -7.0255061    9.6981904  0.021842771  0.032135185            5 
   38000    1.2001648   -6.9385516    10.151521  0.022262108   0.03210674            2 
   39000    1.2173217   -6.9772192    10.493936  0.022422939  0.032084167            3 
   40000    1.2281289   -6.9723562    10.902329  0.022713186  0.032065607            3 
   41000    1.1885574   -7.0297454    11.236336  0.022838082   0.03204693            4 
   42000     1.204603   -7.0352482    11.593407  0.023002792  0.032008739            2 
   43000    1.1983337   -7.0576719    11.978219  0.023213602  0.031969316            5 
   44000    1.2067819   -7.0199382    12.274392  0.023246955   0.03192905            3 
   45000     1.202687   -7.0003696    12.670026  0.023463011  0.031877321            2 
   46000    1.1673515   -7.0424437    12.942609  0.023446755  0.031802435            1 
   47000    1.1676783   -7.0293517    13.273677  0.023534888  0.031716141            2 
   48000    1.1996366   -7.0731697    13.573831  0.023565679  0.031618422            8 
   49000    1.1694331   -7.0513568    13.962807   0.02374627  0.031530288            2 
   50000    1.1793685   -7.0690494    14.303945  0.023839908  0.031445703            2 
   51000    1.1532792   -7.0356837    14.689194  0.024001951  0.031368058            3 
   52000    1.1838365   -7.0463919    15.007111  0.024049858  0.031278668            6 
   53000    1.1874045   -7.0652446    15.255295  0.023986312  0.031174541            4 
   54000    1.1651264   -7.0889108    15.579009  0.024041681  0.031073039            2 
   55000    1.1862984   -7.0451201    15.929397   0.02413545  0.030986752            2 
   56000    1.1629835   -7.0691954    16.148807  0.024030963  0.030879543            3 
   57000    1.1751846   -7.0393978    16.525328  0.024159837  0.030773924            3 
   58000    1.1680883   -7.1168966    16.780188  0.024109466   0.03066438            2 
   59000    1.1607896   -7.0782533    17.140994  0.024210443  0.030552379            1 
   60000    1.2028255   -7.0376889    17.475178  0.024271081  0.030445848            2 
   61000    1.2061409   -7.0854302    17.769427  0.024275173  0.030341584            4 
   62000    1.1742035   -7.0609911    17.952023  0.024129064  0.030223687            3 
   63000    1.1688623   -7.0585818    18.276439  0.024175184  0.030108693            4 
   64000    1.1954775   -7.0526691    18.695382  0.024342945  0.030004346            3 
   65000    1.1643153   -7.0919177    18.941214  0.024283608  0.029910498            5 
   66000    1.1591085   -7.1192663    19.203543  0.024246898  0.029809245            4 
   67000    1.1595803   -7.1406816    19.568559  0.024339004  0.029715643            4 
   68000    1.1511823   -7.1129948    20.029107  0.024545474  0.029642745            3 
   69000    1.1548247   -7.1006977    20.208387  0.024406264  0.029564055            4 
   70000    1.1536658   -7.0829916    20.503928  0.024409438  0.029473379            4 
   71000    1.1736337   -7.1286606    20.757581  0.024363358  0.029375546            2 
   72000    1.1737004   -7.1479311    20.907001  0.024197918  0.029275684            1 
   73000     1.134547   -7.1325673    21.332277  0.024351914  0.029171013            4 
   74000    1.1587726   -7.1551156     21.67235  0.024405799  0.029078257            4 
   75000    1.1725562   -7.1452153    22.064549  0.024516165  0.029008119            4 
   76000    1.1425006   -7.1805831    22.391592  0.024552184  0.028945018            3 
   77000    1.1215518   -7.1841621     22.70376  0.024571168  0.028878576            3 
   78000    1.1340126    -7.161631    22.963773  0.024533946  0.028814362            2 
   79000    1.1587074    -7.116081    23.297028  0.024574924  0.028745699            1 
   80000    1.1619815   -7.2193928    23.404353  0.024379534  0.028672864            2 
   81000    1.1578896   -7.1364931    23.828064  0.024514469  0.028598988            3 
   82000    1.1564576   -7.1792687    24.167762  0.024560734  0.028527034            4 
   83000    1.1368856   -7.1572352    24.433266  0.024531391  0.028461369            6 
   84000    1.1271074   -7.1824553    24.619248  0.024423857  0.028393648            3 
   85000    1.1392771    -7.212032    24.846897  0.024359703  0.028319273            1 
   86000    1.1436482   -7.1622204    25.384336  0.024597225  0.028250142            3 
   87000    1.1401538   -7.1562798    25.605413  0.024526257  0.028188394            2 
   88000    1.1170179    -7.172975    25.842016  0.024471606  0.028127607            2 
   89000    1.1498378   -7.1947938     26.27578   0.02460279  0.028065101            2 
   90000    1.1342203   -7.2514213     26.44569   0.02448675  0.028009398            2 
   91000     1.113255   -7.2173076     26.71059  0.024460247  0.027946495            3 
   92000     1.099507    -7.230885    27.011184  0.024466652  0.027886133            3 
   93000    1.1233915   -7.2120612    27.255062  0.024422099  0.027819882            2 
   94000    1.1178421   -7.2441208    27.501802   0.02438103  0.027749803            5 
   95000    1.1033057   -7.2122347    27.745795  0.024338417  0.027685913            5 
   96000    1.1310062   -7.2288539    27.991367  0.024298061  0.027613814            2 
   97000    1.1240625   -7.2336946      28.1532  0.024186597  0.027540577            5 
   98000    1.0986746   -7.2654667    28.369523  0.024123744  0.027463547            2 
   99000    1.0966244   -7.2552516    28.543121  0.024026196  0.027384487            2 
  100000    1.1213692   -7.2333399    28.946414  0.024122012  0.027306836            3 
  101000    1.1022554   -7.2239868    29.127009  0.024032186  0.027233259            2 
  102000    1.1056604   -7.2754979    29.382274  0.024005125  0.027158995            3 
  103000    1.1339642   -7.2878844    29.612876  0.023958638  0.027085063            3 
  104000    1.0857267   -7.2914418    29.863122  0.023928783  0.027012308            3 
  105000    1.1051622   -7.2569019     30.11437  0.023900294  0.026936258            3 
  106000    1.1079881   -7.2577368    30.366906  0.023873354  0.026863179            2 
  107000    1.0935843   -7.2350277    30.831896   0.02401238  0.026791336            1 
  108000    1.0926019   -7.2937056    30.881455  0.023828283  0.026717833            5 
  109000    1.0885344   -7.3643097    30.964333  0.023673038   0.02664282            3 
  110000    1.1025444   -7.3187364    31.174399  0.023616969  0.026563356            3 
  111000    1.0896874   -7.3069146    31.451081  0.023611922  0.026484488            2 
  112000    1.0887124   -7.2904977    31.723936  0.023604119  0.026409753            3 
  113000     1.080356   -7.3196949    31.970352  0.023576955  0.026336709            3 
  114000    1.0916431   -7.3599193    32.258882  0.023581054  0.026266486            5 
  115000    1.0857985   -7.2995682     32.52981  0.023572326  0.026196572            2 
  116000    1.0927418   -7.3160502    32.690764  0.023484744   0.02612407            3 
  117000    1.0787401   -7.3379182    32.845756  0.023394413  0.026047761            3 
  118000    1.0881915    -7.361364    33.188218  0.023438007  0.025974244            3 
  119000    1.0591024   -7.3258848    33.408334  0.023395191  0.025904188            2 
  120000    1.0634596   -7.3593112    33.625863  0.023351294  0.025832327            2 
  121000    1.0926942    -7.334659     33.81768  0.023290413  0.025759933            3 
  122000    1.0723626   -7.3198592    34.081022  0.023279387   0.02568779            1 
  123000    1.0854913   -7.3416768    34.265753   0.02321528  0.025614724            2 
  124000    1.0737151   -7.3365135    34.424507  0.023134749  0.025543157            2 
  125000    1.0857734   -7.3474372    34.496751  0.022997834  0.025466987            3 
  126000    1.0856853   -7.4173993    34.599187   0.02288306  0.025386756            8 
  127000    1.0320159   -7.3388482    34.987836  0.022957898  0.025309896            6 
  128000    1.0542017   -7.3795652    34.953642  0.022756277  0.025230901            6 
  129000    1.0744027   -7.3739277    35.116141  0.022684845  0.025148485            3 
  130000    1.0634034   -7.3775009    35.238122   0.02258854  0.025060105            5 
  131000    1.0979475   -7.3804105     35.42044  0.022532086  0.024975528            3 
  132000    1.0452879   -7.4408369    35.701172  0.022538619  0.024893735            6 
  133000    1.0489664      -7.3836    35.941543  0.022519764  0.024811595            3 
  134000    1.0692256   -7.4035153    36.356747  0.022609917  0.024733885            3 
  135000    1.0407489   -7.4352282     36.37705  0.022454969  0.024658661            4 
  136000    1.0682019   -7.4490448     36.67609  0.022473094  0.024581354            1 
  137000    1.0474575   -7.4481365    36.731735  0.022342904  0.024504535            4 
  138000    1.0494143   -7.4090649    37.004233  0.022345551   0.02442924            3 
  139000    1.0411638   -7.4310191    37.108606  0.022247366  0.024355704            6 
  140000    1.0274603   -7.4280026    37.407386  0.022266301  0.024279601            3 
  141000     1.062805   -7.4205883    37.498201  0.022162057  0.024203579            6 
  142000    1.0518127   -7.4936336     37.49194  0.022002312  0.024123978            3 
  143000     1.034112   -7.4708409    37.620173  0.021923177  0.024041515            5 
  144000    1.0368846   -7.4706216    37.963947  0.021969877  0.023960898            2 
  145000    1.0354692   -7.5035959    38.002031  0.021840247   0.02388283            6 
  146000    1.0229627    -7.487909    38.121914  0.021759083  0.023801349            3 
  147000    1.0433238   -7.4672282    38.305758  0.021715282  0.023721293            2 
  148000    1.0177169   -7.4683826    38.666384  0.021771613  0.023643956            3 
  149000    1.0445028    -7.474244    38.914631  0.021764335  0.023570512            4 
  150000   0.99906883   -7.4454451     39.16075  0.021755972   0.02349901            3 
  151000    1.0631124   -7.5162279     39.04232  0.021546534  0.023425516            3 
  152000   0.99615675   -7.5197213    39.344359  0.021570372  0.023351696            2 
  153000    1.0299051   -7.5156187    39.411957  0.021466208  0.023276087            9 
  154000    1.0346262   -7.4840303    39.788088  0.021530351  0.023202664            2 
  155000    1.0120685   -7.5197146    39.741556  0.021366428  0.023128379            6 
  156000    1.0038939   -7.5144859    39.933616   0.02133206  0.023054456            5 
  157000    1.0050595   -7.4955722    40.080693  0.021274253   0.02298065            3 
  158000    1.0336736   -7.4998444    40.176984  0.021190392  0.022906583            6 
  159000    1.0087708   -7.5149782    40.368807  0.021157656  0.022831212            7 
  160000   0.98860715    -7.585809    40.439156   0.02106206  0.022755703            3 
  161000     1.000485   -7.5379189    40.673108  0.021052333  0.022679962            6 
  162000   0.98962572   -7.6058797    40.885715  0.021031746  0.022607034            4 
  163000    1.0100863   -7.5800177    41.054331  0.020988921  0.022535188            3 
  164000    1.0016004   -7.5904729    41.212753  0.020941439  0.022463475            4 
  165000   0.99374858   -7.5489923    41.406012  0.020912127  0.022391947            2 
  166000     1.016493   -7.5588818    41.628698  0.020897941  0.022322419            4 
  167000   0.99213483    -7.505723    41.851479  0.020883972  0.022254036            4 
  168000     1.004282   -7.5222225    42.012354  0.020839461  0.022185941            5 
  169000   0.98668302   -7.5639034    42.064548  0.020741888  0.022119298            3 
  170000   0.99977089   -7.5925858    42.191938  0.020682322   0.02205238            3 
  171000   0.99688679   -7.5837941    42.529295  0.020725777  0.021986891            7 
  172000   0.99076222    -7.549481    42.864039   0.02076746  0.021924385            9 
  173000   0.98811099   -7.5958645    43.032947   0.02072878   0.02186413           13 
  174000   0.98551497   -7.5833033    43.004897  0.020596215  0.021802613            3 
  175000    1.0011878   -7.5811245     43.24322   0.02059201  0.021740508            9 
  176000   0.98072949   -7.5989478    43.531123  0.020611327  0.021679022            6 
  177000    1.0072219   -7.6158591    43.664093  0.020557483  0.021618977            3 
  178000   0.97890811   -7.5974916    43.664649  0.020442251  0.021559127            1 
  179000   0.98875772    -7.606883    43.771321   0.02037771  0.021496898            4 
  180000   0.96942744   -7.5998788    43.904679   0.02032624  0.021434678            9 
  181000   0.97450659   -7.6285836    44.249657   0.02037277  0.021374179            3 
  182000   0.97757325   -7.5803867    44.328964  0.020297144  0.021314375            6 
  183000   0.97399172   -7.6082667    44.278373  0.020163193  0.021254661            9 
  184000   0.98744991    -7.639115    44.439501  0.020126585  0.021192876            4 
  185000   0.96693923   -7.6501513    44.669503  0.020121398  0.021131368            8 
  186000   0.98562359   -7.5991387    44.960854  0.020143752  0.021071655            5 
  187000   0.97751417   -7.7030169    44.782731  0.019956654  0.021011082            9 
  188000   0.97290218   -7.6813568    44.941221  0.019920754  0.020950918           11 
  189000   0.97268149   -7.6736319    45.215518  0.019936295  0.020891556            5 
  190000   0.97593232   -7.6789174    45.365658  0.019897218  0.020833003            8 
  191000   0.95456286   -7.6476235     45.52571  0.019862875  0.020774925            7 
  192000   0.95844353   -7.6269891    45.579074  0.019782584  0.020714889            8 
  193000   0.97675727   -7.6433802    45.651748  0.019711463  0.020653472           14 
  194000   0.94464728   -7.6609296    45.695438  0.019628624  0.020592297            5 
  195000   0.94352297   -7.6925836    45.706443  0.019532668  0.020529498            3 
  196000   0.94871791   -7.6943506     45.83212  0.019486446  0.020467029            6 
  197000   0.94093136   -7.6801194    45.971396  0.019446445  0.020404262           10 
  198000     0.937765   -7.6854289    46.135102   0.01941713  0.020342827            3 
  199000   0.95480958   -7.7228069    46.354134  0.019411279  0.020283218            8 
  200000   0.92497887   -7.7279717    46.359472  0.019316446  0.020221769            5 
  201000   0.94314856   -7.7483698    46.360181  0.019220639  0.020158576            7 
  202000   0.95662687    -7.740202    46.456502  0.019165223  0.020097105           10 
  203000   0.96344706   -7.7114103    46.665766  0.019156718  0.020035531            7 
  204000   0.94226917    -7.715169       46.903  0.019159722   0.01997502            3 
  205000   0.95492641   -7.7215749    46.799283  0.019024099  0.019914218            6 
  206000   0.93849578   -7.7388708    46.820982  0.018940527  0.019852813           11 
  207000   0.92240297   -7.7416698    46.879944  0.018872763  0.019790805            7 
  208000   0.93809257   -7.7409452    47.155286  0.018892342  0.019728911           11 
  209000   0.92616573   -7.7143977    47.313869  0.018865179  0.019668172            4 
  210000   0.93749358   -7.7539881    47.444154  0.018827045  0.019607849            3 
  211000   0.92620466   -7.8019501    47.451758  0.018740821  0.019547028            3 
  212000   0.92860688   -7.7712728    47.510379  0.018675463  0.019485553            3 
  213000   0.93251399    -7.749947    47.467837  0.018571141  0.019423467            6 
  214000   0.92113022   -7.7637618    47.759389  0.018597893   0.01936185            6 
  215000   0.91932936   -7.7836002    47.690988  0.018484879  0.019300112            5 
  216000    0.8917826   -7.7885647    47.873903   0.01846987  0.019239133            4 
  217000   0.91820725   -7.7888624    48.014829  0.018438874  0.019178848           10 
  218000   0.94241909     -7.81468    47.781954  0.018265273  0.019117352            4 
  219000   0.92424457     -7.81036    48.018376  0.018271833  0.019054778            9 
  220000   0.90683388   -7.7960123    48.207072  0.018260254  0.018992801           11 
  221000   0.91878467   -7.7947804    48.376686  0.018241586   0.01893236           13 
  222000   0.92394395   -7.7974102    48.220795  0.018100899  0.018870516           15 
  223000   0.91812669   -7.8332679    48.230731  0.018023442  0.018807816           10 
  224000   0.90555686   -7.8461291     48.22189  0.017939691  0.018744729            5 
  225000   0.91191795    -7.788783    48.169677  0.017840621  0.018681443            6 
  226000   0.90155973   -7.8248018    48.324269  0.017818683  0.018618379           17 
  227000   0.90779106   -7.8389877    48.364544  0.017754972  0.018555004           11 
  228000   0.91106749   -7.8697666    48.391706  0.017687027  0.018490635            5 
  229000   0.88815174   -7.8923048    48.496967  0.017648096  0.018427181            7 
  230000   0.89617502   -7.8843499    48.498059   0.01757176  0.018363867            8 
  231000    0.8862147   -7.8831225    48.658529  0.017553582  0.018300552            8 
  232000   0.89877681   -7.8607508    48.728152  0.017502928  0.018237236            9 
  233000   0.89465198    -7.863363    48.760865  0.017439508  0.018173525           11 
  234000   0.88715672   -7.8676673    48.777502  0.017370905  0.018110137            7 
  235000   0.86359121   -7.8991257    48.694117  0.017267417  0.018046353           15 
  236000   0.89912382   -7.9185224    48.929648  0.017277418  0.017982908            5 
  237000   0.88767428   -7.8740812    48.773783  0.017149713  0.017918386            5 
  238000   0.88022808   -7.9233152    49.020787  0.017164141  0.017854033           12 
  239000   0.88360107   -7.8984408    49.002038  0.017085787  0.017790369           29 
  240000   0.88916346   -7.9033283    48.880615  0.016972436  0.017726036            5 
  241000   0.86529518   -7.9264763    48.914026  0.016913564  0.017660769            8 
  242000    0.8701376   -7.9505964    48.976759  0.016865275  0.017595266            4 
  243000   0.86226851    -7.947556    48.983799  0.016798285  0.017531001           10 
  244000   0.87961064   -7.9344041    49.031973  0.016745892  0.017466892           14 
  245000   0.86922076   -7.9409527    49.236965  0.016747267  0.017402441           15 
  246000   0.87281368   -7.9485047    49.110678  0.016636409  0.017338867           10 
  247000   0.85582784   -7.9247392     49.25508  0.016617773  0.017274994            5 
  248000   0.86989904   -7.9273738     49.36827    0.0165888  0.017211869            3 
  249000   0.88087292    -7.989548    49.299063  0.016499017  0.017149227            6 
  250000   0.85876171   -7.9656622    49.380252  0.016460084  0.017086965            4 
  251000   0.86666463   -7.9623229     49.30293  0.016368835  0.017024164            6 
  252000   0.86884437   -7.9649883     49.44356  0.016350384  0.016961188           19 
  253000   0.86311375   -7.9686172    49.447532  0.016287066  0.016898183           11 
  254000   0.86945625   -7.9591952    49.479976  0.016233588   0.01683552            7 
  255000   0.86194976   -7.9756566     49.39125  0.016140931  0.016772892            9 
  256000   0.85677367   -7.9757754    49.557725  0.016132072  0.016710402            6 
  257000    0.8594397   -8.0097016     49.44473  0.016032662  0.016647046           12 
  258000   0.85515211   -8.0432176    49.349429  0.015939738  0.016583534            4 
  259000   0.85974431   -8.0005438    49.554755  0.015944258  0.016519853            8 
  260000   0.83829507   -8.0270561    49.479129  0.015858695  0.016456174            8 
  261000   0.85515123   -8.0358754    49.671614  0.015859391  0.016392638            9 
  262000   0.86754541   -8.0429022    49.633529  0.015786746  0.016330016           12 
  263000    0.8507556   -8.0320285    49.611354  0.015719694  0.016267425            9 
  264000   0.85761985   -8.0462976     49.55634  0.015642784  0.016204724            7 
  265000   0.86187883   -8.0021125    49.990742  0.015720359  0.016142355           10 
  266000   0.84895656   -8.0106484    49.785747  0.015597039  0.016080826           11 
  267000   0.83214784   -8.0304665    49.776619  0.015535774  0.016019193           10 
  268000   0.82511496   -8.0600198    49.680598  0.015447947  0.015956981            8 
  269000   0.83529514   -8.0475295    49.742075  0.015409565   0.01589457            6 
  270000   0.83278623   -8.0599038    49.788506  0.015366823  0.015832489            5 
  271000   0.86008657   -8.0667732     49.77732  0.015306679  0.015770683            7 
  272000   0.82452805   -8.0793218    49.809173  0.015260163  0.015709232            5 
  273000   0.81885946   -8.0795616    49.825323  0.015209195  0.015647541           10 
  274000   0.82268437   -8.1063966    49.825056  0.015153606  0.015586257            5 
  275000    0.8258737   -8.1083595    49.737968  0.015072111   0.01552523           13 
  276000   0.81387921   -8.0824482     49.90659  0.015068415  0.015464561           12 
  277000   0.81351974    -8.109433    49.900684  0.015012239  0.015404147           11 
  278000   0.81560092    -8.134481    49.967317  0.014978212   0.01534427           36 
  279000   0.83565421   -8.1420494    50.060492  0.014952357  0.015284691           23 
  280000   0.83718291   -8.1383254    49.928962   0.01485981  0.015224876           17 
  281000    0.8226945   -8.1398706      49.9356  0.014808897   0.01516516           19 
  282000   0.80551096   -8.1291514    49.984253   0.01477076  0.015105678           14 
  283000   0.80352237   -8.1291212    50.071816  0.014744351  0.015046233           13 
  284000   0.83104054   -8.1356293    50.022366  0.014677924  0.014986807           10 
  285000    0.8139002    -8.174272    49.976676  0.014613063  0.014927209           19 
  286000   0.81154463   -8.1578407    50.071358  0.014589556  0.014867527           17 
  287000   0.81048319   -8.1730044    50.082886  0.014542069  0.014808682           22 
  288000   0.82212439    -8.165726    49.986376   0.01446365  0.014749974           32 
  289000   0.80565008   -8.2028425      49.9422  0.014400865  0.014691263           25 
  290000   0.79992449   -8.2003801    50.051265  0.014382547  0.014632901           33 
  291000   0.79668731   -8.2063854    49.930471  0.014298531  0.014574417           30 
  292000   0.78907256   -8.2075008    50.051537  0.014284115  0.014515855           25 
  293000    0.7974903   -8.2211809    50.042614  0.014232825  0.014457527           45 
  294000   0.79613639   -8.2304818    49.996479  0.014171338  0.014399125           32 
  295000   0.77994334   -8.1840408    50.113191  0.014156268  0.014341202           19 
  296000    0.8058573   -8.2330867    50.065184  0.014094928  0.014283533           12 
  297000   0.79086505   -8.2257191    50.037791  0.014039784  0.014226295           28 
  298000   0.76894894   -8.2152318    50.081647  0.014004935  0.014168855           27 
  299000   0.78520553   -8.2240689    50.116518  0.013967814  0.014111882           36 
  300000   0.80144308   -8.2081143    50.072849  0.013909125   0.01405526           51 
  301000   0.78154641   -8.2323484    50.222865  0.013904448  0.013999135           47 
  302000   0.77211057   -8.2140301    50.097192  0.013823728  0.013943247           43 
  303000   0.77545083   -8.2310426    50.129759  0.013787062  0.013887649           26 
  304000   0.78788645   -8.2343355    50.324444  0.013795078  0.013832175           63 
  305000   0.79329579   -8.2515061    50.236802  0.013725902  0.013777085           50 
  306000    0.7861282   -8.2376417    50.429268  0.013733461  0.013722356           26 
  307000   0.76388376   -8.2878262    50.291255  0.013651264  0.013668284           44 
  308000    0.7750413   -8.2631056    50.271814  0.013601681   0.01361403           32 
  309000    0.7718708    -8.269826    50.236829  0.013548228  0.013559659           87 
  310000   0.78120797   -8.2581184    50.354929  0.013536271  0.013505516           24 
  311000   0.76329746   -8.2738519    50.345987   0.01349035  0.013451694           73 
  312000    0.7618265   -8.2836947    50.338012  0.013444982  0.013398013           50 
  313000    0.7717538   -8.2595796    50.194527  0.013363825  0.013344345           56 
  314000   0.78411089   -8.2674236    50.303929    0.0133503  0.013290819           65 
  315000   0.74940263   -8.2988793    50.253077  0.013294465  0.013237485           60 
  316000   0.76607057   -8.2553075     50.30865  0.013267049  0.013184583           78 
  317000    0.7776194   -8.2955716    50.180508  0.013191511  0.013131923           50 
  318000   0.76460258   -8.3274697    50.216433  0.013159442  0.013079271           57 
  319000   0.76497968   -8.3200983    50.250505  0.013127091  0.013026616           96 
  320000   0.76076911   -8.3040793     50.28332  0.013094615  0.012974539           72 
  321000   0.75214416   -8.3414433    50.244509  0.013043746  0.012922554           78 
  322000   0.75344496   -8.3337981    50.294396  0.013016148  0.012870549          102 
  323000   0.73837994   -8.3362634    50.281369  0.012972489  0.012818836          144 
  324000   0.75733446   -8.3453498    50.255439  0.012925782   0.01276733          119 
  325000    0.7384214    -8.357329    50.297823  0.012896878  0.012716223           94 
  326000   0.75239651   -8.3710899    50.307843  0.012859878  0.012665294           92 
  327000   0.73687449   -8.3597865    50.421414  0.012849494  0.012614642          105 
  328000   0.74581099   -8.3433453    50.395154  0.012803647  0.012564517          105 
  329000   0.73880976   -8.3347625     50.31507  0.012744445  0.012514416          108 
  330000    0.7491517   -8.3709464    50.332425  0.012710208  0.012464459          132 
  331000   0.72518978   -8.3876801    50.299697  0.012663569  0.012414616          124 
  332000   0.72987243   -8.4014872    50.242512  0.012611072   0.01236491          172 
  333000   0.74771039   -8.3826125    50.253007  0.012575828  0.012315594          193 
  334000      0.71963   -8.3524756    50.254912  0.012538651   0.01226643          162 
  335000   0.75544195   -8.3830039    50.268978  0.012504721  0.012217476          175 
  336000   0.73620569   -8.3668713    50.357343   0.01248942  0.012168829          182 
  337000   0.72471696   -8.3984037    50.355949  0.012452015  0.012120407          193 
  338000   0.72896807   -8.4110628    50.349725   0.01241364  0.012071759          156 
  339000   0.71838156     -8.41297    50.343269  0.012375435  0.012023351          200 
  340000    0.7183182   -8.4099018    50.392753  0.012351165  0.011975351           71 
  341000   0.72295464   -8.4351473    50.287923  0.012289326  0.011927489          174 
  342000    0.7176423   -8.4368727    50.224354  0.012237903  0.011879829          220 
  343000   0.71659323   -8.4363016    50.397733  0.012244347  0.011832278          120 
  344000   0.72365312   -8.4647995    50.270641  0.012177965  0.011784964          163 
  345000   0.72426082   -8.4331267    50.247527  0.012137084  0.011737822          191 
  346000    0.7008838   -8.4485368    50.239706  0.012100122  0.011690773          178 
  347000   0.72963022   -8.4660676    50.253502  0.012068564  0.011643759          204 
  348000   0.70195584   -8.4586301      50.2373  0.012030005   0.01159686          223 
  349000   0.69843211   -8.4438493    50.131916  0.011970372  0.011550046          157 
  350000   0.70327495   -8.4694171    50.091924  0.011926649  0.011503398          222 
  351000   0.70246407   -8.4631445    50.179811  0.011913535  0.011457069          208 
  352000   0.71902831    -8.459959    50.170364  0.011877454  0.011411009          215 
  353000    0.6941684   -8.4482793    50.118263  0.011831507  0.011364941          223 
  354000   0.70498451   -8.4720441    50.198407  0.011816951  0.011319286          257 
  355000   0.69560633   -8.4878279    50.097982   0.01176009  0.011273757          230 
  356000   0.68836821   -8.4855294    50.158268  0.011741168   0.01122873          193 
  357000   0.69511012    -8.480826    50.025296   0.01167724  0.011183626          229 
  358000   0.69691892   -8.5187098    50.031921  0.011646164  0.011138657          266 
  359000   0.67715116   -8.4942255    50.223969  0.011658303  0.011093829          193 
  360000   0.70114254   -8.5005006    50.022308  0.011579238  0.011049182          230 
  361000   0.69490713   -8.5111074    50.154476  0.011577672   0.01100484          258 
  362000   0.68135551   -8.5056849    50.036417  0.011518512  0.010960517          223 
  363000   0.68242466   -8.5355344    49.993336  0.011476891  0.010916417          273 
  364000   0.66988775   -8.5575404    49.883067  0.011420116  0.010872385          283 
  365000   0.68502104   -8.5185201    49.932462  0.011400105   0.01082846          277 
  366000   0.68948763   -8.5455041    50.021343  0.011389195  0.010784824          399 
  367000    0.6811834   -8.5552564    50.073441  0.011369991  0.010741349          310 
  368000    0.6762041   -8.5526927    50.092984   0.01134352   0.01069813          312 
  369000   0.68617524   -8.5611745    50.038992  0.011300585  0.010655246          282 
  370000   0.67118215     -8.55837    50.009708  0.011263448  0.010612593          250 
  371000   0.66844701   -8.5547973    50.092444  0.011251672  0.010570281          296 
  372000    0.6757426   -8.5581505    49.940348  0.011187354   0.01052802          272 
  373000   0.68394085   -8.5370941    50.134878  0.011200822  0.010486041          282 
  374000   0.68027321   -8.5639132    49.998133  0.011140404  0.010444199          326 
  375000   0.65991617    -8.545916     50.03755  0.011119456  0.010402487          357 
  376000   0.66250197   -8.5490527     50.11872  0.011107872  0.010360924          359 
  377000   0.67312042   -8.5552461    49.934214  0.011037625   0.01031955          323 
  378000   0.65631603   -8.5873221    49.974544  0.011017316  0.010278424          351 
  379000   0.65326975   -8.5765031    50.045358  0.011003817  0.010237487          347 
  380000   0.65286189   -8.5895096    49.997957  0.010964464  0.010196799          317 
  381000   0.66338348   -8.5868211    50.014621  0.010939331  0.010156289          377 
  382000   0.66219497   -8.6090936    49.933809  0.010893065  0.010115793          363 
  383000   0.66465297    -8.585423    49.874427  0.010851703  0.010075417          438 
  384000   0.66436057   -8.5892902    49.801066  0.010807523  0.010035223          333 
  385000   0.65459189   -8.5839711    49.907264  0.010802438 0.0099952807          372 
  386000   0.66055914   -8.5994507    49.909867  0.010775014 0.0099556273          360 
  387000   0.65430411   -8.5950773    49.894605  0.010743886 0.0099162134          317 
  388000    0.6530069   -8.6268278    49.842288  0.010704959 0.0098769008          383 
  389000   0.64580646   -8.6068132    49.861565  0.010681569 0.0098377284          349 
  390000   0.65454225   -8.6081109    49.828614   0.01064714 0.0097987933          326 
  391000   0.65317362   -8.6118397    49.873369  0.010629448 0.0097600498          372 
  392000   0.63046055   -8.6050634    49.860561  0.010599609 0.0097213867          347 
  393000   0.65478042   -8.6186047    49.886196  0.010578074 0.0096830092          338 
  394000   0.64373346    -8.609943    49.952456   0.01056524 0.0096448852          364 
  395000    0.6248532   -8.6180182     49.84778  0.010516409 0.0096069421          384 
  396000   0.63594535   -8.6329839    49.850337  0.010490391 0.0095690313          368 
  397000    0.6287477   -8.6491202    49.837212  0.010461212 0.0095313172          449 
  398000   0.63357463   -8.6404524    49.847097  0.010436997 0.0094938334          398 
  399000   0.63404823   -8.6381416    49.865397  0.010414661 0.0094564364          428 
  400000   0.64331905   -8.6354094    49.890181  0.010393788 0.0094193881          343 
  401000   0.63706835   -8.6544681    49.809924  0.010351189 0.0093824312          469 
  402000   0.63644562   -8.6548401    49.917167  0.010347672 0.0093457387          377 
  403000   0.61404008    -8.647818    49.805454  0.010298894 0.0093092141          372 
  404000   0.62746139   -8.6583515    49.873791  0.010287498 0.0092728979          398 
  405000   0.61530658   -8.6712878    49.842823  0.010255725 0.0092366602          381 
  406000   0.62306781   -8.6584339    49.847075  0.010231337 0.0092006861          394 
  407000   0.61878236   -8.6799284    49.846122  0.010206004 0.0091647899          384 
  408000   0.61073954   -8.6831869    49.779352  0.010167351 0.0091290821          385 
  409000   0.60093298   -8.6557591    49.827423  0.010152287 0.0090935159          355 
  410000   0.61609327   -8.6787739    49.731276  0.010107983 0.0090581606          506 
  411000   0.61330887   -8.6718105    49.854799  0.010108434 0.0090229477          393 
  412000   0.61166312   -8.6796152    49.801856  0.010073191 0.0089879451          398 
  413000   0.62310315   -8.6806373     49.79616  0.010047651 0.0089530766          386 
  414000   0.59711936   -8.6920748    49.756089  0.010015316 0.0089183672          458 
  415000   0.59516765   -8.6996794    49.691569 0.0099782267 0.0088837575          411 
  416000   0.60428057   -8.7349101    49.707357 0.0099574032 0.0088494026          445 
  417000   0.59550673   -8.7069948    49.751365 0.0099423192  0.008815205          422 
  418000   0.59669278   -8.7110169    49.766537 0.0099215585  0.008781083          433 
  419000   0.59892377   -8.6920272    49.747487 0.0098940905 0.0087472022          416 
  420000    0.5973333   -8.7214553    49.738482 0.0098687465 0.0087134161          422 
  421000   0.57556902    -8.725259    49.658918 0.0098295563 0.0086798451          445 
  422000   0.58938079   -8.7256279    49.649506 0.0098044048 0.0086463287          408 
  423000   0.58286389    -8.709187    49.676825 0.0097866084 0.0086130577          369 
  424000   0.59300035   -8.7374152     49.55662 0.0097399016 0.0085798959          497 
  425000    0.5708049   -8.7300335    49.557719 0.0097171997 0.0085468833          398 
  426000   0.59818728   -8.7128935    49.649052 0.0097122558 0.0085139811          395 
  427000   0.58761431   -8.7312463    49.698069 0.0096990767 0.0084813294          469 
  428000   0.57946855   -8.7174021    49.712847 0.0096792927 0.0084488672          413 
  429000   0.59342431   -8.7417667    49.615166 0.0096377557 0.0084164737          426 
  430000    0.5876036    -8.725109     49.68398 0.0096286784 0.0083842869          519 
  431000   0.57966151   -8.7477282    49.675503 0.0096046989 0.0083522439          513 
  432000   0.58671426   -8.7476364     49.54368 0.0095570371 0.0083203566          420 
  433000   0.58087415   -8.7208151    49.617895 0.0095492485 0.0082886424          414 
  434000   0.56108935   -8.7377228    49.652966 0.0095339796 0.0082571319          505 
  435000   0.56440993   -8.7418333    49.616944 0.0095051617 0.0082257643          417 
  436000   0.56944217   -8.7625901     49.56627 0.0094736755 0.0081945081          443 
  437000   0.56957929   -8.7678467    49.567941 0.0094523153 0.0081633816          513 
  438000   0.55747772    -8.763987    49.520255 0.0094216618 0.0081323166          465 
  439000   0.57396043   -8.7640247    49.546644 0.0094052095   0.00810143          439 
  440000   0.55190968   -8.7670299    49.597476 0.0093934613  0.008070638          492 
  441000   0.57678249    -8.774773    49.613786 0.0093752429 0.0080400712          456 
  442000   0.56125495   -8.7704857    49.616006 0.0093544507 0.0080096405          530 
  443000   0.55916512   -8.7751665    49.572531 0.0093251563 0.0079793622          522 
  444000   0.56080325   -8.7715274    49.530197 0.0092962082 0.0079492425          449 
  445000   0.55059531   -8.7795863    49.593547  0.009287181  0.007919322          464 
  446000   0.55168879   -8.7904315    49.532023 0.0092548623 0.0078894813          527 
  447000   0.54242622   -8.7921488    49.528219 0.0092334487 0.0078598366          564 
  448000   0.54880474   -8.7971247    49.475822 0.0092030918 0.0078303229          514 
  449000   0.55269836    -8.802848    49.562771 0.0091987325 0.0078009324          539 
  450000   0.55025424   -8.8025243    49.518603 0.0091701117 0.0077716724          529 
  451000   0.55599491   -8.8005536    49.509817 0.0091481553 0.0077425879          458 
  452000   0.55294432   -8.7878399    49.444574 0.0091158876  0.007713661          471 
  453000   0.54396965   -8.8229785    49.491551 0.0091044059 0.0076849248          587 
  454000   0.53881861   -8.7981079    49.445465  0.009075893 0.0076562236          454 
  455000     0.547968   -8.8097838    49.503932 0.0090666542 0.0076276829          471 
  456000   0.55205728   -8.8045742    49.419441 0.0090313306 0.0075992997          518 
  457000   0.54134714   -8.8290125    49.422365 0.0090121016 0.0075710803          514 
  458000   0.54184135   -8.8200853    49.539538 0.0090137442 0.0075429617          432 
  459000   0.52288923   -8.8274822    49.511636 0.0089890407 0.0075149586          551 
  460000   0.53699791    -8.814164    49.410357 0.0089511515 0.0074871249          563 
  461000   0.53508984    -8.821193    49.413211 0.0089322507 0.0074594034          551 
  462000   0.53950447   -8.8485263    49.385529 0.0089079238 0.0074318075          448 
  463000   0.52827668   -8.8350386     49.41032 0.0088931462 0.0074043366          535 
  464000   0.52968433   -8.8474683    49.400238 0.0088721693  0.007376978          559 
  465000   0.51907166   -8.8207126    49.425747 0.0088576607 0.0073497597          511 
  466000   0.52840728   -8.8426559    49.478825 0.0088481447 0.0073227164          462 
  467000   0.51820792   -8.8392268    49.429683 0.0088204289 0.0072958516          575 
  468000    0.5142954   -8.8375503    49.449529 0.0088051155 0.0072690721          508 
  469000   0.51580446   -8.8310793    49.373865 0.0087728971  0.007242432          588 
  470000   0.52004639   -8.8372943    49.457315 0.0087690274 0.0072159484          599 
  471000   0.51303602   -8.8631122    49.509841  0.008759703 0.0071896027          557 
  472000   0.51608826   -8.8471571    49.475987 0.0087351672 0.0071633421          532 
  473000   0.51472847   -8.8578423    49.376045 0.0086990918 0.0071372207          474 
  474000   0.51082719   -8.8653985    49.440183 0.0086920153 0.0071112141          515 
  475000   0.51098781   -8.8657037    49.374157 0.0086621328 0.0070853317          547 
  476000   0.50463436   -8.8483155     49.42655 0.0086531074  0.007059554          590 
  477000   0.51878565   -8.8605539    49.409549 0.0086319966 0.0070339191          493 
  478000   0.51030912   -8.8720792    49.398097 0.0086119416 0.0070084757          584 
  479000   0.50247246   -8.8715839    49.363738 0.0085879851 0.0069831191          473 
  480000    0.5077756   -8.8766648    49.286454 0.0085566761 0.0069579127          525 
  481000    0.4953417   -8.8908951    49.369146  0.008553213 0.0069327774          598 
  482000    0.5076335   -8.8876838    49.214271 0.0085086913 0.0069077434          546 
  483000   0.48373999   -8.8808312    49.212139 0.0084907073  0.006882806          554 
  484000   0.49428659   -8.8877998    49.283374 0.0084854295 0.0068579966          553 
  485000   0.49941067   -8.8916989    49.344836 0.0084784941 0.0068332861          589 
  486000   0.48173339   -8.9024458    49.317405 0.0084563451 0.0068087143          575 
  487000   0.49674374   -8.8994354    49.293669 0.0084349194 0.0067842616          596 
  488000   0.49474979   -8.9038452    49.384802 0.0084331971 0.0067599388          546 
  489000   0.49498648    -8.889396    49.235657 0.0083905346 0.0067356892          602 
  490000   0.47859723   -8.9037139    49.245996 0.0083751694 0.0067115735          585 
  491000   0.49253859   -8.8957953    49.215685 0.0083529676 0.0066875418          546 
  492000   0.47579378   -8.8985296    49.349648 0.0083586802 0.0066636744          607 
  493000   0.47511943   -8.8892607    49.331317 0.0083386269 0.0066398758          530 
  494000   0.48032523   -8.9175387    49.246208   0.00830739  0.006616173          610 
  495000   0.47928113   -8.9144466    49.142368 0.0082731259 0.0065926095          439 
  496000   0.48003064    -8.916359    49.216736 0.0082689408 0.0065691337          440 
  497000   0.47976584   -8.9134206    49.244476 0.0082569544 0.0065457618          626 
  498000     0.475564   -8.9170726    49.287217 0.0082475263   0.00652251          494 
  499000   0.47062169   -8.9320004    49.202775 0.0082168962 0.0064993914          565 
  500000   0.47031721    -8.933078    49.188911 0.0081981519 0.0064763291          629 
  501000   0.46879484   -8.9229652    49.220565 0.0081870535 0.0064533906          498 
  502000   0.47358551   -8.9379998     49.23797 0.0081736339 0.0064305801          582 
  503000    0.4575348   -8.9387424    49.203396 0.0081516561 0.0064078741          449 
  504000   0.46829388   -8.9216945    49.186546  0.008132696 0.0063852848          556 
  505000   0.45235927   -8.9276193     49.26651 0.0081297871 0.0063627735          561 
  506000   0.45741923   -8.9424735    49.209365 0.0081043092 0.0063403795          514 
  507000   0.45605795   -8.9459221    49.201406 0.0080870161  0.006318064          469 
  508000   0.45139848   -8.9392069    49.216193 0.0080735225 0.0062959114          456 
  509000   0.46209449   -8.9335905    49.096328 0.0080380367 0.0062737975          456 
  510000   0.45104657   -8.9468021     49.20012 0.0080392353 0.0062517989          486 
  511000   0.45328171   -8.9514499    49.151336 0.0080155472  0.006229867          555 
  512000   0.44529973   -8.9583093     49.16251 0.0080017106 0.0062081111          499 
Loop time of 1314.78 on 48 procs for 500000 steps with 4000 atoms

Performance: 65714.322 tau/day, 380.291 timesteps/s
99.4% CPU use with 48 MPI tasks x no OpenMP threads

MPI task timing breakdown:
Section |  min time  |  avg time  |  max time  |%varavg| %total
---------------------------------------------------------------
Pair    | 93.571     | 100.33     | 108.53     |  27.1 |  7.63
Neigh   | 8.7818     | 9.2615     | 9.8973     |   7.8 |  0.70
Comm    | 81.418     | 90.922     | 98.787     |  37.1 |  6.92
Output  | 1.1431     | 1.1442     | 1.1778     |   0.5 |  0.09
Modify  | 1093.8     | 1099.4     | 1109.5     |  11.5 | 83.62
Other   |            | 13.68      |            |       |  1.04

Nlocal:        83.3333 ave          96 max          76 min
Histogram: 1 5 9 12 10 6 3 1 0 1
Nghost:        2377.38 ave        2394 max        2362 min
Histogram: 1 4 6 6 7 9 10 2 2 1
Neighs:        16360.2 ave       19988 max       14311 min
Histogram: 4 8 9 8 7 9 0 1 1 1
FullNghs:      32720.0 ave       37965 max       29809 min
Histogram: 1 6 11 12 10 5 1 1 0 1

Total # of neighbors = 1570561
Ave neighs/atom = 392.64025
Neighbor list builds = 26620
Dangerous builds = 0

#clear
#
#next RN
#
#jump SELF
Total wall time: 0:21:58
