
units lj                  # Use reduced LJ style units
atom_style atomic         # Uncharged point particles
atom_modify map hash      # Needed for indexing of clusters etc
                          # Used to be able to find where atoms are in relation to each other.

lattice fcc 1.0 spacing 1 1 1
Lattice spacing in x,y,z = 1.5874011 1.5874011 1.5874011
region box block 0 10 0 10 0 10 units lattice
create_box 2 box
Created orthogonal box = (0.0000000 0.0000000 0.0000000) to (15.874011 15.874011 15.874011)
  3 by 4 by 4 MPI processor grid
create_atoms 1 box
Created 4000 atoms
  using lattice units in orthogonal box = (0.0000000 0.0000000 0.0000000) to (15.874011 15.874011 15.874011)
  create_atoms CPU = 0.003 seconds
set type 1 type/fraction 2 0.31 78393
Setting atom values ...
  1268 settings made for type/fraction
mass 1 1.0
mass 2 1.0
pair_style lj/cut  3.5
pair_modify tail  yes
pair_coeff 1  1  1.0  1.0   # Intearaction between 1 and 1 set with epsilon = 1 and sigma = 1
pair_coeff 1  2  1.5  0.8
pair_coeff 2  2  0.5  0.88

write_data data.0
System init for write_data ...
Neighbor list info ...
  update every 1 steps, delay 10 steps, check yes
  max neighbors/atom: 2000, page size: 100000
  master list distance cutoff = 3.8
  ghost atom cutoff = 3.8
  binsize = 1.9, bins = 9 9 9
  1 neighbor lists, perpetual/occasional/extra = 1 0 0
  (1) pair lj/cut, perpetual
      attributes: half, newton on
      pair build: half/bin/atomonly/newton
      stencil: half/bin/3d
      bin: standard
WARNING: Not all mixed pair coeffs generated from mixing. Use write_data with 'pair ij' option to store all pair coeffs. (../write_data.cpp:312)


#############################
#   M E L T   S Y S T E M   #
#############################

velocity all create 2.4 2750902 mom yes dist gaussian # Assign velocities
                                                    # Temperature 2.4, random number seed, zero linear momentum
                                                                                # Gaussian distribution

timestep 0.002   # simulation timestep
thermo 1000       # output thermodynamic data every 1000 steps bf 100

# Define a fix  in this case with index 1 applied to all
# particles in the simulation. This fix is for simulations
# in the anisotropic NPT ensemble. Note that we use the MTK
# correction.
fix 1 all npt temp 2.4 2.4 0.1 iso 5.68 5.68 0.5 mtk yes tchain 5 pchain 5 # Use NPT ensemble
                                                                         # Set temperature and pressure and damping
                                                                         # Numbers of thermostats in chain and in barostat
run 10000          # run for 10000 steps
Per MPI rank memory allocation (min/avg/max) = 3.642 | 3.644 | 3.648 Mbytes
Step Temp E_pair E_mol TotEng Press Volume 
       0          2.4   -6.3727134            0   -2.7736134   -4.0086663         4000 
    1000    2.3717497   -4.9609911            0   -1.4042559    5.5125715    4161.0558 
    2000    2.3861353   -5.0078444            0   -1.4295362     5.459204    4130.9661 
    3000    2.3730084   -5.0056947            0    -1.447072     5.507692    4131.5115 
    4000    2.4220292   -4.9565103            0   -1.3243747    5.6733376    4141.0109 
    5000    2.3681348   -4.9488172            0    -1.397503    5.7958068    4129.1975 
    6000     2.343281   -5.0122785            0   -1.4982357    5.5939395    4119.4563 
    7000    2.4248002   -4.9401594            0   -1.3038684     5.518329    4162.8281 
    8000    2.3349015   -5.0350727            0   -1.5335959    5.8766609    4075.1772 
    9000    2.3654719   -4.9292229            0   -1.3819022    5.7963429    4135.2627 
   10000    2.3381632   -4.9345203            0   -1.4281522    6.0625866    4110.2268 
Loop time of 2.72889 on 48 procs for 10000 steps with 4000 atoms

Performance: 633225.354 tau/day, 3664.499 timesteps/s
99.3% CPU use with 48 MPI tasks x no OpenMP threads

MPI task timing breakdown:
Section |  min time  |  avg time  |  max time  |%varavg| %total
---------------------------------------------------------------
Pair    | 1.0238     | 1.1156     | 1.1938     |   3.7 | 40.88
Neigh   | 0.2025     | 0.21069    | 0.22357    |   1.0 |  7.72
Comm    | 0.75141    | 0.84757    | 0.92053    |   4.5 | 31.06
Output  | 0.00025337 | 0.00025961 | 0.00033584 |   0.0 |  0.01
Modify  | 0.475      | 0.53961    | 0.58828    |   3.5 | 19.77
Other   |            | 0.01515    |            |       |  0.56

Nlocal:        83.3333 ave          93 max          76 min
Histogram: 4 7 10 3 5 7 0 8 3 1
Nghost:        1615.85 ave        1636 max        1592 min
Histogram: 3 1 3 5 6 12 6 5 3 4
Neighs:        9281.98 ave       10363 max        8171 min
Histogram: 3 5 6 4 5 8 1 6 6 4

Total # of neighbors = 445535
Ave neighs/atom = 111.38375
Neighbor list builds = 903
Dangerous builds = 190

# Equilibrate just above the melting temperature to avoid step fn in T

fix 1 all npt temp 1.25 1.25 0.1 iso 5.68 5.68 0.5 mtk yes tchain 5 pchain 5
run 2000
Per MPI rank memory allocation (min/avg/max) = 3.643 | 3.645 | 3.649 Mbytes
Step Temp E_pair E_mol TotEng Press Volume 
   10000    2.3381632   -4.9345203            0   -1.4281522    6.0625866    4110.2268 
   11000    1.2570124   -6.8950794            0   -5.0100323    5.8092459    3303.2168 
   12000    1.2678471   -6.8715052            0     -4.97021    5.9630676    3302.0648 
Loop time of 0.559842 on 48 procs for 2000 steps with 4000 atoms

Performance: 617316.681 tau/day, 3572.434 timesteps/s
99.6% CPU use with 48 MPI tasks x no OpenMP threads

MPI task timing breakdown:
Section |  min time  |  avg time  |  max time  |%varavg| %total
---------------------------------------------------------------
Pair    | 0.25139    | 0.27192    | 0.29403    |   1.9 | 48.57
Neigh   | 0.037352   | 0.039346   | 0.041633   |   0.5 |  7.03
Comm    | 0.17627    | 0.20121    | 0.22384    |   2.4 | 35.94
Output  | 5.0542e-05 | 5.1442e-05 | 6.6306e-05 |   0.0 |  0.01
Modify  | 0.03856    | 0.042716   | 0.046819   |   1.1 |  7.63
Other   |            | 0.0046     |            |       |  0.82

Nlocal:        83.3333 ave          93 max          73 min
Histogram: 1 0 0 10 11 9 4 11 1 1
Nghost:        1877.00 ave        1897 max        1846 min
Histogram: 1 1 1 3 8 7 11 8 4 4
Neighs:        11580.5 ave       13119 max       10052 min
Histogram: 1 2 6 7 8 7 10 3 3 1

Total # of neighbors = 555865
Ave neighs/atom = 138.96625
Neighbor list builds = 142
Dangerous builds = 7

#############################
# L I N E A R  Q U E N C H  #
#############################

# Define solid atoms. This closely follows ten Wolde  Ruiz-Montero and Frenkel  Faraday Discuss  1996  104  93-110
# Compute components of the per-atom q6 vector
compute q6 all orientorder/atom degrees 1 6 components 6 nnn NULL cutoff 1.3 # compute the Q6 parameter.
                                                                             # Use all neighbours within 1.3 unit cell.

# get number of connections
compute coord_number all coord/atom orientorder q6 0.5

# An atom is solid if it has 8 or more connections (of a possible 14)
variable is_solid atom c_coord_number>=8
group solid dynamic all var is_solid    # Must be dynamic to update
dynamic group solid defined

# do clustering
compute cluster solid cluster/atom 1.3 # Create a cluster where all atoms within are solid and max 1.3 units from another member

# define chunks one chunk per cluster
compute clus_chunks solid chunk/atom c_cluster nchunk every compress yes  # Says which atoms are in which chunk

# count the size of each chunk
compute size_chunks solid property/chunk clus_chunks count


# Find the maximum entry in the vector of chunk sizes
variable max_n equal max(c_size_chunks)


# Thermo style which includes this variable
# thermo_style custom step temp pe vol v_max_n

thermo ${N}  # Print the thermo information every 100 steps
thermo 1000  

# Reset the npt fix at a lower temperature (below freezing)
fix 1  all npt temp  ${temp} ${temp}  0.1  iso  5.68  5.68  0.5  mtk yes tchain  5  pchain  5
fix 1  all npt temp  0.45 ${temp}  0.1  iso  5.68  5.68  0.5  mtk yes tchain  5  pchain  5
fix 1  all npt temp  0.45 0.45  0.1  iso  5.68  5.68  0.5  mtk yes tchain  5  pchain  5

dump dmp2 all dcd ${N} traj.dcd
dump dmp2 all dcd 1000 traj.dcd


compute msd all msd com yes
variable twopoint equal c_msd[4]/6/(step*dt+1.0e-6)
fix 9 all vector 10 c_msd[4]
variable fit equal slope(f_9)/6/(10*dt)
thermo_style custom step temp pe c_msd[4] v_twopoint v_fit v_max_n

fix 1 all npt temp 1.25 ${temp} 0.1 iso 5.68 5.68 0.5 mtk yes tchain 5 pchain 5
fix 1 all npt temp 1.25 0.45 0.1 iso 5.68 5.68 0.5 mtk yes tchain 5 pchain 5
run 2000000 # 5000000  # Run for this many steps
Neighbor list info ...
  update every 1 steps, delay 10 steps, check yes
  max neighbors/atom: 2000, page size: 100000
  master list distance cutoff = 3.8
  ghost atom cutoff = 3.8
  binsize = 1.9, bins = 8 8 8
  4 neighbor lists, perpetual/occasional/extra = 1 3 0
  (1) pair lj/cut, perpetual
      attributes: half, newton on
      pair build: half/bin/atomonly/newton
      stencil: half/bin/3d
      bin: standard
  (2) compute orientorder/atom, occasional
      attributes: full, newton on
      pair build: full/bin/atomonly
      stencil: full/bin/3d
      bin: standard
  (3) compute coord/atom, occasional
      attributes: full, newton on
      pair build: full/bin/atomonly
      stencil: full/bin/3d
      bin: standard
  (4) compute cluster/atom, occasional
      attributes: full, newton on
      pair build: full/bin/atomonly
      stencil: full/bin/3d
      bin: standard
Per MPI rank memory allocation (min/avg/max) = 9.812 | 9.819 | 9.825 Mbytes
Step Temp PotEng c_msd[4] v_twopoint v_fit v_max_n 
   12000    1.2678471   -6.8715052 8.4053129e-31 5.8370226e-33 8.3333333e+20            2 
   13000    1.2639445   -6.8722604   0.50660591 0.0032474737  0.041081471            2 
   14000    1.2437724   -6.9467598   0.97624301 0.0058109701  0.040471901            1 
   15000    1.2673828   -6.9378197    1.4356567 0.0079758701  0.039588647            1 
   16000    1.2329028   -6.9114075    1.9341191  0.010073537  0.039956344            1 
   17000    1.2477781   -6.9180487    2.4233013  0.011878927  0.040042125            1 
   18000    1.2601521   -6.9167999     2.858414  0.013233398   0.03958173            1 
   19000    1.2556152   -6.9128484    3.2918435   0.01443791  0.039325565            1 
   20000    1.2447529   -6.9189499    3.7512338   0.01563014  0.038918255            1 
   21000    1.2661718    -6.877431    4.1757777  0.016570546  0.038654569            2 
   22000    1.2386974   -6.8741851    4.5825028  0.017357965   0.03825917            1 
   23000    1.2402815   -6.9246796    5.0706332  0.018371859  0.037963145            1 
   24000    1.2431012   -6.8790268    5.5565038  0.019293416  0.037844423            1 
   25000    1.2390863   -6.8699992    6.0707494  0.020235831  0.038002025            1 
   26000     1.259514   -6.8950041    6.5935336   0.02113312  0.038193044            1 
   27000    1.2503698    -6.910639     6.987844  0.021567419  0.038369993            2 
   28000    1.2686796    -6.926216    7.5061277  0.022339665   0.03846816            4 
   29000    1.2780869   -6.8801505    7.9679281  0.022896345  0.038562246            1 
   30000    1.2411325   -6.9288903    8.2927504  0.023035417  0.038549618            1 
   31000    1.2423299   -6.9032568     8.893782  0.023908016  0.038525548            2 
   32000    1.2528119   -6.9598142     9.385622  0.024441724  0.038593196            1 
   33000    1.2568477   -6.9178483    9.8529155  0.024881099  0.038691747            1 
   34000    1.2487806   -6.9165503    10.364774  0.025403857  0.038763455       -1e+20 
   35000     1.272388   -6.9039413    10.813511  0.025746453  0.038865769            2 
   36000    1.2649756   -6.9042203    11.295715  0.026147488    0.0389344            1 
   37000    1.2362142   -6.9367792    11.741188  0.026444117  0.039007821            1 
   38000    1.2142895    -6.939618    12.114374   0.02656661  0.039027317            1 
   39000    1.2469517   -6.9451412    12.543114  0.026801526  0.038982525            2 
   40000    1.2198834   -6.9454947    13.063956  0.027216575  0.038913741            1 
   41000    1.2334617    -6.939203    13.394181  0.027223945  0.038843482            2 
   42000    1.2367301   -6.9249051    13.793562  0.027368179   0.03871975            3 
   43000    1.2377246   -6.9415275    14.227033   0.02757177  0.038611233            1 
   44000    1.2463157   -6.9264938    14.662136  0.027769196   0.03849103            2 
   45000     1.232428   -6.9538326    15.059019  0.027887072  0.038387155            1 
   46000    1.2332002   -6.9232179    15.568335  0.028203505  0.038301794            2 
   47000    1.2298684   -6.9108966    16.083622   0.02851706  0.038242195            4 
   48000    1.2257046   -6.8931013    16.467479  0.028589373  0.038168994            2 
   49000    1.2233567   -6.9232752    17.004713  0.028919579  0.038139886            1 
   50000    1.2293435   -6.9101889    17.366213  0.028943689  0.038109859            1 
   51000    1.2281514    -6.896414    17.882008  0.029218967  0.038077903            1 
   52000    1.2520212   -6.9261587    18.319473  0.029358129  0.038055857            3 
   53000    1.2452327   -6.9726578     18.84603  0.029632123  0.038035967            4 
   54000     1.229067   -6.9431922    19.314553  0.029806408  0.038027666            1 
   55000    1.2496783   -6.8938556    19.637801  0.029754244  0.038001922            1 
   56000    1.2270599   -6.9241616    20.188232  0.030042011  0.037970179            1 
   57000    1.2271772   -6.9662338    20.403284  0.029829362  0.037930033            1 
   58000    1.2447275   -6.9506057    20.831487  0.029930297  0.037881408            2 
   59000    1.2308887   -6.9412143    21.201117   0.02994508  0.037820921            1 
   60000    1.2457205   -6.9605099    21.826911  0.030315153  0.037775049            4 
   61000     1.209911    -6.958382    22.258129   0.03040728  0.037746372            1 
   62000    1.2468677   -6.9586242    22.781425  0.030620195  0.037728594            2 
   63000    1.2176603   -6.9196801    23.143905  0.030613631  0.037704946            1 
   64000    1.2280957   -7.0097991    23.387119  0.030451977  0.037653665            2 
   65000     1.235715   -6.9778587    23.809947  0.030525573  0.037592048            2 
   66000    1.2250651   -7.0114256     24.19842   0.03055356  0.037536087            1 
   67000    1.2182621   -6.9165749    24.631058  0.030635644  0.037481257            2 
   68000    1.2248326   -6.9684966    25.101876  0.030762103  0.037431394            2 
   69000    1.2330862   -6.9907323    25.400789  0.030677281  0.037375001            1 
   70000    1.2447796    -6.946796    25.797172  0.030710919  0.037303578            1 
   71000    1.2477345   -6.9938406    26.058065  0.030584584  0.037222706            2 
   72000    1.2136955   -6.9585871    26.516283  0.030690143  0.037146734            2 
   73000    1.2166893   -6.9624031    27.064687  0.030895761  0.037078804            2 
   74000    1.2351278   -6.9512982    27.384449  0.030838343  0.037030214            1 
   75000    1.2175812   -6.9614741    27.860176   0.03095575  0.036978045            1 
   76000    1.2227692   -6.9597994    28.315965  0.031048207  0.036921616            1 
   77000    1.2213986   -6.9318936    28.822374  0.031193046  0.036871571            1 
   78000    1.2249355   -6.9663141     29.17787  0.031172938  0.036823893            3 
   79000    1.2270892   -6.9805933    29.501745  0.031119984  0.036767738            1 
   80000    1.2002696   -6.9801348    29.926384  0.031173317  0.036724951            1 
   81000    1.2050338   -6.9525286    30.356616  0.031231086  0.036679662            1 
   82000    1.2255619   -6.9967441     30.68045  0.031179319  0.036630841            2 
   83000    1.2399652   -6.9523017    31.366589  0.031492559  0.036591389            1 
   84000    1.2299766   -6.9504149    31.805345  0.031552921  0.036564889            1 
   85000    1.2540156    -6.981574    32.359472  0.031724973  0.036546415            1 
   86000     1.206589   -6.9840236    32.672473  0.031659373  0.036525135            1 
   87000    1.2245239   -6.9574337    33.301293   0.03189779  0.036512573            1 
   88000    1.2254838    -6.976916    33.726814  0.031938271  0.036504448            1 
   89000    1.1982563    -6.977152    34.108883  0.031937156  0.036494664            4 
   90000    1.2071032   -6.9229559    34.465607  0.031912599   0.03648196            3 
   91000    1.2147875    -6.965775     34.76788  0.031838718  0.036460067            5 
   92000    1.2023622    -6.955816    35.499768  0.032155586   0.03645178            3 
   93000    1.2078643   -6.9643351    35.865131  0.032137214  0.036451957            2 
   94000    1.2260352   -6.9759365    36.157628  0.032054634  0.036444794            5 
   95000    1.2287831   -6.9685305    36.697033   0.03219038  0.036438338            3 
   96000    1.2065708   -6.9493084    37.056601  0.032167188   0.03643242            1 
   97000    1.2402298   -6.9741482    37.445402  0.032169589  0.036423687       -1e+20 
   98000    1.2211376   -7.0021889    38.091203  0.032390479   0.03641951            2 
   99000    1.2107369   -6.9481406    38.756622  0.032623419  0.036422171            1 
  100000     1.198471    -6.933618    38.961534  0.032467945  0.036423379            1 
  101000    1.2124396   -7.0063754    39.112735  0.032271233  0.036413973            1 
  102000    1.2242026   -6.9872387    39.541273  0.032304961  0.036399151            1 
  103000    1.2015004   -7.0045669    40.112814  0.032453733  0.036392017            2 
  104000    1.2156224   -6.9795927    40.433927  0.032398979  0.036383668            2 
  105000     1.211215   -6.9873584    41.010758  0.032548221  0.036375654            1 
  106000    1.2180979   -6.9495527    41.676186  0.032764297  0.036373415            1 
  107000    1.2399634   -6.9880929    41.947218  0.032669173  0.036373987            2 
  108000    1.2181748   -7.0109793    42.435828  0.032743695   0.03637558            1 
  109000    1.1962534   -6.9543937    42.849876  0.032759844  0.036374362            1 
  110000     1.199028    -6.977205    43.436754  0.032906631  0.036371286            2 
  111000    1.2090891   -6.9722806    43.641299  0.032763738  0.036368653            1 
  112000    1.2293893   -7.0063395     44.11473   0.03282346  0.036356554            1 
  113000    1.2287234   -6.9950886    44.589872  0.032883386  0.036353901            1 
  114000    1.1931729   -6.9952073     44.91812  0.032834883  0.036352314            1 
  115000    1.2085575   -6.9682882     45.56016  0.033014609  0.036353474            2 
  116000    1.2010894   -6.9907154      45.7753  0.032884555  0.036356021            2 
  117000    1.2263735   -6.9871962    46.282097  0.032964457  0.036354858            1 
  118000    1.1921606    -6.989636     46.76641  0.033027125  0.036352213            1 
  119000    1.2041782   -6.9458442    47.078565  0.032968183  0.036348178            4 
  120000    1.1880345   -6.9859167    47.384811  0.032906119  0.036341607            1 
  121000    1.2163982   -6.9889605    48.251977  0.033231389  0.036336454            1 
  122000    1.2161888   -7.0323115    48.364461  0.033035834  0.036332928            1 
  123000    1.1828754   -6.9685717    49.012948  0.033206604  0.036325638            2 
  124000     1.217477   -7.0401184      48.9589  0.032902487  0.036315709            2 
  125000    1.2279175   -7.0250761    49.526746  0.033017831  0.036301817            1 
  126000    1.1759683   -7.0000367    49.745133   0.03290022  0.036282548            2 
  127000    1.1781412   -7.0017977    50.378374  0.033056676  0.036266339            1 
  128000    1.2128467   -7.0323805    50.682131  0.032996179  0.036249594            2 
  129000     1.221985   -7.0110646    51.345551   0.03316896  0.036235846            1 
  130000     1.197278   -7.0286964    51.692245  0.033136055  0.036231102            2 
  131000    1.1956947   -7.0142601    52.316119  0.033279974  0.036226166            3 
  132000    1.2245814   -7.0508413    52.507087  0.033148413   0.03622584            2 
  133000     1.219642   -7.0115053    52.811086  0.033089653  0.036221332            1 
  134000    1.2139518   -7.0254057    53.128599  0.033040174    0.0362097            1 
  135000    1.2121858   -7.0253127    53.680112  0.033135872  0.036193282            2 
  136000    1.1889551   -7.0517431    53.877579  0.033013222   0.03617705            2 
  137000    1.2139467   -7.0143286    54.382358  0.033079293  0.036160892            1 
  138000    1.2084378   -7.0127664    54.826273  0.033107652  0.036146653            1 
  139000    1.2008277   -6.9961233    55.383637  0.033203619   0.03613227            2 
  140000    1.2049273   -7.0054833    55.824407  0.033228814  0.036121081            2 
  141000    1.2407256   -7.0063809    56.083221  0.033146112  0.036105908            1 
  142000    1.2082083   -7.0116901    56.840907   0.03335734  0.036096494            1 
  143000    1.2244526   -6.9884248    57.185983  0.033325165  0.036086811            2 
  144000    1.2049269   -7.0345494    57.616907  0.033343117  0.036082059            2 
  145000    1.1722202   -7.0219461    58.016088  0.033342579  0.036077875            1 
  146000    1.1807582   -7.0145778    58.421098  0.033345375  0.036071271            1 
  147000    1.2254062   -7.0247326    58.694981  0.033273799  0.036059389            3 
  148000    1.2264578   -7.0088975    59.223974  0.033346832  0.036048364            2 
  149000    1.1890283   -7.0386293    59.447091  0.033247814  0.036036455            2 
  150000    1.1830336   -6.9839368     59.79103  0.033217239  0.036022453            1 
  151000    1.1872833   -7.0202277    60.161212  0.033201552  0.036007948            2 
  152000    1.1918651   -7.0135798    60.551143  0.033196898  0.035992597            2 
  153000    1.2162174   -7.0118798    60.661583  0.033040078  0.035971059            2 
  154000    1.1976891   -7.0119335    60.934679  0.032973311   0.03594352            4 
  155000    1.2058068   -7.0333731    61.228412  0.032918501  0.035917455            2 
  156000    1.2001992   -7.0359802    61.941276  0.033088288  0.035892193            3 
  157000    1.2032152   -6.9959828    62.341144  0.033089779  0.035869731            2 
  158000    1.1771909   -7.0516671    62.577579  0.033005052   0.03584674            2 
  159000    1.2014699    -7.055275    62.600267  0.032809364  0.035820459            2 
  160000    1.2050245   -7.0074693    63.129614  0.032880007  0.035790046            1 
  161000    1.1866642   -7.0564924    63.274504  0.032750779  0.035759632            3 
  162000    1.2017817    -7.033173     63.90344   0.03287214  0.035725845            1 
  163000     1.170715   -7.0570411    64.025502  0.032732874  0.035694512            1 
  164000     1.199933   -7.0336934    64.767652  0.032910392   0.03566627            2 
  165000    1.1808725   -7.0270229    64.937432  0.032796683  0.035638804            1 
  166000    1.1975649   -6.9786119    65.562369  0.032912836  0.035611548            2 
  167000    1.1778213    -7.038932    65.910579   0.03288951  0.035587573            1 
  168000    1.1888061   -7.0467204    66.289372  0.032881633  0.035562826            1 
  169000    1.2051601   -7.0125981    66.735718  0.032907158  0.035539893            1 
  170000    1.1626788     -7.00442    67.034149  0.032859877  0.035514053            1 
  171000    1.1887529   -7.0669374    67.066467  0.032683464   0.03548369            2 
  172000    1.1938589   -7.0321612    67.714809  0.032807563  0.035451364            1 
  173000    1.1833498   -7.0741741    67.724196  0.032622445  0.035418835            2 
  174000    1.1827846   -7.0594845    68.116899  0.032623036  0.035383957            1 
  175000     1.192992   -7.0519348    68.669695  0.032699854  0.035352427            2 
  176000    1.1904884   -6.9934494    69.085817  0.032711087  0.035324395            1 
  177000    1.1706903   -7.0732681    69.419921  0.032683578  0.035295816            1 
  178000    1.1764527   -7.0711338    69.648176  0.032606824  0.035264591            2 
  179000    1.1922938   -7.0531565    69.967591  0.032573366  0.035231517            1 
  180000    1.1578191   -7.0402385    70.174108  0.032488013  0.035197756            1 
  181000     1.208581   -7.0389807    70.488241   0.03245315  0.035161672            4 
  182000     1.191776   -7.0824575    70.863001  0.032446429  0.035125951            3 
  183000    1.2029159   -7.0631509    71.154885  0.032402042  0.035089387            2 
  184000    1.1988672   -7.0783175    71.771607  0.032505257   0.03505648            2 
  185000     1.207384    -7.062059    72.262642  0.032550739  0.035023702            4 
  186000    1.1723744   -7.0479348    72.386649  0.032431294  0.034991554            1 
  187000    1.1707019   -7.0576368    72.485668  0.032301991  0.034958546            3 
  188000    1.1827343   -7.0994668    72.993777  0.032355398  0.034922426            2 
  189000    1.1731388   -7.1154203    73.051093  0.032209476  0.034885218            1 
  190000    1.1680282   -7.0423448    73.608407  0.032284389  0.034847861            2 
  191000     1.197298   -7.0593648    74.020784  0.032295281  0.034811396            3 
  192000    1.1831119    -7.026923    74.245686   0.03222469  0.034775705            1 
  193000    1.1642016   -7.0679431     74.51035  0.032171999  0.034738735            2 
  194000    1.1728154   -7.0850808    74.644535  0.032063803  0.034700037            1 
  195000    1.1615053   -7.0835629    75.224143   0.03214707  0.034662486            2 
  196000    1.1831272   -7.0887434    75.765061  0.032213036  0.034627994            1 
  197000    1.1979596   -7.0496578     75.99356  0.032146176  0.034593396            2 
  198000    1.2089072   -7.0773803    76.184489  0.032064179  0.034559917            1 
  199000    1.1761052   -7.0574376    76.884313  0.032196111  0.034526852            2 
  200000    1.1766875   -7.0879299    76.915653  0.032048189   0.03449219            3 
  201000    1.1587127   -7.0746123    77.561458  0.032156491  0.034457717            2 
  202000    1.1789839   -7.0865865    77.686016  0.032048687  0.034425447            3 
  203000    1.1794439   -7.1206833    77.954506  0.032001029  0.034391643            2 
  204000    1.1844841   -7.0386506    78.387341  0.032020973   0.03435705            3 
  205000    1.1729437   -7.0887844    78.994142   0.03211144  0.034323897            1 
  206000    1.1703546   -7.1054643    79.096125  0.031996814  0.034289867            3 
  207000    1.1667682   -7.0833516    79.356314  0.031946986  0.034254587            2 
  208000    1.1635825   -7.0329308    79.858155  0.031994453  0.034220052            1 
  209000     1.180802   -7.0646196    80.154894  0.031959687  0.034187027            1 
  210000    1.1744906   -7.0609259    80.552271  0.031965187  0.034155009            1 
  211000    1.1860435   -7.0711993    80.796138  0.031910007   0.03412382            1 
  212000    1.1951263   -7.0823901    81.362684  0.031982187   0.03409302            1 
  213000    1.1646881   -7.0367049    81.966484  0.032068264  0.034061889            1 
  214000    1.1588077    -7.144553    81.731466  0.031826895   0.03403122            2 
  215000    1.1619855   -7.1276205    82.272791  0.031888679  0.033999661            1 
  216000    1.1787172   -7.0809392    82.573987  0.031857248  0.033968688            2 
  217000    1.1652376   -7.0940028    83.086943  0.031907428  0.033939774            2 
  218000    1.1714345   -7.0608589    84.024593  0.032119493  0.033913452            2 
  219000    1.1917781   -7.0525009    84.056591  0.031985004  0.033887537            1 
  220000    1.1922367    -7.114025    84.506264  0.032009948  0.033861841            1 
  221000    1.1478838   -7.0819291    84.960994  0.032036574  0.033836991            3 
  222000    1.1587302   -7.0354758    85.494908  0.032092683   0.03381227            1 
  223000    1.1617728   -7.1269908     85.49159   0.03194753  0.033786943            1 
  224000    1.1744886   -7.1189185    85.927329  0.031967012  0.033760673            1 
  225000    1.1528408   -7.0773757    86.177059  0.031917429  0.033733456            2 
  226000     1.185561   -7.0887217    86.314839  0.031827006  0.033707405            2 
  227000    1.1597917   -7.1011053    86.664144  0.031815031  0.033680513            1 
  228000    1.1849572   -7.1000773    87.094563  0.031832808  0.033652099            1 
  229000    1.1537774    -7.103891    87.904907  0.031988685  0.033625228            1 
  230000    1.1458345   -7.1083521    88.082934  0.031914106  0.033600984            5 
  231000    1.1405696   -7.1060845    88.809986  0.032038235  0.033577832            1 
  232000    1.1472792   -7.0878456    88.680827  0.031853745  0.033555918            2 
  233000    1.1781519   -7.1039771    89.400988  0.031974602  0.033535606            1 
  234000    1.1391056   -7.0766865     89.93783  0.032029142  0.033514419            2 
  235000    1.1802233   -7.1473521    89.707975  0.031811339  0.033493462            1 
  236000    1.1360158   -7.0705585    90.674994  0.032018006  0.033471162            1 
  237000    1.1375132   -7.1299043    90.382029  0.031779898  0.033448924            1 
  238000    1.1557175   -7.0747627    91.088205  0.031893629  0.033426193            2 
  239000    1.1715679   -7.0956251    91.458921  0.031889442  0.033405013            1 
  240000    1.1328542   -7.1179829    91.901176  0.031910131  0.033384501            2 
  241000    1.1676038    -7.160065    92.287325  0.031911246  0.033364063            3 
  242000     1.157283   -7.1271272    92.572405   0.03187755  0.033344078            2 
  243000     1.160038   -7.1077082     92.92928  0.031868752  0.033325346            1 
  244000    1.1315949   -7.1090967    93.430483  0.031909318  0.033305538            2 
  245000    1.1675081   -7.0953278    93.659735  0.031857053  0.033286784            1 
  246000     1.145525   -7.0994942    94.010927   0.03184652  0.033268131            1 
  247000    1.1636232   -7.1138818    94.538043  0.031895426  0.033250068            2 
  248000    1.1208798   -7.1152004     94.71314  0.031825652  0.033232552            2 
  249000    1.1465082   -7.0792551    95.714324  0.032032906  0.033214239            1 
  250000    1.1719508   -7.1403548    95.558408  0.031852803  0.033197576            1 
  251000    1.1757774    -7.110041    95.729801  0.031782803  0.033178656            1 
  252000    1.1673187   -7.1411265    95.867122   0.03170209   0.03315742            1 
  253000     1.155923   -7.0823992    96.570057  0.031808319  0.033135855            2 
  254000    1.1264871   -7.0755784    96.297647  0.031593716   0.03311459            3 
  255000    1.1538668   -7.1249703    96.865454  0.031655377  0.033093148            1 
  256000     1.160734   -7.0921742     97.46085  0.031725537  0.033073039            1 
  257000    1.1729552   -7.1226989    98.137903  0.031821629  0.033054835            2 
  258000    1.1517386   -7.1296875    98.557299  0.031833753  0.033036883            2 
  259000    1.1636395   -7.1112915     98.60296  0.031725534  0.033020665            3 
  260000    1.1403325   -7.1273548    99.154303  0.031780225  0.033004844            3 
  261000     1.167349   -7.1015238    99.861888  0.031884383  0.032989281            1 
  262000    1.1700911    -7.121435    100.02703  0.031815212  0.032974101            3 
  263000    1.1610822   -7.1181332    100.39696  0.031811459  0.032959552            3 
  264000    1.1388974   -7.1319725      100.899  0.031849433  0.032944731            2 
  265000    1.1642363   -7.1159451    101.55241  0.031934721   0.03293021            2 
  266000    1.1579993    -7.154238    101.32091  0.031742141  0.032916559            1 
  267000    1.1469626   -7.1314551    101.51983  0.031685341  0.032900899            1 
  268000    1.1438881   -7.0972708    102.11366   0.03175176  0.032885564            3 
  269000    1.1505711   -7.1501395    102.49733   0.03175258  0.032870315            3 
  270000    1.1248397   -7.1056704    102.75218  0.031713637  0.032854747            1 
  271000     1.147007   -7.1010683    103.36361  0.031784628   0.03283986       -1e+20 
  272000    1.1333431   -7.1442399     103.3229  0.031655301  0.032823802            1 
  273000    1.1343808   -7.0987871    103.60152  0.031624397  0.032807283            3 
  274000    1.1538283   -7.1022743    103.61859  0.031514168  0.032788294            5 
  275000    1.1144121   -7.1337544    104.21434  0.031580104  0.032768922            1 
  276000    1.1385048   -7.0957579    104.56948  0.031572912  0.032750119            2 
  277000    1.1559326   -7.1212437    104.81316  0.031532239  0.032732483            4 
  278000     1.150095   -7.2040665     104.8613  0.031433242  0.032713708            1 
  279000    1.1214705   -7.1672212    104.96387  0.031351214  0.032694575            1 
  280000     1.117572    -7.104862    106.39317  0.031664634  0.032676442            2 
  281000    1.1554258   -7.1584163    105.97557  0.031428106  0.032658591            3 
  282000    1.1428888    -7.121887    106.53149  0.031480938  0.032641305            1 
  283000     1.151578   -7.1117227    107.21275  0.031570302  0.032623568            1 
  284000    1.1305797   -7.1568341    106.90579  0.031369069  0.032606154            2 
  285000    1.1395549   -7.1785006    107.27225  0.031366156   0.03258801            1 
  286000    1.1400844   -7.1634763    108.07603  0.031490685  0.032570534            3 
  287000    1.1441813   -7.1230179    108.81964  0.031596876  0.032555257            1 
  288000    1.1353308   -7.1791444    109.25479  0.031613076  0.032542123            1 
  289000    1.1323826   -7.1276303    109.83095  0.031669825  0.032528977            4 
  290000    1.1519835   -7.1712279    109.80907   0.03155433  0.032516614            1 
  291000    1.1284365   -7.1258307    110.53227  0.031652999  0.032503475            3 
  292000     1.165711   -7.1485422    110.66357  0.031582068  0.032490111            1 
  293000    1.1397835   -7.1400375    111.14687  0.031611738  0.032477107            1 
  294000    1.1643825   -7.1427825    111.76741  0.031680105  0.032464553            1 
  295000    1.1135495   -7.1470918    111.85892  0.031598566  0.032452455            1 
  296000    1.1307795   -7.1224592    112.01941  0.031536997  0.032439876            1 
  297000    1.1465949   -7.1605864    112.37701  0.031531146  0.032427112            1 
  298000    1.1436714   -7.1606881    112.83644  0.031553813  0.032415037            2 
  299000     1.117347   -7.1823172    112.87789  0.031459835  0.032402188       -1e+20 
  300000    1.1262077    -7.157707    113.28911  0.031469198  0.032388979            2 
  301000    1.1007293   -7.1551997    114.11485  0.031593258  0.032377173            3 
  302000    1.1620337   -7.1369972     114.7704  0.031669537  0.032365665            2 
  303000    1.1176708   -7.1297881    114.53074  0.031499103  0.032355174            3 
  304000    1.1191429    -7.111682    115.08553  0.031547567   0.03234347            2 
  305000    1.1503544    -7.139063    115.56573  0.031575335  0.032332073            1 
  306000    1.1364499   -7.1585311    115.93129  0.031571701  0.032321238            1 
  307000    1.1440075   -7.2036104    115.71749  0.031410828  0.032309332            4 
  308000    1.1309087   -7.1572623    116.76037  0.031591009  0.032298597            1 
  309000    1.1196226   -7.1370734    117.10295  0.031581162  0.032288317            2 
  310000    1.1205365   -7.2177186    116.88279  0.031420104  0.032276767            1 
  311000    1.1229869   -7.1603668    117.37495  0.031450952  0.032264827            2 
  312000    1.1357089   -7.1666253    117.38427  0.031352637  0.032253505            2 
  313000    1.1389834   -7.1282715    118.38753  0.031519578  0.032241437            1 
  314000    1.1171068   -7.1903213    118.36801  0.031414016    0.0322294            2 
  315000    1.1306995   -7.1579638    118.64822  0.031388418  0.032216014            1 
  316000    1.1539967    -7.136734    118.85013  0.031342335  0.032203722            2 
  317000    1.1222058   -7.1588661    119.16311   0.03132574  0.032189962            2 
  318000    1.1084712   -7.1933487    118.96135  0.031174358  0.032175867            1 
  319000    1.1206413   -7.1684282    119.71278   0.03127293  0.032161032            2 
  320000     1.161176   -7.1652885    119.66811   0.03116357  0.032145872            1 
  321000    1.1385689   -7.1729477    120.18206  0.031199913  0.032131467            2 
  322000    1.1369686   -7.1743242    120.94684  0.031300941  0.032117358            2 
  323000    1.1218466   -7.2129571    120.85855  0.031181256  0.032103789            1 
  324000    1.1243891   -7.1640929    121.63196   0.03128394  0.032090509            2 
  325000     1.151575   -7.1876642    122.15526  0.031321861  0.032078512            3 
  326000    1.1556791   -7.1950201    122.23276  0.031245593  0.032065229            2 
  327000    1.1335863   -7.1779407    122.74314  0.031280106  0.032052716            3 
  328000    1.1184967   -7.1787359    122.97991  0.031244895  0.032039112            1 
  329000    1.1240578   -7.2204632    122.98934  0.031152315  0.032025091            2 
  330000     1.095605   -7.1507374    123.44064   0.03117188  0.032010958            2 
  331000    1.1060854   -7.1695375    123.46259   0.03108323  0.031996378            1 
  332000    1.1114477   -7.2008918     124.1317  0.031157556  0.031981069            1 
  333000    1.1407524   -7.1593301    124.26069  0.031096268  0.031966095            1 
  334000    1.1233576   -7.2044114    124.51977  0.031067806  0.031950863            2 
  335000    1.1214921   -7.1581299    124.64482  0.031006173  0.031935007            3 
  336000     1.117452   -7.2132872    124.40444  0.030854275  0.031918753            2 
  337000    1.1242218   -7.2301273    124.77621  0.030854651  0.031901139            2 
  338000    1.1110288   -7.1983328    125.37869  0.030911905  0.031884233            1 
  339000    1.1059337   -7.1643354    125.59299  0.030873399  0.031866955            2 
  340000    1.1120621   -7.1667489     126.0808  0.030902157  0.031849902            2 
  341000     1.123418   -7.1973304    126.32518  0.030871256  0.031832704            1 
  342000     1.143187   -7.1501951    127.38349  0.031038862  0.031817172            2 
  343000    1.1316054   -7.1907263    127.56472  0.030992402  0.031802231            2 
  344000     1.139463    -7.208558    127.39218   0.03086051  0.031786383            1 
  345000    1.1146274   -7.1765861    127.47155   0.03079023  0.031769077            1 
  346000    1.1245396   -7.2062871     127.5729   0.03072565  0.031751426            1 
  347000    1.1482279   -7.1873571    128.59457  0.030882462   0.03173341            3 
  348000    1.1132068   -7.1812032    128.79379  0.030841424  0.031716758            1 
  349000    1.1086405   -7.1888282    128.74849  0.030742236  0.031699485            1 
  350000    1.0914314   -7.2066375    129.09925  0.030737916  0.031682391            2 
  351000    1.1200148   -7.2262768    129.12696  0.030656924  0.031664959            2 
  352000    1.1499045   -7.1895928    129.75817  0.030719264  0.031648253            2 
  353000    1.1080324   -7.1978626    130.45771  0.030797383  0.031632295            2 
  354000    1.1099256   -7.1909933    130.92723  0.030820911   0.03161607            2 
  355000    1.1148572   -7.1994313     130.8605  0.030718428  0.031599902            1 
  356000    1.0984757   -7.1839791    130.76536  0.030609869  0.031583737            1 
  357000    1.1219924   -7.1821099    131.23315  0.030633321  0.031566169            2 
  358000    1.1218158    -7.201677    131.40617  0.030588028  0.031548335            2 
  359000     1.118081   -7.2147229    131.74564  0.030581625   0.03153051            3 
  360000    1.1210018    -7.161117    132.38963  0.030645748  0.031513134            2 
  361000    1.1293285   -7.2060297    131.79166  0.030422822  0.031494357            2 
  362000    1.1099861   -7.2312889    131.98897  0.030384201  0.031474725            2 
  363000    1.0957424   -7.2313353    132.25817  0.030362299  0.031454886            3 
  364000    1.1310881   -7.1852866    132.99288  0.030447089  0.031435383            1 
  365000    1.1240411   -7.2521038    132.73007  0.030303669  0.031415624            1 
  366000     1.082022   -7.2506712    133.19163  0.030325962  0.031395979            2 
  367000    1.1213935   -7.2131689    133.97288  0.030420726  0.031376842            1 
  368000    1.0987949   -7.2258213    134.36352  0.030426521  0.031358217            2 
  369000    1.1238559   -7.2159591    134.41482  0.030355651  0.031339764            1 
  370000    1.1059396   -7.2485109    134.38621  0.030267164   0.03132084            2 
  371000    1.1023642   -7.1926969    135.09219  0.030344157  0.031301578            1 
  372000    1.1389172    -7.193631     135.1528  0.030276165  0.031283201            2 
  373000    1.1262447   -7.2404188    135.84544   0.03034974  0.031263712            2 
  374000    1.1010122   -7.2383415    135.68339  0.030232484  0.031244245            2 
  375000    1.0972222   -7.2380046    135.44635  0.030099189  0.031224522            3 
  376000    1.1187227   -7.2046543    136.66097  0.030288336  0.031205341            1 
  377000    1.0920545   -7.2199231    136.21889  0.030110276  0.031185974            2 
  378000    1.0992019   -7.2235005    137.06745  0.030217692  0.031166067            2 
  379000    1.1201549   -7.1957208    137.54291  0.030242504  0.031146759            2 
  380000    1.0944898   -7.2014451    137.28905  0.030107248  0.031126953            2 
  381000    1.1226584   -7.2817336    136.82662  0.029927082  0.031106008            2 
  382000    1.1030125   -7.1511442    138.20707  0.030149884  0.031085262            2 
  383000    1.0953012   -7.2266213    137.51229  0.029919993   0.03106411            7 
  384000    1.1159027   -7.2758539    137.66193   0.02987455  0.031043082            1 
  385000     1.094473   -7.2242287     138.8989  0.030064697  0.031021963            1 
  386000    1.1009882   -7.2935892    138.64146  0.029931231  0.031001016            2 
  387000    1.1138002   -7.2284543    139.34629  0.030005662  0.030979433            3 
  388000    1.0934753   -7.1796863    139.49305  0.029959848  0.030958889            1 
  389000    1.1069288   -7.2390559    139.00286  0.029777818   0.03093776            5 
  390000    1.0985977   -7.2191157     139.8948  0.029892051  0.030916637            1 
  391000    1.1158053   -7.2491345    139.90119  0.029816964  0.030895252            2 
  392000    1.1031332    -7.223552    140.64662  0.029899367  0.030874402            2 
  393000    1.0999345   -7.2349925    141.03888  0.029906463  0.030854884            2 
  394000    1.1038857   -7.2495067    140.71844  0.029762783  0.030833898            1 
  395000     1.078169   -7.2577618    140.98535  0.029743745  0.030812788            1 
  396000     1.057567   -7.2787009    141.88004   0.02985691  0.030791889            2 
  397000    1.0825519   -7.2710984    141.78385  0.029761513  0.030770898            1 
  398000    1.0965114   -7.2265061     142.2068  0.029775292  0.030750667            2 
  399000    1.0995962   -7.1865369    142.87858  0.029840972    0.0307306            3 
  400000    1.0964808   -7.2279508    142.72704  0.029734799  0.030710312            2 
  401000    1.0879744   -7.2637627    142.81042  0.029677975  0.030690219            2 
  402000    1.1170233   -7.2709037     143.6415  0.029776431  0.030670395            2 
  403000    1.0875518   -7.2762349    143.29005   0.02962987  0.030649532            5 
  404000    1.1086405   -7.2319459    144.19943  0.029744106  0.030629166            2 
  405000    1.0959275   -7.2857249    143.81759  0.029592096  0.030608038            1 
  406000    1.1073954   -7.2914614    144.10147  0.029577478   0.03058638            1 
  407000    1.0833597   -7.2419289    145.01571  0.029691996  0.030565441            1 
  408000    1.0971832   -7.2755916    144.91686  0.029599032  0.030544908            2 
  409000    1.0824388   -7.2224636    145.29828  0.029604376  0.030524565            5 
  410000    1.0769631   -7.2465032    145.26738   0.02952589  0.030504799            1 
  411000    1.0872587   -7.2211239    146.07626  0.029618057  0.030484442            2 
  412000    1.0875036   -7.2756011    146.04968  0.029540793  0.030464852            1 
  413000    1.0961135   -7.2499599    146.39937  0.029539825  0.030444845            2 
  414000    1.0858378   -7.2288345    146.94239  0.029577776  0.030424584            2 
  415000    1.0883325   -7.2247966    146.93569  0.029505159  0.030404922            1 
  416000    1.0662469   -7.2668435     147.9996  0.029647355  0.030385538            2 
  417000    1.0788715   -7.3097261    147.25603  0.029427663  0.030365815            2 
  418000     1.105715   -7.2624181    148.14777  0.029535042  0.030346874            2 
  419000     1.088969   -7.2594564    147.88774  0.029412835  0.030327032            1 
  420000    1.0995279   -7.3018521    148.45297  0.029454955  0.030307895            1 
  421000    1.0801256   -7.2563414    148.92206  0.029477843  0.030288707            2 
  422000    1.1071973   -7.2413468    149.98516  0.029617922   0.03026944            1 
  423000    1.0974625   -7.2570362    149.86245   0.02952373  0.030250929            1 
  424000    1.0867358   -7.2987974    149.64689  0.029411731  0.030232224            2 
  425000    1.0734782   -7.2976308    149.65606  0.029344325  0.030213188            1 
  426000    1.0801676     -7.25751    150.51113  0.029442708  0.030194367            2 
  427000    1.0735224    -7.258901    151.11894  0.029492377  0.030176252            2 
  428000    1.0859471   -7.2811474    151.34782  0.029468033  0.030158032            2 
  429000    1.0838378   -7.2435661    151.93495  0.029513393  0.030140654            2 
  430000    1.0849543   -7.2591921    151.90609  0.029439165  0.030123774            2 
  431000    1.0919473     -7.20284    152.59472  0.029504005  0.030107037            2 
  432000     1.101901   -7.2320051    152.33168  0.029384968  0.030090334            1 
  433000    1.0904831   -7.2706795    152.91701  0.029429756  0.030073237            1 
  434000    1.0656182   -7.2557311      153.292  0.029433947  0.030056775            1 
  435000    1.0480074   -7.2514912    153.48047  0.029402389  0.030040032            2 
  436000    1.0807523   -7.2287195     154.3422  0.029499655  0.030023805            5 
  437000    1.0902633   -7.2822575    154.26404  0.029417247  0.030007824            1 
  438000    1.0725491   -7.2804898    154.52044  0.029398866  0.029992371            2 
  439000    1.0816448   -7.2583859    155.00949  0.029424732   0.02997662            2 
  440000     1.112016   -7.2685439    155.24073  0.029401654  0.029960745            2 
  441000    1.0596218   -7.2875997    155.20692  0.029328595  0.029944666            2 
  442000    1.0733217   -7.2568527    155.71776  0.029358552   0.02992891            3 
  443000    1.0647333   -7.2896626    156.09534  0.029363306  0.029913683            4 
  444000    1.0723426   -7.2792137    156.16656   0.02931054  0.029898201            2 
  445000    1.0806583   -7.2920699    156.91412  0.029384667  0.029882538            2 
  446000    1.0577693   -7.2692489    157.41265   0.02941193  0.029867203            4 
  447000    1.0693918   -7.3042629     157.5483  0.029371421  0.029851787            2 
  448000    1.0596031   -7.2523076    158.03343  0.029396099  0.029836162       -1e+20 
  449000    1.0637587   -7.2831623    157.76179  0.029280213  0.029820753            4 
  450000    1.0568508   -7.3010673    157.55917  0.029177623   0.02980463            2 
  451000    1.0669502   -7.2757475    157.87305  0.029170926   0.02978846            1 
  452000     1.090744   -7.3118402    158.46059   0.02921471  0.029772254            4 
  453000    1.0941048    -7.281202     158.6072   0.02917719  0.029756037            4 
  454000     1.073773   -7.2867244    159.41085  0.029260435  0.029739453            1 
  455000    1.0854029   -7.2671601    158.77735  0.029080102  0.029722112            3 
  456000    1.0943539   -7.2628228    158.62639  0.028988741  0.029704633            2 
  457000    1.0684714   -7.2934924    159.22825  0.029035056  0.029686872            2 
  458000    1.0720435    -7.320065    159.42576  0.029007599  0.029669081            3 
  459000    1.0628207   -7.2761151      160.337  0.029109841  0.029651466            2 
  460000    1.0563289   -7.3140792    159.94928   0.02897632  0.029634051            1 
  461000    1.0673863   -7.2814205    160.50398  0.029013735  0.029617019            1 
  462000    1.0700573   -7.3148886    160.20799  0.028897545  0.029599431            1 
  463000      1.09088   -7.3146503    160.40882  0.028871278  0.029581818            1 
  464000    1.0455931   -7.2962745    161.11494  0.028935873  0.029564066            2 
  465000    1.0814514   -7.2878167    161.62958  0.028965874   0.02954667       -1e+20 
  466000    1.0688436   -7.2754267    161.87714  0.028947986  0.029529629            2 
  467000    1.0583695   -7.3023704    161.61279  0.028838827  0.029512858            2 
  468000    1.0628763   -7.3201762    162.21345  0.028884161  0.029495848            1 
  469000    1.0708774   -7.2765172    162.63592   0.02889764  0.029478939            2 
  470000    1.0851235   -7.3175991    163.15789  0.028928703  0.029462393            2 
  471000    1.0780829   -7.2968286    163.24813   0.02888325  0.029446069            2 
  472000    1.0831866   -7.3057394    162.68447  0.028722541  0.029428792            1 
  473000    1.0941984   -7.2960424    163.42251  0.028791844  0.029411739            2 
  474000      1.06188   -7.2875685    164.11315  0.028852523  0.029394847       -1e+20 
  475000    1.0628548   -7.3088963    164.09789  0.028789104  0.029378068            2 
  476000    1.0652464   -7.2955616    164.31257  0.028766206  0.029361188            2 
  477000    1.0623318   -7.3387406    164.35577  0.028713447  0.029343606            4 
  478000     1.051764   -7.3033404    165.64385  0.028877938  0.029325987            1 
  479000    1.0723444   -7.3062867    165.56562   0.02880404  0.029309127            4 
  480000    1.0644248   -7.3290318    165.89307   0.02880088  0.029293332            1 
  481000    1.0968741   -7.2910502    166.01203  0.028761613   0.02927693            3 
  482000    1.0634053    -7.308681    165.74163  0.028655192  0.029260805            1 
  483000    1.0281419   -7.2978786    166.87875  0.028792056   0.02924394            2 
  484000    1.0772476   -7.3266506    166.54402  0.028674934  0.029227586            4 
  485000     1.074342   -7.3386985    167.23403  0.028734369  0.029211195            1 
  486000    1.0512493   -7.3346257     167.3563   0.02869621  0.029194881            2 
  487000    1.0477091   -7.3316359    167.51649  0.028664698  0.029178306            1 
  488000    1.0605967   -7.3294651    167.78407  0.028651652  0.029162042            1 
  489000    1.0609367   -7.3095462     168.1738  0.028659476  0.029146205            1 
  490000    1.0485788   -7.3048317     168.9893  0.028739677  0.029130624            2 
  491000    1.0692582   -7.3452717     168.5549  0.028607417   0.02911474            2 
  492000    1.0523557   -7.2923699    169.33544  0.028681477   0.02909918            1 
  493000    1.0714378    -7.345827    169.32395  0.028621357  0.029083601            1 
  494000     1.071176   -7.2964357    169.70956  0.028628468  0.029067886            2 
  495000    1.0748338   -7.3365436    169.36882  0.028513269  0.029051572            2 
  496000    1.0595649   -7.3100831     170.0567  0.028571354  0.029034571            2 
  497000      1.05302    -7.314798    169.91047  0.028489347  0.029017697            1 
  498000    1.0445169   -7.3146429    169.79062  0.028412086  0.029000976            1 
  499000    1.0479876   -7.3248215    170.38644  0.028454649  0.028984241            3 
  500000    1.0417879   -7.3461523    170.97849  0.028496415   0.02896696            2 
  501000    1.0520042   -7.3445802    170.56173  0.028370215  0.028949581            1 
  502000    1.0429901   -7.3195406    171.46208  0.028463161  0.028932322            1 
  503000    1.0366056   -7.3651798    171.03445  0.028335728  0.028915023            2 
  504000      1.04445   -7.3609831    170.83374   0.02824632  0.028897729            2 
  505000    1.0709151   -7.3485879    171.37795  0.028280191   0.02887993            1 
  506000    1.0616722   -7.3092492    171.73553   0.02828319  0.028862097            1 
  507000    1.0534994   -7.3561726    172.27753  0.028316491  0.028844481            2 
  508000    1.0521362    -7.318518    172.08928  0.028229868  0.028827111            1 
  509000    1.0610626   -7.3286957    172.81885  0.028293853   0.02881005            3 
  510000    1.0498286   -7.3646877    172.82511  0.028239397  0.028793114            2 
  511000    1.0370501   -7.3315796    174.11974  0.028395261  0.028775988            3 
  512000    1.0521806    -7.278539    173.96649  0.028314859   0.02875942            4 
  513000    1.0488981   -7.2972251    174.18648    0.0282954  0.028742599            3 
  514000    1.0598701   -7.3231919    174.01028  0.028211783  0.028726614            2 
  515000    1.0673675   -7.3030346    174.36299  0.028214076  0.028710222            1 
  516000    1.0259603   -7.3366861     175.2431  0.028301534  0.028694345            2 
  517000    1.0574963   -7.2924532    175.25611   0.02824889  0.028678513            2 
  518000    1.0373871   -7.3352002    175.43556  0.028223224  0.028662544            2 
  519000    1.0576527   -7.3620883    175.54509  0.028186431  0.028646029            2 
  520000    1.0651211    -7.324582    175.99752   0.02820473  0.028629747            2 
  521000    1.0453319   -7.3268427    175.97189  0.028146495    0.0286133            1 
  522000    1.0316922   -7.3531329    175.78309  0.028062434  0.028596654            1 
  523000    1.0638179   -7.3872195    176.12859  0.028063828  0.028580074            3 
  524000    1.0428044   -7.3731591    176.26272  0.028031603     0.028563            2 
  525000    1.0413212   -7.3597292    176.58061  0.028028669  0.028546499            2 
  526000    1.0395852   -7.3446873    176.79665  0.028009608  0.028529901            1 
  527000    1.0666797   -7.3521447    177.26879  0.028031117   0.02851318            1 
  528000     1.040708   -7.4137285    177.24045  0.027973555  0.028496066            2 
  529000    1.0194236   -7.3767251     178.0498  0.028048172  0.028478876            1 
  530000    1.0255404   -7.3367856    177.83459  0.027961414  0.028461714            1 
  531000     1.058244   -7.3728063     178.0473  0.027942138  0.028444488       -1e+20 
  532000    1.0437021   -7.3432883    178.35765  0.027938228   0.02842709            1 
  533000    1.0202897   -7.3556179    178.07627  0.027841818  0.028409747            3 
  534000    1.0180661   -7.3433517    178.66937  0.027882237  0.028392359            2 
  535000    1.0408499   -7.4082843    178.22492  0.027760891  0.028374978            1 
  536000    1.0247474   -7.3901707      178.969  0.027824782   0.02835722            4 
  537000    1.0550342   -7.4099267    178.79209  0.027745513  0.028339671            2 
  538000    1.0536086   -7.3990873    179.02426  0.027729904  0.028321824            3 
  539000    1.0079776   -7.3554144    179.55799  0.027760975   0.02830409            1 
  540000    1.0614237   -7.3369456    179.78462  0.027744541  0.028286709            2 
  541000    1.0112536   -7.3615865    180.02716  0.027730616   0.02826962            2 
  542000    1.0201076   -7.3631102    180.26911  0.027716653  0.028252227            2 
  543000    1.0223085   -7.3718791    180.33479  0.027675689  0.028234483            2 
  544000    1.0600301   -7.3589202    181.13805  0.027747863  0.028217143            2 
  545000    1.0438014   -7.3909849    180.72603  0.027633949  0.028199855            2 
  546000    1.0484734   -7.3710927    181.19303  0.027654613   0.02818255            2 
  547000    1.0334848   -7.3788199    181.80022  0.027696559   0.02816515            1 
  548000    1.0238575   -7.3956101    181.22373  0.027558353  0.028147817            3 
  549000    1.0137109   -7.3561479    182.42089  0.027689873  0.028130579            2 
  550000    1.0277147   -7.3663793    182.37274  0.027632233  0.028113822            1 
  551000    1.0439996   -7.3402587    182.75448  0.027639818  0.028096624            2 
  552000    1.0208014   -7.3872737    182.89025  0.027610243  0.028079592            3 
  553000    1.0303044   -7.3556629    183.45547   0.02764549  0.028062606            1 
  554000    1.0411997   -7.4202897    183.03551  0.027532417  0.028045773            2 
  555000    1.0209792   -7.4027972    182.88373  0.027460019  0.028029113            2 
  556000    1.0477956   -7.3768939    184.22498  0.027611658  0.028012272            2 
  557000    1.0373149   -7.3793232      184.021  0.027531568  0.027995482            2 
  558000    1.0359758   -7.3931665    184.06061  0.027488144   0.02797879            2 
  559000    1.0379124   -7.3781652    184.38917   0.02748795   0.02796201            1 
  560000    1.0336048   -7.4110972    184.54467  0.027462004  0.027945582            2 
  561000    1.0234697   -7.3816933    184.93645   0.02747125  0.027928655            1 
  562000    1.0463919   -7.3527946    185.54931  0.027513243  0.027911767            3 
  563000    1.0228083   -7.3936856    185.33368  0.027432457  0.027895108            1 
  564000    1.0437798   -7.3765656    185.93023  0.027471961  0.027878204            2 
  565000     1.051318   -7.4161998    185.75307  0.027397208  0.027861568            3 
  566000    1.0264562    -7.381744    185.92358  0.027373908  0.027845285            1 
  567000      1.02219    -7.389477    186.15938  0.027360286  0.027828914            1 
  568000    1.0321836   -7.3927774    186.63906  0.027382491  0.027812613            2 
  569000     1.026326   -7.4071051    187.42411  0.027449342  0.027796553            2 
  570000    1.0082896   -7.4097757    187.72902  0.027445763  0.027780362            1 
  571000    1.0226818   -7.3622671    187.16073  0.027314759  0.027764103            2 
  572000     1.029378   -7.4035773    187.56284  0.027325589  0.027747776            3 
  573000    1.0493465   -7.3853953    188.73864  0.027448901  0.027731561            2 
  574000    1.0385391   -7.3674688    188.43396  0.027356846  0.027715371            1 
  575000    1.0252451   -7.3765833    188.76643  0.027357454  0.027699224            4 
  576000    1.0383337   -7.3748676    188.93442  0.027334262  0.027683224            1 
  577000    1.0281866   -7.4236441    189.05728  0.027304632  0.027667547            1 
  578000    1.0219688   -7.4043017    189.83614  0.027369686  0.027651921            2 
  579000     1.034967   -7.4088507    189.85979  0.027325819   0.02763649            5 
  580000    1.0104885   -7.4211119    189.57291  0.027237487  0.027620753            1 
  581000    1.0117941   -7.4328927    189.69349  0.027207902  0.027604694            2 
  582000    1.0168477   -7.3976196    190.66008  0.027299554  0.027589093            1 
  583000    1.0236778   -7.3986738     190.6489  0.027251129  0.027573338            2 
  584000    1.0326689   -7.4083685    191.31863  0.027300032  0.027557944            2 
  585000    1.0499989   -7.3915985     191.0211  0.027210983  0.027542633            2 
  586000    1.0499777   -7.4033246    191.26303  0.027198952  0.027527083            2 
  587000    1.0172066   -7.3914395    191.74779  0.027221435  0.027511697            1 
  588000    1.0328491   -7.4147951    192.31769  0.027255908  0.027496311            1 
  589000   0.99434815   -7.3947254    191.76713  0.027131739  0.027480771            1 
  590000    1.0008786   -7.3936741    192.72771  0.027221428  0.027465192            2 
  591000   0.99404101   -7.3863041    192.32583  0.027118701  0.027449392            3 
  592000    1.0231038   -7.4170787    192.64013  0.027117135  0.027433507            1 
  593000    1.0347804   -7.4438787    192.37436  0.027034059  0.027417727            1 
  594000    1.0020145   -7.3745499    193.71362  0.027176433  0.027401794            2 
  595000    1.0220797    -7.396725    193.86332  0.027151725  0.027386427            2 
  596000    1.0257428   -7.4212745    194.14154   0.02714507  0.027371169            1 
  597000    1.0277723   -7.3609297    194.41297  0.027137489  0.027356036            1 
  598000    1.0144149   -7.4121036    194.35728  0.027084347  0.027340763            5 
  599000    1.0270855   -7.4197043    194.38498  0.027042985  0.027325257            2 
  600000    1.0163411   -7.4009391    194.65459   0.02703536  0.027310053            2 
  601000    1.0048199   -7.4223359    195.16623  0.027061319  0.027294376            3 
  602000    0.9985636   -7.4347068    194.37294  0.026906554  0.027278363            2 
  603000    0.9981452   -7.4362655    194.98729  0.026946833   0.02726195            4 
  604000    1.0117166   -7.3907487    195.01782  0.026906432  0.027245785            3 
  605000    1.0095532   -7.4260085    194.93358  0.026850356  0.027229746            3 
  606000    0.9974368    -7.431356    196.31469   0.02699597  0.027213902            1 
  607000    1.0047497   -7.4485992    195.80595  0.026881651  0.027198006            1 
  608000    1.0031539   -7.4189243    195.59806  0.026808945  0.027182384            1 
  609000    1.0061435   -7.4488881    196.36368  0.026869688  0.027166292            2 
  610000   0.99696775   -7.4459195    196.06899  0.026785381  0.027150214            3 
  611000   0.99480389   -7.4238693    196.42914  0.026790663  0.027133766            4 
  612000    1.0068929   -7.4399038    196.24857    0.0267223  0.027117459            3 
  613000    1.0263915   -7.4277422     196.3389  0.026690987  0.027101008            4 
  614000     1.011808   -7.4284464    197.14139  0.026756432  0.027084412            2 
  615000    1.0094812   -7.4378185    196.59738  0.026639211  0.027067818            3 
  616000    1.0108437   -7.4690874     197.2137  0.026679343   0.02705141            2 
  617000    1.0043442   -7.4374217    197.37635  0.026658071   0.02703503            2 
  618000    1.0321406   -7.4313708    197.89168  0.026684422  0.027018494            2 
  619000    1.0135993   -7.4116972    198.11513  0.026671396  0.027002009            2 
  620000    1.0240225   -7.4099475     198.2973  0.026652864  0.026985815            2 
  621000    0.9856538   -7.4093351    198.55195  0.026644116  0.026969785            2 
  622000     1.038469   -7.4441486     199.1278   0.02667843  0.026953535            3 
  623000    1.0112186   -7.4661748    198.63994  0.026570351  0.026937388            3 
  624000    1.0090474   -7.4478702    199.14488  0.026595202  0.026920983            1 
  625000     1.023797   -7.4506705    198.89164  0.026518885  0.026904211            3 
  626000   0.99527979   -7.4538676    198.74564  0.026457087  0.026887695            4 
  627000   0.98181506   -7.4578301    198.73424  0.026413375  0.026870967            2 
  628000    1.0232136   -7.4695712    199.63727  0.026491146  0.026853841            1 
  629000    1.0229017   -7.4386282    199.97377  0.026493611  0.026837149            2 
  630000    1.0024746   -7.4749368    199.21104  0.026350667  0.026819958            2 
  631000    1.0047789   -7.4352723    200.56187  0.026487304  0.026803117            1 
  632000    1.0151613   -7.4786297    200.49059  0.026435995  0.026786347            1 
  633000   0.98024474   -7.4344449    200.54843  0.026401847  0.026769862            2 
  634000   0.97249466   -7.4662571    200.93934  0.026411585  0.026753324            1 
  635000   0.96860441   -7.4597545    200.80825  0.026352789  0.026736453            4 
  636000   0.99420023   -7.4183439    200.67005  0.026293246  0.026719673            3 
  637000   0.99506839    -7.466167    200.58255  0.026240522  0.026702484            3 
  638000   0.97687718   -7.4632559    201.11272  0.026268641  0.026685274            2 
  639000   0.98233506   -7.4282944     201.9974  0.026342905  0.026668298            2 
  640000    1.0037655   -7.4757095    202.21784  0.026330447   0.02665144            1 
  641000    1.0016353   -7.4388054    201.79536  0.026234447  0.026634504            2 
  642000   0.99635866   -7.4511059    202.16774  0.026241919   0.02661738            2 
  643000   0.99035355   -7.4773995    202.53369  0.026248534  0.026600199            1 
  644000   0.98707885    -7.437811     202.5365  0.026208139   0.02658323            4 
  645000   0.98269134   -7.4761856    202.87048  0.026210656  0.026566357            3 
  646000   0.97472799   -7.4463832    203.53934  0.026256365  0.026549645            5 
  647000   0.98278445    -7.421464    203.10333  0.026159625  0.026532903            1 
  648000   0.97062164   -7.4650933    202.69795  0.026067124  0.026515876            4 
  649000   0.98681097   -7.4685903     203.6478  0.026148921  0.026498707            1 
  650000    0.9876602   -7.4355011    203.54889  0.026096011  0.026481747            1 
  651000   0.98833154   -7.4583065    203.62214  0.026065302  0.026464747            2 
  652000    1.0022677    -7.411522     204.2115  0.026100651  0.026448093            2 
  653000   0.98940381   -7.5234309    203.96404  0.026029102  0.026431243            1 
  654000   0.98477391   -7.4734894      204.102  0.026006881  0.026414171            3 
  655000   0.97718838   -7.4711764    204.37399  0.026001779  0.026397334            1 
  656000   0.97996996   -7.4601046    205.43948  0.026097494  0.026380674            1 
  657000    1.0019586    -7.483499    204.54392   0.02594418  0.026363896            1 
  658000   0.98551172   -7.4314757    204.92793  0.025953385  0.026346853            2 
  659000    0.9847238   -7.4878311    205.09583  0.025935235  0.026329683            5 
  660000   0.99817069    -7.452075    205.50711  0.025947868  0.026312457            1 
  661000    1.0161876   -7.4681987    205.40039  0.025895158  0.026295177            1 
  662000   0.98402014   -7.5105831     205.7345  0.025898099  0.026278079            1 
  663000    1.0083857   -7.5388483    205.41559  0.025818953  0.026260632            1 
  664000    1.0016578    -7.498904    205.88216  0.025838624  0.026243338            1 
  665000    1.0262754   -7.4833548    206.41726  0.025866825  0.026226121            3 
  666000   0.98340322    -7.469781    206.09161  0.025787238  0.026208733            1 
  667000    1.0072128   -7.5477517    205.28878  0.025648274  0.026191071            2 
  668000   0.98815816   -7.4810782    206.37816  0.025745779  0.026173571            1 
  669000   0.98212417   -7.4857741    206.59102  0.025733809  0.026156223            2 
  670000   0.97423231   -7.4722591    207.24569  0.025776827   0.02613923            3 
  671000   0.99155184   -7.4657086    207.62916  0.025786035  0.026122256            2 
  672000    0.9930847    -7.485931    207.10616  0.025682807  0.026105255            1 
  673000   0.99219907    -7.465875    207.70801  0.025719169  0.026088186            2 
  674000   0.96602331   -7.4666859    207.77406  0.025689177  0.026070797            2 
  675000   0.97984405   -7.4698082    207.48187  0.025615046   0.02605337            1 
  676000   0.98856434   -7.4769337     207.3172  0.025556854  0.026035745            2 
  677000    1.0045596   -7.5023291    207.95583  0.025597715  0.026018072            2 
  678000   0.96142336   -7.5091086    207.97121   0.02556185  0.026000609            1 
  679000   0.97557481   -7.5065853    207.78326  0.025501137   0.02598328            2 
  680000     0.976841    -7.487414    208.52442  0.025554463   0.02596575            3 
  681000   0.97755012   -7.4723363     208.9903  0.025573947  0.025948318            3 
  682000   0.99807408   -7.4953706    208.53496  0.025480811  0.025930892            3 
  683000   0.97234008   -7.5116526    209.23955  0.025529472  0.025913352            3 
  684000   0.98435364   -7.4809863    208.96144  0.025458265  0.025896153            1 
  685000   0.96098531   -7.4952898    209.30713  0.025463155  0.025878723            2 
  686000   0.96939251   -7.5210449    209.21002  0.025414239  0.025861244            1 
  687000   0.99416341   -7.5099114    209.84675  0.025454482  0.025843636            1 
  688000   0.98590678   -7.4941827    209.75986   0.02540696  0.025826279            1 
  689000    1.0019351   -7.5100614    209.72541  0.025365918  0.025808748            2 
  690000   0.98860018   -7.5541648      209.683  0.025324033  0.025790965            1 
  691000   0.97179584     -7.48055     210.7351  0.025414267  0.025773356            1 
  692000    0.9754946    -7.489556    210.65207  0.025367543  0.025755919            3 
  693000   0.96615649   -7.5094549    210.69553  0.025336163  0.025738517            3 
  694000   0.97503101   -7.4985001    211.19716  0.025359889  0.025721072            3 
  695000    0.9947257   -7.5358446     209.8238  0.025158729  0.025703622            2 
  696000   0.96157992   -7.5078275    211.52099  0.025325789  0.025685924            1 
  697000    0.9709453   -7.5268511    211.37536  0.025272042   0.02566858            2 
  698000   0.96621585   -7.4971304    212.00749  0.025311305  0.025651232            2 
  699000   0.98369247   -7.5299257    211.98435  0.025272336  0.025633996            1 
  700000   0.98842321   -7.5184017     212.3958  0.025285214  0.025616978            1 
  701000   0.97080661   -7.5117975    212.68352  0.025283348  0.025600167            2 
  702000    0.9791656   -7.5381808    212.92909  0.025276482  0.025583141            4 
  703000   0.97155588    -7.525494    212.97056  0.025245443  0.025566214            3 
  704000   0.96022243   -7.5036129    213.13519  0.025229071  0.025549219            1 
  705000   0.96608382   -7.4869221    213.41116  0.025225905  0.025532378            1 
  706000   0.97445349   -7.5246734    213.20054  0.025165314  0.025515532            1 
  707000   0.98277924   -7.5290139    213.70704   0.02518942  0.025498634            1 
  708000   0.96870025   -7.5010378    213.51553    0.0251313  0.025482086            3 
  709000   0.96581159   -7.5299433    214.16951  0.025172721  0.025465467            1 
  710000   0.96986729   -7.5403714     213.5102  0.025059883   0.02544879            5 
  711000   0.95253864   -7.5332938    213.86482  0.025066201  0.025431718            1 
  712000   0.98750849   -7.5366254    214.67676  0.025126025  0.025414965            2 
  713000   0.96733179   -7.5001386    215.19794  0.025151699  0.025398429            1 
  714000   0.97347156   -7.5255869    214.74897  0.025064072  0.025381789            1 
  715000   0.96574383   -7.5286581    214.54642  0.025005411  0.025364911            1 
  716000   0.96856159   -7.5346922    215.52692  0.025084604  0.025348134            3 
  717000   0.96350008   -7.5293257    215.26271   0.02501891  0.025331324            2 
  718000   0.97601376    -7.522222    214.95812  0.024948714  0.025314125            3 
  719000   0.96569541   -7.5383371     215.4024  0.024965508  0.025297146            2 
  720000    0.9546357   -7.5322139     215.5042  0.024942615  0.025280443            4 
  721000   0.97316762   -7.5323655    216.56286  0.025030381  0.025263737            2 
  722000   0.96058508    -7.492302    216.27838  0.024962878  0.025247085            5 
  723000   0.94994788   -7.5628642    215.88707  0.024883249  0.025230372            2 
  724000   0.98211994   -7.5281224     216.2066  0.024885658  0.025213602            2 
  725000    0.9853815   -7.5614099    216.82107  0.024921962   0.02519681            2 
  726000   0.96088834   -7.5478161    216.32834  0.024831077  0.025180085            1 
  727000   0.98059525    -7.532028    216.80034  0.024851025  0.025163285            1 
  728000   0.95547853   -7.5467859    216.65334  0.024800061   0.02514659            1 
  729000   0.97458946   -7.5108253    217.32128  0.024842396  0.025130037            2 
  730000   0.95170963   -7.5424219    217.73986  0.024856148  0.025113611            2 
  731000   0.96380668   -7.5548423    217.88534   0.02483873  0.025097287            1 
  732000   0.95831682   -7.5558049    217.93513  0.024810466  0.025081023            2 
  733000   0.95975662   -7.5475652    218.51632  0.024842692  0.025064764            1 
  734000   0.96122757   -7.5521783    219.40581  0.024909833  0.025048743            1 
  735000   0.96906488   -7.5630701    219.70496   0.02490986  0.025032633            2 
  736000   0.95198391   -7.5423564    218.99752  0.024795915  0.025016582            2 
  737000   0.95605359   -7.5574376    218.72711  0.024731694  0.025000414            1 
  738000   0.95556606   -7.5290957    220.03693  0.024846086  0.024984232            4 
  739000   0.96530667   -7.5891074    219.60573   0.02476384  0.024968449            2 
  740000    0.9608935   -7.5115724    220.92284  0.024878698  0.024952694            3 
  741000   0.94149008   -7.5247789     220.7746  0.024828453  0.024937249            1 
  742000   0.94571606   -7.5418428    220.83964  0.024802296  0.024921807            1 
  743000   0.94354494   -7.5472037    220.87542  0.024772928  0.024906038            2 
  744000   0.97894319   -7.5586112    220.73708  0.024724136  0.024890415            3 
  745000   0.96371525   -7.5735161     221.4207  0.024767416  0.024874512            2 
  746000   0.96426953   -7.5389763    221.45108   0.02473761  0.024858963            3 
  747000   0.96152955   -7.5660964    221.07961  0.024663053  0.024843469            2 
  748000   0.96357673   -7.5362294    222.03345  0.024736347  0.024827718            2 
  749000   0.95589732   -7.5276916     221.3916  0.024631909  0.024812142            1 
  750000     0.961903   -7.5808403    221.61618   0.02462402  0.024796588            2 
  751000   0.96559443   -7.5281542    222.01579  0.024635573  0.024780907            1 
  752000   0.95348932   -7.5725527    222.08676  0.024610679  0.024765167            2 
  753000    0.9538554   -7.5412965      222.298  0.024601373  0.024749663            2 
  754000   0.94172849   -7.5775643    221.70741  0.024503471  0.024733853            2 
  755000   0.96028969   -7.5991327    222.18262  0.024523468  0.024718067            1 
  756000   0.95931147   -7.5496483    223.34131  0.024618752  0.024702535            2 
  757000    0.9443172   -7.5840304    223.74932  0.024631145  0.024687279            2 
  758000   0.92252369   -7.5647204    223.91093  0.024616417  0.024672087            3 
  759000   0.94556774   -7.5532783    223.49831  0.024538681  0.024656973            3 
  760000   0.94366693   -7.5631285    224.37229  0.024602224  0.024642002            2 
  761000   0.97147998   -7.5664498     224.1286  0.024543211  0.024627033            2 
  762000   0.94782423   -7.5950324    224.62118  0.024564871  0.024611907            1 
  763000   0.93735515   -7.6240785    223.53742   0.02441431  0.024596652            1 
  764000   0.95496904   -7.5946646    224.65296  0.024504031  0.024581111            2 
  765000   0.93551901    -7.596936    224.21085   0.02442384  0.024565755            2 
  766000   0.95548007   -7.5710869    224.60844  0.024435209  0.024550524            2 
  767000   0.96259251   -7.5964555    224.46556  0.024387827  0.024535261            4 
  768000   0.93499407   -7.5921718    225.20024   0.02443579  0.024519981            2 
  769000   0.95097127   -7.5620395    225.30375  0.024415231  0.024504544            1 
  770000   0.93441073     -7.56899    225.67761  0.024423984  0.024489111            5 
  771000    0.9507608   -7.5752424    225.29504  0.024350956  0.024473757            2 
  772000   0.94455381    -7.596317    225.54901  0.024346828  0.024458136            1 
  773000   0.96265217   -7.5718364    225.62575  0.024323604   0.02444276            2 
  774000   0.94854141   -7.6151121    226.07528  0.024340577  0.024427324            3 
  775000   0.95313473   -7.5826575    226.44246  0.024348652  0.024412019            2 
  776000   0.93897325    -7.599502    226.16154  0.024287107  0.024396658            2 
  777000   0.94606375   -7.5680435     226.4246  0.024284063  0.024381376            1 
  778000   0.94134631   -7.6046268    225.98563   0.02420583  0.024365804            3 
  779000   0.93327236   -7.6057139    225.89233  0.024164777  0.024350146            2 
  780000   0.94143189   -7.6081717    225.98616  0.024143821  0.024334311            1 
  781000   0.92728107   -7.5770134    226.27253  0.024143462  0.024318489            2 
  782000   0.96472512   -7.6367246    226.16246  0.024100858  0.024302524            7 
  783000   0.95559951   -7.6147262    226.31767  0.024086597   0.02428632            1 
  784000   0.94284051   -7.6012854    227.29691  0.024159961  0.024270337            2 
  785000   0.93829171   -7.5995739    226.57105  0.024052129  0.024254453            3 
  786000   0.91566803   -7.6085907    226.75022  0.024040523  0.024238615            1 
  787000   0.94652054   -7.5704822     227.1651  0.024053907  0.024222823            2 
  788000   0.94407563   -7.5986885    228.08682  0.024120857    0.0242072            2 
  789000   0.92071486   -7.6197842    227.66355   0.02404558  0.024191626            2 
  790000   0.94179897   -7.6008559    228.07314  0.024058348  0.024176158            2 
  791000    0.9431731   -7.6099285    227.83662  0.024003015  0.024160855       -1e+20 
  792000   0.93125661   -7.6007158    228.28832  0.024020236  0.024145508            2 
  793000   0.91422858   -7.6308589    228.44073  0.024005961  0.024130034            2 
  794000   0.95897985   -7.6022764    228.53233  0.023985341  0.024114755            2 
  795000   0.93988464   -7.6099201    228.81556   0.02398486  0.024099318            1 
  796000   0.94718105   -7.6321392    228.43124  0.023914494  0.024083725            2 
  797000   0.93160421   -7.6255369    229.23123  0.023968134  0.024068004            2 
  798000   0.94273796   -7.6290696    229.25562  0.023940645   0.02405237            1 
  799000   0.92903075   -7.6240758    228.48648  0.023830463  0.024036819            3 
  800000   0.92971286   -7.5952596    228.87389   0.02384103  0.024021025            3 
  801000   0.94044248   -7.6265378    229.41134  0.023867181  0.024005393            2 
  802000   0.94306133   -7.6169409    230.01209  0.023899843  0.023990078            2 
  803000   0.90572732   -7.6093599    229.78399  0.023846408  0.023974707            1 
  804000   0.93437958   -7.6169654    230.23833   0.02386384  0.023959429            2 
  805000   0.94742403   -7.5709072    230.51568  0.023862907  0.023944174            3 
  806000   0.92286662   -7.5907007    231.35916  0.023920509  0.023928881            3 
  807000   0.91356839   -7.5979459    230.57654  0.023810051  0.023913517            2 
  808000   0.93065759   -7.6016046    230.56899  0.023779805   0.02389808            2 
  809000    0.9355441    -7.594408    230.87492  0.023781924  0.023882483            2 
  810000   0.92828655   -7.6129419    230.75949  0.023740688  0.023867018            4 
  811000   0.93020971   -7.6540568    230.76173  0.023711645  0.023851254            3 
  812000   0.91162873   -7.6198146    231.75044  0.023783912  0.023835727            1 
  813000   0.93603833    -7.574278    231.66979  0.023746391  0.023820413            1 
  814000   0.90472822    -7.631978    230.84936  0.023633227  0.023804892            1 
  815000   0.92900675   -7.6281324    230.90317  0.023609731  0.023789073            4 
  816000    0.9016526   -7.6342138    230.81075  0.023571359  0.023773304            1 
  817000   0.91765123   -7.6253012    231.44808  0.023607515  0.023757343            6 
  818000   0.94078161   -7.6432627    231.22434  0.023555862  0.023741463            3 
  819000   0.92312851   -7.6385728    231.60407  0.023565737  0.023725508            2 
  820000   0.92461511   -7.6340736    231.83319  0.023560283  0.023709491            4 
  821000   0.92033371     -7.64931    231.29036  0.023476488  0.023693596            1 
  822000   0.90339003   -7.6422565    231.45616  0.023464736  0.023677378            3 
  823000    0.9544043   -7.6714936     232.0402  0.023495363   0.02366124            1 
  824000   0.91103656   -7.6230282    231.71162  0.023433618  0.023645173            3 
  825000   0.93227853   -7.6554077    231.90544  0.023424792  0.023629035            1 
  826000   0.93498656   -7.5983803    232.42612  0.023448963  0.023612806            1 
  827000   0.91200587   -7.6624428    231.94119  0.023371744  0.023596623            4 
  828000   0.92216002   -7.6608368    231.79485   0.02332879  0.023580458            4 
  829000   0.92856799   -7.6119521    232.01505  0.023322784  0.023564101            2 
  830000   0.91332237   -7.6347797    232.33149  0.023326455   0.02354776            3 
  831000   0.91214882   -7.6447486    232.12811  0.023277989  0.023531307            2 
  832000   0.89622761     -7.60907    232.82445  0.023319757  0.023515059            2 
  833000   0.91250747   -7.6461846    232.96223  0.023305545  0.023498792            1 
  834000   0.90644788   -7.6763659    232.52477   0.02323389  0.023482477            3 
  835000    0.9211035   -7.6533218    232.48418  0.023202014  0.023465858            4 
  836000   0.90788744   -7.6619972    232.83257  0.023208988   0.02344932            2 
  837000   0.92268348   -7.6284764    233.06954  0.023204852  0.023433023            1 
  838000     0.930752   -7.6116584     233.9537  0.023265085  0.023416783            3 
  839000   0.89864996   -7.6318238    233.07373  0.023149953  0.023400636            2 
  840000    0.9093713   -7.6586007    233.18117  0.023133052  0.023384329            1 
  841000   0.90243512   -7.6848952    233.45735  0.023132912  0.023368049            1 
  842000   0.91415318   -7.6445476    233.96683  0.023155862  0.023351836            2 
  843000   0.92747431   -7.6445555    233.96502  0.023128215  0.023335479            2 
  844000   0.93339286    -7.664889    233.81981  0.023086474  0.023319082            3 
  845000   0.94398938   -7.6401289    233.82015  0.023059187   0.02330258            2 
  846000   0.92639238   -7.6497548    234.19434  0.023068789  0.023286074            2 
  847000    0.9429097   -7.6785844    234.11418  0.023033666  0.023269538            1 
  848000   0.91223894   -7.6493554    233.43196  0.022939461  0.023252931            2 
  849000   0.94023065   -7.6678774    234.43504  0.023010899  0.023236164            1 
  850000   0.92995829   -7.6503772     234.1302  0.022953941  0.023219238            2 
  851000   0.91118086    -7.659596    234.58637  0.022971638   0.02320236            2 
  852000   0.92211762   -7.6639459    234.71573  0.022957329  0.023185641            2 
  853000   0.92759931   -7.6569991    234.62176  0.022921235  0.023169189            2 
  854000   0.90416703   -7.6598627    235.46117  0.022976305  0.023152687            2 
  855000   0.91843753    -7.684422    235.10433  0.022914652   0.02313616            3 
  856000   0.91755567   -7.6433523    235.64198  0.022940224  0.023119711            4 
  857000   0.90473964   -7.6411191    235.55139  0.022904647  0.023103184            4 
  858000   0.91631114   -7.6502003    235.85081  0.022907033  0.023086613            3 
  859000   0.92697478   -7.6729517     235.5697  0.022853095  0.023070186            1 
  860000   0.89759561   -7.6843255    235.13373  0.022784276  0.023053627            1 
  861000    0.9087068   -7.6973182    235.97087  0.022838838  0.023036917            3 
  862000   0.92099601   -7.6874878    235.60986  0.022777442   0.02302019            3 
  863000   0.90568397   -7.6841917    236.09131  0.022797538  0.023003823            1 
  864000   0.92559245   -7.6987763    235.48031  0.022712221  0.022987384            2 
  865000   0.89312966   -7.7053722    236.11034   0.02274666  0.022970792            3 
  866000   0.90729113   -7.6953636    235.94062  0.022704063  0.022954213            3 
  867000   0.92164285   -7.6800444    236.14367  0.022697392  0.022937551            2 
  868000   0.91371474   -7.6833796    236.45008  0.022700661  0.022920934            1 
  869000    0.9147876   -7.6735418    236.46138  0.022675621  0.022904403            2 
  870000    0.9051767   -7.6966134    237.03714  0.022704707  0.022887937            2 
  871000   0.92107995   -7.6988593    237.07816  0.022682564   0.02287141            3 
  872000   0.88194115   -7.6476302    237.50284  0.022697137  0.022855143            4 
  873000   0.90748589   -7.6241303    237.48605  0.022669535  0.022839091            2 
  874000   0.91767117   -7.6862949    237.80263  0.022673782  0.022822933            2 
  875000   0.91224259   -7.6861462     237.2349    0.0225938  0.022806592            3 
  876000   0.88808567   -7.7195154    237.77677  0.022619555  0.022790296            1 
  877000   0.91963406   -7.6946542    237.71266  0.022587672  0.022774015            2 
  878000   0.89088896   -7.6805659    237.88664  0.022578459  0.022757776            3 
  879000   0.90935456   -7.7010096    238.19534  0.022582039  0.022741612            1 
  880000   0.91422144   -7.6775737    238.39803  0.022575571  0.022725337            1 
  881000   0.90116383   -7.7042812    238.73101  0.022581443  0.022709211            3 
  882000   0.90051321    -7.672914    239.08641  0.022589419  0.022693189            2 
  883000   0.92332357   -7.6728775    238.88963  0.022545265  0.022677058            5 
  884000   0.90862478   -7.6832715    239.23502  0.022552321  0.022661203            1 
  885000    0.9011021   -7.6995925    239.02366  0.022506936  0.022645147            5 
  886000   0.89419344   -7.7226977    238.52296   0.02243444  0.022628867            1 
  887000   0.91480009   -7.6984185    239.07541   0.02246105  0.022612549            4 
  888000   0.88972696   -7.6738701    239.26405  0.022453458  0.022596338            2 
  889000   0.90681463    -7.654873    239.22684  0.022424713  0.022579975            1 
  890000   0.89152222   -7.6942736     238.9057  0.022369448  0.022563744            1 
  891000   0.91381571   -7.7232037     238.7229  0.022327244  0.022547272            3 
  892000   0.90892135   -7.6943241    238.32363  0.022264914  0.022530754            2 
  893000   0.90389593   -7.6706082    238.89269  0.022293084  0.022514146            2 
  894000   0.90682723   -7.7064855    238.90746  0.022269525  0.022497659            1 
  895000   0.90389171   -7.7283859    238.94839  0.022248453  0.022481051            6 
  896000   0.89276105   -7.6957353    239.38981  0.022264677  0.022464573            5 
  897000   0.90448207   -7.7302038    239.19138  0.022221421  0.022448079            1 
  898000    0.8782765   -7.7043649    239.22876  0.022200145   0.02243167            2 
  899000   0.88404069   -7.7093106    239.48056  0.022198792  0.022415206            6 
  900000    0.8856922   -7.7370649    240.16373  0.022237383  0.022398898            4 
  901000   0.87663515   -7.7411863    239.92732  0.022190836  0.022382634            2 
  902000   0.89431824   -7.7228356     240.8269  0.022249344  0.022366321            3 
  903000    0.8837139   -7.7413858    240.51144  0.022195593  0.022350178            1 
  904000   0.89986612   -7.7020997    240.87912  0.022204934  0.022334177            2 
  905000   0.86935234   -7.7109868     241.7112  0.022257016  0.022318217            1 
  906000   0.91083766   -7.7116082    241.09631  0.022175894  0.022302448            1 
  907000   0.88708174   -7.7256731    241.78877  0.022215065  0.022286766            1 
  908000    0.9005745    -7.679211    241.95343  0.022205712  0.022271066            1 
  909000   0.90401841   -7.7291822    241.41209  0.022131655  0.022255284            2 
  910000   0.88795184   -7.7298226    241.38539  0.022104889  0.022239338            4 
  911000   0.88237586   -7.7351608    241.86933  0.022124893  0.022223512            1 
  912000   0.90405062   -7.7411707    242.26613  0.022136891  0.022207692            3 
  913000   0.91041415   -7.7579578    241.63228   0.02205479    0.0221919            1 
  914000   0.88927953   -7.7028199    242.07398  0.022070932   0.02217603            4 
  915000   0.88249865   -7.6727177    242.60775  0.022095424  0.022160209            1 
  916000   0.88803577    -7.722385    242.07458  0.022022797  0.022144429            2 
  917000   0.89589522   -7.7207494    242.50952  0.022038306  0.022128604            3 
  918000   0.89338828   -7.7533861    241.74207  0.021944632  0.022112632            1 
  919000   0.90079449   -7.7329443    242.25038  0.021966846  0.022096576            3 
  920000   0.88891371   -7.7085833     242.5063   0.02196615   0.02208074            4 
  921000    0.8864139   -7.6944729    243.48921  0.022031235  0.022064958            1 
  922000   0.88468915   -7.7249017     243.2672  0.021987274  0.022049321            2 
  923000   0.89926581   -7.7641591    243.03324   0.02194233  0.022033479            1 
  924000   0.87474675   -7.7288035     242.8803  0.021904789  0.022017507            1 
  925000   0.87625655   -7.7441123     242.8388  0.021877369  0.022001542            3 
  926000   0.88066635   -7.7187647    242.67774  0.021839249  0.021985605            2 
  927000   0.90345293   -7.7054397      243.287  0.021870461  0.021969704            2 
  928000   0.88838451   -7.7491403     242.9997  0.021821094  0.021953906            1 
  929000   0.90041382   -7.7204778    243.87344  0.021875981  0.021938145            1 
  930000   0.87259424   -7.7312909    244.07461  0.021870484  0.021922427            2 
  931000   0.90087458   -7.7565269    243.81815  0.021824038  0.021906798            4 
  932000   0.86806564   -7.7578993    243.34815  0.021758597  0.021891084            1 
  933000   0.88524827   -7.7531891    244.15624  0.021807453  0.021875328            2 
  934000   0.87996329   -7.7242653    243.87414  0.021758935  0.021859578            4 
  935000    0.8899551   -7.7495531     243.9866  0.021745687  0.021843931            1 
  936000   0.88941538   -7.7319363    244.56524  0.021773971  0.021828268            2 
  937000   0.89103904   -7.7256656    245.02367  0.021791503  0.021812798            1 
  938000   0.89296431   -7.7169775    244.80764   0.02174908  0.021797111            3 
  939000   0.89047162   -7.7684713    244.61522  0.021708841  0.021781393            2 
  940000   0.87741508   -7.7547248    245.02472   0.02172205    0.0217657            2 
  941000   0.88220955   -7.7710606    244.26453  0.021631644  0.021750078            1 
  942000   0.88042214   -7.7599938    245.11646  0.021684046  0.021734376            2 
  943000   0.86784835   -7.7265439    244.43943  0.021601223  0.021718697            2 
  944000     0.888653   -7.7643268    245.58086  0.021679101  0.021703132            2 
  945000   0.87702147   -7.7400183    245.37574  0.021638073  0.021687506            1 
  946000   0.88342401   -7.7497337    245.89869  0.021661266  0.021672044            3 
  947000   0.86584315   -7.7527788    245.45106  0.021599002  0.021656544            3 
  948000   0.88765447   -7.7641395    245.71638  0.021599541  0.021641078            2 
  949000   0.90318498   -7.7715647     245.9348  0.021595961  0.021625746            2 
  950000   0.86530218   -7.7637751    245.98846  0.021577935  0.021610489            3 
  951000   0.85902197   -7.7320196    247.02991  0.021646504  0.021595104            5 
  952000    0.8851476   -7.7730959    246.34726  0.021564011  0.021579764            2 
  953000   0.87263615   -7.7485095    246.47126  0.021552226  0.021564543            1 
  954000    0.8874839    -7.770832    246.73517  0.021552688  0.021549185            2 
  955000   0.87087782   -7.7956023    245.83994  0.021452002  0.021533595            1 
  956000   0.87317903   -7.8042472    246.11444   0.02145349  0.021518023            2 
  957000   0.87914111   -7.7753024    245.71294  0.021396111  0.021502456            1 
  958000   0.88067632   -7.7566466    246.52103   0.02144407  0.021486785            4 
  959000   0.86225106    -7.815109    246.00727  0.021377065  0.021471012            3 
  960000   0.86946749   -7.7764309    245.94189  0.021349122  0.021455167            2 
  961000    0.8748464   -7.7881845    245.66119  0.021302566  0.021439137            3 
  962000   0.88555578   -7.7834981    245.91315  0.021302247  0.021423148            3 
  963000   0.86158129   -7.7689203    245.63736  0.021256262  0.021407216            1 
  964000   0.87463933   -7.7677536     246.5801  0.021315707  0.021391486            6 
  965000   0.86110713   -7.7748527     246.6368  0.021298515  0.021375964            3 
  966000   0.88105512   -7.7877005    246.84909   0.02129478  0.021360335            2 
  967000   0.86292047   -7.7679777    247.12568  0.021296594  0.021344558            1 
  968000   0.85231096   -7.7553711     247.2322  0.021283764  0.021328868            1 
  969000    0.8611279    -7.800269    247.10216  0.021250615  0.021313193            1 
  970000   0.86559912   -7.7788179    246.96553   0.02121697  0.021297357            4 
  971000   0.84482345   -7.7979208    247.15143  0.021211074  0.021281664            2 
  972000    0.8730011    -7.776688    247.28523  0.021200723  0.021265961            1 
  973000    0.8633207   -7.7727706     246.9454  0.021149828  0.021250199            2 
  974000   0.82753586   -7.8211037    247.01735   0.02113427  0.021234471            2 
  975000   0.85599496   -7.7860806    247.56922  0.021159763  0.021218688            2 
  976000   0.85418772     -7.81014    247.82378  0.021159818  0.021203034            2 
  977000     0.842819   -7.7768816     248.1465  0.021165686  0.021187482            3 
  978000   0.86078909   -7.7593676    248.10296  0.021140334  0.021171955            2 
  979000   0.86413679    -7.781232     248.8379  0.021181299  0.021156435            2 
  980000   0.85885494   -7.7754952    248.00071  0.021088496   0.02114095            2 
  981000   0.86988097   -7.7481368    248.08158  0.021073868   0.02112539            2 
  982000   0.83069239   -7.7818691    247.94343  0.021040685  0.021109828            2 
  983000   0.87153018   -7.7535505    248.03817  0.021027312  0.021094295            2 
  984000   0.87109905   -7.7817269    249.16223  0.021101138  0.021078825            3 
  985000   0.86195566   -7.8061122    248.18162  0.020996753  0.021063298            8 
  986000   0.87499638   -7.8152855     247.8109  0.020944126  0.021047693            2 
  987000   0.85434023   -7.8245734    248.47559  0.020979027  0.021032086            2 
  988000   0.84825221   -7.8047099     248.9006   0.02099364  0.021016561            1 
  989000   0.85455738   -7.8331633    248.73742  0.020958663  0.021001016            2 
  990000   0.87616446   -7.7731552    249.01432  0.020960801  0.020985556            2 
  991000   0.86292474   -7.8099332     248.6257  0.020906971  0.020970091            1 
  992000   0.86529809   -7.8125985    248.60278   0.02088397  0.020954761            1 
  993000   0.85916157   -7.8145993    249.22597  0.020915238  0.020939261            3 
  994000   0.84364945   -7.8089104    248.88404   0.02086553  0.020923717            3 
  995000   0.86865834   -7.7969669    249.49232  0.020895504  0.020908158            1 
  996000   0.84693487    -7.776493    249.76566  0.020897395  0.020892817            1 
  997000   0.83803392   -7.7852482    250.03616  0.020899044  0.020877518            2 
  998000   0.83831532   -7.7999014    249.87107  0.020864318  0.020862148            2 
  999000   0.85551065   -7.7876594    250.04626  0.020858046   0.02084684            1 
 1000000   0.85612095   -7.7978293    249.86632  0.020822193  0.020831462            2 
 1001000   0.85208472   -7.8141268    249.90127  0.020804302  0.020816092            1 
 1002000   0.87479208   -7.8053418    249.95116  0.020787688  0.020800677            1 
 1003000   0.84804641   -7.8687059     249.1964  0.020704254  0.020785021            3 
 1004000   0.84403574   -7.8339876    249.13406  0.020678457  0.020769304            2 
 1005000   0.86036677   -7.8133303    249.52315  0.020690145  0.020753563            2 
 1006000   0.83982554    -7.821756    250.05402  0.020713554   0.02073795            2 
 1007000   0.84662731   -7.8282795    249.75528  0.020668262  0.020722378            2 
 1008000    0.8396637   -7.7921189    250.64718  0.020721493  0.020706895            5 
 1009000   0.83929996   -7.7971274    250.90101   0.02072192  0.020691368            5 
 1010000   0.85285636   -7.7926322    250.20661   0.02064411  0.020675913            2 
 1011000   0.83468372   -7.8582068    249.68767  0.020580916  0.020660359            4 
 1012000   0.85831773   -7.8232899    250.66845  0.020641342  0.020644725            2 
 1013000   0.84820685   -7.8182451    250.12672    0.0205764  0.020629112            4 
 1014000   0.83957231   -7.8209374    250.66459  0.020600312  0.020613488            2 
 1015000   0.82866079   -7.8450434    250.50664  0.020567047  0.020597662            2 
 1016000   0.85308597   -7.8368864    250.07094  0.020511068  0.020581986            1 
 1017000   0.86784163   -7.8448113    249.87787  0.020475079  0.020566344            1 
 1018000   0.83074938   -7.8254597    250.95434  0.020543086  0.020550767            1 
 1019000   0.83926257   -7.8061221    250.52522  0.020487833  0.020535203            2 
 1020000   0.83643892   -7.8464674    250.53377  0.020468445  0.020519664            1 
 1021000   0.86021124   -7.8117807    250.77406   0.02046801  0.020504042            2 
 1022000   0.84524507    -7.810673     250.7817  0.020448606  0.020488506            2 
 1023000   0.84074026   -7.7869627    250.69474  0.020421533  0.020472955            1 
 1024000   0.85027659   -7.8229413       250.53  0.020388183  0.020457321            2 
 1025000   0.84037196   -7.8554822    250.45778  0.020362421  0.020441603            3 
 1026000   0.84297192   -7.8479393    250.75906  0.020367045  0.020425902            1 
 1027000   0.83877449    -7.839471    250.96053  0.020363562   0.02041024            1 
 1028000   0.84518492   -7.8422897    251.11271  0.020356089  0.020394508            1 
 1029000    0.8291527   -7.8595691    250.54288  0.020290159   0.02037881            2 
 1030000   0.84138763   -7.8567792    250.99758  0.020307248  0.020363148            2 
 1031000   0.85151132   -7.8132972    251.70219  0.020344503  0.020347642            3 
 1032000    0.8564035   -7.8120989     251.4244  0.020302358  0.020332181            5 
 1033000   0.84203156   -7.8157033     251.4969  0.020288553    0.0203167            2 
 1034000   0.83853272   -7.8449535     251.2901  0.020252265  0.020301155            2 
 1035000   0.86066016   -7.8491966    251.02537  0.020211383  0.020285505            2 
 1036000   0.84383057    -7.874067    251.52617  0.020232157  0.020269853            3 
 1037000   0.82671501   -7.8790457    251.29583  0.020194136  0.020254207            2 
 1038000   0.83248473   -7.8366676    251.53706  0.020194048  0.020238569            2 
 1039000   0.84393634   -7.8704147     251.2533  0.020151853  0.020222843            1 
 1040000   0.83623741    -7.860438    250.55822   0.02007678  0.020206995            2 
 1041000   0.83385922   -7.8827825    251.71509  0.020150103  0.020191279            1 
 1042000   0.83330129     -7.86207    251.51665  0.020114896  0.020175594            1 
 1043000   0.82976654   -7.8753925    251.64781  0.020106089  0.020159969            2 
 1044000   0.83007227   -7.8650399    251.54547  0.020078661  0.020144368            2 
 1045000    0.8421303   -7.8179711    252.40193  0.020127745  0.020128729            1 
 1046000   0.83085709     -7.85376    251.88622  0.020067417   0.02011313            1 
 1047000   0.82961401   -7.8548503    251.52751    0.0200197  0.020097327            2 
 1048000   0.84963043   -7.8425645    251.51319  0.019999458  0.020081529            1 
 1049000   0.83479976   -7.8646793    251.97008  0.020016689  0.020065742            1 
 1050000   0.83599181   -7.8321917    252.01275  0.020001012  0.020050044            2 
 1051000   0.83858304   -7.8494938     252.1202  0.019990501   0.02003432            4 
 1052000   0.83572048   -7.8574894    251.87602  0.019952156  0.020018572            3 
 1053000   0.83632473   -7.8940407    252.31236   0.01996774  0.020002848            2 
 1054000   0.82353111   -7.8220655    252.65529  0.019975908  0.019987245            2 
 1055000   0.82648081   -7.8358624    252.62923  0.019954916  0.019971669            3 
 1056000   0.84642407   -7.8496011    252.34632  0.019913693  0.019956138            2 
 1057000   0.84092442   -7.8307624    252.77644  0.019928764  0.019940585            1 
 1058000   0.84727028   -7.8792823    252.85709   0.01991628  0.019925045            3 
 1059000   0.84186131   -7.8771385    253.70884  0.019964498  0.019909523            2 
 1060000   0.82596459   -7.8856641    252.75077  0.019870344  0.019893948            3 
 1061000   0.84134918   -7.8764858      252.751  0.019851634  0.019878405            5 
 1062000   0.82546329   -7.8880263    253.21538   0.01986938  0.019862896            3 
 1063000   0.81972817   -7.8457802    252.81677  0.019819439  0.019847435            3 
 1064000   0.83518651   -7.8765209    252.48541  0.019774859   0.01983187            1 
 1065000   0.84353823   -7.8487822     253.3982  0.019827715  0.019816427            1 
 1066000   0.85135208   -7.8538634     253.2965  0.019801165  0.019801039            2 
 1067000   0.84501787   -7.8834753    253.65215  0.019810383   0.01978564            1 
 1068000   0.84366744   -7.8916686    253.96463  0.019816217  0.019770317            2 
 1069000   0.81682531   -7.8789479    253.61948  0.019770773  0.019754986            1 
 1070000   0.81245443   -7.8649143    253.66771  0.019756052  0.019739772            3 
 1071000   0.84955564   -7.8721717    254.32692  0.019788898  0.019724604            2 
 1072000   0.83599789   -7.8919165    254.36142  0.019773121  0.019709307            3 
 1073000   0.82378324   -7.8634246    254.41308  0.019758705  0.019694019            3 
 1074000   0.80548137   -7.8854503    254.30668  0.019732051  0.019678764            2 
 1075000   0.79515602   -7.9227205    253.66276   0.01966378  0.019663379            1 
 1076000   0.82500507   -7.9025538    254.40368  0.019702887  0.019648162            3 
 1077000   0.81982917   -7.8598757    254.46224  0.019689124  0.019632903            3 
 1078000    0.8287011   -7.8867053    254.15798  0.019647339   0.01961767            3 
 1079000   0.83372038   -7.8720155    254.87798  0.019684737  0.019602512            1 
 1080000   0.84171102   -7.9058837    254.12621  0.019608504  0.019587344            2 
 1081000   0.81768332   -7.8687389    255.07516  0.019663518  0.019572201            3 
 1082000   0.83132156     -7.90687    253.91691  0.019556139  0.019556933            2 
 1083000   0.82731803     -7.88066    254.54899  0.019586718  0.019541604            1 
 1084000   0.82837474   -7.8749256    254.56259  0.019569695  0.019526401            2 
 1085000   0.82132941   -7.8985299    253.81967  0.019494598  0.019511138            3 
 1086000   0.82325261    -7.883869    254.25128  0.019509767  0.019495817            2 
 1087000   0.82747106   -7.9069535     254.9266  0.019543591  0.019480486            1 
 1088000   0.81956564   -7.9148006     254.3354  0.019480346  0.019465094            5 
 1089000   0.81455257   -7.8891312    254.89129  0.019504996  0.019449759            1 
 1090000   0.83327797   -7.8970893    254.39875  0.019449446  0.019434558            3 
 1091000   0.79488655   -7.9068876    254.40281  0.019431929  0.019419282            6 
 1092000   0.82985936   -7.9076366    254.35475  0.019410467  0.019403997            1 
 1093000   0.82312257   -7.9174423    254.50276  0.019403992  0.019388724            2 
 1094000    0.8186293   -7.8871455    255.08121  0.019430317  0.019373469            3 
 1095000   0.81037671   -7.9301206    254.58268  0.019374633  0.019358231            1 
 1096000   0.80880721   -7.9055768    254.21402  0.019328925  0.019342946            2 
 1097000   0.81145202   -7.8997552    254.11078  0.019303462  0.019327709            1 
 1098000    0.8311296   -7.8944245     254.6308  0.019325349  0.019312472            2 
 1099000   0.81638175   -7.8958382    254.78511  0.019319466  0.019297259            1 
 1100000   0.82356544    -7.914786    254.65817  0.019292285  0.019282077            1 
 1101000   0.85099583   -7.8727313    255.53053  0.019340791  0.019266933            2 
 1102000   0.80954812   -7.8915879    255.18641  0.019297218  0.019251878            2 
 1103000   0.81846988   -7.9055336     255.6224  0.019312663  0.019236756            1 
 1104000    0.8141182   -7.9065619     254.9894  0.019247388  0.019221514            3 
 1105000   0.81843737   -7.9163681    254.96757  0.019228324  0.019206294            4 
 1106000   0.81264045   -7.9049331    254.91901  0.019207279  0.019191075            2 
 1107000   0.80479476   -7.9274767    255.94515  0.019267175  0.019175885            6 
 1108000   0.80668044    -7.927197    255.51671  0.019217563  0.019160868            1 
 1109000   0.82046428   -7.9228476    255.69579   0.01921369  0.019145781            2 
 1110000   0.79521797   -7.9179046    255.45808  0.019178534  0.019130689            2 
 1111000   0.79801591   -7.9451541    255.25332  0.019145914  0.019115635            3 
 1112000   0.82677545   -7.9171674    255.43032   0.01914196  0.019100584            2 
 1113000   0.80811016   -7.8866077    256.21131  0.019183237  0.019085561            3 
 1114000   0.81550591   -7.9628579    255.75417   0.01913182  0.019070518            6 
 1115000   0.80712473   -7.9572103    255.49993   0.01909566  0.019055406            2 
 1116000   0.80275571   -7.9480563    255.84872  0.019104594  0.019040302            2 
 1117000   0.80172405   -7.8974447     256.0811  0.019104827  0.019025157            2 
 1118000    0.8279954   -7.9477415    255.70034  0.019059357  0.019010055            2 
 1119000     0.805665   -7.9144914    255.81717  0.019051025  0.018994951            5 
 1120000   0.78865135   -7.9216565    256.05636  0.019051812   0.01897983            4 
 1121000   0.82710954   -7.9344974    256.26637  0.019050429  0.018964679            3 
 1122000   0.80742686   -7.9226682    256.41022  0.019044134  0.018949674            2 
 1123000    0.8050333   -7.9439387    256.27422  0.019017083  0.018934659            3 
 1124000   0.80179734     -7.89483    256.46232   0.01901411  0.018919607            3 
 1125000   0.81053799    -7.890783    257.00498  0.019037406  0.018904614            3 
 1126000   0.80292898   -7.9132875    256.00724  0.018946658  0.018889625            3 
 1127000   0.81571038   -7.9005076    256.71363  0.018982079  0.018874591            2 
 1128000   0.81059114   -7.9232305    256.45245  0.018945955  0.018859526            1 
 1129000   0.80505008   -7.9366887    256.74953  0.018951102  0.018844448            2 
 1130000   0.81588376   -7.9561496    255.71001   0.01885767  0.018829389            3 
 1131000   0.79197039   -7.9808747    256.16373  0.018874428  0.018814436            3 
 1132000   0.81507322   -7.9460942    256.51316  0.018883478  0.018799529            4 
 1133000   0.80357408   -7.9168148    256.92646   0.01889721  0.018784654            7 
 1134000   0.79626017   -7.9405606    257.02727  0.018887953  0.018769763            3 
 1135000   0.79043167   -7.9486371    256.88132  0.018860596  0.018754845            2 
 1136000   0.80920125   -7.9882388    256.66963  0.018828464   0.01873984            2 
 1137000   0.79576561   -7.9510992    256.19628  0.018777212  0.018724774            1 
 1138000    0.8013059   -7.9266855    257.32555  0.018843406  0.018709803            2 
 1139000   0.80548262    -7.956107    256.98756  0.018802134  0.018694906            1 
 1140000   0.80014682   -7.9556481     257.0894  0.018793085  0.018679977            6 
 1141000   0.78639074      -7.9187    256.65165  0.018744643  0.018665089            3 
 1142000   0.80446424   -7.9445549    256.64577    0.0187278  0.018650272            3 
 1143000   0.80696404   -7.9633506    256.83401  0.018725139  0.018635457            2 
 1144000   0.79102058   -7.9542221    256.86586  0.018711091  0.018620669            2 
 1145000   0.80312099   -7.9382149    257.53631  0.018743545  0.018605901            2 
 1146000   0.81299253   -7.9657958    257.06349  0.018692808  0.018591144            1 
 1147000   0.78239858   -7.9839559    257.25401  0.018690352  0.018576245            2 
 1148000    0.8129035   -7.9495642    257.26986  0.018675222  0.018561352            2 
 1149000   0.80405477   -7.9567495      257.148  0.018650131  0.018546457            1 
 1150000    0.7905757   -7.9753908    257.11661  0.018631639  0.018531527            1 
 1151000   0.79569111   -7.9661091    257.39968  0.018635946  0.018516613            2 
 1152000   0.79469963   -7.9765026    257.74648  0.018644855  0.018501744            1 
 1153000   0.78762045   -7.9830213    256.97998  0.018573286  0.018486872            4 
 1154000    0.8039879   -7.9665076    256.95504   0.01855539  0.018472051            2 
 1155000   0.80398439   -7.9358362    257.05482  0.018546524  0.018457179            2 
 1156000    0.7893294   -7.9538819     257.7553  0.018580976  0.018442343            2 
 1157000   0.78022368   -7.9639104    257.50322   0.01854676  0.018427551            2 
 1158000   0.80815053   -7.9749117    257.15642  0.018505787  0.018412709            5 
 1159000   0.78665264   -7.9812618    257.02503  0.018480373  0.018397914            2 
 1160000   0.77098483   -7.9994842    257.33449  0.018486673  0.018383067            1 
 1161000   0.79688513   -7.9694348    257.43868  0.018478229  0.018368218            3 
 1162000   0.78709663   -7.9836228    258.33058   0.01852629  0.018353457            3 
 1163000   0.80230993   -7.9822465    257.80578  0.018472756  0.018338708            4 
 1164000   0.77969712   -7.9707933    257.77487  0.018454673  0.018323944            3 
 1165000   0.79355321   -7.9760485    258.10744  0.018462621  0.018309283            3 
 1166000   0.80658983     -7.94362    257.89855  0.018431857    0.0182946            1 
 1167000   0.78558019   -8.0034189    257.59673  0.018394511  0.018279806            1 
 1168000   0.78684294   -7.9706264    258.10498  0.018415024  0.018265109            2 
 1169000   0.80733837   -7.9537594    258.78634  0.018447843  0.018250535            2 
 1170000   0.77321511   -7.9848307    257.88791  0.018368085  0.018235877            1 
 1171000   0.78532033   -7.9670716    258.49831  0.018395838  0.018221202            3 
 1172000   0.80930144   -7.9817623    257.79384  0.018330051  0.018206501            3 
 1173000   0.78444253   -7.9889169    258.10766  0.018336719  0.018191815            4 
 1174000   0.77241101   -8.0415177    258.15211  0.018324255  0.018177049            2 
 1175000   0.79627421   -7.9860533    258.37558  0.018324509   0.01816231            3 
 1176000   0.80111244   -7.9813263    257.97058  0.018280228   0.01814759            3 
 1177000    0.7817788   -7.9971314    258.29778  0.018287863  0.018132858            2 
 1178000   0.78526501   -7.9570222    258.18511  0.018264368  0.018118189            1 
 1179000   0.77547946   -7.9839939    257.70906  0.018215229  0.018103558            2 
 1180000   0.78031051    -8.013526    257.47477  0.018183246  0.018088925            2 
 1181000   0.78942067   -7.9977452    258.46528  0.018237742  0.018074316            1 
 1182000   0.78209638    -7.983151    258.59033  0.018231129  0.018059713            2 
 1183000   0.78743973    -7.995633    258.64829  0.018219801  0.018045146            2 
 1184000    0.7903382   -7.9944588    258.81459  0.018216117  0.018030511            3 
 1185000   0.77088777    -7.980543    258.63356  0.018188014  0.018015924            1 
 1186000   0.76693305   -8.0042091    258.11082  0.018135949  0.018001408            3 
 1187000   0.77586907   -7.9781204    258.30739   0.01813447  0.017986851            3 
 1188000   0.76639836   -7.9778909    259.03492  0.018170239  0.017972298            4 
 1189000   0.77620486   -8.0224889    258.49107   0.01811684  0.017957694            1 
 1190000     0.789867    -8.015012    258.53764  0.018104876   0.01794312            2 
 1191000   0.78290932   -8.0093937    259.25356  0.018139768  0.017928592            3 
 1192000   0.77796315   -7.9637946    259.01307  0.018107737  0.017914069            1 
 1193000    0.7638882   -8.0017999    258.39509  0.018049392  0.017899569            4 
 1194000   0.78385535   -7.9911523    259.00198  0.018076632  0.017885077            2 
 1195000   0.77220931   -8.0095149    259.40632  0.018089702  0.017870614            1 
 1196000   0.78209779   -8.0344487    258.77353  0.018030485  0.017856181            2 
 1197000   0.76887339   -8.0314073    258.79241  0.018016737  0.017841687            1 
 1198000   0.77662452   -7.9989652    258.72774    0.0179972  0.017827251            1 
 1199000   0.76378762   -8.0160898    258.99926  0.018001061  0.017812786            1 
 1200000   0.79049441    -8.007433    258.98331  0.017984952  0.017798359            1 
 1201000   0.76307555   -8.0372283    258.98815  0.017970313   0.01778386            2 
 1202000   0.77355374   -8.0233691    259.05951   0.01796031  0.017769345            1 
 1203000   0.78464516   -8.0168833    258.35716  0.017896728  0.017754857            2 
 1204000    0.7717749   -8.0481917    258.72025  0.017906994  0.017740328            2 
 1205000   0.76066652   -8.0218383      259.054  0.017915215  0.017725832            2 
 1206000    0.7851288   -8.0260641    258.92916  0.017891733  0.017711367            2 
 1207000   0.78602781   -8.0258656    259.17229  0.017893696  0.017696929            3 
 1208000   0.77151752   -7.9790307    259.67943  0.017913868  0.017682519            2 
 1209000   0.76803973   -7.9983963    259.40718  0.017880286  0.017668117            2 
 1210000   0.77382787   -8.0140449    259.50826   0.01787247  0.017653763            4 
 1211000   0.77392578   -8.0174377      259.896  0.017884393  0.017639337            5 
 1212000   0.75789619   -8.0374327    258.71249  0.017788262  0.017624786            4 
 1213000   0.78589152    -8.030765    259.73489  0.017843837  0.017610302            4 
 1214000   0.75472587   -8.0302723    259.18924  0.017791683  0.017595835            1 
 1215000   0.76506538   -8.0526473    258.62067  0.017738043  0.017581288            3 
 1216000   0.75402052    -8.048209    258.77263   0.01773387  0.017566718            3 
 1217000   0.76363606   -8.0426947    258.77968  0.017719781   0.01755219            5 
 1218000   0.75677649    -8.041038    258.85472  0.017710367  0.017537654            2 
 1219000   0.75263082   -8.0454599    258.77791  0.017690588  0.017523113            5 
 1220000   0.77504936   -8.0280997    259.39727  0.017718393  0.017508605            4 
 1221000   0.75917603   -7.9863119     259.7214  0.017726003  0.017494137            1 
 1222000   0.76010501   -8.0052653    259.03809    0.0176649  0.017479701            3 
 1223000    0.7693952   -8.0122227    259.01385  0.017648804  0.017465336            2 
 1224000   0.75424722   -8.0548733    258.61846  0.017607466  0.017450847            1 
 1225000   0.76896218   -8.0673556    258.69352  0.017598198  0.017436444            2 
 1226000   0.76020296    -8.025271    259.14298  0.017614395  0.017421988            1 
 1227000   0.76241956   -8.0844836    258.78834  0.017575953  0.017407507            5 
 1228000   0.78342272   -8.0522737    259.27458  0.017594638  0.017393075            3 
 1229000   0.75866039   -8.0633519    258.98079  0.017560401   0.01737863            3 
 1230000   0.77313278   -8.0793808    259.23217  0.017563155  0.017364205            4 
 1231000   0.76096942   -8.0285979    259.63071  0.017575867   0.01734979            2 
 1232000   0.75059159   -8.0570249    258.69442   0.01749827   0.01733536            3 
 1233000   0.76636625   -8.0613611    259.48997  0.017537846  0.017320951            3 
 1234000   0.77148158   -8.0611939    259.38794  0.017516743  0.017306505            2 
 1235000   0.76081272   -8.0922383    259.26078   0.01749398  0.017292115            2 
 1236000   0.76304231   -8.0612502    259.54177  0.017498771  0.017277722            4 
 1237000   0.76396926   -8.0374159    259.35047  0.017471737  0.017263384            1 
 1238000   0.75913267   -8.0316072    260.10228  0.017508231  0.017249081            3 
 1239000   0.75202887   -8.0784115    259.54178  0.017456402   0.01723478            2 
 1240000    0.7648125   -8.0486878    259.44805  0.017436025  0.017220528            3 
 1241000   0.76192879   -8.0325931     259.4757  0.017423832  0.017206295            1 
 1242000   0.74866354   -8.0407154    259.18962  0.017390608   0.01719208            1 
 1243000   0.77101604   -8.0347248    259.84194   0.01742035  0.017177882            2 
 1244000   0.75886689   -8.0547551    259.45474  0.017380409  0.017163698            3 
 1245000   0.74873688   -8.0535503    259.79667  0.017389335  0.017149509            2 
 1246000   0.74698059   -8.0175087    259.74697  0.017372056  0.017135349            2 
 1247000   0.74747177   -8.0577706    259.51808  0.017342828  0.017121139            2 
 1248000   0.76849858   -8.0526895    259.32187   0.01731583  0.017106958            1 
 1249000   0.75204521   -8.0614642    259.58286   0.01731938  0.017092734            2 
 1250000   0.75176735   -8.0557661    259.63755   0.01730917  0.017078495            2 
 1251000   0.74957204   -8.0713527    259.73299  0.017301691  0.017064227            1 
 1252000   0.75417301   -8.0796166     259.5846  0.017277995  0.017050003            3 
 1253000   0.75374634   -8.0604347    259.88623  0.017284267  0.017035804            2 
 1254000   0.75599965   -8.0529758    259.80233  0.017264908  0.017021652            2 
 1255000   0.75355854   -8.0593442    260.61495   0.01730511  0.017007566            1 
 1256000   0.73634034   -8.0367542    259.91775  0.017245074  0.016993478            3 
 1257000    0.7457816   -8.0826548    259.91884  0.017231427  0.016979352            5 
 1258000   0.75937272   -8.0686485    259.13173  0.017165589  0.016965195            1 
 1259000   0.75209927   -8.0765436    259.78356  0.017195099     0.016951            2 
 1260000   0.76588061   -8.0907373    260.07515  0.017200737  0.016936804            3 
 1261000   0.73541789   -8.0526232    259.81663  0.017170013  0.016922664            3 
 1262000   0.75058363   -8.0762589    260.03415  0.017170771  0.016908573            3 
 1263000   0.73353544   -8.0924359    259.91015  0.017148994  0.016894501            2 
 1264000   0.75949039   -8.0719711    260.19821  0.017154418   0.01688043            1 
 1265000   0.74747443   -8.0805626    259.73046  0.017110043  0.016866376            1 
 1266000   0.73450388   -8.0912842    259.82818  0.017102961  0.016852302            3 
 1267000   0.73884316   -8.0674655    259.79497  0.017087278  0.016838286            3 
 1268000   0.73675543   -8.0726384    260.07533  0.017092227  0.016824203            3 
 1269000   0.75399641   -8.0723719    260.33748  0.017095973  0.016810208            3 
 1270000   0.74043908   -8.0770165    260.29241  0.017079554  0.016796225            4 
 1271000   0.75356319   -8.0734333    260.03718  0.017049382  0.016782311            3 
 1272000   0.75030496   -8.0960663    259.64754  0.017010452  0.016768355            2 
 1273000   0.73012388   -8.1147534    259.55266  0.016990878  0.016754389            1 
 1274000   0.73882558   -8.0875513    260.70205  0.017052724  0.016740398            3 
 1275000   0.74484385   -8.0697363      260.426  0.017021307  0.016726447            1 
 1276000   0.74657018   -8.1234817    259.91153  0.016974368  0.016712448            2 
 1277000   0.72908779   -8.0947348    260.44899  0.016996149  0.016698486            1 
 1278000   0.73389751     -8.08709     260.7969  0.017005536    0.0166845            5 
 1279000   0.74268003   -8.0856022    260.64491  0.016982337  0.016670612            1 
 1280000    0.7468837   -8.0767546    261.07426  0.016997022  0.016656733            2 
 1281000   0.75713031   -8.0728159     261.4654  0.017009198  0.016642863            1 
 1282000   0.72681257   -8.0711546    261.07553  0.016970588  0.016629065            2 
 1283000    0.7520269   -8.0985742    260.43229  0.016915581  0.016615227            3 
 1284000   0.74091041   -8.1078279    260.31082  0.016894523  0.016601449            3 
 1285000   0.73144275   -8.0999271    260.75782  0.016910365  0.016587679            2 
 1286000   0.73748821   -8.1023429    260.58797  0.016886208  0.016573924            4 
 1287000   0.73988185   -8.1010088    260.56445  0.016871565  0.016560132            1 
 1288000   0.75389592   -8.1227693    260.48646   0.01685342  0.016546371            6 
 1289000   0.74235716   -8.1187203    260.69304  0.016853701   0.01653261            2 
 1290000   0.74727276   -8.1246758    260.56989   0.01683268  0.016518814            4 
 1291000    0.7233558   -8.0984617    260.15633  0.016792947  0.016504986            1 
 1292000   0.72698985   -8.1061612    260.59806  0.016808441  0.016491222            2 
 1293000   0.72975576   -8.1305847    260.74658  0.016805013  0.016477418            2 
 1294000   0.72810982   -8.0922034    260.91147  0.016802645  0.016463608            1 
 1295000   0.74814948   -8.1303726    260.82689  0.016784227  0.016449832            2 
 1296000   0.73016485   -8.1434841     260.0631  0.016722165  0.016436046            2 
 1297000   0.72968461   -8.1093677     260.3996  0.016730892  0.016422259            2 
 1298000   0.75411234   -8.0959837    261.25014  0.016772608  0.016408577            2 
 1299000   0.72634514   -8.1066522    261.19109  0.016755908  0.016394883            2 
 1300000   0.73320059   -8.1293078    260.81085  0.016718644  0.016381184            4 
 1301000   0.73880463   -8.1335161    260.46049  0.016683352  0.016367479            2 
 1302000   0.72478079   -8.1242235    261.05532   0.01670861  0.016353783            4 
 1303000   0.71690798   -8.0800519    261.68752  0.016736219  0.016340115            2 
 1304000   0.73543353   -8.1169255    261.02652  0.016681142  0.016326536            5 
 1305000    0.7353965   -8.0855255    261.13435  0.016675246  0.016312949            2 
 1306000   0.75023749   -8.1311985    260.44359  0.016618402  0.016299378            1 
 1307000   0.72483074    -8.155502    260.73546  0.016624296  0.016285783            1 
 1308000   0.70852072    -8.118721    261.44188  0.016656593  0.016272199            1 
 1309000    0.7399486   -8.1139917    261.49095  0.016646992  0.016258637            2 
 1310000   0.73735301   -8.1618906    260.64543  0.016580498  0.016245057            4 
 1311000   0.71271845   -8.1370392    260.94385   0.01658682  0.016231468            2 
 1312000   0.72205682   -8.1113849    261.52714  0.016611226  0.016217965            2 
 1313000   0.72896398   -8.1128941    260.75365  0.016549483  0.016204454            2 
 1314000   0.72744178   -8.1348594    261.15306  0.016562218  0.016190911            2 
 1315000    0.7338773   -8.1211505    261.27267  0.016557203   0.01617736            1 
 1316000   0.72907336   -8.1308116    260.56901  0.016500064   0.01616379            3 
 1317000   0.72482067   -8.1364478    261.03668  0.016517127  0.016150229            3 
 1318000   0.73255878   -8.1157868    260.94002  0.016498484  0.016136648            1 
 1319000   0.72867153    -8.121545    261.58894  0.016526974  0.016123068            2 
 1320000    0.7157333   -8.1327045     261.0481   0.01648031  0.016109534            2 
 1321000   0.73219511   -8.1364694    261.07738  0.016469681  0.016096017            3 
 1322000   0.72748021   -8.1481083    260.89404  0.016445666  0.016082488            3 
 1323000   0.71716173   -8.1235282    261.12317  0.016447668  0.016068932            3 
 1324000   0.73111843   -8.1606371    261.14065  0.016436345  0.016055385            1 
 1325000   0.74073086   -8.1432348    261.04186  0.016417727  0.016041851            1 
 1326000   0.72031982   -8.1683056    260.57165  0.016375795  0.016028309            3 
 1327000    0.7163344    -8.162964    260.72682  0.016373199  0.016014752            3 
 1328000   0.73665474   -8.1469318    260.97687   0.01637656  0.016001227            1 
 1329000   0.73968936   -8.1659025     260.3189  0.016322981  0.015987693            2 
 1330000   0.72229874   -8.1816215    260.14877  0.016300048  0.015974139            1 
 1331000   0.71216622    -8.133181     260.8656  0.016332682  0.015960587            3 
 1332000   0.72668027   -8.1679445    260.73426  0.016312203   0.01594706            2 
 1333000   0.72602628   -8.1501992    260.86591  0.016308196  0.015933552            2 
 1334000   0.72826103   -8.1310325      261.843  0.016357009  0.015920117            2 
 1335000   0.73207908   -8.1616434    261.70813  0.016336338  0.015906696            1 
 1336000   0.72473678   -8.1541805    260.94756  0.016276669  0.015893288            4 
 1337000   0.72860407   -8.1385747    260.97937  0.016266478  0.015879914            5 
 1338000   0.72854552   -8.1584349    260.49903  0.016224404  0.015866541            4 
 1339000   0.71605546   -8.1234686    261.14948  0.016252768  0.015853217            3 
 1340000   0.70994756   -8.1308923    261.36194  0.016253852  0.015839912            3 
 1341000   0.71359542   -8.1473399     261.1788  0.016230351  0.015826584            3 
 1342000   0.73514719   -8.1526772    261.73058   0.01625252  0.015813244            3 
 1343000   0.72574674   -8.1705706    261.29022  0.016213094  0.015799936            2 
 1344000   0.73030539   -8.1483362    261.15203  0.016192462  0.015786627            2 
 1345000   0.71194654   -8.1656244    261.46643  0.016199903  0.015773369            2 
 1346000   0.70721015   -8.1709433    261.52322  0.016191383  0.015760101            3 
 1347000    0.7160553   -8.1588849    261.86543  0.016200534  0.015746881            3 
 1348000   0.71990857    -8.166399    261.29083  0.016152994  0.015733652            3 
 1349000   0.70381345   -8.1486351    261.53772  0.016156271  0.015720506            4 
 1350000   0.71735763    -8.185574    261.56696  0.016146109  0.015707347            2 
 1351000    0.7118459   -8.1843005    261.21904  0.016112697   0.01569419            2 
 1352000   0.71961487   -8.1407495    261.37779  0.016110564  0.015681087            2 
 1353000   0.74822435   -8.1910987    261.95947  0.016134484  0.015667973            2 
 1354000   0.70888767   -8.1618183    261.78284  0.016111696  0.015654859            2 
 1355000   0.71309257   -8.1536047    262.14776  0.016122248  0.015641768            2 
 1356000   0.73239257   -8.1787564    261.72422   0.01608433  0.015628709            1 
 1357000   0.70290313   -8.1648755    261.92708  0.016084935  0.015615583            1 
 1358000   0.71080569   -8.1472514    261.54143  0.016049425  0.015602505            3 
 1359000    0.7186479   -8.1623286    261.86001  0.016057151  0.015589422            2 
 1360000   0.70851896   -8.1920519    261.81149  0.016042371  0.015576407            3 
 1361000   0.70905566   -8.1837901    261.45524  0.016008771  0.015563333            2 
 1362000   0.71416779   -8.1691348    261.92639  0.016025844  0.015550272            2 
 1363000   0.70941872   -8.1719499     261.8411  0.016008871  0.015537192            1 
 1364000   0.70348466   -8.1994262    261.77864  0.015993318  0.015524117            1 
 1365000   0.71412029    -8.191468    261.05549  0.015937454  0.015510982            3 
 1366000   0.71419255   -8.1936675    261.29551  0.015940429   0.01549791            2 
 1367000   0.70447856    -8.178359    261.31263  0.015929812  0.015484837            1 
 1368000   0.71209274   -8.1967992    261.16835  0.015909378  0.015471794            3 
 1369000   0.70966987   -8.2127746    261.78622  0.015935367  0.015458727            2 
 1370000   0.71971136   -8.2197285    261.55662   0.01590977  0.015445682            5 
 1371000   0.71800502   -8.2189946    262.05792  0.015928636  0.015432721            2 
 1372000   0.70169565   -8.1865076    261.87257  0.015905768  0.015419738            3 
 1373000   0.72129121   -8.2068526    261.78773  0.015889034  0.015406807            4 
 1374000   0.71748927   -8.2224715    261.41459  0.015854839  0.015393859            3 
 1375000   0.70071481   -8.2248724    261.38465  0.015841494  0.015380904            4 
 1376000    0.7068019   -8.2099778    262.01508  0.015868161  0.015367999            3 
 1377000   0.68072057   -8.2020815    261.74312  0.015840179  0.015355114            4 
 1378000   0.70189995   -8.1993047    262.22124  0.015857598  0.015342243            4 
 1379000   0.69896095   -8.2206308    261.86689  0.015824685  0.015329372            4 
 1380000   0.70845302   -8.2126129    261.66789  0.015801201   0.01531648            3 
 1381000   0.67843135   -8.2259687    261.85192  0.015800864  0.015303536            1 
 1382000   0.69307416   -8.2064059    261.75014  0.015783294  0.015290627            3 
 1383000   0.70023986   -8.2115903     262.1514  0.015796059  0.015277735            3 
 1384000   0.69707531   -8.2041838     262.1644  0.015785429  0.015264873            2 
 1385000   0.70423724   -8.2299214    261.69989  0.015746082  0.015251992            2 
 1386000   0.70504974   -8.1965441    261.99252  0.015752316  0.015239142            3 
 1387000   0.68900983   -8.2064357    261.67279  0.015721749  0.015226333            2 
 1388000   0.70293838   -8.2027477    262.21978  0.015743263  0.015213514            3 
 1389000   0.68585053   -8.2129807     261.9978   0.01571861  0.015200684            2 
 1390000   0.69615498   -8.2400661     262.9702  0.015765599    0.0151879            2 
 1391000   0.71933404   -8.1957004    262.00334  0.015696342  0.015175125            2 
 1392000   0.69373774   -8.1872065    262.25317  0.015700022  0.015162379            1 
 1393000   0.70148003    -8.201937    262.17144  0.015683862  0.015149666            3 
 1394000   0.69520577    -8.220103    262.77384  0.015708623  0.015136945            3 
 1395000   0.69492292   -8.2187394    262.08242  0.015656058  0.015124221            6 
 1396000   0.69760259   -8.2175168    262.34663  0.015660615  0.015111505            2 
 1397000   0.67618612    -8.218561    262.15766  0.015638133  0.015098815            4 
 1398000   0.70193584   -8.2112323    262.62619  0.015654876  0.015086142            3 
 1399000   0.69438448   -8.2104116    261.75635  0.015591872    0.0150735            3 
 1400000   0.69433008   -8.2148777    262.36939  0.015617226   0.01506086            2 
 1401000   0.68507166   -8.1790073    262.34478  0.015604615  0.015048209            2 
 1402000   0.71697297   -8.1978875    262.34007  0.015593204  0.015035627            2 
 1403000   0.67569091   -8.2138576    262.80029  0.015609426  0.015023049            4 
 1404000   0.68667277   -8.2243772    262.63688  0.015588609  0.015010493            3 
 1405000    0.6930278   -8.2235711     262.5134   0.01557019  0.014997952            3 
 1406000   0.70127704   -8.2120953    262.40519  0.015552702   0.01498538            2 
 1407000   0.70322601   -8.2248204    262.32725  0.015537032  0.014972845            1 
 1408000   0.70807509   -8.2132827    262.75267  0.015551176  0.014960285            1 
 1409000   0.69169559   -8.1876704    262.91996  0.015550033   0.01494774            2 
 1410000   0.68608712   -8.2078195    262.76542  0.015529871   0.01493518            6 
 1411000    0.6808375   -8.2281695    262.41777  0.015498333  0.014922595            1 
 1412000   0.69347388    -8.234768    261.84301  0.015453435  0.014909993            2 
 1413000   0.68332927     -8.22615    261.74184  0.015436532  0.014897385            1 
 1414000   0.68766912   -8.2353779    262.17217  0.015450976  0.014884808            2 
 1415000   0.68796698   -8.2318946    262.17243  0.015440073  0.014872225            3 
 1416000   0.68566069   -8.2633629    262.23023   0.01543257  0.014859659            4 
 1417000   0.68994192   -8.2219508    262.27584  0.015424361  0.014847133            2 
 1418000   0.68957926   -8.2355849    262.20863  0.015409534  0.014834615            4 
 1419000   0.67337008   -8.2365533    262.55868  0.015419232  0.014822087            1 
 1420000   0.68496972   -8.2275871    262.27154  0.015391522  0.014809564            3 
 1421000   0.67945861   -8.2364419    261.95965    0.0153624  0.014797012            3 
 1422000   0.69028252   -8.2401467    262.55503  0.015386488  0.014784486            2 
 1423000   0.69355472    -8.249567    261.61382  0.015320556   0.01477194            2 
 1424000   0.68567808   -8.2540438    261.44785  0.015300085  0.014759372            2 
 1425000   0.69679479   -8.2548708     262.3086  0.015339684  0.014746853            3 
 1426000   0.67528132   -8.2544431    261.79888   0.01529914  0.014734292            2 
 1427000   0.68059102   -8.2513074    262.04234  0.015302636  0.014721734            2 
 1428000   0.68049647   -8.2469405    261.85689  0.015281098  0.014709174            2 
 1429000   0.68038925    -8.253963    261.08768  0.015225547   0.01469662            3 
 1430000   0.68339002   -8.2452349    261.34962  0.015230164  0.014684034            2 
 1431000   0.69847506    -8.267208    261.74715  0.015242671  0.014671485            3 
 1432000   0.67599661   -8.2911391    261.80894  0.015235623  0.014658927            3 
 1433000    0.6641728   -8.2712947    261.57171  0.015211195  0.014646417            4 
 1434000   0.69250624    -8.266164    261.66541  0.015206033  0.014633912            1 
 1435000   0.67411408   -8.2590671    261.60977  0.015192205  0.014621436            4 
 1436000   0.66520518   -8.2737435    261.62153  0.015182308  0.014608988            3 
 1437000   0.68592512   -8.2666975    261.36961  0.015157134  0.014596533            3 
 1438000   0.68411805   -8.2807144    261.64178  0.015162365  0.014584074            3 
 1439000   0.68810138   -8.2834962      261.687  0.015154447  0.014571637            2 
 1440000   0.68421553   -8.2550507    261.71026  0.015145269  0.014559159            1 
 1441000   0.67760037   -8.2577995    261.30149   0.01511112  0.014546743            2 
 1442000   0.67144384    -8.252894    261.76839  0.015127623   0.01453432            1 
 1443000   0.68778415   -8.2685161    262.24589  0.015144715  0.014521939            1 
 1444000   0.67922727   -8.2655148    261.81892  0.015109587  0.014509521            2 
 1445000   0.68478442   -8.2447632    262.14674  0.015118036  0.014497132            3 
 1446000   0.67670527   -8.2636575    261.37976  0.015063379  0.014484747            2 
 1447000   0.65021872   -8.2764137    261.60601  0.015065999  0.014472358            2 
 1448000   0.66956378   -8.2356263    261.96202  0.015076083  0.014459947            1 
 1449000   0.67272701   -8.2588808    261.36495  0.015031341  0.014447557            1 
 1450000   0.67135663   -8.2479455    261.76318  0.015043861  0.014435178            3 
 1451000   0.66865324   -8.2828885    261.42997  0.015014356  0.014422798            2 
 1452000   0.67212227   -8.2519744    261.79219  0.015024804  0.014410433            1 
 1453000   0.66249441   -8.2584483    262.08889   0.01503148  0.014398084            1 
 1454000   0.67902367   -8.2554102    261.73692   0.01500097  0.014385744            4 
 1455000   0.66561494   -8.2859782    261.66051  0.014986283  0.014373395            1 
 1456000   0.66724544   -8.3062894    261.38668  0.014960318  0.014361029            4 
 1457000   0.65985658   -8.2894247    261.54402  0.014959049  0.014348683            4 
 1458000   0.66784186   -8.2757007    261.66275  0.014955576  0.014336347            1 
 1459000   0.66967389   -8.3096998    261.60531  0.014942044   0.01432401            2 
 1460000   0.66556263    -8.295587    261.64506  0.014934079  0.014311693            2 
 1461000   0.65741761   -8.3048864    261.81866  0.014933759  0.014299391            3 
 1462000    0.6882186   -8.2841006    261.57114  0.014909436  0.014287087            2 
 1463000   0.66979135   -8.3112188    261.55231  0.014898172  0.014274773            2 
 1464000   0.65539106   -8.3116735    261.63572  0.014892744  0.014262495            4 
 1465000   0.65214382   -8.2764773    261.58841  0.014879887  0.014250211            1 
 1466000   0.67242955   -8.2906474    261.02909  0.014837943  0.014237925            1 
 1467000   0.66299985   -8.3258994    261.30174  0.014843317  0.014225637            1 
 1468000   0.67352796   -8.2781525    261.72491  0.014857227  0.014213389            4 
 1469000   0.67095595   -8.3023226    261.28935  0.014822404  0.014201162            3 
 1470000   0.66949111   -8.3092248    261.44717  0.014821268  0.014188944            2 
 1471000   0.65708373   -8.3127593    261.67648  0.014824183  0.014176717            2 
 1472000   0.66663462   -8.2912283      261.534  0.014806046  0.014164498            1 
 1473000   0.67076264   -8.3132259    261.80618  0.014811393  0.014152341            1 
 1474000   0.64693467   -8.3128995    261.38461  0.014777511  0.014140171            2 
 1475000   0.65857239   -8.2788797    261.36531  0.014766402  0.014128011            1 
 1476000   0.67544148   -8.3006521    261.64143  0.014771987  0.014115873            1 
 1477000   0.66861724    -8.299973     261.8783   0.01477535  0.014103741            5 
 1478000    0.6644649   -8.3172147    260.95221  0.014713138  0.014091601            3 
 1479000   0.66146059   -8.3171011    261.08016  0.014710399  0.014079464            3 
 1480000   0.65840482   -8.3219258    261.61771  0.014730727  0.014067362            1 
 1481000   0.67604996   -8.3060855    262.18564  0.014752737  0.014055259            2 
 1482000   0.65167156   -8.3266611    261.86139   0.01472455  0.014043169            4 
 1483000   0.65789892    -8.317616    261.54828  0.014697026  0.014031095            1 
 1484000   0.65451657   -8.3109656    261.74368  0.014698095  0.014019011            2 
 1485000   0.65640575    -8.322642    261.41886   0.01466997  0.014006922            3 
 1486000   0.65732313   -8.3107675    261.62396  0.014671599  0.013994862            3 
 1487000   0.65204566   -8.2983191    261.30591  0.014643909  0.013982802            1 
 1488000    0.6544423   -8.3266706    261.61653  0.014651463  0.013970765            1 
 1489000   0.66921301   -8.3441229    261.36402  0.014627492  0.013958736            4 
 1490000   0.65911923   -8.3239072    260.82616  0.014587593  0.013946673            1 
 1491000    0.6498968   -8.3321138    261.31266     0.014605  0.013934661            3 
 1492000   0.65028418   -8.3217285    261.93908  0.014630199  0.013922656            4 
 1493000   0.65912249   -8.3198404    261.46027  0.014593674  0.013910674            3 
 1494000   0.65409056   -8.3115734     261.3113  0.014575597  0.013898666            3 
 1495000   0.65974463    -8.339863    261.31348  0.014565969  0.013886663            2 
 1496000   0.65376998   -8.3317221    261.04838  0.014541465   0.01387467            6 
 1497000   0.65033281   -8.3270578    260.97677  0.014527765  0.013862687            2 
 1498000   0.64960183   -8.3502242    261.01238  0.014520048  0.013850702            4 
 1499000    0.6489228   -8.3268053    260.90513  0.014504399  0.013838697            4 
 1500000   0.63839148    -8.325233     260.8718  0.014492878  0.013826741            3 
 1501000   0.64837587   -8.3300314    261.00684   0.01449072  0.013814787            2 
 1502000   0.64850291   -8.3290191     261.1686  0.014490047  0.013802839            3 
 1503000    0.6462638   -8.3395389    261.55572  0.014501869  0.013790868            3 
 1504000   0.65484761   -8.3265039     260.7987  0.014450283  0.013778913            2 
 1505000   0.63660319   -8.3436266    261.15519   0.01446042  0.013766984            4 
 1506000   0.65957498   -8.3212264    261.15323   0.01445071  0.013755056            3 
 1507000   0.64174604   -8.3326067    261.44541  0.014457278  0.013743145            2 
 1508000   0.65695077   -8.3300757    260.66765  0.014404711  0.013731263            5 
 1509000   0.66052631   -8.3730312    261.34213  0.014432412  0.013719383            1 
 1510000   0.64707885   -8.3428968    260.66089  0.014385259  0.013707497            2 
 1511000   0.64174994   -8.3518079    261.51982  0.014423109   0.01369563            2 
 1512000   0.64409826   -8.3173474    261.04973  0.014387662  0.013683763            3 
 1513000   0.64103749   -8.3204313    260.44195  0.014344677  0.013671898            2 
 1514000   0.65671991   -8.3506225    260.93047  0.014362091  0.013660046            2 
 1515000   0.65042955   -8.3629061    261.11762  0.014362905  0.013648175            4 
 1516000    0.6514597   -8.3498344    260.95511  0.014344498  0.013636325            5 
 1517000   0.64400222   -8.3464009    260.74956  0.014323751  0.013624512            1 
 1518000   0.64181338   -8.3472155    260.88622  0.014321817  0.013612688            2 
 1519000   0.65180411   -8.3475422    260.62806  0.014298226  0.013600874            2 
 1520000   0.64522366   -8.3364243    260.94748  0.014306331  0.013589085            3 
 1521000    0.6413012   -8.3198383    260.82229  0.014290066  0.013577302            4 
 1522000   0.65654954   -8.3451476    261.03909  0.014292548  0.013565548            1 
 1523000   0.64850217   -8.3272834     261.2769  0.014296176  0.013553793            1 
 1524000    0.6395238   -8.3489283    260.70113  0.014255311  0.013542044            2 
 1525000   0.64570858   -8.3644125     261.0519  0.014265131  0.013530345            1 
 1526000   0.62126653   -8.3605472    261.12751  0.014259912  0.013518647            1 
 1527000   0.63099316   -8.3487767    261.50729  0.014271299  0.013506945            7 
 1528000   0.64020737   -8.3556609    261.20425  0.014245432  0.013495238            2 
 1529000   0.65901754   -8.3708137    260.82358  0.014215368  0.013483522            5 
 1530000   0.63615171   -8.3581494    261.10344   0.01422132  0.013471819            3 
 1531000   0.65098502   -8.3736751    260.63796  0.014186695  0.013460121            2 
 1532000   0.63404088   -8.3609922    260.98239   0.01419617  0.013448414            2 
 1533000   0.63206451   -8.3740743      260.656  0.014169167  0.013436698            3 
 1534000   0.62701474   -8.3376568     261.1303  0.014185696  0.013424981            2 
 1535000   0.65069011   -8.3743131    261.11221  0.014175473  0.013413291            2 
 1536000   0.62576461   -8.3533144    260.83904  0.014151424  0.013401608            3 
 1537000   0.64109617    -8.371143    260.87641  0.014144242  0.013389964            2 
 1538000   0.63222708   -8.3627971    260.40828  0.014109682  0.013378328            3 
 1539000   0.64292935   -8.3592482    260.73684  0.014118304  0.013366701            2 
 1540000   0.63128996   -8.3704858    260.53642  0.014098291  0.013355076            2 
 1541000   0.64073629   -8.3532374    260.75609  0.014101022  0.013343453            7 
 1542000    0.6324911   -8.3515916    261.47352  0.014130649  0.013331855            2 
 1543000   0.62781441   -8.3750949    260.48911  0.014068325  0.013320268            4 
 1544000    0.6259336   -8.3749712    261.07457  0.014090812  0.013308691            1 
 1545000   0.63345973   -8.3631855    260.45333  0.014048184  0.013297137            2 
 1546000   0.62036489    -8.371123    260.68855  0.014051776  0.013285583            3 
 1547000   0.62465734   -8.3711983    260.74161  0.014045551   0.01327403            3 
 1548000   0.63464423   -8.3835508    260.59306  0.014028481   0.01326249            1 
 1549000    0.6457912   -8.3781823    260.86423  0.014034013  0.013250966            3 
 1550000   0.62652185   -8.3680159    260.39498   0.01399973   0.01323944            2 
 1551000   0.63217313   -8.3608255    261.02101   0.01402434  0.013227915            2 
 1552000   0.64392006   -8.3749739    260.21413  0.013971978  0.013216399            4 
 1553000   0.64259456   -8.3684565    260.57493  0.013982342  0.013204896            2 
 1554000   0.62463135   -8.3635534    260.31049  0.013959164  0.013193415            3 
 1555000   0.62970085   -8.3641925     260.6864  0.013970332  0.013181928            2 
 1556000   0.63132363   -8.3623324    260.78397  0.013966579  0.013170479            3 
 1557000   0.62786249   -8.3826212    260.58124  0.013946759  0.013159021            2 
 1558000    0.6300203   -8.3705603    261.07337   0.01396413   0.01314755            6 
 1559000   0.63015246    -8.342652    260.80207  0.013940671  0.013136081            4 
 1560000   0.62784477   -8.3661061    261.08334  0.013946759  0.013124642            2 
 1561000   0.63648487   -8.3822175    260.40242  0.013901475  0.013113224            2 
 1562000    0.6434237   -8.3744307    260.22605  0.013883165  0.013101812            2 
 1563000   0.62993857   -8.3636188    260.81021  0.013905428  0.013090398            2 
 1564000   0.62096892   -8.3661331    260.75778  0.013893744  0.013079007            4 
 1565000   0.63095213   -8.3920489    260.35201   0.01386326  0.013067622            2 
 1566000    0.6303491   -8.3758166    260.26453  0.013849752   0.01305625            2 
 1567000   0.62011557   -8.3913458      260.305  0.013843065   0.01304487            2 
 1568000   0.65074547   -8.3779666    260.66261  0.013853243  0.013033501            3 
 1569000   0.63875892   -8.3819223    260.07642  0.013813279  0.013022132            4 
 1570000   0.63234975   -8.3744977    260.22734  0.013812492  0.013010791            2 
 1571000   0.62623803   -8.3770782    260.41079  0.013813431  0.012999428            2 
 1572000   0.63769487   -8.3842673    260.41621   0.01380493  0.012988086            4 
 1573000    0.6299626   -8.3798547    260.56835  0.013804214  0.012976751            4 
 1574000   0.62008755   -8.3902615     260.4719  0.013790338   0.01296544            2 
 1575000   0.62055944   -8.3778119    260.44362  0.013780086  0.012954122            2 
 1576000   0.62877784   -8.3939857    260.32539  0.013765091  0.012942806            2 
 1577000   0.62598704   -8.4029314    260.25866  0.013752836  0.012931506            2 
 1578000   0.61716473   -8.3851002    260.24018  0.013743144  0.012920192            3 
 1579000   0.63126991   -8.3941337     260.5924  0.013753029  0.012908913            1 
 1580000   0.61211642    -8.406931    260.32899  0.013730432  0.012897646            2 
 1581000   0.61516094   -8.4066092     260.5937    0.0137357    0.0128864            4 
 1582000   0.62091873   -8.4127298    260.30755  0.013711944  0.012875164            4 
 1583000   0.62215172   -8.4055177    260.50546  0.013713701  0.012863926            2 
 1584000   0.61517038   -8.4130271    260.09495  0.013683446  0.012852699            3 
 1585000   0.62298508    -8.400486     260.8139  0.013712613   0.01284148            3 
 1586000   0.62910136   -8.3831512    260.13422  0.013668254  0.012830261            2 
 1587000   0.61555421   -8.4076123    260.33562  0.013670217   0.01281908            1 
 1588000   0.63509461   -8.4125866    260.13847  0.013651263  0.012807891            8 
 1589000    0.6180081   -8.3749722    260.06407   0.01363877  0.012796723            2 
 1590000   0.60996623    -8.403565    259.53654  0.013602544  0.012785576            3 
 1591000   0.61860296    -8.398558    260.18359  0.013627885  0.012774433            2 
 1592000   0.61915781   -8.4185171    260.49617  0.013635687  0.012763315            2 
 1593000   0.60863961   -8.3930847    260.42536  0.013623424  0.012752176            2 
 1594000   0.60138155    -8.402103      260.191  0.013602624  0.012741042            3 
 1595000   0.60708431   -8.4043193    260.08595  0.013588608  0.012729903            2 
 1596000    0.6293028   -8.4144164    259.97454  0.013574276  0.012718789            3 
 1597000   0.61099832   -8.4232924    259.68328  0.013550578  0.012707669            3 
 1598000   0.60946208   -8.4085949    260.07378  0.013562463  0.012696582            3 
 1599000   0.62270976   -8.4160345    260.24221  0.013562758  0.012685497            3 
 1600000    0.6119871   -8.4291234    259.55325  0.013518398  0.012674408            1 
 1601000    0.6211726   -8.4046951    259.60769  0.013512788   0.01266332            2 
 1602000   0.59921812   -8.3933569    260.13763   0.01353192  0.012652241            3 
 1603000   0.61966153   -8.4344441    260.28935  0.013531366   0.01264118            2 
 1604000    0.6073685   -8.4173543    259.29526  0.013471283  0.012630124            3 
 1605000   0.61533205   -8.4251555    259.89856  0.013494214  0.012619052            2 
 1606000   0.59804678   -8.4379457    260.16165  0.013499463   0.01260801            5 
 1607000   0.61848367   -8.4280309    259.80626  0.013472633  0.012596975            2 
 1608000   0.60781589   -8.4254767    259.70803  0.013459164  0.012585956            4 
 1609000   0.60921199   -8.4182979    259.98212  0.013464995  0.012574942            2 
 1610000   0.61519633   -8.4231933    259.49797  0.013431572  0.012563944            4 
 1611000   0.60774739   -8.4204771    259.64069  0.013430617  0.012552957            5 
 1612000   0.60163252   -8.4463422    259.61477  0.013420945  0.012541983            1 
 1613000   0.62223988   -8.4254423    259.91957  0.013428372  0.012531021            2 
 1614000   0.61045883   -8.4237037    259.39298  0.013392863  0.012520074            3 
 1615000    0.6116146   -8.4279167    259.55466  0.013392913  0.012509129            2 
 1616000   0.61027201   -8.4360547    259.66996  0.013390571  0.012498199            2 
 1617000   0.60105892   -8.4470902    260.10305   0.01340461  0.012487283            3 
 1618000   0.61156206   -8.4436975     259.6428  0.013372621  0.012476354            5 
 1619000   0.58435567   -8.4485579    259.62452   0.01336342  0.012465446            5 
 1620000    0.6019827   -8.4330667    259.89764   0.01336922  0.012454545            5 
 1621000   0.61588014   -8.4503744    259.77807  0.013354826  0.012443653            6 
 1622000   0.59234757   -8.4385018    259.78731  0.013347067  0.012432764            3 
 1623000   0.60719778   -8.4442479    259.90987  0.013345136  0.012421892            3 
 1624000   0.60126526   -8.4347417    259.83765  0.013333213  0.012411031            2 
 1625000   0.60107343   -8.4305353     260.7731  0.013372979    0.0124002            2 
 1626000   0.60817852   -8.4520264    259.98109  0.013324164  0.012389366            3 
 1627000   0.58980005   -8.4319844    260.06928  0.013320492  0.012378537            2 
 1628000   0.60250781   -8.4403429    259.99722  0.013308621   0.01236772            2 
 1629000   0.59321329   -8.4548835    259.77039  0.013288848  0.012356909            1 
 1630000   0.59616182   -8.4519927    259.25071  0.013254126  0.012346121            2 
 1631000   0.60018084    -8.436593     259.5778  0.013262712  0.012335325            2 
 1632000   0.60439545   -8.4411523     259.4766  0.013249418  0.012324537            2 
 1633000   0.60271655   -8.4418916    259.44439  0.013239661  0.012313761            2 
 1634000   0.59310678    -8.457037    259.59882  0.013239434  0.012302997            2 
 1635000   0.58925058   -8.4491916    259.91424  0.013247413   0.01229224            2 
 1636000   0.61195572   -8.4438531    259.63967   0.01322533  0.012281494            3 
 1637000   0.59864129   -8.4445712    259.74587  0.013222657  0.012270739            3 
 1638000   0.60842709   -8.4372531    259.59297  0.013206806  0.012259981            2 
 1639000   0.59773268   -8.4503675    259.68731  0.013203544  0.012249245            1 
 1640000    0.5922425    -8.438024    259.72025  0.013197167  0.012238527            5 
 1641000   0.60904206    -8.460762    259.83391  0.013194897  0.012227827            3 
 1642000   0.59491414   -8.4745976    259.43988  0.013166863  0.012217147            1 
 1643000   0.59195087      -8.4426    259.51381    0.0131626  0.012206469            4 
 1644000   0.59336622   -8.4390252    259.32547  0.013145046  0.012195818            2 
 1645000   0.60231655   -8.4647759     259.3406  0.013137822  0.012185172            3 
 1646000   0.61664721   -8.4330728    259.15058   0.01312022  0.012174508            4 
 1647000   0.58815348   -8.4597554    259.26138   0.01311786  0.012163876            2 
 1648000   0.59072625   -8.4643285    259.67011  0.013130568  0.012153255            3 
 1649000   0.59382175   -8.4479109    259.80467  0.013129405  0.012142649            5 
 1650000    0.5918143    -8.451017    259.07166  0.013084427  0.012132071            2 
 1651000   0.58933787    -8.451337    259.66193  0.013106296  0.012121501            2 
 1652000   0.59431403   -8.4710279    259.12559  0.013071307  0.012110908            2 
 1653000   0.59959627   -8.4605313    259.32919  0.013073664  0.012100333            4 
 1654000   0.59590516   -8.4691114    259.70543  0.013084716  0.012089755            4 
 1655000   0.60449898   -8.4399545    259.33165  0.013057988  0.012079193            3 
 1656000   0.59421676   -8.4601641    259.27791  0.013047399  0.012068641            3 
 1657000   0.59061669    -8.470776    259.21622  0.013036422  0.012058092            1 
 1658000   0.58899932    -8.467578    259.49467  0.013042555  0.012047562            1 
 1659000   0.58689831   -8.4617566    258.73712  0.012996641  0.012037041            6 
 1660000   0.59230493   -8.4635074    259.26194  0.013015158  0.012026531            1 
 1661000    0.5850978   -8.4504886    259.08439  0.012998414  0.012016016            5 
 1662000   0.58895582   -8.4564599    259.43654   0.01300825  0.012005516            2 
 1663000    0.5959177    -8.476676    259.16242  0.012986692  0.011995019            1 
 1664000   0.59283989    -8.463849    259.30881  0.012986219  0.011984561            3 
 1665000   0.57600175   -8.4617205    259.15364  0.012970652  0.011974112            1 
 1666000   0.58905034   -8.4618517    259.49961  0.012980172  0.011963692            2 
 1667000   0.57329297   -8.4638884    259.46968   0.01297089  0.011953271            5 
 1668000   0.58735938   -8.4456976    259.32103  0.012955687  0.011942852            4 
 1669000   0.58374857   -8.4677587      259.159  0.012939834   0.01193244            3 
 1670000   0.59028042   -8.4753102    259.04819  0.012926556  0.011922048            3 
 1671000    0.5916814   -8.4619097    259.26799  0.012929782  0.011911639            3 
 1672000    0.5860149    -8.473681    259.55857  0.012936531  0.011901247            3 
 1673000   0.58206101   -8.4788087    259.35838  0.012918828  0.011890856            2 
 1674000   0.58734853   -8.4959492     259.1835  0.012902404  0.011880474            3 
 1675000   0.58383687   -8.4747582    259.55269  0.012913069  0.011870109            2 
 1676000   0.58479354   -8.4924711    259.25237  0.012890432  0.011859744            3 
 1677000   0.59978741   -8.4667001     259.2107  0.012880675  0.011849382            4 
 1678000   0.58846027   -8.5131282    259.02303  0.012863679  0.011839038            4 
 1679000   0.58391381   -8.4853096    259.17309  0.012863465  0.011828697            4 
 1680000    0.5850935   -8.4802428    259.15482  0.012854902  0.011818379            3 
 1681000   0.57777903   -8.4731027    259.26093  0.012852515  0.011808069            3 
 1682000   0.58416022   -8.4883013    259.02035  0.012832955   0.01179777            3 
 1683000   0.58131877   -8.4718126    259.09276  0.012828915  0.011787482            2 
 1684000   0.60175079    -8.487702    259.05939  0.012819645  0.011777219            2 
 1685000   0.58082603   -8.4916404    259.00461  0.012809328  0.011766967            2 
 1686000   0.57784124   -8.4959857    258.94059  0.012798566  0.011756718            2 
 1687000    0.5657797   -8.4840413    259.08446  0.012798086  0.011746488            2 
 1688000   0.57941419   -8.4808205    259.51371  0.012811696  0.011736266            3 
 1689000   0.57900872   -8.4664631    259.21595  0.012789419  0.011726059            3 
 1690000   0.57268261   -8.4946341    259.05148  0.012773741  0.011715869            2 
 1691000   0.59630102   -8.5113056    258.87902  0.012757689  0.011705667            4 
 1692000   0.56897598   -8.4980613    259.04707  0.012758426  0.011695489            2 
 1693000   0.57479794   -8.4956603    259.02094  0.012749603  0.011685301            1 
 1694000   0.57347189   -8.4949686    259.13048  0.012747465  0.011675138            4 
 1695000   0.58596567   -8.4964224    258.83255  0.012725298  0.011664971            2 
 1696000   0.57417302   -8.5057113    258.97319  0.012724705  0.011654813            1 
 1697000    0.5814199   -8.5134524    258.58638  0.012698212  0.011644653            2 
 1698000   0.56865524   -8.5024475     258.6594  0.012694317  0.011634507            4 
 1699000   0.56010116   -8.4985862    259.48168  0.012727177   0.01162438            5 
 1700000   0.57356682    -8.498876    258.86223  0.012689325  0.011614238            1 
 1701000    0.5734191   -8.5085863    258.70391  0.012674109  0.011604124            1 
 1702000    0.5699959   -8.5081679    258.76413  0.012669611  0.011594017            2 
 1703000   0.58385796   -8.5071582     258.8927  0.012668462  0.011583912            2 
 1704000    0.5659535   -8.4961594    258.58507  0.012645984  0.011573831            4 
 1705000   0.58873137   -8.5242759    258.82635  0.012650359  0.011563748            3 
 1706000   0.55827987   -8.5059018    259.02331  0.012652565  0.011553692            4 
 1707000   0.56274737   -8.5076788    258.66317  0.012627571  0.011543646            2 
 1708000   0.58660243   -8.4956355    259.01395  0.012637292  0.011533614            2 
 1709000   0.57584449    -8.495653    258.99993  0.012629215  0.011523591            2 
 1710000   0.56915882   -8.5109913     258.9347   0.01261865  0.011513571            3 
 1711000   0.55378429   -8.4985468    258.67384   0.01259857  0.011503571            1 
 1712000   0.57164402   -8.4901804    259.36495  0.012624852  0.011493561            3 
 1713000    0.5711994   -8.5117112    258.71056  0.012585647  0.011483567            5 
 1714000   0.56525251   -8.5033366    258.80095  0.012582699  0.011473595            3 
 1715000   0.56774299   -8.5011961    258.59515  0.012565362  0.011463623            1 
 1716000    0.5621225   -8.5093862     258.5166  0.012554225  0.011453651            3 
 1717000    0.5634407   -8.5067331     258.6725   0.01255448  0.011443686            3 
 1718000   0.57556822   -8.5175355    258.65502  0.012546324  0.011433734            3 
 1719000   0.55252821   -8.5111947    258.66673  0.012539593  0.011423794            3 
 1720000   0.56894467   -8.5217848    258.56177  0.012527218  0.011413857            3 
 1721000    0.5711483   -8.5298772    258.77793  0.012530405   0.01140393            2 
 1722000   0.56886187   -8.5193573    258.59011   0.01251404  0.011394013            2 
 1723000   0.55734595   -8.5106597    258.50352  0.012502589  0.011384127            4 
 1724000   0.55723644   -8.5291563    258.54944  0.012497556  0.011374247            2 
 1725000   0.57866686   -8.5305956    259.01921  0.012513005  0.011364377            4 
 1726000   0.57175358    -8.523248    258.52982  0.012482127  0.011354517            2 
 1727000   0.55771524   -8.5453983    258.37129   0.01246725   0.01134466            2 
 1728000   0.55189444   -8.5253138     259.1802  0.012499045  0.011334824            2 
 1729000   0.55448627   -8.5213826    258.89305  0.012477976  0.011324996            3 
 1730000   0.56603958    -8.511185    258.51706  0.012452652   0.01131518            2 
 1731000   0.55843932   -8.5112844    258.68333  0.012453463  0.011305385            7 
 1732000   0.56544701   -8.5170193    258.88992  0.012456213  0.011295596            3 
 1733000   0.54966896    -8.531722     258.4639  0.012428539  0.011285796            2 
 1734000   0.55569301   -8.5301881    258.59127  0.012427493  0.011276002            2 
 1735000   0.56484796    -8.542314    258.95366  0.012437736  0.011266218            1 
 1736000   0.56852721   -8.5162027    258.19794  0.012394294  0.011256448            6 
 1737000   0.55963108   -8.5320453    258.52961  0.012403071  0.011246682            3 
 1738000   0.55767621    -8.544903    258.24939  0.012382498  0.011236934            3 
 1739000   0.56650189   -8.5383699    258.73328  0.012398566  0.011227198            2 
 1740000   0.55658637   -8.5214834    258.63791  0.012386873  0.011217463            3 
 1741000   0.57291749   -8.5325052    258.85393  0.012390098  0.011207748            5 
 1742000   0.53795019    -8.541886    258.56222  0.012369031   0.01119803            2 
 1743000   0.56683807   -8.5390739    258.41233  0.012354768  0.011188324            4 
 1744000   0.56054743   -8.5558323    258.35432  0.012344912  0.011178626            1 
 1745000    0.5595217   -8.5382556    258.46814  0.012343273  0.011168925            2 
 1746000    0.5603443   -8.5354717    258.59361  0.012342192  0.011159237            5 
 1747000    0.5370444   -8.5565087    258.73806  0.012342018  0.011149571            2 
 1748000   0.54598905   -8.5388167    257.99783  0.012299668  0.011139905            2 
 1749000   0.55425503    -8.531919     258.5145  0.012317253  0.011130249            3 
 1750000    0.5739844   -8.5385456    258.47215  0.012308198  0.011120604            2 
 1751000   0.56046261   -8.5480506    258.33161   0.01229448  0.011110972            2 
 1752000   0.57660135   -8.5448715    258.06842  0.012274944  0.011101345            2 
 1753000   0.56372376   -8.5522929     258.4627  0.012286685  0.011091736            2 
 1754000   0.55742688   -8.5644594     258.2818  0.012271085  0.011082124            4 
 1755000   0.56047535   -8.5523831    258.40175  0.012269789  0.011072516            2 
 1756000   0.56423283   -8.5591274     258.0734  0.012247219  0.011062917            3 
 1757000   0.54410516   -8.5394729    258.20176  0.012246337  0.011053328            2 
 1758000   0.54290682   -8.5462921    258.39332  0.012248451  0.011043758            3 
 1759000   0.54785993   -8.5425605    258.54108  0.012248488  0.011034198            2 
 1760000   0.54629716   -8.5704243    258.59152  0.012243917  0.011024649            2 
 1761000   0.54867907   -8.5533445    257.95367   0.01220678  0.011015106            2 
 1762000   0.54981501   -8.5512395    257.89079  0.012196878  0.011005574            2 
 1763000    0.5550897   -8.5478815    258.41914  0.012214934  0.010996052            3 
 1764000    0.5517067   -8.5752961    258.36852  0.012205618  0.010986546            5 
 1765000   0.57291414   -8.5450158    258.10622  0.012186318  0.010977028            2 
 1766000   0.55691212    -8.554102    258.55597   0.01220064  0.010967537            2 
 1767000   0.54327653   -8.5566508    258.19935  0.012176917  0.010958048            3 
 1768000   0.55609432   -8.5689404    257.79408  0.012150928  0.010948559            3 
 1769000   0.55126808   -8.5656309    257.76026  0.012142466  0.010939108            2 
 1770000   0.54310367   -8.5784715    258.31181  0.012161573  0.010929656            2 
 1771000   0.54713549   -8.5636782    258.03062  0.012141475  0.010920217            3 
 1772000   0.54570356   -8.5619065    257.82975  0.012125177  0.010910784            2 
 1773000   0.56192251   -8.5646936    258.49263  0.012149494  0.010901364            2 
 1774000   0.55652045   -8.5445414    257.92947  0.012116191   0.01089196            2 
 1775000   0.52846876   -8.5220735    258.02529  0.012113864  0.010882555            2 
 1776000   0.53118925   -8.5598527    258.41992   0.01212556  0.010873166            2 
 1777000   0.53280065   -8.5684034    257.99242  0.012098688  0.010863777            2 
 1778000   0.55267116   -8.5786533    258.25887  0.012104372  0.010854392            3 
 1779000   0.53549903   -8.5656166    257.92339  0.012081852  0.010845018            2 
 1780000   0.53929644     -8.56563    257.66076   0.01206277  0.010835664            3 
 1781000   0.54851396   -8.5730313    258.59104  0.012099525  0.010826308            2 
 1782000   0.53915106   -8.5734053    258.43402  0.012085392  0.010816969            2 
 1783000   0.55045232    -8.574799    258.13727  0.012064744  0.010807658            3 
 1784000   0.53576956    -8.550708    258.15314  0.012058723  0.010798349            2 
 1785000   0.54403991   -8.5647027    258.01106  0.012045334  0.010789043            2 
 1786000   0.54859165   -8.5615485    257.82082  0.012029714  0.010779751            4 
 1787000   0.53966992   -8.5763174    257.91151  0.012027211  0.010770479            1 
 1788000    0.5521162   -8.5640983    257.96824  0.012023128  0.010761206            2 
 1789000   0.53851636    -8.582488    258.21861   0.01202807  0.010751936            2 
 1790000    0.5384554   -8.5865358    257.44067  0.011985134  0.010742667            3 
 1791000   0.53699831   -8.5750873    257.92946  0.012001185   0.01073341            2 
 1792000    0.5365346   -8.5773196    257.68764  0.011983242  0.010724165            2 
 1793000   0.54269739   -8.5673764    258.17947  0.011999418  0.010714925            2 
 1794000   0.52864183   -8.5679598    257.78915  0.011974598  0.010705691            2 
 1795000    0.5228505   -8.5827827    257.74111  0.011965697   0.01069647            3 
 1796000   0.52115988   -8.5774452    257.63168  0.011953957  0.010687253            2 
 1797000   0.53249973   -8.5928807    258.25354  0.011976143  0.010678057            2 
 1798000   0.54708931   -8.5836436    257.66229  0.011942079  0.010668876            2 
 1799000   0.53743979   -8.5869516    257.80999  0.011942282  0.010659694            3 
 1800000    0.5284423    -8.599347    257.76148  0.011933402  0.010650527            1 
 1801000   0.53402258   -8.5831419    257.74467  0.011925998  0.010641365            2 
 1802000   0.53865544   -8.5788805    257.74844  0.011919554  0.010632212            2 
 1803000   0.52221401   -8.5752082    257.88653  0.011919326  0.010623065            2 
 1804000   0.52549451   -8.5613375    257.82199  0.011909737  0.010613933            3 
 1805000   0.54229082   -8.5960888    257.84152  0.011904041  0.010604815            2 
 1806000    0.5322771   -8.5849963    257.86688   0.01189862  0.010595702            2 
 1807000   0.52995329    -8.583841    257.88341  0.011892797  0.010586604            1 
 1808000   0.53790176   -8.5935286    257.60371  0.011873328  0.010577533            4 
 1809000   0.53092778   -8.5746667     258.4641  0.011906398  0.010568458            2 
 1810000   0.52398451   -8.5792407    257.90277  0.011873976   0.01055939            3 
 1811000   0.53892844   -8.5570198    257.35068  0.011842016  0.010550333            2 
 1812000   0.53082259   -8.5883781    257.90862  0.011861139  0.010541287            2 
 1813000   0.53009888     -8.59182    257.52505  0.011836967  0.010532241            3 
 1814000   0.53408227   -8.5816615    257.81901  0.011843946  0.010523211            3 
 1815000   0.54551698   -8.6023435    258.12676   0.01185155   0.01051419            2 
 1816000   0.53402673   -8.5835524     258.0586  0.011841896  0.010505173            2 
 1817000   0.52595028   -8.5985278    257.28922  0.011800093  0.010496167            3 
 1818000   0.52815698   -8.5841742    258.13079  0.011832178  0.010487172            4 
 1819000   0.52223638   -8.5787787    257.89893  0.011815051  0.010478191            3 
 1820000   0.52907302   -8.5896562    258.02215  0.011814201  0.010469216            2 
 1821000   0.52271286   -8.5803332    257.92199   0.01180313  0.010460248            2 
 1822000   0.51841251    -8.594354    258.09356  0.011804499  0.010451294            2 
 1823000   0.51861021   -8.5809622    257.52551  0.011772057  0.010442338            2 
 1824000   0.52659713   -8.5950621    257.67407   0.01177239  0.010433401            3 
 1825000   0.51577438   -8.6037012    257.69294  0.011766801  0.010424475            4 
 1826000   0.52406947   -8.5853949    257.52209   0.01175256  0.010415557            2 
 1827000   0.51990293    -8.589968    258.13334  0.011774008  0.010406651            1 
 1828000   0.51343375   -8.5890659    257.69451  0.011747562  0.010397753            3 
 1829000   0.51564657   -8.5804792     258.1972  0.011764042  0.010388874            2 
 1830000   0.52007181   -8.5837105    257.87445  0.011742917  0.010380009            2 
 1831000   0.53521598   -8.6012057    257.45905  0.011717598   0.01037114            3 
 1832000   0.52665178   -8.5983631    257.54858  0.011715274  0.010362272            3 
 1833000   0.50777463   -8.6013709    257.65529  0.011713734  0.010353413            4 
 1834000   0.52112795   -8.6157351     257.6834  0.011708624  0.010344571            2 
 1835000   0.51350117   -8.5968683    257.87233  0.011710823  0.010335732            1 
 1836000   0.51942072   -8.5878206    257.59808  0.011691997  0.010326901            2 
 1837000   0.52600445   -8.5927224    257.48371  0.011680444  0.010318093            4 
 1838000    0.5246176    -8.591993    257.55521  0.011677331  0.010309286            1 
 1839000   0.51937107   -8.5991507    257.53504  0.011670067  0.010300486            3 
 1840000   0.50545678   -8.5843982    257.72734  0.011672434  0.010291701            5 
 1841000   0.53038498   -8.5975883    257.84409  0.011671378  0.010282925            2 
 1842000    0.5310295   -8.5933647    257.72931  0.011659849   0.01027416            2 
 1843000   0.53446099    -8.612601    257.25597   0.01163212  0.010265405            1 
 1844000   0.50708702   -8.6026317    257.51517  0.011637526   0.01025665            1 
 1845000   0.51517061   -8.6110693    257.79887  0.011644032  0.010247895            1 
 1846000   0.51890702   -8.6134136    257.15865  0.011608823  0.010239156            2 
 1847000   0.50999037   -8.6076386    257.45309  0.011615822  0.010230427            2 
 1848000    0.5036608    -8.596152    257.37369  0.011605956  0.010221708            2 
 1849000   0.51629192   -8.5953099    257.94989  0.011625649  0.010212998            2 
 1850000   0.51381646   -8.6177518    257.71358   0.01160872  0.010204298            2 
 1851000    0.5199361   -8.6083829    257.51446  0.011593484  0.010195606            3 
 1852000   0.51247673   -8.6017961    257.38439  0.011581371  0.010186924            2 
 1853000   0.51092061   -8.6103909    257.53672  0.011581972  0.010178251            2 
 1854000    0.5125658   -8.6121948    257.26346  0.011563442  0.010169589            3 
 1855000   0.52012838    -8.627071    257.46681  0.011566344  0.010160919            2 
 1856000   0.50362828   -8.6038254    257.72391  0.011571656  0.010152268            2 
 1857000   0.49838205   -8.6053149    257.67133  0.011563064  0.010143627            2 
 1858000   0.49628035   -8.6263519    257.93003  0.011568444     0.010135            3 
 1859000   0.50524944    -8.610581    257.48172  0.011542125  0.010126382            2 
 1860000   0.49760254   -8.6092889    257.49625   0.01153657  0.010117772            2 
 1861000   0.50106019   -8.6053957    257.38019  0.011525174  0.010109172            3 
 1862000   0.51579106   -8.6293513    257.23459  0.011512468  0.010100574            2 
 1863000   0.51152408   -8.6229363    257.29188  0.011508851  0.010091991            2 
 1864000   0.51594131    -8.631772    256.93022  0.011486508   0.01008341            2 
 1865000   0.50136808      -8.6192    257.62475  0.011511383  0.010074843            3 
 1866000   0.51530501   -8.6269285    257.56761  0.011502662  0.010066287            2 
 1867000   0.50809431   -8.6258085     257.3885  0.011488507  0.010057742            2 
 1868000   0.50836698   -8.6275843    257.28136  0.011477577  0.010049201            3 
 1869000   0.50690591   -8.6381522    257.56381   0.01148403  0.010040668            2 
 1870000   0.51557376   -8.6362473    257.20974   0.01146211  0.010032138            2 
 1871000   0.51204435   -8.6255823     257.2738  0.011458836  0.010023624            1 
 1872000   0.50630084   -8.6249179    257.26512  0.011452329  0.010015124            1 
 1873000   0.50615684   -8.6192334    257.59669  0.011460967  0.010006625            2 
 1874000   0.51596929   -8.6332621    257.18324  0.011436466 0.0099981317            2 
 1875000   0.49979529   -8.6153873    257.39552  0.011439801 0.0099896605            1 
 1876000   0.50652876   -8.6325562    257.17285  0.011423812 0.0099811897            2 
 1877000   0.49734073   -8.6323061    257.37662  0.011426772 0.0099727347            2 
 1878000   0.51655365   -8.6219904    256.93847  0.011401246 0.0099642814            2 
 1879000   0.50077474   -8.6130652    257.52546  0.011421211  0.009955837            1 
 1880000   0.49677762   -8.6395969    257.44676  0.011411647 0.0099473938            2 
 1881000   0.50133501   -8.6133954    257.78588  0.011420604 0.0099389606            5 
 1882000    0.5091096   -8.6339904    257.36123  0.011395733 0.0099305464            2 
 1883000    0.5083133   -8.6358053    257.39557  0.011391201 0.0099221495            2 
 1884000   0.49335761    -8.638806    257.19413  0.011376244 0.0099137531            2 
 1885000    0.5002733   -8.6270888    257.38478  0.011378637 0.0099053598            2 
 1886000    0.5008229   -8.6482917    257.27166  0.011367606 0.0098969729            2 
 1887000   0.49340936   -8.6417513    257.42689  0.011368437 0.0098885958            1 
 1888000   0.50140889   -8.6420607    257.39737  0.011361113 0.0098802354            2 
 1889000   0.50281719   -8.6353073    257.24713   0.01134847 0.0098718731            2 
 1890000   0.50242504   -8.6361197    257.21863   0.01134121 0.0098635276            3 
 1891000    0.5012624   -8.6464012    257.05366  0.011327942 0.0098551887            2 
 1892000   0.49243912   -8.6459783    256.96617  0.011318101 0.0098468637            2 
 1893000   0.49524306   -8.6378853    257.23084  0.011323773 0.0098385525            2 
 1894000   0.49496854   -8.6269153    257.30611  0.011321106 0.0098302384            3 
 1895000   0.49637406   -8.6359685    256.94952  0.011299451 0.0098219394            3 
 1896000   0.48183605   -8.6571264    257.37622  0.011312246  0.009813645            2 
 1897000   0.49024147   -8.6589225      257.025  0.011290854 0.0098053456            3 
 1898000   0.49737893   -8.6465027    257.14955  0.011290373 0.0097970754            1 
 1899000   0.48933399   -8.6458714     257.0617  0.011280573 0.0097887997            4 
 1900000   0.49264302   -8.6363857    256.89355  0.011267261 0.0097805324            1 
 1901000   0.49650624     -8.65028    256.95019  0.011263817 0.0097722726            2 
 1902000   0.49407032   -8.6419327    257.50557  0.011282228 0.0097640302            3 
 1903000   0.49429059   -8.6350408    257.44889  0.011273817 0.0097557971            2 
 1904000   0.49375956   -8.6606471    256.74428  0.011237057 0.0097475728            4 
 1905000   0.49471321   -8.6287503    257.39242  0.011259511 0.0097393531            3 
 1906000   0.48795322   -8.6618586     257.1445  0.011242764 0.0097311397            2 
 1907000   0.49291586   -8.6418933    257.12518  0.011236024 0.0097229396            2 
 1908000    0.5084527   -8.6393564    257.29392  0.011237505  0.009714739            2 
 1909000   0.48476161   -8.6606916    256.97662  0.011217768 0.0097065629            1 
 1910000   0.48849741   -8.6520013    257.12079  0.011218184 0.0096983865            2 
 1911000   0.49466989   -8.6555187    256.72149  0.011194902 0.0096902208            1 
 1912000   0.49540766   -8.6626544    257.12335  0.011206562 0.0096820676            2 
 1913000   0.48893081   -8.6692001    256.86644  0.011189512 0.0096739211            1 
 1914000   0.49690358   -8.6582089    256.88728  0.011184573 0.0096657815            1 
 1915000   0.48723674   -8.6482479    257.09941  0.011187964 0.0096576557            3 
 1916000   0.48572788    -8.657855    256.80042  0.011169121 0.0096495345            2 
 1917000    0.4867461   -8.6548833    257.24682    0.0111827 0.0096414265            1 
 1918000   0.49006485   -8.6686567    257.11514  0.011171148 0.0096333277            1 
 1919000   0.48965747   -8.6501173    256.72543  0.011148403 0.0096252379            1 
 1920000   0.47926289   -8.6577198     257.0479  0.011156593  0.009617151            1 
 1921000   0.48791737   -8.6526566    256.99854  0.011148644 0.0096090717            1 
 1922000   0.47786231   -8.6402687    256.78387  0.011133536  0.009600998            2 
 1923000   0.49402719   -8.6767549    256.95779  0.011135283 0.0095929351            1 
 1924000   0.47833904   -8.6545115    256.87069  0.011125723 0.0095848723            3 
 1925000   0.49050753   -8.6714566    256.96653  0.011124092 0.0095768335            2 
 1926000   0.48177977   -8.6592735    256.94152  0.011117234 0.0095687961            3 
 1927000   0.47484942    -8.656035    257.18826  0.011122135 0.0095607736            2 
 1928000   0.47646928   -8.6650376      257.123  0.011113546 0.0095527652            3 
 1929000    0.4803869   -8.6690855    256.91226   0.01109868 0.0095447625            1 
 1930000   0.48671101    -8.665821    256.58372  0.011078744  0.009536754            1 
 1931000   0.47095926   -8.6635127    256.85874  0.011084876 0.0095287545            1 
 1932000   0.47696615    -8.654763    256.97066  0.011083966 0.0095207808            4 
 1933000   0.48782247   -8.6628273    256.55048  0.011060117 0.0095128034            4 
 1934000    0.4969031   -8.6856993    257.14083  0.011079836 0.0095048373            1 
 1935000    0.4675141   -8.6760982    256.76863   0.01105808 0.0094968784            1 
 1936000   0.48720743   -8.6544406    256.74886  0.011051518 0.0094889152            1 
 1937000    0.4817333   -8.6690872    256.46141  0.011033446 0.0094809744            3 
 1938000   0.47585833   -8.6510854    256.60358  0.011033866 0.0094730358            2 
 1939000   0.46941522   -8.6762528    257.38058  0.011061569   0.00946511            2 
 1940000   0.47392996   -8.6550335    256.58196  0.011021562  0.009457192            2 
 1941000   0.48050673   -8.6704453    256.90703   0.01102984 0.0094492871            4 
 1942000   0.48483589   -8.6736189    256.86883  0.011022521 0.0094413965            1 
 1943000   0.47741528   -8.6703626     256.7743  0.011012794 0.0094335141            2 
 1944000   0.47792166   -8.6589852    256.48695  0.010994811 0.0094256285            1 
 1945000    0.4779289   -8.6765096    256.53677  0.010991293 0.0094177573            2 
 1946000   0.47959192   -8.6588612    256.59472  0.010988126 0.0094098973            2 
 1947000   0.47653427   -8.6810697    256.32017  0.010970731 0.0094020367            2 
 1948000   0.47395463   -8.6611113    256.53962  0.010974488  0.009394183            2 
 1949000   0.48274343   -8.6909188    256.53501   0.01096866 0.0093863372            3 
 1950000   0.48294659   -8.6691761    256.91869  0.010979431 0.0093785045            2 
 1951000   0.47010005   -8.6841811    256.67001  0.010963182 0.0093706762            1 
 1952000   0.47800564   -8.6865804    257.23217  0.010981565 0.0093628561            5 
 1953000   0.48592764   -8.6892905    256.67807  0.010952298 0.0093550494            2 
 1954000   0.47962124   -8.6871548    257.14718    0.0109667 0.0093472538            4 
 1955000   0.48002106   -8.6830217    256.87247  0.010949381 0.0093394532            2 
 1956000   0.47527143   -8.6703886    256.43324   0.01092507 0.0093316613            2 
 1957000   0.46871237   -8.6806833    256.75714  0.010933279 0.0093238843            2 
 1958000   0.47265241   -8.6942835    256.77834  0.010928598 0.0093161147            2 
 1959000   0.46597279   -8.6695693    256.46103  0.010909521 0.0093083475            2 
 1960000   0.48424438   -8.6965902    256.73883  0.010915767 0.0093005976            3 
 1961000    0.4752262   -8.6914684    256.37202  0.010894613  0.009292845            1 
 1962000   0.47535242   -8.6956383    256.52553   0.01089558 0.0092851126            2 
 1963000   0.47001596   -8.6743618    256.87484  0.010904858 0.0092773752            3 
 1964000   0.46690463   -8.6772164    256.38366  0.010878465 0.0092696572            5 
 1965000   0.47246972   -8.6795437    256.53631  0.010879402 0.0092619369            2 
 1966000   0.45793789   -8.6849909    256.98572  0.010892918 0.0092542303            2 
 1967000   0.47353053   -8.6919901      256.483  0.010866082 0.0092465249            3 
 1968000   0.47293654   -8.6730275    256.57461   0.01086444 0.0092388327            2 
 1969000   0.46190654   -8.6896074    256.71293  0.010864776 0.0092311502            5 
 1970000    0.4663499   -8.6868639    256.58619    0.0108539 0.0092234767            3 
 1971000    0.4771987   -8.6921188    256.34349  0.010838132 0.0092158109            3 
 1972000   0.47650417   -8.6806117    256.95433  0.010858449 0.0092081524            2 
 1973000   0.46274563   -8.6834046     256.3811  0.010828734 0.0092005003            2 
 1974000   0.46449708   -8.6852683    256.41177  0.010824543 0.0091928567            3 
 1975000   0.46403175   -8.6897432    256.74326  0.010833049 0.0091852243            2 
 1976000    0.4622154   -8.7023239    256.70577  0.010825986 0.0091776021            1 
 1977000    0.4608019   -8.7002332    256.60497  0.010816261 0.0091699856            2 
 1978000   0.44985924   -8.6990263     256.9883  0.010826942 0.0091623758            1 
 1979000   0.47175177   -8.6905079    256.76795  0.010812193 0.0091547793            2 
 1980000   0.45630106   -8.6912374    257.13916  0.010822355 0.0091471854            1 
 1981000   0.45682181    -8.694141    256.46083  0.010788357  0.009139603            2 
 1982000   0.46947547   -8.6798979    256.43634  0.010781884 0.0091320233            4 
 1983000   0.45335824   -8.7061654    256.71016  0.010787954 0.0091244566            2 
 1984000   0.47616757   -8.6882731    256.48255  0.010772957 0.0091168904            1 
 1985000   0.45268582   -8.6936301    256.50368  0.010768417 0.0091093396            2 
 1986000   0.46624863   -8.7159097    256.33671  0.010755988 0.0091017854            1 
 1987000   0.45178219   -8.6892366    256.44902  0.010755285 0.0090942436            2 
 1988000   0.46081668   -8.7152283    256.28931   0.01074318 0.0090867134            1 
 1989000   0.45599601   -8.6976364      256.424  0.010743422 0.0090791856            2 
 1990000   0.47095583   -8.7014569    256.40491  0.010737224 0.0090716748            2 
 1991000   0.44760099   -8.7017798    256.14965  0.010721147 0.0090641692            1 
 1992000   0.45968725   -8.6973866    256.24977  0.010719953 0.0090566721            1 
 1993000   0.46485737   -8.7002311    256.53281   0.01072641 0.0090491781            3 
 1994000   0.46419774    -8.703644    256.60437  0.010724021 0.0090417015            1 
 1995000   0.45659903   -8.6988945    256.22473  0.010702787  0.009034224            2 
 1996000   0.45382817   -8.6989832    256.20805  0.010696729 0.0090267555            2 
 1997000   0.45281429   -8.7055277    256.46123  0.010701938 0.0090193081            2 
 1998000   0.45243391   -8.6932899    256.31993  0.010690688  0.009011864            1 
 1999000   0.45229765   -8.6995688    256.65613  0.010699355 0.0090044243            1 
 2000000    0.4485991   -8.6990091    256.56326  0.010690136 0.0089969873            2 
 2001000   0.46412665   -8.7166051    256.62509  0.010687368  0.008989559            3 
 2002000   0.44598513   -8.7227759     256.5618  0.010679396 0.0089821353            5 
 2003000   0.45426509    -8.704728    256.20394  0.010659175 0.0089747115            3 
 2004000    0.4532713   -8.7041654    256.42734  0.010663146 0.0089673001            2 
 2005000   0.46324244   -8.7033705    256.74529  0.010671043 0.0089599027            2 
 2006000   0.46381308   -8.7193539    256.41657  0.010652068 0.0089525143            2 
 2007000   0.44382666   -8.7192487    256.26159  0.010640325 0.0089451347            2 
 2008000   0.44957391   -8.7121405      255.991  0.010623796  0.008937757            2 
 2009000   0.44474419   -8.7184166    256.15809  0.010625439 0.0089303948            3 
 2010000   0.45558136    -8.709225    256.52197  0.010635239 0.0089230399            1 
 2011000   0.45654849    -8.699994    256.50001  0.010629041  0.008915693            3 
 2012000   0.45404167   -8.6995476    256.43136  0.010620914 0.0089083521            2 
Loop time of 4768.06 on 48 procs for 2000000 steps with 4000 atoms

Performance: 72482.277 tau/day, 419.458 timesteps/s
99.4% CPU use with 48 MPI tasks x no OpenMP threads

MPI task timing breakdown:
Section |  min time  |  avg time  |  max time  |%varavg| %total
---------------------------------------------------------------
Pair    | 301.41     | 330.39     | 354.47     |  71.5 |  6.93
Neigh   | 31.434     | 32.654     | 33.901     |  10.9 |  0.68
Comm    | 310.07     | 333.91     | 366.27     |  76.2 |  7.00
Output  | 4.0643     | 4.066      | 4.0965     |   0.2 |  0.09
Modify  | 4015.1     | 4023.6     | 4032.4     |   6.3 | 84.39
Other   |            | 43.47      |            |       |  0.91

Nlocal:        83.3333 ave          92 max          74 min
Histogram: 1 0 3 7 6 16 9 4 1 1
Nghost:        2076.42 ave        2102 max        2044 min
Histogram: 2 1 3 5 8 8 7 8 5 1
Neighs:        13516.8 ave       14775 max       11669 min
Histogram: 1 0 2 4 7 11 8 8 4 3
FullNghs:      27033.5 ave       29768 max       24056 min
Histogram: 1 0 3 5 12 14 5 4 3 1

Total # of neighbors = 1297606
Ave neighs/atom = 324.40150
Neighbor list builds = 106983
Dangerous builds = 0

#clear
#
#next RN
#
#jump SELF
Total wall time: 1:19:31
