
units lj                  # Use reduced LJ style units
atom_style atomic         # Uncharged point particles
atom_modify map hash      # Needed for indexing of clusters etc
                          # Used to be able to find where atoms are in relation to each other.

lattice fcc 1.0 spacing 1 1 1
Lattice spacing in x,y,z = 1.5874011 1.5874011 1.5874011
region box block 0 10 0 10 0 10 units lattice
create_box 2 box
Created orthogonal box = (0.0000000 0.0000000 0.0000000) to (15.874011 15.874011 15.874011)
  3 by 4 by 4 MPI processor grid
create_atoms 1 box
Created 4000 atoms
  using lattice units in orthogonal box = (0.0000000 0.0000000 0.0000000) to (15.874011 15.874011 15.874011)
  create_atoms CPU = 0.003 seconds
set type 1 type/fraction 2 0.74 78393
Setting atom values ...
  2966 settings made for type/fraction
mass 1 1.0
mass 2 1.0
pair_style lj/cut  3.5
pair_modify tail  yes
pair_coeff 1  1  1.0  1.0   # Intearaction between 1 and 1 set with epsilon = 1 and sigma = 1
pair_coeff 1  2  1.5  0.8
pair_coeff 2  2  0.5  0.88

write_data data.0
System init for write_data ...
Neighbor list info ...
  update every 1 steps, delay 10 steps, check yes
  max neighbors/atom: 2000, page size: 100000
  master list distance cutoff = 3.8
  ghost atom cutoff = 3.8
  binsize = 1.9, bins = 9 9 9
  1 neighbor lists, perpetual/occasional/extra = 1 0 0
  (1) pair lj/cut, perpetual
      attributes: half, newton on
      pair build: half/bin/atomonly/newton
      stencil: half/bin/3d
      bin: standard
WARNING: Not all mixed pair coeffs generated from mixing. Use write_data with 'pair ij' option to store all pair coeffs. (../write_data.cpp:312)


#############################
#   M E L T   S Y S T E M   #
#############################

velocity all create 2.4 1741580 mom yes dist gaussian # Assign velocities
                                                    # Temperature 2.4, random number seed, zero linear momentum
                                                                                # Gaussian distribution

timestep 0.002   # simulation timestep
thermo 1000       # output thermodynamic data every 1000 steps bf 100

# Define a fix  in this case with index 1 applied to all
# particles in the simulation. This fix is for simulations
# in the anisotropic NPT ensemble. Note that we use the MTK
# correction.
fix 1 all npt temp 2.4 2.4 0.1 iso 5.68 5.68 0.5 mtk yes tchain 5 pchain 5 # Use NPT ensemble
                                                                         # Set temperature and pressure and damping
                                                                         # Numbers of thermostats in chain and in barostat
run 10000          # run for 10000 steps
Per MPI rank memory allocation (min/avg/max) = 3.642 | 3.644 | 3.648 Mbytes
Step Temp E_pair E_mol TotEng Press Volume 
       0          2.4   -3.9840525            0  -0.38495247   -3.5781436         4000 
    1000    2.3835829   -3.5444396            0     0.030041    5.4217247    3700.9728 
    2000     2.377808   -3.4869043            0  0.078916055    5.7651193     3709.109 
    3000    2.3674543   -3.4941602            0  0.056133452    5.6100466    3708.8628 
    4000    2.3551905   -3.4845299            0  0.047372655     5.593072    3722.0005 
    5000    2.4059652   -3.4737233            0   0.13432226    5.8566817    3700.4592 
    6000    2.3720183   -3.5467547            0  0.010383157      5.40255    3719.1705 
    7000    2.4634083   -3.4764323            0   0.21775633    5.4870929    3759.2279 
    8000    2.4489941   -3.4946111            0   0.17796166    5.8224302    3712.4763 
    9000    2.3849337   -3.4985018            0  0.078004422     5.394372     3729.702 
   10000    2.4317354   -3.5139291            0    0.1327621    5.7010983    3687.0855 
Loop time of 2.6287 on 48 procs for 10000 steps with 4000 atoms

Performance: 657359.462 tau/day, 3804.164 timesteps/s
99.7% CPU use with 48 MPI tasks x no OpenMP threads

MPI task timing breakdown:
Section |  min time  |  avg time  |  max time  |%varavg| %total
---------------------------------------------------------------
Pair    | 1.1979     | 1.2557     | 1.4094     |   3.3 | 47.77
Neigh   | 0.21658    | 0.22311    | 0.25766    |   1.4 |  8.49
Comm    | 0.71857    | 0.8857     | 0.96563    |   5.2 | 33.69
Output  | 0.00025637 | 0.00027192 | 0.00034012 |   0.0 |  0.01
Modify  | 0.21664    | 0.24807    | 0.29422    |   5.2 |  9.44
Other   |            | 0.01586    |            |       |  0.60

Nlocal:        83.3333 ave          90 max          73 min
Histogram: 3 0 4 0 7 10 6 7 4 7
Nghost:        1730.48 ave        1749 max        1704 min
Histogram: 1 0 4 8 4 9 4 4 7 7
Neighs:        10357.6 ave       11969 max        8614 min
Histogram: 2 1 3 7 7 11 7 7 2 1

Total # of neighbors = 497167
Ave neighs/atom = 124.29175
Neighbor list builds = 903
Dangerous builds = 184

# Equilibrate just above the melting temperature to avoid step fn in T

fix 1 all npt temp 1.25 1.25 0.1 iso 5.68 5.68 0.5 mtk yes tchain 5 pchain 5
run 2000
Per MPI rank memory allocation (min/avg/max) = 3.644 | 3.646 | 3.649 Mbytes
Step Temp E_pair E_mol TotEng Press Volume 
   10000    2.4317354   -3.5139291            0    0.1327621    5.7010983    3687.0855 
   11000     1.258946   -5.1861623            0   -3.2982154    5.4573961    2838.0906 
   12000    1.2877892   -5.1704306            0   -3.2392298    6.3048304    2808.2629 
Loop time of 0.649276 on 48 procs for 2000 steps with 4000 atoms

Performance: 532285.090 tau/day, 3080.354 timesteps/s
99.6% CPU use with 48 MPI tasks x no OpenMP threads

MPI task timing breakdown:
Section |  min time  |  avg time  |  max time  |%varavg| %total
---------------------------------------------------------------
Pair    | 0.29779    | 0.32162    | 0.34678    |   2.1 | 49.54
Neigh   | 0.042148   | 0.043966   | 0.046687   |   0.5 |  6.77
Comm    | 0.20437    | 0.2336     | 0.26159    |   2.8 | 35.98
Output  | 5.4103e-05 | 5.5591e-05 | 7.0906e-05 |   0.0 |  0.01
Modify  | 0.042246   | 0.045098   | 0.048751   |   0.9 |  6.95
Other   |            | 0.004936   |            |       |  0.76

Nlocal:        83.3333 ave          94 max          74 min
Histogram: 2 2 4 10 6 11 5 4 2 2
Nghost:        2088.15 ave        2121 max        2067 min
Histogram: 6 4 7 8 9 6 2 3 1 2
Neighs:        13603.2 ave       15830 max       11584 min
Histogram: 4 1 5 11 7 7 3 7 0 3

Total # of neighbors = 652956
Ave neighs/atom = 163.23900
Neighbor list builds = 144
Dangerous builds = 13

#############################
# L I N E A R  Q U E N C H  #
#############################

# Define solid atoms. This closely follows ten Wolde  Ruiz-Montero and Frenkel  Faraday Discuss  1996  104  93-110
# Compute components of the per-atom q6 vector
compute q6 all orientorder/atom degrees 1 6 components 6 nnn NULL cutoff 1.3 # compute the Q6 parameter.
                                                                             # Use all neighbours within 1.3 unit cell.

# get number of connections
compute coord_number all coord/atom orientorder q6 0.5

# An atom is solid if it has 8 or more connections (of a possible 14)
variable is_solid atom c_coord_number>=8
group solid dynamic all var is_solid    # Must be dynamic to update
dynamic group solid defined

# do clustering
compute cluster solid cluster/atom 1.3 # Create a cluster where all atoms within are solid and max 1.3 units from another member

# define chunks one chunk per cluster
compute clus_chunks solid chunk/atom c_cluster nchunk every compress yes  # Says which atoms are in which chunk

# count the size of each chunk
compute size_chunks solid property/chunk clus_chunks count


# Find the maximum entry in the vector of chunk sizes
variable max_n equal max(c_size_chunks)


# Thermo style which includes this variable
# thermo_style custom step temp pe vol v_max_n

thermo ${N}  # Print the thermo information every 100 steps
thermo 1000  

# Reset the npt fix at a lower temperature (below freezing)
fix 1  all npt temp  ${temp} ${temp}  0.1  iso  5.68  5.68  0.5  mtk yes tchain  5  pchain  5
fix 1  all npt temp  0.45 ${temp}  0.1  iso  5.68  5.68  0.5  mtk yes tchain  5  pchain  5
fix 1  all npt temp  0.45 0.45  0.1  iso  5.68  5.68  0.5  mtk yes tchain  5  pchain  5

dump dmp2 all dcd ${N} traj.dcd
dump dmp2 all dcd 1000 traj.dcd


compute msd all msd com yes
variable twopoint equal c_msd[4]/6/(step*dt+1.0e-6)
fix 9 all vector 10 c_msd[4]
variable fit equal slope(f_9)/6/(10*dt)
thermo_style custom step temp pe c_msd[4] v_twopoint v_fit v_max_n

fix 1 all npt temp 1.25 ${temp} 0.1 iso 5.68 5.68 0.5 mtk yes tchain 5 pchain 5
fix 1 all npt temp 1.25 0.45 0.1 iso 5.68 5.68 0.5 mtk yes tchain 5 pchain 5
run 500000 # 5000000  # Run for this many steps
Neighbor list info ...
  update every 1 steps, delay 10 steps, check yes
  max neighbors/atom: 2000, page size: 100000
  master list distance cutoff = 3.8
  ghost atom cutoff = 3.8
  binsize = 1.9, bins = 8 8 8
  4 neighbor lists, perpetual/occasional/extra = 1 3 0
  (1) pair lj/cut, perpetual
      attributes: half, newton on
      pair build: half/bin/atomonly/newton
      stencil: half/bin/3d
      bin: standard
  (2) compute orientorder/atom, occasional
      attributes: full, newton on
      pair build: full/bin/atomonly
      stencil: full/bin/3d
      bin: standard
  (3) compute coord/atom, occasional
      attributes: full, newton on
      pair build: full/bin/atomonly
      stencil: full/bin/3d
      bin: standard
  (4) compute cluster/atom, occasional
      attributes: full, newton on
      pair build: full/bin/atomonly
      stencil: full/bin/3d
      bin: standard
Per MPI rank memory allocation (min/avg/max) = 9.842 | 9.848 | 9.855 Mbytes
Step Temp PotEng c_msd[4] v_twopoint v_fit v_max_n 
   12000    1.2877892   -5.1704306 4.9923062e-30 3.4668792e-32 8.3333333e+20            1 
   13000    1.2647088   -5.2137506   0.66809225 0.0042826425  0.055453866            4 
   14000    1.2797808    -5.240181      1.34165 0.0079860114  0.055775898            2 
   15000    1.2502337   -5.1878694    2.0180519  0.011211399  0.056333792            1 
   16000    1.2277517    -5.187501    2.6820956  0.013969248  0.055954513            2 
   17000    1.2520384   -5.2268944     3.319593  0.016272514  0.055859705            2 
   18000    1.2193713   -5.2328394    4.0036895  0.018535599  0.055828154            3 
   19000    1.2300564   -5.2505173    4.6746913  0.020503031  0.055643271            3 
   20000     1.255889   -5.2229902    5.3830656   0.02242944  0.055807195            3 
   21000     1.219413   -5.2265147    6.1444656  0.024382799  0.056116522            6 
   22000    1.2428141   -5.2368956    6.7863754  0.025705967  0.056614657            2 
   23000    1.2410564   -5.2578476    7.3712861  0.026707558  0.056593136            2 
   24000    1.2215139   -5.2382764    8.0119769  0.027819364  0.056250631            2 
   25000    1.2054559   -5.2323932    8.6596814  0.028865604  0.056047396            2 
   26000    1.2199626   -5.2825509    9.2021431  0.029494048  0.055639116            3 
   27000    1.1887637   -5.2883856    9.7692842  0.030152111  0.055303713            2 
   28000    1.1946455   -5.2534536    10.564857  0.031443028  0.055017133            3 
   29000     1.251881   -5.3121971    11.170772  0.032099919  0.054951689            1 
   30000    1.1861222   -5.2789717     11.88492  0.033013667  0.054871993            3 
   31000    1.2203342   -5.2596585    12.418488  0.033383032  0.054737147            3 
   32000    1.2469439   -5.2379743    13.001704  0.033858604  0.054566427            3 
   33000    1.2190473   -5.2428266    13.511129  0.034119013  0.054270893            4 
   34000    1.2021535   -5.2605842    14.223714  0.034862043  0.054012763            1 
   35000    1.2024928   -5.3020529    14.759773  0.035142315  0.053765908            2 
   36000     1.212537   -5.2874363    15.278571  0.035367063  0.053513269            2 
   37000    1.2306274   -5.3588494    15.790502  0.035564193  0.053184664            2 
   38000     1.212311   -5.2884612    16.347035   0.03584876  0.052905094            2 
   39000    1.2038754    -5.304283    16.961346  0.036242193  0.052614889            5 
   40000    1.1985126   -5.2504222    17.549513  0.036561485    0.0523768            2 
   41000    1.2321764   -5.2769107    18.186704  0.036964844  0.052163405            2 
   42000    1.2338132   -5.2790111     18.63402  0.036972261  0.051935217            3 
   43000    1.1897939   -5.2822919    19.180699  0.037171897  0.051717873            3 
   44000    1.2146591   -5.3221111    19.812259  0.037523217  0.051554431            2 
   45000    1.2203674   -5.2858261    20.378587  0.037738123  0.051390868            2 
   46000    1.1911767   -5.3312399    20.962399   0.03797536  0.051199256            3 
   47000    1.2192517   -5.3297121    21.666687  0.038416111   0.05105078            2 
   48000    1.1979056   -5.3365653    22.139132  0.038435992  0.050911284            2 
   49000    1.2082499   -5.3341469    22.661026  0.038539159  0.050756379            3 
   50000    1.1555485   -5.3490722    23.153996  0.038589993  0.050600528            1 
   51000    1.2007729   -5.3489274    23.476324  0.038360007  0.050426421            4 
   52000    1.1792586   -5.3581943    24.090885  0.038607188  0.050239472            1 
   53000     1.191495    -5.312954    24.846477  0.039066787   0.05006889            2 
   54000    1.1426182   -5.3616174    25.246957  0.038961354  0.049911438            2 
   55000    1.1935084   -5.3287692    25.782742  0.039064761  0.049758028            4 
   56000    1.2229557   -5.3459662    26.311476  0.039153981  0.049604051            2 
   57000    1.1708843   -5.3409713    26.811911    0.0391987  0.049447432            4 
   58000    1.1908216    -5.314555    27.495834  0.039505508  0.049293804            4 
   59000    1.1878837    -5.332051    27.997729  0.039544814  0.049162976            3 
   60000      1.19186   -5.3482288    28.636144  0.039772422  0.049076026            2 
   61000    1.1833726   -5.3459944    29.269924  0.039986234  0.048980031            3 
   62000     1.198614   -5.3258658    29.698164  0.039916887  0.048887426            2 
   63000     1.150064   -5.3862931    30.163201  0.039898414   0.04877633            2 
   64000    1.1638037   -5.3730858    30.661295   0.03992356  0.048662178            2 
   65000    1.1600849   -5.3725225    31.307288  0.040137549   0.04856194            4 
   66000    1.1874056   -5.4171665    31.964934  0.040359765  0.048487555            2 
   67000    1.1509585   -5.4131059    32.618598  0.040570396  0.048444093            4 
   68000    1.1371147    -5.390881    33.165857  0.040644433  0.048407922            2 
   69000    1.1525533    -5.377192    33.782775  0.040800453  0.048367885            2 
   70000    1.1450199   -5.3852971    34.242866  0.040765316  0.048323715            5 
   71000    1.1516089   -5.4361418    34.637693  0.040654569  0.048266315            2 
   72000    1.1555916   -5.4070966    35.032807   0.04054723   0.04819411            4 
   73000    1.1373373   -5.4004455    35.596596  0.040635383  0.048117188            2 
   74000    1.1448827   -5.4106818    36.384473  0.040973505  0.048058962            3 
   75000    1.1393405   -5.3862877    36.766786  0.040851984   0.04800951            6 
   76000    1.1443816   -5.4149149    37.142439  0.040726358  0.047932425            4 
   77000     1.142798   -5.4248603    37.477563  0.040560133    0.0478515            4 
   78000    1.1705778   -5.4224911    38.038408  0.040639324  0.047754916            6 
   79000    1.1425987   -5.4254398     38.21167  0.040307668  0.047653285            3 
   80000    1.0985781   -5.4384566    38.881158  0.040501206  0.047529193            2 
   81000    1.1303965   -5.4559863    39.206542  0.040335948  0.047408797            3 
   82000    1.1618176   -5.4410384    39.883618  0.040532132   0.04729387            5 
   83000    1.1526718   -5.4359987    40.455553  0.040618024  0.047184038            5 
   84000    1.1633854   -5.4380081     41.04161  0.040715883  0.047081516            6 
   85000    1.1299291   -5.4565287    41.299798  0.040489998  0.046973242            2 
   86000    1.1395073   -5.4309484    41.541758  0.040253641  0.046855478            2 
   87000    1.1286427   -5.4266566    42.086939  0.040313159  0.046724657            5 
   88000    1.1150278   -5.4826902    42.611514  0.040351812  0.046609236            2 
   89000    1.1133979   -5.4660105     43.07413  0.040331583  0.046498409            3 
   90000     1.118239   -5.4681959     43.62927  0.040397472  0.046388541            3 
   91000    1.1175276   -5.4389427    44.248705  0.040520792  0.046283636            3 
   92000    1.1273707   -5.4539674    44.318808  0.040143848  0.046179253            4 
   93000    1.1208016   -5.4928411    45.059642  0.040376023  0.046073867            4 
   94000    1.1111662   -5.5059667    45.646091  0.040466393  0.045973883            4 
   95000    1.1048077   -5.4889898    46.276307  0.040593252  0.045895676            2 
   96000    1.0889982   -5.4599628    47.073818  0.040862689  0.045831531            2 
   97000    1.1372162   -5.4420436    47.274799  0.040614088  0.045767805            2 
   98000      1.12444   -5.4683936    47.817105  0.040660803  0.045698086            3 
   99000    1.1127432   -5.4896601    48.312964  0.040667478  0.045624892            3 
  100000    1.1240161   -5.4945605    48.927657  0.040773047  0.045562066            5 
  101000    1.1266798   -5.4727094    49.544889  0.040878621  0.045511261            2 
  102000    1.1019815   -5.4686998    50.300121   0.04109487  0.045463283            6 
  103000    1.0624025   -5.5120111     50.39526  0.040772863  0.045414063            3 
  104000    1.0929045   -5.5073603    50.848462   0.04074396  0.045355632            1 
  105000    1.0910907   -5.5141566    51.154566  0.040598861   0.04528923            4 
  106000    1.1162961   -5.5233159    51.689244  0.040636198  0.045218392            5 
  107000     1.086536   -5.5352101    52.298372  0.040730819  0.045152368            2 
  108000    1.0904887   -5.5016885    52.765941  0.040714461  0.045095823            1 
  109000    1.0811941   -5.5165008    53.116367  0.040608843  0.045031704            4 
  110000    1.0969314   -5.5588115    53.535895  0.040557496  0.044967067            2 
  111000    1.0792452   -5.5512831    54.170497  0.040668541  0.044908145            2 
  112000    1.0808936   -5.5137308    54.820552  0.040789101   0.04485596            3 
  113000    1.0991013   -5.5223168    55.450427  0.040892645  0.044800536            3 
  114000    1.0745584   -5.5688364    55.558517  0.040612951  0.044748695            5 
  115000    1.0956855   -5.5339829    56.322292  0.040813255  0.044692324            4 
  116000     1.076044   -5.5151244    56.572384   0.04064108  0.044640685            4 
  117000     1.089285   -5.5454394    56.932611  0.040550293  0.044584597            2 
  118000    1.0649263   -5.5271913     57.79906  0.040818545   0.04452855            2 
  119000    1.0807653   -5.5580257    58.000115  0.040616327  0.044476302            2 
  120000    1.0790873   -5.5174155    58.460454  0.040597538  0.044423259            5 
  121000    1.0682294   -5.5899305     58.88773  0.040556288  0.044369452            4 
  122000    1.0711012   -5.5880069    59.240816  0.040465038  0.044312059            3 
  123000    1.0852077   -5.5753279    59.617832  0.040391485  0.044253149            3 
  124000    1.0749779   -5.5943704    59.964537  0.040298748  0.044190143            3 
  125000    1.0784703   -5.5727139    60.634366   0.04042291  0.044127026            1 
  126000     1.043473   -5.5725724    61.269005  0.040521828   0.04406505            3 
  127000    1.0777263   -5.5780755     61.31795  0.040234875  0.044000162            3 
  128000    1.0814463   -5.5560914     61.70047  0.040169576  0.043933891            4 
  129000    1.0695683   -5.6141716    62.301505   0.04024645  0.043871372            3 
  130000    1.0886553   -5.6377471    62.410628  0.040006812  0.043802264            6 
  131000    1.0339703   -5.5844362    62.966316  0.040054908  0.043730869            2 
  132000    1.0481544    -5.553289    63.293261  0.039957867  0.043654827            3 
  133000    1.0341841   -5.5874695    63.550258  0.039818457  0.043579567            2 
  134000    1.0385151   -5.6093361    63.971049   0.03978299  0.043500633            4 
  135000    1.0666195   -5.5718753    64.893469  0.040057697  0.043426647            2 
  136000    1.0645432   -5.5964818     65.24974  0.039981458  0.043361507            3 
  137000    1.0424224   -5.6066806    65.529553  0.039859825  0.043300556            2 
  138000    1.0316072   -5.6321624    66.103247   0.03991742  0.043232744            3 
  139000    1.0233603   -5.5978833    66.425086  0.039823193  0.043161021            5 
  140000    1.0732494   -5.6413877    66.420619  0.039536082  0.043084005            4 
  141000    1.0486893   -5.6522593     66.62892  0.039378794  0.043008341            3 
  142000    1.0379258   -5.6479621    67.129299  0.039395128    0.0429304            4 
  143000    1.0430149   -5.6476141    67.559415  0.039370288  0.042849952            4 
  144000    1.0464821   -5.6046945    68.043023  0.039376749  0.042770926            3 
  145000     1.033403   -5.6684224    68.667988  0.039464361  0.042695909            3 
  146000    1.0391289   -5.6450521     68.80323   0.03927125  0.042618945            4 
  147000    1.0338009   -5.6582243    69.213399  0.039236621   0.04254005            4 
  148000    1.0050983   -5.6330007     69.60785  0.039193609  0.042462941            3 
  149000     1.018737   -5.6355538    70.019607  0.039160854  0.042388833            4 
  150000    1.0302194   -5.6387255    70.203004  0.039001669  0.042308628            4 
  151000    1.0279389   -5.6580101     70.57968  0.038951258  0.042225713            5 
  152000    1.0181105   -5.6519727    70.810999  0.038821819  0.042142583            7 
  153000    1.0571062   -5.6629819    71.353162  0.038863378  0.042059052           10 
  154000    1.0241243   -5.6793717    71.243367  0.038551605    0.0419712            7 
  155000    1.0374084   -5.7062412    71.462453  0.038420673  0.041883081            4 
  156000    1.0389248    -5.653632     72.28165  0.038611992  0.041795835            5 
  157000   0.99144074   -5.7162704    72.023785  0.038229185    0.0417052            3 
  158000    1.0329628   -5.7041276    72.605427  0.038294001  0.041608865            3 
  159000    1.0138988   -5.6873554    72.717356  0.038111822  0.041511836            3 
  160000     1.009087   -5.7200719    73.008291  0.038025151  0.041418442            5 
  161000    1.0260563   -5.7352319    73.494344  0.038040551  0.041322973            2 
  162000   0.98478863   -5.7154119    74.096913  0.038115696  0.041231417            3 
  163000    1.0187481   -5.7012339    74.135706   0.03790169  0.041142859            4 
  164000    1.0209214   -5.6945172     74.80674  0.038011555  0.041052651            6 
  165000   0.98537099   -5.7384572    74.812409  0.037784045  0.040958824            5 
  166000   0.98080613   -5.7163928     75.30035  0.037801381  0.040865998            3 
  167000   0.99109586   -5.7262042    75.580096  0.037714619  0.040776764            3 
  168000   0.99171119   -5.7311702    76.108439  0.037752202  0.040683711            4 
  169000     1.001219   -5.7510964    76.443566  0.037694066  0.040595575            5 
  170000   0.97265341   -5.7354476    76.787041  0.037640706  0.040507117            6 
  171000    1.0103642   -5.7074455    77.163883  0.037604231  0.040420861            9 
  172000   0.97907081   -5.7699461    77.302026  0.037452532  0.040334432            3 
  173000    1.0141136   -5.7756878     77.64445  0.037400987  0.040247146            5 
  174000    1.0207956   -5.7588972    77.648871  0.037188156  0.040154909            3 
  175000    1.0093254   -5.7578532     78.15664  0.037217448  0.040062802            4 
  176000   0.96852019   -5.7579592    78.811534  0.037316067  0.039975106            6 
  177000   0.99998936   -5.7728856    78.802706  0.037101086  0.039885698            3 
  178000   0.99503951   -5.7894747    79.043672  0.037005465  0.039796153           11 
  179000     1.007613   -5.7458138    79.515522  0.037018399  0.039706896            4 
  180000   0.97805515   -5.7921386    79.485554  0.036798867  0.039616525            5 
  181000   0.98981262   -5.7734591    79.879902  0.036777119   0.03952341            2 
  182000   0.99745796   -5.7740389    80.087486  0.036670094  0.039433188            4 
  183000   0.96767204   -5.7893517    80.616443  0.036710584  0.039343038            3 
  184000   0.95832898   -5.7974161    81.106366  0.036732956  0.039257636            6 
  185000   0.96652485    -5.760553    81.459293  0.036693375  0.039169627            5 
  186000   0.96641077   -5.7881397    81.386441  0.036463459  0.039080644            4 
  187000   0.96792887   -5.8164503    81.978054  0.036532109   0.03899125            3 
  188000   0.96478806   -5.7982994    82.256244  0.036461101   0.03890185            3 
  189000   0.94076468   -5.8145191     82.35801  0.036313055  0.038812006            5 
  190000   0.94724216   -5.8428416    82.335406   0.03611202  0.038721337            6 
  191000   0.98941216   -5.8519335    82.312269  0.035912857  0.038627935            8 
  192000   0.96292086   -5.8477436    82.690319  0.035889895  0.038533932            3 
  193000   0.97012782   -5.8169361     82.74419  0.035727198  0.038438538            2 
  194000   0.95971448   -5.8085983    83.152477  0.035718418  0.038341831           10 
  195000   0.94958853   -5.8086789    83.435728  0.035656294   0.03824546            7 
  196000    0.9571554   -5.8510326    83.503768  0.035503303  0.038148644            6 
  197000   0.92820991   -5.8494011    83.797974  0.035447535  0.038051595            6 
  198000   0.97837288   -5.8584056    83.938185  0.035327519  0.037953374            3 
  199000   0.95538053   -5.8217839    84.623856  0.035437125  0.037858834            3 
  200000   0.94307747   -5.8435995    84.843181  0.035351325  0.037764289            5 
  201000   0.95782994   -5.8523198    85.088083  0.035276983  0.037669798            4 
  202000    0.9499332   -5.8329329    85.277273  0.035180393  0.037574062            2 
  203000   0.94778241   -5.8614101    85.358944  0.035040617  0.037478146            7 
  204000   0.95185685    -5.843446    85.353907  0.034866792  0.037381279            3 
  205000   0.92613452   -5.8640343     85.85724  0.034901317  0.037286319            7 
  206000   0.89838472   -5.8704088    86.068655  0.034817417  0.037192472            7 
  207000   0.93858608   -5.8583753    86.548843  0.034842529  0.037099128            4 
  208000   0.95418806   -5.8783567     86.97997  0.034847744  0.037009775            3 
  209000   0.93194278   -5.8808348    87.331279  0.034821084  0.036919932           11 
  210000   0.90536839   -5.8855527    87.274152    0.0346326  0.036828501            4 
  211000   0.91792096   -5.9075145    87.526527  0.034568138  0.036738302            8 
  212000   0.94244329   -5.8740992    87.955993  0.034573896  0.036648295            4 
  213000   0.92820192    -5.903747    88.193088  0.034504338  0.036559541            4 
  214000   0.91652214   -5.8770008    88.697677  0.034539594  0.036470412            5 
  215000   0.94121785   -5.8837745     88.75058   0.03439945  0.036381316            5 
  216000   0.89333161   -5.8939151    88.996305  0.034334994  0.036292244            8 
  217000    0.9248279   -5.9210369    89.121562   0.03422487  0.036204998            4 
  218000   0.87989865   -5.9282032    89.284204  0.034130047  0.036116375            7 
  219000   0.93646116   -5.9074593    89.588599   0.03409003  0.036029253            6 
  220000   0.89387533   -5.9168776    89.901982  0.034053781  0.035943698            6 
  221000   0.91691665   -5.9155331    90.281584  0.034042829  0.035859042            7 
  222000   0.91027276   -5.9254685    90.162302  0.033844708  0.035772683            7 
  223000   0.90422397   -5.9315116    90.463938  0.033805657  0.035684973            5 
  224000   0.90529617     -5.95777    90.478463  0.033660143  0.035598043            3 
  225000   0.91952527   -5.9503124    90.706631  0.033595048  0.035509693            8 
  226000   0.91560597   -5.9241139    91.111863   0.03359582   0.03542144            6 
  227000   0.89987656   -5.9698109    91.081381   0.03343663  0.035332084            3 
  228000   0.91444907   -5.9445726    91.413294  0.033411292  0.035243464            6 
  229000   0.94130185    -5.962299     91.35233  0.033243206  0.035154441            7 
  230000   0.87501451   -5.9442577    91.605307  0.033190329  0.035064321            5 
  231000   0.88645021   -5.9876713    91.897057  0.033151896  0.034975633            5 
  232000   0.89744989   -5.9875789     92.27536  0.033144885  0.034888442            4 
  233000   0.88039062   -5.9663549    92.482244  0.033076625  0.034803614            5 
  234000   0.92112343   -5.9778334    92.634661  0.032989551  0.034718912            4 
  235000    0.8897725   -6.0006699    93.051871  0.032997117  0.034634427            3 
  236000   0.90168611   -5.9854416    93.188015  0.032905372  0.034549996            5 
  237000   0.89233437   -5.9993751    93.269873  0.032795314   0.03446365            4 
  238000   0.89752626    -5.995874    93.462175  0.032724851  0.034376993            6 
  239000   0.89001826   -5.9923587    93.635738  0.032648444  0.034290973            5 
  240000   0.89232307   -6.0255291    93.699491  0.032534546  0.034205473           18 
  241000    0.8732324   -5.9996743    93.873351  0.032459665  0.034119526            6 
  242000   0.87889699   -6.0040112     93.96746  0.032357941  0.034033477            6 
  243000   0.87163303   -5.9582194     94.54571  0.032423083  0.033948449            7 
  244000   0.89475725    -6.015334    94.493689  0.032272435  0.033863778            7 
  245000   0.87534292   -6.0322509    94.621837  0.032184298   0.03377831            6 
  246000   0.89281243   -6.0422354    94.904951  0.032149374  0.033694008            6 
  247000   0.88497818   -6.0103454    95.065118  0.032073251  0.033608069            3 
  248000   0.85399564   -6.0052861    95.453118    0.0320743  0.033521305           12 
  249000   0.88220925     -6.06478    95.441009  0.031941435  0.033434442            4 
  250000   0.84831242   -6.0060255    95.432695  0.031810898  0.033347042            6 
  251000   0.86399537   -6.0476265    95.428658  0.031682821  0.033258514            8 
  252000   0.86090744   -6.0335871     95.76721  0.031669051  0.033170933            3 
  253000   0.86453209    -6.047449    95.500684  0.031456088  0.033082045            5 
  254000   0.86124257   -6.0194096    95.892647  0.031460842  0.032993624           14 
  255000   0.86711173   -6.0469981     96.08259  0.031399539  0.032904789            6 
  256000   0.85074492    -6.061236      96.1872  0.031310938  0.032817341            9 
  257000   0.85350232   -6.0293002    96.134964  0.031172167  0.032729156            5 
  258000   0.87009033   -6.0501873    96.367457  0.031126439  0.032639463            7 
  259000   0.84816025   -6.0544039    96.318355  0.030990461  0.032550551           16 
  260000   0.86232194   -6.0713841    96.360882  0.030884898  0.032461449            8 
  261000   0.83826737   -6.0535213    96.826661  0.030915281  0.032371462            8 
  262000   0.85090092   -6.0517315     97.10676  0.030886374  0.032282602           10 
  263000   0.84893965   -6.0830112    96.831166  0.030681611   0.03219369            4 
  264000   0.85217194   -6.1067852    96.559363  0.030479597  0.032104445            5 
  265000   0.83721245   -6.0990619    97.101983  0.030535215   0.03201566            6 
  266000   0.87312276    -6.060517    97.419222  0.030519806  0.031927706            5 
  267000   0.83514315    -6.096714    97.560666  0.030449646  0.031840295           11 
  268000   0.83917438   -6.0461085    98.015977  0.030477605  0.031754086            3 
  269000   0.84999055   -6.0865962    98.188186  0.030417654  0.031669207           10 
  270000   0.82269072   -6.1146228    98.154647  0.030294644  0.031584715           10 
  271000   0.83543706   -6.1326508    98.348646  0.030242511  0.031500161            6 
  272000   0.84122772   -6.1162912    98.502687  0.030178519   0.03141533            4 
  273000    0.8445474   -6.1344336    98.470759  0.030058229  0.031330162           10 
  274000   0.83397645   -6.1405014    98.616089  0.029992728  0.031245322            6 
  275000   0.82651733   -6.0891604    98.874255  0.029961895   0.03116081            3 
  276000   0.83028713   -6.1266546    98.970621  0.029882434  0.031077558            7 
  277000   0.82093019   -6.1299254    99.149732  0.029828439  0.030993529            7 
  278000   0.82342966   -6.1491317    99.037877  0.029687613  0.030909382            7 
  279000   0.82855347   -6.1520595    99.067439  0.029590035  0.030824547            5 
  280000   0.83557186    -6.135328     99.55002  0.029627982  0.030740296            9 
  281000   0.81611552    -6.160977    99.429205  0.029486716  0.030655867            7 
  282000   0.82247695    -6.187752    99.578881  0.029426383  0.030570974            8 
  283000   0.81949946   -6.1758233    99.854511  0.029403566  0.030486133           20 
  284000   0.79784521    -6.165931    99.924968  0.029320706  0.030402357            6 
  285000   0.82257496   -6.2048269    99.680528  0.029146353  0.030319373            6 
  286000   0.81770757   -6.1654098     99.85694  0.029095845  0.030235542            8 
  287000   0.82364781   -6.1828237    100.22415  0.029101088  0.030151025            4 
  288000   0.81611593   -6.1775753    99.985905  0.028931107  0.030067425            5 
  289000   0.82240704   -6.1767637    100.29521  0.028920188  0.029983869            6 
  290000   0.79760005   -6.1948284    100.13975  0.028775789  0.029900083           12 
  291000   0.79119878   -6.1829816     100.6429   0.02882099  0.029817097            8 
  292000   0.83420666   -6.2279203     100.4407  0.028664582  0.029734284            9 
  293000   0.80226368   -6.1822222    100.92085  0.028703312   0.02965171            9 
  294000   0.78644791   -6.1964733    101.12879  0.028664623  0.029570629           14 
  295000   0.79950091   -6.1960559     101.4876  0.028668814  0.029489204            7 
  296000    0.7921835   -6.2175876    101.30921  0.028521738  0.029407532            9 
  297000   0.79596804   -6.2177872    101.33784  0.028433737  0.029325436           11 
  298000   0.78114587   -6.2150003    101.26195    0.0283171  0.029242692            5 
  299000    0.7962278   -6.2180192    101.54773  0.028302043  0.029161221            6 
  300000   0.77127854   -6.2511809    101.53895  0.028205264  0.029080857            8 
  301000   0.76214202   -6.2686089    101.19879  0.028017383  0.028999651            8 
  302000   0.78186345    -6.258093    101.35478  0.027967654  0.028917335            7 
  303000   0.78626976   -6.2252991    101.58924  0.027939834  0.028835744           16 
  304000   0.78879268   -6.2328752     101.8981  0.027932592   0.02875453            9 
  305000   0.78291899   -6.2931488    101.94224  0.027853072  0.028672774            4 
  306000   0.78625023   -6.2322961    102.12022  0.027810518  0.028591639            8 
  307000   0.76525477   -6.2755067    102.24865  0.027754792  0.028511278            8 
  308000    0.7867706   -6.2746416    102.16432  0.027641862  0.028431079            6 
  309000   0.75552418   -6.2708497    102.26076  0.027578414  0.028350993            5 
  310000   0.76962604    -6.259376    102.28903  0.027497052  0.028271038           12 
  311000   0.76491311    -6.246737    102.78322  0.027541055   0.02819129            8 
  312000    0.7719151   -6.3073344     102.1362  0.027279969  0.028111281            6 
  313000   0.76634017   -6.2812341    102.27383  0.027229454  0.028030962           11 
  314000   0.77346775   -6.2935292    102.66883  0.027247566  0.027951469            8 
  315000   0.76795016   -6.2959268    102.87704  0.027216147  0.027872854            7 
  316000   0.74586494   -6.3103203    102.76484  0.027100432  0.027794378            7 
  317000   0.77933582   -6.3241195    103.08481  0.027099055   0.02771618           15 
  318000   0.75837276   -6.2751432    103.12365  0.027024016  0.027638119            7 
  319000   0.76981746    -6.321588     103.1372  0.026942842  0.027560027           18 
  320000   0.75872934   -6.3128474    103.22297  0.026880981  0.027482111           12 
  321000   0.76328489    -6.283127    103.35644  0.026831891  0.027403874            5 
  322000   0.76426821   -6.3014967    103.24338  0.026719301  0.027325999            9 
  323000   0.74869654   -6.3254877    103.30645   0.02665285  0.027248629            7 
  324000   0.75435713   -6.3136901    103.31233  0.026572101  0.027170355           14 
  325000   0.74763009   -6.3394315    103.20668  0.026463252  0.027091971            8 
  326000   0.75973313   -6.3402379    103.04796  0.026341503  0.027013064           22 
  327000   0.76763367   -6.3447248    103.41751  0.026355125  0.026934576           12 
  328000   0.75162697   -6.3749142    103.14111  0.026204552  0.026855925            9 
  329000   0.74041662    -6.323957    103.78899  0.026289004  0.026777637            8 
  330000   0.73651925   -6.3508295    103.36439  0.026102118  0.026699095           11 
  331000   0.72910569   -6.3494644     103.2315  0.025989804   0.02662069           10 
  332000   0.73738377   -6.3869685    103.23971  0.025913583  0.026542536            4 
  333000   0.75104142   -6.3210802    103.85429  0.025989563  0.026464691            9 
  334000   0.73525651   -6.3634175    103.96164  0.025938534  0.026387165           11 
  335000   0.71794269   -6.3466471    104.04366  0.025881508   0.02631043           12 
  336000   0.73165885   -6.3799689    103.93687  0.025777993  0.026234469           10 
  337000   0.72992605   -6.3811671    103.76606  0.025659264  0.026158129            9 
  338000    0.7243776    -6.371452    103.81598  0.025595657  0.026081735           10 
  339000   0.71906753   -6.3647291    104.22415  0.025620489  0.026005831           10 
  340000    0.7288873   -6.3575202    104.13555   0.02552342  0.025930466           10 
  341000   0.72470678   -6.3773571    104.04837  0.025427265  0.025854891            8 
  342000   0.72330776   -6.3995668    103.85689  0.025306261  0.025778856           13 
  343000   0.71722656    -6.395967    104.02561  0.025273471  0.025703069           16 
  344000   0.72392422   -6.4020496    103.86663   0.02516149   0.02562705            6 
  345000   0.72757938   -6.4021474    103.96375  0.025112016  0.025551376           27 
  346000   0.71824518   -6.4288743    104.19361  0.025094801  0.025475741           10 
  347000   0.70583659   -6.4197546    104.25542  0.025037325  0.025399543            6 
  348000   0.70451111   -6.4377633    104.28664  0.024972854  0.025324108           17 
  349000   0.71589293   -6.4201992    104.56523   0.02496782  0.025249585           11 
  350000   0.72101099   -6.4374395    104.68595  0.024925226  0.025175428           17 
  351000   0.70294357   -6.4130263    104.59475  0.024832561  0.025100998            8 
  352000   0.70426154   -6.4232951    104.74948  0.024798646  0.025026829           14 
  353000   0.69303675   -6.4180074    104.63262  0.024700808  0.024952475           13 
  354000      0.69255   -6.4511322    104.60703  0.024625006  0.024878432            7 
  355000   0.69770223   -6.4776684    104.48855  0.024527829  0.024804183           21 
  356000    0.6979313   -6.4418297    104.75838  0.024522093  0.024730743            6 
  357000   0.71091914   -6.4604838    104.50034  0.024393171  0.024657302           17 
  358000   0.69906154   -6.4420757    104.84865   0.02440611  0.024584389           36 
  359000   0.69550653   -6.4672867    104.68904  0.024301077  0.024511568           20 
  360000   0.68800387   -6.4635359    104.83998  0.024268514  0.024439286           26 
  361000   0.70479874   -6.4647324    104.80244  0.024192622  0.024366906           11 
  362000   0.68460565    -6.472727    104.89106  0.024146193  0.024294944           39 
  363000   0.67809978   -6.4949583    105.10613  0.024129046  0.024223339           27 
  364000   0.67837142   -6.5024401    105.13777  0.024070002   0.02415204           41 
  365000    0.6883464   -6.5064361    105.25836  0.024031588  0.024081357           30 
  366000   0.66725427   -6.5240304    105.07974  0.023925259  0.024010171           40 
  367000   0.68571411   -6.5155836    105.06505  0.023856732  0.023939259           34 
  368000   0.66689926   -6.5123106    105.15901  0.023813181  0.023868433           47 
  369000   0.67375519   -6.5162139    105.30122  0.023780764  0.023797541           38 
  370000   0.66431991   -6.4947011    105.47715  0.023756115  0.023727261           23 
  371000   0.68676555   -6.5343659    105.08826  0.023604731  0.023656947           29 
  372000   0.67538603   -6.5106661    105.24724  0.023576891  0.023586912           15 
  373000   0.70143001   -6.5116238    105.37502  0.023542229  0.023517234           18 
  374000   0.67077138   -6.5483939    104.98438  0.023392241  0.023447281           33 
  375000   0.68424036   -6.5763221    105.09866  0.023355257   0.02337673           34 
  376000   0.67329137   -6.5614465    105.14936  0.023304379  0.023306241           28 
  377000    0.6601838   -6.5542252    105.14739  0.023242128  0.023235906           19 
  378000   0.66813018   -6.5683076    105.23595  0.023200166  0.023165625           20 
  379000   0.67393993   -6.5178564    105.27804  0.023148206  0.023096249           11 
  380000   0.65681096   -6.5696012    105.48111  0.023131823  0.023026977           17 
  381000   0.65701073   -6.5646683    105.29986  0.023031465  0.022957649           18 
  382000   0.67662657   -6.5588696    105.08642  0.022924611  0.022888509           23 
  383000   0.67112112   -6.5760371    105.25053  0.022900464  0.022819405           17 
  384000   0.66095093   -6.5868689    105.03413  0.022793866  0.022750414           16 
  385000   0.64828928   -6.5964636    105.12702  0.022754766  0.022681424           16 
  386000    0.6577036   -6.5766915    105.25895  0.022724299   0.02261303           13 
  387000   0.64243582   -6.6113934    105.17811  0.022648173  0.022544645           29 
  388000   0.64067145    -6.596752    105.26858   0.02260923  0.022476276           13 
  389000   0.64089212   -6.5976617    105.32078  0.022562293  0.022408028           18 
  390000   0.64148142   -6.5967383    105.40027  0.022521426  0.022340073           22 
  391000   0.64233652   -6.6137571    105.43834  0.022471939  0.022272313           29 
  392000   0.65451564   -6.6199991    105.38526   0.02240333   0.02220473           24 
  393000   0.63856937   -6.6132832    105.39641  0.022348687  0.022137274           16 
  394000   0.63389066   -6.6273877    105.13828  0.022237369   0.02206981           19 
  395000   0.65185659   -6.6143439    105.39972  0.022236227  0.022002643           17 
  396000   0.63643233    -6.646091    105.24294  0.022147083  0.021935295           10 
  397000   0.64549518   -6.6258406    105.38084  0.022120243  0.021868598           18 
  398000    0.6347948    -6.663936    105.44137   0.02207734  0.021802087           14 
  399000   0.62487482   -6.6673595    105.35484  0.022003934  0.021735217           16 
  400000   0.63940425   -6.6514921     105.3506  0.021948042  0.021668826           32 
  401000   0.62325878   -6.6507239    105.16416  0.021854563  0.021602425           30 
  402000   0.62149538   -6.6758275    105.42346  0.021853951  0.021536068           25 
  403000    0.6165614   -6.6460651    105.38451  0.021791668  0.021469615           29 
  404000   0.63569643   -6.6742036    105.19203  0.021698025  0.021403625           33 
  405000   0.62147043   -6.6735024    105.24342  0.021655024  0.021337804           48 
  406000   0.61814538   -6.6664401    105.27257   0.02160767  0.021272332           43 
  407000   0.60519696   -6.6670554     105.4317  0.021587162  0.021207362           31 
  408000   0.61473128   -6.6746367     105.2863  0.021504555  0.021142453           56 
  409000    0.6153506   -6.7118934    105.35373  0.021465714  0.021077466           37 
  410000   0.60531932   -6.6618637    105.28973  0.021400352  0.021012508           28 
  411000   0.60607707   -6.6978512    105.37576  0.021365726  0.020947808           29 
  412000   0.60975736   -6.6756076    105.29685  0.021297907  0.020882883           31 
  413000    0.6097747   -6.6931169    105.09881  0.021206378  0.020818054           38 
  414000   0.60207181   -6.6816551    105.09917  0.021155227  0.020753464           16 
  415000   0.61419126   -6.7059734    105.22568  0.021129654  0.020688854           35 
  416000   0.61625633   -6.6976208    105.21184  0.021076089  0.020624847           25 
  417000   0.60155906   -6.7040023    104.91667  0.020966562  0.020560717           50 
  418000   0.59532873   -6.7112788    105.24636   0.02098213  0.020496929           18 
  419000    0.5964431   -6.7089433    105.23664   0.02093012  0.020433316           12 
  420000   0.60789628   -6.7409447    104.96075  0.020825545  0.020369408           13 
  421000   0.60405612   -6.7120058    104.86699  0.020757519  0.020305929           12 
  422000   0.60619824   -6.7220509    104.83522  0.020702058  0.020242295           14 
  423000    0.5915306   -6.7459241    105.02832  0.020691159  0.020178831           43 
  424000   0.59084026   -6.7439933    104.81005  0.020599459   0.02011546           25 
  425000   0.58266666   -6.7703947    104.78463  0.020546006   0.02005237           24 
  426000   0.58398193   -6.7432357    104.65336  0.020472098  0.019989243           69 
  427000   0.58761037   -6.7642245    104.90279  0.020472831  0.019926338           10 
  428000   0.59527336   -6.7649223    104.90669  0.020425758  0.019863448           36 
  429000   0.57678068   -6.7656853     104.7447  0.020346678  0.019800945           20 
  430000   0.57697581   -6.7637697    104.69293  0.020289328  0.019738392           35 
  431000   0.58405742   -6.7625936    104.66271   0.02023641   0.01967617           21 
  432000   0.57621402   -6.7980659    104.83945   0.02022366  0.019613994           73 
  433000   0.57890905   -6.7972118    104.71397  0.020152805  0.019552172           62 
  434000   0.57272911   -6.8097264    104.58722  0.020082032  0.019490505           18 
  435000   0.57709021    -6.810546     104.7766  0.020072145  0.019428923           21 
  436000   0.57596069   -6.8219162    104.76022  0.020022977  0.019367468           41 
  437000   0.56375288   -6.7981909    104.76542  0.019978151  0.019306221           28 
  438000   0.56373017   -6.8291909    104.37126  0.019857545  0.019245006           51 
  439000   0.57390806   -6.7930347    104.53254  0.019842928  0.019183967           68 
  440000    0.5724633   -6.8014249    104.56893  0.019804721  0.019122958           54 
  441000   0.55700175   -6.8241965    104.49831  0.019746468  0.019062203           70 
  442000   0.57026542    -6.820702    104.50951  0.019703904  0.019001675          132 
  443000      0.56628   -6.8250567    104.57288  0.019671347  0.018941492           62 
  444000   0.57179941   -6.8285727    104.35424  0.019586005   0.01888153           64 
  445000   0.55359383   -6.8490748    104.62192  0.019592119  0.018821881          213 
  446000   0.56027859   -6.8280157    104.71344  0.019565291  0.018762378          112 
  447000   0.54779705   -6.8191946    104.47831  0.019477687  0.018703203          182 
  448000   0.55209048   -6.8219825    104.56448  0.019450238  0.018644078          140 
  449000   0.53863825   -6.8462001    104.48904  0.019392917  0.018584947           84 
  450000   0.54897068   -6.8537896     104.3549  0.019324982  0.018525974           96 
  451000   0.55143454   -6.8524268    104.24806  0.019262391  0.018467278          123 
  452000   0.55110338   -6.8577214    104.29121  0.019227731  0.018408619          100 
  453000   0.54223054   -6.8745178    104.36885  0.019199568  0.018350155          160 
  454000   0.53475563   -6.8943238    104.36843  0.019157201  0.018291764          137 
  455000   0.54657385   -6.8777445     104.2104  0.019086155  0.018233369          180 
  456000   0.53940501   -6.8577279    104.22514  0.019046993  0.018175261          113 
  457000   0.54351696    -6.894713    104.11929  0.018986012  0.018117336          126 
  458000   0.53947293   -6.8713712    104.14367  0.018948993  0.018059477          113 
  459000   0.52779693   -6.8772305    104.30835  0.018937609  0.018001854          103 
  460000   0.53632147   -6.8986524    103.90918  0.018824128  0.017944431          153 
  461000   0.54236417   -6.8663492    103.97923  0.018795957  0.017887101          137 
  462000   0.52567974   -6.8938926    104.20751  0.018796448  0.017830166          161 
  463000   0.52837026   -6.9098307    104.09112  0.018734902  0.017773341          116 
  464000   0.51558754   -6.9019031    103.77065   0.01863697  0.017716678          122 
  465000   0.51899925    -6.916655    104.02759  0.018642938  0.017660288          125 
  466000   0.52991833   -6.9075682    104.15612  0.018625915  0.017604143          158 
  467000   0.51948375   -6.9188901    103.94513  0.018548381    0.0175481          106 
  468000   0.52117045   -6.9238422    103.94823  0.018509301  0.017492293          104 
  469000   0.51693131   -6.9160872    104.10659  0.018497973  0.017436688          160 
  470000   0.52749179   -6.9171262     103.8745  0.018417465  0.017381322          158 
  471000   0.50525627   -6.9210685    103.80158   0.01836546  0.017326108          122 
  472000    0.5042595    -6.931985    103.86343  0.018337469  0.017271155          133 
  473000   0.51304895   -6.9168044    104.19238  0.018356656  0.017216454          129 
  474000   0.51115407   -6.9280889    103.75136  0.018240394    0.0171619          105 
  475000   0.49505566   -6.9288024    103.82051  0.018214125  0.017107503          138 
  476000   0.51208865   -6.9475504    103.79885  0.018172067  0.017053257          136 
  477000   0.50593295   -6.9425469    103.89944  0.018151544  0.016999206          134 
  478000   0.50230395   -6.9556943    103.88687  0.018111379  0.016945278          186 
  479000   0.50105649   -6.9395363    103.83469   0.01806449  0.016891588          166 
  480000   0.49976523   -6.9311964    104.03465  0.018061572  0.016838209          178 
  481000    0.4989281   -6.9540198    103.86521  0.017994665  0.016784969          168 
  482000   0.49983382   -6.9571516    103.94981  0.017971959  0.016731866          259 
  483000   0.49470068   -6.9559932    103.89538  0.017925359   0.01667899          113 
  484000   0.48502787    -6.957959    103.75441  0.017864052  0.016626246           85 
  485000   0.49772505     -6.96086    103.95626    0.0178619  0.016573801          130 
  486000   0.48831817   -6.9804598    103.86442  0.017809399  0.016521457          130 
  487000   0.49096346   -6.9825677    103.66761  0.017739154  0.016469216          261 
  488000    0.4860932    -6.978917    103.63602  0.017697408  0.016417206          204 
  489000   0.49040849   -6.9776332    103.57142  0.017650208  0.016365343          189 
  490000   0.48865442   -6.9808054    103.64187  0.017626169  0.016313633           83 
  491000   0.48270877   -6.9775665    103.73146  0.017605476  0.016262185           64 
  492000    0.4755451   -6.9621053    103.82901  0.017586214  0.016210943          137 
  493000    0.4849314   -6.9755617    103.54381  0.017502334  0.016159934           85 
  494000   0.48828989   -6.9933209     103.7683  0.017504775  0.016108968           80 
  495000   0.47591561   -6.9849714    103.54023  0.017431014  0.016058197          167 
  496000   0.47156752   -7.0034236    103.60583  0.017406894  0.016007658          206 
  497000   0.47078167   -7.0048538    103.62543  0.017375156  0.015957251          172 
  498000    0.4840867   -7.0034804    103.51139  0.017321184  0.015907009          108 
  499000   0.47925728   -7.0154655    103.44381  0.017275185  0.015856945          267 
  500000    0.4684133   -7.0125816    103.40285  0.017233809  0.015807048          187 
  501000   0.47549945   -7.0107251    103.45541  0.017208152  0.015757381          122 
  502000   0.46804656   -7.0169781    103.29333  0.017146967  0.015707818          148 
  503000   0.47577747   -7.0208255    103.35237  0.017122659  0.015658534          182 
  504000   0.46877773   -7.0358118    103.51518  0.017115605   0.01560939           84 
  505000   0.46404465   -7.0201123    103.31632  0.017048897  0.015560381          165 
  506000   0.46048465   -7.0200687    103.39129  0.017027552  0.015511499          173 
  507000   0.45208096   -7.0398656    103.30318  0.016979484  0.015462867          146 
  508000   0.45559688   -7.0459328    103.42871  0.016966652  0.015414357          141 
  509000     0.447324   -7.0272198    103.35664  0.016921519  0.015366048           55 
  510000   0.44858612   -7.0368302    103.20023  0.016862783    0.0153179          326 
  511000   0.46176835   -7.0479843    103.25749  0.016839122  0.015269893          154 
  512000   0.45016563    -7.042469    103.26647  0.016807694  0.015222103          150 
Loop time of 1294.07 on 48 procs for 500000 steps with 4000 atoms

Performance: 66765.947 tau/day, 386.377 timesteps/s
99.4% CPU use with 48 MPI tasks x no OpenMP threads

MPI task timing breakdown:
Section |  min time  |  avg time  |  max time  |%varavg| %total
---------------------------------------------------------------
Pair    | 91.522     | 98.315     | 104.64     |  34.4 |  7.60
Neigh   | 8.9554     | 9.3243     | 9.8031     |   6.7 |  0.72
Comm    | 82.168     | 89.189     | 96.518     |  35.8 |  6.89
Output  | 0.90932    | 0.91004    | 0.93189    |   0.3 |  0.07
Modify  | 1080.3     | 1084.6     | 1088.4     |   5.0 | 83.82
Other   |            | 11.69      |            |       |  0.90

Nlocal:        83.3333 ave          88 max          76 min
Histogram: 1 0 1 2 7 14 10 1 8 4
Nghost:        2400.81 ave        2425 max        2375 min
Histogram: 1 2 3 5 11 9 9 4 2 2
Neighs:        16534.6 ave       19071 max       13499 min
Histogram: 1 1 3 11 4 10 3 7 7 1
FullNghs:      33070.0 ave       35049 max       30104 min
Histogram: 1 0 1 5 8 9 10 5 6 3

Total # of neighbors = 1587358
Ave neighs/atom = 396.83950
Neighbor list builds = 26790
Dangerous builds = 0

#clear
#
#next RN
#
#jump SELF
Total wall time: 0:21:37
