
units lj                  # Use reduced LJ style units
atom_style atomic         # Uncharged point particles
atom_modify map hash      # Needed for indexing of clusters etc
                          # Used to be able to find where atoms are in relation to each other.

lattice fcc 1.0 spacing 1 1 1
Lattice spacing in x,y,z = 1.5874011 1.5874011 1.5874011
region box block 0 10 0 10 0 10 units lattice
create_box 2 box
Created orthogonal box = (0.0000000 0.0000000 0.0000000) to (15.874011 15.874011 15.874011)
  3 by 4 by 4 MPI processor grid
create_atoms 1 box
Created 4000 atoms
  using lattice units in orthogonal box = (0.0000000 0.0000000 0.0000000) to (15.874011 15.874011 15.874011)
  create_atoms CPU = 0.005 seconds
set type 1 type/fraction 2 0.22 78393
Setting atom values ...
  910 settings made for type/fraction
mass 1 1.0
mass 2 1.0
pair_style lj/cut  3.5
pair_modify tail  yes
pair_coeff 1  1  1.0  1.0   # Intearaction between 1 and 1 set with epsilon = 1 and sigma = 1
pair_coeff 1  2  1.5  0.8
pair_coeff 2  2  0.5  0.88

write_data data.0
System init for write_data ...
Neighbor list info ...
  update every 1 steps, delay 10 steps, check yes
  max neighbors/atom: 2000, page size: 100000
  master list distance cutoff = 3.8
  ghost atom cutoff = 3.8
  binsize = 1.9, bins = 9 9 9
  1 neighbor lists, perpetual/occasional/extra = 1 0 0
  (1) pair lj/cut, perpetual
      attributes: half, newton on
      pair build: half/bin/atomonly/newton
      stencil: half/bin/3d
      bin: standard
WARNING: Not all mixed pair coeffs generated from mixing. Use write_data with 'pair ij' option to store all pair coeffs. (../write_data.cpp:312)


#############################
#   M E L T   S Y S T E M   #
#############################

velocity all create 2.4 5300450 mom yes dist gaussian # Assign velocities
                                                    # Temperature 2.4, random number seed, zero linear momentum
                                                                                # Gaussian distribution

timestep 0.002   # simulation timestep
thermo 1000       # output thermodynamic data every 1000 steps bf 100

# Define a fix  in this case with index 1 applied to all
# particles in the simulation. This fix is for simulations
# in the anisotropic NPT ensemble. Note that we use the MTK
# correction.
fix 1 all npt temp 2.4 2.4 0.1 iso 5.68 5.68 0.5 mtk yes tchain 5 pchain 5 # Use NPT ensemble
                                                                         # Set temperature and pressure and damping
                                                                         # Numbers of thermostats in chain and in barostat
run 10000          # run for 10000 steps
Per MPI rank memory allocation (min/avg/max) = 3.642 | 3.644 | 3.648 Mbytes
Step Temp E_pair E_mol TotEng Press Volume 
       0          2.4   -6.9213593            0   -3.3222593   -3.6990896         4000 
    1000     2.405664   -4.9081122            0   -1.3005183    5.4658165    4404.0243 
    2000    2.3726045   -4.8424497            0   -1.2844326    5.5790278    4425.8023 
    3000    2.3686284   -4.8250162            0   -1.2729618    5.5259748    4446.0212 
    4000    2.3988246    -4.922029            0   -1.3246916    5.5277808    4405.4671 
    5000    2.4290213   -4.8623918            0   -1.2197707    5.6208501    4423.9531 
    6000    2.4081499     -4.84997            0   -1.2386482    5.8163687    4399.7209 
    7000    2.4285425    -4.880828            0   -1.2389249    5.8713134    4379.0716 
    8000     2.413419   -4.8794355            0   -1.2602121    5.6745403    4403.9476 
    9000    2.3641505   -4.8597046            0   -1.3143653    5.5914064    4417.4092 
   10000     2.408811    -4.870703            0   -1.2583899    5.8627204    4384.0848 
Loop time of 2.31425 on 48 procs for 10000 steps with 4000 atoms

Performance: 746679.140 tau/day, 4321.060 timesteps/s
99.6% CPU use with 48 MPI tasks x no OpenMP threads

MPI task timing breakdown:
Section |  min time  |  avg time  |  max time  |%varavg| %total
---------------------------------------------------------------
Pair    | 0.99782    | 1.0473     | 1.149      |   3.2 | 45.25
Neigh   | 0.19613    | 0.20363    | 0.22491    |   1.1 |  8.80
Comm    | 0.67406    | 0.80038    | 0.89934    |   4.8 | 34.58
Output  | 0.0002335  | 0.00023823 | 0.00030487 |   0.0 |  0.01
Modify  | 0.20058    | 0.24786    | 0.30399    |   6.1 | 10.71
Other   |            | 0.01484    |            |       |  0.64

Nlocal:        83.3333 ave          96 max          77 min
Histogram: 6 6 10 5 11 8 0 0 1 1
Nghost:        1544.92 ave        1577 max        1524 min
Histogram: 4 3 7 14 7 5 6 1 0 1
Neighs:        8697.17 ave       10191 max        7900 min
Histogram: 7 6 8 9 7 7 2 0 0 2

Total # of neighbors = 417464
Ave neighs/atom = 104.36600
Neighbor list builds = 899
Dangerous builds = 164

# Equilibrate just above the melting temperature to avoid step fn in T

fix 1 all npt temp 1.25 1.25 0.1 iso 5.68 5.68 0.5 mtk yes tchain 5 pchain 5
run 2000
Per MPI rank memory allocation (min/avg/max) = 3.643 | 3.645 | 3.649 Mbytes
Step Temp E_pair E_mol TotEng Press Volume 
   10000     2.408811    -4.870703            0   -1.2583899    5.8627204    4384.0848 
   11000    1.2567376   -6.6325711            0    -4.747936    5.6165378    3582.7132 
   12000    1.2594263    -6.586518            0   -4.6978508    6.1301114    3572.5819 
Loop time of 0.511804 on 48 procs for 2000 steps with 4000 atoms

Performance: 675258.295 tau/day, 3907.745 timesteps/s
99.7% CPU use with 48 MPI tasks x no OpenMP threads

MPI task timing breakdown:
Section |  min time  |  avg time  |  max time  |%varavg| %total
---------------------------------------------------------------
Pair    | 0.23155    | 0.24883    | 0.29105    |   2.3 | 48.62
Neigh   | 0.032797   | 0.034624   | 0.041521   |   0.9 |  6.77
Comm    | 0.13243    | 0.17495    | 0.19775    |   3.5 | 34.18
Output  | 4.9216e-05 | 5.0488e-05 | 6.3458e-05 |   0.0 |  0.01
Modify  | 0.036784   | 0.048927   | 0.063345   |   3.3 |  9.56
Other   |            | 0.004416   |            |       |  0.86

Nlocal:        83.3333 ave          93 max          73 min
Histogram: 1 0 4 6 12 8 8 1 4 4
Nghost:        1772.79 ave        1799 max        1739 min
Histogram: 1 3 3 5 2 11 9 6 4 4
Neighs:        10686.9 ave       12223 max        9345 min
Histogram: 2 2 8 9 9 7 2 4 2 3

Total # of neighbors = 512969
Ave neighs/atom = 128.24225
Neighbor list builds = 142
Dangerous builds = 7

#############################
# L I N E A R  Q U E N C H  #
#############################

# Define solid atoms. This closely follows ten Wolde  Ruiz-Montero and Frenkel  Faraday Discuss  1996  104  93-110
# Compute components of the per-atom q6 vector
compute q6 all orientorder/atom degrees 1 6 components 6 nnn NULL cutoff 1.3 # compute the Q6 parameter.
                                                                             # Use all neighbours within 1.3 unit cell.

# get number of connections
compute coord_number all coord/atom orientorder q6 0.5

# An atom is solid if it has 8 or more connections (of a possible 14)
variable is_solid atom c_coord_number>=8
group solid dynamic all var is_solid    # Must be dynamic to update
dynamic group solid defined

# do clustering
compute cluster solid cluster/atom 1.3 # Create a cluster where all atoms within are solid and max 1.3 units from another member

# define chunks one chunk per cluster
compute clus_chunks solid chunk/atom c_cluster nchunk every compress yes  # Says which atoms are in which chunk

# count the size of each chunk
compute size_chunks solid property/chunk clus_chunks count


# Find the maximum entry in the vector of chunk sizes
variable max_n equal max(c_size_chunks)


# Thermo style which includes this variable
# thermo_style custom step temp pe vol v_max_n

thermo ${N}  # Print the thermo information every 100 steps
thermo 1000  

# Reset the npt fix at a lower temperature (below freezing)
fix 1  all npt temp  ${temp} ${temp}  0.1  iso  5.68  5.68  0.5  mtk yes tchain  5  pchain  5
fix 1  all npt temp  0.45 ${temp}  0.1  iso  5.68  5.68  0.5  mtk yes tchain  5  pchain  5
fix 1  all npt temp  0.45 0.45  0.1  iso  5.68  5.68  0.5  mtk yes tchain  5  pchain  5

dump dmp2 all dcd ${N} traj.dcd
dump dmp2 all dcd 1000 traj.dcd


compute msd all msd com yes
variable twopoint equal c_msd[4]/6/(step*dt+1.0e-6)
fix 9 all vector 10 c_msd[4]
variable fit equal slope(f_9)/6/(10*dt)
thermo_style custom step temp pe c_msd[4] v_twopoint v_fit v_max_n

fix 1 all npt temp 1.25 ${temp} 0.1 iso 5.68 5.68 0.5 mtk yes tchain 5 pchain 5
fix 1 all npt temp 1.25 0.45 0.1 iso 5.68 5.68 0.5 mtk yes tchain 5 pchain 5
run 500000 # 5000000  # Run for this many steps
Neighbor list info ...
  update every 1 steps, delay 10 steps, check yes
  max neighbors/atom: 2000, page size: 100000
  master list distance cutoff = 3.8
  ghost atom cutoff = 3.8
  binsize = 1.9, bins = 9 9 9
  4 neighbor lists, perpetual/occasional/extra = 1 3 0
  (1) pair lj/cut, perpetual
      attributes: half, newton on
      pair build: half/bin/atomonly/newton
      stencil: half/bin/3d
      bin: standard
  (2) compute orientorder/atom, occasional
      attributes: full, newton on
      pair build: full/bin/atomonly
      stencil: full/bin/3d
      bin: standard
  (3) compute coord/atom, occasional
      attributes: full, newton on
      pair build: full/bin/atomonly
      stencil: full/bin/3d
      bin: standard
  (4) compute cluster/atom, occasional
      attributes: full, newton on
      pair build: full/bin/atomonly
      stencil: full/bin/3d
      bin: standard
Per MPI rank memory allocation (min/avg/max) = 9.782 | 9.786 | 9.789 Mbytes
Step Temp PotEng c_msd[4] v_twopoint v_fit v_max_n 
   12000    1.2594263    -6.586518 4.1519722e-30 2.8833139e-32 8.3333333e+20            2 
   13000    1.2364251   -6.6154233   0.54589707   0.00349934  0.044313999            1 
   14000    1.2423192   -6.6345896    1.0928791 0.0065052322  0.044335889            2 
   15000    1.2672195   -6.6174109    1.5900263 0.0088334792  0.044384347            3 
   16000    1.2159161   -6.6514059    2.0589074  0.010723476  0.042912894            1 
   17000    1.2448277   -6.6171802    2.5891315  0.012691821  0.042399352            1 
   18000    1.2626525   -6.6230246    3.1106811  0.014401301  0.042583416            2 
   19000    1.2436451   -6.6140449    3.5929427   0.01575852  0.042549724            3 
   20000    1.2222078   -6.6112405    4.0816363  0.017006817  0.042266087            3 
   21000    1.2367655   -6.6539379    4.5671504  0.018123612  0.042129903            2 
   22000    1.2310003   -6.6569243    5.0370191  0.019079617  0.042023271            3 
   23000    1.2192935   -6.6491333    5.5354191  0.020055866  0.041742242            2 
   24000     1.226465   -6.6661298    5.9757894  0.020749268   0.04145038            2 
   25000    1.2001219   -6.6658149    6.5254208  0.021751402  0.041268188            3 
   26000    1.2097012    -6.665475    7.0336215  0.022543658   0.04122797            2 
   27000    1.2066495   -6.6856082    7.4288208  0.022928459   0.04115644            2 
   28000     1.205187   -6.6548455    7.9957341  0.023796827  0.041100347            1 
   29000    1.2258926   -6.6543416     8.364505  0.024035933   0.04098389            3 
   30000    1.2022435   -6.6606268    8.8484773  0.024579103  0.040783972            1 
   31000    1.2117113   -6.6691425      9.35796  0.025155806   0.04067995            2 
   32000    1.2222143    -6.662354    9.9075956   0.02580103  0.040672587            2 
   33000    1.2136467   -6.6945112     10.46368  0.026423435  0.040716009            5 
   34000    1.1954575   -6.6833272    10.916541  0.026756227  0.040773893            1 
   35000    1.2235458   -6.6981005    11.325966  0.026966585  0.040768797            1 
   36000     1.206297   -6.7104471    11.772408  0.027250943  0.040712589            2 
   37000    1.2188733    -6.726962    12.379367  0.027881457  0.040687326            2 
   38000    1.1842601   -6.6971482    13.051122  0.028620881  0.040782567            6 
   39000    1.2186265   -6.7308841    13.415743  0.028666118  0.040846686            5 
   40000    1.2238891   -6.7250253    13.709543  0.028561548  0.040847762            2 
   41000     1.211991    -6.694217    14.200441  0.028862685  0.040790049            1 
   42000    1.2135155   -6.6788264    14.763058  0.029291782  0.040722806            3 
   43000    1.2107254   -6.6901651    15.170755  0.029400687  0.040675015            1 
   44000    1.1977369   -6.7471422    15.574868  0.029497855   0.04060188            1 
   45000    1.1843091   -6.7180375     16.22224  0.030041185  0.040562968            3 
   46000    1.2226617   -6.7303375    16.614046  0.030097908  0.040525903            2 
   47000    1.2091053   -6.6840217    17.129011  0.030370586     0.040493            3 
   48000    1.1813618   -6.7651225    17.628819  0.030605588  0.040470303            3 
   49000    1.1934256   -6.7723206    18.013335  0.030634923  0.040458517            3 
   50000    1.1791681   -6.7321617    18.479401  0.030799001  0.040408509            1 
   51000    1.1741819   -6.7270893    18.813937  0.030741727  0.040329157            2 
   52000    1.1975165    -6.784181    19.215817  0.030794578  0.040224063            3 
   53000    1.1423109    -6.788761    19.673042  0.030932456  0.040132792            2 
   54000    1.1863587   -6.7592425    20.247428  0.031246031   0.04006122            2 
   55000    1.1416728   -6.7984674    20.492063   0.03104858  0.039978363            2 
   56000    1.2086778   -6.7698221    21.008868  0.031263196  0.039893261            1 
   57000    1.1624897   -6.7501112    21.417936  0.031312771   0.03980802            2 
   58000    1.1861683   -6.7891964    21.704745  0.031184978  0.039709091            4 
   59000     1.176066   -6.7829938    22.137145  0.031267154  0.039597497            1 
   60000    1.1770355   -6.7781091     22.44467  0.031173152  0.039477434            1 
   61000    1.1752565   -6.7656793    23.016857  0.031443793  0.039375933            2 
   62000    1.1596774   -6.7900334      23.5662  0.031674999  0.039296632            2 
   63000    1.1964757   -6.7910065    24.041497  0.031800922  0.039228511            3 
   64000    1.1421301   -6.7880396    24.503533  0.031905641  0.039165477            2 
   65000    1.1587542   -6.8174984    24.969264  0.032011876  0.039109063            3 
   66000    1.1470097   -6.8041974    25.453374  0.032138098  0.039066489            2 
   67000    1.1510725   -6.8063789    25.837171  0.032135784   0.03901734            2 
   68000    1.1620184   -6.8117539    26.237381  0.032153653   0.03894956            2 
   69000    1.1757219   -6.8108424    26.831645  0.032405369  0.038901955            2 
   70000    1.1624431   -6.7732403    27.105026  0.032267887  0.038845579            2 
   71000    1.1649095   -6.8400604    27.395477  0.032154315  0.038780039            2 
   72000    1.1395566   -6.7730082    27.902981  0.032295117  0.038703209            2 
   73000    1.1521093   -6.7969228    27.943569  0.031899051  0.038616771            4 
   74000    1.1666685   -6.8481029    28.410588  0.031993905  0.038520767            3 
   75000    1.1893844   -6.8244545    28.565109   0.03173901  0.038403868            2 
   76000    1.1635254   -6.8514283    28.870374  0.031656112  0.038280075            2 
   77000    1.1491337   -6.8195824    29.354683  0.031769137  0.038154146            2 
   78000    1.1314453   -6.8105841    29.807865  0.031846009  0.038033093            2 
   79000    1.1569676   -6.8397063    29.994032  0.031639274  0.037917726            1 
   80000    1.1618929   -6.8492647    30.388752   0.03165495  0.037795243            2 
   81000    1.1251021   -6.8583905    30.714453  0.031599231  0.037662602            3 
   82000    1.1361556    -6.860017    31.109197  0.031615037  0.037537235            2 
   83000    1.1323995    -6.872377    31.489943  0.031616408  0.037416791            2 
   84000    1.1225497   -6.8466929     31.80116   0.03154877  0.037296898            2 
   85000    1.1196792   -6.8747248    32.134771  0.031504677  0.037175682            2 
   86000    1.1473963    -6.850225    32.286461   0.03128533  0.037048378            1 
   87000    1.1165814   -6.8528754    32.919258  0.031531856  0.036921477            4 
   88000    1.1273156   -6.8919233      33.2455  0.031482481  0.036798675            3 
   89000    1.1149842   -6.8381895    33.695267  0.031549875  0.036682759            4 
   90000    1.1378001   -6.9271715    33.898284    0.0313873  0.036569742            2 
   91000    1.1095861   -6.8975411    34.366726  0.031471361  0.036459363            2 
   92000    1.1161608   -6.8749328    34.605284  0.031345366  0.036351796            3 
   93000    1.1268316   -6.8298506    35.099431  0.031451103  0.036245237            1 
   94000    1.1297806   -6.8768225    35.307352  0.031300844  0.036138634            4 
   95000    1.1072571   -6.8885361    35.795005  0.031399127  0.036041274            2 
   96000    1.1046648   -6.8494724    36.310091  0.031519176  0.035947445            3 
   97000    1.0924957   -6.8831313    36.701201  0.031530241  0.035861149            4 
   98000    1.1028332   -6.9270324    36.926642  0.031400206  0.035775684            6 
   99000    1.1031623   -6.9226385    37.224437  0.031333701  0.035681442            1 
  100000    1.1216721   -6.8988985    37.549771  0.031291476  0.035589728            2 
  101000    1.1063424   -6.8810167    37.906383  0.031275893  0.035491361            2 
  102000    1.1294193   -6.9420422    37.970479  0.031021633  0.035389354            2 
  103000    1.0717401   -6.9138467    38.429683  0.031091976  0.035291013            2 
  104000    1.1145431   -6.9217759    38.809189  0.031097106    0.0351983            3 
  105000    1.1219452   -6.9366742    39.358524  0.031236924  0.035111568            2 
  106000    1.0900938   -6.9204427    39.667855  0.031185421  0.035020988            1 
  107000    1.0965894   -6.9262279    39.461598  0.030733332  0.034919653            3 
  108000    1.0906968    -6.895223    39.983507  0.030851471  0.034816581            1 
  109000    1.1092262   -6.9201702    40.316203  0.030822785  0.034717761            1 
  110000    1.0786392   -6.9261586    40.658387  0.030801808  0.034619691            2 
  111000    1.0936947   -6.9385077    40.842772  0.030662741   0.03452008            2 
  112000     1.090866   -6.9374602     41.35614  0.030770937  0.034419154            1 
  113000    1.0851081   -6.9116717    41.600117  0.030678552  0.034324182            2 
  114000    1.1139046   -6.9456497    41.872318  0.030608419  0.034228786            2 
  115000    1.1023329   -6.9380956    42.081248  0.030493658  0.034127851            4 
  116000    1.0762121   -6.9409387    42.370779  0.030438778  0.034033448            1 
  117000     1.083556   -6.9387555    42.702383  0.030414802  0.033937014            2 
  118000    1.0616649   -6.9800361    43.138262  0.030464874  0.033841844            6 
  119000    1.0734001   -6.9720151    43.413079  0.030401315  0.033751027            2 
  120000    1.0705034   -6.9646387    43.634734  0.030301899  0.033659655            2 
  121000    1.0611244   -6.9926417    44.008432  0.030308837  0.033567353            8 
  122000    1.0878323   -7.0203303     44.31858  0.030272254  0.033477205            2 
  123000    1.0675963   -6.9803133    44.531971  0.030170712  0.033390203            2 
  124000    1.0477708    -7.039403    44.591423  0.029967354   0.03330038            3 
  125000    1.0488026   -7.0138642    44.986596  0.029991064  0.033207934            2 
  126000    1.0863307   -7.0040722    45.315718  0.029970713   0.03311541            2 
  127000    1.0613142   -7.0198418    45.575302  0.029905053  0.033026238            1 
  128000    1.0707059   -7.0125304    45.808484  0.029823232  0.032933643            2 
  129000    1.0605805   -7.0151043    45.892561  0.029646357  0.032837319            2 
  130000    1.0915856   -6.9779826    46.109695  0.029557497  0.032736238            2 
  131000    1.0645319   -6.9797252    46.497941  0.029578843  0.032638287            2 
  132000    1.0771313   -7.0175652    46.803184  0.029547465  0.032544704            1 
  133000     1.066168   -7.0360892    47.148702  0.029541793  0.032453257            2 
  134000    1.0559826   -7.0128719    47.780988  0.029714544  0.032365961            2 
  135000    1.0606324   -7.0461723    47.957486  0.029603386  0.032282811            2 
  136000    1.0531296   -7.0511136    48.128676   0.02949061  0.032200136            3 
  137000    1.0574549   -7.0106775    48.480161  0.029489149   0.03211598            3 
  138000    1.0374274   -7.0144311    48.759804  0.029444326  0.032034495            2 
  139000    1.0399486    -7.011254    49.004005    0.0293789  0.031951358            3 
  140000    1.0683505   -7.0347723    49.259942  0.029321394  0.031869549            2 
  141000    1.0476196    -7.031038    49.539676  0.029278768  0.031787318            1 
  142000    1.0704423   -7.0084358    50.008427  0.029347668  0.031708065            3 
  143000    1.0339592   -7.0383125    50.254733  0.029285975  0.031631936            2 
  144000    1.0502287   -7.0863774     50.44382  0.029192025  0.031555994            1 
  145000    1.0158791   -7.0814543    50.671086  0.029121314  0.031478989            2 
  146000    1.0469557   -7.0542482    51.185672  0.029215566  0.031405354            2 
  147000    1.0348777   -7.0449586    51.325625  0.029096159  0.031331412            2 
  148000    1.0402077   -7.1033762    51.660686  0.029088224  0.031257857            1 
  149000    1.0583987   -7.0510245    51.952172  0.029056025  0.031185489            2 
  150000    1.0405446   -7.0374627    52.215664  0.029008702  0.031111842            2 
  151000    1.0196216   -6.9970847    52.621001  0.029040287  0.031040351            1 
  152000    1.0129834   -7.0716328    52.839779  0.028969177    0.0309719            3 
  153000    1.0165615   -7.0762586    52.960294  0.028845476  0.030901438            1 
  154000   0.99522304   -7.0214834    53.305652   0.02884505  0.030831586            3 
  155000    1.0245908   -7.0754934    53.687198  0.028864085  0.030762008            4 
  156000    1.0080205   -7.1150029      53.7445  0.028709669   0.03069359            6 
  157000    1.0195301   -7.1007347    54.019297  0.028672663  0.030621447            2 
  158000    1.0302714    -7.091006    54.210777  0.028592182  0.030549685            1 
  159000    1.0297142   -7.1319259    54.239311  0.028427312  0.030476653            3 
  160000   0.99791275   -7.1041349    54.335528  0.028299754  0.030401874            3 
  161000   0.99628801   -7.0818228    54.715665  0.028320738  0.030325672            3 
  162000    1.0331883   -7.1104115    54.939571  0.028261096  0.030248944            3 
  163000    1.0038013   -7.1321849    55.118028  0.028178951  0.030171542            2 
  164000    1.0064828   -7.1173308     55.49975  0.028201093  0.030096441            4 
  165000    1.0004477   -7.1140084    55.727217  0.028145059  0.030020447            1 
  166000   0.97071995   -7.1244624    55.891714  0.028058089  0.029943313            2 
  167000    1.0223685   -7.1406074    55.998347  0.027943287  0.029866377            1 
  168000   0.98345733   -7.1253873    56.115286  0.027834963  0.029788152            3 
  169000   0.98923345   -7.1564249    56.362415  0.027792118  0.029708995            2 
  170000   0.99800094    -7.176135    56.624284  0.027757002  0.029630802            2 
  171000   0.99211501   -7.1398231     56.81314  0.027686715  0.029551592            4 
  172000   0.99088999   -7.1455127    56.823633   0.02753083  0.029472521            2 
  173000   0.99258406   -7.1547946    57.271318   0.02758734  0.029394301            2 
  174000    1.0030217   -7.0846653    57.546968  0.027560809  0.029317157            3 
  175000   0.97476138   -7.1465509    57.812973  0.027529987  0.029241362            3 
  176000   0.99759959   -7.1823058    57.715892    0.0273276  0.029164784            3 
  177000   0.97119884   -7.1423266    58.028862  0.027320556  0.029086997            6 
  178000   0.96954548   -7.1348011    58.125795  0.027212451  0.029009447            2 
  179000   0.99751375   -7.2084515    58.116033  0.027055881  0.028928352            2 
  180000   0.99117766   -7.1878027    58.399553   0.02703683  0.028846204            2 
  181000   0.95374859   -7.1490678    58.704093  0.027027667  0.028766385            2 
  182000   0.95863418   -7.1471319     59.11581  0.027067678  0.028689248            3 
  183000   0.96207825   -7.1852721    58.997255  0.026865781   0.02861206            3 
  184000   0.99499698   -7.1637258     59.29408  0.026854203  0.028533454            3 
  185000   0.96364374   -7.2186873    59.235109  0.026682481  0.028455221            2 
  186000   0.98246445   -7.2263877    59.436217   0.02662913  0.028375565            3 
  187000    0.9744221   -7.1922594    59.467844  0.026500822  0.028294537            4 
  188000   0.94637106   -7.2294705    59.603425  0.026419958  0.028211945            1 
  189000    0.9519377   -7.1700454    59.972006  0.026442683  0.028131252            3 
  190000   0.99511658   -7.2183705    59.967913  0.026301716  0.028050463            3 
  191000   0.97129252   -7.2192796    60.420555  0.026361499  0.027968176            3 
  192000   0.95385355    -7.237754    60.626885  0.026313752  0.027887738            1 
  193000   0.95173272   -7.2748053    60.732346  0.026222947  0.027809728            2 
  194000    0.9695391   -7.2319227    61.035452  0.026217978  0.027732493            4 
  195000   0.94635344    -7.198549    61.153363  0.026133916  0.027655198            3 
  196000   0.94198169   -7.1998245    61.498901  0.026147492  0.027577892            4 
  197000   0.94340433   -7.2145409    61.521122  0.026024163  0.027500801            2 
  198000   0.94973658   -7.2574307    61.572672  0.025914424  0.027422976            2 
  199000   0.94922063   -7.2236531    61.802786  0.025880564  0.027344825            4 
  200000   0.96496942   -7.2249552     62.15431  0.025897629  0.027268075            2 
  201000   0.95134766   -7.2512382    62.325284   0.02583967   0.02719236            4 
  202000   0.95758298   -7.2311205     62.58934  0.025820685  0.027117707            2 
  203000   0.92694654   -7.2372506    62.727359  0.025750147  0.027042641            7 
  204000   0.93815272   -7.2491779    62.789935  0.025649483  0.026969056            3 
  205000   0.96167655   -7.2575296    62.909898  0.025573129  0.026894965            3 
  206000    0.9506793   -7.2714527    63.037002  0.025500405  0.026820097            1 
  207000   0.93452093   -7.2446943    63.321491  0.025491743  0.026745241            2 
  208000   0.95033385   -7.2998504     63.21471  0.025326406  0.026670538            4 
  209000   0.91196638   -7.2779399     63.55195  0.025339693   0.02659681            2 
  210000   0.93438758   -7.2525292    63.985196  0.025390951  0.026524767            4 
  211000   0.93273039   -7.2549786    64.068096  0.025303355  0.026453278            4 
  212000   0.94034813   -7.2662183    64.044323  0.025174655  0.026380757            3 
  213000   0.93692173   -7.2680543    64.324391  0.025166037  0.026307935            2 
  214000   0.92318652    -7.276814    64.519901  0.025124572  0.026235445            2 
  215000   0.93534783   -7.2812175    64.587515  0.025033921  0.026163689            4 
  216000   0.93387531   -7.2693293    64.725498  0.024971257  0.026090792            3 
  217000   0.91528155   -7.2609141    64.437144  0.024745447  0.026015958            3 
  218000   0.93257451   -7.3028536     64.82584   0.02478052  0.025940657            3 
  219000   0.92333004   -7.3119321    64.881367  0.024688496  0.025865589            4 
  220000   0.91395848   -7.3183797    65.132963  0.024671577  0.025792006            4 
  221000   0.93164386   -7.3019892     65.39236  0.024657753  0.025719916            1 
  222000    0.9478675   -7.3094455    65.530841  0.024598664  0.025648615            3 
  223000   0.90850447   -7.3149198    65.915362  0.024632049  0.025578355            2 
  224000   0.91583792    -7.338968    66.134727  0.024603693   0.02550953            3 
  225000   0.89897789   -7.3292334     66.41246  0.024597207  0.025441768            4 
  226000   0.90348602   -7.3337204    66.457184  0.024504861  0.025374979            2 
  227000    0.8981856   -7.3227836    66.823525  0.024531397  0.025308078            5 
  228000   0.89240579   -7.3309445     66.50245  0.024306451  0.025240808            4 
  229000   0.89733519   -7.3452391    66.731198  0.024283551  0.025172374            1 
  230000   0.90899652   -7.3460937    66.747268  0.024183793   0.02510247            7 
  231000   0.90127954   -7.3380308    66.748132  0.024079413  0.025032716            3 
  232000   0.90117848   -7.3620431    66.959822   0.02405166  0.024962737            2 
  233000   0.87675843   -7.3731627    67.093184  0.023996132  0.024892052            2 
  234000   0.90026096   -7.3538109    67.051436  0.023878716  0.024821929            6 
  235000   0.88416229   -7.3672948    67.495447  0.023934556  0.024752531            3 
  236000    0.9012386   -7.3772921    67.557305  0.023854981  0.024683165            3 
  237000   0.90957694   -7.3890022    67.430651  0.023709793  0.024613469            4 
  238000   0.90588184   -7.4038928    67.512324  0.023638769   0.02454287            2 
  239000   0.89763934   -7.3484705    67.448607  0.023517645  0.024471507            3 
  240000   0.88212259   -7.3905653    67.898497  0.023575867  0.024401962            3 
  241000   0.89419425   -7.3704121    68.185304  0.023577214  0.024333665            3 
  242000   0.88852455   -7.4110499    68.082761  0.023444477  0.024265285            2 
  243000   0.88122329     -7.40447    68.030158  0.023329958  0.024196113            3 
  244000   0.89262156   -7.3759613    68.414148  0.023365487  0.024126677            3 
  245000   0.88585668   -7.4117462    68.401563  0.023265838  0.024058504            3 
  246000   0.85687694   -7.3892781     68.57833  0.023231142  0.023990319            2 
  247000   0.87046152   -7.4129794    68.549516  0.023127367  0.023921942            3 
  248000   0.87864177    -7.422595     68.72827  0.023094177   0.02385359            3 
  249000   0.87346429   -7.3942797     69.09762   0.02312504  0.023786416            2 
  250000   0.87378714   -7.4062429    68.992384  0.022997461  0.023719357            1 
  251000   0.87571032   -7.4285118    69.291901  0.023005279  0.023651929            3 
  252000   0.85889788   -7.4328994    69.325361  0.022925053  0.023584702            3 
  253000   0.86182063    -7.420498    69.489305   0.02288844  0.023518008            5 
  254000   0.85735615   -7.4500527    69.542961  0.022815932  0.023452343            3 
  255000   0.86431006   -7.3998308    69.881272  0.022837017  0.023386354            3 
  256000   0.86013991   -7.4422842    69.641327  0.022669703  0.023320827            2 
  257000   0.83575506   -7.4299449    69.845569   0.02264772  0.023254194            3 
  258000   0.85266945   -7.4577148    69.862276  0.022565335  0.023188233            5 
  259000   0.87631317   -7.4342895    70.041043  0.022535728  0.023122578            3 
  260000   0.84487469   -7.4235312    70.110027  0.022471162  0.023056337            5 
  261000   0.86777381   -7.4605351    70.231516  0.022423856  0.022990335            3 
  262000   0.84765243   -7.4468746    70.355746  0.022377782  0.022924118            4 
  263000   0.83338841   -7.4867618    70.376625  0.022299311  0.022858234            6 
  264000   0.85093209   -7.4665172    70.265359  0.022179722  0.022792336            2 
  265000   0.85321649   -7.4439457     70.34336  0.022120553  0.022725772            4 
  266000   0.85890013   -7.4860626    70.413941  0.022059505   0.02265956            2 
  267000    0.8512392    -7.478853    70.691468  0.022063504  0.022593781            4 
  268000   0.82804576   -7.4787494    70.705299  0.021985478  0.022528103            3 
  269000   0.85109157   -7.4847994    71.161879  0.022045192  0.022462984            3 
  270000   0.84800588   -7.4943337    71.051534  0.021929486  0.022398023            5 
  271000    0.8367772   -7.4882823    71.031093  0.021842279  0.022333098            4 
  272000   0.80932425   -7.4921681    71.154664  0.021799836  0.022268445            2 
  273000   0.83879014   -7.5210159    71.384849  0.021790247  0.022204296            4 
  274000   0.82884735     -7.50299    71.419482  0.021721254  0.022140251            3 
  275000   0.84151828    -7.515142    71.575262  0.021689473  0.022076183            4 
  276000   0.83784429   -7.4885733     71.53158  0.021597699  0.022012806            5 
  277000   0.83061055   -7.5331427    71.629378  0.021549151  0.021949353            3 
  278000   0.81385133   -7.5148345    71.708725  0.021495421  0.021886073            4 
  279000   0.83308097   -7.5159609    72.125462   0.02154285  0.021823936            3 
  280000   0.82750245   -7.5388122    71.935651   0.02140942  0.021761977            3 
  281000   0.79578249   -7.5324143    72.003322  0.021353298   0.02169946            4 
  282000   0.81551374   -7.5642844    72.152289  0.021321598  0.021637603            6 
  283000   0.80996221    -7.532072     72.31924  0.021295418  0.021576686            2 
  284000   0.81488503   -7.5298584    72.521153  0.021279681  0.021516192            4 
  285000   0.82631923   -7.5591983    72.724795   0.02126456  0.021456003            1 
  286000   0.80640017   -7.5523506    72.651557  0.021168868   0.02139568            5 
  287000    0.8007795   -7.5582323    72.867048  0.021157679   0.02133585            3 
  288000   0.81212703   -7.5372343     72.96147  0.021111536  0.021277109            5 
  289000   0.81583335   -7.5678133    72.814206  0.020996023  0.021218164            4 
  290000   0.79913509   -7.5848473    72.887863  0.020944788  0.021158384            2 
  291000   0.79676295   -7.5746677    73.057511  0.020921395  0.021098875            4 
  292000   0.81019719   -7.5811919    73.003903  0.020834447  0.021039655            3 
  293000   0.81679597   -7.5748221    73.297303  0.020846787  0.020980692            4 
  294000   0.81030081   -7.5752911    73.458804  0.020821656  0.020922244            5 
  295000   0.81628803   -7.5787582    73.394701  0.020732966  0.020863748            2 
  296000   0.80593073    -7.567605    73.417746   0.02066941  0.020805305            4 
  297000   0.80376864   -7.5932766    73.612097  0.020654348  0.020746727            2 
  298000   0.79950984   -7.6015428    73.519262  0.020559078  0.020688032            3 
  299000   0.78502405   -7.6115724    73.370076  0.020448739  0.020629183            4 
  300000   0.78065453   -7.6109537    73.502185  0.020417274  0.020570299            4 
  301000   0.77916601    -7.620762    73.662866  0.020393927  0.020511597            4 
  302000    0.7948453   -7.6174662    73.622407  0.020315234  0.020452861            4 
  303000   0.79849896   -7.5951864    73.742813  0.020281302  0.020394636            3 
  304000   0.77526188   -7.6299929    73.765664  0.020220851  0.020336683            2 
  305000   0.78633204   -7.5995249    73.716792    0.0201412  0.020278348            4 
  306000   0.78206378   -7.6048372    73.957918  0.020141045  0.020219621            6 
  307000   0.77729415   -7.6296863    73.941021  0.020070853  0.020161184            2 
  308000   0.76973239   -7.6265219    73.830692  0.019975837  0.020102911            3 
  309000   0.75995716   -7.6320004    74.068967   0.01997545   0.02004486            2 
  310000   0.76658201   -7.6595633    73.821751  0.019844557   0.01998638            4 
  311000   0.76881179   -7.6357387    73.916214  0.019806059  0.019927975            4 
  312000   0.76821671   -7.6609706    73.990397  0.019762392  0.019869144            5 
  313000   0.78135413   -7.6524005    74.157311  0.019743693   0.01981062            3 
  314000   0.76217965   -7.6820581    74.121518  0.019671316  0.019752016            6 
  315000   0.77994303    -7.678198    74.160055  0.019619062  0.019693347            5 
  316000   0.76510239   -7.6653557    74.108953    0.0195435  0.019635019            4 
  317000   0.73925713   -7.6855926    74.145318  0.019491408  0.019576414            6 
  318000   0.76570072   -7.6628175     74.10964  0.019420765   0.01951796            3 
  319000   0.74833537   -7.6828292    74.156484  0.019372122  0.019459442            5 
  320000   0.75139314   -7.6686399    74.262101  0.019339089  0.019401523            4 
  321000   0.75596571   -7.6738102    74.457407  0.019329545  0.019343821            2 
  322000   0.76953433   -7.6610726    74.602992  0.019307192  0.019287146            7 
  323000   0.75648733   -7.6858378    74.487765   0.01921769  0.019230776            5 
  324000   0.74756518   -7.6726273    74.782835  0.019234268  0.019174115            4 
  325000   0.74390262    -7.663194    74.879765   0.01919994  0.019117437            5 
  326000   0.75303454   -7.7169475    74.571479  0.019062239  0.019060653            5 
  327000   0.74707179   -7.6956699    74.679115  0.019031375  0.019003839            3 
  328000   0.73101612   -7.6816128    74.892048  0.019027451  0.018946671            5 
  329000   0.74040988   -7.7114341    74.785842  0.018942716  0.018889721            4 
  330000   0.74627037   -7.7161624    74.734178  0.018872267  0.018833183            2 
  331000   0.73093995   -7.6973441    74.704654  0.018807818  0.018776416            7 
  332000   0.74174068   -7.6952076    74.789325  0.018772421  0.018719776            3 
  333000   0.72345466   -7.7197096    74.889957   0.01874123  0.018663365            3 
  334000   0.72690466   -7.7298681    74.884893  0.018683855  0.018607239            5 
  335000   0.74838847   -7.7468162    74.992456   0.01865484   0.01855093            3 
  336000   0.73566987   -7.7445455    74.800535   0.01855172  0.018494711            3 
  337000   0.73585617   -7.7525939    74.933561  0.018529565   0.01843857            6 
  338000   0.74198399   -7.7424485    75.071047  0.018508641  0.018382749            4 
  339000   0.72514645   -7.7241432    75.005561  0.018437945  0.018327122            4 
  340000   0.72639987   -7.7558604    75.146127  0.018418168  0.018271479            3 
  341000   0.72837978   -7.7567178    75.008784  0.018330592  0.018216072            4 
  342000   0.70411065   -7.7504356    75.070726  0.018292087  0.018160868            2 
  343000   0.74208447   -7.7857791    75.117964  0.018250234  0.018105365            5 
  344000   0.71326933   -7.7588598    75.012942   0.01817174  0.018050141            7 
  345000   0.70823843   -7.7881065    75.273057  0.018181898  0.017995163            3 
  346000   0.71413825   -7.7711563    75.284236  0.018132041  0.017940417            4 
  347000   0.70779483    -7.756765     75.26635  0.018075492  0.017885625            7 
  348000   0.70857886   -7.7927269    75.133166  0.017991658  0.017831145            5 
  349000   0.70920395   -7.7707248    75.387914  0.018000935  0.017776725            2 
  350000   0.70052178   -7.7956097    75.286605  0.017925382  0.017722674           11 
  351000   0.71716049    -7.787657    75.406874  0.017902867  0.017668538           10 
  352000   0.70804157   -7.7835777    75.233836  0.017811041  0.017614514            6 
  353000   0.70057251   -7.8114485    75.475416  0.017817615  0.017560704            4 
  354000   0.71576846   -7.8155582    75.438314  0.017758548  0.017507107            3 
  355000   0.70654941   -7.7894945    75.605454  0.017747759  0.017454002            9 
  356000     0.697506   -7.8134675     75.43511  0.017658031  0.017401045            7 
  357000   0.70787254   -7.7999433    75.647977  0.017658258  0.017348215            4 
  358000   0.69614301   -7.8229282    75.445711  0.017561851  0.017295242            5 
  359000   0.68796196   -7.8018399    75.522621  0.017530785  0.017242224            5 
  360000    0.6882968   -7.8147962    75.726938  0.017529384  0.017189351           11 
  361000   0.68896912   -7.8318675    75.283971  0.017378571   0.01713656            4 
  362000   0.69340804   -7.8427229     75.49157  0.017378354  0.017083754            6 
  363000   0.68520344   -7.8385295    75.638451  0.017364199  0.017031142            3 
  364000   0.68550925   -7.8315033    75.763492  0.017345122   0.01697873            6 
  365000   0.68607809   -7.8644856    75.613321  0.017263315  0.016926682            3 
  366000   0.68374207   -7.8546531    75.598775  0.017212836  0.016874611            4 
  367000   0.68061355   -7.8407604    75.471625  0.017137063  0.016822364            4 
  368000   0.68880355   -7.8623433    75.509777  0.017099134   0.01677011            2 
  369000   0.69277797   -7.8755556     75.50801  0.017052396  0.016717934            6 
  370000   0.68509282   -7.8572451     75.55739   0.01701743  0.016666024            3 
  371000   0.67023014   -7.8560395    75.672392  0.016997393  0.016614461            3 
  372000   0.67293894    -7.899308    75.544595  0.016923072  0.016562971            3 
  373000   0.67473235   -7.8640663     75.71502  0.016915777  0.016511493            3 
  374000   0.66393224   -7.8785324    75.659313  0.016858136   0.01646049            4 
  375000    0.6679632   -7.8962526    75.763971  0.016836438  0.016409414            4 
  376000     0.673689   -7.8743462    75.615249  0.016758699  0.016358397            3 
  377000   0.66184659   -7.9087619    75.777237  0.016750052  0.016307708            5 
  378000   0.65129235   -7.8825295    75.698546  0.016688392  0.016257171            5 
  379000   0.65828591   -7.9077481    75.811395  0.016669172  0.016206775            3 
  380000   0.65181748   -7.9164071    75.619932  0.016583318  0.016156378            4 
  381000   0.64533609   -7.9104029    75.714725  0.016560526  0.016106254            7 
  382000   0.65216751   -7.9103034    75.933536  0.016564907  0.016056504            4 
  383000   0.65154388   -7.9084585    75.731981  0.016477803  0.016006907            4 
  384000    0.6509702   -7.8914104    75.855215  0.016461635  0.015957252            6 
  385000   0.64423053   -7.9132415    75.746195   0.01639528  0.015907824            3 
  386000   0.64347224   -7.9115918    75.818076  0.016368324  0.015858435            4 
  387000   0.66158515   -7.9476297    75.842411  0.016331269  0.015809104            5 
  388000   0.63843883   -7.9379584    76.003643  0.016323807  0.015759991            3 
  389000   0.63724113   -7.9396097    75.714064  0.016219808   0.01571079            5 
  390000   0.63529867   -7.9389183    75.798501  0.016196261  0.015661732            5 
  391000    0.6498915   -7.9573159    75.980932   0.01619372  0.015613055            5 
  392000   0.63306358   -7.9569726    75.887946  0.016132642  0.015564606            6 
  393000   0.62812397   -7.9629668    75.848298  0.016083184  0.015516263            4 
  394000   0.62359847   -7.9636992     75.96373  0.016066779  0.015468116            5 
  395000   0.62317278   -7.9563528    75.876236  0.016007645  0.015420101            4 
  396000   0.62570497   -7.9495746    75.938642  0.015980354  0.015372407            5 
  397000   0.62988627   -7.9747011     75.89982  0.015931952  0.015324792            6 
  398000   0.64202843   -7.9661668    75.957675  0.015904036  0.015277243            5 
  399000    0.6432604   -7.9692306    75.985611  0.015870011  0.015229696            5 
  400000   0.63133038   -7.9709695    75.910609   0.01581471  0.015182369            4 
  401000    0.6314432   -7.9687601    75.900446   0.01577316  0.015135139            5 
  402000   0.62538204   -7.9842171    75.836851   0.01572074  0.015088042            6 
  403000   0.63701829   -7.9940644    75.845072  0.015683431  0.015040921            5 
  404000    0.6379414    -7.990853    75.900146  0.015655971   0.01499408            4 
  405000   0.61200894   -7.9951589    75.989125  0.015635622  0.014947362            7 
  406000   0.61400717   -8.0002618    75.878938  0.015574495  0.014900738            5 
  407000   0.59696611   -7.9846267    76.067066  0.015574747  0.014854324            2 
  408000    0.6205712   -7.9703482    75.960742  0.015514857  0.014808128            5 
  409000   0.60749212   -7.9877372    75.930181  0.015470697  0.014762098            8 
  410000    0.6105241   -7.9998658    75.691614  0.015384474  0.014715679            8 
  411000   0.60083372   -8.0184515    76.047316  0.015419164  0.014669422            6 
  412000   0.61135378    -7.982373     75.80684  0.015333099   0.01462344            4 
  413000   0.60857303   -8.0443132    75.918253  0.015318453   0.01457749            8 
  414000    0.5991613   -7.9996424    75.918697  0.015281541  0.014531627            4 
  415000   0.59866313    -8.028737    75.877639  0.015236474  0.014486031            5 
  416000   0.61324795   -8.0259068    75.943573  0.015213055  0.014440425            6 
  417000   0.59476351   -8.0352359    75.827389  0.015153355  0.014395111            2 
  418000   0.59864126   -8.0217967     75.93702  0.015138959  0.014349823            6 
  419000   0.60278165   -8.0280844    75.941835  0.015103786  0.014304665            3 
  420000   0.59071931   -8.0298016     75.80535  0.015040744  0.014259676            9 
  421000   0.59504444   -8.0260155    75.691631  0.014982508  0.014214893            6 
  422000   0.59159825   -8.0334206    75.771563  0.014962789  0.014170088            5 
  423000   0.59162912   -8.0517743    75.714499  0.014916174  0.014125517            8 
  424000    0.6073511   -8.0421815    75.767508  0.014891413  0.014081002            6 
  425000   0.58542694   -8.0588493    75.737684  0.014850526  0.014036514            3 
  426000   0.58159159   -8.0510106    75.787489  0.014825409  0.013992278            4 
  427000   0.59649347   -8.0610211    75.800167  0.014793163  0.013948165            8 
  428000   0.58658244   -8.0620413    75.799436  0.014758457   0.01390411            9 
  429000   0.58372647    -8.049415    75.814985  0.014727076  0.013860321            8 
  430000   0.58608363   -8.0533981    75.745158  0.014679294  0.013816696            6 
  431000   0.59462014   -8.0583167    75.668275   0.01463037  0.013773102           10 
  432000   0.57781305   -8.0636899    75.703596  0.014603317  0.013729641            7 
  433000   0.58373388   -8.0462278    75.757339  0.014579934  0.013686295            5 
  434000   0.56521636    -8.076562     75.59213  0.014514618  0.013643196            6 
  435000   0.58471812   -8.1035693    75.702528    0.0145024  0.013600259            7 
  436000   0.56860328   -8.0857932    75.658256  0.014460676  0.013557405            6 
  437000   0.56954243   -8.1211337    75.785584  0.014451866  0.013514772            5 
  438000   0.56190015   -8.1058404    75.708605  0.014404225  0.013472343            7 
  439000    0.5803399   -8.1098941    75.685592  0.014367045   0.01343004            3 
  440000   0.56255342   -8.1006913    75.819332  0.014359722  0.013387925            4 
  441000   0.56094848    -8.098431    75.791234  0.014321851   0.01334604            7 
  442000   0.56617028   -8.0975923    75.828737  0.014296519  0.013304279            9 
  443000   0.55980749   -8.1169642    75.841496  0.014266647  0.013262675            6 
  444000   0.55523435   -8.1099733    75.743025  0.014216033  0.013221151            6 
  445000   0.55350397   -8.1366353    75.780657  0.014191134  0.013179815            8 
  446000   0.54498204   -8.1374986    75.796005  0.014162183  0.013138483            8 
  447000   0.54147971   -8.1356082    75.885712  0.014147224  0.013097301            5 
  448000    0.5541244   -8.1469189    75.672292  0.014075947  0.013056352            5 
  449000   0.55383523   -8.1528269     75.78581  0.014065666  0.013015448            6 
  450000   0.54196282   -8.1308297    75.761059  0.014029826  0.012974787            4 
  451000   0.55035283   -8.1617795    75.695158  0.013986541  0.012934325            7 
  452000   0.54941302   -8.1467456    75.774985  0.013970314   0.01289394            5 
  453000   0.54385055   -8.1389633    75.729422  0.013931093  0.012853691            4 
  454000   0.53267278    -8.161742     75.84411  0.013921459    0.0128136            7 
  455000   0.53232533   -8.1646968    75.748877  0.013873421  0.012773629            6 
  456000   0.53963885     -8.15415    75.762346  0.013845458  0.012733819            5 
  457000   0.55082005   -8.1613246    75.656704  0.013795898  0.012694032            8 
  458000   0.54491676   -8.1538509    75.745238  0.013781885  0.012654436            7 
  459000   0.52277508   -8.1650592    75.721012   0.01374746  0.012614887            7 
  460000   0.52139745    -8.165721    75.594531  0.013694661  0.012575459            7 
  461000   0.53447274   -8.1838798    75.642909    0.0136737  0.012536186            5 
  462000   0.53703814   -8.1531949    75.722243  0.013658413  0.012497056            8 
  463000   0.52878641   -8.1875161     75.60006  0.013606922  0.012458071            6 
  464000    0.5208557   -8.1725923    75.644792  0.013585631  0.012419135            7 
  465000   0.52423207    -8.174707     75.71583  0.013569145  0.012380429            5 
  466000   0.53187004   -8.1539539    75.457898  0.013493902  0.012341736            5 
  467000   0.52151811   -8.1738595    75.617982  0.013493573  0.012303176            3 
  468000   0.52881893   -8.1714033    75.550618  0.013452745  0.012264725            5 
  469000   0.52972654   -8.1767021    75.531089  0.013420591  0.012226425            7 
  470000   0.52050085    -8.179207    75.562407   0.01339759  0.012188242            3 
  471000   0.50853834   -8.1950877    75.532895  0.013363923  0.012150145            5 
  472000   0.51222595   -8.2047164     75.57079    0.0133423  0.012112196            5 
  473000   0.50824184    -8.200865    75.490688   0.01329998  0.012074407            8 
  474000   0.51225309   -8.2009261    75.601531  0.013291408  0.012036756            7 
  475000    0.5042092   -8.2003789    75.492024  0.013244215   0.01199921            6 
  476000   0.49818904   -8.2145922    75.487209  0.013215548  0.011961848            6 
  477000   0.50867632    -8.222215     75.41101   0.01317453  0.011924533            5 
  478000   0.50895529   -8.2009376    75.433277   0.01315085  0.011887413            5 
  479000   0.51496347   -8.2080853    75.487845  0.013132889    0.0118504            6 
  480000   0.51513695   -8.2034059    75.498646  0.013107404  0.011813566            9 
  481000   0.50788448   -8.2274732    75.347333  0.013053938  0.011776841            5 
  482000   0.47971272   -8.2065339    75.556436  0.013063008  0.011740205            4 
  483000   0.49247944   -8.2220645    75.359279  0.013001946  0.011703621            6 
  484000   0.49127452   -8.2176981    75.426928   0.01298673  0.011667201            5 
  485000   0.49038422   -8.2117198    75.270261  0.012933034  0.011630928            4 
  486000   0.48904207   -8.2323615    75.367219  0.012923048  0.011594754            4 
  487000   0.48440698   -8.2259154    75.414821  0.012904658  0.011558738            5 
  488000   0.49403062   -8.2287921    75.482746  0.012889813  0.011522847            4 
  489000   0.48703413    -8.227668    75.338342  0.012838845   0.01148714            3 
  490000   0.48567864   -8.2279072    75.357831  0.012815958  0.011451536            5 
  491000   0.48979407   -8.2463631    75.253134  0.012772087  0.011416055            4 
  492000    0.4789451   -8.2384294    75.377109  0.012767126   0.01138071            7 
  493000   0.47845306   -8.2452895    75.267387  0.012722682  0.011345478            6 
  494000   0.48893475   -8.2418088    75.344137  0.012709875   0.01131043            5 
  495000   0.47753923   -8.2506248    75.333348  0.012682382  0.011275422            4 
  496000   0.47383686   -8.2797801    75.311193   0.01265309  0.011240491            6 
  497000   0.48115503   -8.2522204    75.375585  0.012638428  0.011205761            4 
  498000   0.46126197   -8.2504205    75.295954  0.012599725  0.011171165            6 
  499000   0.46960511   -8.2731505     75.12883  0.012546565  0.011136686            6 
  500000   0.46357876   -8.2694499    75.506042   0.01258434  0.011102309            6 
  501000   0.47637438   -8.2593775    75.318864  0.012528088  0.011068123            6 
  502000   0.45939599   -8.2561851    75.231707  0.012488663  0.011034005            6 
  503000   0.45851747   -8.2614021    75.250115  0.012466885  0.011000031            5 
  504000   0.45367029   -8.2706362    75.249484  0.012442044  0.010966134            6 
  505000   0.45837701   -8.2859006    75.122498  0.012396452  0.010932392            5 
  506000   0.45937899   -8.2739658    75.092289  0.012366978  0.010898758            4 
  507000   0.45966653      -8.2866    75.275863  0.012372759  0.010865261            5 
  508000   0.45925814   -8.2901148    75.212187  0.012337957  0.010831852            4 
  509000   0.45950821   -8.3009172    75.187802  0.012309725   0.01079857            4 
  510000   0.45510591   -8.2791647    75.118396  0.012274248  0.010765394            4 
  511000   0.45492637   -8.2769504    75.148904  0.012255203  0.010732344            3 
  512000   0.45335798   -8.2993627    75.095371  0.012222554  0.010699435            7 
Loop time of 1156.56 on 48 procs for 500000 steps with 4000 atoms

Performance: 74704.176 tau/day, 432.316 timesteps/s
99.4% CPU use with 48 MPI tasks x no OpenMP threads

MPI task timing breakdown:
Section |  min time  |  avg time  |  max time  |%varavg| %total
---------------------------------------------------------------
Pair    | 69.751     | 75.369     | 81.041     |  33.5 |  6.52
Neigh   | 7.4577     | 7.7952     | 8.0576     |   5.6 |  0.67
Comm    | 69.002     | 74.688     | 81.173     |  37.3 |  6.46
Output  | 0.82735    | 0.82786    | 0.83676    |   0.1 |  0.07
Modify  | 983.54     | 987.29     | 990.43     |   4.3 | 85.36
Other   |            | 10.59      |            |       |  0.92

Nlocal:        83.3333 ave          90 max          75 min
Histogram: 2 0 3 4 10 6 11 3 5 4
Nghost:        1955.48 ave        1978 max        1937 min
Histogram: 1 7 4 8 7 9 7 3 1 1
Neighs:        12413.5 ave       13992 max       10723 min
Histogram: 1 1 7 4 7 13 5 7 2 1
FullNghs:      24827.9 ave       27065 max       22057 min
Histogram: 2 0 3 6 8 10 8 4 3 4

Total # of neighbors = 1191737
Ave neighs/atom = 297.93425
Neighbor list builds = 26869
Dangerous builds = 0

#clear
#
#next RN
#
#jump SELF
Total wall time: 0:19:19
