
units lj                  # Use reduced LJ style units
atom_style atomic         # Uncharged point particles
atom_modify map hash      # Needed for indexing of clusters etc
                          # Used to be able to find where atoms are in relation to each other.

lattice fcc 1.0 spacing 1 1 1
Lattice spacing in x,y,z = 1.5874011 1.5874011 1.5874011
region box block 0 10 0 10 0 10 units lattice
create_box 2 box
Created orthogonal box = (0.0000000 0.0000000 0.0000000) to (15.874011 15.874011 15.874011)
  3 by 4 by 4 MPI processor grid
create_atoms 1 box
Created 4000 atoms
  using lattice units in orthogonal box = (0.0000000 0.0000000 0.0000000) to (15.874011 15.874011 15.874011)
  create_atoms CPU = 0.030 seconds
set type 1 type/fraction 2 0.27 78393
Setting atom values ...
  1113 settings made for type/fraction
mass 1 1.0
mass 2 1.0
pair_style lj/cut  3.5
pair_modify tail  yes
pair_coeff 1  1  1.0  1.0   # Intearaction between 1 and 1 set with epsilon = 1 and sigma = 1
pair_coeff 1  2  1.5  0.8
pair_coeff 2  2  0.5  0.88

write_data data.0
System init for write_data ...
Neighbor list info ...
  update every 1 steps, delay 10 steps, check yes
  max neighbors/atom: 2000, page size: 100000
  master list distance cutoff = 3.8
  ghost atom cutoff = 3.8
  binsize = 1.9, bins = 9 9 9
  1 neighbor lists, perpetual/occasional/extra = 1 0 0
  (1) pair lj/cut, perpetual
      attributes: half, newton on
      pair build: half/bin/atomonly/newton
      stencil: half/bin/3d
      bin: standard
WARNING: Not all mixed pair coeffs generated from mixing. Use write_data with 'pair ij' option to store all pair coeffs. (../write_data.cpp:312)


#############################
#   M E L T   S Y S T E M   #
#############################

velocity all create 2.4 8172548 mom yes dist gaussian # Assign velocities
                                                    # Temperature 2.4, random number seed, zero linear momentum
                                                                                # Gaussian distribution

timestep 0.002   # simulation timestep
thermo 1000       # output thermodynamic data every 1000 steps bf 100

# Define a fix  in this case with index 1 applied to all
# particles in the simulation. This fix is for simulations
# in the anisotropic NPT ensemble. Note that we use the MTK
# correction.
fix 1 all npt temp 2.4 2.4 0.1 iso 5.68 5.68 0.5 mtk yes tchain 5 pchain 5 # Use NPT ensemble
                                                                         # Set temperature and pressure and damping
                                                                         # Numbers of thermostats in chain and in barostat
run 10000          # run for 10000 steps
Per MPI rank memory allocation (min/avg/max) = 3.642 | 3.644 | 3.648 Mbytes
Step Temp E_pair E_mol TotEng Press Volume 
       0          2.4   -6.6079615            0   -3.0088615   -3.8965289         4000 
    1000    2.4157227   -4.9371684            0   -1.3144903    5.5191601    4264.8371 
    2000    2.3512035   -4.9276642            0   -1.4017407    5.4664405    4264.0758 
    3000    2.4246672   -4.9099159            0   -1.2738244    5.8915705    4242.2669 
    4000    2.4330039   -4.9579293            0   -1.3093358    5.7194616    4245.1994 
    5000    2.4251211   -4.9163542            0   -1.2795819    5.4940324    4275.3533 
    6000    2.3948473   -4.9062536            0   -1.3148807    5.6601959    4267.0663 
    7000    2.4228838   -4.8966107            0   -1.2631936    5.8842602    4255.7592 
    8000    2.3792854   -4.9421351            0   -1.3740993    5.8681675    4225.4093 
    9000    2.4007764   -4.9626313            0    -1.362367    5.3665644    4269.7322 
   10000    2.3915857   -4.9332155            0   -1.3467338    5.8118784    4241.0429 
Loop time of 2.37496 on 48 procs for 10000 steps with 4000 atoms

Performance: 727589.783 tau/day, 4210.589 timesteps/s
99.6% CPU use with 48 MPI tasks x no OpenMP threads

MPI task timing breakdown:
Section |  min time  |  avg time  |  max time  |%varavg| %total
---------------------------------------------------------------
Pair    | 1.0199     | 1.0953     | 1.1856     |   3.2 | 46.12
Neigh   | 0.20378    | 0.21185    | 0.22934    |   1.1 |  8.92
Comm    | 0.70537    | 0.81802    | 0.91615    |   4.3 | 34.44
Output  | 0.00025025 | 0.00025416 | 0.00031845 |   0.0 |  0.01
Modify  | 0.21006    | 0.2345     | 0.26164    |   2.8 |  9.87
Other   |            | 0.01507    |            |       |  0.63

Nlocal:        83.3333 ave          92 max          75 min
Histogram: 3 4 6 1 9 11 3 7 2 2
Nghost:        1571.96 ave        1606 max        1538 min
Histogram: 2 2 6 5 10 5 9 5 2 2
Neighs:        8986.46 ave       10232 max        7919 min
Histogram: 5 1 6 6 7 8 8 6 0 1

Total # of neighbors = 431350
Ave neighs/atom = 107.83750
Neighbor list builds = 911
Dangerous builds = 244

# Equilibrate just above the melting temperature to avoid step fn in T

fix 1 all npt temp 1.25 1.25 0.1 iso 5.68 5.68 0.5 mtk yes tchain 5 pchain 5
run 2000
Per MPI rank memory allocation (min/avg/max) = 3.643 | 3.645 | 3.649 Mbytes
Step Temp E_pair E_mol TotEng Press Volume 
   10000    2.3915857   -4.9332155            0   -1.3467338    5.8118784    4241.0429 
   11000    1.2676089   -6.7804972            0   -4.8795593    5.5350842    3436.4527 
   12000    1.2658066   -6.7812582            0    -4.883023    5.6963413    3426.8749 
Loop time of 0.571249 on 48 procs for 2000 steps with 4000 atoms

Performance: 604990.182 tau/day, 3501.101 timesteps/s
99.6% CPU use with 48 MPI tasks x no OpenMP threads

MPI task timing breakdown:
Section |  min time  |  avg time  |  max time  |%varavg| %total
---------------------------------------------------------------
Pair    | 0.23885    | 0.26953    | 0.31342    |   2.8 | 47.18
Neigh   | 0.036103   | 0.039548   | 0.046027   |   0.9 |  6.92
Comm    | 0.16636    | 0.20944    | 0.23893    |   3.3 | 36.66
Output  | 5.0433e-05 | 5.2175e-05 | 6.6325e-05 |   0.0 |  0.01
Modify  | 0.040672   | 0.047861   | 0.055694   |   1.9 |  8.38
Other   |            | 0.004821   |            |       |  0.84

Nlocal:        83.3333 ave          91 max          74 min
Histogram: 1 1 4 5 9 11 2 9 4 2
Nghost:        1820.35 ave        1842 max        1799 min
Histogram: 3 2 5 11 6 5 3 6 3 4
Neighs:        11131.5 ave       12965 max        9703 min
Histogram: 3 4 8 6 12 5 2 4 3 1

Total # of neighbors = 534311
Ave neighs/atom = 133.57775
Neighbor list builds = 142
Dangerous builds = 11

#############################
# L I N E A R  Q U E N C H  #
#############################

# Define solid atoms. This closely follows ten Wolde  Ruiz-Montero and Frenkel  Faraday Discuss  1996  104  93-110
# Compute components of the per-atom q6 vector
compute q6 all orientorder/atom degrees 1 6 components 6 nnn NULL cutoff 1.3 # compute the Q6 parameter.
                                                                             # Use all neighbours within 1.3 unit cell.

# get number of connections
compute coord_number all coord/atom orientorder q6 0.5

# An atom is solid if it has 8 or more connections (of a possible 14)
variable is_solid atom c_coord_number>=8
group solid dynamic all var is_solid    # Must be dynamic to update
dynamic group solid defined

# do clustering
compute cluster solid cluster/atom 1.3 # Create a cluster where all atoms within are solid and max 1.3 units from another member

# define chunks one chunk per cluster
compute clus_chunks solid chunk/atom c_cluster nchunk every compress yes  # Says which atoms are in which chunk

# count the size of each chunk
compute size_chunks solid property/chunk clus_chunks count


# Find the maximum entry in the vector of chunk sizes
variable max_n equal max(c_size_chunks)


# Thermo style which includes this variable
# thermo_style custom step temp pe vol v_max_n

thermo ${N}  # Print the thermo information every 100 steps
thermo 1000  

# Reset the npt fix at a lower temperature (below freezing)
fix 1  all npt temp  ${temp} ${temp}  0.1  iso  5.68  5.68  0.5  mtk yes tchain  5  pchain  5
fix 1  all npt temp  0.45 ${temp}  0.1  iso  5.68  5.68  0.5  mtk yes tchain  5  pchain  5
fix 1  all npt temp  0.45 0.45  0.1  iso  5.68  5.68  0.5  mtk yes tchain  5  pchain  5

dump dmp2 all dcd ${N} traj.dcd
dump dmp2 all dcd 1000 traj.dcd


compute msd all msd com yes
variable twopoint equal c_msd[4]/6/(step*dt+1.0e-6)
fix 9 all vector 10 c_msd[4]
variable fit equal slope(f_9)/6/(10*dt)
thermo_style custom step temp pe c_msd[4] v_twopoint v_fit v_max_n

fix 1 all npt temp 1.25 ${temp} 0.1 iso 5.68 5.68 0.5 mtk yes tchain 5 pchain 5
fix 1 all npt temp 1.25 0.45 0.1 iso 5.68 5.68 0.5 mtk yes tchain 5 pchain 5
run 5000000 # 5000000  # Run for this many steps
Neighbor list info ...
  update every 1 steps, delay 10 steps, check yes
  max neighbors/atom: 2000, page size: 100000
  master list distance cutoff = 3.8
  ghost atom cutoff = 3.8
  binsize = 1.9, bins = 8 8 8
  4 neighbor lists, perpetual/occasional/extra = 1 3 0
  (1) pair lj/cut, perpetual
      attributes: half, newton on
      pair build: half/bin/atomonly/newton
      stencil: half/bin/3d
      bin: standard
  (2) compute orientorder/atom, occasional
      attributes: full, newton on
      pair build: full/bin/atomonly
      stencil: full/bin/3d
      bin: standard
  (3) compute coord/atom, occasional
      attributes: full, newton on
      pair build: full/bin/atomonly
      stencil: full/bin/3d
      bin: standard
  (4) compute cluster/atom, occasional
      attributes: full, newton on
      pair build: full/bin/atomonly
      stencil: full/bin/3d
      bin: standard
Per MPI rank memory allocation (min/avg/max) = 9.805 | 9.811 | 9.821 Mbytes
Step Temp PotEng c_msd[4] v_twopoint v_fit v_max_n 
   12000    1.2658066   -6.7812582 1.8585563e-30 1.290664e-32 8.3333333e+20            4 
   13000    1.2647081   -6.8202919   0.48848392 0.0031313071  0.040354419            1 
   14000    1.2356774   -6.8022049   0.95089909 0.0056601135  0.038470109            2 
   15000    1.2581087    -6.811916    1.4858768 0.0082548706  0.039626805            1 
   16000    1.2642935   -6.7922346    1.9876959  0.010352582  0.041090216            1 
   17000    1.2945604   -6.7921836    2.5172146  0.012339287  0.041955816            2 
   18000    1.2552072   -6.7919268    3.0687154  0.014207016  0.042397424            2 
   19000    1.2542941   -6.7912666    3.5442176  0.015544814   0.04263117            1 
   20000    1.2516418   -6.7827902    4.0467179  0.016861324  0.042700009            1 
   21000     1.239807   -6.7998936     4.517565  0.017926845  0.042532008            2 
   22000    1.2478278   -6.7991716    4.9430948  0.018723844   0.04205766            1 
   23000    1.2213587   -6.8165323    5.4041029  0.019580082   0.04158502            2 
   24000    1.2428828   -6.7724255    5.9354321  0.020609139  0.041284572            1 
   25000    1.2594898   -6.7852192    6.3982309  0.021327436  0.041144157            1 
   26000    1.2620862   -6.8034565    6.8752358  0.022036012  0.041046964            1 
   27000    1.2417383   -6.7681716    7.4474308  0.022985897  0.041019383            2 
   28000    1.2598185   -6.7611997    8.0115396  0.023843867  0.041141819            7 
   29000    1.2612978   -6.8058977    8.5385856  0.024536165  0.041275705            3 
   30000    1.2444765    -6.846504    8.9269859  0.024797183  0.041361257            1 
   31000    1.2442721   -6.7875227    9.4764857  0.025474424  0.041354076            2 
   32000    1.2288245   -6.7883254    9.9684077  0.025959395  0.041387324            1 
   33000    1.2192675   -6.8034574    10.421882  0.026317884  0.041392055            1 
   34000    1.2385844    -6.802414    10.981933  0.026916502  0.041427024            3 
   35000    1.2250311   -6.8390365    11.462647  0.027292016  0.041436653            1 
   36000    1.2612906   -6.7932564    11.961404  0.027688434  0.041440355            1 
   37000    1.2646569   -6.8042066    12.514418  0.028185627  0.041464276            2 
   38000    1.2485129   -6.8296156    12.973576  0.028450825   0.04150309            1 
   39000    1.2506825   -6.7736435    13.379133   0.02858789  0.041478565            1 
   40000    1.2582512   -6.7533542    13.857614  0.028870029  0.041424575            1 
   41000    1.2429606   -6.8040463    14.230713  0.028924213  0.041365694            1 
   42000    1.2427119   -6.8178276    14.684015   0.02913495  0.041260432            2 
   43000    1.2440387   -6.8004767    15.299687  0.029650556  0.041212122            3 
   44000    1.2390281   -6.8095098    15.749971  0.029829491    0.0411805            1 
   45000    1.2637147   -6.8048818    16.148973  0.029905506   0.04111047            1 
   46000    1.2301655   -6.7738411    16.641802  0.030148191  0.041034797            2 
   47000    1.2567403   -6.8010733    17.168437   0.03044049  0.040978774            1 
   48000    1.2761165    -6.807961    17.644277  0.030632425  0.040934858            4 
   49000     1.224687   -6.7835126    18.274641  0.031079321  0.040911015            1 
   50000    1.2785937   -6.7999783    18.811771  0.031352952  0.040935733            2 
   51000    1.2426155   -6.7860503    19.292725   0.03152406   0.04095655            1 
   52000      1.19743   -6.7922422    19.827513  0.031774861  0.040961809            2 
   53000    1.2365219   -6.8061757    20.326936  0.031960591  0.040989697            1 
   54000    1.2215491   -6.8146556    20.610465  0.031806273  0.040988338            1 
   55000    1.2338172   -6.7440807    21.038146  0.031875979  0.040933868            1 
   56000    1.2393537   -6.7970028     21.44483  0.031911949  0.040871979            1 
   57000    1.2279893   -6.7758996    22.060905  0.032252784  0.040818777            1 
   58000    1.2349982   -6.7957598    22.548934  0.032397893  0.040789622            1 
   59000    1.2313004   -6.7708596    22.953789  0.032420605  0.040758843            1 
   60000    1.2570061   -6.8207624    23.504928  0.032645733  0.040732515            1 
   61000    1.2617075   -6.8121895     23.98865  0.032771379  0.040726969            4 
   62000    1.2146815   -6.7888293    24.408861  0.032807609  0.040705061            2 
   63000    1.2628493    -6.803624    25.086043  0.033182596  0.040698906            3 
   64000    1.2718151    -6.833294    25.716254  0.033484705  0.040733102            1 
   65000    1.2343384   -6.7986596    26.164892  0.033544733  0.040770882            2 
   66000    1.2171109   -6.8271803    26.684775  0.033692898   0.04080583            1 
   67000     1.260105   -6.8105122    27.238023  0.033878138  0.040844805            1 
   68000    1.2719398   -6.8316225    27.626121   0.03385554  0.040868951            1 
   69000    1.2382864   -6.8501589     28.10613  0.033944601  0.040888596            3 
   70000    1.2248943   -6.8321459    28.704908  0.034172509  0.040913723            1 
   71000    1.2280953   -6.8162068    29.115531  0.034173158  0.040934564            3 
   72000    1.2765744    -6.787964    29.636992  0.034302074  0.040959847            2 
   73000    1.2435878   -6.8528295    30.070873   0.03432748  0.040968598            1 
   74000    1.2427178   -6.7866047    30.492988   0.03433895  0.040973061            2 
   75000    1.2144036   -6.7944318    30.870091  0.034300101  0.040962176            1 
   76000    1.2402289   -6.7820459    31.470033  0.034506615  0.040940476            3 
   77000    1.2628373   -6.8164944    31.980795   0.03461125  0.040939021            1 
   78000    1.2457846   -6.8698334    32.328299  0.034538781  0.040941108            1 
   79000    1.2146283   -6.8111442    32.738996  0.034534806  0.040915336            2 
   80000    1.2327359   -6.8118691    33.318496  0.034706766  0.040893257            2 
   81000    1.2594282   -6.8029815    33.875271  0.034851102   0.04088369            1 
   82000    1.2359969   -6.8198514    34.180078  0.034735851  0.040869646            2 
   83000    1.2322953   -6.8130758     34.79579  0.034935532  0.040850406            2 
   84000    1.2221355   -6.8084794     35.02068  0.034742738  0.040822307            2 
   85000    1.2579719   -6.8053088    35.726863  0.035026336  0.040792366            3 
   86000     1.213542   -6.8354287    35.986118  0.034870269  0.040767789            3 
   87000    1.2252042   -6.8052863    36.577402  0.035035826  0.040742549            1 
   88000    1.2525769   -6.7791822    36.884799  0.034928787  0.040721951            1 
   89000    1.2422551   -6.8172682     37.14391  0.034778942  0.040683092            1 
   90000    1.2325836   -6.8017507    37.573535   0.03479031  0.040635301            2 
   91000    1.2438058   -6.8151977    38.013123  0.034810552  0.040580813            2 
   92000    1.2383461   -6.7876477    38.681016  0.035037152  0.040534188            1 
   93000    1.2217402    -6.853171    39.003195  0.034949099  0.040492228            1 
   94000    1.2282735   -6.8075732    39.633257  0.035135866  0.040455819            1 
   95000    1.2473152   -6.8526657    39.877336  0.034980119  0.040421829            1 
   96000    1.2247427   -6.7526887    40.832306   0.03544471  0.040397875            1 
   97000    1.2483502   -6.7969173    41.033909  0.035252499  0.040373436            2 
   98000     1.234287   -6.7976155    41.451082  0.035247518  0.040346477            1 
   99000    1.2390116   -6.8426132    41.678508  0.035082919  0.040314723            1 
  100000    1.2459316   -6.8383683    41.962038  0.034968365  0.040270114            1 
  101000    1.2572022   -6.7933701    42.458626  0.035031869  0.040224429            1 
  102000    1.2250305   -6.8561869    42.932046  0.035075201  0.040179182            2 
  103000     1.229511   -6.8372421    43.678338  0.035338461  0.040144689            2 
  104000    1.2331792   -6.8057707     44.46049  0.035625392  0.040124181            2 
  105000    1.2072222   -6.8050892    44.619861  0.035412588  0.040103916            1 
  106000    1.2337513   -6.8066338    45.472041   0.03574846  0.040091356            1 
  107000    1.2299697   -6.7953704    45.956777  0.035791882  0.040080281            1 
  108000    1.2206091   -6.8104572    46.240548  0.035679435  0.040070746            2 
  109000    1.2424767   -6.8180609    46.901036  0.035857061  0.040059145            1 
  110000    1.2348098   -6.8466923    47.440366  0.035939671  0.040048109            1 
  111000    1.1949679   -6.8233097    47.575827  0.035717587  0.040036163            1 
  112000    1.2329745   -6.7803936    48.193183  0.035858023  0.040025189            2 
  113000    1.2468226   -6.8396843    48.550441   0.03580416  0.040012929            1 
  114000    1.2244349   -6.8017123    48.921423  0.035761274  0.039995438            1 
  115000    1.2216246   -6.8261635    49.536803  0.035896234  0.039976776            1 
  116000    1.1984389    -6.828052    49.905969  0.035851989  0.039959452            1 
  117000    1.2393477   -6.8417016    50.200779  0.035755541  0.039939109            1 
  118000    1.2647255   -6.8174532    50.941395  0.035975561   0.03992202            1 
  119000     1.231383   -6.8382011    51.232183  0.035876879  0.039906522            3 
  120000    1.2193899   -6.7932852    51.900379   0.03604193  0.039896455            2 
  121000    1.2548427   -6.8526148    52.420252  0.036102102  0.039889996            1 
  122000    1.2339444   -6.8069133     52.84156  0.036093962  0.039881579            1 
  123000    1.2326074   -6.8572877     53.13345  0.035998272   0.03986842            1 
  124000    1.2514094     -6.86232    53.726465  0.036106495  0.039855458            2 
  125000    1.2521388   -6.8273503    54.290442  0.036193628  0.039844166            1 
  126000    1.2387069   -6.8165043    54.616792  0.036122217  0.039836017            2 
  127000    1.2050977   -6.8083308    55.137429  0.036179415  0.039822281            1 
  128000    1.2085924   -6.8108011    55.763636   0.03630445  0.039808197            2 
  129000    1.2399254   -6.8167738    55.560767  0.035891968  0.039792011            1 
  130000     1.247786   -6.8497453    56.151467   0.03599453  0.039768276            2 
  131000     1.248963   -6.8259939    56.880123  0.036183284  0.039751067            2 
  132000    1.2363679   -6.7854501    57.411967  0.036244929  0.039738397            3 
  133000    1.2376037   -6.8515442    57.716087  0.036162962  0.039725806            1 
  134000    1.2148547   -6.8464125    57.970752  0.036051463  0.039704121            1 
  135000    1.2114546   -6.8128307    58.469355  0.036092194  0.039683562            2 
  136000    1.2211709   -6.8323354    59.113434  0.036221466  0.039661719            1 
  137000    1.2289725   -6.8267796    59.575846  0.036238349  0.039645657            1 
  138000    1.2086088   -6.8685826    59.936005   0.03619324  0.039631432            3 
  139000    1.2388684   -6.8381586    60.584111  0.036321409  0.039616727            1 
  140000    1.2418769   -6.7934917     60.91999  0.036261899  0.039601942            2 
  141000    1.2238814   -6.8432459    61.553339  0.036379042  0.039588051            3 
  142000    1.2327904   -6.8217637    62.046359  0.036412182  0.039573909            1 
  143000     1.220595   -6.8128127    62.402091  0.036364855  0.039562611            2 
  144000    1.2371615   -6.8666986    62.903917   0.03640273  0.039549535            1 
  145000    1.2096061    -6.872773    63.334774  0.036399295  0.039541666            1 
  146000     1.236165   -6.8250085    64.016926  0.036539341  0.039537761            1 
  147000    1.2098445   -6.8303393    64.601839  0.036622358  0.039535648            2 
  148000    1.2258944   -6.8286021    65.172947  0.036696479  0.039535002            2 
  149000     1.227308   -6.8279811    65.480059  0.036621957   0.03953406            2 
  150000    1.2391447   -6.8316352    65.843839   0.03657991  0.039529187            1 
  151000    1.1962243   -6.7905522    66.530329  0.036716517  0.039523654            2 
  152000    1.2379562   -6.7895096    66.716177  0.036576851  0.039521109            1 
  153000    1.2219549   -6.8462113    67.066694    0.0365287  0.039511698            2 
  154000    1.2242053   -6.8441366    67.201479  0.036364437  0.039497718            2 
  155000    1.2332241   -6.7921335    67.711752  0.036404168  0.039480439            1 
  156000    1.2197823   -6.9098146     67.67898  0.036153301  0.039459219            2 
  157000    1.2327115   -6.8431996    68.579558  0.036401039  0.039436433            2 
  158000    1.2024543    -6.839619    68.873874  0.036325883  0.039419671            2 
  159000    1.2057601   -6.8597974    69.358274  0.036351296  0.039402463            3 
  160000    1.1975797   -6.8225862     69.89371  0.036402974  0.039383045            1 
  161000    1.2425066   -6.8440922    70.046891  0.036256155  0.039363861            3 
  162000     1.228124   -6.8572813    70.661102  0.036348303  0.039344608            3 
  163000    1.2006174    -6.818344    71.104882  0.036352189  0.039323913            1 
  164000    1.2286276   -6.8959255    71.379147  0.036269892  0.039303097            2 
  165000     1.232065   -6.8282481    71.958274  0.036342562  0.039283304            2 
  166000    1.2259319   -6.8499159    72.276204  0.036283235  0.039263507            2 
  167000    1.2379205   -6.8412439     72.60284  0.036228962  0.039242271            3 
  168000    1.2247987    -6.827419    73.006327  0.036213456  0.039221908            2 
  169000    1.2415591   -6.8462606    73.682451  0.036332569  0.039201394            1 
  170000    1.2225795   -6.8396332    74.347522  0.036444863  0.039183638            5 
  171000    1.2038954   -6.8518391    74.714186  0.036410422  0.039171397            3 
  172000    1.2394176   -6.8113088    75.484054  0.036571731  0.039158909       -1e+20 
  173000     1.224297   -6.8135516    75.932774  0.036576481   0.03914766            2 
  174000    1.2179269   -6.8278883    76.439853  0.036609125  0.039137619            1 
  175000    1.2406268     -6.85221     76.63191  0.036491386   0.03912896            1 
  176000    1.2026979   -6.8655868    77.289445  0.036595381  0.039117895            2 
  177000    1.2108922   -6.8479554    77.567839  0.036519698  0.039105629            2 
  178000    1.2143163    -6.847618    78.058025  0.036544019  0.039094287            1 
  179000    1.2219808   -6.8591916    78.387873  0.036493423  0.039082979            3 
  180000    1.2324367   -6.8872478    78.938945  0.036545808  0.039072602            2 
  181000    1.2310362   -6.8135875    79.700101  0.036694337  0.039063988            1 
  182000    1.2280155   -6.8247927    80.343733  0.036787424  0.039055537            1 
  183000    1.2295263   -6.8164823    80.882985   0.03683196  0.039047294            2 
  184000    1.2493692   -6.8777881    80.737113  0.036565721  0.039039154            1 
  185000    1.2133507   -6.8385658    81.667502  0.036787163  0.039030311            2 
  186000    1.2105787     -6.84689    82.570442  0.036993925  0.039026794            3 
  187000    1.2064129   -6.8648252    82.572793  0.036797145  0.039024942            3 
  188000    1.2322928   -6.8612306    83.045377  0.036810894  0.039021058            3 
  189000    1.2052984   -6.8651003    83.586791  0.036854846  0.039017753            4 
  190000    1.2407401   -6.8205528    84.436944  0.037033747   0.03901686            3 
  191000    1.2124522   -6.8363008    84.791188   0.03699441  0.039015227            2 
  192000    1.2161687   -6.8548647    84.918298    0.0368569  0.039014723            1 
  193000    1.2502373   -6.8616224    85.755608  0.037027464  0.039014016            1 
  194000    1.2185006   -6.8483532    86.419203  0.037121651   0.03901487            2 
  195000    1.2195109   -6.8478712    86.387663  0.036917805  0.039017202            1 
  196000    1.2387407    -6.858565     86.81154  0.036909668   0.03901608            2 
  197000    1.2213855   -6.8264638    87.806751  0.037143295  0.039017064            2 
  198000      1.20833   -6.9041336    87.606544  0.036871441  0.039016608            1 
  199000    1.2098033   -6.8866226    88.339574  0.036993121  0.039014759            1 
  200000     1.190199   -6.8114725    88.689877  0.036954115   0.03901212            1 
  201000    1.2059385   -6.8731102    89.291507  0.037019696   0.03901229            1 
  202000    1.1957815   -6.8477935    90.168239  0.037198118  0.039013792            3 
  203000    1.2152692   -6.8488887    90.180918  0.037020081  0.039013832            1 
  204000    1.2273737   -6.8487888     91.03735   0.03718846   0.03901654            1 
  205000    1.2237384   -6.8223578    91.591455  0.037232299  0.039019454            1 
  206000    1.2172095   -6.8978923    91.696108  0.037093895  0.039020624            1 
  207000    1.2094937   -6.8530692    92.385565  0.037192256  0.039021047            2 
  208000    1.2477256    -6.893959    92.467964   0.03704646  0.039021957            2 
  209000    1.2311366   -6.8707048    93.211951   0.03716585  0.039020954            3 
  210000    1.2442315   -6.8417313    93.726973  0.037193243  0.039019514            2 
  211000    1.2065816   -6.8557668    94.244652  0.037221427   0.03901819            3 
  212000     1.223592   -6.8380625     93.89221  0.036907315  0.039015987            2 
  213000    1.2184064   -6.8524223    94.028983  0.036787552  0.039009086            2 
  214000    1.2238759   -6.8476826    94.754451  0.036898151  0.038999373            1 
  215000    1.2191401   -6.8491021     95.12209  0.036869027  0.038992693            1 
  216000    1.1772358   -6.8365739    95.847545  0.036978219  0.038985687            2 
  217000    1.2047681   -6.8572583    96.365595  0.037006757  0.038980121            1 
  218000    1.2498394   -6.8267419    96.757051   0.03698664  0.038974773            2 
  219000    1.2068322   -6.8394841    97.359449  0.037046974  0.038968903            1 
  220000    1.2387053   -6.8398939    98.056416  0.037142582   0.03896707            2 
  221000    1.1958973    -6.886572    98.454984  0.037124805  0.038964553            1 
  222000    1.2141491   -6.8554465    98.811653  0.037091461  0.038962195            4 
  223000    1.2009862   -6.8616586    99.492115  0.037179415   0.03895703            2 
  224000    1.2106271   -6.8525918    99.567529  0.037041491  0.038952608            1 
  225000    1.2087175   -6.8735404    100.07319  0.037064144  0.038946436            3 
  226000    1.1994982   -6.8422315    100.47757  0.037049252  0.038941537            2 
  227000    1.2314175    -6.844904    100.89554  0.037039478  0.038937026            3 
  228000    1.2206794   -6.8779269    101.45448  0.037081316  0.038934268            3 
  229000    1.2260916   -6.8406136    101.98637  0.037112943  0.038930645            2 
  230000    1.2015178   -6.8312903    102.54935  0.037155561  0.038928276            1 
  231000    1.2392961   -6.8790607    103.18478  0.037223946  0.038927066            2 
  232000    1.2084792   -6.8631787    103.32096  0.037112412  0.038922928            1 
  233000    1.2128812   -6.8414777    103.87445  0.037151092  0.038919294            2 
  234000    1.2235538   -6.8636242    104.20715   0.03711081    0.0389182            2 
  235000    1.2099928   -6.8784441    105.16533   0.03729267  0.038916639            2 
  236000    1.2124992   -6.8658203    105.26227  0.037168879  0.038915171            2 
  237000    1.2172372   -6.8706343    105.47348  0.037086316  0.038912199            1 
  238000    1.2293419   -6.8166473    106.43268  0.037266345  0.038909171            1 
  239000    1.1934342   -6.8666452    106.25282  0.037047707  0.038905358            1 
  240000    1.1985063    -6.873729    106.84797   0.03709999  0.038901557            1 
  241000    1.2441466   -6.8205089    107.75152  0.037258478  0.038898405            1 
  242000    1.2043335   -6.8801086    107.97119  0.037180162  0.038894114            2 
  243000    1.2243793   -6.9001661    108.63065  0.037253309  0.038890815            2 
  244000     1.208031   -6.8769171    108.77438  0.037149719  0.038889428            1 
  245000    1.2219295   -6.8592938    109.14119  0.037122852  0.038883454            2 
  246000     1.220706   -6.8459117    109.46368  0.037081192  0.038878269            1 
  247000    1.2421854   -6.8917794     109.8244  0.037052765  0.038873377            1 
  248000    1.2405186   -6.8966868    110.03137  0.036972908   0.03886602            2 
  249000    1.1964174   -6.8941312    110.74082  0.037061855  0.038859081            2 
  250000    1.1939248   -6.8786907    111.17877  0.037059591  0.038851086            1 
  251000    1.2066138   -6.8197332    112.16695  0.037240023  0.038843768            1 
  252000    1.1916186   -6.8947109    112.79046  0.037298433  0.038839752            3 
  253000    1.2296828   -6.9005706    112.66536  0.037109801  0.038834752            1 
  254000    1.1866878   -6.8380262    113.42064  0.037211496  0.038831609            1 
  255000    1.2137213   -6.8499904    114.10217  0.037288291  0.038829715            1 
  256000    1.2302759    -6.872263    114.02937  0.037118934  0.038825502            2 
  257000    1.2105939   -6.8595983    114.12707  0.037006183  0.038818054            2 
  258000    1.2021739   -6.8807396    115.20549  0.037211075  0.038810119            2 
  259000    1.2212066    -6.889439    115.27605  0.037090106  0.038803568            2 
  260000    1.2271569   -6.8592526    115.61544   0.03705623  0.038796587            3 
  261000    1.1988636   -6.8667502    116.31786  0.037138524  0.038788413            2 
  262000    1.2078662   -6.8601405    116.24114  0.036972374  0.038782484            1 
  263000    1.2061775    -6.850775    117.26955  0.037157653  0.038775816            1 
  264000     1.189283   -6.8788903    117.24586  0.037009425  0.038768153            1 
  265000    1.2112337   -6.8935895    117.53212  0.036959787  0.038759609            1 
  266000    1.2080643   -6.8449564    118.38736  0.037088773   0.03874985            1 
  267000    1.1813159   -6.8954465    118.22761  0.036900004  0.038739642            2 
  268000    1.1937896   -6.8308165    119.22555  0.037072621  0.038730485            1 
  269000     1.209505   -6.8764523    119.48701  0.037015803  0.038720691            1 
  270000    1.1994153   -6.8813145    119.87283  0.036997786  0.038711953            2 
  271000    1.2176422   -6.8821152    119.83054  0.036848259  0.038700392            1 
  272000    1.2045465   -6.8714064    120.35644   0.03687391  0.038687577            1 
  273000    1.2080443    -6.893625    120.54565  0.036796595  0.038675919            2 
  274000    1.2171429   -6.8697924    121.09356   0.03682894  0.038665018            1 
  275000    1.2179034   -6.8675254    122.14923  0.037014919  0.038656614            1 
  276000    1.2190059   -6.8475625    123.29066   0.03722544  0.038649596            2 
  277000     1.246213   -6.9074164    122.97915  0.036997339  0.038644468            3 
  278000    1.2149643   -6.8273795    123.80243   0.03711104  0.038638315            3 
  279000    1.2193888   -6.8712102    124.24711  0.037110846  0.038632971            2 
  280000    1.1954762   -6.9029832     124.6452  0.037096785  0.038628123            2 
  281000    1.1935641   -6.8854851    124.99146  0.037067456  0.038622024            1 
  282000    1.2104193   -6.8303787    125.71297  0.037149224  0.038616866            1 
  283000    1.2001521   -6.8871898     125.5715  0.036976297  0.038611278            1 
  284000    1.1905277   -6.8529151    126.84397  0.037219476    0.0386054            1 
  285000     1.220654   -6.9119105    127.16695  0.037183317  0.038599187            3 
  286000    1.2222361   -6.8735188    127.13719  0.037044635  0.038593314            1 
  287000    1.2072299   -6.8698902    127.69734  0.037078204  0.038586575            1 
  288000    1.2265512   -6.9075875    127.85489   0.03699505  0.038581124            2 
  289000    1.2246609   -6.8616353    128.76074  0.037128241  0.038574366            2 
  290000    1.2043645   -6.9142736     128.6893  0.036979685  0.038567626            3 
  291000    1.2032143   -6.8767967    129.77399  0.037163229  0.038561095            2 
  292000    1.2256955   -6.8962072    129.54337   0.03697014  0.038553798            1 
  293000    1.2104633   -6.8660998    130.56181  0.037133621  0.038546902            1 
  294000    1.2081516   -6.8894202    130.27707  0.036926608  0.038539318            2 
  295000    1.2030277   -6.8855534    130.92726  0.036985103  0.038531093            1 
  296000    1.1995511   -6.8893584    131.97176  0.037154211  0.038522955            1 
  297000    1.1805822   -6.8790282    132.20396  0.037094264  0.038516818            4 
  298000    1.1823839   -6.9004679    132.74534  0.037121179  0.038511495            2 
  299000    1.1929126   -6.8873614    132.64951  0.036970321  0.038504747            2 
  300000    1.2103852   -6.8928111    133.57583  0.037104397  0.038498423            1 
  301000    1.2139369   -6.8638327    133.92335  0.037077339  0.038491307            2 
  302000    1.2243042   -6.8444643    134.34568  0.037071104  0.038485037            1 
  303000    1.2055172   -6.8893555    134.58354  0.037014175  0.038478226            1 
  304000    1.1959904   -6.8470358     135.3947  0.037114775  0.038471192            1 
  305000    1.1649637   -6.8924442    135.60749  0.037051227  0.038464865            2 
  306000    1.1813072   -6.8664683    136.05488  0.037051983  0.038458338            2 
  307000    1.2068886   -6.9124108    136.66117  0.037095866  0.038452041            1 
  308000    1.2066588   -6.9254299     137.2081  0.037123403  0.038446076            2 
  309000    1.1818814   -6.9141598    137.38317  0.037050478  0.038440496            1 
  310000    1.1896339   -6.9198645    138.00781  0.037098873  0.038435172            2 
  311000    1.1717659   -6.9023463    138.57034  0.037130316  0.038430474            1 
  312000    1.1770224   -6.8705077    139.20029  0.037179565  0.038426113            2 
  313000    1.2182562   -6.9132683    138.98765  0.037004166  0.038419401            2 
  314000    1.2196171   -6.8894656    139.52246  0.037028255  0.038411362            2 
  315000    1.1646021   -6.8553522    140.12187  0.037069277   0.03840274            2 
  316000    1.2482612   -6.8809409    140.22497  0.036979159  0.038394204            2 
  317000    1.2103101   -6.8724704    140.24951  0.036868955  0.038384706            1 
  318000     1.185474   -6.9288444    140.37606   0.03678618  0.038373601            1 
  319000    1.2045645   -6.8522444    140.84581  0.036793577  0.038361488            2 
  320000    1.1918341   -6.8858739    141.13147  0.036752986   0.03835057            2 
  321000    1.1918704   -6.9000391    142.02076  0.036869355  0.038340663            1 
  322000    1.1815117    -6.866587    142.14155  0.036786115  0.038331948            1 
  323000    1.1691868   -6.9095834    143.28609  0.036967516  0.038323904            1 
  324000    1.1859751   -6.8964272    143.85917  0.037000815   0.03831707            1 
  325000    1.1969307   -6.9001799     144.3952   0.03702441  0.038309963            1 
  326000    1.1783926   -6.9001756    144.61956   0.03696819  0.038303678            1 
  327000    1.1964868   -6.9031523    145.18829  0.037000074  0.038295366            1 
  328000    1.1851282   -6.9089379    145.24328  0.036901241  0.038286909            3 
  329000     1.207337   -6.9319045    145.20596  0.036779626  0.038279391            2 
  330000    1.2166887   -6.8854795    146.13557  0.036902921  0.038271006            1 
  331000    1.1782415   -6.9262976      146.915  0.036987663  0.038262919            2 
  332000     1.190685   -6.8652496    147.66165  0.037063668   0.03825631            2 
  333000    1.2023167   -6.9041332    148.33585  0.037121083  0.038251815            3 
  334000    1.2161398   -6.8923723    148.70495  0.037102034  0.038248021            1 
  335000     1.162575    -6.880981    149.22348  0.037120268  0.038244454            2 
  336000    1.2059521   -6.9144883     149.8469  0.037164409  0.038241271            5 
  337000    1.1760632   -6.9244961    149.46381  0.036959398  0.038236334            2 
  338000    1.1758921   -6.8974194    150.13023  0.037014357    0.0382303            4 
  339000    1.1995695   -6.8728593    150.95215  0.037107216  0.038224884            2 
  340000    1.1929297   -6.9055145    150.52098  0.036892397  0.038219322            1 
  341000    1.1985676    -6.929634    151.06181  0.036916375  0.038211761            6 
  342000    1.1963049   -6.8805033    151.81023  0.036990797  0.038204147            1 
  343000     1.180241   -6.8884694    152.27127  0.036994963   0.03819712            2 
  344000    1.1840238   -6.9149724    152.29327  0.036892749  0.038191103            1 
  345000     1.200768   -6.8790785    153.13341  0.036988746  0.038184814            1 
  346000    1.2057839   -6.9308092    153.37466  0.036939946  0.038178414            1 
  347000    1.1872195   -6.8921266    153.37354  0.036833224  0.038170615            2 
  348000    1.1940228   -6.8741616    153.95425  0.036866438  0.038162585            1 
  349000    1.1913947   -6.8518285    154.83759  0.036971725  0.038154207            1 
  350000    1.1927259   -6.8956715    155.15874  0.036942557  0.038146742            2 
  351000    1.2094326   -6.8951089     155.6844  0.036962109  0.038140398            1 
  352000    1.1929855   -6.8964405    156.29233  0.037001026  0.038134418            3 
  353000    1.1869256   -6.9184623    157.09726  0.037086227  0.038130388            1 
  354000     1.194865   -6.8815101    157.54382  0.037086587  0.038126899            2 
  355000    1.2211562   -6.8914092    157.21727  0.036905462  0.038124444            2 
  356000    1.2098551   -6.8725713    158.32161  0.037060301  0.038121869            2 
  357000    1.1921945   -6.8921113    159.48141  0.037227221  0.038119299            1 
  358000    1.1884812   -6.9041131    159.51448   0.03713093    0.0381159            1 
  359000     1.185714   -6.8640235    160.24703  0.037197546  0.038112825            1 
  360000    1.2103426   -6.9062603     160.4113  0.037132245  0.038108975            2 
  361000    1.2196838   -6.9127824     160.0237  0.036939913  0.038104457            1 
  362000    1.2123634   -6.8747202     161.1958  0.037107689  0.038099186            1 
  363000     1.165797   -6.9158419    161.38746  0.037049462  0.038095025            1 
  364000    1.1904972   -6.9136265    162.68381  0.037244461  0.038091257            1 
  365000    1.1722912   -6.9410608    162.60928  0.037125406  0.038089056            1 
  366000    1.1976717   -6.9247381    163.90109  0.037318098  0.038087958            2 
  367000     1.167305   -6.9133108    164.38375   0.03732601  0.038086801            3 
  368000    1.2114886   -6.9147414    164.56434  0.037265476   0.03808601            1 
  369000    1.1866443   -6.9485142     164.6186   0.03717674  0.038085161            2 
  370000    1.1800427   -6.9009857    164.88125  0.037135416  0.038082421            1 
  371000     1.202776   -6.9500278    165.59148  0.037194853  0.038080174            2 
  372000    1.1928657   -6.8907042    166.43729  0.037284339  0.038078407            2 
  373000    1.1954521   -6.9158638    166.35393  0.037165758  0.038076454            2 
  374000    1.2113851   -6.9361343    167.17103  0.037248447  0.038074279            4 
  375000    1.1977979   -6.8785564    167.44642  0.037210316  0.038073571            2 
  376000    1.1972261   -6.9108366    167.76559   0.03718209  0.038072457            1 
  377000    1.1898236   -6.9243304    167.89245  0.037111505  0.038071243            1 
  378000     1.205567   -6.9197654    169.10704  0.037281093  0.038069505            1 
  379000    1.1868561   -6.8656923    169.85274  0.037346689   0.03806798            2 
  380000    1.2028256   -6.9497462    169.57167  0.037186771   0.03806735            2 
  381000    1.2071787   -6.8996426    170.27101  0.037242127  0.038065261            5 
  382000    1.2067982   -6.8906714    170.91976  0.037286161  0.038063531            4 
  383000    1.2028389   -6.9076451    170.86643  0.037177204  0.038060858            1 
  384000     1.196148   -6.9423362    170.84412  0.037075546  0.038057745            2 
  385000    1.1737203    -6.916341    171.69917  0.037164322  0.038054618            3 
  386000    1.1871966   -6.8824403    172.28712  0.037194974  0.038052805            1 
  387000    1.1909217   -6.9286899    172.89128  0.037228957  0.038050155            2 
  388000    1.1956131   -6.8995175    172.87747  0.037130041  0.038047989            5 
  389000    1.1678971   -6.9146902     173.9071  0.037255162  0.038045724            2 
  390000    1.1870043   -6.9402381    173.32409  0.037035062  0.038042998            2 
  391000    1.1852455   -6.8984147    174.04877  0.037094792  0.038040051            1 
  392000    1.2003295   -6.9134519    175.04912  0.037212822   0.03803716            2 
  393000    1.1964828   -6.8905968    175.73986  0.037264602  0.038036249            2 
  394000    1.1718646   -6.9176073    175.31446  0.037080046  0.038034664            1 
  395000    1.1795989   -6.8788757    176.69343  0.037277094  0.038033001            2 
  396000    1.1859439   -6.8934824    177.40316  0.037332314  0.038032215            3 
  397000    1.2108932   -6.9524494    176.81762   0.03711537  0.038031345            1 
  398000    1.1896707   -6.8907421    177.58882  0.037183589  0.038030292            1 
  399000    1.1799813   -6.9193993    177.76713  0.037127638   0.03802848            3 
  400000    1.1856506   -6.9146208    178.63221  0.037215043  0.038026084            3 
  401000    1.1862897   -6.9090463    178.31807  0.037056955  0.038022964            2 
  402000     1.181996   -6.9085329    179.23031  0.037153878  0.038019531            1 
  403000    1.1847094   -6.9036057    179.60853  0.037139894   0.03801621            5 
  404000    1.1848516   -6.8914947    179.84002  0.037095713   0.03801285            2 
  405000    1.1599615   -6.9217538    179.85184  0.037006552  0.038009128            1 
  406000    1.1733688   -6.8901954    180.09569  0.036965453  0.038004882            1 
  407000    1.1904467   -6.9398889    180.53305  0.036964179  0.038000009            2 
  408000    1.1923693   -6.9159745    181.25852  0.037021756  0.037995453            1 
  409000    1.1994275   -6.9279407    181.24103  0.036927675  0.037989712            2 
  410000    1.1851966   -6.9235103    182.18014  0.037028483  0.037984792            1 
  411000    1.1950129   -6.9262729    182.50013  0.037003271  0.037979344            1 
  412000    1.1795974   -6.8818322    183.54169  0.037124129  0.037975126            1 
  413000    1.1907474   -6.9027561    183.53781  0.037033457  0.037970915            1 
  414000    1.1880629   -6.9383773    183.44997  0.036926322  0.037965637            3 
  415000     1.204481    -6.909132    184.42544  0.037033221  0.037960455            1 
  416000    1.2040368   -6.9366937    184.83706  0.037026655  0.037955371            2 
  417000    1.1811305   -6.9352587    184.38522  0.036847567  0.037949971            1 
  418000    1.1773205   -6.9386871    185.42843   0.03696739   0.03794403            2 
  419000    1.2009427   -6.9242528    185.53399  0.036900158  0.037938534            1 
  420000    1.1846278   -6.9142157    186.51869  0.037007677  0.037934306            2 
  421000    1.1962648   -6.9369109    187.32288  0.037078954  0.037930241            4 
  422000    1.1906334   -6.8713002    187.54907  0.037035756  0.037925936            1 
  423000    1.2087162   -6.9123183    187.79488  0.036996626  0.037921784            1 
  424000    1.1921176   -6.9151904     188.5532  0.037058412   0.03791767            3 
  425000    1.1705949   -6.8857017    188.91891  0.037042924  0.037913738            1 
  426000     1.200973   -6.9564393    189.39002  0.037048125  0.037909159            1 
  427000    1.1888157   -6.9047445    189.30012  0.036943818  0.037904869            2 
  428000    1.1843502   -6.9522057    190.44231  0.037079888  0.037901236            1 
  429000    1.1809259   -6.9289008    190.63701  0.037031277  0.037896495            2 
  430000    1.1762402   -6.9246826    190.95185  0.037006173  0.037892835            3 
  431000    1.1920106   -6.9155239    190.66295  0.036864452  0.037888106            1 
  432000    1.1932549   -6.9502102    191.09918  0.036863267  0.037883485            3 
  433000    1.1926858   -6.9378165    191.20871  0.036799213  0.037878981            1 
  434000    1.1830345    -6.912159    192.08483  0.036882648  0.037874304            1 
  435000     1.211266   -6.8915418     193.1324  0.036998544  0.037870367            5 
  436000    1.1977585   -6.9125404    193.61745  0.037006393  0.037865848            2 
  437000    1.1699878    -6.970579    193.08391  0.036819968   0.03786044            1 
  438000    1.1808382   -6.9284121    194.00115  0.036910416    0.0378549            2 
  439000    1.1980476    -6.905072    194.45247   0.03691201  0.037849311            1 
  440000    1.1807324   -6.8851303    194.14544  0.036769969  0.037843558            2 
  441000    1.1710039    -6.925512    194.33217  0.036721877  0.037836902            2 
  442000    1.1969462   -6.9082475    195.37102  0.036834656  0.037830545            2 
  443000    1.1740987   -6.8982623     195.8149  0.036835007  0.037824205            1 
  444000    1.1864611   -6.8856926    196.30766   0.03684453    0.0378178            1 
  445000    1.1907091   -6.9256638    196.52254  0.036801973  0.037811116            2 
  446000    1.1865468    -6.922766    196.05273  0.036631676  0.037803767            3 
  447000    1.1707119   -6.9487332    196.64473  0.036660091  0.037795708            2 
  448000    1.1841451   -6.9138694     198.2015  0.036867839   0.03778813            1 
  449000     1.151755   -6.9464236    198.40813  0.036824077   0.03778176            1 
  450000    1.1599047   -6.9160497    198.53491  0.036765724  0.037775195            2 
  451000    1.1922435   -6.9269754    198.92752  0.036756749   0.03776775            2 
  452000    1.2005689   -6.9554001    199.17909  0.036721809  0.037760635            3 
  453000    1.1347298   -6.9412687    198.77746  0.036566862  0.037752254            1 
  454000    1.1913512   -6.9113038    200.11807  0.036732392  0.037744665            1 
  455000    1.1867264    -6.907838    200.38248  0.036700089  0.037737727            2 
  456000    1.1645479   -6.9192078    201.32969  0.036792707  0.037730712            2 
  457000    1.2008521   -6.8962706    201.44355   0.03673296  0.037723377            1 
  458000    1.1693657   -6.9315223    201.57823  0.036677261  0.037715379            2 
  459000    1.2271667   -6.9533391    201.08976  0.036508671  0.037706713            1 
  460000    1.1622592    -6.906996    202.50749  0.036686139  0.037698682            2 
  461000    1.1893598   -6.9394545    203.24487  0.036739854  0.037690249            3 
  462000    1.2032346    -6.968505    202.70571  0.036563078   0.03768211            2 
  463000    1.1748087   -6.9433168    202.68884  0.036481072  0.037673452            1 
  464000     1.174494   -6.9453162     203.8654  0.036613757  0.037665185            1 
  465000     1.186615   -6.8869984    204.29491  0.036611991  0.037657925            2 
  466000    1.1855262   -6.9557762    205.02062  0.036663201  0.037651782            3 
  467000    1.1916125   -6.9198933    205.85644  0.036733841  0.037645537            2 
  468000    1.1962088   -6.9072122    206.17264  0.036711652  0.037638686            1 
  469000    1.1632586   -6.9392467    206.72345  0.036731246  0.037632355            2 
  470000    1.1917251   -6.9578998    205.98744  0.036522596  0.037626203            1 
  471000    1.1933357   -6.9735682    207.58574  0.036727838  0.037619289            2 
  472000    1.1942969    -6.925924    207.76387  0.036681474  0.037612944            2 
  473000    1.2013758   -6.9402835    208.00845  0.036647013  0.037606535            1 
  474000    1.1778897   -6.9203068    208.83204  0.036714494  0.037600282            1 
  475000     1.176772   -6.9449789    208.48418  0.036576171  0.037594346            1 
  476000    1.1943297    -6.906925     210.2007  0.036799843  0.037588408            2 
  477000     1.174478   -6.9112869    210.05634  0.036697475  0.037582692            1 
  478000    1.1773827    -6.953544    210.52779  0.036702893  0.037577721            2 
  479000    1.1814842   -6.9200338     210.9237  0.036695145  0.037572052            1 
  480000    1.1925531   -6.9255307    211.84995  0.036779505  0.037566395            1 
  481000    1.1635828   -6.9682483    212.24555  0.036771579  0.037560668            2 
  482000    1.1823779   -6.8991656    212.65533  0.036766135   0.03755517            1 
  483000    1.1704537   -6.9523206    213.19864  0.036783755  0.037550407            1 
  484000    1.1817372    -6.938032    213.74201   0.03680131  0.037545593            1 
  485000    1.1598987   -6.9653279    213.27158  0.036644602   0.03754048            1 
  486000    1.1584149   -6.9100011    214.80696  0.036832469  0.037535728            1 
  487000    1.1891482   -6.9018891    215.26783    0.0368357  0.037531163            1 
  488000    1.1793631   -6.9215711    214.97268  0.036709815  0.037526375            3 
  489000    1.1722153   -6.9739797    215.16662  0.036667795  0.037520768            2 
  490000    1.1888131   -6.9285957    215.50659   0.03665078  0.037514123            1 
  491000    1.1583539   -6.9845744    215.48369  0.036572249  0.037507628            2 
  492000    1.1859601   -6.9193185    216.72843  0.036708744   0.03750171            1 
  493000    1.1633528   -6.9133312    217.10272  0.036697552  0.037496122            3 
  494000     1.173507   -6.9823748    217.33618  0.036662649   0.03749081            3 
  495000    1.1717386   -6.9291689    218.13799  0.036723567  0.037485143            2 
  496000    1.1848323   -6.9658715    217.13135  0.036480402  0.037478897            2 
  497000      1.15005   -6.9215426    218.01997  0.036555997  0.037472447            2 
  498000    1.1608072   -6.9245427    219.18854  0.036678136  0.037466228            3 
  499000    1.1719529   -6.9406143    218.07737  0.036419067  0.037459885            1 
  500000    1.1985992   -6.9844658    218.95711  0.036492852  0.037453423            3 
  501000    1.1732586   -6.9667012    219.46641  0.036504726   0.03744622            2 
  502000    1.1653738   -6.9612952    219.80093  0.036487538   0.03743954            2 
  503000    1.1746198   -6.9612968     219.6319  0.036386994  0.037432396            2 
  504000    1.1553807   -6.9188275    221.16655  0.036568543    0.0374253            1 
  505000    1.1689743   -6.9432795    221.03891  0.036475068  0.037418603            1 
  506000    1.1344593   -6.9467686    221.97064  0.036556429  0.037411812            3 
  507000    1.1777007   -6.9247921    222.14514  0.036513008  0.037404386            1 
  508000    1.1651992   -6.9372366    221.93939  0.036407381  0.037398136            2 
  509000    1.1777496   -6.9853825    222.16775  0.036373241  0.037390868            4 
  510000    1.1633198   -6.9616388    223.08066  0.036451088  0.037384034            2 
  511000    1.1764373   -6.9538416    223.93435  0.036518974  0.037377348            1 
  512000    1.1966372   -6.9964577    223.88646  0.036439854  0.037370906            4 
  513000    1.1874348   -6.9612817    224.47556  0.036464516  0.037364186            6 
  514000    1.1605358    -6.972819    224.82786  0.036450691  0.037357843            1 
  515000    1.1642481   -6.9651478    225.66383  0.036515182  0.037351067            2 
  516000    1.1867768   -6.9535262    225.92958  0.036487335  0.037344269            1 
  517000    1.1640873   -6.9193918    226.15165  0.036452555  0.037336846            1 
  518000    1.1892596   -6.9680238    225.39014  0.036259675  0.037329096            3 
  519000    1.1588936   -6.9624781    226.42966  0.036356721  0.037320716            2 
  520000    1.1982979   -6.9490391    226.90859  0.036363557  0.037312381            1 
  521000    1.1622591   -6.9534917    226.54551  0.036235687   0.03730413            3 
  522000    1.1701683    -6.925344    228.16311  0.036424507  0.037295946            3 
  523000    1.1697977   -6.9088681    228.17085  0.036356094   0.03728822            3 
  524000    1.1608065   -6.9842343    227.61528  0.036198358  0.037280461            2 
  525000     1.209737    -6.933867    228.09849   0.03620611  0.037271776            2 
  526000    1.1301877       -6.947     228.6328  0.036221927  0.037262724            1 
  527000     1.166227    -6.940858     228.3927  0.036115227  0.037253693            1 
  528000    1.1601723   -6.9960495    229.21943  0.036177309  0.037244053            1 
  529000    1.1384866   -6.9523189    229.58744  0.036166894  0.037234398            2 
  530000    1.1437583   -6.9944516    229.92307  0.036151426  0.037224734            4 
  531000    1.1793154   -6.9713074    230.74373  0.036212136   0.03721605            1 
  532000     1.157376   -6.9654709    230.95164  0.036176635  0.037207584            2 
  533000    1.1768841   -6.9815717    231.16739  0.036142493  0.037198743            3 
  534000    1.1672123   -6.9707738    231.88306  0.036186495  0.037190008            1 
  535000    1.1643892   -6.9737392    231.92336  0.036125135  0.037181409            1 
  536000    1.1739607   -6.9835805    232.03458  0.036075027  0.037172912            3 
  537000    1.1397413    -6.978253    232.33094   0.03605384  0.037163922            3 
  538000    1.1572886   -6.9450402    232.81276  0.036061456  0.037154611            2 
  539000    1.1844832   -6.9725919    234.10038  0.036193627  0.037146428            1 
  540000    1.1556605   -6.9775688    233.50075  0.036034067  0.037137307            1 
  541000    1.1852403   -6.9716041    234.35138  0.036098487  0.037127805            1 
  542000    1.1661446    -6.950296    234.86226  0.036110434  0.037117961            2 
  543000    1.1591923   -7.0035143    234.61681  0.036006263   0.03710853            4 
  544000    1.1504543   -6.9836144    234.95733  0.035992237  0.037098744            1 
  545000    1.1501619   -6.9816379     235.7394   0.03604578  0.037089208            2 
  546000    1.1486516   -6.9443103    236.25521  0.036058487  0.037079161            2 
  547000    1.1596338   -6.9799135     236.0744  0.035965021  0.037069371            2 
  548000    1.1702232   -7.0333035    235.89956  0.035872805  0.037059468            1 
  549000    1.1772675   -6.9684094    237.11145  0.035991415  0.037050827            3 
  550000    1.1787686   -6.9622924    237.66708  0.036010164  0.037042244            2 
  551000    1.1656225   -6.9824063    238.42708  0.036059752  0.037034438            3 
  552000     1.127303   -6.9397038    239.70429  0.036187241  0.037026626            2 
  553000    1.1601401   -6.9954723    239.60241  0.036106451  0.037018416            1 
  554000    1.1322102     -6.97711    240.15834  0.036124901  0.037010373            1 
  555000    1.1606367   -6.9514852    239.03205  0.035890698  0.037001843            1 
  556000    1.1916625   -6.9675282    239.93101  0.035960882  0.036993289            2 
  557000    1.1548151   -6.9845849    240.85612  0.036034728  0.036984217            1 
  558000     1.162589   -7.0007959    241.34691  0.036043446  0.036975587            1 
  559000    1.1704877   -6.9423716    242.07333  0.036087259  0.036967253            2 
  560000    1.1628051   -6.9966329     241.6047   0.03595308  0.036958778            3 
  561000    1.1456463   -6.9820326    241.77652  0.035914516  0.036950433            1 
  562000    1.1590339   -6.9581882    243.77872  0.036147497  0.036942388            3 
  563000     1.141504      -6.9643    243.18794  0.035995846  0.036933864            1 
  564000    1.1470908   -6.9553873     242.5749  0.035841445  0.036925268            2 
  565000    1.1731706    -6.976474    243.55819  0.035923037  0.036916314            1 
  566000    1.1413284   -6.9667821    243.92852  0.035914094  0.036907327            1 
  567000    1.1533732   -6.9668997    244.85832  0.035987408  0.036898406            2 
  568000    1.1588485   -6.9786439     244.6213  0.035889275  0.036889361            3 
  569000    1.1677413   -6.9417361    246.03905  0.036033838  0.036880589            2 
  570000    1.1728326   -6.9743307    245.42683  0.035881116   0.03687217            1 
  571000    1.1580388   -6.9907278    246.34497  0.035952272   0.03686286            1 
  572000    1.1479723   -7.0181927    246.08482  0.035851518  0.036853389            2 
  573000    1.1310227   -6.9500178    246.38282  0.035832289   0.03684422            1 
  574000    1.1653628   -6.9221871    247.72748  0.035965081  0.036835343            1 
  575000    1.1579893   -6.9749974    246.91281  0.035784465  0.036826824            3 
  576000    1.1664249   -6.9717004    247.27663  0.035774976  0.036818284            3 
  577000     1.170101   -6.9798081    248.73703  0.035923892  0.036810053            1 
  578000    1.1896095   -6.9807102    248.37679  0.035809803  0.036801381            1 
  579000    1.1620339   -7.0227256    248.23057  0.035726909  0.036791975            1 
  580000    1.1703136   -6.9907124    249.74361  0.035882703  0.036782978            1 
  581000    1.1665264   -6.9932809    249.94352  0.035849616  0.036774073            1 
  582000    1.1618433   -7.0195802    250.02654  0.035799905  0.036765627            1 
  583000    1.1622702   -6.9673299    251.74312  0.035983865  0.036757156            1 
  584000    1.1631108   -7.0070433    251.16128  0.035839223  0.036749343            1 
  585000    1.1410411   -6.9642673    252.67044  0.035992941  0.036741608            2 
  586000    1.1598622   -6.9850207    252.35773  0.035887049  0.036733939            6 
  587000    1.1653855   -6.9911913    253.08275   0.03592884  0.036726152            2 
  588000    1.1798096   -7.0085904    252.17601  0.035739231  0.036717875            3 
  589000    1.1442561   -6.9926913    253.24084  0.035829207  0.036709155            1 
  590000    1.1675791   -6.9734557    253.11301  0.035750425  0.036700767            1 
  591000    1.1556103   -7.0001383    253.76626  0.035782045  0.036692311            2 
  592000    1.1624291   -6.9691485    253.82873  0.035730396  0.036683841            2 
  593000    1.1572633    -6.934955    255.01741  0.035837186  0.036675176            2 
  594000    1.1708658   -6.9712259    255.05235  0.035781755  0.036666082            1 
  595000    1.1579918   -6.9587014    254.89775  0.035699965  0.036656465            1 
  596000    1.1484951   -6.9708524    254.79265   0.03562537   0.03664677            1 
  597000     1.144243   -6.9764044    255.63865  0.035683787  0.036637289            1 
  598000    1.1457275   -7.0157936    255.93952  0.035666043  0.036628179            2 
  599000    1.1338478   -6.9794784    256.82066  0.035729085  0.036619221            2 
  600000    1.1539418   -6.9776897    256.77396   0.03566305   0.03661016            2 
  601000    1.1493751   -6.9766904    257.28569  0.035674665  0.036601054            2 
  602000    1.1519495   -6.9694456    257.73814  0.035678037  0.036592124            1 
  603000     1.149068   -7.0016075    257.35647  0.035566124   0.03658272            3 
  604000    1.1593486   -6.9801823    257.41069  0.035514719  0.036572982            1 
  605000    1.1389221   -7.0239458    257.34964  0.035447609  0.036562486            2 
  606000    1.1647956   -6.9560914    259.08758  0.035628105  0.036552671            1 
  607000    1.1452195    -7.020792    258.12653   0.03543747  0.036542451            2 
  608000    1.1372934   -6.9965292    258.33063  0.035407158  0.036532242            2 
  609000    1.1832194   -7.0507266    258.00006  0.035303785  0.036521489            2 
  610000    1.1412206    -6.997456    259.41764  0.035439569  0.036510747            1 
  611000    1.1385537    -6.983771    260.69757  0.035556134  0.036500568            2 
  612000    1.1366378   -6.9462456    260.99807  0.035538953  0.036491072            2 
  613000    1.1285428   -6.9912687    261.03132  0.035485498  0.036480702            1 
  614000    1.1458114   -6.9931313    261.38594  0.035475833  0.036470675            2 
  615000    1.1539661   -7.0173203    261.28963  0.035405099  0.036460463            1 
  616000    1.1482795   -7.0062384    261.88913  0.035428724  0.036450306            2 
  617000    1.1717107     -6.99783    262.34693  0.035433134   0.03644046            1 
  618000    1.1699281   -6.9945628    262.94965  0.035457073  0.036430501            2 
  619000    1.1350517   -7.0382995    262.78916  0.035378185  0.036420935            2 
  620000    1.1625806   -6.9827832    264.00048  0.035483935  0.036411593            1 
  621000    1.1490808   -7.0017269    265.29277   0.03560021  0.036402569            2 
  622000    1.1569192   -6.9796127    265.36471  0.035552614   0.03639358            1 
  623000    1.1516331   -7.0117189    264.73713    0.0354116  0.036384468            1 
  624000    1.1158267   -6.9914395     265.1793  0.035413902   0.03637449            5 
  625000    1.1471929   -6.9957766    265.28458  0.035371277  0.036364196            1 
  626000    1.1788728   -6.9860758    265.68716  0.035368366  0.036353836            1 
  627000    1.1576678   -6.9648125    266.50183  0.035420232   0.03634369            3 
  628000    1.1448953   -6.9976805    266.34918  0.035343575  0.036333851            1 
  629000    1.1525378   -7.0242702    266.29551  0.035280275  0.036323738            2 
  630000    1.1483648   -7.0382704    266.35459  0.035232088  0.036313208            1 
  631000    1.1471457   -6.9959922    267.69369  0.035353102  0.036303415            1 
  632000    1.1486916   -7.0053245    268.13928  0.035355918  0.036293713            1 
  633000    1.1646317   -7.0101452    267.20607  0.035177208  0.036283303            4 
  634000    1.1507598   -6.9773408    267.66117  0.035181541  0.036272626            3 
  635000    1.1628573   -7.0227031    268.92407  0.035291873  0.036262151            6 
  636000    1.1536493   -7.0336203    268.32689  0.035158135  0.036251827            2 
  637000    1.1488829   -6.9733395    268.48285  0.035123345  0.036241097            1 
  638000    1.1420507   -6.9891633    269.36541   0.03518357  0.036230874            3 
  639000    1.1290993   -7.0091056    270.09919  0.035224203  0.036220799            1 
  640000    1.1441136   -6.9814326    271.05719  0.035293905  0.036210541            1 
  641000    1.1257842    -6.981617    272.11736  0.035376671  0.036200807            1 
  642000    1.1478962   -6.9791291    271.98194   0.03530399  0.036191391            2 
  643000    1.1457364   -7.0281723    272.62874  0.035332911  0.036181978            1 
  644000     1.109816   -6.9934719    272.32162  0.035238305  0.036172208            6 
  645000    1.1517668   -6.9607444    273.44187  0.035328407   0.03616265            2 
  646000    1.1478162   -6.9914311    273.27236  0.035251852  0.036152806            1 
  647000    1.1462701    -7.042623    272.03794  0.035038374  0.036142631            3 
  648000    1.1574039   -7.0400735    272.12018  0.034994879  0.036131967            1 
  649000    1.1349779   -7.0273011    273.60963  0.035132208  0.036121043            2 
  650000    1.1435483   -7.0234731    273.57905  0.035074238   0.03610985            1 
  651000     1.160137   -7.0286814    273.50848  0.035011327  0.036098675            2 
  652000    1.1417736   -6.9938332    274.20174  0.035046235  0.036087847            2 
  653000    1.1369623   -7.0030565    274.86616  0.035077355  0.036076878            2 
  654000    1.1473961    -6.981244    275.99836  0.035167987  0.036066095            1 
  655000    1.1527601   -7.0318933    275.35486  0.035032425  0.036055346            2 
  656000     1.177852   -6.9883692    276.07296  0.035070244   0.03604412            2 
  657000    1.1464185   -7.0205698    276.12505  0.035023472  0.036032715            4 
  658000    1.1330374   -7.0150708     275.5301  0.034894896  0.036020909            1 
  659000    1.1310809   -6.9791504    276.13346  0.034918242  0.036009334            2 
  660000    1.1577189   -6.9886378    276.16615  0.034869464  0.035997651            3 
  661000    1.1406006   -7.0220411    276.79076  0.034895457  0.035986329            3 
  662000    1.1293383    -7.020245    277.47289  0.034928611  0.035974866            3 
  663000    1.1186362   -6.9712901    278.10412  0.034955268  0.035963415            3 
  664000    1.1353031   -6.9973051    278.48528  0.034950462  0.035952346            1 
  665000    1.1571589   -7.0513852     278.3674  0.034883132   0.03594091            1 
  666000    1.1539102   -7.0141879    278.99015  0.034908677  0.035930066            1 
  667000    1.1394891   -7.0280541    279.23035  0.034886351  0.035919364            2 
  668000    1.1518834   -6.9928027     280.1152  0.034944512  0.035908208            3 
  669000    1.1487157   -7.0190629    279.75693  0.034847649  0.035896709            5 
  670000    1.1715889   -7.0781828    279.30102  0.034738933  0.035885702            2 
  671000    1.1552019   -6.9820337    282.05437  0.035029107  0.035874733            3 
  672000    1.1478139   -7.0270367    280.59415  0.034795901  0.035864054            1 
  673000    1.1412412   -6.9852806    281.48152  0.034854076   0.03585297            3 
  674000    1.1556782   -6.9638759    282.77207  0.034961927  0.035842327            1 
  675000    1.1522834   -7.0189026    281.60204  0.034765684  0.035831605            1 
  676000    1.1429232   -7.0753072    282.97996  0.034884117  0.035820568            3 
  677000    1.1483967   -7.0146813    283.43134  0.034888151  0.035809796            2 
  678000    1.1317845    -6.974901    284.06459  0.034914527  0.035799352            1 
  679000    1.1319532    -7.010322    284.45497  0.034911018  0.035788767            1 
  680000    1.1314197   -6.9843429     284.5535  0.034871752  0.035777856            1 
  681000     1.150162   -6.9744102    285.56323  0.034944105  0.035767803            1 
  682000    1.1655926   -6.9997275    286.08065  0.034956092  0.035757924            1 
  683000    1.1197672   -7.0394434    284.98452  0.034771171   0.03574769            2 
  684000    1.1181965    -6.997566    287.08602  0.034976367  0.035737665            2 
  685000    1.1315308    -6.987964    286.54851  0.034859916  0.035728324            3 
  686000    1.1352381   -7.0204218    287.11413   0.03487781  0.035718349            3 
  687000    1.1324612   -7.0046307     286.7869  0.034787348  0.035708405            2 
  688000    1.1663685   -6.9964588    288.03658  0.034888151   0.03569844            4 
  689000    1.1493099    -6.983469     287.8831  0.034818952  0.035689042            2 
  690000    1.1345205   -6.9729539    289.30529  0.034940252  0.035679665            3 
  691000    1.1259766   -6.9848868    289.23007  0.034880616   0.03566988            2 
  692000    1.1175974   -7.0055376     289.9346  0.034915053   0.03566061            3 
  693000    1.1420046   -6.9649638     290.3018  0.034908827  0.035651299            1 
  694000    1.1347104   -6.9977351    290.61422   0.03489604  0.035642402            2 
  695000    1.1249503   -6.9833992    290.71723  0.034858181  0.035632873            2 
  696000    1.1331821   -7.0105759    291.16717   0.03486197  0.035623909            1 
  697000    1.1478631   -7.0094003    291.78305  0.034885587  0.035614994            2 
  698000     1.142929   -7.0188749    291.07044   0.03475053  0.035605581            3 
  699000     1.137137   -6.9880636    292.21444  0.034837201  0.035596049            2 
  700000    1.1375243   -7.0426652    292.26804  0.034793814  0.035586543            1 
  701000    1.1249842    -7.014998    292.70528  0.034796158  0.035577382            2 
  702000    1.1450715    -7.032646    292.09511  0.034674158  0.035568532            2 
  703000     1.123186   -6.9881423    293.96141  0.034846066  0.035559209            2 
  704000    1.1314562    -7.026153    293.80014  0.034777479  0.035550252            1 
  705000    1.1394711   -7.0102647    294.27363  0.034784118  0.035541004            2 
  706000    1.1416086   -7.0236803    295.11652  0.034834338  0.035532066            2 
  707000    1.1365456   -7.0289902    296.14313  0.034906074  0.035523224            1 
  708000    1.1269238   -7.0346327    295.48376  0.034779162  0.035514509            2 
  709000    1.1384287    -7.012497    296.92093  0.034899028  0.035505708            3 
  710000    1.1296324   -7.0118442    297.42194  0.034908678  0.035497536            1 
  711000    1.1357215   -7.0325623    296.80558   0.03478734   0.03548916            2 
  712000    1.1498033   -7.0372966    297.90607  0.034867283   0.03548057            3 
  713000    1.1247762   -7.0359986    298.05078  0.034835294  0.035472223            1 
  714000    1.1415503   -7.0441369    297.85433  0.034763577  0.035463551            2 
  715000    1.1207697   -7.0516677    298.15115  0.034749551  0.035454768            1 
  716000    1.1462811   -7.0003389    298.80446  0.034777055  0.035446437            2 
  717000    1.1500271    -7.012386    299.70589  0.034833321  0.035437969            5 
  718000    1.1193352   -7.0208969    299.21677  0.034728038  0.035429977            2 
  719000    1.1391089    -7.034153    298.47534  0.034593804  0.035421073            5 
  720000    1.1241199   -7.0209261    299.45715  0.034659393  0.035412002            4 
  721000    1.1729222   -7.0200492    300.89958  0.034778038  0.035403454            2 
  722000    1.1243799   -7.0012425    300.12964  0.034641002  0.035394734            3 
  723000    1.1443497    -7.012017    300.63223  0.034651018   0.03538566            3 
  724000     1.164781   -7.0050553    302.00459  0.034761117  0.035376492            4 
  725000    1.1279948   -7.0500431    301.32672  0.034635255   0.03536791            3 
  726000    1.1285576    -7.015883    302.49482  0.034721628  0.035359139            1 
  727000    1.1103358   -7.0401833    302.59548  0.034685405  0.035350829            2 
  728000    1.1409639   -7.0109392    303.72412  0.034766955  0.035342381            2 
  729000    1.1380279   -7.0255719    303.94167  0.034744133  0.035334244            2 
  730000    1.1171739   -6.9935044    306.26162  0.034961372  0.035326444            2 
  731000    1.1007035   -7.0318487    303.77586  0.034630171  0.035318663            3 
  732000    1.1576734   -7.0349654    305.71185  0.034803262  0.035310915            2 
  733000    1.1434995    -7.047289    305.85763  0.034772354   0.03530337            1 
  734000    1.1429578   -7.0489314    305.22325  0.034652957  0.035295391            2 
  735000    1.1706344   -7.0201707    306.17767  0.034714021   0.03528742            1 
  736000    1.1236957   -7.0337821    307.20243  0.034782884  0.035279484            1 
  737000     1.131371   -7.0618601     306.2944  0.034633017  0.035271412            4 
  738000     1.142728   -7.0411748    307.17642  0.034685685  0.035263815            1 
  739000    1.1409245   -6.9952857    308.55041  0.034793686  0.035256453            2 
  740000    1.1598003   -7.0437936    308.00589  0.034685348    0.0352486            1 
  741000    1.1373247   -7.0226445    310.04671  0.034868051  0.035240981            1 
  742000    1.1274094   -6.9830496    308.95834  0.034698825  0.035233608            1 
  743000    1.1316033    -7.008415    309.86239   0.03475352  0.035226257            2 
  744000    1.1490697    -7.018572    309.79378  0.034699124  0.035218876            1 
  745000    1.1261782   -6.9962089    309.56413   0.03462686  0.035211208            2 
  746000    1.1456109   -7.0635757    309.80629  0.034607495  0.035203983            2 
  747000    1.1248384   -7.0508025    311.07017  0.034702161  0.035196854            5 
  748000    1.1159775   -7.0321748    311.47532  0.034700905  0.035189235            2 
  749000    1.1500923   -7.0515881     310.7058  0.034568959  0.035181099            3 
  750000    1.1473448   -7.0246376    312.20585  0.034689539  0.035172979            1 
  751000    1.1379436   -7.0048617     312.3069   0.03465456  0.035165214            1 
  752000    1.1332907   -7.0239071      311.141  0.034479278  0.035157023            2 
  753000    1.1352962   -7.0084335    312.09069  0.034538589  0.035148774            1 
  754000    1.1315146   -7.0478666    312.78133  0.034569113  0.035140518            3 
  755000     1.113391   -6.9955956    313.74579  0.034629778  0.035131889            2 
  756000    1.1470286   -7.0225747    312.92507  0.034493505  0.035123382            4 
  757000    1.1124332   -7.0500671    312.72913  0.034426369  0.035114432            1 
  758000    1.1238935     -7.03381     312.4684  0.034352287  0.035105686            1 
  759000    1.1564072   -7.0278456    313.35219  0.034404061   0.03509631            2 
  760000    1.0868451   -7.0159145       314.29  0.034461623  0.035087062            2 
  761000    1.0953502   -7.0155447    313.70709  0.034352506  0.035077209            1 
  762000     1.117294   -7.0320927    312.96453  0.034226217  0.035067829            1 
  763000    1.1412483   -7.0673471    314.49652   0.03434868  0.035058547            1 
  764000    1.1174648   -7.0898935    314.16258  0.034267297  0.035049003            1 
  765000    1.1324969   -7.0327147    314.08409  0.034213953  0.035039546            3 
  766000     1.151559   -7.0263101    315.09692  0.034279473  0.035029717            2 
  767000    1.1211948   -7.0854537    314.80704  0.034203285  0.035019582            1 
  768000    1.1040143   -7.0014842    315.92101  0.034279623   0.03500947            1 
  769000    1.1465643   -7.0352897    316.54424  0.034302584  0.034999545            2 
  770000    1.1339192   -6.9958456    317.44644  0.034355675  0.034989776            1 
  771000     1.130109    -7.034315    316.78863  0.034240016  0.034980225            1 
  772000    1.1340557   -7.0527072     316.5022  0.034164746  0.034970404            3 
  773000    1.1168798   -7.0622073    316.46114  0.034116121  0.034960002            2 
  774000    1.1304445    -7.047544    316.78282  0.034106678   0.03494972            1 
  775000    1.1159892   -7.0360641    317.52058  0.034141998  0.034939637            1 
  776000    1.1245835   -7.0654706    318.35028    0.0341871  0.034929613            2 
  777000    1.1456902   -7.0576402    318.47848  0.034156851  0.034919827            1 
  778000     1.129215   -7.0258717    319.38641  0.034210198  0.034910013            1 
  779000    1.1076619   -7.0559155    318.23158  0.034042745  0.034900156            1 
  780000    1.1128825   -7.0514684    319.23263  0.034106051  0.034890013            3 
  781000    1.1082386   -7.0683283    318.71584  0.034007238  0.034880114            1 
  782000    1.1155285   -7.0476911    320.67803  0.034172851  0.034870192            3 
  783000    1.1319462   -7.0597378    321.62377  0.034229861   0.03486073            1 
  784000    1.1130359    -7.016021    321.34486  0.034156554  0.034851541            3 
  785000    1.1273478   -7.0433286    321.41166  0.034120134  0.034841999            1 
  786000    1.1263344   -7.0234523    322.33723  0.034174855  0.034832475            1 
  787000    1.1359202   -7.0489067    322.19553  0.034116426  0.034822919            1 
  788000    1.1277453    -7.012438    322.17637  0.034071105  0.034813456            1 
  789000    1.1221004   -7.0487716    322.44055  0.034055825   0.03480381            1 
  790000    1.1325784   -7.0799196    322.51599  0.034020674  0.034793916            2 
  791000    1.0979063    -7.037964    323.28219  0.034058385  0.034784236            1 
  792000    1.1131945   -7.0885932    322.97679  0.033983248  0.034774417            2 
  793000    1.1223001   -7.0539902    323.79619  0.034026501  0.034764364            2 
  794000    1.1255319   -7.0915386    323.43968   0.03394623  0.034754471            2 
  795000    1.1056983   -7.0843269    324.24401  0.033987842  0.034744615            2 
  796000    1.1183293   -7.0491554    325.13012  0.034037911  0.034734968            3 
  797000    1.1201473   -7.0785613    325.41043  0.034024512  0.034725763            1 
  798000    1.1219122   -7.0489041    325.66972  0.034008952  0.034716275            1 
  799000    1.1196225   -7.0794791    325.68087   0.03396755  0.034706671            2 
  800000    1.1151381   -7.0538393    326.71451  0.034032761  0.034697138            2 
  801000    1.1042501   -7.0499872    326.47258  0.033965104   0.03468779            1 
  802000    1.1401946   -7.0245664      327.164  0.033994597  0.034678458            1 
  803000    1.1417112   -7.0413773    327.39537  0.033976274  0.034669164            1 
  804000    1.1420909   -7.0940365    327.05395  0.033898627  0.034659447            4 
  805000    1.1423563   -7.0604993    327.78845  0.033932551  0.034649865            2 
  806000    1.1185638   -7.0562335    327.15485  0.033824944  0.034640136            2 
  807000    1.1085558   -7.0432818    329.56141  0.034031538  0.034630398            2 
  808000    1.1364343   -7.0558775    329.02039  0.033933621  0.034620784            2 
  809000    1.1050156   -7.0480856    329.77973  0.033969893  0.034611314            1 
  810000    1.1059314    -7.050158    329.46627  0.033895707  0.034601779            1 
  811000    1.0971745   -7.0630759    330.54884   0.03396515  0.034592405            2 
  812000    1.1176595    -7.034117    330.62743  0.033931387  0.034582995            2 
  813000    1.1183207   -7.0708156    330.09366  0.033834939  0.034572986            2 
  814000    1.1201486   -7.0241283    331.23917  0.033910644  0.034563515            4 
  815000    1.1618007   -6.9941915    332.28461  0.033975932  0.034554135            3 
  816000    1.1011986   -7.0415478    331.72798  0.033877449  0.034544792            1 
  817000    1.1080987    -7.072183    331.84241  0.033847655  0.034535422            2 
  818000    1.1065888    -7.049602    332.91286  0.033915328  0.034525998            1 
  819000    1.1356668   -7.0479415    331.89802  0.033770657  0.034516591            2 
  820000    1.1078809    -7.079976    333.01542   0.03384303  0.034506962            1 
  821000    1.1405881   -7.0858227     333.2407  0.033824675  0.034497356            1 
  822000     1.119233   -7.0860447    332.44298  0.033702654  0.034487738            3 
  823000    1.1488884   -7.0990251    332.81421  0.033699293  0.034477645            1 
  824000    1.1105269   -7.0320359    334.64751  0.033843802  0.034467927            1 
  825000    1.1164746   -7.0485826    335.01002  0.033839396  0.034458761            1 
  826000     1.140907   -7.0795375    333.80021  0.033676373   0.03444928            1 
  827000    1.1215143   -7.0937561    333.98956  0.033654732  0.034439663            1 
  828000    1.1053649   -7.0992915    334.39702  0.033655094  0.034429858            1 
  829000    1.1130456   -7.0867964    334.54065  0.033628935  0.034419746            2 
  830000    1.1361361   -7.0420952    336.04099  0.033739055  0.034409768            3 
  831000     1.115932   -7.0771154    335.99391  0.033693734  0.034399783            1 
  832000    1.1320022   -7.0867263    335.67291  0.033621085  0.034389768            1 
  833000    1.1193115   -7.0665093    336.37721  0.033651182  0.034380061            2 
  834000    1.1257369   -7.0735696    335.45466  0.033518651  0.034370053            2 
  835000    1.1273086   -7.0684131    337.25933  0.033658615  0.034359903            3 
  836000    1.1131445   -7.0795514    337.59637   0.03365195  0.034349851            1 
  837000    1.1142168   -7.1010835    337.22502  0.033574773   0.03433995            2 
  838000    1.1249954   -7.0647083    337.94963  0.033606765  0.034329776            1 
  839000    1.1080707   -7.0451725    338.74906  0.033646113  0.034319685            2 
  840000    1.1195052    -7.095523    337.32893  0.033465172   0.03430937            4 
  841000    1.1158722   -7.1014156    338.43365  0.033534844  0.034298903            2 
  842000    1.0963487   -7.0980819    339.01565  0.033552617  0.034288599            1 
  843000    1.1348845   -7.0219393    339.34738  0.033545609   0.03427868            2 
  844000    1.1091905   -7.0821045    339.48251  0.033519205  0.034268824            1 
  845000    1.1422558   -7.0834111    340.04272  0.033534785  0.034258729            2 
  846000    1.1376042   -7.0811871    339.56778  0.033448363  0.034248449            1 
  847000    1.0916308   -7.0590209    340.59667  0.033510101  0.034238246            2 
  848000    1.1001484   -7.0887948    340.62341  0.033473212  0.034227932            1 
  849000    1.1361236   -7.0392321    340.44365  0.033416141  0.034217449            2 
  850000    1.1313968   -7.0430171    341.39028  0.033469635  0.034207071            1 
  851000    1.1125813   -7.0476434    341.87816   0.03347808  0.034196738            2 
  852000    1.1509793   -7.1023271     341.0032  0.033353208  0.034186552            3 
  853000    1.1363908   -7.0751875    342.17341   0.03342843  0.034176064            2 
  854000    1.0999115   -7.0580603     343.7666   0.03354475  0.034165956            2 
  855000    1.1357839   -7.0641943    343.22381  0.033452613   0.03415589            1 
  856000    1.1090988   -7.1026894    344.17056  0.033505701  0.034145831            2 
  857000    1.1159941   -7.0842173    343.19556  0.033371797  0.034135864            1 
  858000    1.1161331   -7.0271131    344.36341   0.03344633  0.034126092            3 
  859000    1.0976476    -7.080772     344.2152  0.033393015  0.034116205            3 
  860000    1.1317735   -7.0358265    346.14592  0.033541272  0.034106656            1 
  861000    1.1117839   -7.0713395    344.98511  0.033389964  0.034097227            1 
  862000    1.0957298   -7.0450852    347.08561  0.033554293  0.034088061            1 
  863000    1.1112227   -7.0632951    346.68806  0.033477024  0.034078914            2 
  864000    1.1013995   -7.0812197    346.88273  0.033457053  0.034069509            2 
  865000    1.1273654   -7.0973125    348.58716  0.033582578   0.03406055            1 
  866000    1.1025778   -7.0630664    347.38306  0.033427931  0.034051504            2 
  867000    1.1230844   -7.0847165    348.43214   0.03349021  0.034042653            2 
  868000    1.1320416    -7.024567    350.46711  0.033646996  0.034033933            7 
  869000    1.1011436   -7.1000363    349.18313  0.033485149   0.03402524            5 
  870000    1.1051307   -7.0888913    350.23941  0.033547836  0.034016696            2 
  871000    1.1325933   -7.0706001    350.73634  0.033556864  0.034008502            2 
  872000    1.0984758   -7.0606767    351.41514  0.033583251  0.034000122            4 
  873000    1.0980348   -7.0886554    351.00385  0.033505522  0.033991519            1 
  874000    1.0901525   -7.0879109    350.46454  0.033415765  0.033983033            2 
  875000    1.1191498   -7.0484169    351.86699  0.033511142  0.033974628            1 
  876000    1.1087913   -7.0759624    352.43418  0.033526844  0.033966339            1 
  877000    1.0866433   -7.0733547    352.58132  0.033502596  0.033957984            1 
  878000    1.1164164    -7.066554    353.13586  0.033517071  0.033949628            1 
  879000    1.1107177   -7.0908036    353.84945  0.033546591   0.03394165            1 
  880000    1.1016329   -7.0824349    353.74609  0.033498682  0.033933761            3 
  881000    1.1292942    -7.090017    353.03557  0.033393452  0.033925373            2 
  882000    1.0740878   -7.0783362    354.54688  0.033498382  0.033916885            2 
  883000    1.1244009   -7.1173153     353.3066  0.033343394  0.033908365            2 
  884000    1.1165324   -7.0519971    355.89389  0.033549575  0.033900177            1 
  885000    1.1006184   -7.0706366    354.83619  0.033412071  0.033892221            1 
  886000    1.1095972   -7.0569565    357.06238  0.033583745  0.033884259            1 
  887000    1.1190276   -7.0267325     357.2295  0.033561584  0.033876774            2 
  888000    1.1022101   -7.1195242    356.53274  0.033458403  0.033869249            1 
  889000    1.1094688   -7.0447801    357.52586   0.03351386  0.033861443            2 
  890000    1.1150543   -7.0899765     357.1113  0.033437388  0.033853363            4 
  891000    1.1212166   -7.0929404    357.02714  0.033391988  0.033845329            1 
  892000    1.0957416   -7.1151327    356.75842  0.033329448  0.033836793            2 
  893000    1.1340343   -7.1146592    356.66257  0.033283181  0.033828527            1 
  894000    1.1219472   -7.0697984    357.47965  0.033322115  0.033819814            2 
  895000    1.1152757   -7.0731096    357.89182   0.03332326  0.033811343            1 
  896000    1.1050392   -7.1321574      358.178  0.033312686  0.033802878            1 
  897000    1.1232667   -7.0987138     358.0374  0.033262486  0.033794071            2 
  898000    1.0995739   -7.0857241    359.27696  0.033340475  0.033785562            2 
  899000    1.0763297   -7.1130444    359.36488  0.033311539   0.03377702            3 
  900000    1.0960592   -7.0607936     359.6084  0.033297075  0.033768663            1 
  901000    1.1201779   -7.1102791    360.86021  0.033375898  0.033760127            1 
  902000    1.0994221   -7.1200135    359.63844   0.03322602  0.033751213            2 
  903000    1.1163393   -7.0715331    360.25045  0.033245704  0.033742423            1 
  904000    1.1354996    -7.085777    360.38603  0.033221426   0.03373374            2 
  905000    1.0941359   -7.1090084    360.88866     0.033231  0.033725067            1 
  906000    1.1094509   -7.0847256    361.07446  0.033211411   0.03371614            2 
  907000    1.1232561   -7.1068285    361.78023  0.033239639  0.033707254            1 
  908000    1.1083199   -7.0781226    361.97206  0.033220637  0.033698622            1 
  909000    1.0974387   -7.0692399    363.13976   0.03329114  0.033690072            1 
  910000    1.0959838   -7.1070936    362.84208  0.033227297  0.033681666            1 
  911000     1.123582   -7.1107796    363.04327  0.033209227  0.033673028            1 
  912000    1.0941465   -7.0741227    363.92532   0.03325341  0.033664854            1 
  913000    1.1060951   -7.0872978     365.0173  0.033316658  0.033656841            1 
  914000     1.095428   -7.0497083     364.3239  0.033216985  0.033648784            2 
  915000    1.0927079    -7.092926    365.34036  0.033273257  0.033640875            2 
  916000    1.0936829    -7.085664    365.17779  0.033222143  0.033632529            1 
  917000    1.1268876   -7.0702601    365.66388  0.033230087  0.033624383            1 
  918000    1.1100649   -7.1008851    365.93594  0.033218585  0.033616072            1 
  919000    1.1101838   -7.1316292    365.59807  0.033151802  0.033607804            2 
  920000    1.0874114   -7.0777374    365.64606  0.033120115  0.033599372            3 
  921000    1.0958813   -7.1072396    365.81621  0.033099549  0.033590922            1 
  922000    1.0857323   -7.0586963    367.87117  0.033249383  0.033582645            2 
  923000    1.1008922   -7.0573146      367.523  0.033181925  0.033574563            2 
  924000    1.0922256   -7.0901497     367.7109   0.03316296  0.033566541            2 
  925000    1.1190934   -7.0560501    368.81257  0.033226358  0.033558481            1 
  926000    1.1094431   -7.1301632     368.0584  0.033122606  0.033550242            2 
  927000    1.1025205   -7.0908122    369.24902  0.033193907  0.033541879            1 
  928000    1.1168406   -7.0744169    369.69115   0.03319784  0.033534017            1 
  929000    1.0922321   -7.1334634    368.77379  0.033079816  0.033525998            1 
  930000    1.1077583   -7.1376613    370.05789  0.033159309  0.033518027            2 
  931000    1.1180728   -7.1300799    369.01795  0.033030608   0.03350998            2 
  932000    1.1221046   -7.1009402    370.96219  0.033169009  0.033501917            1 
  933000    1.1034112   -7.0721352    371.88406  0.033215797  0.033494017            2 
  934000    1.0941748   -7.0770193    372.03312  0.033193533  0.033486364            1 
  935000    1.1114334   -7.1039152    371.52353  0.033112614  0.033478401            2 
  936000    1.1104147   -7.1057474    371.13014  0.033042213  0.033470495            3 
  937000    1.0954729   -7.0860279    372.76422  0.033152278  0.033462561            3 
  938000    1.1203997   -7.0782808     372.4201  0.033086362   0.03345487            4 
  939000    1.1029732   -7.1074852    372.83118  0.033087609  0.033446709            1 
  940000    1.1007482   -7.0682799    373.03181  0.033070196  0.033438787            1 
  941000    1.0954865   -7.1066206    374.09406  0.033129123  0.033430915            3 
  942000    1.1192684   -7.0959765    373.90168  0.033076935  0.033422856            1 
  943000    1.0965986   -7.0993028    374.78366    0.0331198  0.033415065            4 
  944000      1.10357   -7.0846263    375.11192  0.033113694  0.033407359            2 
  945000    1.1203879   -7.1010006    374.98819  0.033067742  0.033399683            2 
  946000    1.1141771    -7.067359    375.49114  0.033077091  0.033391929            1 
  947000    1.1341952   -7.0848548     377.1893  0.033191596  0.033384413            4 
  948000    1.1155637   -7.0999282    376.51854  0.033097621  0.033377135            2 
  949000    1.1004872   -7.1193027    375.77521  0.032997472  0.033369459            2 
  950000    1.0945193   -7.0758294    377.41487  0.033106567  0.033362084            2 
  951000    1.1020538    -7.112676    378.16627  0.033137598  0.033354443            1 
  952000    1.0869175    -7.096589    376.97828  0.032998799  0.033346755            3 
  953000    1.1002364    -7.082662    377.66388  0.033024124  0.033338948            4 
  954000     1.103481   -7.0588818    377.66708  0.032989787   0.03333154            3 
  955000    1.0925745   -7.1230666     377.0066  0.032897609  0.033323921            3 
  956000    1.1025948    -7.118159    378.06672  0.032955607  0.033316237            2 
  957000    1.1088255   -7.1202547    377.45375  0.032867795  0.033308372            3 
  958000    1.0696501   -7.1107801    378.26951  0.032904446  0.033300497            3 
  959000    1.1091151    -7.083549    381.59981  0.033159525  0.033292661            4 
  960000    1.1169632    -7.085506    378.69244  0.032872608  0.033284977            2 
  961000    1.0957666   -7.0753264    380.19079  0.032968331  0.033277042            3 
  962000     1.094145   -7.0797647    380.97277  0.033001799  0.033269151            1 
  963000    1.1004873   -7.1060244    379.41421  0.032832659  0.033261015            2 
  964000    1.1010101   -7.0835801    380.62594  0.032903349  0.033252904            1 
  965000    1.0771447   -7.0945463    380.63899  0.032870379  0.033244874            1 
  966000    1.0942821   -7.0879778    381.10081  0.032876192  0.033236718            1 
  967000    1.0941152   -7.0842323    381.72921  0.032896347  0.033228986            2 
  968000    1.0889534   -7.0839322     383.1839  0.032987595  0.033221297            1 
  969000    1.0828101   -7.0945266    382.61082  0.032904267  0.033213974            3 
  970000    1.0960018   -7.0957778    383.69119   0.03296316  0.033206492            1 
  971000    1.1113806   -7.0988204    383.66652  0.032927096  0.033198697            2 
  972000    1.0851089   -7.1378314    382.89472  0.032827051  0.033190924            1 
  973000    1.0892942   -7.0774561    383.54766  0.032849234  0.033183236            4 
  974000    1.0995481   -7.1359202    383.60129  0.032820097  0.033175244            2 
  975000    1.0869201   -7.1034125    385.95735  0.032987808  0.033167638            1 
  976000    1.0904985   -7.0981494    386.11767  0.032967697  0.033160322            2 
  977000    1.0741678   -7.0793442    386.55517   0.03297127  0.033152992            1 
  978000     1.083962   -7.0768678    386.06314  0.032895633  0.033145556            2 
  979000     1.078488   -7.1493971    385.23669  0.032791683  0.033138169            1 
  980000    1.0883363   -7.0995919    387.34866  0.032937811  0.033130758            2 
  981000     1.069016    -7.082387    388.35504  0.032989725  0.033123416            3 
  982000    1.1078568   -7.1167708     387.4735  0.032881322   0.03311605            2 
  983000    1.0997959   -7.1086985    388.03527  0.032895496  0.033108899            2 
  984000    1.1085105   -7.1288612     387.6401  0.032828599  0.033101514            2 
  985000    1.1154674   -7.1141339     386.9582  0.032737581  0.033093942            5 
  986000    1.0849667   -7.0855863     388.4183  0.032827781  0.033086614            1 
  987000    1.0778325   -7.1004355     388.7403  0.032821707  0.033079201            2 
  988000    1.0885867   -7.0479852     388.4106  0.032760678  0.033071822            2 
  989000    1.0956507   -7.0821756    389.25911  0.032799048  0.033064165            1 
  990000    1.0822804   -7.1395855    389.26381  0.032766314  0.033056694            3 
  991000    1.0807814   -7.1257871    389.64852    0.0327656  0.033049136            3 
  992000    1.0809474    -7.100174    390.55852  0.032809015   0.03304162            2 
  993000    1.0949172   -7.0971226    391.97941  0.032895218  0.033034272            2 
  994000    1.1217049   -7.1157443    389.99046  0.032695377  0.033026811            1 
  995000    1.1003684   -7.1310362    391.23552  0.032766794  0.033019317            1 
  996000    1.0909033   -7.1170896    391.65446  0.032768948  0.033011919            1 
  997000      1.11747   -7.1172994    391.83889  0.032751495  0.033004268            4 
  998000    1.0936105   -7.0835711    392.32447  0.032759224  0.032996821            1 
  999000    1.0866855   -7.1163924    392.79531  0.032765708  0.032989677            1 
 1000000    1.1152969   -7.1608914    392.41942  0.032701618   0.03298234            2 
 1001000    1.0802627   -7.1437464    392.30182  0.032659159  0.032974624            3 
 1002000    1.0693761   -7.1443181    392.64944  0.032655475  0.032966797            1 
 1003000    1.0915861   -7.1148045    394.25652   0.03275644  0.032959046            1 
 1004000    1.1142602   -7.1341154    393.47067  0.032658588   0.03295144            4 
 1005000    1.0874291   -7.1190102    392.76413  0.032567507   0.03294354            1 
 1006000      1.09968   -7.0988289    393.53847  0.032599277  0.032935672            2 
 1007000    1.0828907   -7.1344007    394.05079  0.032609301  0.032927777            2 
 1008000    1.0575563   -7.1464302     392.8149  0.032474776  0.032919498            5 
 1009000    1.0861206    -7.133338     393.7177  0.032517154  0.032911248            2 
 1010000    1.1152313   -7.1540235    393.10307  0.032434247  0.032902712            1 
 1011000    1.0832485   -7.1013239    393.97577  0.032474099  0.032893915            2 
 1012000    1.0658865   -7.1031924    394.25795  0.032465246  0.032885161            3 
 1013000    1.0904884   -7.1024514    394.35791  0.032441421  0.032876652            3 
 1014000    1.0694966   -7.1118787    394.08591  0.032387073  0.032868135            2 
 1015000    1.0883638   -7.1350103    394.48924  0.032388279    0.0328596            2 
 1016000    1.0933474   -7.1257755    395.23082  0.032417226  0.032851183            5 
 1017000    1.0616137   -7.1270106    395.80726  0.032432584  0.032842604            1 
 1018000    1.0714878   -7.1386929    396.76444   0.03247908  0.032834169            1 
 1019000    1.1048023   -7.1229307    397.38065    0.0324976   0.03282598            5 
 1020000    1.0991678   -7.1260755    396.01837  0.032354442  0.032817577            5 
 1021000    1.1050218   -7.1252269    396.96391  0.032399927  0.032809187            2 
 1022000     1.078128   -7.1154923    398.75174  0.032514003  0.032801216            1 
 1023000    1.0911616   -7.1046036      399.125  0.032512627   0.03279304            2 
 1024000    1.1126054   -7.1273008    397.70298  0.032365151  0.032784962            5 
 1025000    1.0725101   -7.1068905    398.12152  0.032367603  0.032776905            1 
 1026000    1.1125381   -7.0892049    399.02659  0.032409567  0.032768604            2 
 1027000    1.0820567   -7.1480087     398.3739  0.032325049  0.032760247            2 
 1028000    1.0901653   -7.1444739    398.74475  0.032323667   0.03275187            2 
 1029000    1.0873418   -7.1138548    399.71064  0.032370476  0.032743434            1 
 1030000    1.0819914   -7.1217202    398.97102  0.032279208  0.032734977            1 
 1031000    1.0842555   -7.0927319    401.02042  0.032413548  0.032726587            2 
 1032000    1.0980521   -7.0974414    401.07143  0.032386259  0.032718185            1 
 1033000    1.0981364   -7.1307554    399.86805  0.032257829  0.032709778            2 
 1034000    1.1029426      -7.1036    400.80826  0.032302407  0.032701296            2 
 1035000    1.0810754   -7.1327441    400.45638  0.032242865  0.032692797            1 
 1036000    1.0644681   -7.1302921    401.40758  0.032288254  0.032683977            3 
 1037000     1.084449   -7.1294423    401.65461  0.032276969  0.032675491            2 
 1038000    1.0839064   -7.1281469     402.8692  0.032343384  0.032666957            3 
 1039000    1.1057012   -7.0864549    403.58169  0.032369401  0.032658603            1 
 1040000    1.0559065   -7.1600543    401.86855  0.032201006  0.032650212            2 
 1041000    1.0718982   -7.1462764    402.97314  0.032258497  0.032641748            1 
 1042000    1.0937666   -7.1614674    402.78511  0.032212501  0.032633153            2 
 1043000    1.0940363   -7.0926632     402.0089  0.032119599  0.032624567            1 
 1044000    1.0759303   -7.1510917    403.48181  0.032206403  0.032616173            2 
 1045000    1.0681165   -7.1412766    403.93204  0.032211487   0.03260766            1 
 1046000    1.0649733   -7.1367272    402.60177  0.032074711  0.032599167            2 
 1047000    1.0850353   -7.1328639    403.50522  0.032115984  0.032590374            2 
 1048000    1.0660847    -7.127739    404.38163  0.032155028  0.032581815            2 
 1049000    1.0909372   -7.1266448    405.17742  0.032187593  0.032573293            1 
 1050000    1.0744337   -7.1631935    404.77225  0.032124782  0.032564719            5 
 1051000    1.0921369   -7.1138167    405.65528  0.032164231  0.032556076            2 
 1052000    1.0760982   -7.0965238    407.86399  0.032308618  0.032547727            2 
 1053000    1.1034941     -7.14414     407.0756  0.032215543  0.032539519            2 
 1054000    1.0596135   -7.1566509    404.39819  0.031973292  0.032530888            3 
 1055000    1.0953394   -7.0883849    406.68969  0.032123988  0.032522178            2 
 1056000    1.0781653   -7.1666595     406.6501  0.032090444  0.032513714            2 
 1057000    1.0945511   -7.1119025    407.66805  0.032140339  0.032505462            3 
 1058000    1.0798138   -7.1873057    406.71782  0.032035115  0.032497172            1 
 1059000    1.0738501   -7.1513692    407.55365  0.032070637  0.032488444            4 
 1060000     1.077092   -7.1160982    409.24641   0.03217346  0.032480262            2 
 1061000    1.0669232   -7.1503612    408.07735  0.032051315  0.032472161            1 
 1062000    1.0660789   -7.1453341    409.86957  0.032161768     0.032464            1 
 1063000    1.0866964   -7.1594167    411.16937  0.032233409  0.032456203            1 
 1064000    1.0517205     -7.13251    410.66794  0.032163842   0.03244827            4 
 1065000    1.0839292   -7.1144684    410.87111  0.032149539  0.032440181            1 
 1066000    1.0704924   -7.1199236    411.35364  0.032157101   0.03243221            1 
 1067000    1.0766489   -7.1592815    410.35153  0.032048698  0.032424048            3 
 1068000    1.0794715   -7.1140791     411.0906  0.032076357  0.032416025            2 
 1069000    1.0932813   -7.1330076    411.86672  0.032106854  0.032408014            3 
 1070000    1.0736518    -7.145655    411.94192  0.032082704  0.032400015            2 
 1071000    1.0531547   -7.1106232    411.59006   0.03202537  0.032392028            4 
 1072000     1.064227   -7.1458004    412.94877  0.032101117   0.03238417            5 
 1073000    1.0797904   -7.1330218    413.46461  0.032111262  0.032376293            2 
 1074000    1.0654282   -7.1473771    414.03065  0.032125283  0.032368641            2 
 1075000    1.0660576   -7.1441033    413.23152  0.032033451  0.032360821            2 
 1076000    1.0936685   -7.1230221    413.53456   0.03202715  0.032353069            1 
 1077000    1.0767547   -7.1511344    415.50596  0.032149951  0.032345404            2 
 1078000    1.0661961   -7.1229663    415.63439  0.032130055  0.032337863            2 
 1079000    1.1146424   -7.1084705    415.37416   0.03208018  0.032330041            3 
 1080000    1.0653654   -7.1325546    415.78044  0.032081824  0.032322284            4 
 1081000    1.0771202   -7.1781813    413.99212  0.031914286   0.03231441            2 
 1082000    1.0459735   -7.1330507    415.85481  0.032028251  0.032306473            1 
 1083000    1.0792525    -7.144867    416.71724  0.032065039  0.032298433            2 
 1084000    1.0581868   -7.1461374    416.97351  0.032055159  0.032290695            2 
 1085000     1.051815   -7.1605656    416.78421  0.032011076  0.032283012            2 
 1086000     1.057115   -7.1256515    418.28278  0.032096592  0.032275187            2 
 1087000    1.0772162   -7.1483959    416.64811  0.031941744  0.032267615            2 
 1088000    1.0802702   -7.1664152    418.10771  0.032024181  0.032259826            1 
 1089000    1.0661459   -7.1373841    418.66432  0.032037367  0.032252213            4 
 1090000    1.0947936   -7.1339943    417.64225  0.031929835  0.032244548            2 
 1091000    1.0653493     -7.13437    420.02832  0.032082823  0.032236829            2 
 1092000    1.0865397   -7.1606714    419.36131  0.032002542  0.032229127            4 
 1093000    1.0838353   -7.1438627    419.90097  0.032014408   0.03222144            2 
 1094000    1.0528527   -7.1705099    421.00849  0.032069507  0.032213882            2 
 1095000    1.1126484   -7.1486925    420.80225  0.032024524  0.032206546            2 
 1096000    1.0515301   -7.1548756    421.05423  0.032014464  0.032199306            2 
 1097000    1.0318008   -7.1696545    421.55282  0.032023155  0.032191956            2 
 1098000    1.0920823    -7.161226    421.79739  0.032012553  0.032184817            1 
 1099000    1.0524816   -7.1584151    422.59897  0.032044204   0.03217755            2 
 1100000    1.0854278   -7.1624243    421.82373  0.031956343  0.032170371            2 
 1101000    1.0654742    -7.125368    423.09674  0.032023671  0.032163255            2 
 1102000     1.079036   -7.1467946    424.46264    0.0320979   0.03215609            1 
 1103000    1.0979257   -7.1355649    424.23632  0.032051702  0.032148746            1 
 1104000    1.0607731   -7.1483955    423.17356  0.031942449  0.032141441            6 
 1105000    1.0822227   -7.1644353    422.27922  0.031846095   0.03213396            2 
 1106000    1.0857055    -7.150872    423.86054  0.031936449  0.032126536            2 
 1107000    1.0509512   -7.1485055    424.69195  0.031970186  0.032118881            2 
 1108000    1.1045201   -7.1329378    423.56664  0.031856697  0.032111403            3 
 1109000    1.0914155   -7.1420113    424.57996  0.031904115  0.032103921            3 
 1110000    1.0776678    -7.143808    424.57075  0.031874681  0.032096597            1 
 1111000    1.0820151    -7.185242    425.44808  0.031911797  0.032089026            2 
 1112000    1.1008328   -7.1625814     425.6062  0.031894949  0.032081458            1 
 1113000    1.0725638   -7.1332934    427.05871  0.031975046  0.032074119            1 
 1114000    1.0661795   -7.1259685    427.29588  0.031964085  0.032066996            1 
 1115000    1.0950826   -7.1728305    426.47137  0.031873794  0.032059642            2 
 1116000    1.0586425   -7.1520603    426.78362   0.03186855  0.032052361       -1e+20 
 1117000    1.0674616   -7.1942102    426.28902   0.03180312  0.032044894            2 
 1118000    1.0458664   -7.1646332    428.11536  0.031910805  0.032037779            1 
 1119000     1.077574   -7.1361259    428.65869   0.03192275  0.032030709            2 
 1120000    1.0426177   -7.1414863    428.00627  0.031845705  0.032023505            1 
 1121000    1.0512762   -7.1786163    429.33964  0.031916417  0.032016333            4 
 1122000    1.0669878   -7.1592805    428.63141  0.031835369  0.032009076            1 
 1123000    1.0684811   -7.1312594    429.33101  0.031858935  0.032001918            2 
 1124000    1.0839246   -7.1509685    428.63109  0.031778699  0.031994732            1 
 1125000    1.0483913   -7.1902516     428.0504  0.031707437  0.031987383            2 
 1126000    1.0634157   -7.1492349     429.5409  0.031789587  0.031979904            1 
 1127000    1.0782102   -7.1714915    429.53741  0.031761122  0.031972583            1 
 1128000    1.0831972   -7.1447641    431.40552  0.031870975  0.031965282            1 
 1129000    1.0939343   -7.1593029    430.95648  0.031809601  0.031958117            2 
 1130000     1.066943   -7.1862955    431.46975  0.031819303  0.031950805            2 
 1131000    1.0458578   -7.1556039    431.02025  0.031758049  0.031943433            1 
 1132000    1.0481991   -7.1609986    430.73886   0.03170928  0.031936103            2 
 1133000    1.0912834   -7.1908215    432.16049  0.031785855  0.031928641            2 
 1134000    1.0584868   -7.1512542    433.16271  0.031831475  0.031921367            2 
 1135000      1.06854    -7.166696    431.98372  0.031716866  0.031914134            2 
 1136000    1.0552075    -7.142793    432.58003   0.03173269   0.03190675            3 
 1137000    1.0738296   -7.1673259    431.36575  0.031615783  0.031899315            2 
 1138000    1.0671742   -7.1981629     431.5137  0.031598836  0.031891833            1 
 1139000    1.0601578   -7.1377285    433.25539  0.031698521  0.031884365            2 
 1140000    1.0637109   -7.1640133    433.51774  0.031689893  0.031876894            1 
 1141000    1.0813913   -7.1750485    433.31255  0.031647133  0.031869604            1 
 1142000     1.084839   -7.1766265    434.19234  0.031683621  0.031862311            3 
 1143000    1.0751215   -7.1956877    434.20907  0.031657121  0.031854993            1 
 1144000    1.0663601   -7.1747407    434.34403   0.03163928  0.031847688            5 
 1145000    1.1086554    -7.167938    434.98786  0.031658505    0.0318404            1 
 1146000    1.0666591   -7.1471622    435.31944  0.031654991  0.031832963            3 
 1147000    1.0730983   -7.1447303    435.97322  0.031674892  0.031825599            2 
 1148000    1.0685291   -7.1459059    436.41986  0.031679722  0.031818055            3 
 1149000    1.0542185   -7.1789892     434.7438  0.031530592  0.031810529            2 
 1150000    1.0804929   -7.1920484    435.79918  0.031579651   0.03180302            1 
 1151000     1.057648   -7.1592178    435.98107  0.031565383  0.031795642            3 
 1152000    1.0695229   -7.1556127    437.04945  0.031615267  0.031788077            2 
 1153000    1.0603205   -7.1485423    438.21516  0.031672099  0.031780807            1 
 1154000     1.074415   -7.1834702    436.69727  0.031535043  0.031773311            1 
 1155000    1.0534846   -7.1588512    438.28169  0.031622055  0.031765924            3 
 1156000    1.0728408   -7.1809202    437.48495  0.031537265  0.031758408            1 
 1157000    1.0694148   -7.1799281    437.90279  0.031540103  0.031751047            1 
 1158000     1.032304    -7.197573    438.62617  0.031564923  0.031743613            2 
 1159000    1.0785777   -7.1839116    439.17904   0.03157744  0.031736371            1 
 1160000    1.0632212   -7.2012123    439.54022  0.031576165   0.03172903            2 
 1161000     1.074543   -7.1314199    440.97113  0.031651675  0.031721919            3 
 1162000    1.0392782   -7.1830048    439.11903  0.031491611  0.031714808            1 
 1163000    1.0699782   -7.1299215    441.94252  0.031666847  0.031707833            2 
 1164000    1.0688785   -7.1497149    441.77106  0.031627367  0.031700807            1 
 1165000    1.0452517    -7.185558    440.20671   0.03148832  0.031693633            2 
 1166000    1.0670834   -7.1972513    441.51698  0.031554959  0.031686608            1 
 1167000    1.0826533   -7.1656574    442.15013  0.031573131   0.03167949            2 
 1168000    1.0401938   -7.1815149    441.89499  0.031527896  0.031672442            2 
 1169000    1.0924857   -7.1544213    443.43668  0.031610827   0.03166539            2 
 1170000    1.0507657   -7.1823215    442.61172  0.031525051  0.031658343            3 
 1171000    1.0510458   -7.1882515    442.90724   0.03151916  0.031651271            4 
 1172000    1.0816187   -7.1925448    442.44881   0.03145967  0.031644323            4 
 1173000    1.0892521   -7.1555192    444.78214  0.031598618  0.031637476            3 
 1174000    1.0634577   -7.1547931    444.23308  0.031532728  0.031630603            2 
 1175000    1.0976113   -7.2040159    445.51932  0.031597115  0.031623741            2 
 1176000    1.0661497   -7.2164979    444.67643  0.031510518   0.03161695            1 
 1177000    1.0434625   -7.1841669    445.05212  0.031510346  0.031610015            1 
 1178000     1.053248   -7.1856641    446.32421  0.031573586  0.031603343            4 
 1179000    1.0844432   -7.1749917     447.3026   0.03161596  0.031596599            2 
 1180000     1.065938   -7.1500608    447.74224  0.031620214  0.031590075            4 
 1181000    1.0776768   -7.1905208    446.87597  0.031532315  0.031583698            3 
 1182000    1.0581678   -7.1609126    448.69753  0.031634062  0.031577181            3 
 1183000    1.0449305   -7.1777178    449.93228  0.031694299   0.03157074            2 
 1184000    1.0486117   -7.1804079    448.01646   0.03153269  0.031564585            2 
 1185000    1.0586176    -7.199242    448.53332  0.031542427  0.031558332            1 
 1186000    1.0412389   -7.1697519    451.24839  0.031706604  0.031552256            2 
 1187000    1.0749418   -7.2106736    449.52842  0.031559142  0.031546173            2 
 1188000    1.0729931   -7.2069939    449.24534   0.03151272  0.031539804            3 
 1189000    1.0803969   -7.1583557    449.80616  0.031525523  0.031533405            1 
 1190000    1.0686322   -7.2009292    451.00177  0.031582757  0.031527136            3 
 1191000    1.0526887   -7.1674881    450.88972  0.031548399  0.031520811            3 
 1192000    1.0596543   -7.1968688    450.28287  0.031479507  0.031514358            3 
 1193000    1.0540689    -7.205086    451.65803  0.031549178  0.031507987            3 
 1194000    1.0447495    -7.196107    450.97941  0.031475392  0.031501633            1 
 1195000    1.0760627   -7.1988715     452.0613  0.031524498  0.031495172            2 
 1196000     1.071418   -7.1796656    453.08653  0.031569574  0.031488831            1 
 1197000    1.0789243   -7.1964438    452.17694  0.031479876  0.031482546            1 
 1198000    1.0686369   -7.1861511     452.5465  0.031479306  0.031476313            2 
 1199000    1.0787122   -7.1964294    453.73348  0.031535549  0.031470086            2 
 1200000      1.05501   -7.1622032     453.6282  0.031501958  0.031463828            2 
 1201000    1.0444415   -7.1729733    452.62984  0.031406456  0.031457461            3 
 1202000    1.0693512   -7.2240076    453.96771   0.03147308  0.031450896            2 
 1203000    1.0529672   -7.2175746    453.46971  0.031412421  0.031444276            1 
 1204000    1.0716771    -7.161837    453.83572  0.031411664  0.031437727            1 
 1205000    1.0212738   -7.2107015    453.80683  0.031383598  0.031431095            2 
 1206000    1.0806122   -7.1903215    453.75171  0.031353766  0.031424451            1 
 1207000    1.0338617   -7.1870794    454.11741  0.031353038   0.03141775            3 
 1208000     1.066444   -7.1971732    455.27323  0.031406818  0.031411335            1 
 1209000    1.0472508   -7.1774214    455.67383  0.031408453   0.03140485            1 
 1210000    1.0552057   -7.1892854    455.64249  0.031380337  0.031398288            1 
 1211000    1.0679699   -7.1623412    456.32902  0.031401666  0.031391832            1 
 1212000    1.0599557   -7.1823946    457.28598  0.031441555  0.031385367            3 
 1213000    1.0610003   -7.1931458    457.24816  0.031413036  0.031378955            1 
 1214000    1.0513362   -7.1673119    456.77182  0.031354463  0.031372414            2 
 1215000    1.0532778   -7.1784393    456.71118  0.031324498  0.031365841            1 
 1216000    1.0451844   -7.1686199    457.07822  0.031323891  0.031359074            2 
 1217000    1.0687621   -7.2150789    455.73848  0.031206415  0.031352429            1 
 1218000    1.0631736   -7.2118043    457.38523  0.031293461  0.031345657            2 
 1219000    1.0604724   -7.2302511    457.81538  0.031297195  0.031338986            1 
 1220000    1.0756953   -7.1736439    458.41998   0.03131284  0.031332295            2 
 1221000    1.0382158   -7.2205226    458.53223  0.031294856  0.031325522            3 
 1222000    1.0583008   -7.2637769    458.35327  0.031257042  0.031318661            2 
 1223000    1.0404235   -7.2057602    457.52471  0.031175028  0.031311851            2 
 1224000    1.0710479   -7.2168997    459.48608  0.031283093  0.031305054            1 
 1225000    1.0673803   -7.1597966    458.84577  0.031213998  0.031298214            2 
 1226000    1.0479558   -7.1911424    458.88748  0.031191373  0.031291152            1 
 1227000    1.0478875   -7.1607138    458.87505  0.031165108  0.031284212            3 
 1228000    1.0460176   -7.1753396    460.29696  0.031236222  0.031277222            1 
 1229000     1.062353    -7.211912     460.4127  0.031218653   0.03127012            1 
 1230000     1.051219    -7.207462    459.14663  0.031107495  0.031263119            3 
 1231000    1.0457111   -7.2098726     460.0528  0.031143569  0.031256231            2 
 1232000     1.050962   -7.2170439     461.1577  0.031193027  0.031249244            3 
 1233000    1.0836452   -7.2006375    461.74765    0.0312076  0.031242148            1 
 1234000    1.0490919   -7.1943266    460.69501  0.031111224  0.031235057            1 
 1235000     1.045265   -7.1975582    460.94683  0.031103025  0.031228191            3 
 1236000    1.0489655   -7.1971213     461.3894    0.0311077  0.031221138            2 
 1237000     1.046617   -7.1867651    462.50518  0.031157719  0.031214269            2 
 1238000    1.0379142   -7.1937621    462.40832  0.031126031  0.031207438            2 
 1239000    1.0561502   -7.1988826    463.13447  0.031149749  0.031200617            2 
 1240000    1.0523327   -7.1649974    462.60174  0.031088827  0.031193786            2 
 1241000    1.0516601   -7.2008616    464.41342   0.03118543  0.031186955            3 
 1242000     1.031678   -7.1885275    462.81724  0.031053223  0.031180146            6 
 1243000    1.0714835   -7.2210326    464.82707  0.031162984  0.031173413            1 
 1244000     1.070129   -7.1738734    464.19791  0.031095787  0.031166623            1 
 1245000    1.0771239   -7.2399554    464.73462  0.031106735  0.031159911            2 
 1246000    1.0523584    -7.239926    463.79075  0.031018643  0.031153026            2 
 1247000    1.0257064   -7.2109358    463.59791  0.030980881  0.031146246            1 
 1248000    1.0239997   -7.2225256    465.92725  0.031111595  0.031139408            2 
 1249000    1.0470202   -7.1970464    465.58328  0.031063736  0.031132621            2 
 1250000    1.0689968   -7.1695616    466.13598  0.031075732  0.031125763            1 
 1251000    1.0538741   -7.2072187    466.02151  0.031043266  0.031118992            2 
 1252000    1.0282165   -7.2265919    466.67659  0.031062073  0.031112094            3 
 1253000    1.0578426   -7.2412454    466.18816  0.031004799  0.031105219            3 
 1254000    1.0709214   -7.2233454    466.65539  0.031011124   0.03109835            1 
 1255000    1.0293084   -7.1842795    467.21776  0.031023755  0.031091217            1 
 1256000    1.0839692    -7.205573    467.42098  0.031012539  0.031084156            1 
 1257000    1.0487554    -7.229538    465.87336  0.030885267  0.031077001            2 
 1258000    1.0552395   -7.2258875    467.05042  0.030938687  0.031069829            1 
 1259000     1.057206   -7.1746658    466.69381  0.030890509  0.031062647            2 
 1260000    1.0277093   -7.2267799    467.90253  0.030945935  0.031055372            1 
 1261000    1.0437288   -7.2078102    467.43364  0.030890407  0.031048279            3 
 1262000    1.0399834   -7.2092302    467.84646  0.030893189  0.031041076            2 
 1263000    1.0562512   -7.2422752    467.48747  0.030845043  0.031033682            2 
 1264000    1.0687149   -7.2325545    468.10771  0.030861531  0.031026247            2 
 1265000    1.0446566   -7.2283799    466.96373  0.030761774  0.031019036            1 
 1266000    1.0502794   -7.2422622    469.03732  0.030873968   0.03101165            4 
 1267000    1.0579814   -7.1914113    469.42667  0.030875209  0.031004407            2 
 1268000    1.0575413   -7.2345986    469.81233  0.030876204  0.030997358            2 
 1269000    1.0465966   -7.2213348    470.64901  0.030906817  0.030990249            1 
 1270000    1.0380461   -7.2365247    469.95194  0.030836741  0.030983123            2 
 1271000    1.0481592   -7.2060758    470.97797  0.030879752  0.030976146            2 
 1272000    1.0486453   -7.2031504    471.39821  0.030883007  0.030969226            2 
 1273000    1.0590134   -7.2253616    472.79686  0.030950305  0.030962283            1 
 1274000    1.0729368   -7.2219394    472.98238  0.030938146  0.030955428            4 
 1275000    1.0459879    -7.231361    472.81526  0.030902958   0.03094862            1 
 1276000    1.0584421   -7.2139125    471.24064  0.030775904  0.030941931            1 
 1277000     1.050427   -7.1984815    473.27171  0.030884345  0.030934969            1 
 1278000    1.0736804    -7.230767    472.92382  0.030837495  0.030928218            6 
 1279000    1.0391165   -7.1983749    473.49866  0.030850838  0.030921407            2 
 1280000    1.0543344   -7.2439116    473.57425  0.030831657    0.0309144            2 
 1281000    1.0548092      -7.2381    473.16742  0.030781122  0.030907451            1 
 1282000    1.0562582   -7.2205431    473.32664  0.030767462  0.030900525            2 
 1283000    1.0655175   -7.2337956    474.73662  0.030835062  0.030893481            4 
 1284000    1.0440206   -7.1910315    474.61285  0.030803015  0.030886668            1 
 1285000    1.0322222   -7.2088591    473.68127   0.03071863  0.030879737            2 
 1286000    1.0400654   -7.1824402    475.69383  0.030825158  0.030872722            2 
 1287000    1.0471487   -7.2250643    475.87368  0.030812852  0.030865722            2 
 1288000    1.0519202   -7.2280708    475.15225  0.030742252  0.030858777            1 
 1289000    1.0581876   -7.2025327    475.64067  0.030749979  0.030851821            2 
 1290000     1.056963    -7.198896    476.39324  0.030774757  0.030844917            2 
 1291000     1.048516   -7.2189832    476.70354  0.030770949  0.030838008            2 
 1292000    1.0806643   -7.2385877    476.32603  0.030722783  0.030830905            2 
 1293000    1.0187135   -7.1852398    476.94046  0.030738622   0.03082382            1 
 1294000    1.0274774   -7.2363161    476.35497  0.030677162  0.030816739            1 
 1295000    1.0211605   -7.2298634    477.18995  0.030707204  0.030809777            2 
 1296000    1.0274331   -7.2357908    478.01663  0.030736666  0.030802857            2 
 1297000    1.0436196   -7.2449923    478.99996  0.030776148  0.030796038            1 
 1298000    1.0477664   -7.2251213    477.79578  0.030675127  0.030789132            3 
 1299000    1.0327279   -7.2416334    477.94873  0.030661325  0.030782234            3 
 1300000    1.0691441    -7.236741    478.32935  0.030662138   0.03077535            2 
 1301000    1.0729836   -7.1830847    480.67148  0.030788591  0.030768459            1 
 1302000    1.0350055   -7.1965494    479.52857  0.030691793   0.03076171            7 
 1303000    1.0392303   -7.2432038    479.57697  0.030671334   0.03075484            2 
 1304000    1.0474996   -7.2395249     478.6556  0.030588931  0.030747993            1 
 1305000    1.0610682   -7.2233018    480.48278   0.03068217  0.030741325            1 
 1306000    1.0547508    -7.206665    480.88624  0.030684421   0.03073457            1 
 1307000    1.0413604   -7.2267063    480.85575     0.030659  0.030727654            2 
 1308000    1.0597139   -7.2171315    480.95611  0.030641954  0.030720814            2 
 1309000    1.0456483   -7.2213854    482.77928  0.030734611  0.030713881            2 
 1310000    1.0509088   -7.2554102    481.18556  0.030609768  0.030707033            2 
 1311000     1.035333   -7.2444951     481.1329  0.030583073  0.030700108            2 
 1312000    1.0395233   -7.2326819    482.07186  0.030619402  0.030693289            1 
 1313000    1.0373279   -7.2226155    482.98737  0.030654187  0.030686444            2 
 1314000    1.0428653   -7.2683099    482.31074  0.030587946  0.030679735            3 
 1315000    1.0277864    -7.221903    483.84434  0.030661872  0.030672825            2 
 1316000    1.0562055   -7.2329744    482.64105  0.030562376  0.030665984            2 
 1317000    1.0273323   -7.2670493    483.07975  0.030566929  0.030659154            2 
 1318000    1.0550235     -7.22255    484.67202  0.030644412  0.030652329            1 
 1319000    1.0439669   -7.1980278    484.53399  0.030612459  0.030645665            3 
 1320000    1.0425801   -7.2373499    484.44777  0.030583824  0.030639073            3 
 1321000    1.0415633   -7.2316338    484.35221  0.030554643  0.030632271            1 
 1322000    1.0404094   -7.2353144    485.77823  0.030621421  0.030625774            2 
 1323000    1.0445602   -7.2158069    486.53612  0.030646014  0.030619269            2 
 1324000    1.0391926   -7.2567873    487.15686  0.030661937  0.030612833            2 
 1325000    1.0533726   -7.2389388    485.83519  0.030555672  0.030606211            3 
 1326000    1.0606947   -7.2656036    485.01471  0.030481065  0.030599655            2 
 1327000    1.0165538   -7.2231086    487.40686  0.030608318  0.030593019            1 
 1328000    1.0421729   -7.2512099    487.47043  0.030589259  0.030586337            1 
 1329000    1.0586234   -7.2499462    486.98516  0.030535814  0.030579425            2 
 1330000    1.0457617   -7.2434492    488.08337  0.030581665  0.030572632            3 
 1331000    1.0511295   -7.2857165     486.3903  0.030452686  0.030565878            2 
 1332000    1.0298363   -7.2688504    486.80541  0.030455794  0.030559041            2 
 1333000    1.0168886   -7.2111675    488.16645  0.030518032  0.030552081            1 
 1334000    1.0593627   -7.1907693    488.98775  0.030546461    0.0305453            2 
 1335000    1.0255499    -7.205757    489.12449  0.030532115  0.030538459            1 
 1336000    1.0631506   -7.2495716     488.4616  0.030467914  0.030531581            1 
 1337000    1.0352074   -7.2264957    487.63786  0.030393783  0.030524719            3 
 1338000    1.0482445   -7.2305293    487.90417  0.030387654  0.030517712            4 
 1339000    1.0468017   -7.2049172    488.75497   0.03041791  0.030510834            1 
 1340000    1.0456921   -7.2551388    488.49016  0.030378741  0.030503966            3 
 1341000    1.0414967    -7.240397    488.72788   0.03037086  0.030496938            3 
 1342000      1.04065   -7.2404104    489.34556  0.030386585  0.030489996            1 
 1343000    1.0443312   -7.2284284     489.8648  0.030396178  0.030482945            3 
 1344000    1.0330231   -7.2530863    489.91583  0.030376725  0.030476017            1 
 1345000    1.0398946   -7.1947603    491.42792  0.030447826  0.030468944            1 
 1346000    1.0413224   -7.2169049    491.08786  0.030404152  0.030461949            4 
 1347000    1.0353903   -7.2388076    488.78747  0.030239265  0.030454788            1 
 1348000    1.0482542   -7.2222192     490.4871  0.030321903  0.030447672            3 
 1349000    1.0444593   -7.2156791    491.15591  0.030340741  0.030440702            1 
 1350000    1.0239177   -7.2630431    490.11399   0.03025395  0.030433622            3 
 1351000    1.0329336   -7.2371793    491.88698  0.030340919  0.030426441            2 
 1352000    1.0220292   -7.2163456    492.21016  0.030338397  0.030419281            1 
 1353000    1.0318963   -7.2808075    491.01357  0.030242275  0.030411986            1 
 1354000    1.0270589   -7.2591715    490.84116  0.030209328  0.030404561            3 
 1355000    1.0131309   -7.2447539    491.59395   0.03023333  0.030397356            3 
 1356000    1.0266269   -7.2754039    491.36096  0.030196716   0.03039011            1 
 1357000    1.0349008   -7.2327044    492.56082  0.030248147  0.030382808            4 
 1358000    1.0257979   -7.2479807    492.99815  0.030252709  0.030375682            1 
 1359000    1.0393331   -7.2502653    493.41735  0.030256153   0.03036868            2 
 1360000    1.0177106   -7.2229401    495.22282  0.030344535  0.030361675            1 
 1361000    1.0556446   -7.2687243    493.90028  0.030241261  0.030354678            2 
 1362000     1.037424   -7.2231594    495.21995  0.030299801   0.03034771            1 
 1363000    1.0200159   -7.2195223    495.16675  0.030274318   0.03034064            2 
 1364000    1.0562316   -7.2336514    495.53636  0.030274704  0.030333672            2 
 1365000    1.0365098   -7.2634767    495.98371  0.030279836  0.030326719            2 
 1366000    1.0305367   -7.2516719    496.29665   0.03027676  0.030319654            2 
 1367000    1.0401527   -7.2360926    496.09623  0.030242394  0.030312843            4 
 1368000    1.0312748   -7.2325258    495.50882  0.030184504  0.030306036            1 
 1369000    1.0512738   -7.2296816     496.8462  0.030243864  0.030299136            3 
 1370000    1.0189663   -7.2664731     496.5508   0.03020382  0.030292274            2 
 1371000     1.032338   -7.2277442    498.22021  0.030283261  0.030285344            2 
 1372000    1.0480572   -7.2421668     497.1762  0.030197777  0.030278415            2 
 1373000    1.0342662   -7.2713452    496.96144  0.030162749  0.030271371            3 
 1374000    1.0589857   -7.2182359     497.0946  0.030148872  0.030264425            1 
 1375000    1.0148366   -7.2481947     497.6657  0.030161558  0.030257409            1 
 1376000    1.0286116   -7.2628407    496.85065  0.030090277  0.030250267            4 
 1377000    1.0531887   -7.2452501     498.7219  0.030181669  0.030243157            1 
 1378000    1.0191799   -7.2172496     497.8538  0.030107269  0.030236004            2 
 1379000    1.0325972   -7.2131085    499.00315  0.030154892  0.030228836            1 
 1380000    1.0200024   -7.2449137       498.13  0.030080314  0.030221719            1 
 1381000    1.0439083   -7.2514056    499.39716  0.030134996  0.030214695            2 
 1382000    1.0419358   -7.2385862    498.21011  0.030041613  0.030207479            1 
 1383000    1.0202032   -7.3006786    498.71127  0.030050089  0.030200374            2 
 1384000    1.0424262   -7.2455218    498.89734   0.03003958  0.030193114            3 
 1385000    1.0300344   -7.2832678      500.086   0.03008941  0.030185779            2 
 1386000    1.0455003   -7.2797964    498.43805  0.029968618  0.030178377            1 
 1387000    1.0228142   -7.2282356    500.84906  0.030091869  0.030171208            1 
 1388000    1.0196135   -7.2615163    499.96313  0.030016999  0.030164033            2 
 1389000    1.0306211   -7.3023164    499.21635  0.029950585   0.03015682            1 
 1390000    1.0101025   -7.2331648    501.01967   0.03003715  0.030149546            3 
 1391000    1.0254123   -7.2490474    500.86584  0.030006341   0.03014238            3 
 1392000    1.0384148   -7.2523349     500.9468  0.029989631  0.030135175            2 
 1393000     1.021295   -7.2873609    501.18313   0.02998224  0.030127852            3 
 1394000     1.015667   -7.2497423    501.61868   0.02998677  0.030120568            1 
 1395000    1.0350805   -7.2406299     502.3871  0.030011177  0.030113194            1 
 1396000    1.0341663   -7.2377506    502.73895  0.030010682  0.030105904            2 
 1397000    1.0388712   -7.2903208    501.62909  0.029922995  0.030098565            4 
 1398000    1.0381746     -7.24585    503.85268  0.030034137  0.030091363            2 
 1399000    1.0068201   -7.2408525    502.19741   0.02991407  0.030084067            3 
 1400000    0.9973641   -7.2332116    502.27571  0.029897364  0.030076691            3 
 1401000    1.0190701   -7.2701511    502.74079  0.029903687  0.030069358            1 
 1402000    1.0301706   -7.2158724    502.42812  0.029863773  0.030061903            2 
 1403000    1.0066103   -7.2342355    503.44543  0.029902912   0.03005442            2 
 1404000    1.0233854    -7.282712    501.30318  0.029754462  0.030046952            3 
 1405000    1.0250056   -7.2727633    501.32782  0.029734746  0.030039345            2 
 1406000    1.0074361   -7.2643298    502.89306  0.029806369   0.03003173            2 
 1407000    1.0201808   -7.2297224    505.08267  0.029914871  0.030024265            1 
 1408000    1.0400176   -7.2726311    501.56424  0.029685383  0.030016745            1 
 1409000    1.0329529   -7.2552446    503.52576  0.029780326  0.030009068            1 
 1410000    1.0231934   -7.2870951     503.7985  0.029775325  0.030001461            8 
 1411000    1.0180801   -7.2551545    504.64597  0.029804274  0.029994003            2 
 1412000    1.0166723   -7.2534541    506.74749  0.029907194  0.029986523            2 
 1413000    1.0364928   -7.2328498    506.88211  0.029893967  0.029979238            2 
 1414000    1.0198307   -7.2825141    505.48245  0.029790338  0.029971821            2 
 1415000    1.0185316   -7.2800924     505.2439  0.029755236  0.029964294            1 
 1416000    1.0199752   -7.2724751    506.36049  0.029799935  0.029956789            2 
 1417000    1.0245051   -7.2509211    505.15608  0.029708073  0.029949348            2 
 1418000    1.0278033   -7.2348554    506.63169  0.029773842  0.029941933            2 
 1419000    1.0181646   -7.2808756    506.79021  0.029762169  0.029934558            1 
 1420000    1.0057738   -7.2516062    507.88852  0.029805664  0.029927229            2 
 1421000    1.0325611    -7.252681    506.87713  0.029725377   0.02991987            2 
 1422000     1.040225   -7.2516324    508.59385  0.029805078  0.029912523            2 
 1423000    1.0008087    -7.298494    508.19981  0.029761057  0.029905192            2 
 1424000    1.0246375   -7.2468373    508.07084   0.02973261  0.029897808            2 
 1425000    0.9977209   -7.2645613    508.20707  0.029719712  0.029890412            2 
 1426000     1.032612   -7.2963084    508.55823  0.029719392  0.029882865            3 
 1427000    1.0159171   -7.2693263    507.53814  0.029638994  0.029875365            2 
 1428000   0.99666175    -7.272898     509.1196  0.029710527  0.029867755            3 
 1429000     1.022511   -7.2617893    508.39682  0.029647587  0.029860165            4 
 1430000    1.0218797   -7.2837126     509.6565  0.029700262  0.029852588            1 
 1431000    1.0320508   -7.2825409    509.12812  0.029648738  0.029844936            2 
 1432000    1.0055525   -7.2491268    510.46055  0.029705572  0.029837352            1 
 1433000    1.0141721   -7.2937547    508.59001  0.029576065  0.029829921            2 
 1434000    1.0246206   -7.2855993    510.45238  0.029663667  0.029822433            4 
 1435000    1.0458673   -7.2812832    510.00239  0.029616863  0.029815104            2 
 1436000    1.0292163   -7.2732865    510.90832  0.029648812  0.029807803            1 
 1437000    1.0382083   -7.2887184    511.21119  0.029645743  0.029800524            2 
 1438000    1.0147405   -7.2903732    511.02763  0.029614489  0.029793096            1 
 1439000   0.99296091   -7.2905985    511.42261  0.029616783  0.029785622            2 
 1440000    1.0142209   -7.2370173    510.52448  0.029544241  0.029778153            1 
 1441000    1.0207829   -7.3058942    511.78624  0.029596706  0.029770721            1 
 1442000    1.0271982   -7.2633901    511.21364  0.029543091  0.029763277            4 
 1443000    1.0077752   -7.2561321     512.9351  0.029622031  0.029755841            2 
 1444000    1.0280355   -7.2577201    512.11231  0.029554035  0.029748478            3 
 1445000    1.0044731   -7.2703665    512.50411  0.029556177  0.029741013            1 
 1446000    1.0339445   -7.2751414    512.47659  0.029534151  0.029733563            2 
 1447000    1.0342958    -7.289237    512.72205  0.029527877  0.029726083            2 
 1448000    1.0186482   -7.2858866    512.11976  0.029472823  0.029718611            6 
 1449000    1.0182911   -7.2443411    514.71057  0.029601482  0.029711307            1 
 1450000    1.0145895   -7.3075342    513.88416  0.029533572  0.029703886            2 
 1451000    1.0281299   -7.2937336    513.21736  0.029474923  0.029696477            2 
 1452000     1.025267   -7.2736346    514.63724  0.029536113  0.029689054            4 
 1453000    1.0182373   -7.3011799    514.63435   0.02951562  0.029681595            4 
 1454000    1.0256059   -7.3085683    513.66383  0.029439697  0.029673985            2 
 1455000    1.0087771   -7.2633836    515.91929  0.029548642  0.029666637            3 
 1456000    1.0078222   -7.2716969    515.52838  0.029505974  0.029659413            2 
 1457000    1.0056884   -7.3130187    516.90316  0.029564354  0.029652256            2 
 1458000    1.0170313   -7.3005431    517.41302  0.029573218  0.029645132            2 
 1459000    1.0057946   -7.2737695     518.2336  0.029599817  0.029638121            2 
 1460000    1.0271842   -7.2815836    517.83801  0.029556964  0.029631075            2 
 1461000   0.99827042   -7.3340597      516.569  0.029464351  0.029623849            2 
 1462000    1.0183877   -7.3243767    516.98733  0.029468042   0.02961657            2 
 1463000    1.0215069   -7.2655828    519.29457  0.029579322  0.029609452            2 
 1464000    1.0323827   -7.2656438    518.42897  0.029509846  0.029602501            5 
 1465000    1.0024837   -7.2480783    518.30179  0.029482468  0.029595508            2 
 1466000   0.99168587   -7.2676861    519.11949  0.029508839  0.029588556            1 
 1467000    1.0006143   -7.2575923    520.26297   0.02955368  0.029581682            3 
 1468000    1.0008288   -7.2796036    520.19961  0.029529951  0.029574788            2 
 1469000    1.0255568   -7.2639586     521.6232  0.029590606  0.029567827            3 
 1470000    1.0061532   -7.2408885    521.24707  0.029549154  0.029561045            3 
 1471000    1.0152441   -7.2621229    521.48112  0.029542325  0.029554229            5 
 1472000    1.0238457   -7.2395809    522.59337  0.029585222  0.029547405            2 
 1473000    1.0263015   -7.2781845    521.04375  0.029477469  0.029540489            2 
 1474000   0.99723769   -7.2855686    521.21093  0.029466923  0.029533425            2 
 1475000   0.99972637    -7.294315     521.4438  0.029460102  0.029526319            2 
 1476000    1.0281674   -7.2988002    521.25296  0.029429368  0.029519206            3 
 1477000    1.0102532   -7.2841216    521.67051  0.029433001  0.029512074            1 
 1478000    1.0079853   -7.2413335    521.06946  0.029379198  0.029504917            2 
 1479000    1.0174185   -7.2902228    522.35917  0.029432002  0.029497751            2 
 1480000     1.010999    -7.277175      523.782   0.02949223  0.029490546            2 
 1481000   0.99533812     -7.25798    524.19407  0.029495503   0.02948339            1 
 1482000    1.0022798   -7.2942485    521.94238  0.029348987  0.029476254            3 
 1483000    1.0005662   -7.2928786    523.45585  0.029414242  0.029469185            1 
 1484000   0.99146135   -7.2758726    521.77172   0.02929985  0.029462017            4 
 1485000    1.0108172   -7.3325997    522.97533  0.029347662  0.029454865            2 
 1486000   0.99393003   -7.3179133    522.77187  0.029316502  0.029447639            2 
 1487000    1.0075887   -7.3036034    524.69437  0.029404527  0.029440464            4 
 1488000    1.0432321   -7.3184735    524.19109   0.02935658  0.029433309            3 
 1489000   0.99820011   -7.2786248    524.75106  0.029368204  0.029426233            2 
 1490000   0.99241965   -7.3231785    523.75035  0.029292525   0.02941907            3 
 1491000    1.0401321   -7.2752906     523.6919  0.029269612  0.029411857            3 
 1492000    1.0095753   -7.2995276    524.62483  0.029302101  0.029404574            2 
 1493000    1.0086741   -7.3147323    524.89611  0.029297617  0.029397438            2 
 1494000    1.0236045   -7.2763207    525.12573  0.029290815  0.029390188            3 
 1495000    1.0135834   -7.2469357    526.67359  0.029357502  0.029383083            2 
 1496000    1.0136411   -7.2947004    526.69153  0.029338877  0.029375871            1 
 1497000    1.0055613   -7.3298868    525.73335   0.02926594  0.029368749            2 
 1498000    1.0077091   -7.2860568    525.10262  0.029211316  0.029361483            2 
 1499000    1.0313547   -7.2990341    526.88948  0.029291165  0.029354231            1 
 1500000   0.99369845   -7.2969375    525.95708  0.029219838   0.02934683            2 
 1501000    1.0121606   -7.2625323    526.57118  0.029234465  0.029339474            1 
 1502000    1.0070336   -7.2967719    526.53545  0.029213019  0.029332197            1 
 1503000    1.0240707   -7.2710667    527.24532  0.029232941  0.029324875            1 
 1504000    1.0274798    -7.290131     527.2438   0.02921342  0.029317591            1 
 1505000    1.0013967   -7.2936462    526.58374  0.029157461   0.02931028            1 
 1506000    1.0280633    -7.286541    528.76103  0.029258579  0.029303002            3 
 1507000    1.0154289    -7.282542    528.26174  0.029211554  0.029295821            2 
 1508000    1.0049732   -7.2508447     529.1469  0.029241097   0.02928859            5 
 1509000    1.0227306   -7.3002623    527.45035  0.029128029  0.029281317            2 
 1510000    1.0267284   -7.3186085    528.06426  0.029142619  0.029273964            2 
 1511000   0.99334162   -7.3190546    527.85541  0.029111814  0.029266691            7 
 1512000    1.0083917   -7.3030176    528.37457  0.029121173  0.029259468            1 
 1513000    1.0390361   -7.3099457    529.30684  0.029153274  0.029252152            1 
 1514000    1.0191848   -7.3106823    529.33684  0.029135669  0.029244836            1 
 1515000    0.9890008   -7.3120789    527.95082  0.029040199  0.029237423            2 
 1516000    1.0038715   -7.3025342    528.31022  0.029040799  0.029230049            2 
 1517000   0.99822861   -7.3006124    528.87759  0.029052823  0.029222587            1 
 1518000    1.0025273   -7.2624424    528.28346  0.029001068   0.02921519            1 
 1519000    1.0317546   -7.2938526    528.32519  0.028984265  0.029207646            2 
 1520000    1.0028709    -7.326163    528.22787  0.028959861  0.029200064            4 
 1521000     1.005095   -7.2744606    529.10619  0.028988943  0.029192382            1 
 1522000    1.0174359   -7.2852731    529.44313  0.028988345  0.029184712            1 
 1523000    1.0172464    -7.315323    528.96763  0.028943293  0.029176951            1 
 1524000    1.0226258   -7.3094158    527.85476  0.028863449  0.029169152            1 
 1525000    1.0274327   -7.3058664    528.87092   0.02890005   0.02916133            1 
 1526000    1.0155305   -7.2910726    530.12815  0.028949768  0.029153628            1 
 1527000    1.0174541   -7.2923226    529.53629   0.02889851  0.029146022            3 
 1528000   0.99906137   -7.3116668      529.989  0.028904287  0.029138278            1 
 1529000    1.0195049    -7.322143    530.85209  0.028932423  0.029130519            2 
 1530000    1.0206835   -7.3103743    528.49062  0.028784892  0.029122701            1 
 1531000    1.0021595   -7.2982763    531.70253  0.028940917  0.029114928            3 
 1532000   0.99435707   -7.2833266    531.67914  0.028920754  0.029107226            2 
 1533000   0.99606739   -7.2965529    532.22522  0.028931573   0.02909935            3 
 1534000   0.97568333   -7.2870005    532.30399  0.028916992   0.02909172            1 
 1535000    1.0243566   -7.2864746    532.88401  0.028929642  0.029084104            4 
 1536000    1.0001561   -7.3101953    531.55628  0.028838774  0.029076366            2 
 1537000    1.0102656   -7.3181222    531.99148  0.028843606  0.029068692            4 
 1538000   0.98942672   -7.3069787    533.14833  0.028887534   0.02906105            2 
 1539000   0.96858308   -7.3084893    532.01822  0.028807571  0.029053467            2 
 1540000   0.99245159   -7.3077781    532.26405  0.028802167  0.029045796            2 
 1541000    1.0192489   -7.2783451    534.04603  0.028879842  0.029038152            2 
 1542000    1.0056797   -7.3132763     533.6132  0.028837722  0.029030628            3 
 1543000   0.98672207   -7.3336402    533.47171  0.028811391  0.029022908            2 
 1544000    1.0030318   -7.2954841    533.24743  0.028780626  0.029015221            2 
 1545000    1.0106615   -7.3269598    534.15343  0.028810864  0.029007626            1 
 1546000    1.0132408   -7.3189818    534.32728    0.0288016        0.029            2 
 1547000   0.98683302   -7.3211153    533.19312  0.028721888  0.028992282            2 
 1548000    1.0088019    -7.351154    533.04671  0.028695452  0.028984481            3 
 1549000    1.0163722   -7.2813796    534.67762  0.028764666  0.028976821            2 
 1550000    1.0111513     -7.30945    535.07138  0.028767278  0.028969301            2 
 1551000    1.0097681   -7.2865008    535.41362  0.028767119  0.028961793            3 
 1552000   0.97854644   -7.2791201    534.71686  0.028711171  0.028954153            2 
 1553000   0.99995934   -7.2868891    536.30739  0.028778031  0.028946497            2 
 1554000    1.0294423   -7.2991614    536.42704  0.028765929  0.028938986            2 
 1555000   0.99700753   -7.3058107    536.68303  0.028761149  0.028931323            2 
 1556000    0.9650983   -7.3095605    536.29588   0.02872193  0.028923711            3 
 1557000    1.0085785   -7.3178435    537.53895  0.028770014  0.028916156            4 
 1558000    1.0244153   -7.2879877    537.32297  0.028739996  0.028908696            3 
 1559000   0.97438691   -7.3426868    537.93944  0.028754513  0.028901178            1 
 1560000   0.98372589    -7.326192     536.1877  0.028642505  0.028893598            1 
 1561000     1.000305   -7.3142795    535.94581  0.028611243  0.028885916            3 
 1562000    0.9855546   -7.3035648    539.24308  0.028768837   0.02887841            3 
 1563000   0.98867949   -7.3474362    537.67822  0.028666998  0.028870988            2 
 1564000    0.9897717   -7.3247647    539.09943  0.028724394  0.028863568            2 
 1565000    1.0099994   -7.3284721    537.74331  0.028633829  0.028856052            1 
 1566000   0.99445354   -7.3012172    539.36245  0.028701706  0.028848519            2 
 1567000    1.0148554   -7.3154768    539.99027  0.028716777  0.028841132            1 
 1568000    1.0012571   -7.3122722    539.83854  0.028690399  0.028833728            1 
 1569000   0.98111109   -7.2930622    539.83694  0.028672028  0.028826268            2 
 1570000    0.9902959   -7.3126575    539.51424  0.028636637  0.028818882            1 
 1571000    1.0116838   -7.3155134    540.34604  0.028662531  0.028811587            3 
 1572000   0.99995199   -7.3018669    540.88397  0.028672814  0.028804146            2 
 1573000   0.98946641   -7.3099324    540.35022   0.02862631  0.028796799            2 
 1574000    1.0069229     -7.31231    540.99065   0.02864203  0.028789427            1 
 1575000    1.0021837   -7.3216475    541.93061  0.028673577  0.028782152            3 
 1576000    1.0048165   -7.3047976     542.4891  0.028684915  0.028774894            3 
 1577000    1.0023844   -7.3619299    541.22792   0.02860008   0.02876754            3 
 1578000    1.0054862   -7.3473878    542.78811  0.028664349  0.028760157            2 
 1579000   0.99860754   -7.3387913    542.21682  0.028616045  0.028752857            1 
 1580000   0.98815417   -7.3097682    543.28399  0.028654219  0.028745531            2 
 1581000    1.0110892   -7.2997011    543.34516  0.028639319  0.028738212            2 
 1582000    1.0003687   -7.3359842    543.45491  0.028626997  0.028730849            1 
 1583000     1.028541   -7.2952148    541.74698  0.028519003  0.028723433            2 
 1584000    1.0055213    -7.331958    542.88746  0.028560999  0.028715987            2 
 1585000   0.98288956   -7.3266985    543.14059  0.028556288  0.028708579            2 
 1586000   0.99980594   -7.3047802    542.86694  0.028523904  0.028701189            4 
 1587000    1.0011435   -7.3128668     543.6354  0.028546282  0.028693754            5 
 1588000     1.004827   -7.3095993    543.50585  0.028521507  0.028686363            1 
 1589000   0.98452903   -7.3343922    543.14094  0.028484421  0.028678908            1 
 1590000   0.98555192   -7.3293168    544.74313  0.028550479  0.028671446            5 
 1591000    1.0000754   -7.2969325    544.14352  0.028501127  0.028664089            4 
 1592000    1.0058388   -7.2851473    545.65293  0.028562235  0.028656838            2 
 1593000   0.97147494   -7.3298652    545.00193   0.02851025  0.028649481            2 
 1594000   0.99098401   -7.3504493    543.41811  0.028409562  0.028642088            2 
 1595000    1.0117587    -7.391585    543.64918  0.028403824  0.028634554            2 
 1596000   0.98280515   -7.3293872    545.05022   0.02845918  0.028626893            3 
 1597000    1.0006829    -7.313669    544.43183  0.028409092  0.028619249            3 
 1598000    1.0067451    -7.340307    544.26559  0.028382644  0.028611506            2 
 1599000   0.99389199   -7.3179651    545.16659  0.028411851  0.028603855            2 
 1600000   0.99607754   -7.3435309    545.69424  0.028421575  0.028596306            3 
 1601000    1.0298196   -7.3073424    544.52825  0.028343132  0.028588735            3 
 1602000    1.0023306    -7.367431    545.49424  0.028375689  0.028581128            2 
 1603000   0.99768228   -7.3112515    545.48502  0.028357508  0.028573534            4 
 1604000   0.99656822   -7.3106796    546.88977   0.02841281  0.028566027            3 
 1605000    1.0161536   -7.3441311    545.06026  0.028300117  0.028558422            1 
 1606000   0.99118365   -7.3326343    547.45038  0.028406516  0.028550998            3 
 1607000   0.99499042   -7.3453168    546.64466  0.028347058  0.028543549            2 
 1608000   0.96599079   -7.3364162    547.90441  0.028394715  0.028536164            1 
 1609000   0.99989089   -7.3385425    546.53731  0.028306262  0.028528776            1 
 1610000    1.0143943   -7.3268441    547.58934  0.028343133  0.028521299            1 
 1611000    1.0068612   -7.3607548     547.8045   0.02833667  0.028513914            3 
 1612000   0.99385835   -7.2886449    550.46797  0.028456781   0.02850648            2 
 1613000   0.99735201   -7.3084966    550.66064  0.028449093  0.028499135            2 
 1614000    1.0043732   -7.3120826    550.61251  0.028428981  0.028491857            3 
 1615000    1.0072956   -7.3586636     548.6404  0.028309618  0.028484548            3 
 1616000   0.96302117   -7.3454308    549.64248  0.028343775  0.028477215            1 
 1617000   0.99710644   -7.3308263    550.98714  0.028395544  0.028469842            1 
 1618000   0.98614974   -7.3203182    551.54805  0.028406884  0.028462625            3 
 1619000   0.97709491   -7.3531611    548.71594  0.028243563  0.028455289            2 
 1620000    1.0089285   -7.3211583    551.84188  0.028386928  0.028447937            3 
 1621000   0.96583357   -7.3430962    552.07933  0.028381623  0.028440706            3 
 1622000    1.0010087   -7.3441133    550.58074  0.028287132  0.028433603            2 
 1623000    1.0108793   -7.3912431    550.22301  0.028251335  0.028426368            2 
 1624000   0.97303832   -7.3430455    552.26735  0.028338842  0.028419066            2 
 1625000    1.0014774   -7.3350249    552.06965  0.028311264  0.028411834            1 
 1626000    1.0219431   -7.3630005    551.92504  0.028286441  0.028404627            2 
 1627000   0.97640091   -7.3722552    551.28508  0.028236277  0.028397313            3 
 1628000    0.9820888   -7.3069764    551.69855  0.028240098  0.028390103            1 
 1629000   0.99297473     -7.33619    553.74904  0.028327657  0.028382766            2 
 1630000   0.96435554   -7.3345593    553.56828  0.028301037  0.028375458            4 
 1631000    0.9961145   -7.3671752    552.80635  0.028244755  0.028368188            3 
 1632000     1.012675   -7.3508159      553.614  0.028268689  0.028360975            3 
 1633000   0.99465379    -7.339482    555.26023  0.028335386  0.028353727            2 
 1634000    1.0237527   -7.3381829     554.0948  0.028258608  0.028346479            1 
 1635000   0.97852247   -7.3510503    553.13905  0.028192612  0.028339299            3 
 1636000   0.99015863   -7.3214782    555.40167  0.028290631  0.028332124            1 
 1637000    0.9982798   -7.3314094    555.37591  0.028272038  0.028324923            4 
 1638000   0.97468229   -7.3689504    554.15688  0.028192759  0.028317605            1 
 1639000   0.99415106   -7.3864221    554.18652  0.028177065  0.028310301            4 
 1640000   0.94921766   -7.3499068    554.18644   0.02815988  0.028302939            3 
 1641000   0.98613572   -7.3587155    555.73081  0.028221146  0.028295533            2 
 1642000    1.0041129   -7.3697272    556.38209  0.028237012   0.02828827            4 
 1643000    1.0115053   -7.3395342    555.74387  0.028187455  0.028280994            1 
 1644000    1.0098377   -7.3389679    555.40164  0.028152962  0.028273691            2 
 1645000   0.99535907   -7.3136881    556.92803  0.028213173  0.028266414            4 
 1646000   0.98528294   -7.3355996    555.77878  0.028137848  0.028259125            2 
 1647000    1.0051665   -7.3356362    558.98219  0.028282847  0.028251907            5 
 1648000   0.99125851    -7.330425    558.12334  0.028222256  0.028244657            1 
 1649000    1.0025081   -7.3723822    555.95465  0.028095545  0.028237285            3 
 1650000    1.0019599   -7.3337829    556.95754  0.028129169  0.028229904            2 
 1651000   0.98294204   -7.3247467    556.95104  0.028111803  0.028222527            2 
 1652000   0.97911447   -7.3572182    556.95622  0.028095047  0.028215176            1 
 1653000   0.97426745    -7.356324     557.0756   0.02808407  0.028207736            2 
 1654000   0.99133098   -7.3390631    558.44879  0.028136275  0.028200479            2 
 1655000     1.002594   -7.3480941     559.1088  0.028152508   0.02819328            1 
 1656000   0.99055007   -7.3629052    557.86547   0.02807294  0.028186057            1 
 1657000    0.9532466    -7.381025    558.12032  0.028068815  0.028178728            6 
 1658000    0.9851732    -7.368667    558.62595    0.0280773  0.028171439            2 
 1659000   0.99738186   -7.3465346     559.2621   0.02809233  0.028164281            2 
 1660000    0.9728971   -7.3553379    560.75165  0.028150183  0.028157194            2 
 1661000   0.99141556   -7.3562007    559.69766  0.028080356    0.0281501            1 
 1662000    0.9831764   -7.3586797    559.91408  0.028074312  0.028142979            2 
 1663000   0.97630266   -7.3203004    558.83818  0.028003517  0.028135932            1 
 1664000   0.97756484   -7.3353612    561.65441  0.028127725  0.028128905            2 
 1665000   0.99175212   -7.3483865    561.61751  0.028108985  0.028121856            2 
 1666000   0.99230884   -7.3384653     559.4953  0.027985959  0.028114769            7 
 1667000   0.98808988   -7.3391404    561.12464  0.028050622  0.028107703            2 
 1668000   0.99944664   -7.3333727    561.32155  0.028043642  0.028100677            1 
 1669000   0.97712551   -7.3580383    562.07683  0.028064551  0.028093538            2 
 1670000   0.99013319   -7.3770583    561.94688  0.028041262  0.028086467            1 
 1671000    1.0010033   -7.3529337    563.11258  0.028082614  0.028079322            1 
 1672000   0.97768544   -7.3489436    563.33967  0.028077136  0.028072216            2 
 1673000    1.0106938   -7.3271488    562.75391  0.028031177  0.028065209            4 
 1674000    0.9953822   -7.3438942    564.37754  0.028095258  0.028058266            1 
 1675000   0.98312039   -7.3691454    562.99884  0.028009893  0.028051248            2 
 1676000   0.99977896   -7.3458086    564.43122    0.0280644  0.028044239            2 
 1677000   0.99305937   -7.3395257    564.55871  0.028054001  0.028037271            2 
 1678000    1.0036554   -7.4018261    562.37836  0.027929001  0.028030204            3 
 1679000   0.99334423   -7.3759774    562.42475  0.027914669   0.02802302            2 
 1680000   0.98213109   -7.3777537    564.76103   0.02801394  0.028015946            4 
 1681000   0.98281503   -7.3757478    565.19949  0.028019011   0.02800898            4 
 1682000    0.9767542   -7.3467288    565.15255  0.028000027  0.028002076            1 
 1683000   0.95784397   -7.3571615    565.87023  0.028018926  0.027995156            3 
 1684000   0.98053488   -7.3507762    564.23064  0.027921152  0.027988135            2 
 1685000   0.97857765   -7.3353396    564.70065  0.027927827  0.027981164            2 
 1686000   0.97914023   -7.3432559    565.87846  0.027969477  0.027974154            2 
 1687000    0.9831231   -7.3508342     566.5124  0.027984213  0.027967072            1 
 1688000     1.015091    -7.334394    565.81864  0.027933385  0.027960115            1 
 1689000   0.97167559   -7.3654779    565.52935  0.027902573  0.027953201            4 
 1690000   0.98746497   -7.3498042    564.54184  0.027837369  0.027946114            2 
 1691000   0.98145775   -7.3436578    567.15886  0.027949875  0.027939124            4 
 1692000   0.97441296    -7.357115    566.08981  0.027880704  0.027932209            2 
 1693000   0.97585504   -7.3909085    565.81132  0.027850527  0.027925226            2 
 1694000    0.9819067    -7.352694    566.90339   0.02788781  0.027918299            2 
 1695000    0.9955811   -7.3508059    566.96346   0.02787431  0.027911387            3 
 1696000   0.95978472   -7.3417153    568.75776  0.027946038  0.027904447            4 
 1697000   0.98588845   -7.3691841    566.81022  0.027833933  0.027897432            3 
 1698000   0.95655043    -7.370535    567.86058   0.02786909  0.027890452            3 
 1699000   0.98509827   -7.3407975    568.97497  0.027907346  0.027883527            2 
 1700000    1.0063355   -7.3975184    568.49631  0.027867466  0.027876561            2 
 1701000   0.98144404   -7.3596622    567.93159  0.027823417  0.027869622            4 
 1702000   0.97829015   -7.3538008    569.12729  0.027865614   0.02786272            2 
 1703000   0.98795288   -7.3668104    569.21128  0.027853361  0.027855804            2 
 1704000    1.0033485   -7.3276521    570.64063  0.027906917  0.027848844            1 
 1705000   0.98293826   -7.3570178    569.81041  0.027849971  0.027841876            4 
 1706000   0.97812243   -7.3450616     569.4811   0.02781756  0.027834851            2 
 1707000   0.96114962   -7.3437588    570.61539  0.027856639  0.027827883            3 
 1708000   0.97280599   -7.3760896    568.87977  0.027755648  0.027820947            1 
 1709000   0.95526178   -7.3404727    571.98756  0.027890948    0.0278141            3 
 1710000   0.95943421   -7.3691161    572.58086  0.027903551  0.027807327            3 
 1711000   0.98515745   -7.3526641    571.53773  0.027836437  0.027800336            1 
 1712000   0.97235887   -7.3537874     569.7661  0.027733942    0.0277935            1 
 1713000   0.99790586   -7.3531508    570.46408  0.027751706  0.027786612            1 
 1714000   0.97392616    -7.346245    572.31191  0.027825355  0.027779796            3 
 1715000   0.98153944   -7.3980716    570.08636  0.027700989  0.027772985            2 
 1716000   0.99465863   -7.3918239    571.79058  0.027767608  0.027766253            1 
 1717000   0.97775446   -7.3828776      572.063  0.027764658  0.027759363            3 
 1718000   0.96960052   -7.3622389    574.27016  0.027855557  0.027752627            1 
 1719000   0.97069499   -7.3170605    573.39134  0.027796749   0.02774582            1 
 1720000   0.97937469   -7.3313666    574.46163  0.027832443   0.02773908            4 
 1721000   0.98094814   -7.4061553    572.72435  0.027732149  0.027732249            5 
 1722000    0.9704957   -7.3821229     572.8514  0.027722193   0.02772541            3 
 1723000   0.99269602   -7.3789074    574.83201  0.027801896  0.027718519            3 
 1724000    1.0091879    -7.391183    572.06072  0.027651814  0.027711694            3 
 1725000   0.97012493   -7.3642679    576.51487   0.02785096  0.027704976            2 
 1726000   0.98690374    -7.389455    573.69612  0.027698731  0.027698138            1 
 1727000   0.98602821   -7.3888932    573.83512    0.0276894  0.027691379            3 
 1728000   0.97861102   -7.3801216     575.2371  0.027740987   0.02768456            3 
 1729000   0.98917966    -7.348227    574.24238  0.027676999  0.027677826            3 
 1730000   0.95988467   -7.3884582    574.24313  0.027661037  0.027671149            1 
 1731000    0.9714023   -7.3873967    575.32224  0.027697008  0.027664391            1 
 1732000   0.97715356   -7.3901032    574.48948  0.027640949  0.027657577            2 
 1733000   0.96144162   -7.3776309    575.00549  0.027649812  0.027650727            3 
 1734000   0.97283244   -7.3915041    576.36192  0.027699054  0.027643989            3 
 1735000   0.95237169    -7.356108    576.79823  0.027704046  0.027637214            3 
 1736000   0.95168578   -7.3751381    576.38094  0.027668056  0.027630534            2 
 1737000   0.94777688   -7.3759255    575.85843  0.027627059  0.027623681            3 
 1738000    0.9845128   -7.3728123    577.40204  0.027685177  0.027616721            2 
 1739000   0.96635208   -7.3803328    575.54904   0.02758046  0.027609874            2 
 1740000   0.97275013   -7.3760679    576.71634  0.027620514  0.027603033            3 
 1741000    0.9812126   -7.3994805    576.90086  0.027613482  0.027596162            2 
 1742000   0.96562405    -7.358895    577.11135  0.027607699  0.027589341            3 
 1743000    0.9528183   -7.3599997    577.08363  0.027590535  0.027582522            3 
 1744000   0.97026637   -7.3999678    577.80148  0.027609016  0.027575724            2 
 1745000   0.98480153   -7.3919966    577.73782  0.027590154  0.027568849            4 
 1746000   0.96570619   -7.3745965    576.90393  0.027534552  0.027561866            1 
 1747000   0.98088946   -7.4010313    577.80929  0.027561977  0.027554905            2 
 1748000   0.97152385   -7.3986734    577.13285  0.027513961  0.027548006            1 
 1749000   0.96869183   -7.3860963    578.91044  0.027582925  0.027541017            2 
 1750000   0.96713359   -7.4055811    577.83618  0.027516009  0.027534091            1 
 1751000   0.97877567   -7.3398742    578.30261  0.027522492  0.027527173            4 
 1752000   0.98055975   -7.3785821    577.29709  0.027458956  0.027520251            3 
 1753000    0.9545693     -7.41563    577.15346  0.027436464  0.027513152            1 
 1754000   0.98155849    -7.379708    579.92209  0.027552361  0.027506115            3 
 1755000   0.98955935   -7.3836108    579.74718  0.027528356   0.02749921            2 
 1756000   0.97173528   -7.4036881    579.35554  0.027494093  0.027492241            2 
 1757000   0.96916036   -7.3640184    580.27225  0.027521924  0.027485286            1 
 1758000   0.98225599   -7.4058646    578.31017  0.027413262   0.02747841            1 
 1759000   0.94915118   -7.4066132    579.86519  0.027471347  0.027471517            7 
 1760000   0.97252366   -7.3689285    580.65554   0.02749316  0.027464458            1 
 1761000    0.9785213   -7.3924932    580.44527  0.027467597  0.027457422            2 
 1762000   0.95915902   -7.3977905    581.03724  0.027480006  0.027450505            1 
 1763000   0.97945772   -7.4056858    581.55902  0.027489082   0.02744366            1 
 1764000   0.96833745   -7.3972495    581.24908  0.027458857  0.027436795            2 
 1765000   0.96119692   -7.3534535    582.93087  0.027522704  0.027430006            3 
 1766000   0.97078838   -7.3530785    583.79564  0.027547926   0.02742326            2 
 1767000   0.98011148   -7.3733711    582.78734  0.027484783  0.027416508            4 
 1768000   0.96243503     -7.38914    580.06479  0.027340912  0.027409719            3 
 1769000   0.96684668    -7.408656    580.70194  0.027355471  0.027402693            1 
 1770000    0.9665368   -7.3764934    583.65929  0.027479251  0.027395807            1 
 1771000   0.95802359   -7.4255817    582.11929  0.027391271  0.027388897            5 
 1772000   0.96831392   -7.3901903    580.48884  0.027299136  0.027381986            2 
 1773000   0.94962975   -7.3814204    584.31204  0.027463435  0.027375002            1 
 1774000   0.97608425   -7.3800093    582.88318  0.027380833  0.027368193            2 
 1775000   0.95932337   -7.3961671    583.02199  0.027371925  0.027361342            3 
 1776000    0.9453915   -7.4023581    583.14898  0.027362471  0.027354441            4 
 1777000   0.97176541   -7.3742883    584.64488  0.027417224  0.027347542            2 
 1778000   0.97006166   -7.3897014    582.99243  0.027324354  0.027340655            2 
 1779000   0.94867625   -7.3951389    581.88782  0.027257252  0.027333719            1 
 1780000   0.95946304   -7.4075608    583.61881  0.027322978  0.027326841            2 
 1781000   0.96255443   -7.3952889    584.76267  0.027361158  0.027320013            1 
 1782000   0.96541707   -7.3953195    584.86648  0.027350658  0.027313228            1 
 1783000   0.96223545   -7.3950671    586.19722  0.027397514  0.027306467            1 
 1784000   0.96408733   -7.3965344    585.86188  0.027366493  0.027299659            2 
 1785000   0.96710769   -7.4187285    584.75302  0.027299394  0.027292866            2 
 1786000   0.95658161   -7.3936059    585.85017  0.027335301  0.027286215            1 
 1787000   0.97313736   -7.4090841    587.11292   0.02737889  0.027279659            1 
 1788000   0.96494099   -7.4053877    585.94676  0.027309226  0.027273019            2 
 1789000   0.98040965   -7.3898017    587.22553  0.027353528  0.027266451            3 
 1790000   0.98307973   -7.3457631    588.89449  0.027415945  0.027260025            3 
 1791000   0.94631925   -7.3992016    588.87994   0.02739996  0.027253595            2 
 1792000   0.96195083   -7.4274504    588.02699  0.027345005  0.027247082            3 
 1793000   0.96608123   -7.4043562     587.7088  0.027314965  0.027240553            3 
 1794000   0.95059201   -7.3718537    588.43151  0.027333311   0.02723394            2 
 1795000   0.95102748    -7.414989     587.3797  0.027269252  0.027227345            2 
 1796000   0.96217368   -7.3856469    588.08487  0.027286789   0.02722073            1 
 1797000   0.95943927   -7.3707257    590.08733  0.027364465  0.027214131            2 
 1798000   0.97580541   -7.3974237    588.26253   0.02726467  0.027207551            3 
 1799000   0.96876711   -7.4162033    589.26688  0.027296039  0.027200902            2 
 1800000   0.94774627   -7.4185577    588.85206  0.027261669  0.027194235            1 
 1801000   0.96458585   -7.4036431     590.5675  0.027325907  0.027187602            2 
 1802000   0.98010322   -7.3970672    590.38492  0.027302299  0.027181011            2 
 1803000   0.95024159   -7.3984519    589.13013  0.027229161  0.027174357            4 
 1804000   0.96502636    -7.381138     590.9238  0.027296924  0.027167696            2 
 1805000   0.96046924   -7.3753861    590.10034  0.027243783  0.027161144            4 
 1806000   0.95029816   -7.3827908    590.44841  0.027244759  0.027154562            1 
 1807000   0.96161419   -7.4433067    590.02178  0.027210006  0.027147827            3 
 1808000   0.96700543   -7.4302923     591.1539  0.027247138  0.027141085            1 
 1809000    0.9607838   -7.4099893    589.88074  0.027173426  0.027134432            2 
 1810000   0.95398583   -7.4015168    590.31552  0.027178431  0.027127769            1 
 1811000    0.9572058   -7.4241553    591.04736  0.027197099  0.027121104            2 
 1812000   0.95513271   -7.4158639    592.02505  0.027227053   0.02711442            2 
 1813000   0.95919635   -7.4414146    591.27758  0.027177679  0.027107686            1 
 1814000   0.97025469   -7.3948887    591.99181  0.027195508  0.027100966            4 
 1815000   0.93054139   -7.4255883    590.65505  0.027119148  0.027094316            1 
 1816000   0.96117798   -7.4029395    593.62617  0.027240555  0.027087652            1 
 1817000   0.95528454   -7.4102597    592.73991  0.027184916  0.027081039            3 
 1818000   0.96203039   -7.4048857    592.87978  0.027176374  0.027074426            3 
 1819000   0.97687759   -7.4356994    591.52733  0.027099475  0.027067812            2 
 1820000   0.95730954   -7.4172373    593.13788  0.027158328  0.027061226            1 
 1821000   0.94862262   -7.4358335    592.97793  0.027136094  0.027054548            4 
 1822000   0.95892836   -7.4126989    593.19416  0.027131091   0.02704791            3 
 1823000   0.97354118   -7.4212206    593.36496  0.027124015  0.027041222            5 
 1824000   0.95009216   -7.4077154    594.86114  0.027177501  0.027034562            3 
 1825000   0.95542376   -7.3969098    593.68871  0.027109074  0.027028034            3 
 1826000    0.9480693      -7.3887    593.89292  0.027103547  0.027021512            2 
 1827000   0.96754134   -7.4204409    593.47228  0.027069526  0.027014841            1 
 1828000   0.95993233   -7.4126896    594.91752  0.027120602  0.027008179            2 
 1829000    0.9624266   -7.4251945    593.34027  0.027033911  0.027001564            5 
 1830000   0.96465884   -7.4315989      593.687  0.027034927   0.02699501            2 
 1831000   0.93690912   -7.3906534    596.06534  0.027128406  0.026988425            1 
 1832000   0.94151132   -7.4125042    596.82288  0.027148057   0.02698197            2 
 1833000   0.95502157   -7.4147165    596.40974  0.027114464  0.026975408            3 
 1834000   0.94277856    -7.417778    597.83848  0.027164599  0.026968852            2 
 1835000   0.95016773   -7.3538082    598.29889  0.027170703  0.026962403            2 
 1836000   0.96467185    -7.434699    597.56182   0.02712245  0.026956004            2 
 1837000   0.95939361   -7.3928398    597.64658   0.02711153  0.026949481            2 
 1838000   0.93764325   -7.4067929    597.63716  0.027096353  0.026942984            6 
 1839000   0.95630995   -7.4220945    597.66776  0.027083005  0.026936443            1 
 1840000   0.94728122   -7.4208637     598.3001  0.027096925  0.026929878            4 
 1841000   0.95749296   -7.3787428     598.3331    0.0270837  0.026923335            3 
 1842000   0.97005344    -7.423648    595.52624  0.026942013   0.02691684            4 
 1843000   0.97288774   -7.4207157    595.61362  0.026931345  0.026910237            3 
 1844000   0.95313965   -7.4100687    598.11951  0.027029985  0.026903719            3 
 1845000   0.93872718   -7.3975659    598.76946  0.027044691  0.026897269            1 
 1846000   0.93288423   -7.4351826    597.86753  0.026989325  0.026890685            1 
 1847000   0.94569571   -7.4434793    598.00079  0.026980725  0.026884074            2 
 1848000   0.93832836   -7.4278125    598.14087  0.026972442  0.026877557            2 
 1849000   0.93480302   -7.4176562    598.64458  0.026980556  0.026871029            2 
 1850000   0.96694897   -7.4186869    598.90242  0.026977587  0.026864463            2 
 1851000   0.95042891   -7.3879288    598.92648  0.026964095  0.026857905            1 
 1852000   0.97420625   -7.4222006     597.8881  0.026902812  0.026851286            2 
 1853000   0.96056463   -7.4098166    600.25373  0.026994681  0.026844705            3 
 1854000   0.96041625   -7.4013149    599.20619  0.026933036  0.026838203            3 
 1855000   0.94818089   -7.3996158    600.33921  0.026969416  0.026831635            1 
 1856000   0.94406406   -7.4141604    600.46779  0.026960659  0.026825068            2 
 1857000   0.95276982   -7.4423638    598.82996  0.026872642  0.026818512            2 
 1858000    0.9377863   -7.4421067    601.01532  0.026956195  0.026811854            2 
 1859000   0.96937983   -7.4217854    600.93919  0.026938282  0.026805286            1 
 1860000   0.96159028   -7.4284471    600.11375  0.026886817  0.026798713            2 
 1861000   0.94047173   -7.4353967    599.02485   0.02682361  0.026792099            3 
 1862000    0.9580777   -7.4281684    599.29826   0.02682144  0.026785415            3 
 1863000   0.96596525   -7.4153312    600.51831  0.026861617  0.026778798            1 
 1864000   0.95319384   -7.4654998     600.5327  0.026847849  0.026772118            3 
 1865000   0.96307482   -7.4392725    600.62724  0.026837678  0.026765413            2 
 1866000   0.95682774    -7.431183    599.80632  0.026786634  0.026758659            1 
 1867000   0.96359201   -7.4314473    600.48206  0.026802449  0.026751965            2 
 1868000   0.94771112   -7.4309218     600.8253  0.026803413  0.026745349            2 
 1869000   0.96750476   -7.4337616    601.45432  0.026817118   0.02673869            3 
 1870000    0.9576288   -7.4217665    600.57798  0.026763724  0.026731923            4 
 1871000   0.93967962   -7.4408029    601.06446  0.026771088  0.026725138            1 
 1872000   0.93756211   -7.4345169    601.54662  0.026778251   0.02671842            2 
 1873000   0.96516542   -7.4226088     602.1996  0.026793006   0.02671179            3 
 1874000   0.94288951   -7.4258707    602.34599  0.026785218  0.026705211            1 
 1875000   0.97727879   -7.4059565    602.67829  0.026785702  0.026698562            2 
 1876000   0.95294793   -7.4415579    603.25552  0.026797065  0.026691979            2 
 1877000   0.95691449   -7.4390302    602.98218  0.026770653  0.026685307            2 
 1878000   0.96620308   -7.4247874    603.05999  0.026759851  0.026678722            6 
 1879000   0.96076584    -7.428467     602.4778  0.026719789  0.026672093            2 
 1880000   0.95820593    -7.411345    604.74442  0.026806047  0.026665487            4 
 1881000   0.95254613   -7.4468896     603.6934  0.026745233  0.026658997            2 
 1882000   0.96673599   -7.4331981    604.30871  0.026758267  0.026652483            2 
 1883000   0.93481198   -7.4646167    604.90873  0.026770611  0.026645894            2 
 1884000   0.94461488   -7.4156337    604.59062  0.026742331  0.026639255            1 
 1885000   0.94979237   -7.4467081    603.43948  0.026677254  0.026632633            3 
 1886000   0.95028071    -7.436589     606.8356  0.026813167  0.026626023            4 
 1887000   0.93947925   -7.4316841     605.6483  0.026746524  0.026619506            3 
 1888000   0.93990967   -7.4410299    606.17642  0.026755668  0.026613004            1 
 1889000   0.95549415   -7.4229518    606.62949  0.026761491  0.026606528            3 
 1890000   0.96477683   -7.4107331     606.8276  0.026756067  0.026599975            2 
 1891000   0.95988985   -7.4316789    605.84314  0.026698534  0.026593434            2 
 1892000   0.94141424   -7.4177967    606.83458  0.026728091  0.026586896            4 
 1893000   0.95604227   -7.4425603    606.67158  0.026706796  0.026580356            3 
 1894000   0.95554542   -7.3866068    608.59533  0.026777338  0.026573898            1 
 1895000   0.95198205   -7.4342737    607.49747  0.026714928  0.026567432            2 
 1896000   0.95244487   -7.4347954    607.69262  0.026709415  0.026560894            2 
 1897000   0.91534887   -7.4399052    607.68025  0.026694792  0.026554365            3 
 1898000   0.94627548   -7.4298359    606.85581   0.02664453   0.02654787            3 
 1899000   0.92361157   -7.4482392    606.53363  0.026616361  0.026541301            4 
 1900000   0.95246698   -7.4306031    606.59162  0.026604896  0.026534687            2 
 1901000   0.92175454   -7.4051231    607.78631  0.026643272  0.026528164            5 
 1902000   0.96151656    -7.433998    607.41513  0.026613001  0.026521606            1 
 1903000   0.95842273   -7.4225209    608.26934  0.026636423  0.026514967            2 
 1904000   0.94681403   -7.4338493    607.53007  0.026590076   0.02650833            2 
 1905000   0.93767577   -7.4588957    608.05799  0.026599212  0.026501737            3 
 1906000   0.93044248   -7.4113609    607.97351  0.026581563  0.026495071            2 
 1907000   0.93917009   -7.4424558    607.89706  0.026564283  0.026488444            3 
 1908000    0.9461788   -7.4462918    607.43131  0.026530019  0.026481775            2 
 1909000   0.95211382   -7.4728296    607.36452  0.026513206   0.02647507            2 
 1910000   0.94989905   -7.4234475    607.70546    0.0265142  0.026468362            4 
 1911000   0.94603637   -7.4251686     610.6617  0.026629239  0.026461754            1 
 1912000   0.94324456   -7.4257898    608.09135  0.026503284   0.02645515            3 
 1913000   0.96668896   -7.4359358    607.92285  0.026482089  0.026448457            1 
 1914000   0.94220664   -7.4296084     608.3394   0.02648639  0.026441739            5 
 1915000    0.9391003   -7.4444949    607.87137  0.026452192  0.026434946            5 
 1916000   0.93356844   -7.4653252    608.14425  0.026450254  0.026428129            1 
 1917000   0.92911852   -7.4541856      607.907  0.026426143  0.026421316            2 
 1918000   0.94582071   -7.4164339     608.5476  0.026440198  0.026414492            3 
 1919000    0.9373674   -7.4581209    608.46462  0.026422817  0.026407652            3 
 1920000   0.91944671   -7.4658611    607.72254  0.026376846  0.026400866            2 
 1921000   0.95286586   -7.4442738    610.16452  0.026469049  0.026394122            2 
 1922000   0.93246924   -7.4605303    610.03119  0.026449497  0.026387398            1 
 1923000    0.9575021   -7.4454792    609.92553  0.026431164  0.026380615            1 
 1924000   0.96351724   -7.4602791    609.76156  0.026410324  0.026373891            4 
 1925000   0.94256637   -7.4752366    609.00456  0.026363834  0.026367069            4 
 1926000   0.94134043   -7.4499131    609.53267  0.026372996  0.026360235            2 
 1927000   0.95536591   -7.4580709    610.87787  0.026417483  0.026353328            1 
 1928000   0.95450579    -7.449941    609.33785  0.026337217  0.026346535            3 
 1929000   0.93595393   -7.4298833    609.22868  0.026318848  0.026339727            3 
 1930000   0.95321628   -7.4386279    610.24431  0.026349063  0.026332929            2 
 1931000   0.97249256   -7.4538318    612.46178  0.026431114  0.026326148            2 
 1932000   0.93516116   -7.4662929    611.29418  0.026367071  0.026319388            2 
 1933000   0.95245916    -7.470309    611.68414  0.026370242   0.02631261            3 
 1934000    0.9636877   -7.4272987    611.70847  0.026357656  0.026305914            1 
 1935000    0.9293948   -7.4678355    611.40982  0.026331172   0.02629921            2 
 1936000   0.93200473   -7.4660401    610.99492  0.026299713  0.026292435            2 
 1937000    0.9144857   -7.4740587    611.96493  0.026327866  0.026285692            4 
 1938000   0.92661629   -7.4421905     613.5404  0.026382026  0.026279078            1 
 1939000    0.9454305   -7.4529728    613.68169  0.026374492  0.026272369            3 
 1940000   0.95894795   -7.4490407    613.50609  0.026353354   0.02626567            3 
 1941000   0.96498062    -7.440452    613.92362  0.026357703  0.026258978            3 
 1942000   0.95134242   -7.4259318    613.82744  0.026340003  0.026252341            1 
 1943000   0.95668729   -7.4567107    613.74234  0.026322797  0.026245586            1 
 1944000   0.94118382   -7.4698513    612.00404  0.026234741  0.026238758            1 
 1945000   0.93409523    -7.479895     613.0039  0.026264092  0.026231934            3 
 1946000   0.93783582    -7.466001    613.48813  0.026271331  0.026225133            1 
 1947000   0.94086798   -7.4626504    612.83777  0.026230002  0.026218353            2 
 1948000   0.94325869   -7.4573967    613.82577  0.026258803    0.0262116            2 
 1949000   0.95330947   -7.4644598    613.36859  0.026225782    0.0262048            1 
 1950000   0.94537603   -7.4227595    616.73041     0.026356   0.02619812            5 
 1951000   0.94618138   -7.4806373    612.26134  0.026151604  0.026191343            2 
 1952000    0.9187689   -7.4614162    612.92381  0.026166488  0.026184459            2 
 1953000   0.92887868    -7.454194    612.94196  0.026153864  0.026177585            4 
 1954000   0.93612719   -7.4463521    614.56993  0.026209908  0.026170792            1 
 1955000   0.95085717   -7.4346465    615.94553  0.026255137  0.026164114            2 
 1956000   0.95489055   -7.4323914    614.86419  0.026195645  0.026157399            1 
 1957000   0.93704158   -7.4701052     614.6051  0.026171227  0.026150602            1 
 1958000   0.92055175   -7.4654103    615.35639  0.026189836  0.026143836            2 
 1959000    0.9110188    -7.470174    614.04668  0.026120754  0.026137001            4 
 1960000   0.94410457   -7.4548511    615.60357  0.026173621  0.026130236            2 
 1961000   0.92848372   -7.4564828    615.10818  0.026139222  0.026123468            4 
 1962000   0.95155832   -7.4352758    616.15459  0.026170345  0.026116732            2 
 1963000   0.91987244   -7.4615126    616.59133  0.026175553  0.026110019            3 
 1964000   0.94208958   -7.4687115    616.77043  0.026169825  0.026103233            3 
 1965000   0.94151183   -7.4533905    616.99768  0.026166144  0.026096457            4 
 1966000   0.93136942   -7.4445808    615.82707  0.026103216  0.026089684            2 
 1967000   0.93218616   -7.4837403    615.15176  0.026061335  0.026082891            2 
 1968000   0.92346556   -7.4753286    615.92709  0.026080923  0.026076165            1 
 1969000   0.92793125   -7.4701794    615.86378  0.026064998  0.026069356            1 
 1970000   0.93420546   -7.4514239    615.51943  0.026037201  0.026062542            2 
 1971000     0.919991   -7.5050937    617.31455  0.026099888  0.026055715            4 
 1972000   0.95078741   -7.4641362    615.49791  0.026009885  0.026048962            5 
 1973000   0.94865031   -7.4510162    619.12144  0.026149748  0.026042157            2 
 1974000   0.93986797   -7.4799408    618.35087  0.026103971  0.026035377            2 
 1975000   0.94309072   -7.4649289    617.81886  0.026068306  0.026028595            3 
 1976000   0.93153637   -7.4288317    619.56117  0.026128592  0.026021834            5 
 1977000   0.92508981   -7.4818493    617.47247  0.026027334    0.0260151            1 
 1978000   0.91959769    -7.467254    618.54531  0.026059374  0.026008376            2 
 1979000   0.92601788   -7.4637973    617.27628  0.025992769  0.026001662            2 
 1980000   0.93160396   -7.4875921    617.95748  0.026008311  0.025994867            1 
 1981000   0.92764776   -7.5181981    617.20504   0.02596353  0.025988011            3 
 1982000   0.93089375   -7.4670314    619.36003  0.026041037  0.025981172            5 
 1983000   0.94148165   -7.4459844    620.48385  0.026075132  0.025974438            2 
 1984000   0.91395416    -7.474489    619.31424  0.026012863   0.02596766            4 
 1985000   0.94144004   -7.4496751    618.85263  0.025980379  0.025960838            2 
 1986000   0.93757327   -7.4993173    619.66069  0.026001204   0.02595408            2 
 1987000   0.94661505   -7.4845325    617.76856  0.025908764   0.02594728            1 
 1988000   0.92648197   -7.4748291    620.07959  0.025992605  0.025940496            1 
 1989000    0.9458722   -7.4551986    622.53103  0.026082245  0.025933804            1 
 1990000    0.9183055    -7.442512    620.85998  0.025999162  0.025927114            3 
 1991000   0.94068257   -7.4490762    622.36345  0.026049031  0.025920446            2 
 1992000   0.93448304   -7.4600699    620.02062  0.025937944  0.025913755            1 
 1993000   0.93430297   -7.4719346    620.61755  0.025949889  0.025907043            3 
 1994000   0.95199702   -7.4658625    621.38062  0.025968765   0.02590032            3 
 1995000   0.93533807   -7.4850104    620.55458  0.025921244   0.02589357            2 
 1996000   0.92226947   -7.4802558    620.64541  0.025912049  0.025886688            3 
 1997000   0.93647793   -7.5047302    620.74275  0.025903136   0.02587979            6 
 1998000   0.91800852   -7.4893139    619.91794   0.02585577  0.025872933            6 
 1999000   0.93259988    -7.478007    620.38369  0.025862252  0.025866051            3 
 2000000   0.92707036   -7.5007518    620.43888   0.02585162  0.025859184            3 
 2001000    0.9451185   -7.4762983    621.15364  0.025868468  0.025852302            2 
 2002000   0.91942608   -7.4778362    622.42565  0.025908494   0.02584549            3 
 2003000   0.94420073   -7.4927867    619.77107  0.025785117  0.025838631            3 
 2004000     0.924746   -7.4873094    622.50697  0.025886018  0.025831794            1 
 2005000   0.93165039   -7.4895155    621.07214  0.025813472   0.02582498            2 
 2006000   0.94843504   -7.4585368    621.52197  0.025819291  0.025818088            2 
 2007000   0.93474812   -7.4905184    622.60755  0.025851501  0.025811243            3 
 2008000   0.92671861    -7.495374    623.67325  0.025882854  0.025804392            2 
 2009000   0.91884716   -7.4788818    622.25469  0.025811129  0.025797556            2 
 2010000   0.92938119   -7.4970295    621.07665  0.025749447  0.025790701            2 
 2011000   0.92705765   -7.4847637       622.61  0.025800182   0.02578389            2 
 2012000   0.93137407    -7.456173     624.3581  0.025859762  0.025777133            3 
 2013000   0.91752468   -7.4572414    623.42624  0.025808339  0.025770445            5 
 2014000   0.92792807   -7.4573412    625.64684  0.025887406   0.02576379            2 
 2015000   0.92393901   -7.4700506    624.89821  0.025843599  0.025757103            2 
 2016000   0.93710432   -7.4724254    625.72679  0.025865029   0.02575049            4 
 2017000   0.91579908   -7.4975418    623.37214  0.025754922  0.025743859            5 
 2018000    0.9177783   -7.4582713    624.97252  0.025808247  0.025737204            4 
 2019000   0.93342964    -7.485324    624.81812  0.025789092  0.025730538            2 
 2020000   0.93697306   -7.5111102    624.00706  0.025742865  0.025723854            2 
 2021000   0.95033215   -7.5114965    623.69629  0.025717314  0.025717054            1 
 2022000   0.92049972   -7.4800129    626.31506  0.025812523  0.025710323            2 
 2023000   0.91738653    -7.460307    626.06482  0.025789455  0.025703668            1 
 2024000   0.91983268   -7.4710782    627.53512   0.02583725  0.025697055            2 
 2025000   0.91662883   -7.4737783    626.81856  0.025795002  0.025690426            2 
 2026000   0.92471062   -7.4737943    627.21966  0.025798768  0.025683871            2 
 2027000   0.92035374   -7.5057304    627.61322  0.025802221  0.025677267            2 
 2028000   0.93338152    -7.505907    626.78594  0.025755504  0.025670599            2 
 2029000   0.93342318   -7.5015673    625.67774  0.025697295  0.025663914            3 
 2030000   0.91894198    -7.490123    628.05152  0.025782082  0.025657282            2 
 2031000   0.92352474   -7.4721494    627.77232  0.025757932  0.025650658            1 
 2032000    0.9124714   -7.4662308    626.33408  0.025686273  0.025644001            5 
 2033000   0.92145708    -7.504707    626.92053  0.025697677  0.025637338            2 
 2034000   0.91942424   -7.4862671    627.13821  0.025693962  0.025630747            4 
 2035000   0.94178978   -7.5127256    628.93725  0.025755006  0.025624125            3 
 2036000    0.9421893   -7.5162646    628.58315  0.025727863  0.025617543            3 
 2037000    0.9364598   -7.4932882    627.89511  0.025687085  0.025610921            2 
 2038000   0.92009127   -7.4963447    629.32954  0.025733135  0.025604334            1 
 2039000   0.93343713   -7.4937598    627.35155  0.025639674  0.025597712            1 
 2040000   0.92718562   -7.5130622    630.03069  0.025736548  0.025591137            2 
 2041000   0.93237869   -7.5080515    628.54515  0.025663284  0.025584537            2 
 2042000   0.92385646   -7.5083256    629.49543  0.025689497     0.025578            3 
 2043000   0.92201693   -7.5030632    629.02467   0.02565772  0.025571458            3 
 2044000   0.92529059   -7.5112543    630.09416  0.025688771  0.025564962            2 
 2045000   0.92835902   -7.4767462      630.994  0.025712877  0.025558503            1 
 2046000   0.92008732   -7.4598728    630.93477  0.025697897  0.025552028            2 
 2047000   0.93352452   -7.4637833    630.81084  0.025680298  0.025545599            2 
 2048000    0.9078655   -7.4974295    630.45927  0.025653453  0.025539197            1 
 2049000   0.92478927   -7.4869959    630.92064  0.025659697   0.02553272            2 
 2050000   0.92700978   -7.5110624    632.49547  0.025711198  0.025526298            2 
 2051000   0.90209336   -7.4910092    631.00239  0.025637997  0.025519807            2 
 2052000   0.92355748   -7.4977973    631.21785  0.025634253  0.025513288            8 
 2053000   0.94031349   -7.4691417    632.53206  0.025675112  0.025506834            3 
 2054000   0.92720938   -7.4668501    632.74391  0.025671207  0.025500463            6 
 2055000   0.91302279   -7.4983209    633.39153  0.025684977  0.025494057            2 
 2056000   0.91242118   -7.5012218    634.52205  0.025718306  0.025487727            3 
 2057000   0.92605957   -7.4922849    634.58762   0.02570846   0.02548134            1 
 2058000   0.90497239    -7.456793    634.88537  0.025708024  0.025474983            2 
 2059000   0.92138623   -7.4680633    634.02983  0.025660913  0.025468727            3 
 2060000    0.9228699   -7.5226096    632.54199  0.025588268  0.025462394            2 
 2061000   0.92808997   -7.5211505    633.11732  0.025599115  0.025456037            2 
 2062000   0.91432809   -7.5187314    633.12517  0.025587018  0.025449648            2 
 2063000   0.91093474    -7.462931    635.08054  0.025653601  0.025443303            2 
 2064000   0.90900294   -7.4716477    634.46531  0.025616332  0.025436987            2 
 2065000   0.89554306   -7.5040553    633.96673  0.025583807  0.025430671            2 
 2066000   0.90778995    -7.507536    633.71762  0.025561375  0.025424285            3 
 2067000   0.91877449   -7.5178763    633.62273  0.025545184  0.025417864            1 
 2068000   0.92617221   -7.4715077    635.00697  0.025588611  0.025411491            3 
 2069000    0.9051632   -7.4871104    636.12136  0.025621128  0.025405087            1 
 2070000   0.91814026   -7.5170162    634.35655  0.025537703  0.025398673            2 
 2071000   0.91074476   -7.5126622     633.8564  0.025505247   0.02539222            2 
 2072000   0.93045869   -7.5051571    633.75556  0.025488882   0.02538577            2 
 2073000   0.91278774   -7.5068418    634.33764  0.025499985  0.025379303            1 
 2074000   0.91082303   -7.4679184    635.24842  0.025524286  0.025372794            2 
 2075000   0.91594724   -7.5047102    633.95345  0.025459978   0.02536632            1 
 2076000   0.91726712   -7.5090255    635.36982  0.025504569  0.025359781            3 
 2077000   0.92463236   -7.5364173    633.97328  0.025436257  0.025353297            2 
 2078000   0.90958617   -7.5106315     635.3018  0.025477294  0.025346774            1 
 2079000   0.92032477   -7.5112191      635.173  0.025459876    0.0253403            4 
 2080000   0.93506951   -7.5150279    635.94289  0.025478481  0.025333796            4 
 2081000   0.92337075   -7.5143417    636.13941  0.025474107  0.025327222            2 
 2082000   0.92666511   -7.5193397    637.24144  0.025505981  0.025320713            4 
 2083000   0.91992261    -7.465755    637.15384  0.025490232  0.025314261            2 
 2084000   0.91070838   -7.4966897    637.15009  0.025477851  0.025307744            4 
 2085000   0.92439866   -7.4954627    638.09618  0.025503444   0.02530126            2 
 2086000   0.92887288   -7.5153281    636.09266   0.02541118  0.025294823            1 
 2087000   0.92399625   -7.5139282    636.44538  0.025413088  0.025288381            1 
 2088000   0.91902084   -7.5060018    637.72828  0.025452118  0.025281839            2 
 2089000   0.91419356   -7.4893757    636.54654  0.025392793  0.025275336            3 
 2090000   0.89188595   -7.4916271    637.85754  0.025432916  0.025268852            3 
 2091000    0.9114005   -7.5138595    635.63038  0.025331993  0.025262241            2 
 2092000   0.89762664   -7.4837021    637.12445    0.0253794  0.025255631            2 
 2093000   0.92621732    -7.537283    635.72733  0.025311647  0.025248994            3 
 2094000   0.91445855   -7.5093363    636.07238  0.025313291  0.025242319            2 
 2095000   0.90662067   -7.5164488    637.80781  0.025370239  0.025235688            3 
 2096000   0.92162882   -7.4970358    635.78909  0.025277874  0.025229003            1 
 2097000   0.91283636   -7.5141557     637.4135  0.025330373  0.025222356            2 
 2098000   0.93603371   -7.5172194    637.17512  0.025308831  0.025215706            3 
 2099000   0.91484113   -7.5238259    637.52909  0.025310826  0.025209084            7 
 2100000   0.92477748   -7.4902104    637.21649  0.025286369   0.02520245            2 
 2101000   0.91222598   -7.5057443    637.68644  0.025292973   0.02519578            2 
 2102000     0.926311   -7.5225055    636.03092  0.025215307  0.025189073            2 
 2103000   0.92868394   -7.5358271    635.39898  0.025178276  0.025182377            1 
 2104000   0.92267664    -7.499231    636.11947  0.025194846  0.025175618            3 
 2105000   0.92699431   -7.5462679    638.43084   0.02527438  0.025168885            2 
 2106000   0.91847921    -7.527992    637.00863  0.025206103  0.025162156            1 
 2107000   0.90324686   -7.4959522    637.26336  0.025204215   0.02515554            2 
 2108000   0.90477215   -7.5206922     638.7384  0.025250569  0.025148918            3 
 2109000   0.92247904   -7.5366481    637.24417  0.025179555  0.025142269            3 
 2110000   0.91670839   -7.5251563    638.95724  0.025235278  0.025135587            3 
 2111000   0.90055888   -7.5190428    639.29438  0.025236633   0.02512903            2 
 2112000   0.89756155   -7.5139824    640.41943  0.025269075  0.025122399            1 
 2113000   0.93562325   -7.4775413    640.76008  0.025270551  0.025115781            2 
 2114000   0.90893184   -7.5338246    640.51526  0.025248946  0.025109157            5 
 2115000   0.92091002    -7.498818    639.05243  0.025179371  0.025102587            4 
 2116000   0.89724531   -7.5451379    638.32331  0.025138757  0.025096037            2 
 2117000   0.91402285   -7.4925026    639.92185  0.025189807  0.025089485            3 
 2118000   0.88002863   -7.5298243    639.18189  0.025148799  0.025082869            3 
 2119000   0.91122594   -7.5155956    641.76611   0.02523856  0.025076279            2 
 2120000   0.92634085   -7.5055981    641.16078  0.025202861  0.025069707            2 
 2121000    0.9125117   -7.4925447    641.22011  0.025193309  0.025063186            1 
 2122000   0.90255872   -7.5136481    641.20818  0.025180969  0.025056596            2 
 2123000   0.93262595   -7.5172999    641.23135  0.025170017  0.025050017            2 
 2124000   0.91368902   -7.5090719    640.90686  0.025145435  0.025043411            3 
 2125000   0.91719281   -7.5436865    640.01095  0.025098469  0.025036744            3 
 2126000   0.91387319   -7.5204912    639.57962  0.025069756   0.02503005            2 
 2127000    0.9004525   -7.5440758    640.97109  0.025112486  0.025023347            4 
 2128000   0.91945521   -7.5480052    641.71164  0.025129685  0.025016676            2 
 2129000   0.90076341   -7.5489947    640.69597  0.025078126   0.02500999            3 
 2130000   0.90272106   -7.5479734    640.08532  0.025042462  0.025003228            2 
 2131000   0.90231961   -7.5199242    640.59003  0.025050447  0.024996553            2 
 2132000   0.90717689   -7.5243914    641.28204  0.025065746  0.024989912            3 
 2133000   0.91175666    -7.507218    641.84277  0.025075901  0.024983305            4 
 2134000   0.90092152   -7.5366487     643.6733  0.025135633   0.02497668            5 
 2135000   0.94449831   -7.5111263    642.24089   0.02506795  0.024970038            2 
 2136000   0.90551576   -7.5238259    643.18714  0.025093131  0.024963435            3 
 2137000   0.89737939   -7.5093923    644.08828  0.025116529  0.024956776            2 
 2138000   0.89054348    -7.523878    641.81156  0.025016042  0.024950167            2 
 2139000   0.92017524   -7.4890078    643.02906  0.025051779  0.024943571            1 
 2140000    0.9132636   -7.4711496    644.29888   0.02508952  0.024937009            2 
 2141000   0.92583471   -7.5206157    641.81629  0.024981173  0.024930422            1 
 2142000   0.89626733   -7.5532422    642.70952  0.025004261  0.024923832            2 
 2143000     0.894771   -7.5712301    641.48361  0.024944922  0.024917232            4 
 2144000   0.91939399   -7.4970644    641.65409  0.024939913   0.02491061            2 
 2145000   0.91581184   -7.5352709    644.19508  0.025027004  0.024903998            8 
 2146000   0.90656581   -7.5381892    644.28553  0.025018854  0.024897373            2 
 2147000   0.91572924   -7.5429407    644.75006  0.025025231  0.024890755            1 
 2148000   0.90145943   -7.5421764    643.40303  0.024961322  0.024884126            7 
 2149000   0.92015693   -7.5389046    645.20065  0.025019414  0.024877431            2 
 2150000   0.91439329   -7.5150151    643.45837  0.024940247  0.024870735            2 
 2151000   0.91791331   -7.5276014    644.80906   0.02498098  0.024864065            2 
 2152000   0.90290334   -7.5157714    642.71096  0.024888126  0.024857401            4 
 2153000   0.90256323   -7.5772437    643.04595  0.024889532  0.024850761            2 
 2154000   0.91228725   -7.5591555    643.18761  0.024883458  0.024844053            1 
 2155000    0.9043329   -7.5382349    644.90178  0.024938197  0.024837432            1 
 2156000   0.92773111   -7.5369165     644.2414  0.024901105  0.024830769            3 
 2157000   0.90205788    -7.532663    644.32483  0.024892784   0.02482408            3 
 2158000   0.89585034   -7.5327418    644.27279   0.02487924  0.024817387            2 
 2159000   0.91281244   -7.5014523    644.70357  0.024884344  0.024810729            1 
 2160000   0.90171214   -7.5081309    645.53729  0.024904988  0.024804147            2 
 2161000   0.89313732    -7.552063    644.00333   0.02483431  0.024797465            4 
 2162000   0.92676966   -7.5608439    644.54454  0.024843684  0.024790721            2 
 2163000   0.92085174   -7.5529885    644.16104  0.024817423  0.024784078            3 
 2164000   0.91440316   -7.5233956     643.9484  0.024797766  0.024777338            3 
 2165000    0.9054963   -7.5522697    645.16251  0.024833045  0.024770603            2 
 2166000   0.89836239   -7.5527861    643.11498  0.024742805   0.02476378            4 
 2167000   0.89274127   -7.5596376    644.52905  0.024785766  0.024757065            2 
 2168000   0.91809473   -7.5402537    645.36668   0.02480653  0.024750324            1 
 2169000   0.90074341   -7.5618014     644.2533  0.024752317  0.024743569            2 
 2170000   0.91185539   -7.5371743    645.56767  0.024791385  0.024736856            2 
 2171000   0.90977377   -7.5343379    645.00626  0.024758416   0.02473017            2 
 2172000   0.90256417   -7.5133637    646.65757  0.024810373   0.02472356            2 
 2173000   0.89488298   -7.5313925    646.96741  0.024810838   0.02471692            5 
 2174000   0.88926978   -7.5236937     648.0595  0.024841287  0.024710316            1 
 2175000   0.87871343   -7.5497803    647.15656  0.024795271  0.024703658            3 
 2176000   0.91265093   -7.5159299    647.21823  0.024786237  0.024696921            4 
 2177000   0.91039858   -7.5578767    646.69025  0.024754641  0.024690201            1 
 2178000   0.89079152   -7.5613445    646.61739  0.024740488  0.024683543            3 
 2179000   0.89079302   -7.5491591    646.47661   0.02472375  0.024676827            2 
 2180000    0.8873153   -7.5108405    647.29881  0.024743838  0.024670192            2 
 2181000   0.92156736   -7.5312043    647.45319  0.024738392  0.024663535            3 
 2182000   0.89550787   -7.5359315     649.5398  0.024806745  0.024656899            4 
 2183000   0.92429994   -7.5489433    645.49376  0.024640928  0.024650188            4 
 2184000   0.90128714   -7.5674084      645.888  0.024644689  0.024643423            3 
 2185000   0.92404372    -7.574676    647.82074  0.024707122  0.024636738            3 
 2186000   0.89716189    -7.518085    649.03331  0.024742045  0.024630087            2 
 2187000   0.90463162   -7.5154154    647.78696   0.02468324  0.024623458            1 
 2188000   0.89582542   -7.5407743    646.89209  0.024637877  0.024616744            1 
 2189000   0.88265803   -7.5520543    647.36733  0.024644713  0.024610064            3 
 2190000   0.89931799   -7.5358771    648.43731  0.024674175  0.024603433            2 
 2191000    0.9064735   -7.5661212    648.75946  0.024675166  0.024596776            3 
 2192000   0.89724936   -7.5268391    648.41613  0.024650856  0.024590072            3 
 2193000   0.90198417   -7.5250972    648.44168  0.024640587  0.024583343            4 
 2194000    0.9276308    -7.573256     648.1913  0.024619846  0.024576641            2 
 2195000   0.89229375   -7.5613395     649.3091  0.024651067  0.024569924            1 
 2196000   0.90172449   -7.5645241    648.50259  0.024609236  0.024563261            3 
 2197000   0.89587961   -7.5347009    649.02768  0.024617952  0.024556606            2 
 2198000   0.88768646   -7.5680261    649.95541  0.024641925  0.024549953            2 
 2199000   0.91552401   -7.5367894    648.74765   0.02458495  0.024543299            3 
 2200000   0.89399365   -7.5528885    649.44964  0.024600365  0.024536682            3 
 2201000   0.90058823   -7.5703089    647.86049   0.02452902  0.024530053            3 
 2202000   0.88240697   -7.5504207    650.38344  0.024613361  0.024523333            2 
 2203000   0.90024956   -7.5746872    649.65715  0.024574714   0.02451665            3 
 2204000   0.88344297   -7.5560228    650.45119  0.024593587  0.024509927            1 
 2205000    0.9219918   -7.5721568     649.8479  0.024559633  0.024503239            2 
 2206000   0.90064204   -7.5586277    651.59875   0.02461464  0.024496559            3 
 2207000   0.89441194   -7.5447375    649.37752  0.024519617  0.024489832            2 
 2208000   0.90003163   -7.5665825    650.55303  0.024552877  0.024483111            1 
 2209000   0.91787145   -7.5757998    650.64685  0.024545302  0.024476434            5 
 2210000   0.89681811   -7.5687756    651.76108  0.024576209  0.024469781            1 
 2211000   0.91661811   -7.5592874    650.38338  0.024513168  0.024463146            5 
 2212000   0.90502988   -7.5881402    652.13422  0.024568046  0.024456456            2 
 2213000   0.90555157   -7.5601821    651.12971  0.024519119  0.024449728            3 
 2214000   0.90169301   -7.5710659    649.94739  0.024463542  0.024443023            3 
 2215000   0.90091916   -7.5455146    651.64791  0.024516475  0.024436344            3 
 2216000    0.9006777   -7.5527122    652.39049  0.024533337  0.024429683            3 
 2217000   0.90098327   -7.5754972    651.27493  0.024480339  0.024422933            5 
 2218000   0.87459414   -7.5856535    650.37563  0.024435514  0.024416171            3 
 2219000   0.89118635   -7.5213592    652.58186  0.024507355  0.024409484            2 
 2220000   0.88710568   -7.5420096    651.69245   0.02446293  0.024402783            2 
 2221000   0.89117577   -7.5136877    650.89953  0.024422165  0.024396005            3 
 2222000   0.90140558   -7.5669847    651.91172  0.024449135  0.024389251            2 
 2223000   0.87257721   -7.5779457    651.68611  0.024429679  0.024382511            3 
 2224000    0.8811235   -7.5584758     651.0477  0.024394773  0.024375754            3 
 2225000   0.92043244   -7.5821827    650.99717  0.024381916  0.024368909            5 
 2226000   0.88892145   -7.5475826     652.0848   0.02441168  0.024362234            3 
 2227000   0.88289113   -7.5462117    651.92358  0.024394686  0.024355497            3 
 2228000   0.91597966   -7.5777228     650.2776  0.024322172  0.024348766            2 
 2229000   0.88056555   -7.5506528     651.6138  0.024361216  0.024342003            1 
 2230000   0.89438395   -7.5687216    652.77267  0.024393598  0.024335182            2 
 2231000   0.90598031   -7.5547407     652.6834  0.024379329  0.024328413            3 
 2232000   0.90971748   -7.5595261     653.3379  0.024392843  0.024321742            2 
 2233000   0.88717527   -7.5704676    652.25947  0.024341673  0.024315023            5 
 2234000   0.90110566   -7.5675672    653.56558  0.024379498  0.024308323            5 
 2235000   0.90108482   -7.5681517    654.06019  0.024387032  0.024301616            2 
 2236000    0.9055722   -7.5444887    655.51467  0.024430332   0.02429493            3 
 2237000   0.89306032   -7.5384072    654.93823  0.024397937  0.024288256            1 
 2238000   0.88097386   -7.5591033     654.4681   0.02436953  0.024281603            2 
 2239000    0.8950666   -7.5410884    654.64116  0.024365087  0.024274918            2 
 2240000   0.90427999    -7.505748    656.16054  0.024410734  0.024268321            1 
 2241000   0.88742864   -7.5658134    653.99695  0.024319387  0.024261679            1 
 2242000   0.89509587   -7.5825961    652.58934   0.02425622  0.024254995            3 
 2243000   0.86660333   -7.5882101    654.53888  0.024317836  0.024248312            4 
 2244000   0.89177163   -7.6037549    652.96896  0.024248699  0.024241585            3 
 2245000   0.90530297   -7.5666793    654.51939  0.024295449  0.024234844            3 
 2246000   0.90944208   -7.5813169    654.50602  0.024284135  0.024228128            1 
 2247000   0.88317458   -7.6135859    653.90202  0.024250928   0.02422133            2 
 2248000   0.88788854   -7.5445244    655.88207  0.024313541  0.024214611            4 
 2249000   0.86548401   -7.5700208    656.30001  0.024318216   0.02420796            1 
 2250000   0.89916369   -7.5660042    653.07762   0.02418806  0.024201218            2 
 2251000   0.89316099   -7.5760289     655.7917  0.024277791  0.024194438            2 
 2252000    0.8766224   -7.6070591     654.8305  0.024231443  0.024187646            2 
 2253000   0.89781905   -7.5598375    654.12726  0.024194676  0.024180855            2 
 2254000   0.89368985   -7.5611004     656.7745  0.024281814  0.024174135            2 
 2255000   0.91388706   -7.5642365    656.34311  0.024255104  0.024167414            1 
 2256000   0.90870259   -7.5687062    656.89238  0.024264642  0.024160691            3 
 2257000   0.89260509   -7.5655409    654.79963  0.024176622  0.024153935            2 
 2258000   0.90846029   -7.5679346    657.05133  0.024249016  0.024147208            5 
 2259000   0.89450936   -7.6122862    655.25659  0.024172074  0.024140505            3 
 2260000    0.9116837   -7.5954941    654.15366   0.02412071  0.024133785            3 
 2261000   0.88704066   -7.5648517    657.83047  0.024245558  0.024127039            1 
 2262000   0.88063978   -7.5813844    655.19896  0.024137893  0.024120342            3 
 2263000    0.8955512   -7.5784155    655.93098  0.024154182  0.024113566            2 
 2264000   0.88922573   -7.5329929    657.70016  0.024208634  0.024106914            1 
 2265000   0.87581363   -7.5745077    656.67832   0.02416035  0.024100252            2 
 2266000   0.89321701   -7.5635983    656.89987  0.024157836  0.024093571            1 
 2267000   0.88863391   -7.5273857    658.11932  0.024192006  0.024086927            5 
 2268000   0.88570372   -7.5523806    658.28048  0.024187261  0.024080255            2 
 2269000   0.92008996   -7.6031692    655.16382  0.024062135  0.024073499            5 
 2270000   0.90221507   -7.5977992    654.84891  0.024039975  0.024066765            2 
 2271000   0.88770271   -7.6106979    655.66014  0.024059157  0.024059988            1 
 2272000   0.89712058   -7.5805509    657.51951  0.024116766  0.024053286            4 
 2273000   0.88564138   -7.5902015     656.8174  0.024080415  0.024046508            3 
 2274000   0.88544206   -7.5763447    659.27787  0.024159992  0.024039786            2 
 2275000   0.91423155   -7.5846925    659.16699  0.024145311  0.024033086            2 
 2276000   0.89342018   -7.5285633    660.03188  0.024166369  0.024026455            5 
 2277000   0.89228657   -7.5997191    658.58483  0.024102797  0.024019782            3 
 2278000    0.8841801   -7.5816167    658.76564  0.024098831  0.024013075            2 
 2279000   0.86991726   -7.5721909     658.4158  0.024075465  0.024006415            2 
 2280000   0.88216309   -7.5535051    658.87773  0.024081788  0.023999808            4 
 2281000   0.89991143   -7.5891578    659.04851   0.02407747  0.023993164            2 
 2282000   0.90696148    -7.563166    660.14063  0.024106801  0.023986487            2 
 2283000   0.88650777    -7.564923     659.2161  0.024062495  0.023979816            2 
 2284000   0.88714135   -7.5553145    661.22983  0.024125432  0.023973206            2 
 2285000    0.8986805   -7.5479751    659.65129  0.024057305  0.023966547            2 
 2286000   0.87502717   -7.5614103    659.95203  0.024057744   0.02395989            2 
 2287000   0.88708521   -7.5743951    657.10471  0.023943474  0.023953233            2 
 2288000   0.89711585   -7.6243631    659.59782  0.024023813  0.023946526            2 
 2289000   0.87186702   -7.5609239    659.93402  0.024025558  0.023939833            2 
 2290000   0.90101294    -7.559144    659.89447  0.024013627  0.023933201            3 
 2291000    0.8825894   -7.6099747    658.38849  0.023948366  0.023926557            3 
 2292000   0.87972253   -7.5985467    660.38625  0.024010553  0.023919856            1 
 2293000   0.89070772   -7.5790026    660.63209  0.024009016  0.023913209            1 
 2294000   0.88346397   -7.6111375    659.54709  0.023959136  0.023906475            2 
 2295000   0.87050826   -7.5965841    659.11255  0.023932918  0.023899718            2 
 2296000   0.87790102   -7.6058215    659.65953  0.023942346  0.023893018            6 
 2297000   0.88915357   -7.5652257    661.12639   0.02398514  0.023886339            3 
 2298000   0.89174403   -7.6168481    658.38155  0.023875165   0.02387965            3 
 2299000   0.89574427   -7.5997785    660.56243  0.023943832  0.023872948            3 
 2300000   0.84751248   -7.5773931    658.87979  0.023872456  0.023866336            3 
 2301000    0.8814418   -7.5841932    661.23101  0.023947233  0.023859695            3 
 2302000   0.87811633   -7.6068336    660.54384  0.023911955  0.023853017            2 
 2303000   0.88121367    -7.581298    662.00082  0.023954292  0.023846324            2 
 2304000   0.86870482   -7.6196177    660.86362  0.023902764  0.023839637            2 
 2305000   0.88780775   -7.6234713    659.25791  0.023834342  0.023832887            3 
 2306000   0.88208368    -7.577717    661.76919  0.023914758  0.023826154            2 
 2307000   0.87991744     -7.58343    660.15358  0.023846033  0.023819502            1 
 2308000   0.87205326    -7.530685    662.17889  0.023908828  0.023812916            2 
 2309000    0.9051294    -7.567115    661.64603  0.023879242  0.023806394            5 
 2310000   0.87502868   -7.5700443    663.90685  0.023950464  0.023799842            2 
 2311000   0.85466618   -7.6012755    662.24025  0.023880003  0.023793252            1 
 2312000   0.87522674    -7.617946      662.939   0.02389486  0.023786567            3 
 2313000   0.88826732   -7.5738044    661.89055  0.023846756  0.023779905            1 
 2314000   0.87089227   -7.5731363    660.84237  0.023798703  0.023773223            3 
 2315000    0.8993516   -7.6013958    663.26092  0.023875483  0.023766533            2 
 2316000   0.88206776   -7.5995872    662.99068  0.023855451  0.023759848            6 
 2317000   0.87165723   -7.6045107    663.05389  0.023847428  0.023753209            4 
 2318000   0.87922705    -7.577349    663.46513  0.023851924  0.023746624            3 
 2319000   0.86215954   -7.5818661    662.02818  0.023790002  0.023740076            2 
 2320000   0.87981092   -7.5851607    662.40159   0.02379316  0.023733442            3 
 2321000   0.88566619   -7.6045012    663.98052  0.023839599  0.023726842            1 
 2322000   0.89458781   -7.5768956    663.13865  0.023799119  0.023720273            1 
 2323000   0.87441002    -7.607582    664.54778  0.023839424  0.023713748            2 
 2324000   0.87413026   -7.5926513    665.01317  0.023845854  0.023707145            2 
 2325000   0.91058782   -7.6320787    664.07831   0.02380209   0.02370058            2 
 2326000   0.87807561    -7.596501    665.92579  0.023858046  0.023693997            2 
 2327000   0.86705864   -7.6140503    665.41821  0.023829616  0.023687435            1 
 2328000   0.88856383   -7.6047569    664.99492  0.023804228  0.023680902            2 
 2329000   0.88244563   -7.5861118    665.98204  0.023829327  0.023674382            2 
 2330000   0.86594976   -7.5966858    666.74672  0.023846449  0.023667865            5 
 2331000   0.90489513   -7.6021421    665.06893  0.023776238  0.023661292            8 
 2332000   0.84678684   -7.6029414    663.59459  0.023713357  0.023654764            2 
 2333000   0.88192746   -7.6009898    664.96175  0.023752027  0.023648227            4 
 2334000   0.88142509   -7.6167803    665.78498  0.023771243  0.023641634            4 
 2335000   0.88151929   -7.6039153    666.46424  0.023785305  0.023635099            2 
 2336000   0.85518934   -7.6182221     664.5652  0.023707377  0.023628576            1 
 2337000   0.86810793   -7.6356137    665.83353  0.023742459  0.023621995            2 
 2338000   0.87782633   -7.5995884    665.99867  0.023738191   0.02361536            3 
 2339000   0.89978537   -7.6214199    665.34296   0.02370468  0.023608767            2 
 2340000   0.86770724   -7.5864572    666.64784   0.02374102  0.023602243            2 
 2341000   0.88233159    -7.624592     666.0434  0.023709362  0.023595771            2 
 2342000   0.88258866   -7.6166372    667.46317  0.023749757  0.023589218            2 
 2343000   0.88109504   -7.5983291    665.00322  0.023652128  0.023582629            3 
 2344000   0.88586997   -7.6016573    665.54202  0.023661192  0.023576039            2 
 2345000   0.88324811   -7.6180051    665.93065  0.023664913   0.02356944            1 
 2346000   0.86365746   -7.6201693    665.84657  0.023651839  0.023562838            2 
 2347000   0.85289437   -7.6208093    666.19425  0.023654106  0.023556216            3 
 2348000   0.87607941   -7.5995296    666.09305  0.023640441  0.023549664            2 
 2349000   0.86355725    -7.610692    667.24321   0.02367118  0.023543104            2 
 2350000   0.86777621   -7.6316945    665.93871  0.023614848  0.023536532            3 
 2351000   0.86921777    -7.619884    666.04645  0.023608622  0.023529947            2 
 2352000   0.87621514   -7.6117213    667.42978  0.023647597  0.023523413            2 
 2353000    0.8863073   -7.5904707    667.58163  0.023642925   0.02351688            2 
 2354000    0.8662812   -7.6222971    667.40728  0.023626709  0.023510325            4 
 2355000   0.87766705   -7.6049067    666.29983  0.023577489  0.023503738            2 
 2356000    0.8763806   -7.6497528    667.45362  0.023608291  0.023497121            4 
 2357000   0.87522902   -7.5892791    668.05787  0.023619639  0.023490518            2 
 2358000   0.87586712   -7.6323883    667.25912  0.023581394  0.023483917            4 
 2359000   0.88413971   -7.6223779    667.18207  0.023568676  0.023477273            2 
 2360000   0.86156071   -7.6455641    666.56857  0.023537026  0.023470627            3 
 2361000   0.88036728   -7.6228835    666.72641  0.023532628  0.023464004            3 
 2362000   0.87636835   -7.6536311    664.88916  0.023457845  0.023457339            2 
 2363000   0.86780099   -7.6145974    668.85278  0.023587698  0.023450715            2 
 2364000   0.86540188   -7.6057423     668.3289  0.023559253  0.023444055            2 
 2365000   0.88279679   -7.6407423    665.86251  0.023462386  0.023437446            2 
 2366000   0.87072849   -7.5906433    668.85886  0.023558004  0.023430859            4 
 2367000   0.85302659   -7.6273315    668.00832  0.023518107  0.023424311            2 
 2368000   0.89289189   -7.6376863    669.55443  0.023562585  0.023417717            3 
 2369000   0.86071711   -7.6211713    668.14191  0.023502952  0.023411128            2 
 2370000   0.88092389   -7.6155321    667.04847  0.023454588  0.023404526            2 
 2371000    0.8890656   -7.6267909    667.98413  0.023477581  0.023397937            2 
 2372000   0.87311921   -7.6030853    670.82251  0.023567401  0.023391396            2 
 2373000   0.86580741    -7.587823    670.00957  0.023528922   0.02338484            4 
 2374000    0.8814579   -7.6177735    668.35995  0.023461105  0.023378274            3 
 2375000   0.87331651   -7.6064418    668.43956   0.02345402  0.023371648            3 
 2376000   0.85278696   -7.5998558    668.75647  0.023455264  0.023365083            3 
 2377000   0.86651724   -7.6012683     669.7281  0.023479459  0.023358466            1 
 2378000   0.85003158   -7.6467144    669.46158  0.023460246  0.023351905            2 
 2379000   0.87918713   -7.6357434    668.55152  0.023418506  0.023345328            2 
 2380000   0.85693014   -7.6384783    669.20281  0.023431471  0.023338766            2 
 2381000    0.8809385   -7.6158657    668.62764  0.023401499  0.023332181            8 
 2382000   0.85829094   -7.6291141    671.01777  0.023475293  0.023325604            1 
 2383000   0.87487659   -7.6145403    670.18994  0.023436493  0.023319074            1 
 2384000   0.87782622   -7.6145175    670.45865  0.023436055  0.023312586            3 
 2385000   0.86983095   -7.6078149    670.20025  0.023417199  0.023306117            2 
 2386000   0.85691019   -7.6027387    671.25473  0.023444214  0.023299649            3 
 2387000   0.88614442   -7.6330282    671.50341  0.023443074  0.023293121            1 
 2388000   0.87393426   -7.5697515    671.59176   0.02343634  0.023286587            1 
 2389000   0.90309145   -7.6080092     672.7051  0.023465366  0.023280135            2 
 2390000   0.88420384   -7.5980093    670.79954  0.023389105  0.023273671            2 
 2391000   0.87047236   -7.6355138    670.97007  0.023385267  0.023267167            2 
 2392000   0.84957935      -7.6112    671.48453  0.023393413  0.023260604            2 
 2393000   0.87080851   -7.6349888    669.98491  0.023331415  0.023254028            1 
 2394000   0.85273137   -7.6249271    671.38471  0.023370395  0.023247479            2 
 2395000    0.8651622   -7.6139668    672.96098  0.023415483  0.023240973            2 
 2396000   0.86237731   -7.6445998    671.41824  0.023352053  0.023234437            1 
 2397000   0.86728177   -7.6156569    671.85016  0.023357327  0.023227898            2 
 2398000   0.86684256   -7.6420548    671.43951  0.023333316  0.023221377            2 
 2399000   0.86303609   -7.6404284    670.79582   0.02330123  0.023214821            3 
 2400000   0.85646464    -7.613782    675.06283  0.023439682  0.023208296            2 
 2401000   0.86964501   -7.6287559    673.06256  0.023360494  0.023201817            3 
 2402000   0.88106394   -7.6292036    672.14814  0.023319045  0.023195297            4 
 2403000    0.8752176   -7.6450918    670.44078  0.023250131  0.023188752            1 
 2404000   0.87087429   -7.6506185    670.41459  0.023239552  0.023182141            2 
 2405000   0.86201105   -7.6629511     670.6295  0.023237335  0.023175551            1 
 2406000   0.87003879   -7.6513994    672.03299  0.023276288  0.023168929            2 
 2407000   0.85401403   -7.6053613    673.66045  0.023322963  0.023162405            1 
 2408000   0.86817118   -7.6576379    673.31886  0.023301456  0.023155898            3 
 2409000   0.86803774   -7.6492427    672.03686  0.023247435  0.023149383            2 
 2410000   0.85791798   -7.6341725    673.35319  0.023283305  0.023142841            1 
 2411000   0.84907995   -7.6700411    671.87124  0.023222427  0.023136293            2 
 2412000   0.86119241   -7.6420605    671.37933  0.023195803  0.023129705            1 
 2413000   0.86115779    -7.643514     671.7286  0.023198253  0.023123177            2 
 2414000   0.87227103   -7.6569398    672.56267  0.023217435  0.023116625            2 
 2415000   0.85266146   -7.6585051    674.30702  0.023268013   0.02311004            1 
 2416000   0.85216085    -7.629892    674.03915  0.023249143  0.023103562            3 
 2417000   0.86441746   -7.6316984    673.23784  0.023211896  0.023097077            2 
 2418000   0.85667617   -7.6415529    673.48495  0.023210813  0.023090611            2 
 2419000   0.87534252   -7.6427302    674.63037  0.023240677  0.023084106            2 
 2420000   0.86241813   -7.6166107    674.05173  0.023211148  0.023077617            2 
 2421000    0.8423663   -7.6415437    674.84214  0.023228767  0.023071102            2 
 2422000   0.85673762   -7.6278154    675.78456  0.023251602  0.023064614            2 
 2423000    0.8655958   -7.6303109    675.76869   0.02324146  0.023058108            1 
 2424000   0.88375104   -7.6777354    674.14951  0.023176207  0.023051608            2 
 2425000   0.86394209   -7.6081792    674.51551  0.023179227  0.023045142            2 
 2426000   0.87112726   -7.6574618    675.30869  0.023196919  0.023038694            4 
 2427000   0.86117212   -7.6339365    674.33196  0.023153824  0.023032211            2 
 2428000   0.85731628   -7.6202997    675.16552  0.023172897   0.02302579            2 
 2429000   0.87486393   -7.6430275    675.06464  0.023159896  0.023019349            2 
 2430000   0.86747752   -7.6178855    676.19304  0.023189062  0.023012925            4 
 2431000   0.84903449   -7.6140431    676.63763  0.023194763  0.023006528            3 
 2432000   0.86824053   -7.6641218    675.02584  0.023129997  0.023000108            1 
 2433000   0.85074711   -7.6462262    673.69622  0.023074949  0.022993637            2 
 2434000   0.86097291   -7.6659316    675.03382  0.023111265  0.022987186            1 
 2435000   0.87195408   -7.6367057    674.18068  0.023072576  0.022980746            1 
 2436000   0.84946831   -7.6525902    674.15673  0.023062286   0.02297427            3 
 2437000   0.86136784   -7.6444642    676.14246  0.023120724    0.0229678            7 
 2438000   0.86264301   -7.6724796     677.3272  0.023151736  0.022961349            3 
 2439000   0.85656347   -7.6512534    677.33814  0.023142618  0.022954917            2 
 2440000   0.85879722   -7.6383429    677.26278  0.023130559  0.022948464            4 
 2441000   0.86749829   -7.6353917    676.68332  0.023101301  0.022942028            2 
 2442000   0.84778541   -7.6374112    677.88904  0.023132987  0.022935655            2 
 2443000   0.84559968   -7.6391212    678.36873   0.02313988  0.022929255            3 
 2444000    0.8855507   -7.6475414    677.29525   0.02309381  0.022922831            2 
 2445000   0.88146204   -7.6368414    677.33059  0.023085569   0.02291637            9 
 2446000    0.8553262   -7.6115063    677.74312  0.023090185  0.022909944            2 
 2447000   0.86308904    -7.622581    676.46817  0.023037331  0.022903519            2 
 2448000   0.85910854   -7.6272542    677.50073   0.02306307   0.02289707            3 
 2449000   0.88255234    -7.609803    677.90108  0.023067275  0.022890595            3 
 2450000   0.88166733   -7.6407923    677.48173  0.023043596  0.022884224            2 
 2451000    0.8735702   -7.6373824    678.17022  0.023057603  0.022877812            3 
 2452000   0.85803962   -7.6654466      678.284  0.023052066  0.022871349            4 
 2453000   0.85406516   -7.6241172    676.73317  0.022989984  0.022864888            2 
 2454000   0.86500888   -7.6616296    678.19198  0.023030154  0.022858403            4 
 2455000    0.8674122   -7.6682588    675.67928  0.022935481  0.022851944            2 
 2456000   0.84092265   -7.6490597    677.29166  0.022980852    0.0228455            2 
 2457000    0.8617312   -7.6368437    678.51444  0.023012971  0.022839062            2 
 2458000   0.85479134   -7.6209757     677.8615  0.022981472  0.022832627            4 
 2459000   0.84636567   -7.6326431     676.7009  0.022932795  0.022826223            3 
 2460000    0.8738887    -7.635734    679.27473  0.023010662  0.022819829            4 
 2461000   0.85802946   -7.6651084    676.34372  0.022902063  0.022813402            2 
 2462000   0.84634741   -7.6600608    677.91584  0.022945974  0.022806873            4 
 2463000    0.8782708   -7.6526837    679.24263  0.022981548  0.022800367            2 
 2464000   0.86231263   -7.6574753     678.2296   0.02293796  0.022793907            1 
 2465000   0.84716534   -7.6529364    678.12099  0.022924983  0.022787437            3 
 2466000   0.84498637   -7.6447243     679.4286  0.022959874   0.02278099            1 
 2467000   0.86170506   -7.6752893    677.92474  0.022899768  0.022774502            2 
 2468000   0.87679844   -7.6246965    679.09451  0.022929988  0.022767974            2 
 2469000   0.86042286   -7.6301809    680.46514  0.022966962  0.022761535            1 
 2470000   0.84629721   -7.6389928    679.14836  0.022913237  0.022755085            1 
 2471000   0.86359432   -7.6478669    679.29048  0.022908757  0.022748646            2 
 2472000     0.857956   -7.6447318    678.90672  0.022886554  0.022742136            4 
 2473000   0.84377747   -7.6052369    680.47061  0.022929998  0.022735696            1 
 2474000   0.85143457   -7.6717143    678.11575  0.022841409  0.022729263            1 
 2475000   0.85306501   -7.6957728    678.76077  0.022853898  0.022722768            3 
 2476000   0.84754914   -7.6917374    678.02736  0.022819984  0.022716249            2 
 2477000   0.84763391   -7.6512569     680.5488  0.022895599  0.022709723            2 
 2478000   0.84275005   -7.6619918     679.7349  0.022858989  0.022703246            4 
 2479000   0.86154671   -7.6522204    679.14278  0.022829864  0.022696793            2 
 2480000   0.85925801   -7.6528953    678.91513  0.022813008  0.022690276            4 
 2481000   0.87479255   -7.6640834    678.49683  0.022789763  0.022683775            2 
 2482000   0.84928546   -7.6736233    680.19818  0.022837704  0.022677248            2 
 2483000   0.84643473   -7.6543043    681.45952  0.022870839  0.022670748            2 
 2484000   0.85863423   -7.6632249    678.17751  0.022751527  0.022664268            3 
 2485000    0.8319148   -7.6616732    682.40079  0.022883997  0.022657787            2 
 2486000   0.85930556   -7.6837978    679.44589  0.022775741  0.022651264            3 
 2487000   0.84475795   -7.6658513    680.32192  0.022795936  0.022644735            2 
 2488000   0.83914802   -7.6800381     679.6816  0.022765327    0.0226382            3 
 2489000   0.87669254   -7.6376333    681.58366  0.022819863  0.022631671            1 
 2490000   0.84085505   -7.6569541    682.30449  0.022834822  0.022625172            2 
 2491000   0.84433523   -7.6802649    680.29831  0.022758541  0.022618664            2 
 2492000   0.85327314   -7.6564505    680.93113   0.02277057  0.022612209            6 
 2493000   0.83760536   -7.6684507    681.23508  0.022771597  0.022605761            2 
 2494000     0.849345   -7.6576738     681.6836  0.022777453  0.022599313            2 
 2495000   0.84470312   -7.6749737    681.03025  0.022746501  0.022592818            2 
 2496000   0.85356529   -7.7166444    680.24146  0.022711053  0.022586323            2 
 2497000   0.85129439    -7.657617     681.8999  0.022757305  0.022579848            1 
 2498000   0.84453404   -7.6553995    680.50704  0.022701729   0.02257335            2 
 2499000   0.84424044   -7.6362216    682.53486  0.022760266  0.022566851            1 
 2500000   0.84529617   -7.6197334    682.51547  0.022750516  0.022560411            4 
 2501000   0.84979182   -7.6556151    682.30982  0.022734567  0.022553922            1 
 2502000   0.83411242   -7.6517968    681.75906  0.022707136  0.022547465            2 
 2503000   0.85243881    -7.660052    680.69594  0.022662669     0.022541            3 
 2504000   0.85895943   -7.6490598    681.66012  0.022685707  0.022534517            2 
 2505000   0.85491343    -7.670522    680.19916  0.022628049  0.022528046            5 
 2506000   0.83417022   -7.6381722    681.18914   0.02265194   0.02252151            1 
 2507000   0.83882024   -7.6618335    683.26217  0.022711813  0.022515035            1 
 2508000   0.84379881     -7.63224     682.2207  0.022668152  0.022508558            2 
 2509000   0.85736227   -7.6437341    680.66131  0.022607324  0.022502063            2 
 2510000   0.84666468   -7.6530334    680.34021  0.022587656  0.022495519            2 
 2511000   0.85874232   -7.6666606    681.38713  0.022613405  0.022489023            2 
 2512000   0.84410535    -7.651839    681.22117  0.022598897  0.022482518            2 
 2513000    0.8620337   -7.6385207    682.40265  0.022629084   0.02247604            2 
 2514000   0.84060208   -7.6559691    680.55439  0.022558817   0.02246957            4 
 2515000   0.84260247   -7.6973342    681.46745  0.022580101  0.022463052            1 
 2516000   0.84415716   -7.6835341    683.55147  0.022640152  0.022456512            2 
 2517000   0.84397233   -7.7175211     680.8402  0.022541392   0.02245001            3 
 2518000   0.86941656   -7.6573607    683.45814  0.022619081  0.022443492            2 
 2519000   0.85994573   -7.6934115      683.136  0.022599444  0.022436975            1 
 2520000    0.8452614   -7.6460462    681.33879  0.022531045  0.022430478            5 
 2521000   0.86828951   -7.6805226    682.42516  0.022558018  0.022423986            3 
 2522000   0.87551186   -7.6639751    682.05821  0.022536948  0.022417513            2 
 2523000   0.84560643   -7.6863826    680.89645  0.022489644  0.022410997            1 
 2524000   0.85110538   -7.7040235    683.36747  0.022562317  0.022404468            3 
 2525000   0.85341113   -7.6829202    682.26026   0.02251684   0.02239797            8 
 2526000   0.84599225   -7.6994351    682.49218  0.022515577  0.022391477            2 
 2527000   0.84948567    -7.695205    683.75653  0.022548362  0.022384984            2 
 2528000   0.85503947   -7.6767184     682.2347  0.022489277  0.022378463            1 
 2529000   0.85237886   -7.6558666    682.24865  0.022480844  0.022371938            2 
 2530000   0.83653412   -7.6786857     683.2767   0.02250582  0.022365394            3 
 2531000   0.85225115   -7.6947981    684.30036  0.022530632  0.022358879            3 
 2532000   0.84780343   -7.6756788    681.80423  0.022439581  0.022352393            2 
 2533000    0.8355127   -7.6325448    684.02941  0.022503928  0.022345932            2 
 2534000   0.85566725   -7.6507141    684.15162  0.022499067  0.022339483            3 
 2535000   0.85728284   -7.7009111    682.34997  0.022430966  0.022333018            3 
 2536000   0.84891776   -7.6944209    682.88706  0.022439769  0.022326533            2 
 2537000   0.85894949   -7.6937407    681.64751  0.022390209   0.02232006            2 
 2538000   0.86612123   -7.6490785    684.97935  0.022490785  0.022313556            2 
 2539000    0.8454505    -7.653804     683.7641  0.022442041  0.022307119            4 
 2540000   0.83904353   -7.6606066    683.72785  0.022432016  0.022300675            2 
 2541000   0.85039738   -7.6802004    685.02545  0.022465744  0.022294197            3 
 2542000   0.85700028    -7.684871    684.06747  0.022425501  0.022287691            6 
 2543000    0.8437909   -7.7137493    683.60851  0.022401642  0.022281159            4 
 2544000   0.83359051   -7.6249628    684.80024  0.022431874  0.022274674            4 
 2545000   0.84244369   -7.6639242    683.48654  0.022380044  0.022268194            2 
 2546000   0.82889554   -7.7008673    684.31109  0.022398242  0.022261693            2 
 2547000    0.8284181   -7.6768732    684.22019  0.022386474  0.022255219            2 
 2548000   0.85313684   -7.6916423    684.72966   0.02239435   0.02224872            3 
 2549000   0.83648495   -7.6779934    683.93805  0.022359685  0.022242238            4 
 2550000   0.85625586   -7.6783037    684.89418  0.022382163  0.022235746            2 
 2551000   0.83720109   -7.6740733    685.17734  0.022382639  0.022229291            2 
 2552000   0.83996511   -7.6644864     685.7096  0.022391249  0.022222826            4 
 2553000   0.86071536   -7.6716888    685.90301  0.022388791  0.022216351            3 
 2554000   0.82558462   -7.6615403    684.74954  0.022342389  0.022209899            3 
 2555000   0.86325159   -7.6843981    684.96664  0.022340725  0.022203429            2 
 2556000   0.86782171   -7.6654933    685.94456  0.022363868  0.022196935            3 
 2557000   0.85507304   -7.6899563    685.39519  0.022337218  0.022190473            2 
 2558000   0.83289738   -7.7078994    684.49367  0.022299116  0.022184005            1 
 2559000   0.83300039   -7.6975664    685.56035  0.022325138  0.022177535            1 
 2560000   0.83106398   -7.6642804    686.25481  0.022339024  0.022171091            6 
 2561000   0.85275947   -7.7050234    685.16554  0.022294857  0.022164609            1 
 2562000   0.85081773   -7.6624257    686.76189  0.022338079  0.022158102            2 
 2563000   0.82759861   -7.7074935    684.35094  0.022250973    0.0221516            3 
 2564000   0.85413957   -7.6950112    684.62889  0.022251329  0.022145043            2 
 2565000   0.86563456   -7.7016736    686.25573  0.022295508  0.022138504            3 
 2566000   0.84529697   -7.7002307    683.65021  0.022202202  0.022131959            1 
 2567000   0.84847756   -7.6780466    684.92466  0.022234926    0.0221254            3 
 2568000   0.84135948   -7.6914272    685.38782  0.022241298  0.022118833            3 
 2569000    0.8504227   -7.6832855    688.01739  0.022317938  0.022112342            1 
 2570000   0.85395904   -7.7135588    685.94563  0.022242076  0.022105865            1 
 2571000   0.83642008   -7.7166673     683.7824  0.022163309  0.022099354            4 
 2572000   0.84101075   -7.6954048    685.43477  0.022208229  0.022092828            2 
 2573000   0.83648573   -7.6572905    687.91796  0.022280022  0.022086336            1 
 2574000   0.84899992   -7.6900036    684.41153  0.022157845  0.022079804            1 
 2575000   0.86101501   -7.6834912    683.89377  0.022132485  0.022073278            2 
 2576000   0.84343304   -7.6895278    686.92394  0.022221918  0.022066735            4 
 2577000   0.84151305   -7.7033859    686.39159   0.02219608   0.02206018            1 
 2578000   0.83951452   -7.6837179    685.85561  0.022170145  0.022053601            5 
 2579000   0.83237778   -7.7062714    686.18314  0.022172132  0.022047046            2 
 2580000   0.83499811   -7.7152371    685.03366   0.02212641  0.022040462            3 
 2581000   0.85388945   -7.6729548    686.70593   0.02217183  0.022033912            1 
 2582000   0.84312387   -7.6904739    684.75416  0.022100251  0.022027382            3 
 2583000   0.85141125   -7.7207715    684.99523  0.022099472  0.022020807            4 
 2584000   0.84252411   -7.7101988    686.47982  0.022138797  0.022014232            3 
 2585000   0.84352168     -7.69166    688.01541  0.022179736  0.022007711            4 
 2586000   0.83124881   -7.6705699    686.23675  0.022113842  0.022001151            1 
 2587000   0.82487937   -7.7018051    687.12739  0.022133984   0.02199463            1 
 2588000   0.84350542   -7.6916185    686.22753  0.022096456  0.021988066            2 
 2589000   0.84283221   -7.6834426    685.87562  0.022076594  0.021981523            7 
 2590000   0.83097842   -7.6870079    686.35019  0.022083339  0.021974999            6 
 2591000   0.83348029   -7.7097242     685.9964  0.022063438  0.021968454            2 
 2592000   0.83004913   -7.7125641    686.49908  0.022071087  0.021961907            2 
 2593000   0.84663886   -7.7097674    686.91845  0.022076052  0.021955324            3 
 2594000   0.85167698   -7.6922138    685.84445  0.022033039   0.02194876            2 
 2595000   0.83303527   -7.6851465    686.33297  0.022040237  0.021942184            3 
 2596000   0.83534502   -7.7107406    686.47696  0.022036369  0.021935601            2 
 2597000   0.83808169   -7.7098701     686.1383  0.022017017  0.021929028            4 
 2598000    0.8382161   -7.6996112    687.16162  0.022041366  0.021922466            2 
 2599000   0.83974089    -7.693675    687.15803   0.02203277  0.021915931            4 
 2600000   0.84073899   -7.6761134    689.03114  0.022084331  0.021909396            5 
 2601000   0.84300314   -7.6857796    687.10201  0.022014033  0.021902871            4 
 2602000   0.81407055   -7.7052481    685.48325  0.021953729  0.021896284            2 
 2603000   0.83997343    -7.697757    687.50651  0.022010069  0.021889717            2 
 2604000   0.83223378   -7.7074034    687.34659  0.021996499  0.021883136            5 
 2605000   0.84707135   -7.7559564    684.71298  0.021903806  0.021876491            3 
 2606000   0.83666369   -7.7333023    685.88019  0.021932725  0.021869833            3 
 2607000   0.83422705   -7.6923631    686.93444  0.021958012  0.021863167            1 
 2608000   0.83049873    -7.733714    685.16304  0.021892991  0.021856545            2 
 2609000   0.83341765   -7.7277938    686.76186  0.021935667  0.021849907            2 
 2610000   0.82631665   -7.7058887    686.51081  0.021919247  0.021843272            5 
 2611000   0.82827525   -7.6728929    687.10844  0.021929926  0.021836687            3 
 2612000   0.82692791   -7.7361602    687.95613  0.021948575  0.021830095            2 
 2613000   0.83733402   -7.6834027    687.27452  0.021918437  0.021823489            3 
 2614000   0.83315302   -7.7190358    688.33867  0.021943977  0.021816862            2 
 2615000     0.839337   -7.7298287    687.37581  0.021904901  0.021810239            6 
 2616000    0.8299127   -7.7049833    686.56846   0.02187081  0.021803674            3 
 2617000   0.83151091   -7.6800223    688.24046  0.021915694  0.021797065            5 
 2618000   0.85153091   -7.7276275    687.74533  0.021891563  0.021790455            6 
 2619000    0.8491959   -7.7045793     687.6633  0.021880594  0.021783821            5 
 2620000   0.82756053   -7.7125345    686.62217  0.021839127  0.021777147            2 
 2621000   0.83390275   -7.7369106     686.4179    0.0218243  0.021770504            2 
 2622000   0.82500333   -7.6885066    687.67982  0.021856084  0.021763903            5 
 2623000   0.83459528   -7.7036105    688.39047  0.021870329  0.021757299            3 
 2624000   0.82926509   -7.7103806     686.2608   0.02179436  0.021750687            3 
 2625000   0.83655481   -7.7291578    687.49116  0.021825116  0.021744058            1 
 2626000   0.83835943   -7.7074606    688.11442  0.021836583  0.021737429            2 
 2627000   0.82942335   -7.7477052    687.07086  0.021795167  0.021730779            2 
 2628000   0.81507345    -7.730563    687.14896  0.021789351  0.021724125            2 
 2629000   0.84420871   -7.6727854    688.75876   0.02183209  0.021717504            1 
 2630000   0.83064254   -7.6781851    687.47518  0.021783117   0.02171088            2 
 2631000   0.81248462   -7.7269966    688.27817  0.021800271  0.021704291            2 
 2632000   0.82412185    -7.704264    687.41617  0.021764696  0.021697731            2 
 2633000   0.82939258   -7.6942586    689.74216  0.021830047  0.021691104            2 
 2634000   0.82677669   -7.7264909    687.73612  0.021758293  0.021684496            3 
 2635000   0.84238978   -7.7466405     686.5542  0.021712656   0.02167783            1 
 2636000   0.83116823   -7.7102393    687.33983  0.021729256  0.021671181            4 
 2637000   0.83536441   -7.7267888    688.08536  0.021744576  0.021664589            3 
 2638000   0.82800401   -7.7249879    688.78908  0.021758563     0.021658            1 
 2639000   0.83394678   -7.7247227    689.03302  0.021758021  0.021651444            3 
 2640000   0.83822129   -7.7093088    688.19884  0.021723448  0.021644849            4 
 2641000   0.81192836   -7.7230731    689.15148  0.021745282  0.021638294            3 
 2642000   0.83639441   -7.7397601     688.1484  0.021705412  0.021631729            3 
 2643000   0.83009575   -7.7102186    688.58942  0.021711105  0.021625118            2 
 2644000   0.83458018   -7.7408463    687.46305  0.021667393  0.021618483            2 
 2645000   0.84084028   -7.7113607    688.04107  0.021677412  0.021611881            3 
 2646000   0.81465111   -7.7357128    688.75363  0.021691661  0.021605254            3 
 2647000   0.82327933   -7.7285612    689.26288  0.021699499  0.021598651            2 
 2648000   0.83376195   -7.7050166    688.48292  0.021666758  0.021592045            3 
 2649000   0.83548382   -7.7138763    688.76356  0.021667408  0.021585478            2 
 2650000   0.83212413   -7.7130802    688.76778  0.021659364  0.021578904            6 
 2651000   0.83987289   -7.7284353     687.5471  0.021612822  0.021572336            2 
 2652000   0.83420769   -7.7227488      688.479  0.021633956  0.021565748            1 
 2653000   0.82781113   -7.7022981    692.81092  0.021761871  0.021559187            1 
 2654000   0.83016381   -7.7178456    690.94997  0.021695239  0.021552645            4 
 2655000   0.82979533   -7.6812829    691.27992  0.021697424  0.021546154            2 
 2656000   0.83602923   -7.7190212    689.99141  0.021648827   0.02153963            3 
 2657000   0.83012827   -7.7055273    691.56784  0.021690122  0.021533114            1 
 2658000   0.83498821   -7.7190652    689.37498  0.021613211  0.021526526            2 
 2659000    0.8283947   -7.7138704    689.78759  0.021618014  0.021519978            3 
 2660000   0.83527219    -7.697271    689.72248  0.021607847  0.021513435            3 
 2661000   0.81531902   -7.7255781    691.64479  0.021659927  0.021506881            2 
 2662000   0.82174958   -7.7217316    690.46783  0.021614946  0.021500351            2 
 2663000    0.8247663   -7.7077826    690.25147  0.021600058  0.021493808            2 
 2664000   0.81640128   -7.6840178    690.63463  0.021603936  0.021487299            2 
 2665000   0.82472528   -7.7362923    690.18256  0.021581693  0.021480749            3 
 2666000   0.82710743   -7.7732986      687.406  0.021486809  0.021474141            2 
 2667000   0.84475837   -7.7199041    690.77977   0.02158417  0.021467553            3 
 2668000   0.80939957   -7.7425826    689.55831  0.021537928  0.021460976            3 
 2669000   0.82873029   -7.7563913    689.44918  0.021526451  0.021454373            3 
 2670000   0.81134028   -7.7260637    689.48058  0.021519369  0.021447753            4 
 2671000   0.82400809   -7.7393832      691.069   0.02156087  0.021441111            3 
 2672000   0.82162782    -7.738662    691.12972  0.021554694  0.021434489            1 
 2673000   0.81333008     -7.72254    690.50046  0.021527013  0.021427902            2 
 2674000   0.82374263   -7.7177695    690.06897  0.021505515  0.021421325            1 
 2675000   0.80944498   -7.7260664    690.92366  0.021524101  0.021414766            4 
 2676000   0.80117058    -7.749776     689.1563  0.021461021  0.021408211            2 
 2677000   0.81473014     -7.73043    689.49267  0.021463475  0.021401641            3 
 2678000    0.8195994   -7.7291513    690.68423  0.021492539  0.021395086            2 
 2679000   0.84246513   -7.7309531    689.71054  0.021454229  0.021388508            2 
 2680000   0.83831632   -7.7335356    690.77381  0.021479285  0.021381919            2 
 2681000   0.82645089    -7.727759    690.90398  0.021475319  0.021375351            3 
 2682000   0.84082673   -7.7243035    691.64442  0.021490319  0.021368778            3 
 2683000   0.83471855   -7.7152653    691.63087  0.021481888    0.0213622            3 
 2684000   0.83256253   -7.7157406    689.82072  0.021417683  0.021355566            1 
 2685000   0.81965956   -7.7761755    689.33136  0.021394518  0.021348924            5 
 2686000   0.82885603    -7.740243    689.59926  0.021394864  0.021342287            4 
 2687000   0.81486858   -7.7436062    690.02245  0.021400026  0.021335656            4 
 2688000   0.81304142   -7.7340829    690.73381  0.021414118  0.021329023            2 
 2689000   0.82544253   -7.7404879    690.77067  0.021407297  0.021322372            2 
 2690000   0.84520793   -7.7103465    691.36319  0.021417695  0.021315765            3 
 2691000   0.83829442    -7.707974     691.2469  0.021406135  0.021309177            2 
 2692000   0.80472783   -7.7293978    688.73408  0.021320396  0.021302601            5 
 2693000   0.82873809   -7.7551805       689.92  0.021349177  0.021295975            5 
 2694000   0.81250858   -7.7678862    691.02575  0.021375456  0.021289338            2 
 2695000   0.81309441   -7.7710712    690.60883  0.021354633  0.021282719            1 
 2696000   0.81892475   -7.7611319     691.2446  0.021366364  0.021276109            4 
 2697000   0.83203552   -7.7160752    692.95906  0.021411416  0.021269536            4 
 2698000   0.81757055    -7.724833    691.14489  0.021347445  0.021262968            5 
 2699000   0.83314909   -7.7353806    691.43065  0.021348359  0.021256409            2 
 2700000   0.81285536   -7.7558428    691.00687  0.021327373   0.02124986            2 
 2701000   0.80570741   -7.7343324    691.71658  0.021341373  0.021243303            2 
 2702000   0.81072198   -7.7404626    693.12203  0.021376821  0.021236739            2 
 2703000   0.81446739   -7.7764612    690.55756  0.021289849   0.02123015            3 
 2704000   0.82688622   -7.7580289    690.35885  0.021275852  0.021223531            3 
 2705000   0.82473085   -7.7585231    690.83786  0.021282744  0.021216902            2 
 2706000   0.81797995   -7.7307916    691.41711  0.021292717  0.021210295            2 
 2707000   0.83119845   -7.7294283    692.89729  0.021330418  0.021203697            1 
 2708000   0.80417606   -7.7322839    690.52616  0.021249574  0.021197109            3 
 2709000   0.81441219   -7.7280556    691.71534  0.021278311   0.02119051            2 
 2710000   0.82732898   -7.7323835    691.14875  0.021253037  0.021183899            2 
 2711000   0.81031228   -7.7503096    692.56232  0.021288649  0.021177289            2 
 2712000   0.81036852   -7.7409485    691.91221  0.021260822  0.021170685            5 
 2713000   0.80860818   -7.7421727    691.75675  0.021248211  0.021164093            7 
 2714000   0.81172414   -7.7178034    691.23912  0.021224488  0.021157511            4 
 2715000   0.80012625   -7.7460998    694.68056  0.021322301  0.021150893            2 
 2716000   0.79645412   -7.7560789    692.50454  0.021247685  0.021144267            3 
 2717000   0.80993994   -7.7672272     691.9736   0.02122358  0.021137649            2 
 2718000   0.81371088   -7.7669888    691.97201  0.021215723  0.021131058            2 
 2719000    0.8035261   -7.7690292    692.74345  0.021231563  0.021124451            2 
 2720000    0.8097903   -7.7607786    691.25566  0.021178176  0.021117852            4 
 2721000   0.80791647   -7.7548437    691.85686  0.021188805  0.021111216            3 
 2722000   0.81135799   -7.7687536    692.28751  0.021194205  0.021104593            1 
 2723000   0.81103074   -7.7588696    691.30344  0.021156306  0.021097976            2 
 2724000   0.82937873   -7.7762971    691.51606  0.021155044  0.021091366            3 
 2725000   0.80812395    -7.796976    691.03146  0.021132461   0.02108476            6 
 2726000   0.82741939   -7.7411167    691.50054  0.021139048  0.021078159            1 
 2727000   0.82643446   -7.7447472    692.76587  0.021169963  0.021071574            2 
 2728000   0.81167516   -7.7535014    692.54047  0.021155317  0.021064982            2 
 2729000   0.82052633    -7.753422    692.73011  0.021153356  0.021058379            1 
 2730000   0.83300424   -7.7550381    692.04697  0.021124755  0.021051738            4 
 2731000    0.8149623   -7.7369681    691.67729  0.021105739  0.021045107            6 
 2732000   0.80003524   -7.7448613    691.78324  0.021101246  0.021038471            3 
 2733000   0.79993279   -7.7625161    693.19505  0.021136573  0.021031846            4 
 2734000   0.80648956   -7.7530432    694.13232   0.02115741   0.02102526            2 
 2735000   0.80757211   -7.7805057    693.23318  0.021122279  0.021018682            2 
 2736000   0.80269251   -7.7631414    693.25198  0.021115131  0.021012082            2 
 2737000   0.78691513   -7.7656145    692.85279  0.021095262  0.021005478            3 
 2738000   0.80929994   -7.7582031    691.56646  0.021048407  0.020998911            4 
 2739000   0.80699119   -7.7452519    692.96519  0.021083278  0.020992354            2 
 2740000   0.80730531   -7.7665998    691.79431  0.021039973  0.020985768            3 
 2741000   0.82000571    -7.798773    692.86486  0.021064844  0.020979148            2 
 2742000   0.81753788   -7.7642083    694.78645  0.021115562  0.020972544            2 
 2743000   0.82071544   -7.7581854    693.57692  0.021071118   0.02096595            2 
 2744000    0.8032317   -7.7396279    695.12255  0.021110379  0.020959344            3 
 2745000   0.81653946   -7.7640591    693.57565  0.021055727  0.020952748            1 
 2746000   0.82678961   -7.7336673    694.60961  0.021079437  0.020946181            2 
 2747000   0.82274899   -7.7404938    695.36948  0.021094815  0.020939651            3 
 2748000   0.80048591   -7.7729745    693.28678   0.02102398  0.020933083            4 
 2749000   0.81592819   -7.7933805    693.38394  0.021019278  0.020926488            2 
 2750000   0.80767766   -7.7380615    694.84534  0.021055919  0.020919896            2 
 2751000   0.80832422   -7.7798646    693.52163  0.021008168  0.020913314            2 
 2752000   0.80746248   -7.7696531    692.14688  0.020958905  0.020906735            3 
 2753000    0.8218393   -7.7657503      693.226  0.020983957  0.020900159            3 
 2754000   0.81651453   -7.7608037    694.82595   0.02102475  0.020893601            1 
 2755000   0.82555437   -7.7858211    694.28906  0.021000879  0.020887043            2 
 2756000   0.81283856   -7.7673954     693.8843   0.02098102  0.020880483            2 
 2757000   0.81462387   -7.7556775    693.25141   0.02095428  0.020873929            4 
 2758000   0.82763255   -7.7904987    693.67244  0.020959404  0.020867383            3 
 2759000   0.81408675   -7.7869801    694.40679  0.020973988   0.02086082            1 
 2760000   0.81592832   -7.7682806     694.3589  0.020964943  0.020854256            3 
 2761000   0.81663367   -7.7810981    693.64196   0.02093571  0.020847688            7 
 2762000     0.807161   -7.8133567    694.16606  0.020943943  0.020841103            3 
 2763000   0.79356074   -7.7980448    694.57573  0.020948719  0.020834534            2 
 2764000   0.81970319   -7.7653774    694.88618    0.0209505  0.020827949            3 
 2765000   0.78713124   -7.7774732    693.80702  0.020910398   0.02082137            4 
 2766000   0.81276582    -7.769486    693.21079  0.020884876  0.020814782            2 
 2767000   0.80768536   -7.7875802    693.85369   0.02089669  0.020808193            3 
 2768000   0.80912875   -7.7780287    694.78666  0.020917229  0.020801613            7 
 2769000   0.79484234   -7.8142198     692.7535  0.020848486  0.020795022            3 
 2770000   0.79625665   -7.7435974    694.05673  0.020880166  0.020788447            2 
 2771000   0.80690058   -7.7704267    691.74897  0.020803229  0.020781852            1 
 2772000   0.82284764   -7.7980157    693.86485  0.020859333   0.02077526            5 
 2773000   0.82178308   -7.7691168    694.27817  0.020864231  0.020768669            3 
 2774000   0.80597446    -7.776174     694.5002   0.02086338  0.020762105            4 
 2775000    0.8118942   -7.7636496    693.34497   0.02082117  0.020755546            2 
 2776000   0.80182301   -7.7949941    695.23262  0.020870336  0.020748988            2 
 2777000     0.806121    -7.716925     698.0293  0.020946744  0.020742456            1 
 2778000   0.80538131   -7.7904477    696.43036   0.02089124  0.020735959            5 
 2779000   0.82238146   -7.7581595    695.22707  0.020847639  0.020729497            4 
 2780000   0.81217695   -7.7857247    695.00059  0.020833351  0.020723018            2 
 2781000   0.78934909   -7.7645779    695.45151  0.020839372  0.020716502            3 
 2782000   0.80101457   -7.8007039    693.19206    0.0207642  0.020709971            3 
 2783000   0.80003832   -7.7910644    695.95083  0.020839347  0.020703407            2 
 2784000   0.82480338   -7.7600177    695.89053  0.020830057  0.020696872            3 
 2785000   0.80538914   -7.7696645    695.96816    0.0208249   0.02069036            2 
 2786000   0.79455563   -7.7893628    696.14546  0.020822729  0.020683844            8 
 2787000   0.80881295   -7.7885079    695.16164   0.02078584  0.020677309            4 
 2788000   0.82009042   -7.7879875    697.64001  0.020852463  0.020670805            4 
 2789000   0.79693107   -7.7356785    697.21817  0.020832382  0.020664308            3 
 2790000   0.80886024   -7.7537335    696.58361  0.020805962  0.020657862            3 
 2791000   0.81312781   -7.7550883    697.16085  0.020815743   0.02065143            2 
 2792000   0.78932136   -7.7850454    696.00145  0.020773682  0.020645006            3 
 2793000   0.81712286   -7.7480892    698.23685  0.020832941  0.020638549            1 
 2794000   0.79690202   -7.7852456    696.87281  0.020784801  0.020632098            3 
 2795000   0.81779776    -7.751207    699.29173  0.020849485  0.020625631            2 
 2796000   0.79922999   -7.7893421    698.01083  0.020803852  0.020619172            2 
 2797000   0.82433825   -7.7856439    697.22111  0.020772885  0.020612685            4 
 2798000   0.79723318   -7.7725036    695.66292  0.020719053  0.020606199            2 
 2799000   0.82844967   -7.7979332    697.58894  0.020768993  0.020599706            2 
 2800000   0.80021815   -7.8127989    697.38248  0.020755431  0.020593277            1 
 2801000   0.80382365   -7.7838973    696.57876  0.020724109   0.02058683            1 
 2802000   0.80172236   -7.7860853    698.51812  0.020774391  0.020580378            3 
 2803000   0.81681764   -7.7579017    698.91854  0.020778884  0.020573962            4 
 2804000   0.81093455   -7.8076828     698.4478  0.020757483   0.02056754            3 
 2805000   0.80028978   -7.8066032    697.22529  0.020713764  0.020561114            5 
 2806000   0.79769132   -7.8095877     696.7904  0.020693466  0.020554681            3 
 2807000    0.7974743   -7.7507587    699.53611  0.020767608  0.020548256            1 
 2808000   0.79528137   -7.7922779    698.85243  0.020739922  0.020541832            3 
 2809000   0.79778253   -7.7662231    698.66728  0.020727046  0.020535426            9 
 2810000   0.79837106   -7.7767433    698.09225  0.020702617  0.020529038            2 
 2811000   0.78996866   -7.7800126    699.40969  0.020734308  0.020522655            2 
 2812000   0.79722394   -7.7600549    699.04442   0.02071611  0.020516273            2 
 2813000   0.81023182   -7.7514367    698.90617   0.02070465  0.020509885            2 
 2814000   0.80408887   -7.7644543    697.98026  0.020669873  0.020503529            4 
 2815000   0.81466839   -7.7886856    698.34307   0.02067327  0.020497131            2 
 2816000   0.80674821   -7.8024078    698.04524  0.020657115  0.020490729            2 
 2817000   0.78663529   -7.7854739    699.60334  0.020695875  0.020484327            2 
 2818000   0.79899768   -7.7480103    700.31794  0.020709662  0.020477955            4 
 2819000    0.7984551   -7.7762923    700.88083  0.020718956  0.020471611            2 
 2820000   0.79833432   -7.7748811    699.02366  0.020656728  0.020465232            2 
 2821000   0.80485733   -7.8086977    699.05838  0.020650431  0.020458851            2 
 2822000   0.78341163   -7.7641159      698.276  0.020620009  0.020452447            3 
 2823000   0.78521076   -7.7697262    698.99988  0.020634074  0.020446043            2 
 2824000   0.80395132   -7.7808244     699.0381  0.020627895  0.020439662            4 
 2825000   0.78273378   -7.7823182    698.63685  0.020608757  0.020433256            2 
 2826000   0.79136226   -7.8043089     698.3603  0.020593309  0.020426813            3 
 2827000   0.80800319   -7.7866009    699.37093  0.020615816   0.02042037            1 
 2828000   0.80368016   -7.8223495    698.43308   0.02058089  0.020413896            2 
 2829000   0.79781065   -7.7981823    697.12566  0.020535102  0.020407461            2 
 2830000   0.77882893   -7.8240721    697.79068  0.020547429  0.020401037            2 
 2831000   0.80095406   -7.8064237    698.07093   0.02054842  0.020394594            3 
 2832000   0.78539717   -7.7803008    699.32714  0.020578129  0.020388165            1 
 2833000   0.80483968   -7.7901957    699.38943  0.020572698   0.02038173            1 
 2834000   0.79919591   -7.8240042    697.07629  0.020497421  0.020375297            3 
 2835000    0.7906205   -7.8026658    696.88953  0.020484701   0.02036886            1 
 2836000   0.79705619   -7.7561946    700.24365  0.020576036  0.020362439            3 
 2837000   0.79512859   -7.7994741    697.72012  0.020494657   0.02035603            3 
 2838000   0.80928198   -7.7772471    699.40779  0.020536992  0.020349617            4 
 2839000   0.78244043   -7.8035914    699.27147  0.020525756  0.020343234            2 
 2840000   0.78996785   -7.8133126    699.62363  0.020528862  0.020336831            2 
 2841000    0.8047945   -7.8191261    696.71291  0.020436258  0.020330402            3 
 2842000   0.80122181   -7.7899546     699.0188  0.020496681  0.020323977            1 
 2843000   0.79925861   -7.8156307    700.28961  0.020526721   0.02031758            4 
 2844000   0.78296891   -7.8248335    697.59088  0.020440427  0.020311193            1 
 2845000   0.80291156   -7.8175558    698.88114  0.020471035  0.020304766           12 
 2846000   0.78810543   -7.8263474    698.59945  0.020455594  0.020298363            2 
 2847000   0.80392316   -7.8019005    699.30629  0.020469099  0.020291945            4 
 2848000   0.79079773   -7.8099199    698.83672  0.020448172  0.020285529            2 
 2849000   0.78685956   -7.8006326    700.64866  0.020493994  0.020279107            2 
 2850000   0.78221167   -7.8105006    698.46904  0.020423071  0.020272703            6 
 2851000   0.76817317   -7.8041871    699.63513  0.020449992  0.020266273            3 
 2852000   0.80622934   -7.7881092    700.15282  0.020457948  0.020259871            1 
 2853000   0.80925013   -7.8023787    700.07818  0.020448597  0.020253455            2 
 2854000   0.80746658    -7.817326    699.68275  0.020429886  0.020247051            2 
 2855000   0.79378786   -7.7779495    699.31152  0.020411895  0.020240654            2 
 2856000   0.77580115   -7.7971148    699.78279  0.020418499  0.020234235            4 
 2857000   0.80827927   -7.7827845    698.86585  0.020384607  0.020227861            2 
 2858000   0.78021319   -7.7906215    700.93419  0.020437783  0.020221491            2 
 2859000   0.78764459   -7.7935244    698.04473  0.020346413  0.020215106            2 
 2860000    0.7851079   -7.8066986     700.0053  0.020396425  0.020208731            5 
 2861000   0.81793326   -7.8077061    700.34226   0.02039911  0.020202367            3 
 2862000   0.79279007   -7.7941838    700.21249  0.020388204  0.020196011            4 
 2863000   0.78736171   -7.8051207    700.63729  0.020393448  0.020189636            1 
 2864000   0.79101929   -7.7800789    701.56129  0.020413212  0.020183307            2 
 2865000    0.7945165   -7.7934793    699.73613     0.020353  0.020176981            3 
 2866000   0.79403317   -7.8248465    697.04108  0.020267535  0.020170589            2 
 2867000   0.80139114   -7.7941367    701.52173  0.020390703  0.020164194            4 
 2868000   0.79108006   -7.8271451    699.93411  0.020337463  0.020157806            3 
 2869000   0.78679624   -7.8159926    702.14571  0.020394612  0.020151411            2 
 2870000   0.79819274   -7.8114751    701.90092  0.020380398  0.020145036            2 
 2871000   0.77348645   -7.8124164    700.10161  0.020321073  0.020138642            4 
 2872000   0.80765231   -7.7791189    700.49684  0.020325465  0.020132285            1 
 2873000   0.78587513   -7.8054217    700.51526  0.020318925  0.020125947            2 
 2874000   0.77540864    -7.807673    701.45013  0.020338962  0.020119572            4 
 2875000   0.79926632   -7.8439057    700.44578  0.020302776  0.020113194            2 
 2876000   0.80026768   -7.8157906    700.12298  0.020286364  0.020106843            2 
 2877000   0.78818522   -7.8269465    699.82503  0.020270682  0.020100456            4 
 2878000   0.79955365   -7.8345633    700.06644  0.020270629  0.020094095            2 
 2879000    0.7826966    -7.808849    699.66497  0.020251967  0.020087725            3 
 2880000   0.77595076   -7.8078159    701.77317  0.020305937   0.02008135            4 
 2881000   0.78430424   -7.8215265    699.34591   0.02022868  0.020074961            3 
 2882000   0.78900621   -7.8390376    700.64102  0.020259109  0.020068559            5 
 2883000   0.78727309   -7.8547242    699.00851  0.020204894   0.02006214            3 
 2884000   0.78917445   -7.8114627    700.71575  0.020247219  0.020055739            3 
 2885000   0.80060682   -7.8230348    700.89174  0.020245284  0.020049357            4 
 2886000   0.78190212   -7.8143957    699.86613  0.020208655  0.020042976            4 
 2887000   0.78641481   -7.8604323    699.48375  0.020190618  0.020036579            4 
 2888000   0.79758689   -7.8353314    700.57714  0.020215176  0.020030174            2 
 2889000   0.79118765   -7.8452857    699.48774  0.020176755  0.020023734            2 
 2890000    0.7865072   -7.8078625    699.78045  0.020178214  0.020017321            3 
 2891000   0.80653306    -7.823024    700.83002  0.020201488  0.020010945            2 
 2892000    0.7747611   -7.8208995    701.30997  0.020208332  0.020004564            3 
 2893000   0.80440793   -7.8035156    701.64913  0.020211117  0.019998208            2 
 2894000   0.78809863    -7.793062    700.54956  0.020172471  0.019991847            1 
 2895000   0.78676636   -7.8270312     701.3639  0.020188944  0.019985516            2 
 2896000   0.79128225   -7.8096129    700.95395  0.020170176  0.019979162            3 
 2897000   0.77763437   -7.8108919    699.67254  0.020126353  0.019972815            2 
 2898000   0.79016898   -7.7885069    701.52468  0.020172667  0.019966468            1 
 2899000   0.80498183   -7.8312367     700.5295  0.020137102  0.019960117            2 
 2900000     0.778269   -7.7980889    702.91658  0.020198752  0.019953768            2 
 2901000   0.78219285   -7.8685046    700.17972  0.020113171  0.019947422            2 
 2902000   0.79210442   -7.7786011    702.45534  0.020171587  0.019941093            1 
 2903000   0.79163896   -7.8201511    702.21294   0.02015768  0.019934766            2 
 2904000   0.78632174   -7.8007801    702.33495   0.02015424  0.019928478            3 
 2905000   0.79694676   -7.8119401    702.38075  0.020148616   0.01992219            3 
 2906000   0.78437822   -7.7978312    702.24789  0.020137873  0.019915887            4 
 2907000   0.79103072   -7.8407611    702.29172  0.020132202  0.019909613            2 
 2908000   0.78273626   -7.8216892     702.1133  0.020120165  0.019903314            3 
 2909000   0.79263107   -7.8263109    703.56673  0.020154885  0.019897021            4 
 2910000   0.76516451   -7.8237723    702.07243  0.020105167  0.019890747            2 
 2911000   0.77331893   -7.8199816    703.56302  0.020140931  0.019884486            2 
 2912000   0.78044725   -7.8688239    701.09725  0.020063452  0.019878217            2 
 2913000   0.77369666    -7.843632    702.11717  0.020085741  0.019871899            2 
 2914000   0.76842778   -7.8377864    701.58352  0.020063587  0.019865589            1 
 2915000   0.77518274   -7.8388943    701.15725  0.020044518  0.019859315            4 
 2916000    0.7785342   -7.8281266    702.19062  0.020067176  0.019853019            6 
 2917000   0.78139374   -7.8233452    702.80053   0.02007772  0.019846707            3 
 2918000   0.76659695   -7.8302406     702.0211  0.020048581  0.019840374            3 
 2919000   0.78440963   -7.8352888    701.54805  0.020028207  0.019834028            2 
 2920000   0.80022459   -7.8415809    702.29856  0.020042767  0.019827717            2 
 2921000   0.79602237   -7.8372154    703.43979  0.020068464  0.019821441            4 
 2922000   0.78743044   -7.8350105    703.73295  0.020069956  0.019815154            2 
 2923000   0.77507442    -7.802458    703.21619  0.020048358  0.019808871            3 
 2924000   0.78912437   -7.8294193    705.20078  0.020098061   0.01980258            2 
 2925000   0.80179128   -7.8446527    703.54705  0.020044075  0.019796272            1 
 2926000   0.81195492   -7.8123574    705.19354  0.020084118   0.01978999            1 
 2927000   0.79962887   -7.8569354    703.66697  0.020033794  0.019783734            2 
 2928000   0.78671351   -7.8485547    703.35919  0.020018192  0.019777464            3 
 2929000   0.78761581    -7.839322    701.86211  0.019968764  0.019771176            3 
 2930000   0.77322453    -7.813115    702.49245  0.019979876  0.019764899            3 
 2931000   0.79945316   -7.8703443    701.10145  0.019933511  0.019758599            2 
 2932000   0.78349079   -7.8397105     703.3667  0.019991095  0.019752292            2 
 2933000   0.77393055    -7.858599    700.35672  0.019898759  0.019745987            3 
 2934000   0.77808819   -7.8226844    702.92906  0.019965038  0.019739728            1 
 2935000   0.79197836   -7.8280149    703.65268  0.019978781  0.019733467            3 
 2936000   0.78270775   -7.8124125    703.19726   0.01995905  0.019727214            3 
 2937000   0.78035072   -7.8249969    703.96133  0.019973934  0.019720993            2 
 2938000   0.77345502    -7.821035    703.69184  0.019959492   0.01971475            2 
 2939000   0.77503255   -7.8302642    705.47789  0.020003343  0.019708479            2 
 2940000   0.76213546   -7.8495175    702.54917  0.019913525  0.019702193            2 
 2941000   0.79313116   -7.8632324    704.68978  0.019967409  0.019695903            1 
 2942000   0.78269254   -7.7941775    705.31106  0.019978219  0.019689651            1 
 2943000   0.77644528    -7.834308    703.39314  0.019917124   0.01968345            2 
 2944000   0.78611676   -7.8497229     703.2099  0.019905172  0.019677213            2 
 2945000   0.79137417   -7.8205489     703.8014   0.01991515  0.019671002            2 
 2946000   0.78267398   -7.8413789    703.56321  0.019901652  0.019664758            2 
 2947000   0.76704819   -7.8650216     704.0128  0.019907612  0.019658461            5 
 2948000   0.78011922   -7.8235008    704.03584  0.019901511  0.019652202            2 
 2949000   0.77996172   -7.8056021    705.39492  0.019933167  0.019645949            2 
 2950000   0.78434888   -7.8313461    703.94366  0.019885414  0.019639686            4 
 2951000   0.77905553   -7.8275501    705.36389  0.019918782  0.019633455            2 
 2952000   0.76886759   -7.8158454    703.90622  0.019870885  0.019627207            4 
 2953000   0.77050697   -7.8309391    703.89543  0.019863851  0.019620975            3 
 2954000    0.7846057   -7.8535101    704.15498  0.019864449  0.019614736            3 
 2955000   0.77925307   -7.8262855    704.31434  0.019862221  0.019608507            3 
 2956000   0.79040638   -7.8126141    703.64012  0.019836494  0.019602295            3 
 2957000   0.77822446   -7.8717761    703.49044  0.019825568  0.019596072            3 
 2958000   0.77858234   -7.8356078    705.35731  0.019871459  0.019589876            4 
 2959000   0.78809955   -7.8492184    703.91306  0.019824069  0.019583675            1 
 2960000   0.77750916   -7.8452309     704.8911  0.019844907  0.019577449            2 
 2961000   0.80171656   -7.8726092    703.01134  0.019785302  0.019571215            2 
 2962000   0.78800052   -7.8399313    706.63348  0.019880528  0.019565019            3 
 2963000   0.78301619    -7.827494    703.25357   0.01977876  0.019558835            1 
 2964000   0.78943708   -7.8477301    705.78103  0.019843146  0.019552634            3 
 2965000   0.77308201   -7.8270998    706.34911   0.01985242  0.019546447            3 
 2966000   0.77894527   -7.8440024    705.29993  0.019816249  0.019540287            2 
 2967000   0.78105853   -7.8231515    707.58999   0.01987389  0.019534147            2 
 2968000   0.77517148   -7.8238733    706.01003  0.019822833  0.019528008            4 
 2969000   0.76392085   -7.8110553    706.94062  0.019842276  0.019521854            3 
 2970000   0.77119672   -7.8837577    706.02291  0.019809846  0.019515719            2 
 2971000   0.78198052   -7.8416633    706.71395  0.019822561  0.019509575            2 
 2972000   0.77432873    -7.833401    706.99736  0.019823838   0.01950345            3 
 2973000   0.77679196   -7.8713227    706.49191  0.019803002  0.019497305            3 
 2974000   0.76626042   -7.8652502    705.53653  0.019769573   0.01949115            4 
 2975000   0.77380007   -7.8272889     707.4503  0.019816535  0.019484982            4 
 2976000   0.78874788    -7.852426    707.63552  0.019815063  0.019478886            4 
 2977000    0.7735781    -7.856193    707.95622  0.019817384  0.019472762            1 
 2978000   0.76995941    -7.841645    707.96829  0.019811067  0.019466663            2 
 2979000   0.77270422   -7.8653706     706.4553  0.019762093  0.019460556            2 
 2980000    0.7723978   -7.8417428    707.25454  0.019777812  0.019454441            2 
 2981000   0.78285296   -7.8740413    704.46533  0.019693205  0.019448308            2 
 2982000   0.78696784   -7.8761099    705.45123  0.019714152  0.019442175            2 
 2983000   0.78168606   -7.8603599    707.52316  0.019765425  0.019436032            2 
 2984000   0.78026988   -7.8498367    707.76029  0.019765424  0.019429898            5 
 2985000   0.79321242   -7.8589405    706.60555  0.019726565  0.019423756            4 
 2986000    0.7828186   -7.8447358    705.89756    0.0197002  0.019417621            3 
 2987000   0.76806755   -7.8203399    707.15127  0.019728581   0.01941149            2 
 2988000   0.77352987   -7.8123726    708.96882  0.019772669  0.019405374            1 
 2989000    0.7633927    -7.861042    707.16679  0.019715813   0.01939928            1 
 2990000   0.75581513   -7.8336339    707.86379  0.019728645  0.019393169            3 
 2991000   0.76526567   -7.8590729    706.48871  0.019683738  0.019387067            4 
 2992000   0.77852083   -7.8457545    706.99324  0.019691211  0.019380958            4 
 2993000   0.78298416   -7.8233922    708.42081  0.019724379  0.019374882            2 
 2994000   0.77472969   -7.8496596    707.04496  0.019679497   0.01936879            1 
 2995000    0.7757707   -7.8493873     706.4916  0.019657529  0.019362685            3 
 2996000   0.77578775   -7.8519457    707.90776  0.019690358  0.019356551            3 
 2997000    0.7683629   -7.8620275    708.03301  0.019687271  0.019350453            2 
 2998000   0.76962799    -7.866795    705.66954  0.019615008  0.019344375            3 
 2999000   0.77551559   -7.8655075    708.10768  0.019676217  0.019338292            2 
 3000000   0.75455521   -7.8405036    708.92456  0.019692349   0.01933222            4 
 3001000   0.79002156   -7.8503144    708.40931  0.019671479  0.019326166            7 
 3002000   0.76160089   -7.8338179    708.49297  0.019667249  0.019320106            2 
 3003000   0.76647618   -7.8915066    707.32967  0.019628418  0.019314023            2 
 3004000    0.7732276     -7.83247    708.72697  0.019660646  0.019307962            3 
 3005000   0.77083699   -7.8380171    707.64784  0.019624178  0.019301932            2 
 3006000   0.76037799   -7.8649759    708.92062  0.019652934  0.019295878            2 
 3007000    0.7709819    -7.846403    708.79723  0.019642978  0.019289821            2 
 3008000   0.76520201   -7.8602694    707.52372  0.019601167  0.019283778            2 
 3009000   0.76197453   -7.8496631    709.30105  0.019643875   0.01927772            2 
 3010000    0.7652215   -7.8536644    708.93558  0.019627231  0.019271706            2 
 3011000   0.76078105   -7.8783064    707.88838   0.01959173  0.019265686            1 
 3012000   0.77499282   -7.8288124    709.09318  0.019618558  0.019259654            3 
 3013000   0.77242878   -7.8203145    709.62957  0.019626883   0.01925363            3 
 3014000    0.7598554   -7.8787127    709.19335   0.01960831  0.019247618            3 
 3015000   0.77167316   -7.8300793    709.21762  0.019602477   0.01924157            3 
 3016000   0.77865793   -7.8819598    709.07655   0.01959208  0.019235538            1 
 3017000   0.75471751    -7.879025    708.42167  0.019567497  0.019229521            3 
 3018000   0.75489993   -7.8685575    709.27238  0.019584503   0.01922349            1 
 3019000     0.772326   -7.8731089    707.68954  0.019534326  0.019217438            2 
 3020000   0.77286554   -7.8574221    709.16052  0.019568447  0.019211402            3 
 3021000   0.76839016    -7.859199    709.07529  0.019559618  0.019205382            3 
 3022000   0.76535554   -7.8924063    709.20569  0.019556742  0.019199356            2 
 3023000   0.75858682       -7.882    709.28647  0.019552499  0.019193314            2 
 3024000    0.7632675   -7.8921784    709.67106  0.019556632   0.01918728            2 
 3025000   0.77177174   -7.8539742    707.63716  0.019494137  0.019181251            2 
 3026000   0.75184535   -7.8537816    710.40721  0.019563979  0.019175256            3 
 3027000    0.7622694    -7.880724    708.53954  0.019506099  0.019169236            2 
 3028000   0.75452091   -7.8865078    709.41895  0.019523859  0.019163207            5 
 3029000   0.76818633   -7.8936143    708.18445   0.01948345  0.019157176            2 
 3030000   0.76016563   -7.8688277    711.55208  0.019569639  0.019151146            2 
 3031000   0.76185641   -7.8491404    710.00465  0.019520638  0.019145144            2 
 3032000   0.77940991   -7.8303491    710.88739  0.019538462  0.019139171            3 
 3033000   0.76747257   -7.8851857    708.19009   0.01945791  0.019133178            2 
 3034000   0.76709819   -7.8878847    707.63253  0.019436182   0.01912718            2 
 3035000   0.76364068   -7.8520026    709.67423  0.019485838  0.019121143            2 
 3036000   0.78778128   -7.8972481    709.35328   0.01947061  0.019115142            2 
 3037000   0.76490484   -7.8828205    708.67752  0.019445657  0.019109121            4 
 3038000   0.76355938   -7.8565141    709.62963  0.019465373    0.0191031            1 
 3039000   0.77717089   -7.8864862    707.84603  0.019410059   0.01909708            3 
 3040000   0.76937881   -7.8767357     709.9105  0.019460266   0.01909109            5 
 3041000   0.76042594   -7.8866194    709.55422  0.019444103  0.019085075            3 
 3042000   0.77045859   -7.8801624     710.1588  0.019454274  0.019079049            1 
 3043000   0.75677093   -7.9080012    708.87377   0.01941269   0.01907301            4 
 3044000   0.77370069   -7.9038722     709.9607  0.019436068   0.01906698            3 
 3045000   0.76360554   -7.9048658    709.19477  0.019408724  0.019060952            1 
 3046000   0.75373914   -7.8812101    710.86094  0.019447936  0.019054955            2 
 3047000   0.76975238   -7.8510793     711.4566  0.019457844  0.019048974            3 
 3048000   0.78116677   -7.8565463    711.14958  0.019443066  0.019042983            2 
 3049000   0.76085727   -7.9008114    709.59412  0.019394176  0.019037008            2 
 3050000   0.76588906   -7.8641986    711.15679  0.019430514  0.019031016            2 
 3051000    0.7761354   -7.8664849    710.52643  0.019406928  0.019025037            3 
 3052000   0.76081245    -7.873454    710.78509  0.019407631   0.01901907            3 
 3053000   0.77268701   -7.8775881    710.22031  0.019385858  0.019013082            2 
 3054000   0.76434893   -7.8669171    710.56361  0.019388878  0.019007084            2 
 3055000   0.74956007   -7.8578792    710.50268  0.019380869  0.019001127            2 
 3056000   0.75389323   -7.8894512    709.59507  0.019349778  0.018995145            1 
 3057000    0.7561019   -7.8925911    710.60475  0.019370972  0.018989149            2 
 3058000   0.77230072   -7.8965252    710.50749  0.019361987  0.018983141            1 
 3059000   0.74887046   -7.8707992    710.67837  0.019360313  0.018977134            1 
 3060000   0.77094801   -7.8742871    711.18315  0.019367733  0.018971145            3 
 3061000   0.75000579   -7.8732725    709.23494  0.019308367  0.018965161            4 
 3062000   0.75747523   -7.8953935    710.42368  0.019334413  0.018959169            3 
 3063000   0.75470229   -7.8839163    709.98077  0.019316051  0.018953169            2 
 3064000    0.7736444   -7.8773376    711.30603  0.019345791  0.018947166            2 
 3065000   0.75779738   -7.8591294    709.20409   0.01928233  0.018941185            2 
 3066000   0.76438091   -7.8613267    710.72364  0.019317342  0.018935222            3 
 3067000   0.75978561   -7.8641342    709.48382  0.019277356  0.018929236            2 
 3068000   0.77364662   -7.8678658    709.50578  0.019271669  0.018923258            2 
 3069000   0.77158537    -7.845252    710.21078  0.019284533  0.018917287            2 
 3070000    0.7401156   -7.8874355    710.06581  0.019274316  0.018911308            3 
 3071000   0.75211152   -7.8951701    709.63563  0.019256367  0.018905319            2 
 3072000   0.76265481   -7.8853488    709.23494  0.019239229  0.018899327            3 
 3073000   0.76707148   -7.8888324    708.42934  0.019211122  0.018893346            2 
 3074000    0.7328871   -7.8963163    707.46059  0.019178611  0.018887353            4 
 3075000   0.75555594   -7.8765207    709.35714  0.019223771  0.018881353            3 
 3076000   0.75443422   -7.8757393    710.15785  0.019239214  0.018875378            4 
 3077000   0.75761359    -7.878759    711.75233  0.019276144  0.018869417            4 
 3078000   0.75571376   -7.8633765    709.73015  0.019215133  0.018863464            2 
 3079000   0.74669014   -7.8947452    710.75747  0.019236697  0.018857508            3 
 3080000   0.76446299   -7.8903289    710.24247  0.019216517  0.018851571            3 
 3081000   0.75397124   -7.8775801    710.91621  0.019228503  0.018845593            2 
 3082000   0.75511604   -7.8929468    709.40168  0.019181313  0.018839597            4 
 3083000   0.75479268   -7.8743106    709.46364  0.019176766  0.018833634            3 
 3084000   0.75816907    -7.907956    710.50251   0.01919862  0.018827662            3 
 3085000   0.75727242   -7.8864477    712.03493  0.019233791  0.018821694            4 
 3086000   0.75709932    -7.873185    709.49681   0.01915902  0.018815741            3 
 3087000    0.7510473   -7.8900346    711.53193  0.019207751   0.01880979            3 
 3088000   0.75825287   -7.8867095    711.48441  0.019200249  0.018803859            2 
 3089000     0.739151   -7.8861068    712.58527  0.019223731  0.018797934            2 
 3090000   0.75883981   -7.8805079    709.83227  0.019143265  0.018792002            1 
 3091000   0.75962464    -7.879892    711.17627  0.019173306  0.018786063            4 
 3092000   0.77541747   -7.9141639    709.94051    0.0191338  0.018780128            2 
 3093000   0.75628421     -7.88846    711.24361  0.019162723  0.018774177            4 
 3094000   0.75093515   -7.9115674    710.55535  0.019137992  0.018768204            1 
 3095000   0.76463174   -7.8539582    710.74754  0.019136983   0.01876225            4 
 3096000   0.76251854   -7.9133606    708.72056  0.019076242  0.018756289            4 
 3097000   0.75273689   -7.9198372     709.7751  0.019098458  0.018750303            3 
 3098000   0.73813751   -7.8798615    711.56218  0.019140364  0.018744337            3 
 3099000   0.76631451    -7.876263    711.29389  0.019126974  0.018738389            3 
 3100000   0.75348497   -7.8992043    711.21812  0.019118767  0.018732458            3 
 3101000   0.76739926   -7.8867995    713.19593  0.019165751  0.018726508            3 
 3102000   0.75581536   -7.8798523     711.2865  0.019108277  0.018720579            3 
 3103000   0.76337133   -7.8682958    711.08661  0.019096751  0.018714661            1 
 3104000   0.77308811   -7.8881235    711.32961  0.019097122  0.018708766            1 
 3105000   0.77277576   -7.8726591    712.68833  0.019127438   0.01870285            5 
 3106000    0.7422033   -7.8821528    712.06506  0.019104557  0.018696945            1 
 3107000   0.73762918    -7.883613    709.89748  0.019040271  0.018691018            4 
 3108000   0.76187516   -7.9265087    710.70253  0.019055731  0.018685065            3 
 3109000   0.74808589   -7.8980557     711.6765  0.019075708  0.018679141            2 
 3110000   0.75427233   -7.9190708     710.9716  0.019050686  0.018673207            2 
 3111000   0.75595338   -7.9131964    711.97049  0.019071319  0.018667292            2 
 3112000   0.75904539   -7.8924803    712.37106  0.019075917  0.018661406            4 
 3113000    0.7548502   -7.8856587    713.09471  0.019089161  0.018655527            3 
 3114000   0.74765513   -7.8878229    713.51754  0.019094346   0.01864964            2 
 3115000   0.76020847   -7.8712151    712.90039  0.019071706  0.018643758            1 
 3116000   0.75237605    -7.914213     712.2559   0.01904835  0.018637856            3 
 3117000   0.74405267   -7.9037726    712.81858  0.019057282   0.01863194            3 
 3118000   0.73892414    -7.864193     712.0896  0.019031687  0.018626044            6 
 3119000   0.75469205   -7.8928815    711.56103  0.019011463  0.018620139            2 
 3120000    0.7526084   -7.8707701    712.20329  0.019022524  0.018614239            2 
 3121000   0.74958632   -7.9246083    712.23173  0.019017188  0.018608337            3 
 3122000    0.7625371   -7.8956948    711.23368  0.018984457  0.018602434            5 
 3123000   0.74683904   -7.9148366    710.62775  0.018962209  0.018596515            5 
 3124000   0.76606972   -7.9128262    710.71738   0.01895853  0.018590606            3 
 3125000   0.75139261   -7.9058333     711.1426  0.018963803  0.018584684            4 
 3126000    0.7515378   -7.9188655    711.83943  0.018976312  0.018578752            4 
 3127000   0.73897426   -7.8911458    712.18312  0.018979403   0.01857283            2 
 3128000   0.75579728    -7.941822    710.01472  0.018915567  0.018566894            2 
 3129000   0.76373183   -7.9221926    712.91423  0.018986743  0.018560967            2 
 3130000   0.75532479   -7.8766887    714.02631  0.019010285  0.018555073            1 
 3131000   0.76070891   -7.9138756    712.34466  0.018959455   0.01854917            4 
 3132000   0.74307644   -7.9468034    710.98505  0.018917227  0.018543258            4 
 3133000   0.74184189   -7.8891113    712.17427   0.01894282  0.018537355            2 
 3134000   0.74600123   -7.9072288    711.29801  0.018913476  0.018531449            2 
 3135000   0.73894968     -7.90669    710.78652  0.018893847  0.018525546            3 
 3136000   0.75669388   -7.9182834    712.68621  0.018938303  0.018519663            2 
 3137000   0.75570182   -7.9185769    711.75048  0.018907408  0.018513782            5 
 3138000   0.75353584   -7.9188469    712.77568  0.018928608  0.018507906            4 
 3139000   0.76120279   -7.9348929    712.68192  0.018920089  0.018502021            4 
 3140000   0.75298785   -7.8931385    711.37218  0.018879304  0.018496156            2 
 3141000   0.75660904   -7.9325382    712.57125  0.018905106  0.018490286            1 
 3142000   0.74678314   -7.8836697    713.23276  0.018916634  0.018484411            2 
 3143000   0.76989885   -7.9043105    712.79915  0.018899119  0.018478542            2 
 3144000   0.76281481   -7.9205749    713.83244  0.018920495  0.018472675            3 
 3145000   0.74837078   -7.9446112    712.83934  0.018888165  0.018466788            5 
 3146000   0.73795526   -7.9096567    710.86031  0.018829739  0.018460892            2 
 3147000   0.76464759   -7.9182398    713.96495  0.018905967  0.018455033            4 
 3148000   0.74843774     -7.89972    712.18115  0.018852741  0.018449181            1 
 3149000   0.74070895   -7.8906345    712.64963  0.018859152  0.018443328            2 
 3150000   0.75604904   -7.8834232    713.77667  0.018882981  0.018437468            5 
 3151000    0.7685543   -7.9182077    713.44171  0.018868129  0.018431601            3 
 3152000   0.74831083    -7.926142     713.4551  0.018862497  0.018425742            2 
 3153000   0.73978795   -7.8964717    713.55921  0.018859267   0.01841987            4 
 3154000   0.74886133   -7.9246741    712.93757  0.018836862  0.018413973            5 
 3155000   0.73120711   -7.9127651    712.48522  0.018818944   0.01840807            3 
 3156000   0.75357656   -7.8828799    711.98553  0.018799787  0.018402163            2 
 3157000   0.75636445   -7.9085881    713.19766  0.018825828  0.018396294            4 
 3158000   0.75361914    -7.889983    713.70836  0.018833343  0.018390422            2 
 3159000   0.75192895   -7.8905267    713.10014  0.018811337  0.018384568            1 
 3160000    0.7369537   -7.9354582    710.98571  0.018749623  0.018378698            2 
 3161000   0.72751719   -7.9453948    710.87537  0.018740783  0.018372818            4 
 3162000   0.74054617   -7.9277322    712.59561  0.018780192   0.01836693            4 
 3163000   0.73897075   -7.8811198    713.49864  0.018798046  0.018361072            5 
 3164000   0.75433372   -7.9201051    711.88677  0.018749652  0.018355215            4 
 3165000   0.73879899   -7.9146489    711.73861  0.018739826  0.018349348            1 
 3166000   0.74132328   -7.9166233      711.636  0.018731206  0.018343487            3 
 3167000   0.73479878   -7.9135407    713.68586   0.01877923  0.018337627            3 
 3168000   0.73334424   -7.9319556    712.78946  0.018749723  0.018331776            3 
 3169000   0.74509591   -7.9324871    713.43384  0.018760751  0.018325913            3 
 3170000   0.74324393   -7.9405415    713.22752  0.018749409  0.018320073            3 
 3171000   0.72772997   -7.9089795    713.53322   0.01875153  0.018314222            3 
 3172000   0.74018726   -7.9180444    713.57728  0.018746776  0.018308386            9 
 3173000   0.74938228   -7.9133606    715.47974  0.018790832  0.018302568            2 
 3174000   0.74282095   -7.9219785    714.47999  0.018758664  0.018296761            2 
 3175000    0.7423348   -7.9197893    712.98211  0.018713441  0.018290928            2 
 3176000   0.75636494   -7.9239735     712.8639  0.018704448  0.018285073            2 
 3177000   0.75660701   -7.9367999    712.28289   0.01868332  0.018279214            1 
 3178000   0.74402109    -7.925236    712.05648  0.018671504  0.018273345            2 
 3179000   0.72470121   -7.9173044    711.42622  0.018649109  0.018267489            2 
 3180000   0.74414989   -7.9375725    711.53615  0.018646126  0.018261593            3 
 3181000   0.74515951   -7.9299205    712.66331  0.018669792  0.018255702            3 
 3182000   0.73738861   -7.9412674    711.67951   0.01863816  0.018249817            6 
 3183000   0.73887945   -7.9494882     710.7821   0.01860881  0.018243936            3 
 3184000   0.75864598   -7.9538324    710.97016  0.018607887  0.018238051            1 
 3185000   0.75345847   -7.9493682    712.47129  0.018641321  0.018232181            3 
 3186000   0.72264938   -7.9672509    711.94551  0.018621718  0.018226286            2 
 3187000   0.74337368   -7.9536695    713.13263  0.018646915  0.018220379            1 
 3188000    0.7318224   -7.9606602    712.66917  0.018628952  0.018214471            4 
 3189000   0.73858376   -7.9431427    711.94449  0.018604173    0.0182086            4 
 3190000   0.75805016   -7.9246447    711.48038  0.018586217  0.018202725            3 
 3191000   0.74924685   -7.9275463    712.97365  0.018619389  0.018196856            6 
 3192000   0.73864052   -7.9490062    711.75246  0.018581674  0.018190973            3 
 3193000   0.74360209   -7.9500027    713.91976  0.018632419  0.018185109            4 
 3194000   0.73770729   -7.9598074    709.41645  0.018509091  0.018179213            3 
 3195000   0.73352096   -7.9654635     711.6418  0.018561341  0.018173296            2 
 3196000   0.74782054   -7.9380328    710.32021  0.018521074  0.018167381            2 
 3197000   0.74071772   -7.9568242    711.83289   0.01855471  0.018161488            1 
 3198000   0.73869396   -7.9761915    710.25741  0.018507854  0.018155569            3 
 3199000   0.73634967   -7.9698731    712.16866  0.018551856  0.018149654            3 
 3200000   0.74302984   -7.9694068    712.12028  0.018544799  0.018143753            2 
 3201000    0.7450208   -7.9552556    713.69217  0.018579927   0.01813785            1 
 3202000   0.74280868    -7.982595    711.82971  0.018525653  0.018131926            4 
 3203000   0.73621165   -7.9532074    714.27645  0.018583527  0.018126029            3 
 3204000   0.72973161   -7.9602384    713.39215  0.018554727  0.018120148            5 
 3205000   0.74305274   -7.9255209    712.33437  0.018521434  0.018114279            3 
 3206000   0.73693115   -7.9449279    710.56218  0.018469593  0.018108408            2 
 3207000   0.74709422   -7.9466207    711.13475  0.018478712  0.018102533            1 
 3208000   0.72717317   -7.9475207    710.94701  0.018468075  0.018096633            5 
 3209000   0.74796676   -7.9253677    712.37886  0.018499503   0.01809076            3 
 3210000   0.74461325   -7.9436023     711.8154  0.018479112  0.018084909            2 
 3211000   0.73811618   -7.9371138     711.9087  0.018475779  0.018079055            3 
 3212000   0.73977565   -7.9372648    712.11135  0.018475284  0.018073211            6 
 3213000   0.74021567   -8.0015154    711.87273  0.018463345  0.018067326            2 
 3214000   0.73237655    -7.986291    711.24852  0.018441416  0.018061444            2 
 3215000   0.72781015   -7.9746335    710.83743  0.018425024  0.018055561            3 
 3216000   0.74493485    -7.959346    713.66975  0.018492686  0.018049662            2 
 3217000   0.73946298    -7.936875    713.63022  0.018485914  0.018043795            2 
 3218000   0.74846301   -7.9632155    712.70896  0.018456313  0.018037957            4 
 3219000   0.72947621   -7.9555364    711.49642  0.018419189  0.018032106            1 
 3220000   0.75316553   -7.9661609    713.26477  0.018459233  0.018026274            4 
 3221000    0.7282482   -7.9309407    712.55779  0.018435211  0.018020456            2 
 3222000   0.73594033   -7.9422013    713.15478   0.01844493  0.018014614            2 
 3223000    0.7281662     -7.96296    713.47523  0.018447493  0.018008788            2 
 3224000   0.74050517   -7.9375074    713.57423   0.01844433  0.018002952            3 
 3225000   0.75059087   -7.9493412    712.73265  0.018416864  0.017997124            3 
 3226000    0.7248478   -7.9704427    713.77838  0.018438169  0.017991322            1 
 3227000   0.73685084   -7.9606561    712.87264  0.018409065  0.017985503            4 
 3228000    0.7347974   -7.9632157    715.08777  0.018460547  0.017979694            3 
 3229000    0.7471895   -7.9436476    713.44569  0.018412452  0.017973882            2 
 3230000   0.72618368   -7.9577303    713.07804  0.018397266  0.017968073            2 
 3231000   0.73681625   -7.9665242    714.85615  0.018437433  0.017962259            2 
 3232000   0.73266253   -7.9152594     714.3836  0.018419544   0.01795646            2 
 3233000   0.73144358   -7.9663845    714.68699  0.018421667  0.017950669            2 
 3234000    0.7362613   -7.9523673    713.90656  0.018395861  0.017944855            2 
 3235000   0.73416658   -7.9572588     713.7372  0.018385811  0.017939067           11 
 3236000    0.7361095   -7.9523898    714.67907  0.018404385  0.017933273            3 
 3237000   0.74590176   -7.9542495     714.1672  0.018385522  0.017927478            3 
 3238000   0.72518307   -7.9540996    714.99196   0.01840107  0.017921721            2 
 3239000   0.73872703   -7.9707052    713.98102  0.018369379  0.017915923            4 
 3240000   0.74251431   -7.9520346    716.22879  0.018421522  0.017910157            3 
 3241000   0.74361653   -7.9473833    714.87495  0.018381028  0.017904393            4 
 3242000   0.73873154   -7.9536438    713.69765  0.018345097  0.017898617            5 
 3243000   0.73158129   -7.9689064    712.43808  0.018307074  0.017892823            1 
 3244000   0.73168134   -7.9611436    714.24606  0.018347874  0.017887048            2 
 3245000   0.72643624   -7.9591479    714.93663  0.018359954  0.017881249            2 
 3246000   0.74698627   -7.9546644    714.48572  0.018342722  0.017875464            1 
 3247000   0.73425129   -7.9593987    715.29206  0.018357768  0.017869705            2 
 3248000   0.72812543   -7.9471682    713.72322  0.018311864  0.017863942            3 
 3249000   0.71912247   -7.9593204    714.08587   0.01831553  0.017858177            3 
 3250000   0.73672789   -7.9802695    714.07566  0.018309632   0.01785241            3 
 3251000   0.71958002   -7.9795268    713.40773  0.018286879  0.017846629            3 
 3252000    0.7512433   -7.9390562    713.88178  0.018293404  0.017840875            3 
 3253000    0.7180387   -7.9486063    713.77698  0.018285095  0.017835115            5 
 3254000   0.72940547   -7.9711635    714.33762  0.018293834  0.017829363            2 
 3255000   0.71359625   -7.9448191    714.39157  0.018289595  0.017823621            2 
 3256000   0.73640869   -7.9562477    715.41599  0.018310196  0.017817895            3 
 3257000   0.73872013   -7.9574493    714.58684   0.01828336  0.017812185            8 
 3258000     0.729651   -7.9551325    715.76974  0.018308004  0.017806478            2 
 3259000   0.73405252   -7.9430993    715.49109  0.018295262   0.01780076            4 
 3260000   0.73518726   -7.9803877    714.47486  0.018263672  0.017795018            3 
 3261000   0.71638342   -7.9405076    715.84828  0.018293169  0.017789293            1 
 3262000    0.7330935   -7.9535179     714.4259  0.018251224  0.017783574            4 
 3263000   0.72856081   -7.9806798    715.32137    0.0182685  0.017777877            4 
 3264000   0.73794955   -7.9359918    715.25972  0.018261329  0.017772179            2 
 3265000   0.73165718   -7.9611043    715.77437  0.018268871  0.017766478            1 
 3266000   0.73409847   -7.9646032    716.18299  0.018273704  0.017760764            2 
 3267000   0.74190603    -7.944388    715.06131  0.018239499  0.017755042            2 
 3268000   0.73281145   -7.9366869    716.02475  0.018258485  0.017749348            2 
 3269000   0.71795484   -7.9321319    715.94255  0.018250804  0.017743666            3 
 3270000   0.70522374   -7.9522593    715.33153  0.018229652   0.01773799            1 
 3271000   0.72151444   -7.9669523    715.00673  0.018215804  0.017732288            4 
 3272000   0.71745009   -7.9698683    716.07255  0.018237382  0.017726571            2 
 3273000    0.7357734   -7.9867103    716.24081  0.018236094   0.01772086            2 
 3274000   0.72889034   -7.9718152    714.50355  0.018186305  0.017715156            2 
 3275000   0.73391333    -7.949658    715.49669  0.018206023  0.017709466            2 
 3276000   0.72723107   -7.9757919    715.17847  0.018192371  0.017703768            1 
 3277000   0.72047837   -7.9625877    714.29875  0.018164448  0.017698071            2 
 3278000   0.73102903   -8.0101198    715.79901  0.018197046  0.017692372            3 
 3279000   0.72797481   -7.9927896    715.83166  0.018192326  0.017686665            1 
 3280000   0.71669093   -7.9878382    713.99724  0.018140174  0.017680963            4 
 3281000   0.73153342   -7.9728201    714.03025  0.018135483  0.017675258            3 
 3282000   0.71929565   -7.9559996    715.55895  0.018168773  0.017669564            2 
 3283000    0.7380457   -7.9732251    716.58609  0.018189311  0.017663871            2 
 3284000   0.75485168   -7.9289576     716.5124  0.018181902  0.017658194            3 
 3285000   0.71735557   -7.9767868    716.24376  0.018169552  0.017652528            4 
 3286000   0.72103582    -7.972041    716.05418  0.018159215  0.017646839            2 
 3287000   0.71065756   -7.9654007    716.87961  0.018174618  0.017641166            2 
 3288000   0.72029673   -7.9731954      716.229    0.0181526  0.017635485            2 
 3289000   0.72602331    -7.964176    716.67774  0.018158451  0.017629829            1 
 3290000   0.71951376    -7.971297    714.38343  0.018094819  0.017624125            3 
 3291000   0.72835365   -7.9982325    715.55804  0.018119063  0.017618428            4 
 3292000   0.71999742    -7.983285    715.54684  0.018113276   0.01761274            2 
 3293000   0.72004736   -7.9684939    716.43638  0.018130286  0.017607072            1 
 3294000   0.72408498   -7.9633017    715.78785  0.018108375  0.017601415            1 
 3295000    0.7155547   -7.9348053    718.60411  0.018174105  0.017595781            4 
 3296000    0.7197986   -7.9388684    717.89468  0.018150654  0.017590146            4 
 3297000   0.72423411   -7.9603381    718.18439  0.018152472  0.017584529            5 
 3298000   0.71739149   -7.9792701     716.3061  0.018099507  0.017578897            2 
 3299000    0.7255274   -7.9691219    715.40428  0.018071241  0.017573254            3 
 3300000   0.72377452   -7.9321218    717.22999  0.018111868  0.017567622            8 
 3301000   0.70892398   -7.9321995     715.8007  0.018070299  0.017561984            4 
 3302000   0.72273083   -7.9674397    716.94613  0.018093734  0.017556368            5 
 3303000   0.71814871   -7.9482421    717.37166  0.018098992  0.017550757            3 
 3304000   0.72744267   -7.9602873    717.35558  0.018093109  0.017545147            3 
 3305000   0.72548379   -7.9593297    715.56446  0.018042473   0.01753952            2 
 3306000   0.74131777    -7.985375    718.91515  0.018121475  0.017533929            5 
 3307000   0.72317068   -7.9714607    716.85104  0.018063981  0.017528312            5 
 3308000   0.71633092   -7.9728267    716.55864  0.018051155  0.017522687            4 
 3309000   0.72553331   -8.0044356    717.23207  0.018062659  0.017517075            3 
 3310000   0.71561831   -7.9805646    716.76752  0.018045506  0.017511439            3 
 3311000   0.71647082   -7.9856458    714.87712  0.017992478  0.017505809            4 
 3312000   0.71801489   -7.9777979    717.14971  0.018044226  0.017500174            3 
 3313000   0.72122557   -8.0024375    716.41407  0.018020275  0.017494551            1 
 3314000   0.73207921   -7.9872564    715.49605  0.017991753  0.017488915            5 
 3315000   0.72362336   -7.9999629    716.53585  0.018012465  0.017483273            2 
 3316000   0.72576977   -7.9970661    716.43832  0.018004582  0.017477637            7 
 3317000   0.72182578   -7.9866638    715.69977  0.017980599  0.017471975            6 
 3318000   0.71989451   -7.9972111    717.05733  0.018009276  0.017466328            2 
 3319000   0.71864922   -7.9764535    716.00679  0.017977473  0.017460669            2 
 3320000   0.69685385   -7.9799302    716.23667  0.017977828  0.017455021            2 
 3321000   0.70309042   -7.9904894    716.88748  0.017988745  0.017449406            2 
 3322000   0.74422292   -7.9705491    716.70905  0.017978854  0.017443775            2 
 3323000   0.72490591   -7.9878407    715.45732  0.017942053  0.017438143            2 
 3324000   0.74383685   -8.0055718    715.96135  0.017949292  0.017432502            2 
 3325000   0.72075902   -7.9997931    717.07635  0.017971838  0.017426879            4 
 3326000   0.71979329   -7.9935827    715.13115  0.017917698  0.017421234            2 
 3327000   0.70615854   -7.9982674    716.36311   0.01794317  0.017415611            2 
 3328000   0.70580507   -8.0006578    716.89447  0.017951084  0.017409986            5 
 3329000   0.71373246   -7.9970293    716.49999  0.017935816  0.017404364            2 
 3330000   0.72410308   -8.0112357    716.03749  0.017918856  0.017398744            3 
 3331000   0.72092447   -7.9868829    717.47766  0.017949506  0.017393127            3 
 3332000    0.7206892   -7.9561245    718.89298  0.017979516   0.01738752            4 
 3333000   0.70650957   -7.9890204    717.59603  0.017941695  0.017381905            5 
 3334000   0.71423458   -7.9861274    717.83786  0.017942358  0.017376294            5 
 3335000   0.72402209   -7.9573011    717.54134  0.017929569  0.017370695            2 
 3336000   0.71115084   -7.9848478     718.2991  0.017943123    0.0173651            2 
 3337000   0.71124259   -8.0152289    715.33192  0.017863648  0.017359499            4 
 3338000   0.71915182   -8.0209042    715.83626  0.017870887  0.017353878            7 
 3339000   0.71623866   -7.9934484    718.34128  0.017928054  0.017348275            3 
 3340000    0.7078673   -8.0160168    716.34762  0.017872945  0.017342665            1 
 3341000   0.71603496   -7.9995387    716.66802  0.017875587  0.017337044            1 
 3342000   0.72610903   -8.0097858    716.79608  0.017873431  0.017331433            2 
 3343000   0.71834461   -8.0088117      718.495  0.017910435  0.017325829            7 
 3344000   0.72061927   -8.0217142    717.24974  0.017874046  0.017320213            3 
 3345000   0.72215033   -8.0182745    717.33913   0.01787093  0.017314603            1 
 3346000     0.723411   -8.0164082    714.96517  0.017806465  0.017308994            2 
 3347000   0.71930943   -8.0196331    716.16615  0.017831046  0.017303404            3 
 3348000   0.71997372   -8.0222551    716.41208  0.017831842  0.017297796            6 
 3349000   0.72155173   -7.9979254    716.34331  0.017824806  0.017292183            1 
 3350000   0.71811201   -8.0253482    715.73982  0.017804473  0.017286555            2 
 3351000    0.7205572   -8.0188146    716.19153  0.017810393  0.017280945            3 
 3352000   0.71031097   -8.0074306    715.83824  0.017796297  0.017275343            3 
 3353000   0.71750023   -8.0060922    716.84446  0.017815997  0.017269763            2 
 3354000   0.69862378   -8.0022726    717.02184  0.017815092  0.017264176            5 
 3355000   0.71985603   -8.0155126    717.26258  0.017815762    0.0172586            3 
 3356000   0.70632994   -7.9763192     717.8033   0.01782388  0.017253032            3 
 3357000   0.71942988   -8.0256657    717.81606  0.017818887  0.017247472            4 
 3358000   0.72183916   -7.9900455    716.69176   0.01778568  0.017241913            3 
 3359000   0.71409732   -7.9616849    717.65847  0.017804368   0.01723637            5 
 3360000   0.70335163     -7.95081    718.15719  0.017811438  0.017230842            2 
 3361000   0.72093014   -7.9763323    716.24677  0.017758771   0.01722531            1 
 3362000   0.72867936   -7.9925609    717.45402  0.017783413  0.017219767            5 
 3363000   0.72691111   -8.0079585    716.31411  0.017749879  0.017214233            4 
 3364000   0.71136885   -7.9987281    715.42742  0.017722637  0.017208704            2 
 3365000   0.71288983   -7.9732496    716.17065  0.017735776  0.017203156            2 
 3366000   0.72571789   -8.0205911    716.81744   0.01774652  0.017197599            3 
 3367000   0.71568501   -7.9856971     716.3528   0.01772975  0.017192035            3 
 3368000   0.72102265   -8.0051005    717.82733  0.017760969  0.017186475            2 
 3369000   0.69337216   -7.9912563    717.58222  0.017749634  0.017180902            4 
 3370000   0.70867024   -7.9866512    717.72279  0.017747844  0.017175348            2 
 3371000    0.7083228   -8.0029989    715.60229  0.017690158  0.017169794            3 
 3372000   0.70708121   -8.0075777    717.81752  0.017739658   0.01716426            5 
 3373000   0.70190834     -7.99133    717.35244  0.017722908   0.01715872            2 
 3374000    0.7070808   -7.9783928    718.05145   0.01773492  0.017153211            3 
 3375000   0.70477293   -7.9843229    717.99351  0.017728235  0.017147691            1 
 3376000   0.70902459   -7.9931975    718.59925  0.017737936  0.017142177            2 
 3377000   0.72314705   -8.0146582    717.78703   0.01771264  0.017136645            4 
 3378000   0.72900593   -8.0026978    717.81417  0.017708066  0.017131124            1 
 3379000   0.71682557   -7.9874366    717.49709  0.017695006  0.017125597            3 
 3380000   0.69718073   -8.0199457    718.49572  0.017714392  0.017120081            3 
 3381000    0.7090825   -8.0244967    716.90098  0.017669846  0.017114549            2 
 3382000    0.7090688   -8.0060951    717.73867  0.017685262  0.017109006            2 
 3383000   0.72318682   -8.0120516    717.22031  0.017667265  0.017103464            2 
 3384000   0.71585191   -8.0079305    717.91722  0.017679207  0.017097944            3 
 3385000   0.71955994   -8.0040955    717.96229  0.017675093  0.017092428            1 
 3386000   0.69930658   -8.0373203    717.50747   0.01765868  0.017086901            1 
 3387000   0.71181329   -8.0391724    717.76791  0.017659874  0.017081367            4 
 3388000   0.72120926   -8.0339077    717.60074   0.01765055  0.017075828            1 
 3389000    0.7104455   -8.0393788    716.73914  0.017624155  0.017070291            5 
 3390000   0.72383433   -8.0549072    718.46105  0.017661284   0.01706474            2 
 3391000    0.6958918   -8.0226493    717.80369  0.017639922  0.017059217            2 
 3392000   0.71957681   -8.0379912    716.79945  0.017610049  0.017053708            2 
 3393000   0.69502917   -8.0160438    718.39216  0.017643977  0.017048198            2 
 3394000   0.69416433   -8.0382995      718.262  0.017635582  0.017042683            2 
 3395000   0.69953113   -8.0408113    718.71618  0.017641536  0.017037172            1 
 3396000   0.71548218   -8.0343605    718.16512  0.017622819  0.017031673            8 
 3397000   0.70573284   -8.0394646    719.79156   0.01765753  0.017026186            2 
 3398000   0.70001916   -8.0378849    718.33266  0.017616555  0.017020695            3 
 3399000    0.7161071   -8.0086319    718.29873  0.017610541  0.017015208            1 
 3400000   0.71257055   -8.0503191    719.53554  0.017635675   0.01700973            3 
 3401000   0.71123548   -8.0400328    717.26795  0.017574928  0.017004246            2 
 3402000   0.71722984   -8.0348933     718.8076  0.017607476  0.016998751            4 
 3403000   0.70953423   -8.0254387    719.21415  0.017612258  0.016993285            1 
 3404000   0.69804262    -8.017895    718.05681  0.017578751   0.01698781            4 
 3405000   0.71241725   -8.0255173    717.07106  0.017549463  0.016982349            5 
 3406000   0.72227093   -8.0444622    718.21456  0.017572288  0.016976884            4 
 3407000    0.6992428   -8.0288689    717.92881  0.017560141  0.016971427            2 
 3408000   0.71595357   -8.0438891    718.76274   0.01757538  0.016965954            2 
 3409000    0.7107194   -8.0581179    717.85358     0.017548  0.016960489            3 
 3410000   0.71501399   -8.0625251    717.33192  0.017530106  0.016955009            2 
 3411000    0.6866353   -8.0376175    719.55082  0.017579176  0.016949539            4 
 3412000   0.71534354   -8.0593239    718.38446  0.017545537  0.016944056            2 
 3413000   0.73019525   -8.0345471    717.55802  0.017520217  0.016938572            2 
 3414000   0.70191384   -8.0245755    718.90099  0.017547866  0.016933099            2 
 3415000   0.70389329   -8.0394915    719.17414  0.017549393  0.016927638            3 
 3416000   0.70724667   -8.0260451    718.92982  0.017538296  0.016922198            2 
 3417000   0.69741963   -8.0460513    719.48633  0.017546735  0.016916753            1 
 3418000   0.70932853   -8.0274795    719.69377  0.017546659  0.016911304            2 
 3419000   0.71085067   -8.0107437    718.64149  0.017515879  0.016905859            4 
 3420000   0.69699345   -8.0263642    718.74291  0.017513229  0.016900419            2 
 3421000   0.69113083   -8.0311296    718.04854  0.017491195  0.016894982            2 
 3422000   0.70732059   -8.0160536    717.72025  0.017478089  0.016889547            4 
 3423000   0.68812658   -8.0152455    718.52806  0.017492649  0.016884118            3 
 3424000    0.6939479   -8.0258114    719.60504  0.017513752    0.0168787            2 
 3425000   0.69660462   -8.0267801    718.80452  0.017489161   0.01687327            2 
 3426000   0.69556085    -8.039886    719.87407  0.017510072   0.01686783            3 
 3427000   0.69608295   -8.0404549    719.51232  0.017496166  0.016862396            2 
 3428000   0.68941745   -8.0116598    718.61275  0.017469194  0.016856972            2 
 3429000   0.70959901    -8.015014    719.08612  0.017475603  0.016851558            7 
 3430000   0.70655964   -8.0552894    719.99712  0.017492641  0.016846153            4 
 3431000   0.70024815   -8.0255032    718.68436  0.017455658  0.016840723            2 
 3432000   0.69569741   -8.0394863    719.08071  0.017460196  0.016835284            3 
 3433000   0.70025232   -8.0590114    719.44341  0.017463914  0.016829846            5 
 3434000   0.70142274   -8.0367325     719.3771  0.017457219  0.016824398            2 
 3435000   0.70286504   -8.0340604    718.63565   0.01743415   0.01681896            3 
 3436000   0.69641335   -8.0475697    719.79938    0.0174573  0.016813519            2 
 3437000   0.70191253   -8.0565524    718.18712   0.01741313  0.016808075            2 
 3438000    0.7029477   -8.0421374    718.43576  0.017414091  0.016802641            2 
 3439000    0.7205163    -8.050825    719.52759  0.017435485  0.016797214            3 
 3440000    0.7013991   -8.0546077    718.93896  0.017416157  0.016791782            6 
 3441000   0.69134696   -8.0573981    719.28138  0.017419388  0.016786348            2 
 3442000   0.70563016   -8.0470882    718.27345  0.017389925    0.0167809            3 
 3443000   0.70218211   -8.0404478     718.8731  0.017399388  0.016775474            2 
 3444000   0.69243737   -8.0616451    717.61031   0.01736378  0.016770037            3 
 3445000   0.70734537   -8.0425416    720.18451  0.017421009  0.016764598            2 
 3446000   0.70261729   -8.0576232     718.4652  0.017374376  0.016759155            2 
 3447000   0.70625816   -8.0511829    718.85141  0.017378673  0.016753721            2 
 3448000   0.70952145   -8.0736646    719.20313  0.017382133  0.016748293            3 
 3449000   0.69757067   -8.0437984    719.38199  0.017381415  0.016742864            2 
 3450000    0.7034466   -8.0476502    719.61258  0.017381946  0.016737447            2 
 3451000   0.69460553   -8.0858446    717.72449  0.017331317  0.016732014            5 
 3452000   0.71349071   -8.0338902    719.38285   0.01736633  0.016726585            3 
 3453000   0.69372214   -8.0460076    719.13581  0.017355339  0.016721157            3 
 3454000   0.71688079   -8.0598611    718.77085  0.017341509  0.016715735            6 
 3455000   0.70267307   -8.0560281    717.75398  0.017311963  0.016710307            2 
 3456000   0.68846212   -8.0579403    718.22091  0.017318212  0.016704874            3 
 3457000     0.702033   -8.0539175    719.84323   0.01735231  0.016699452            4 
 3458000    0.6857687   -8.0768603    717.12413  0.017281765  0.016694012            3 
 3459000   0.69349177   -8.0831378    716.84347  0.017270008  0.016688572            2 
 3460000   0.71492949   -8.0658992    716.75866  0.017262973  0.016683129            4 
 3461000   0.69324916   -8.0767559    718.52662  0.017300554  0.016677698            5 
 3462000   0.70881369   -8.0676212    719.04343  0.017307997  0.016672263            2 
 3463000   0.70855711   -8.0294918    719.41154  0.017311857  0.016666852            2 
 3464000   0.69839566   -8.0671291    718.71146  0.017290018  0.016661446            2 
 3465000    0.7038813   -8.0447666    717.96542  0.017267086  0.016656036            2 
 3466000   0.70645366   -8.0526188    717.96557  0.017262107  0.016650643            4 
 3467000   0.69320511   -8.0527666    719.68154  0.017298374  0.016645243            3 
 3468000   0.69956383   -8.0594838    718.77046  0.017271493  0.016639838            2 
 3469000   0.71547612   -8.0373787    719.50531  0.017284167  0.016634437            2 
 3470000    0.7099359   -8.0688508    718.73711  0.017260737  0.016629016            1 
 3471000   0.69784469   -8.0542028    718.78763  0.017256978  0.016623602            4 
 3472000   0.68167663   -8.0796356     717.3735  0.017218066  0.016618183            6 
 3473000   0.69438326   -8.0727585    717.09572  0.017206443  0.016612759            3 
 3474000   0.70723547   -8.0762594    718.25214   0.01722923  0.016607344            3 
 3475000   0.70048435   -8.0613036    717.74094  0.017212013  0.016601935            1 
 3476000   0.70386984   -8.0624619    717.70335   0.01720616  0.016596532            4 
 3477000   0.69772988   -8.0673612    717.91967  0.017206396  0.016591129            4 
 3478000   0.70648828   -8.0414108    719.31698  0.017234929  0.016585745            2 
 3479000   0.69239191   -8.0277523    719.24854  0.017228335  0.016580371            3 
 3480000    0.6829004   -8.0413268    718.35404  0.017201964  0.016574989            3 
 3481000   0.69275281   -8.0534942    720.13288  0.017239607   0.01656961            2 
 3482000   0.70485902   -8.0617097    720.03759  0.017232376  0.016564234            3 
 3483000   0.69498662   -8.0314701    719.56151  0.017216038   0.01655887            2 
 3484000     0.689981    -8.046224    719.66205  0.017213501  0.016553515            3 
 3485000   0.69378901   -8.0676835    718.05757  0.017170195  0.016548153            2 
 3486000   0.70194537   -8.0460531      719.569  0.017201401  0.016542785            2 
 3487000   0.70534437   -8.0264361    720.53734  0.017219609  0.016537431            2 
 3488000   0.68912605   -8.0429551    719.41713  0.017187909  0.016532092            4 
 3489000   0.69322803   -8.0518747    718.91368  0.017170958  0.016526734            2 
 3490000   0.69130752   -8.0419327    719.89973  0.017189583  0.016521356            1 
 3491000   0.69905516   -8.0419896    720.07783   0.01718891  0.016516002            3 
 3492000   0.69085226   -8.0542258    721.33782  0.017214057  0.016510654            2 
 3493000   0.70255902   -8.0424677    720.31189  0.017184652  0.016505321            2 
 3494000    0.7164049   -8.0536187    718.75726  0.017142655  0.016499979            2 
 3495000   0.69130974   -8.0447814    720.79601  0.017186362  0.016494645            3 
 3496000   0.70746648    -8.044689    719.21721  0.017143812  0.016489316            3 
 3497000   0.69946892   -8.0724475    719.55174  0.017146882  0.016483975            3 
 3498000    0.6880445   -8.0515431    720.34242  0.017160816  0.016478656            2 
 3499000   0.69736783   -8.0799403    719.50717  0.017136019  0.016473323            3 
 3500000   0.68829772    -8.062923    718.79439  0.017114152  0.016467996            2 
 3501000   0.68610328   -8.0435842    719.67531  0.017130232  0.016462668            2 
 3502000    0.6866086   -8.0679677    720.10959  0.017135675  0.016457343            2 
 3503000   0.69125784   -8.0534816    720.11363  0.017130879  0.016452041            2 
 3504000   0.67795709   -8.0449553    720.62234  0.017138088   0.01644672            3 
 3505000   0.69775546   -8.0597232    719.62654  0.017109523  0.016441404            2 
 3506000   0.69551176   -8.0523359    719.31839  0.017097319  0.016436091            2 
 3507000   0.69424496   -8.0646081    720.69233  0.017125091   0.01643078            2 
 3508000   0.71400969   -8.0650691     719.7769  0.017098463  0.016425454            3 
 3509000   0.68580796   -8.0692815    718.95434  0.017074056  0.016420134            3 
 3510000   0.68660656   -8.0827913    718.29581  0.017053557  0.016414799            4 
 3511000   0.68032589   -8.0761356    719.16694  0.017069376  0.016409458            7 
 3512000   0.68991143   -8.0956317    720.65216  0.017099757   0.01640413            8 
 3513000   0.69986883   -8.0668526    720.67262  0.017095375  0.016398813            6 
 3514000   0.69123057   -8.0516328    720.03902  0.017075484  0.016393496            3 
 3515000   0.68336969   -8.0813206    719.44633  0.017056575  0.016388196            3 
 3516000   0.68771117   -8.0516056    719.45406  0.017051907  0.016382882            5 
 3517000   0.67821936   -8.0794927    719.02224  0.017036827  0.016377577            3 
 3518000   0.68570768   -8.0925365    718.02151  0.017008279  0.016372272            2 
 3519000   0.68514639    -8.073063    718.23622   0.01700853  0.016366954            1 
 3520000    0.6985029   -8.0695728    719.23208  0.017027275  0.016361646            2 
 3521000   0.70200339   -8.0803949    719.23219  0.017022441  0.016356334            2 
 3522000   0.69058178   -8.0747691     718.4731  0.016999647  0.016351022            2 
 3523000   0.69251585   -8.1009051     717.4457   0.01697052    0.0163457            3 
 3524000   0.68194819   -8.0950203    720.86545  0.017046572   0.01634039            3 
 3525000   0.67630829   -8.0738967    719.96516  0.017020453  0.016335076            1 
 3526000    0.6774965   -8.0705694    720.31363  0.017023862  0.016329764            2 
 3527000   0.68199735   -8.0744713     718.7589  0.016982301  0.016324459            2 
 3528000   0.68252267   -8.0684578    721.02326  0.017030973   0.01631917           11 
 3529000   0.69399844   -8.0773208    720.24385  0.017007742  0.016313862            2 
 3530000    0.6904559   -8.0763531    719.63241  0.016988489   0.01630857            2 
 3531000   0.68734344   -8.0908594    719.05323  0.016970009  0.016303258            2 
 3532000   0.66686886   -8.0756108    719.74062  0.016981423  0.016297943            5 
 3533000   0.67375474   -8.0809009    719.31916  0.016966675  0.016292626            3 
 3534000   0.69172032   -8.0625307    718.66666  0.016946488  0.016287324            6 
 3535000    0.6799736   -8.0581351    719.61443  0.016964036  0.016282027           11 
 3536000   0.69393078   -8.0818131    719.03006  0.016945467   0.01627673            2 
 3537000   0.69017653   -8.0721401    718.56342  0.016929682  0.016271435            2 
 3538000   0.68333206   -8.0907885    719.04207  0.016936171  0.016266148            4 
 3539000    0.6724775   -8.0863795    721.46334  0.016988399  0.016260861            1 
 3540000   0.70208915   -8.0974074    719.19294  0.016930154   0.01625558            3 
 3541000   0.68100315   -8.0865417    719.65507  0.016936248  0.016250296            4 
 3542000   0.69383818   -8.0986925     719.8544  0.016936157  0.016245015            3 
 3543000   0.67594554   -8.0968665    720.13704  0.016938024  0.016239731            3 
 3544000   0.69387347   -8.0753646    718.98494  0.016906155  0.016234447            2 
 3545000   0.68750833   -8.0862416    720.02603  0.016925859  0.016229173            3 
 3546000   0.67920276   -8.0603797    720.69634  0.016936838  0.016223919            3 
 3547000   0.69314029   -8.0783823    719.32352   0.01689981  0.016218652            4 
 3548000   0.69688305   -8.0771431    719.37488  0.016896253  0.016213383            1 
 3549000    0.6870931   -8.0861681    719.53944  0.016895357   0.01620812            7 
 3550000   0.67547791   -8.0796296    718.95425   0.01687686  0.016202879            3 
 3551000   0.68114833   -8.0684139    721.57668   0.01693365  0.016197636            2 
 3552000   0.68105692   -8.0742452    722.27045  0.016945159  0.016192409            2 
 3553000   0.68127353   -8.0917017    720.62177  0.016901721  0.016187175            2 
 3554000   0.68052359   -8.0875508    720.97096  0.016905153  0.016181937            2 
 3555000   0.66666647   -8.0624089    721.25148  0.016906973  0.016176704            1 
 3556000   0.68892865    -8.055228    720.87209  0.016893328  0.016171486            2 
 3557000   0.68836031   -8.0774941    722.13308  0.016918121  0.016166275            1 
 3558000   0.68254045   -8.0615227    722.36536  0.016918806  0.016161077            2 
 3559000   0.69598473   -8.0797179    721.74231  0.016899464  0.016155879            2 
 3560000   0.67395203   -8.0850678    720.53569  0.016866472  0.016150684            2 
 3561000   0.68237021   -8.0706366    721.50388  0.016884393  0.016145476            3 
 3562000   0.68172594   -8.0781778    721.59715  0.016881835  0.016140268            3 
 3563000   0.67954654   -8.0806583    721.00929  0.016863348  0.016135063            6 
 3564000   0.66779227   -8.0829743    720.59452  0.016848918  0.016129859            2 
 3565000   0.68596081   -8.1071275    721.71453  0.016870372  0.016124663            3 
 3566000   0.69074305   -8.0821946    720.84505  0.016845323   0.01611945            5 
 3567000   0.69029792   -8.1050128    721.89931   0.01686523  0.016114234            3 
 3568000   0.68026279   -8.0881989    720.59991  0.016830155  0.016109021            2 
 3569000   0.67753977   -8.0913907    718.87921  0.016785262  0.016103811            2 
 3570000   0.67648286   -8.0771262    719.43835  0.016793612    0.0160986            4 
 3571000    0.6736234   -8.0918784    722.33063  0.016856404  0.016093392            3 
 3572000   0.68630305   -8.0973671    721.35539  0.016828933   0.01608818            2 
 3573000   0.69058416    -8.072092    721.17517   0.01682002  0.016082983            3 
 3574000   0.68773944   -8.0891745    721.62502  0.016825803  0.016077778            2 
 3575000   0.67930178   -8.0928876    720.09987  0.016785545  0.016072575            4 
 3576000    0.6753324   -8.0870765    720.62466   0.01679308  0.016067374            4 
 3577000   0.70103085   -8.1013809     720.2047  0.016778602  0.016062166            2 
 3578000   0.68699839   -8.0989282    720.80161  0.016787815  0.016056966            7 
 3579000   0.68117167   -8.0837275    721.63546  0.016802539  0.016051767            4 
 3580000   0.67899886   -8.1118308    720.77698  0.016777863  0.016046576            3 
 3581000   0.68551563   -8.1012554    721.60249  0.016792388  0.016041376            3 
 3582000   0.67647664    -8.102706     722.2725  0.016803287  0.016036195            1 
 3583000     0.681337   -8.0907322    721.24675  0.016774741  0.016031019            3 
 3584000   0.68013299   -8.0966324    721.21118  0.016769233  0.016025831            7 
 3585000   0.69924115   -8.1003557    722.29995  0.016789864  0.016020644            3 
 3586000   0.68129044   -8.0892484    720.92048  0.016753125  0.016015464            3 
 3587000   0.68247497   -8.0814618    719.79713  0.016722357  0.016010278            2 
 3588000   0.67351191   -8.0767321    722.41456  0.016778488  0.016005118            2 
 3589000   0.67123641    -8.075512    721.25553  0.016746901  0.015999952            4 
 3590000   0.67948207   -8.0938611     720.9327  0.016734742  0.015994789            3 
 3591000   0.67195972    -8.087992    721.14124  0.016734922  0.015989628            1 
 3592000   0.67709359   -8.1178739    722.20405  0.016754919  0.015984469            4 
 3593000   0.67457375   -8.1203067    721.97623  0.016744972  0.015979295            3 
 3594000   0.67668979   -8.1289789    720.76056  0.016712126  0.015974124            5 
 3595000   0.67154934   -8.1224791    721.45166  0.016723497   0.01596894            4 
 3596000   0.66265064   -8.0915861    722.50412  0.016743236   0.01596376            4 
 3597000   0.67420049   -8.0889324    721.16002  0.016707442  0.015958586            2 
 3598000   0.69261662   -8.1300016    721.42307  0.016708891  0.015953425            3 
 3599000    0.6914794   -8.1239323    721.79032  0.016712752  0.015948251            3 
 3600000   0.67619942   -8.0907811     719.8597  0.016663419  0.015943083            3 
 3601000   0.66655261    -8.111421    721.15322  0.016688726  0.015937915            3 
 3602000   0.69511541   -8.1393125     720.3291  0.016665026  0.015932743            2 
 3603000   0.67853144   -8.1336742    719.72433  0.016646414   0.01592758            4 
 3604000   0.67215429   -8.1249161     719.8153  0.016643898   0.01592242            2 
 3605000   0.68290447   -8.1317931    720.70514  0.016659851  0.015917272            2 
 3606000   0.67546823   -8.0924431    721.73289  0.016678982  0.015912118            4 
 3607000   0.68675161   -8.1368875    720.68163   0.01665007  0.015906956            2 
 3608000   0.67362607   -8.1653798    718.34065  0.016591386  0.015901784            2 
 3609000   0.68429446    -8.097677    720.43894  0.016635239  0.015896612            2 
 3610000   0.67927314   -8.1067429    720.88336   0.01664089  0.015891442            2 
 3611000   0.67740865   -8.1326311    720.31205  0.016623097  0.015886272            2 
 3612000   0.68117737   -8.1360389    720.31923  0.016618661  0.015881107            4 
 3613000   0.65753735   -8.1263271    720.23649  0.016612153  0.015875937            3 
 3614000   0.66972653   -8.1117484    720.79771  0.016620497  0.015870797            2 
 3615000    0.6725382    -8.122322    721.05106  0.016621739  0.015865638            2 
 3616000   0.67431024   -8.1336522    721.78978  0.016634167  0.015860489            3 
 3617000    0.6889595   -8.1257363    720.06447  0.016589818  0.015855325            4 
 3618000   0.66756631   -8.1291499     722.9701  0.016652158  0.015850183            8 
 3619000   0.66338988   -8.1261605    720.80461  0.016597693  0.015845024            8 
 3620000   0.68333533   -8.1369341    721.27565  0.016603951  0.015839873            4 
 3621000   0.67094077   -8.1307833    721.67434  0.016608541   0.01583472            2 
 3622000   0.66625778   -8.1496073    721.14796  0.016591845  0.015829584            4 
 3623000   0.68587847   -8.1578016    719.13079  0.016540868  0.015824425            4 
 3624000   0.66567392   -8.1151999    720.72556  0.016572976  0.015819277            2 
 3625000   0.65805327   -8.1486481    720.39536  0.016560813  0.015814122            4 
 3626000   0.67669889   -8.1281054    722.38568  0.016601988  0.015808983            2 
 3627000   0.68180264   -8.1384493    720.57522  0.016555813  0.015803843            3 
 3628000   0.67976205   -8.1479366    719.77621  0.016532897  0.015798692            4 
 3629000   0.67798907   -8.1133786    720.76875  0.016551133  0.015793549            4 
 3630000   0.67596044   -8.1280324    720.90229  0.016549639  0.015788417           11 
 3631000   0.66669787   -8.1130075    721.21534  0.016552266  0.015783284            2 
 3632000   0.67291163   -8.1210024    719.99946  0.016519811  0.015778145            3 
 3633000    0.6692345   -8.1368952    721.60358  0.016552059  0.015773013            4 
 3634000   0.66769829   -8.1217583    721.64594  0.016548476  0.015767888            3 
 3635000   0.68506407   -8.1534814    720.36057  0.016514456  0.015762753            6 
 3636000   0.67652985   -8.1354837    721.50107  0.016536053  0.015757606            3 
 3637000   0.66200755   -8.1396668    719.53364  0.016486427  0.015752466            2 
 3638000   0.66511201   -8.1252085    721.74518  0.016532554  0.015747328            2 
 3639000   0.66169246   -8.1375331    720.99596  0.016510854  0.015742194            2 
 3640000   0.67389379   -8.1198441    720.66706  0.016498788  0.015737066            1 
 3641000   0.68990229   -8.1277246    720.05787  0.016480314  0.015731941            2 
 3642000   0.66507162     -8.14495    721.07609  0.016499087  0.015726809            5 
 3643000   0.68045588   -8.1446471      719.495   0.01645839   0.01572167            4 
 3644000    0.6614982    -8.142361     721.1378  0.016491443  0.015716543            2 
 3645000   0.67795774   -8.1556733    720.22214  0.016465984  0.015711415            5 
 3646000   0.64857444   -8.1206892    720.55507  0.016469077  0.015706289            3 
 3647000   0.67859698   -8.1436794    720.20637  0.016456594  0.015701176            2 
 3648000   0.66365775   -8.1188501    721.95953  0.016492131  0.015696071            2 
 3649000    0.6656887   -8.1377376     721.5795  0.016478933  0.015690959            2 
 3650000   0.67066575   -8.1301011    720.16359  0.016442091  0.015685836            3 
 3651000   0.65577879   -8.1246416    721.40655  0.016465958  0.015680722            4 
 3652000   0.65786536   -8.1590728    721.67527  0.016467581    0.0156756            3 
 3653000   0.67592375   -8.1201231    721.01773  0.016448073  0.015670478            4 
 3654000   0.65845655    -8.142665    719.96779  0.016419627  0.015665358            4 
 3655000   0.67362974   -8.1515431    720.96559  0.016437884  0.015660252            2 
 3656000    0.6718957   -8.1110141     720.9348  0.016432686  0.015655155            2 
 3657000   0.67053861   -8.1242839    720.39573  0.016415909  0.015650048            3 
 3658000   0.67655434   -8.1508442    720.69535  0.016418247  0.015644953            1 
 3659000   0.68208883   -8.1604461    719.85196  0.016394551  0.015639836            3 
 3660000   0.67772127   -8.1516677    720.51725   0.01640522  0.015634734            2 
 3661000   0.65775968   -8.1395831    721.37292  0.016420216  0.015629636            2 
 3662000   0.64734389    -8.131815    720.31438  0.016391644  0.015624532            3 
 3663000   0.66434715   -8.1550156    720.96095  0.016401878  0.015619433            2 
 3664000   0.65097766    -8.138671     721.8951  0.016418648  0.015614336            2 
 3665000   0.66723106   -8.1213523    720.25839  0.016376953  0.015609242            4 
 3666000   0.66948042   -8.1620425    721.25098  0.016395049  0.015604153            5 
 3667000   0.67597587   -8.1353163    721.71294  0.016401076   0.01559907            2 
 3668000    0.6484768   -8.1378958    719.45315  0.016345264  0.015593981            2 
 3669000   0.66649225   -8.1541398    720.77375  0.016370804  0.015588887            4 
 3670000   0.66691898   -8.1602323    720.45943  0.016359206  0.015583803            2 
 3671000   0.65556976   -8.1424249    721.03646  0.016367849  0.015578702            3 
 3672000    0.6583185   -8.1369311    720.21401  0.016344726  0.015573604            3 
 3673000   0.67285466   -8.1527631    720.60972  0.016349254  0.015568515            3 
 3674000   0.64447315   -8.1500756    719.63835  0.016322772  0.015563416            2 
 3675000    0.6602238   -8.1443626    719.13338  0.016306879  0.015558319            2 
 3676000   0.67140525   -8.1555482    719.11462  0.016302018  0.015553218            2 
 3677000   0.67574455   -8.1414621     720.9081  0.016338231  0.015548126            3 
 3678000   0.66705905    -8.167933    719.64132  0.016305087   0.01554303            2 
 3679000   0.67124305   -8.1591826    720.66144  0.016323762  0.015537943            2 
 3680000   0.67272751   -8.1562717    721.16975  0.016330837  0.015532857            3 
 3681000   0.67293318   -8.1621542    720.82703  0.016318641  0.015527772            2 
 3682000   0.65271708   -8.1523251    719.57068  0.016285775  0.015522703            3 
 3683000   0.66425795   -8.1508566    719.81986  0.016286991   0.01551763            2 
 3684000   0.65675304    -8.150992     720.1253  0.016289479  0.015512557            3 
 3685000   0.67166973   -8.1702466    720.20858  0.016286942  0.015507496            3 
 3686000   0.65976933    -8.160153     720.0542  0.016279033   0.01550243            2 
 3687000   0.66934216   -8.1514336    722.08588  0.016320538  0.015497368            2 
 3688000   0.66832316   -8.1676546     721.5565  0.016304151   0.01549231            3 
 3689000   0.67077005   -8.1240928    720.62853  0.016278769   0.01548727            2 
 3690000   0.65573769   -8.1354095    722.58214  0.016318477  0.015482234            3 
 3691000   0.65032962   -8.1191148    721.99636   0.01630083  0.015477204            2 
 3692000   0.66816105   -8.1046008    720.56533  0.016264115   0.01547218            2 
 3693000   0.66409014   -8.1418183    721.27981  0.016275833  0.015467158            7 
 3694000   0.66847516   -8.1518489    720.90132  0.016262888  0.015462123            2 
 3695000   0.67449149   -8.1420024    721.46895  0.016271289  0.015457089            2 
 3696000    0.6791183   -8.1407872    722.36421  0.016287072   0.01545205            3 
 3697000   0.66972489   -8.1186353     721.4899  0.016262959  0.015447015            3 
 3698000   0.66555763   -8.1400023    721.93673   0.01626863  0.015441985            1 
 3699000    0.6642406   -8.1408148    721.35829  0.016251201  0.015436962            1 
 3700000   0.66219941   -8.1395366    720.18536  0.016220391  0.015431942            2 
 3701000    0.6571996   -8.1318057     721.3564  0.016242376  0.015426926            2 
 3702000    0.6507662   -8.1668714    722.16079  0.016256096    0.0154219            2 
 3703000   0.66673269   -8.1289256    722.02553  0.016248662  0.015416888            2 
 3704000   0.65724303   -8.1263258    721.26676  0.016227204  0.015411877            4 
 3705000   0.65975095   -8.1694001    720.53669  0.016206403  0.015406852            2 
 3706000   0.64798798   -8.1738579    719.01918  0.016167908  0.015401815            4 
 3707000   0.65997569      -8.1535    720.67758  0.016200827  0.015396789            3 
 3708000   0.66856233   -8.1831318    720.63566  0.016195516  0.015391758            2 
 3709000   0.65558091   -8.1555535    720.41669  0.016186229  0.015386735            3 
 3710000   0.64981431   -8.1401788    721.34539  0.016202727   0.01538171            1 
 3711000   0.66103141   -8.1698244    720.29003  0.016174662  0.015376692            2 
 3712000   0.67886228   -8.1590026     721.8103  0.016204434   0.01537168            4 
 3713000   0.64770799   -8.1782751    720.76471  0.016176603  0.015366657            3 
 3714000   0.66188667   -8.1517364    720.82553  0.016173612  0.015361636            3 
 3715000   0.65664672   -8.1696357    720.81107  0.016168934  0.015356632            2 
 3716000   0.65147059   -8.1295029    721.70399  0.016184607  0.015351636            2 
 3717000   0.67108797   -8.1549601    722.62738  0.016200955  0.015346657            3 
 3718000   0.65753464   -8.1383355    721.99014  0.016182314  0.015341673            2 
 3719000    0.6633642   -8.1425465    720.68199  0.016148651  0.015336691            1 
 3720000   0.66129416   -8.1627021    720.52495  0.016140792  0.015331716            2 
 3721000   0.64851353   -8.1502577    722.01539  0.016169833  0.015326738            3 
 3722000   0.66135509   -8.1461042    721.87537  0.016162354  0.015321767            3 
 3723000   0.65520853   -8.1500053    722.72042  0.016176928  0.015316781            2 
 3724000   0.65668594   -8.1568496     721.4178  0.016143434  0.015311793            5 
 3725000    0.6514632   -8.1226817    722.69313  0.016167632  0.015306824            3 
 3726000   0.64619449    -8.173864    721.97427  0.016147215  0.015301855            2 
 3727000   0.65616576   -8.1376044    722.38888  0.016152153  0.015296886            3 
 3728000   0.65815548   -8.1230108    722.57529  0.016151987  0.015291921            2 
 3729000    0.6408878   -8.1473434    721.73714  0.016128925  0.015286952            2 
 3730000   0.65607548   -8.1401709    721.63572  0.016122335  0.015281991            3 
 3731000   0.65437078   -8.1555775    721.84395  0.016122665  0.015277037            2 
 3732000   0.64527032   -8.1328843    722.05805  0.016123126  0.015272072            3 
 3733000   0.65324694   -8.1365037    721.85793  0.016114339  0.015267102            2 
 3734000   0.64498407   -8.1577518    723.09672   0.01613767  0.015262139            3 
 3735000    0.6514076   -8.1554369    721.54944  0.016098827   0.01525719            2 
 3736000   0.64708625   -8.1525667    722.50051  0.016115732  0.015252235            1 
 3737000   0.66144902   -8.1529061    722.44017  0.016110074   0.01524728            1 
 3738000   0.63265741   -8.1530904    723.12694  0.016121075  0.015242333            2 
 3739000    0.6613088   -8.1690677    722.71549  0.016107593  0.015237388            5 
 3740000   0.64709569    -8.169177     723.4464  0.016119572  0.015232448            1 
 3741000     0.654064   -8.1376935    723.87089  0.016124719  0.015227506            2 
 3742000    0.6598732   -8.1476356    722.60828  0.016092292  0.015222568            2 
 3743000   0.64299128   -8.1317187      721.866  0.016071467  0.015217622            2 
 3744000   0.65992298   -8.1584231    721.99682  0.016070086  0.015212689            3 
 3745000    0.6508678   -8.1532554    720.45307  0.016031443   0.01520774            2 
 3746000   0.64627093   -8.1308083    722.19799  0.016065981  0.015202805            2 
 3747000   0.67574014   -8.1406689    722.24122  0.016062655  0.015197873            2 
 3748000   0.65852391   -8.1598603    721.61528  0.016044452  0.015192941            2 
 3749000   0.63550074   -8.1477826    722.81306  0.016066797  0.015187998            3 
 3750000    0.6432292   -8.1499384    722.69551    0.0160599  0.015183057            2 
 3751000   0.65840297    -8.158404    721.24676  0.016023433   0.01517812            3 
 3752000   0.66247802   -8.1606798    722.02996  0.016036557  0.015173188            2 
 3753000   0.65888317   -8.1530402    723.13372  0.016056793  0.015168252            3 
 3754000   0.64803049   -8.1548565    722.66313  0.016042069  0.015163321            3 
 3755000   0.66260744     -8.16375    721.36575  0.016009005  0.015158388            3 
 3756000   0.64209234   -8.1696977     721.7454  0.016013166  0.015153453            2 
 3757000   0.65271848   -8.1643338    723.62318  0.016050554  0.015148515            3 
 3758000   0.65004761     -8.19677    720.52298  0.015977536  0.015143573            3 
 3759000   0.66725363   -8.1776674    721.87926  0.016003353  0.015138643            2 
 3760000   0.65806078   -8.1642433    721.88307  0.015999182  0.015133717            2 
 3761000   0.63589085   -8.1743914    722.27023  0.016003506  0.015128791            3 
 3762000   0.64308582   -8.1577662    721.06465  0.015972547  0.015123855            4 
 3763000   0.62741965   -8.1615383    721.94371  0.015987769  0.015118925            3 
 3764000   0.64851919   -8.1776386    722.19938  0.015989182     0.015114            3 
 3765000    0.6483593   -8.1736096    720.83493  0.015954735   0.01510907            4 
 3766000   0.63833655   -8.1846981    722.25836  0.015981996  0.015104138            3 
 3767000   0.64100892   -8.1718169    721.38506  0.015958434  0.015099205            3 
 3768000   0.65662885   -8.1685433    721.93714  0.015966409  0.015094284            4 
 3769000   0.65396622   -8.1675574    721.37988  0.015949851  0.015089368            2 
 3770000   0.64779923   -8.1855434    719.47102  0.015903427  0.015084432            2 
 3771000   0.65897244   -8.1727252    722.13044  0.015957978  0.015079504            2 
 3772000   0.64640359   -8.1690675    720.84661  0.015925385  0.015074584            4 
 3773000   0.66783896   -8.1842654    722.62867  0.015960524  0.015069671            3 
 3774000   0.65836342   -8.1573819    721.24394  0.015925719  0.015064758            2 
 3775000   0.65473682   -8.1626718    722.13418  0.015941152  0.015059846            3 
 3776000   0.65102308   -8.1692153    721.60399  0.015925229  0.015054928            2 
 3777000   0.66382495   -8.1768768    720.76976  0.015902607  0.015050012            5 
 3778000   0.66258233   -8.1895505    720.85844  0.015900354  0.015045089            2 
 3779000   0.66362427   -8.1931694    720.85298  0.015896026  0.015040172            5 
 3780000   0.66443557   -8.1731333    720.71544  0.015888788  0.015035256            4 
 3781000   0.63995959   -8.1803979    721.53475  0.015902644  0.015030351            3 
 3782000   0.66407793   -8.1877367    722.22204  0.015913583  0.015025447            4 
 3783000   0.65218037   -8.1993457     720.8832  0.015879884  0.015020544            3 
 3784000   0.64428642   -8.1537705    721.03124  0.015878947   0.01501565            4 
 3785000   0.64274109   -8.1713862    722.17279  0.015899885  0.015010755            4 
 3786000   0.66371634   -8.1629156    720.65393  0.015862254  0.015005869            3 
 3787000   0.64590735   -8.1889927    721.66661   0.01588035  0.015000982            5 
 3788000   0.65059562   -8.1599136    721.98688  0.015883203   0.01499612            3 
 3789000   0.64803402   -8.1497441    722.26721  0.015885177  0.014991255            5 
 3790000   0.64432262   -8.1761387    721.81952  0.015871142  0.014986376            5 
 3791000   0.65095001   -8.1622059    721.58735  0.015861852  0.014981514            4 
 3792000   0.64463299   -8.1668072    723.33454  0.015896065   0.01497666            3 
 3793000    0.6414077   -8.1595661     723.5034  0.015895584  0.014971797            2 
 3794000   0.64838633   -8.1673983      721.933  0.015856901  0.014966931            3 
 3795000   0.65086371   -8.1925029    721.97589  0.015853665  0.014962067            2 
 3796000    0.6422368   -8.1531725     722.3889  0.015858555    0.0149572            5 
 3797000   0.64767613   -8.1777193    721.78165  0.015841051  0.014952336            3 
 3798000   0.64709179   -8.1650301    722.47098  0.015852005  0.014947486            3 
 3799000   0.62629583   -8.1564881    722.93573  0.015858027  0.014942628            5 
 3800000   0.64321627   -8.1856888    723.12488  0.015858002  0.014937765            2 
 3801000   0.62727861   -8.1731967    721.80061  0.015824796  0.014932899            8 
 3802000   0.65046193    -8.169216    722.04937  0.015826086  0.014928043            2 
 3803000   0.64568378   -8.1895667    722.21475  0.015825549  0.014923179            7 
 3804000   0.63298413   -8.1606679    721.82875  0.015812933  0.014918329            3 
 3805000   0.66003732   -8.1825965    722.43444  0.015822042  0.014913478            4 
 3806000   0.64408181   -8.1856962    721.56537  0.015798856  0.014908629            4 
 3807000   0.64945335   -8.1528125    723.08054  0.015827873  0.014903784           10 
 3808000   0.65385935   -8.1735402    720.76046  0.015772944  0.014898936            2 
 3809000   0.63260558   -8.1814117    722.36883  0.015803991  0.014894074           10 
 3810000    0.6383437   -8.1957832    721.16998  0.015773622  0.014889222            5 
 3811000   0.64667176   -8.1843504    722.83495   0.01580589  0.014884362           14 
 3812000   0.63932635   -8.1789469    722.10862  0.015785865  0.014879517            6 
 3813000   0.63509514   -8.1782995    721.67148  0.015772172   0.01487466           10 
 3814000   0.64751704    -8.202544    721.72784  0.015769268  0.014869805            6 
 3815000   0.65220329   -8.1976321    721.93599  0.015769681  0.014864954            5 
 3816000   0.63693297   -8.1961356    721.05927  0.015746403  0.014860095           13 
 3817000   0.64663169   -8.1962361    719.96022  0.015718283  0.014855239           12 
 3818000   0.64379865   -8.1796291    720.10253  0.015717272  0.014850392            4 
 3819000    0.6328151   -8.2089629    720.91467  0.015730878  0.014845535           15 
 3820000   0.62885484   -8.2097923    720.97088  0.015727986  0.014840681            6 
 3821000   0.65188467   -8.1970058     721.5076  0.015735575  0.014835826           11 
 3822000   0.64529647   -8.1848607    721.66057  0.015734794  0.014830975            9 
 3823000   0.65659169   -8.2005333    720.72801   0.01571035  0.014826125            8 
 3824000   0.62705001    -8.216981      720.689  0.015705391  0.014821274           10 
 3825000   0.64065762   -8.2073729    720.77385  0.015703134  0.014816432            7 
 3826000   0.64259083   -8.2086271    720.30842  0.015688892   0.01481159            4 
 3827000   0.63902875   -8.2004224    720.87093  0.015697041  0.014806745            5 
 3828000   0.63664288   -8.2136234    720.28228  0.015680126  0.014801905            5 
 3829000   0.64355564   -8.1970956    720.93235  0.015690179  0.014797064            3 
 3830000   0.62606118   -8.1879277    721.87076    0.0157065  0.014792233            5 
 3831000   0.63060078   -8.2074342    721.81611  0.015701212  0.014787393            5 
 3832000   0.64687205   -8.1899062    722.07321  0.015702705  0.014782554            5 
 3833000   0.64521871   -8.2264424    720.50255  0.015664461  0.014777711            3 
 3834000   0.64303273   -8.2013127    721.70949  0.015686609  0.014772886            7 
 3835000   0.63561037   -8.1949955    721.58236  0.015679756  0.014768052            4 
 3836000   0.63969179   -8.2052548    721.57133  0.015675429  0.014763212            5 
 3837000   0.63858332    -8.207674    721.97132   0.01568003   0.01475839            5 
 3838000   0.62606502   -8.2012817    722.66898  0.015691093   0.01475357            5 
 3839000   0.63680495   -8.2103489    721.63091  0.015664472  0.014748749            8 
 3840000   0.63626955   -8.2000706    721.36275  0.015654574  0.014743926            2 
 3841000   0.64026169   -8.1944289    720.44464  0.015630579  0.014739093            2 
 3842000   0.63659537   -8.1929671    721.09834  0.015640689  0.014734262            3 
 3843000   0.63540802   -8.2197609    720.76638  0.015629421  0.014729436            4 
 3844000   0.63284307   -8.2106299    721.35029  0.015638014  0.014724611            2 
 3845000   0.63553553     -8.21968    719.73935  0.015599032  0.014719794            3 
 3846000   0.62436051   -8.2159514    721.88416  0.015641449  0.014714964            3 
 3847000    0.6384288   -8.2282322    721.16634  0.015621834  0.014710146            3 
 3848000   0.63465153   -8.2129006      720.132  0.015595374  0.014705327            3 
 3849000   0.65211326   -8.2028298    721.07744  0.015611792  0.014700515            3 
 3850000   0.63541616   -8.2009585    720.31252   0.01559118  0.014695709            3 
 3851000   0.65100261   -8.1938185    721.73398  0.015617891  0.014690895            3 
 3852000   0.64189862   -8.2141345    722.86574  0.015638321  0.014686084            2 
 3853000   0.64238519   -8.1945637    721.26226  0.015599582  0.014681273            2 
 3854000   0.63071632   -8.2052264    720.21704  0.015572934  0.014676461            3 
 3855000   0.63434921   -8.2165898    719.89492  0.015561931  0.014671644            2 
 3856000   0.62938479   -8.1990565    721.44255  0.015591341  0.014666832            3 
 3857000   0.63230317   -8.2049801    722.63834  0.015613135   0.01466203            4 
 3858000   0.63558266   -8.2136838    721.27322  0.015579601  0.014657225            3 
 3859000   0.63713884   -8.2250059    721.06569  0.015571082  0.014652417            3 
 3860000   0.62885918   -8.2069599    721.86656  0.015584339  0.014647612            3 
 3861000   0.65004566   -8.1942907    721.72073  0.015577155  0.014642803            2 
 3862000   0.63019103   -8.1896581    723.58447  0.015613337  0.014638009            9 
 3863000   0.62750991   -8.2165828    720.39602  0.015540513  0.014633208            4 
 3864000   0.62755517   -8.1999303    722.44634   0.01558071  0.014628417            4 
 3865000   0.63659624   -8.1941707    720.84508  0.015542153   0.01462362            2 
 3866000   0.62385887   -8.2065824    721.64576  0.015555392  0.014618831            4 
 3867000   0.64903719    -8.194886    720.60892  0.015529026  0.014614039            5 
 3868000   0.63031407    -8.203406     721.3792  0.015541606  0.014609262            2 
 3869000   0.63254559    -8.196547    719.69151  0.015501239  0.014604473            3 
 3870000   0.63479762   -8.1921756    721.85102  0.015543734  0.014599683            9 
 3871000   0.62611594   -8.2256394     721.5904  0.015534108  0.014594896            4 
 3872000    0.6280711   -8.2113399    720.49965  0.015506621  0.014590102            3 
 3873000   0.62280106   -8.1904359    721.75466  0.015529621  0.014585316            8 
 3874000   0.61664787   -8.2279235    721.35155  0.015516941  0.014580529            1 
 3875000   0.64303215   -8.2044096    720.83489  0.015501826  0.014575744            3 
 3876000   0.63582568   -8.2065306    720.56469  0.015492017  0.014570964            3 
 3877000    0.6225065   -8.2153273    721.51595  0.015508468  0.014566177            3 
 3878000   0.62320929   -8.2040026    720.82232  0.015489563    0.0145614            4 
 3879000   0.63216962   -8.2120869    720.29478  0.015474237  0.014556627            7 
 3880000   0.64197577   -8.2149316    721.03093   0.01548606  0.014551852            3 
 3881000   0.63166439   -8.2148429    721.32826  0.015488454  0.014547083            2 
 3882000   0.64137728   -8.2039456    720.65132  0.015469932  0.014542324            3 
 3883000   0.63553873   -8.2142333     720.7112  0.015467233  0.014537557            2 
 3884000   0.63397529   -8.2030683    720.82523  0.015465697  0.014532791            2 
 3885000   0.63249016   -8.2241827    721.15363  0.015468761  0.014528017            2 
 3886000   0.62846863   -8.2258416    721.14343  0.015464561  0.014523245            3 
 3887000    0.6213175   -8.2276784    719.96454  0.015435309  0.014518482            4 
 3888000   0.61916747   -8.2291622    721.07272  0.015455091  0.014513704            3 
 3889000   0.62094796   -8.2514953    720.18757   0.01543215  0.014508929            2 
 3890000   0.63536996   -8.2204497    720.76996  0.015440659  0.014504165            2 
 3891000   0.62346063   -8.2167793      719.368  0.015406665  0.014499393            2 
 3892000   0.61883079   -8.2261415    721.48054  0.015447939  0.014494631            2 
 3893000   0.62272636   -8.2275216    721.40813  0.015442421  0.014489877            3 
 3894000   0.62402442   -8.2145257    720.29967  0.015414734  0.014485114            2 
 3895000   0.63023159   -8.2346889    721.02919  0.015426384  0.014480354            2 
 3896000   0.60191129   -8.2231757    720.56732  0.015412545  0.014475589            3 
 3897000   0.62301283   -8.2310778    720.41887  0.015405416  0.014470819            4 
 3898000   0.63159292   -8.2282501    719.97557  0.015391987  0.014466063            2 
 3899000   0.63225676   -8.2251456    721.33643  0.015417125  0.014461301            2 
 3900000   0.65001583   -8.2377808    720.72027  0.015400006  0.014456559            1 
 3901000   0.63073614     -8.22824     720.7975  0.015397708  0.014451814            4 
 3902000   0.62938675   -8.2236569    720.82848  0.015394423  0.014447064            3 
 3903000    0.6275741   -8.2165151    720.96364  0.015393365  0.014442312            6 
 3904000    0.6250934   -8.2284364    718.99173   0.01534733  0.014437563            2 
 3905000   0.63603012   -8.2171501    720.72604  0.015380411  0.014432821            1 
 3906000   0.62023149   -8.2277508    720.03767  0.015361787  0.014428088            3 
 3907000   0.62314981   -8.2172357    719.73268   0.01535135  0.014423347            2 
 3908000   0.62549007   -8.2221626     721.5263  0.015385668   0.01441861            3 
 3909000   0.62703961   -8.2367498    720.59559  0.015361891  0.014413876            3 
 3910000   0.61760901   -8.2037609    719.66674  0.015338166  0.014409144            4 
 3911000   0.63481613   -8.2247142    720.51755  0.015352373   0.01440442            5 
 3912000   0.61477007   -8.2201081    722.10615  0.015382288  0.014399698            3 
 3913000   0.62333526   -8.2099844    721.01466  0.015355112  0.014394972            4 
 3914000   0.62061327   -8.2339984    720.47042  0.015339602  0.014390256            4 
 3915000   0.62942244   -8.2238153    719.84141  0.015322295  0.014385534            6 
 3916000   0.63149725   -8.2327333    720.15071  0.015324964  0.014380814            7 
 3917000   0.61335352   -8.2179621    721.60472  0.015351985    0.0143761            4 
 3918000   0.62620381   -8.2446039     719.9429  0.015312721  0.014371376            5 
 3919000   0.62234697   -8.2448996    721.61947  0.015344464  0.014366655            5 
 3920000   0.61997215   -8.2136918    721.94004  0.015347365  0.014361937            6 
 3921000   0.62316558   -8.1987052    720.27868  0.015308142   0.01435722            3 
 3922000   0.63591912   -8.2236246    722.35376  0.015348329  0.014352502            5 
 3923000    0.6404259   -8.2118314    719.95179  0.015293393   0.01434779            5 
 3924000   0.63019707   -8.2427606    721.12538  0.015314419  0.014343077            3 
 3925000   0.62681783    -8.240421    719.08746   0.01526725  0.014338361            2 
 3926000    0.6250594   -8.2299047    720.73893  0.015298415  0.014333643            2 
 3927000   0.63100427   -8.2133951    720.39736  0.015287271  0.014328926            4 
 3928000   0.63416096   -8.2143848    719.42233  0.015262694  0.014324209            3 
 3929000   0.62636476   -8.2412056    718.57852  0.015240912   0.01431949            3 
 3930000   0.64087783   -8.2423373    720.42181   0.01527612  0.014314776            4 
 3931000   0.62294973   -8.2241778     720.6051  0.015276119  0.014310062            2 
 3932000   0.62862854    -8.236519    719.96723  0.015258715  0.014305348            4 
 3933000   0.62362903   -8.2355588    719.76638   0.01525058  0.014300638            3 
 3934000   0.62580024     -8.23311     720.7051  0.015266588  0.014295938            2 
 3935000   0.61765354    -8.241775     720.0164  0.015248124  0.014291236            3 
 3936000   0.63799341     -8.24037     719.4949  0.015233208  0.014286534            4 
 3937000   0.60946159   -8.2471503    720.43155  0.015249165  0.014281841            2 
 3938000   0.63158578   -8.2369652    720.63834  0.015249669  0.014277138            1 
 3939000   0.62024675     -8.24196    721.19178  0.015257506  0.014272445            2 
 3940000   0.61829793    -8.217946    721.53919  0.015260981  0.014267761            4 
 3941000    0.6201102    -8.247637    720.81597  0.015241816  0.014263071            5 
 3942000   0.63370477   -8.2171615    720.80204  0.015237655  0.014258388            1 
 3943000   0.62166146    -8.212687    720.36496  0.015224553  0.014253708            4 
 3944000   0.61096147   -8.2371005    720.98415  0.015233776   0.01424903            3 
 3945000   0.62025024   -8.2282299    719.71981  0.015203207  0.014244336            3 
 3946000   0.61971737   -8.2264818    721.38825  0.015234589  0.014239655            3 
 3947000   0.62519507   -8.2226645    720.73186  0.015216871  0.014234974            3 
 3948000   0.62840308    -8.238379     720.1003  0.015199686  0.014230291            3 
 3949000   0.60488293   -8.2319798    721.67241  0.015229012  0.014225613            4 
 3950000   0.61542708   -8.2334317    720.39268  0.015198158  0.014220931            5 
 3951000    0.6121973   -8.2162364    719.89008  0.015183711  0.014216254            3 
 3952000   0.61686553   -8.2368914    719.93079  0.015180727   0.01421157            3 
 3953000   0.63112341   -8.2257357    720.82787  0.015195798  0.014206899            3 
 3954000   0.60990284   -8.2339124    719.59839  0.015166043  0.014202226            3 
 3955000   0.61349654     -8.23057    719.27048  0.015155299   0.01419755            1 
 3956000   0.61554843   -8.2502938     719.9098  0.015164935  0.014192876            2 
 3957000   0.62170355    -8.231908    720.05504  0.015164161  0.014188204            4 
 3958000   0.62311172   -8.2544042    719.80975  0.015155166  0.014183528            2 
 3959000   0.62723524   -8.2510174    719.94697  0.015154226   0.01417886            7 
 3960000   0.63387145   -8.2197178    718.84942  0.015127303  0.014174184            2 
 3961000   0.61842784   -8.2480372    719.90156  0.015145619  0.014169512            1 
 3962000   0.61315364   -8.2574974    720.98546  0.015164594  0.014164843            2 
 3963000   0.61855725   -8.2435982    720.54131  0.015151428  0.014160181            4 
 3964000   0.62184172   -8.2466451    719.00501  0.015115309  0.014155514            2 
 3965000   0.61710743   -8.2278659     719.2597   0.01511685  0.014150844            3 
 3966000   0.62732744   -8.2436395     720.7608  0.015144579   0.01414618            5 
 3967000   0.61092652   -8.2419812    721.34736  0.015153083  0.014141517            3 
 3968000   0.60857308   -8.2328537    719.60236  0.015112617  0.014136855            4 
 3969000   0.61653593   -8.2245597    720.43144  0.015126216  0.014132195            4 
 3970000   0.62300626   -8.2387618    720.74333  0.015128953  0.014127532            4 
 3971000   0.61676266   -8.2292897    720.70127  0.015124261  0.014122877            1 
 3972000   0.61584407   -8.2470822    719.30823  0.015091227  0.014118234            5 
 3973000   0.62184214   -8.2454011    719.94092  0.015100699  0.014113585            6 
 3974000   0.62762655   -8.2329537     719.5855  0.015089446  0.014108934            4 
 3975000   0.62817596   -8.2320646    721.14866  0.015118421   0.01410429            3 
 3976000   0.62304588   -8.2225162    720.34217  0.015097715  0.014099646            2 
 3977000   0.61685713   -8.2483128    719.11489  0.015068202     0.014095            1 
 3978000   0.60262193    -8.250197    718.63453  0.015054352   0.01409036            2 
 3979000   0.61153126   -8.2415533    720.89321  0.015097872  0.014085719            3 
 3980000   0.61885322   -8.2500003    720.28612  0.015081368  0.014081081            2 
 3981000   0.62750549   -8.2599115    719.41402  0.015059324  0.014076443            3 
 3982000   0.62454661   -8.2241148    719.51163  0.015057585  0.014071807            3 
 3983000   0.62371638   -8.2405203    720.17864   0.01506776  0.014067167            2 
 3984000   0.62461623   -8.2502468    718.70947  0.015033247  0.014062525            5 
 3985000   0.61102096   -8.2390565    718.57518  0.015026666  0.014057889            3 
 3986000   0.60992007   -8.2400651    720.15623  0.015055951  0.014053261            4 
 3987000   0.61540631   -8.2532574    718.59362  0.015019514  0.014048637            4 
 3988000   0.62396407   -8.2548653    720.26087  0.015050587  0.014044005            2 
 3989000   0.61730908    -8.256078    720.22923  0.015046152  0.014039375            3 
 3990000    0.6132983   -8.2448938    719.35924  0.015024211  0.014034747            1 
 3991000   0.60296045   -8.2765915    719.80372  0.015029728  0.014030117            4 
 3992000   0.62035713   -8.2416777    721.09803  0.015052982   0.01402549            4 
 3993000   0.61404001   -8.2449419    719.66724  0.015019351  0.014020871            5 
 3994000   0.61760205   -8.2345893    718.95953  0.015000825   0.01401625            4 
 3995000   0.62016946   -8.2481977    719.59583  0.015010343  0.014011626            2 
 3996000   0.61775657   -8.2592145    719.94566  0.015013882  0.014007004            2 
 3997000   0.61944988   -8.2356389    719.63418  0.015003631  0.014002383            2 
 3998000    0.5976515   -8.2801181    719.33848  0.014993715  0.013997758            2 
 3999000   0.61791993   -8.2116001    720.50583  0.015014292  0.013993142            3 
 4000000   0.60194806   -8.2440976    720.38342  0.015007988  0.013988531            6 
 4001000    0.6088656   -8.2603812    719.83718   0.01499286  0.013983923            4 
 4002000   0.62163332   -8.2725341    719.80946  0.014988536  0.013979309            3 
 4003000   0.63294734   -8.2482525     719.6446   0.01498136  0.013974694            2 
 4004000   0.62623225   -8.2540364    718.80648  0.014960175  0.013970085            5 
 4005000   0.61607318   -8.2743957    718.89211  0.014958221  0.013965468            8 
 4006000   0.61498956   -8.2569551    719.83425  0.014974086  0.013960864            1 
 4007000   0.61132144   -8.2634601    719.28408  0.014958907  0.013956252            3 
 4008000   0.60958283   -8.2420778    719.18943  0.014953207  0.013951643            2 
 4009000   0.60916167   -8.2645893    720.23024  0.014971112  0.013947042            4 
 4010000   0.60119592   -8.2768462    719.88682  0.014960241  0.013942439            2 
 4011000    0.6053287   -8.2629928    720.94408  0.014978478  0.013937835            2 
 4012000   0.59858445   -8.2583592    719.42879   0.01494327  0.013933231            5 
 4013000   0.60874096   -8.2663394     719.1027  0.014932775  0.013928637            2 
 4014000    0.6014734    -8.236256    719.22025  0.014931495  0.013924037            3 
 4015000   0.60302732   -8.2506199    719.60771  0.014935818  0.013919427            3 
 4016000   0.60608886   -8.2555642    718.90465   0.01491751  0.013914822            3 
 4017000   0.62426955    -8.249365    718.44266  0.014904213  0.013910221            4 
 4018000   0.60170268   -8.2645612    719.95129  0.014931792  0.013905623            4 
 4019000    0.6112873   -8.2491164    719.63129  0.014921442  0.013901024            3 
 4020000   0.61829333   -8.2708232    719.41978  0.014913345  0.013896423            4 
 4021000   0.60022525   -8.2651117    719.86762  0.014918918  0.013891825            2 
 4022000   0.61070117   -8.2433974    719.20783  0.014901538  0.013887229            3 
 4023000   0.60736042   -8.2801656    719.00839  0.014893703  0.013882635            2 
 4024000    0.6188739   -8.2499391    720.31841  0.014917131  0.013878045            5 
 4025000    0.5974514   -8.2714309    719.79906  0.014902672  0.013873454            8 
 4026000   0.61575574     -8.24386    720.09936  0.014905186  0.013868864            7 
 4027000   0.60916583   -8.2694673     718.5375  0.014869164  0.013864273            3 
 4028000   0.60336481   -8.2706012    718.51462     0.014865  0.013859669            5 
 4029000   0.60138419   -8.2740102    719.85084  0.014888948  0.013855073            2 
 4030000   0.60198241   -8.2768036    720.12954  0.014891016  0.013850483            4 
 4031000   0.59803222   -8.2651666    719.26807  0.014869513  0.013845897            5 
 4032000   0.61511056   -8.2654335    719.84714  0.014877793  0.013841307            2 
 4033000   0.59025694   -8.2504395    718.29299  0.014841991   0.01383672            3 
 4034000   0.60980416   -8.2650725    719.68119  0.014866989  0.013832135            3 
 4035000   0.62122598    -8.263712    718.92512  0.014847689  0.013827555            4 
 4036000   0.60383615   -8.2603909    718.52761  0.014835803  0.013822976            4 
 4037000   0.61279486   -8.2641405    720.31367  0.014868997  0.013818398            3 
 4038000   0.60737899   -8.2523834    718.75756    0.0148332  0.013813827            5 
 4039000   0.61617166   -8.2654567    719.14544  0.014837531  0.013809254            4 
 4040000   0.60533197   -8.2546281    719.36789  0.014838447  0.013804685            1 
 4041000   0.59758986   -8.2941871    720.97562  0.014867929  0.013800125            3 
 4042000   0.60181881   -8.2552432     718.8458   0.01482034  0.013795564            3 
 4043000   0.60481152   -8.2598547    719.90781  0.014838565  0.013791008            2 
 4044000   0.60509529   -8.2627239    721.03231  0.014858068  0.013786455            5 
 4045000   0.60775225   -8.2691156    719.47874  0.014822388  0.013781893            2 
 4046000   0.60975247   -8.2782167    720.68518  0.014843574  0.013777342            4 
 4047000   0.59584775   -8.2808423    719.66195  0.014818836  0.013772789            2 
 4048000   0.60703388   -8.2639321    720.44718   0.01483134  0.013768241            2 
 4049000   0.60721745   -8.2798044    718.68496  0.014791409   0.01376369            2 
 4050000   0.60296494   -8.2706623    719.39113  0.014802287  0.013759142            2 
 4051000   0.59447155   -8.2817454    719.25057  0.014795741  0.013754594            2 
 4052000   0.60259161   -8.2534513    720.28617  0.014813388  0.013750051            4 
 4053000   0.60709334   -8.2904976    718.80408   0.01477926  0.013745508            2 
 4054000   0.60630467   -8.2432202    718.89781  0.014777541   0.01374097            3 
 4055000   0.60406232   -8.2724927    718.82182  0.014772335  0.013736431            2 
 4056000   0.59359546   -8.2726707    718.42169  0.014760472  0.013731884            4 
 4057000   0.60252321   -8.2937622    719.00987  0.014768915  0.013727349            2 
 4058000   0.60169566   -8.2846482    718.73021  0.014759533  0.013722807            2 
 4059000   0.60049717   -8.2495984    718.48708  0.014750905  0.013718274            3 
 4060000   0.61074969   -8.2703232    719.60278  0.014770172  0.013713743            2 
 4061000   0.61297329   -8.2404237    719.16808  0.014757615  0.013709214            4 
 4062000   0.60166491    -8.274815     718.9506   0.01474952  0.013704683            3 
 4063000   0.58980035   -8.2696609    719.63084  0.014759842  0.013700146            4 
 4064000   0.60285565   -8.2945352    718.60429   0.01473516  0.013695611            2 
 4065000   0.60113504   -8.2749692    720.35581  0.014767442   0.01369108            3 
 4066000   0.59465176   -8.2838859    718.52301  0.014726246  0.013686545            2 
 4067000   0.60928144   -8.2716539    719.15761  0.014735629  0.013682015            3 
 4068000   0.59122394    -8.288166    719.05388  0.014729881  0.013677486            1 
 4069000   0.59530754   -8.2835471    719.54681  0.014736356  0.013672966            3 
 4070000   0.60166543   -8.2523402    720.30823  0.014748326  0.013668448            4 
 4071000   0.60510713   -8.2765195     719.5917  0.014730036  0.013663934            5 
 4072000   0.61760241   -8.2777407    719.53007  0.014725157  0.013659416            3 
 4073000   0.60754596   -8.2712661    718.57696  0.014702041  0.013654893            3 
 4074000   0.60721116   -8.2743042    718.99718  0.014707028  0.013650373            3 
 4075000   0.60255173   -8.2581965    718.77622    0.0146989  0.013645862            3 
 4076000   0.59679808   -8.2398167    719.80124   0.01471625  0.013641361            3 
 4077000   0.59330419   -8.2642125    719.96335  0.014715954  0.013636858            3 
 4078000   0.61998907   -8.2662677    719.37897  0.014700404  0.013632349            3 
 4079000   0.60599102     -8.26893    719.40991  0.014697432  0.013627849            2 
 4080000   0.59804363   -8.2832235     719.0679  0.014686844  0.013623351            2 
 4081000   0.60082033   -8.2599478    719.29083  0.014687798  0.013618857            5 
 4082000   0.60867238   -8.2814698    718.82984  0.014674789   0.01361436            5 
 4083000   0.60095642    -8.264003    719.65543  0.014688045  0.013609866            2 
 4084000   0.59759954   -8.2605473    719.31048  0.014677409  0.013605373            2 
 4085000   0.59847886   -8.2786095    717.95437  0.014646152  0.013600876            2 
 4086000   0.58770496   -8.2778642     717.0129  0.014623366  0.013596372            3 
 4087000   0.60007601   -8.2666922    719.78788   0.01467637  0.013591871            2 
 4088000   0.59864467   -8.2821895    719.63119  0.014669586  0.013587383            3 
 4089000   0.58753167   -8.2805996    718.58752  0.014644728  0.013582894            5 
 4090000   0.58777743   -8.2913831    718.92748  0.014648074  0.013578402            2 
 4091000   0.60850021   -8.2869332    719.11868  0.014648388  0.013573915            3 
 4092000   0.60257921   -8.2915346    718.52444  0.014632707  0.013569433            3 
 4093000    0.6016264   -8.2798532    718.20265   0.01462258  0.013564947            2 
 4094000   0.59906214   -8.2925836    719.15899  0.014638475  0.013560468            2 
 4095000   0.60393364    -8.260339     719.1908  0.014635547  0.013555982            3 
 4096000   0.60224626   -8.2904533    719.30185  0.014634234  0.013551497            3 
 4097000   0.60487158   -8.2878451    719.23458  0.014629293  0.013547022            2 
 4098000     0.590591   -8.2968111    719.60767   0.01463331  0.013542545            3 
 4099000    0.5899388   -8.3010736    718.49533  0.014607126  0.013538068            4 
 4100000   0.59524877   -8.2908031     718.4611  0.014602868  0.013533595            4 
 4101000   0.60340599   -8.2813691    718.34539  0.014596956  0.013529114            2 
 4102000   0.59229282   -8.2880475    717.92558  0.014584869  0.013524634            8 
 4103000   0.58555109   -8.3029645    720.86208  0.014640955  0.013520156            3 
 4104000   0.60138407   -8.2957621    718.26434   0.01458464   0.01351568            2 
 4105000   0.60633735    -8.297084    718.08371   0.01457742  0.013511209            6 
 4106000   0.59045517   -8.2883539    719.28671  0.014598285   0.01350675            2 
 4107000   0.59211318   -8.2850391    719.25047  0.014593995  0.013502282            2 
 4108000   0.59260179   -8.3093836    719.02649  0.014585899  0.013497822            3 
 4109000   0.60383589   -8.2885177    719.18967  0.014585659  0.013493351            3 
 4110000   0.59587308   -8.2830528    717.90717  0.014556106  0.013488885            2 
 4111000   0.59649306   -8.2852137    718.10144  0.014556504  0.013484426            4 
 4112000   0.59682525   -8.2866674    719.32124  0.014577684  0.013479965            3 
 4113000   0.58667225    -8.288161    719.69961  0.014581806  0.013475506            2 
 4114000    0.5819183   -8.3178336     718.7596  0.014559221  0.013471047            3 
 4115000   0.60344056   -8.2863153    718.80736   0.01455665  0.013466585            3 
 4116000   0.60318851   -8.2825579    717.84296  0.014533588  0.013462126            2 
 4117000   0.59494566    -8.277402    718.38178  0.014540964  0.013457671            2 
 4118000   0.59439457   -8.2873745    717.57834  0.014521174  0.013453212            3 
 4119000   0.58807673   -8.2997264    717.59558  0.014517998  0.013448752            1 
 4120000   0.60242291   -8.2876328    718.20151   0.01452673  0.013444295            2 
 4121000   0.59198332   -8.2848338    718.48181  0.014528873   0.01343984            2 
 4122000   0.59012998   -8.2873302    717.73618  0.014510274  0.013435381            3 
 4123000   0.59886804   -8.3143269    717.89595  0.014509984  0.013430925            2 
 4124000   0.58532339   -8.2998899    718.18589  0.014512324  0.013426467            1 
 4125000   0.57987589   -8.2883193    718.78855  0.014520981  0.013422015            5 
 4126000   0.59295082     -8.29008    718.60336  0.014513721  0.013417559            6 
 4127000   0.59600077   -8.2948118    718.37032  0.014505499  0.013413111            5 
 4128000   0.59374582   -8.2994967    719.15465  0.014517818  0.013408663            4 
 4129000   0.58700194   -8.2870341     718.2552  0.014496149  0.013404217            8 
 4130000   0.59186315   -8.2968723    718.20188  0.014491563  0.013399768            5 
 4131000   0.59616594   -8.3057382    718.28717  0.014489776  0.013395323            3 
 4132000   0.59961489    -8.320955    718.49651  0.014490491  0.013390869            4 
 4133000   0.58677761   -8.2849558    717.74095  0.014471751   0.01338642            4 
 4134000   0.58722498   -8.3126751     718.0641  0.014474764   0.01338198            4 
 4135000   0.58965772   -8.3008824    718.66764  0.014483427   0.01337754            3 
 4136000   0.59927854    -8.291701    717.90497  0.014464559  0.013373096            2 
 4137000   0.59032577   -8.3020733    719.05682  0.014484264  0.013368663            2 
 4138000     0.594286   -8.2963464     717.9869  0.014459217  0.013364227            5 
 4139000   0.60107714   -8.3200726    718.27304  0.014461485  0.013359796            2 
 4140000   0.57659666   -8.2802221    719.33131  0.014479294  0.013355363            2 
 4141000   0.58430834   -8.3122266    718.30848  0.014455214  0.013350934            2 
 4142000   0.57988255   -8.3080029    718.91605  0.014463948  0.013346501            2 
 4143000   0.58856252   -8.3104739    717.18195  0.014425576  0.013342071            1 
 4144000    0.5870206   -8.3111361    718.11097  0.014440777  0.013337651            4 
 4145000   0.58158115   -8.3053569     716.8078  0.014411094  0.013333224            4 
 4146000   0.58061229   -8.3222222    717.84062  0.014428377   0.01332879            6 
 4147000   0.57796556    -8.315767    718.01572  0.014428417  0.013324359            3 
 4148000    0.5971941   -8.3150669    717.70302  0.014418656  0.013319936            3 
 4149000   0.59127441     -8.29265    717.60549  0.014413222  0.013315511            2 
 4150000   0.58196118    -8.301986    716.72228  0.014392014  0.013311091            4 
 4151000   0.58551536   -8.2987802    716.75167  0.014389136  0.013306674            2 
 4152000   0.58990684   -8.3266629    716.63173  0.014383264  0.013302253            3 
 4153000   0.58848278   -8.3108936    717.55431  0.014398313   0.01329783            1 
 4154000   0.58407176   -8.3183014    717.47745  0.014393305  0.013293418            2 
 4155000    0.5842766   -8.3126026      717.526  0.014390814  0.013289003            2 
 4156000   0.58665431   -8.3173466    717.79897  0.014392825  0.013284586            5 
 4157000    0.5910458   -8.3240952    718.80652  0.014409561  0.013280178            2 
 4158000   0.58261186   -8.3184394    716.31907  0.014356242  0.013275764            3 
 4159000   0.58849642   -8.3045603    717.99761  0.014386423  0.013271358            4 
 4160000   0.59630162   -8.3106545    716.79641  0.014358902  0.013266951            4 
 4161000   0.58734989   -8.3055025    716.83635  0.014356252  0.013262545            2 
 4162000   0.59065623   -8.3251055    716.66747  0.014349421  0.013258139            2 
 4163000   0.58968235   -8.3203058      717.407  0.014360778  0.013253737            4 
 4164000   0.60193985   -8.3153078    716.55397  0.014340257  0.013249328            4 
 4165000   0.59636753   -8.3420518    719.09267  0.014387608  0.013244928            6 
 4166000   0.57367459   -8.3108785     717.1371  0.014345037  0.013240528            2 
 4167000   0.58709647   -8.3272696    716.69045  0.014332662  0.013236124            2 
 4168000   0.58829524   -8.3307449    717.30183  0.014341447  0.013231728            3 
 4169000   0.58548532   -8.3263638    717.23322  0.014336636  0.013227326            7 
 4170000   0.58402619   -8.3354931    717.31468  0.014334826  0.013222929            5 
 4171000   0.59613561   -8.3311152    716.44523  0.014314018  0.013218536           10 
 4172000   0.58867803   -8.3176441    717.39989  0.014329656  0.013214139            9 
 4173000   0.58812031     -8.32429    718.14653  0.014341132  0.013209751            2 
 4174000   0.57853157    -8.322189    716.69963  0.014308809  0.013205363            6 
 4175000   0.58068481   -8.3185457    717.48339  0.014321026  0.013200979            1 
 4176000   0.58391115    -8.306083    716.92486  0.014306451  0.013196594            2 
 4177000   0.58664349   -8.3211608    716.87452  0.014302021  0.013192212            4 
 4178000   0.59015922   -8.3299715    718.76536  0.014336312  0.013187827            2 
 4179000   0.59107926   -8.3074092    716.93647  0.014296412  0.013183444            2 
 4180000   0.58320242   -8.3089331    718.47346  0.014323634  0.013179067            3 
 4181000   0.57963562   -8.3112262    717.71252  0.014305041  0.013174691            3 
 4182000   0.57877468   -8.3329785    717.39725  0.014295338  0.013170312            5 
 4183000   0.58072493   -8.3252832     717.0652  0.014285306  0.013165933            9 
 4184000   0.58138568   -8.3138562    718.40524  0.014308581   0.01316156            7 
 4185000   0.57658326   -8.3264394    718.30496  0.014303165  0.013157186            9 
 4186000   0.58704104   -8.3181266     717.5171  0.014284064  0.013152816            4 
 4187000   0.59592829   -8.2891017    718.31154  0.014296464  0.013148452            3 
 4188000   0.57872277   -8.3282405    716.82666  0.014263504  0.013144084            7 
 4189000   0.58627318   -8.3437676    716.98282  0.014263206  0.013139715            8 
 4190000   0.57909912   -8.3255851      717.309  0.014266289  0.013135347            7 
 4191000   0.58698131     -8.33841     716.7573  0.014251915  0.013130979            9 
 4192000   0.59389855   -8.3280816    717.45303  0.014262345  0.013126608            5 
 4193000   0.58323392   -8.3153029    717.43637  0.014258613  0.013122251            6 
 4194000   0.58962839   -8.3366431    716.41726  0.014234964   0.01311789            4 
 4195000   0.57770834   -8.3227806    716.03739  0.014224024  0.013113529           10 
 4196000   0.59144682   -8.3419067    716.86223  0.014237016  0.013109168            9 
 4197000    0.5721077   -8.3421259    716.14921  0.014219466  0.013104805            9 
 4198000   0.58009801   -8.3428356    716.98775  0.014232725  0.013100438            6 
 4199000   0.58119015   -8.3396997    716.97993   0.01422918  0.013096079            8 
 4200000   0.59716322   -8.3133397    717.48786   0.01423587  0.013091714            7 
 4201000   0.54847633   -8.3348457    716.78324  0.014218504  0.013087356            6 
 4202000   0.56448929   -8.3326718    716.32693  0.014206071  0.013082997            6 
 4203000   0.57095847   -8.3274649    718.07985  0.014237446  0.013078651            6 
 4204000   0.57016668   -8.3266337    716.18922  0.014196583  0.013074304            7 
 4205000   0.58755798    -8.320049    717.68399   0.01422283  0.013069962           10 
 4206000   0.57960313   -8.3281844     717.0057  0.014206009  0.013065619            6 
 4207000   0.58071593   -8.3131444    717.57238  0.014213858  0.013061269            5 
 4208000   0.57564502   -8.3337302    717.07386  0.014200607  0.013056931            5 
 4209000   0.56437367   -8.3501687     716.5498  0.014186858  0.013052591            7 
 4210000   0.57573729   -8.3073151    717.84998  0.014209224  0.013048251            5 
 4211000   0.57640526   -8.3446724     716.6995  0.014183082  0.013043913            4 
 4212000   0.57738371   -8.3311029    716.52952  0.014176352  0.013039574           11 
 4213000   0.56865114   -8.3266853    717.61639  0.014194485  0.013035233           10 
 4214000   0.58859782   -8.3179073    716.92745  0.014177493    0.0130309            6 
 4215000   0.57829907   -8.3413544    717.51787  0.014185802  0.013026568            7 
 4216000   0.57678789   -8.3277999    717.11761  0.014174526  0.013022234            7 
 4217000   0.56978754   -8.3368897    717.76379  0.014183934  0.013017906           12 
 4218000   0.57507248   -8.3358912    715.32724  0.014132433  0.013013574           10 
 4219000   0.59090779    -8.351485    716.37165  0.014149713  0.013009244            7 
 4220000   0.60221595   -8.3106655    718.33673  0.014185165  0.013004925           11 
 4221000    0.5717715   -8.3409668    717.93906  0.014173953  0.013000604            6 
 4222000   0.56184173   -8.3312794    718.23701  0.014176477  0.012996282            4 
 4223000   0.57677039   -8.3242045    717.13357  0.014151345  0.012991969            5 
 4224000   0.57839101   -8.3412077    717.08765  0.014147089  0.012987645            3 
 4225000   0.57911247   -8.3253436     717.0265  0.014142535  0.012983331            5 
 4226000   0.57216624   -8.3438338    715.59455  0.014110951  0.012979017            6 
 4227000   0.58902373    -8.343489    716.50578  0.014125577  0.012974709            4 
 4228000   0.57862937   -8.3430158    716.44431  0.014121025  0.012970397            8 
 4229000   0.57722126    -8.346757    717.18127  0.014132208  0.012966091            2 
 4230000   0.57713246   -8.3437213    716.42693  0.014114006  0.012961789            5 
 4231000    0.5709889    -8.338201     715.8757  0.014099813  0.012957483            2 
 4232000   0.57580965   -8.3355856    716.96618  0.014117954  0.012953178            4 
 4233000   0.57160819   -8.3607568    716.82725  0.014111884  0.012948877            5 
 4234000   0.59500274    -8.356121    716.10327  0.014094301  0.012944575            3 
 4235000   0.57722278   -8.3331487    717.04328   0.01410947  0.012940271            5 
 4236000    0.5747797   -8.3337876     718.1294  0.014127506  0.012935969            5 
 4237000   0.57149719   -8.3459871    717.56167  0.014113006  0.012931681            4 
 4238000   0.57079359   -8.3596964     716.7462  0.014093641  0.012927391            2 
 4239000   0.58315748   -8.3338679    716.41391  0.014083784  0.012923102            5 
 4240000    0.5582811   -8.3293353    717.70399  0.014105817  0.012918818            3 
 4241000   0.56165432    -8.338115    716.84681  0.014085648  0.012914529            2 
 4242000   0.56135093   -8.3440131    716.70609  0.014079563  0.012910246            4 
 4243000   0.56453981   -8.3375692    716.82991  0.014078677  0.012905963           10 
 4244000   0.57801368   -8.3429657    718.25821  0.014103405  0.012901683            5 
 4245000    0.5799151   -8.3324578    717.18804  0.014079074  0.012897404            2 
 4246000   0.56918831   -8.3536425    716.12045  0.014054806  0.012893123            3 
 4247000    0.5680704   -8.3392383    716.76572  0.014064157  0.012888847            6 
 4248000   0.57673999   -8.3509205    715.28446  0.014031789  0.012884575            5 
 4249000   0.56793859   -8.3323671     717.1958  0.014065972  0.012880301            2 
 4250000   0.57829162    -8.346846     715.6143  0.014031653  0.012876033            2 
 4251000   0.57309393   -8.3457414    716.40162  0.014043786  0.012871763            2 
 4252000   0.56814259   -8.3462594    717.38143  0.014059686  0.012867487            2 
 4253000   0.56385191   -8.3396397     716.6596  0.014042237  0.012863222            3 
 4254000    0.5828138   -8.3505064    716.45442  0.014034917  0.012858951            9 
 4255000   0.56994397   -8.3321713    716.57896  0.014034057  0.012854684            5 
 4256000   0.56039175   -8.3405526    716.40329   0.01402732  0.012850422            3 
 4257000   0.56864052   -8.3499022    717.45359  0.014044585  0.012846155            3 
 4258000   0.56740913   -8.3295677    716.82402  0.014028965  0.012841885            3 
 4259000   0.57504523   -8.3470196    715.95029  0.014008576  0.012837621            7 
 4260000   0.56658928    -8.355944    716.36249  0.014013351  0.012833361            9 
 4261000     0.567536   -8.3302459    716.28229  0.014008494  0.012829108            6 
 4262000    0.5630078   -8.3516551    716.62498  0.014011907  0.012824849            6 
 4263000   0.57382114   -8.3268965    716.60443  0.014008219  0.012820586            4 
 4264000   0.57290428   -8.3466961    716.29052  0.013998798  0.012816325            6 
 4265000   0.57789078   -8.3530231    715.98728  0.013989591  0.012812074            4 
 4266000   0.56406414   -8.3424076    716.34477  0.013993295  0.012807825            2 
 4267000   0.56737804   -8.3575018    715.98265  0.013982944  0.012803574            2 
 4268000   0.56068292   -8.3513656    716.95385   0.01399863  0.012799331            3 
 4269000   0.56842611   -8.3634162    717.35512  0.014003184  0.012795085            2 
 4270000   0.57317673   -8.3466999    716.77556  0.013988594  0.012790837            2 
 4271000   0.57602693   -8.3502398     717.0783  0.013991226  0.012786593            2 
 4272000   0.56061387   -8.3481156    716.69511  0.013980476  0.012782345            2 
 4273000   0.57606032   -8.3548558    716.16061   0.01396678  0.012778107            4 
 4274000   0.55988142   -8.3511692    716.67404  0.013973523  0.012773866            3 
 4275000   0.56454447   -8.3638785    715.98852  0.013956891  0.012769622            3 
 4276000   0.57717889   -8.3629613    716.22602  0.013958256  0.012765378            3 
 4277000   0.57676585     -8.35771    715.98357  0.013950268  0.012761143            5 
 4278000   0.55781741   -8.3623158    715.79419  0.013943318  0.012756909            3 
 4279000   0.57342944   -8.3349825    715.68841     0.013938  0.012752671            3 
 4280000    0.5701763   -8.3517173    717.37811  0.013967642  0.012748438            3 
 4281000   0.57313491   -8.3826715    716.30526  0.013943496  0.012744205            5 
 4282000   0.57019022   -8.3732146    715.47109  0.013924005  0.012739976            5 
 4283000   0.56193353   -8.3517105    716.52788  0.013941316  0.012735748            5 
 4284000    0.5728542   -8.3431868     715.8961  0.013925772  0.012731522            3 
 4285000   0.56013851   -8.3375497    717.43788  0.013952506  0.012727298            4 
 4286000   0.56850055   -8.3707848    716.44774      0.01393   0.01272308            2 
 4287000    0.5836026   -8.3633451    716.87479  0.013935052  0.012718861            4 
 4288000   0.56967478    -8.375118     715.5892  0.013906818  0.012714643            4 
 4289000   0.56754456   -8.3613146    716.11978  0.013913884  0.012710424            6 
 4290000   0.55871396   -8.3559022    716.29209  0.013913988  0.012706207            4 
 4291000   0.55957819    -8.364035    717.86877  0.013941365  0.012701991            8 
 4292000   0.56680614   -8.3603074    715.08599  0.013884087  0.012697778            3 
 4293000    0.5676664   -8.3442452    715.85894  0.013895856  0.012693568            2 
 4294000   0.56576033   -8.3641451    715.87609  0.013892953  0.012689355            5 
 4295000   0.56674257   -8.3632836    715.67538  0.013885824  0.012685146            2 
 4296000   0.55846568    -8.375764     715.8407  0.013885799   0.01268094            2 
 4297000   0.58052951   -8.3671486    715.56889  0.013877296  0.012676733            4 
 4298000   0.56124701   -8.3540322    717.49622  0.013911436  0.012672529            5 
 4299000   0.57308084   -8.3722505    715.08744  0.013861507  0.012668328            4 
 4300000   0.56698406   -8.3679122     717.4936  0.013904915  0.012664129            4 
 4301000    0.5568032   -8.3773614    716.34076  0.013879345  0.012659926            2 
 4302000   0.56440575   -8.3397349     715.5341  0.013860493  0.012655725            3 
 4303000   0.56446329   -8.3524587    716.11335   0.01386849  0.012651524            3 
 4304000   0.56811482   -8.3488235    716.30161  0.013868913  0.012647326            4 
 4305000   0.57032456   -8.3728146    716.90676  0.013877405  0.012643128            2 
 4306000   0.56152886   -8.3511247    715.77238  0.013852229  0.012638931            3 
 4307000   0.57279703   -8.3624118    716.41234  0.013861395  0.012634738            2 
 4308000   0.55889363    -8.374104    715.44607  0.013839486  0.012630546            2 
 4309000   0.56497454   -8.3922958    715.78596  0.013842847  0.012626354            3 
 4310000   0.56182638   -8.3643414    716.43401  0.013852166  0.012622161            3 
 4311000   0.55758683   -8.3957569    716.65027  0.013853133  0.012617967            5 
 4312000   0.55848231   -8.3793978    715.19442  0.013821785  0.012613777            5 
 4313000   0.56377698   -8.3684402    715.82916  0.013830844  0.012609589            2 
 4314000   0.56377824   -8.3653936    715.88759  0.013828767  0.012605407            6 
 4315000   0.55563755   -8.3660903    715.69031  0.013821752   0.01260123            2 
 4316000    0.5518446   -8.3676273    715.67618  0.013818277  0.012597053            3 
 4317000   0.56035454    -8.355693    717.09381  0.013842441  0.012592873            2 
 4318000   0.55172443   -8.3623901    715.50805  0.013808632  0.012588691            3 
 4319000   0.56213266   -8.3714025    715.82729  0.013811594   0.01258451            4 
 4320000   0.55796635   -8.3700973    715.92041  0.013810193  0.012580336            3 
 4321000   0.55573706   -8.3803615    716.52927  0.013818739  0.012576161            2 
 4322000   0.57039603   -8.3563711    715.68139  0.013799194  0.012571993            2 
 4323000   0.55069418   -8.3632714    715.39015  0.013790388   0.01256782            4 
 4324000   0.57494122    -8.378738    714.22228  0.013764691  0.012563648            2 
 4325000   0.56887347    -8.377217    716.30125  0.013801566  0.012559475            2 
 4326000   0.56168849   -8.3730541    716.98139  0.013811477  0.012555307            1 
 4327000   0.57024677   -8.3924133    714.89201  0.013768046  0.012551137            3 
 4328000   0.56659004   -8.3794912     715.9164  0.013784589  0.012546971            3 
 4329000   0.55062638   -8.3682916    716.17741  0.013786429  0.012542805            2 
 4330000   0.56192874   -8.3857158    715.49084  0.013770031  0.012538643            1 
 4331000   0.55998007   -8.3644239    716.49877  0.013786246  0.012534486            3 
 4332000   0.55954921   -8.3650758    715.13768  0.013756881  0.012530328            3 
 4333000   0.55155599   -8.3683742    715.07773  0.013752553  0.012526172            4 
 4334000   0.55936892   -8.3798132    716.55473  0.013777779  0.012522021            2 
 4335000   0.55829414    -8.392295    714.57811  0.013736603  0.012517866            5 
 4336000   0.55690955   -8.3570077    716.31385  0.013766794  0.012513714            3 
 4337000   0.56080889   -8.3688693      715.566  0.013749251  0.012509569            5 
 4338000   0.55622386   -8.3991034    716.46856  0.013763419   0.01250542            4 
 4339000   0.55363629   -8.3720621    715.45478  0.013740777  0.012501276            4 
 4340000   0.57889463   -8.3658219    715.64677  0.013741297  0.012497133            3 
 4341000   0.56081977   -8.3833381    714.59935  0.013718025  0.012492987            3 
 4342000    0.5542355   -8.3634033     715.4969  0.013732092  0.012488844            3 
 4343000   0.56437646    -8.371605    716.50364  0.013748247  0.012484704            6 
 4344000   0.55146091    -8.384363    716.57707  0.013746491  0.012480563            2 
 4345000   0.55840993   -8.3887218    716.16609  0.013735445  0.012476426            3 
 4346000   0.54552272   -8.3533119    715.86532  0.013726517  0.012472294            4 
 4347000   0.55679894   -8.3727025    716.59692  0.013737384  0.012468158            2 
 4348000   0.55938813   -8.3850146    716.39485  0.013730352  0.012464023            2 
 4349000   0.56505723   -8.3953347    715.83425  0.013716453   0.01245989            4 
 4350000   0.56042212   -8.3870201    714.93788  0.013696128  0.012455757            4 
 4351000    0.5595283   -8.3832349    716.59635  0.013724744  0.012451627            2 
 4352000    0.5584241   -8.3821211    715.44349  0.013699515    0.0124475            3 
 4353000   0.55243112   -8.3908142    714.74711  0.013683037  0.012443374            4 
 4354000   0.56217455   -8.3896071    716.53104  0.013714038  0.012439252            3 
 4355000   0.57276541   -8.3909488    715.84506  0.013697762  0.012435128            1 
 4356000   0.55315753   -8.3695927    714.78023  0.013674247  0.012431006            2 
 4357000   0.56055226   -8.3829064    715.99135  0.013694273  0.012426882            2 
 4358000   0.55218327   -8.3793821    715.84728  0.013688375  0.012422764            2 
 4359000   0.56253155   -8.3837143    714.40007  0.013657568   0.01241865            5 
 4360000   0.54053717   -8.3954517    714.17402  0.013650115  0.012414534            3 
 4361000   0.54486719   -8.3692692    715.35134  0.013669482  0.012410422            3 
 4362000   0.54780083   -8.3884128    716.50717   0.01368843  0.012406312            4 
 4363000   0.56307017   -8.3677456    715.04922  0.013657446  0.012402205            2 
 4364000   0.54118306   -8.3762299    715.03689  0.013654081  0.012398103            4 
 4365000   0.54969064   -8.3715096    716.33048  0.013675649  0.012394001            5 
 4366000   0.55518722   -8.3863989    716.16361  0.013669331  0.012389903            4 
 4367000    0.5641606   -8.4031605    714.41758  0.013632883    0.0123858            3 
 4368000   0.53923835   -8.3839249    716.87967  0.013676734    0.0123817            4 
 4369000   0.55416644   -8.3899389    714.69259  0.013631887  0.012377601            3 
 4370000   0.54138261   -8.3841835    716.23172  0.013658118  0.012373508            4 
 4371000   0.54143586   -8.4025143    715.15007  0.013634372  0.012369406            2 
 4372000   0.56352206   -8.3835388    716.32261  0.013653603   0.01236531            5 
 4373000   0.55255833   -8.3940081    715.57793  0.013636289  0.012361218            3 
 4374000   0.55503823   -8.4076609    715.05885  0.013623282  0.012357123            3 
 4375000    0.5572425   -8.3701404     715.4226  0.013627097  0.012353029            3 
 4376000   0.55587941   -8.3918428    714.92575  0.013614522  0.012348938            5 
 4377000   0.54895857   -8.3828359    715.04982  0.013613773  0.012344851            2 
 4378000   0.54961608   -8.3819572    716.68149  0.013641722  0.012340766            2 
 4379000   0.55366379   -8.3970724    715.08788   0.01360828  0.012336679            3 
 4380000   0.54718695   -8.4003394    714.55474  0.013595029  0.012332594            3 
 4381000   0.56289284   -8.3789974    715.54031  0.013610673  0.012328511            4 
 4382000   0.55146769   -8.3777308    715.31785  0.013603337  0.012324437            3 
 4383000   0.54662118   -8.3841723    715.26553  0.013599238  0.012320358            5 
 4384000   0.55865553   -8.3944571    714.31277  0.013578026  0.012316283            3 
 4385000   0.55134826   -8.3785155     715.7323  0.013601906  0.012312206            6 
 4386000    0.5457851   -8.4047859    715.49686  0.013594332  0.012308138            3 
 4387000   0.53883645   -8.4068231    715.59727   0.01359314  0.012304064            4 
 4388000   0.55276689   -8.3796942    714.61595  0.013571406  0.012299994            3 
 4389000   0.54127879   -8.3964657    715.19792  0.013579364  0.012295925            3 
 4390000   0.55251822   -8.3812537    715.35118   0.01357918  0.012291855            4 
 4391000   0.55271019   -8.3870663    715.62577  0.013581298  0.012287786            4 
 4392000   0.53488258   -8.4015347     715.9317  0.013584011  0.012283721            7 
 4393000   0.56136483   -8.3703365    715.59931  0.013574613  0.012279661            8 
 4394000   0.55138018   -8.3908128    714.89927  0.013558247  0.012275602            3 
 4395000      0.55633   -8.3805036    716.18895  0.013579616  0.012271544            2 
 4396000   0.54218569   -8.4149611    715.95972  0.013572181  0.012267486            3 
 4397000   0.53744297    -8.387657    715.62445  0.013562741  0.012263423            5 
 4398000   0.54568726   -8.3925214    714.75004  0.013543088  0.012259365            5 
 4399000   0.54188329   -8.3955504    714.92385  0.013543302  0.012255307            3 
 4400000   0.55097161   -8.3855133    715.51246  0.013551372  0.012251252            4 
 4401000   0.55224003   -8.3966943    715.68708    0.0135516  0.012247194            4 
 4402000   0.55355947   -8.3975083     714.6251  0.013528417  0.012243146            2 
 4403000   0.55289905   -8.3876141     715.1821  0.013535886  0.012239098            3 
 4404000   0.53017813   -8.3997236    714.50177   0.01351994  0.012235052           10 
 4405000   0.54085748    -8.403488    713.84087  0.013504368   0.01223101            4 
 4406000   0.55165748   -8.4026999    715.91111  0.013540458   0.01222697            2 
 4407000   0.54138381   -8.3919026    715.36551  0.013527069   0.01222293            6 
 4408000   0.54299507   -8.3906914    716.27668  0.013541226  0.012218888            2 
 4409000   0.54557628   -8.3931877    715.72769  0.013527778  0.012214851            2 
 4410000   0.55267474   -8.3862854     714.3813  0.013499269  0.012210815            4 
 4411000   0.55893686   -8.4183575    714.04614  0.013489876  0.012206778            3 
 4412000   0.54281795   -8.3893713    716.15911  0.013526728  0.012202745            3 
 4413000    0.5506597   -8.4086013    715.20308   0.01350561   0.01219871            2 
 4414000   0.55300927   -8.3887446    715.01895  0.013499074  0.012194681            3 
 4415000   0.55013041   -8.4041673     715.8161  0.013511063  0.012190649            4 
 4416000   0.54051206   -8.3864551    715.63239  0.013504536  0.012186616            4 
 4417000   0.54792735   -8.3838408    715.52643   0.01349948  0.012182586            3 
 4418000   0.52918299   -8.4045792    715.06489  0.013487719  0.012178557            2 
 4419000   0.54478708   -8.3992602    714.78349   0.01347936  0.012174526            2 
 4420000   0.55041155   -8.3801917    714.92616     0.013479  0.012170502            3 
 4421000   0.54723123   -8.3917452    714.83484   0.01347423  0.012166479            2 
 4422000   0.54450801   -8.3810149    715.44538  0.013482688  0.012162455            5 
 4423000   0.54635542   -8.3970057    715.43377  0.013479421  0.012158436            4 
 4424000   0.55045843    -8.380418    715.84279  0.013484079  0.012154422            5 
 4425000   0.53096004   -8.4142173    713.99208  0.013446179  0.012150402            2 
 4426000   0.54397816   -8.4036741    714.38072  0.013450458  0.012146388            2 
 4427000   0.53395557   -8.4047855    715.38098  0.013466248  0.012142375            8 
 4428000   0.55508656   -8.3860589    714.38297  0.013444425  0.012138365            4 
 4429000   0.54735116   -8.4041758    714.54436  0.013444426  0.012134359            2 
 4430000   0.54812691   -8.3967548     714.8019  0.013446236  0.012130353            3 
 4431000    0.5422543   -8.4039389    715.23251    0.0134513  0.012126345            3 
 4432000   0.53635097    -8.405905     714.8034  0.013440196  0.012122336            3 
 4433000   0.54417999   -8.3907179    715.41955  0.013448747  0.012118332            1 
 4434000   0.54477895   -8.3918334    713.43412    0.0134084  0.012114327            3 
 4435000   0.53770334    -8.391821    715.08138  0.013436328  0.012110327            2 
 4436000   0.54589438   -8.4006554    714.15395  0.013415877  0.012106324            3 
 4437000   0.54407894   -8.3890511     714.9748   0.01342827  0.012102327            3 
 4438000   0.54841009   -8.4016522    715.42776  0.013433749  0.012098326            3 
 4439000   0.54822771   -8.3892816    714.26639  0.013408921  0.012094326            2 
 4440000   0.54305615   -8.4022059    714.89254  0.013417653   0.01209033            3 
 4441000   0.54380386   -8.4103966     714.4873  0.013407027  0.012086338            4 
 4442000   0.53739249   -8.4128937    713.43452  0.013384259  0.012082343            5 
 4443000    0.5438109   -8.3969796    715.30966  0.013416417  0.012078354            3 
 4444000   0.53897837   -8.3976502    715.02182     0.013408  0.012074373            2 
 4445000    0.5463098   -8.3980317    714.23911   0.01339031  0.012070388            3 
 4446000   0.53809673   -8.4095753    714.84074  0.013398574  0.012066402            4 
 4447000   0.54420125   -8.4132077    714.27987  0.013385051   0.01206242            4 
 4448000   0.53712007   -8.3974099    714.50927   0.01338634  0.012058435            3 
 4449000   0.53835432   -8.4234615    713.82023  0.013370425  0.012054452            6 
 4450000    0.5402317    -8.401823    714.59589  0.013381946  0.012050469            5 
 4451000   0.53788023   -8.3927353    713.96386  0.013367106  0.012046486            4 
 4452000   0.54509217   -8.4000381    715.42742  0.013391499  0.012042511            2 
 4453000    0.5351125   -8.3961034    715.31262  0.013386343   0.01203854            4 
 4454000   0.53986414   -8.3942552    713.87432  0.013356427  0.012034561            3 
 4455000   0.53376387   -8.3984774    714.98335  0.013374174  0.012030589            3 
 4456000   0.53681565   -8.4183366    715.04239  0.013372277  0.012026614            4 
 4457000   0.55135063   -8.3958068    714.75991  0.013363995  0.012022647            7 
 4458000   0.55365704   -8.4167937     714.4586  0.013355365  0.012018681            3 
 4459000   0.53579575   -8.4062716    714.14919  0.013346587  0.012014716            3 
 4460000   0.53496705   -8.4238971    714.81013  0.013355944  0.012010747            4 
 4461000   0.53869517   -8.4318921    715.20311  0.013360291  0.012006784            2 
 4462000   0.53896789      -8.4182    714.62862  0.013346568  0.012002824            2 
 4463000   0.54293008   -8.4113578    713.66252  0.013325538  0.011998864            3 
 4464000   0.53142719   -8.4058305    714.44282   0.01333712  0.011994901            3 
 4465000   0.53018645   -8.4125986     714.4178  0.013333666  0.011990946            4 
 4466000   0.53131237   -8.4366306     715.3352  0.013347798  0.011986989            2 
 4467000   0.55217915   -8.4189721    713.70816  0.013314457  0.011983033            2 
 4468000   0.52837997   -8.4175137    714.36946  0.013323811   0.01197908            4 
 4469000    0.5386193     -8.42075    714.44491  0.013322237  0.011975128            4 
 4470000   0.52809804   -8.4200212     714.3418  0.013317334  0.011971172            3 
 4471000   0.52782076   -8.4187308    715.34362  0.013333028  0.011967223            6 
 4472000   0.53909246    -8.421581    714.41983  0.013312832  0.011963276            2 
 4473000   0.53224421   -8.4180407     714.8434  0.013317747  0.011959333            3 
 4474000   0.54753957   -8.3994571     715.8464  0.013333452  0.011955388            1 
 4475000   0.52840565   -8.4301083    714.73562  0.013309788  0.011951442            4 
 4476000   0.53217009   -8.4195975    714.01873  0.013293468    0.0119475            2 
 4477000   0.53211723   -8.4255201    714.28138  0.013295387  0.011943556            2 
 4478000   0.53251706   -8.4265877    714.28868  0.013292554  0.011939614            2 
 4479000   0.52918159   -8.4114734    713.97005  0.013283658  0.011935679            3 
 4480000   0.54467982    -8.410998    714.43333  0.013289311  0.011931742            2 
 4481000   0.54299324   -8.4132116    714.28588  0.013283603  0.011927809            3 
 4482000   0.53022766   -8.4073304    714.62127  0.013286875  0.011923881            2 
 4483000   0.52689449   -8.4164747    714.57836  0.013283113  0.011919948            3 
 4484000   0.52633206   -8.4272661    714.09481  0.013271164  0.011916016            1 
 4485000   0.53537502   -8.4160182     715.6618  0.013297321  0.011912086            2 
 4486000   0.53902786   -8.4098664    714.40103  0.013270936  0.011908155            4 
 4487000   0.53164566   -8.4185706    714.51928  0.013270175   0.01190423            2 
 4488000   0.54209004   -8.4249453    714.56794  0.013268121  0.011900303            3 
 4489000   0.51930242   -8.4210057    714.89854  0.013271303  0.011896378            3 
 4490000   0.53560345   -8.4124446    715.70156  0.013283251   0.01189246            2 
 4491000   0.54442811   -8.4426554      714.513  0.013258239  0.011888538            2 
 4492000   0.53190485   -8.4216797    714.29523  0.013251247   0.01188462            4 
 4493000   0.53144857   -8.4257319    713.18593  0.013227723  0.011880699            6 
 4494000   0.53171609   -8.4210752    714.77076  0.013254168  0.011876778            1 
 4495000   0.54178045   -8.4252732    714.18105  0.013240286  0.011872861            2 
 4496000   0.53044317   -8.4283665    713.57076   0.01322603  0.011868946            2 
 4497000   0.52375848   -8.4304206    714.29752  0.013236556  0.011865036            2 
 4498000   0.52570872   -8.4264516    713.90489  0.013226339  0.011861127            2 
 4499000   0.53571014   -8.4177374    714.20916  0.013229035  0.011857218            3 
 4500000    0.5449034   -8.4358767    713.27712  0.013208835  0.011853305            2 
 4501000   0.53572606   -8.4144195    713.93325  0.013218049  0.011849396            4 
 4502000   0.54150348   -8.4263089    714.31007  0.013222088  0.011845492            3 
 4503000   0.54003443   -8.4267994    714.36286  0.013220128  0.011841589            3 
 4504000   0.52845351   -8.4394533    713.82146  0.013207176  0.011837688            3 
 4505000   0.53281787   -8.4187799    714.05444  0.013208554   0.01183379            3 
 4506000   0.53751381   -8.4411654    714.49175   0.01321371  0.011829895            4 
 4507000   0.53517449   -8.4400766    713.00076  0.013183211  0.011825999            3 
 4508000   0.53559604   -8.4214035    714.52742  0.013208508  0.011822104            2 
 4509000   0.54085797   -8.4247534    714.69233  0.013208626   0.01181821            2 
 4510000   0.53944628   -8.4387474    713.24052  0.013178871  0.011814314            5 
 4511000   0.52694712   -8.4265691    713.48364  0.013180441  0.011810415            3 
 4512000   0.52916977   -8.4326382    713.64212  0.013180447  0.011806523            3 
 4513000   0.52887345   -8.4300138    714.08215  0.013185652   0.01180263            2 
 4514000   0.51802392   -8.4373438    713.81323  0.013177766  0.011798737            2 
 4515000   0.53076059   -8.4201153    713.69278  0.013172624  0.011794849            3 
 4516000   0.53271939   -8.4435254    712.94547  0.013155917  0.011790959            2 
 4517000   0.53579922   -8.4130478     713.5675   0.01316448  0.011787073            2 
 4518000   0.52954771   -8.4276796     713.6901  0.013163828  0.011783192            5 
 4519000   0.52193326    -8.423725    714.13062  0.013169039   0.01177931            3 
 4520000   0.53715171   -8.4185071    714.75062  0.013177556   0.01177543            3 
 4521000   0.55062888   -8.4372984    713.86026  0.013158229  0.011771554            5 
 4522000   0.53006384   -8.4562337    714.11034  0.013159928  0.011767675            3 
 4523000   0.52622068   -8.4388574    714.34392  0.013161322    0.0117638            3 
 4524000    0.5280749    -8.431053    713.75024  0.013147477  0.011759926            3 
 4525000   0.53044473   -8.4114038    713.97892  0.013148783  0.011756052            3 
 4526000   0.52666767   -8.4239737    714.37851  0.013153235   0.01175218            7 
 4527000   0.51414782   -8.4434056    713.44563  0.013133157  0.011748312            3 
 4528000   0.52575857    -8.419164    714.39976  0.013147817  0.011744441            4 
 4529000    0.5346543   -8.4308341    714.53352  0.013147375  0.011740572            6 
 4530000   0.53326612   -8.4353156    713.78739  0.013130747   0.01173671            3 
 4531000   0.52412943   -8.4376792    713.93891  0.013130635  0.011732845            3 
 4532000   0.52024405   -8.4377829    712.93178  0.013109219  0.011728979            2 
 4533000   0.52222265   -8.4435739     714.6352  0.013137643  0.011725118            3 
 4534000   0.52384557   -8.4310983    713.27205  0.013109691   0.01172126            1 
 4535000   0.52698581   -8.4467859     714.6034  0.013131264    0.0117174            2 
 4536000   0.53179158   -8.4410667    712.73946  0.013094126  0.011713542            5 
 4537000    0.5207335   -8.4519192    713.60126  0.013107069  0.011709683            2 
 4538000   0.53107096   -8.4191925    714.19589    0.0131151  0.011705831            2 
 4539000   0.53157375   -8.4305607    713.53434  0.013100065   0.01170198            3 
 4540000   0.51945706   -8.4531405    713.40087   0.01309473  0.011698127            2 
 4541000   0.51966422   -8.4414647    713.93636  0.013101673  0.011694276            3 
 4542000   0.52274997   -8.4345958    714.43907  0.013108012  0.011690431            2 
 4543000   0.52364253   -8.4230116    714.39273  0.013104276  0.011686587            2 
 4544000   0.52675489   -8.4566487    713.05099  0.013076786   0.01168274            3 
 4545000   0.53923165   -8.4245738    713.62342  0.013084404  0.011678898            3 
 4546000   0.53308934    -8.436013    713.48987  0.013079078  0.011675057            2 
 4547000   0.52771035   -8.4516532    713.77292  0.013081389  0.011671213            4 
 4548000   0.51657879   -8.4429875    714.27538   0.01308772  0.011667369            9 
 4549000   0.53154541    -8.438659    713.20193  0.013065178  0.011663527            4 
 4550000   0.52503634   -8.4512864    713.11037  0.013060629  0.011659684            2 
 4551000   0.51134183   -8.4518196    713.15666  0.013058607  0.011655845            3 
 4552000   0.52389288   -8.4272421     712.3412   0.01304081   0.01165201            1 
 4553000   0.51980556   -8.4465966    713.25453  0.013054662  0.011648176            2 
 4554000   0.52078972   -8.4381626    714.42335  0.013073184  0.011644344            3 
 4555000   0.52161363   -8.4331834    714.30789  0.013068201  0.011640515            3 
 4556000   0.52523174   -8.4334329    713.16995  0.013044519  0.011636687            2 
 4557000   0.52764087   -8.4572603    713.49932   0.01304768  0.011632854            2 
 4558000   0.53777589   -8.4328538    713.60033  0.013046664   0.01162903            3 
 4559000   0.53017637   -8.4572524    714.19682  0.013054705  0.011625205            2 
 4560000    0.5152392   -8.4503148    713.51728  0.013039424   0.01162138            2 
 4561000   0.51503798   -8.4295572    713.72996  0.013040451  0.011617554            2 
 4562000   0.53389146   -8.4380047    713.47116  0.013032865  0.011613733            1 
 4563000   0.52707812   -8.4438031    713.64895  0.013033256  0.011609914            2 
 4564000   0.52434514   -8.4405963    714.02278  0.013037226  0.011606097            2 
 4565000   0.51739171   -8.4474504    713.74104  0.013029227  0.011602282            4 
 4566000   0.52354231   -8.4393017    713.65087  0.013024728  0.011598466            2 
 4567000   0.51924617   -8.4341323    714.19992  0.013031894  0.011594655            5 
 4568000    0.5169474   -8.4429008    712.64681  0.013000708  0.011590844            1 
 4569000   0.52430262   -8.4421249    712.80149  0.013000684  0.011587033            1 
 4570000   0.51548351   -8.4428485    713.43937  0.013009471  0.011583223            1 
 4571000   0.53922834   -8.4585424    714.28924  0.013022118  0.011579413            1 
 4572000   0.50679483    -8.445765    712.96607  0.012995153  0.011575604            3 
 4573000   0.51886101   -8.4499159    712.62851   0.01298616  0.011571797            2 
 4574000   0.50896318   -8.4556343    714.21666  0.013012255  0.011567991            3 
 4575000   0.52302528   -8.4663499    713.12536  0.012989533  0.011564188            2 
 4576000   0.51715781   -8.4352454    713.30808  0.012990022  0.011560383            1 
 4577000   0.51649831   -8.4486165    713.55152  0.012991616  0.011556585            4 
 4578000   0.52290358   -8.4524584    713.31991  0.012984562  0.011552789            2 
 4579000   0.52207875   -8.4455952    712.91547  0.012974366  0.011548996            1 
 4580000   0.52415181   -8.4449531    713.07282  0.012974396  0.011545199            3 
 4581000   0.51206479   -8.4480466    713.31169  0.012975909  0.011541405            3 
 4582000   0.51885521   -8.4506304    713.21956  0.012971402  0.011537612            2 
 4583000   0.51706338   -8.4513985    713.59793  0.012975451  0.011533818            3 
 4584000   0.51766729   -8.4556193    713.44571  0.012969854  0.011530028            4 
 4585000   0.52497573   -8.4407981     713.3426  0.012965151  0.011526235            1 
 4586000   0.53186632   -8.4393467    712.95869  0.012955348  0.011522448            1 
 4587000   0.52105147    -8.447635    713.25211  0.012957854  0.011518663            4 
 4588000   0.51887146   -8.4418597    712.87044  0.012948097  0.011514878            4 
 4589000   0.51360056   -8.4492326    712.19137  0.012932944  0.011511095            3 
 4590000   0.51630886   -8.4625159    713.10819  0.012946772  0.011507309            3 
 4591000   0.51441953   -8.4787709     713.2159  0.012945907  0.011503525            3 
 4592000   0.50347212   -8.4384606    713.81858  0.012954025  0.011499746            3 
 4593000   0.50857662   -8.4329907    712.73507  0.012931546  0.011495963            3 
 4594000   0.52779626   -8.4466462     712.9638   0.01293288  0.011492183            3 
 4595000   0.51183907   -8.4571725    712.31016  0.012918211  0.011488403            4 
 4596000   0.51970076   -8.4672977    712.31203  0.012915434  0.011484625            3 
 4597000   0.50767364   -8.4483475    712.22361  0.012911022  0.011480852            2 
 4598000   0.52457285   -8.4620603     712.7083  0.012916998  0.011477079            3 
 4599000   0.51103957   -8.4482219    712.59887  0.012912207  0.011473309            3 
 4600000   0.51508009    -8.482459    713.39571  0.012923835  0.011469538            4 
 4601000   0.53335331   -8.4818254    712.84226  0.012911002  0.011465768            3 
 4602000   0.51476819   -8.4553925    712.51618  0.012902292  0.011461997            5 
 4603000   0.51961648    -8.462407    712.78814  0.012904413  0.011458232            2 
 4604000   0.51466171   -8.4524324    713.25677  0.012910092  0.011454467            3 
 4605000   0.52463115    -8.464676    712.90893  0.012900994  0.011450702            4 
 4606000   0.52092688   -8.4639213    712.42707  0.012889475  0.011446942            3 
 4607000   0.50920913   -8.4428075     713.2827  0.012902154   0.01144318            4 
 4608000   0.51449706   -8.4647039    713.82536  0.012909168  0.011439423            2 
 4609000   0.51991159   -8.4536103    712.44176  0.012881351  0.011435667            2 
 4610000   0.50682065   -8.4441649    711.97144  0.012870055  0.011431912            2 
 4611000    0.5115559   -8.4367634    712.36265  0.012874334  0.011428162            2 
 4612000   0.51575055   -8.4506806    714.31471  0.012906814  0.011424411            4 
 4613000   0.51157446   -8.4634672    713.40414  0.012887567  0.011420662            3 
 4614000   0.51689567   -8.4808098    712.68954  0.012871867  0.011416914            4 
 4615000   0.51007211   -8.4441438    712.42757  0.012864348  0.011413168            2 
 4616000   0.50974484   -8.4664571    713.20325  0.012875564  0.011409426            3 
 4617000   0.51094738   -8.4612574    712.36912   0.01285772   0.01140568            3 
 4618000   0.51609172   -8.4716948    712.52304  0.012857713  0.011401939            2 
 4619000   0.51157658   -8.4595402    712.60224  0.012856359  0.011398197            3 
 4620000   0.50843501   -8.4635957    712.73192  0.012855915  0.011394456            2 
 4621000   0.50640104   -8.4544869    712.32721  0.012845834  0.011390719            2 
 4622000   0.51012113   -8.4736278     713.1288  0.012857508  0.011386985            4 
 4623000    0.5129463   -8.4492161    713.83258  0.012867413  0.011383249            2 
 4624000   0.50721987   -8.4596248    712.54631  0.012841449  0.011379516            5 
 4625000   0.50770225   -8.4615159    712.99638  0.012846782  0.011375782            3 
 4626000     0.508227   -8.4702095     712.6973  0.012838617  0.011372053            3 
 4627000   0.52247883    -8.476895    712.22972  0.012827421  0.011368325            3 
 4628000   0.51081602   -8.4678827    713.30207  0.012843958  0.011364597            4 
 4629000   0.50216284   -8.4621158    713.04725  0.012836596  0.011360874            4 
 4630000   0.51438473   -8.4687629    712.94646   0.01283201  0.011357149            3 
 4631000   0.51521169   -8.4606908    712.43854  0.012820099  0.011353425            3 
 4632000   0.51357479   -8.4425171     713.7972  0.012841775  0.011349705            2 
 4633000   0.51645321   -8.4702155    712.09769  0.012808434  0.011345985            2 
 4634000   0.50695142   -8.4739883    713.07093  0.012823172  0.011342265            2 
 4635000    0.5155507   -8.4635112     713.5319  0.012828693   0.01133855            3 
 4636000   0.51470986   -8.4518172    712.27422  0.012803319  0.011334833            3 
 4637000   0.50532475   -8.4669861    712.07743  0.012797021  0.011331119            1 
 4638000   0.49528366     -8.45818    713.06801   0.01281206  0.011327408            3 
 4639000   0.50013412   -8.4618721    712.20727  0.012793836  0.011323697            3 
 4640000   0.50262766   -8.4588259    711.70673  0.012782089  0.011319985            2 
 4641000   0.50375758   -8.4823872    713.80652  0.012817039  0.011316278            3 
 4642000   0.51487386   -8.4522025    713.08965  0.012801408  0.011312573            3 
 4643000   0.51512413   -8.4685177    713.06539  0.012798216  0.011308863            4 
 4644000    0.5006084   -8.4744345     712.2554  0.012780925  0.011305158            3 
 4645000   0.50873523   -8.4717998    712.35504  0.012779961  0.011301457            2 
 4646000   0.51602694   -8.4802967    713.48039  0.012797395   0.01129775            2 
 4647000    0.5014309   -8.4748053    712.69302  0.012780522   0.01129405            2 
 4648000   0.51139532   -8.4799216    713.10401  0.012785141   0.01129035            2 
 4649000   0.51248328   -8.4816761    713.56785  0.012790705  0.011286652            2 
 4650000    0.5040979   -8.4582226    713.34326  0.012783929  0.011282958            5 
 4651000    0.5128683   -8.4764942    712.73875   0.01277035  0.011279261            4 
 4652000   0.51007366   -8.4672506    712.73365  0.012767513  0.011275569            2 
 4653000   0.51105201   -8.4503657     712.8576  0.012766989  0.011271877            2 
 4654000   0.52583341   -8.4702593    713.34902  0.012773045  0.011268189            5 
 4655000   0.51173278   -8.4747979    713.14041  0.012766567  0.011264503            3 
 4656000    0.5013758   -8.4677621    713.24642  0.012765722  0.011260817            4 
 4657000   0.49534307   -8.4781286    713.57785  0.012768911   0.01125713            2 
 4658000   0.50650862   -8.4702843    712.46766  0.012746309  0.011253446            4 
 4659000   0.50813223   -8.4602143    713.21472  0.012756935  0.011249762            1 
 4660000   0.50961049   -8.4649289    712.33258  0.012738422  0.011246075            4 
 4661000   0.51562409    -8.444874    712.76586  0.012743436  0.011242394            3 
 4662000   0.51079017   -8.5063752    712.84047  0.012742036  0.011238713            3 
 4663000   0.51279807   -8.4743705    712.69695  0.012736739  0.011235032            4 
 4664000   0.50312405   -8.4785462    712.22491  0.012725574  0.011231351            4 
 4665000   0.51283658   -8.4848603    712.73037  0.012731875  0.011227673            3 
 4666000    0.5089229   -8.4491967    714.14704  0.012754448  0.011224001            2 
 4667000   0.50866558   -8.4733851    712.42072   0.01272089  0.011220331            3 
 4668000   0.49822369   -8.4701546    713.29646  0.012733799  0.011216663            5 
 4669000   0.50042087   -8.4654357    712.50338  0.012716916  0.011212991            2 
 4670000   0.50578061   -8.4622404    712.60744   0.01271605  0.011209325            2 
 4671000   0.50029241   -8.4622398    713.39947  0.012727458  0.011205657            2 
 4672000   0.50001828   -8.4711335    712.53991  0.012709402  0.011201993            3 
 4673000   0.50845474    -8.469669    712.18143  0.012700289  0.011198326            2 
 4674000   0.52005982   -8.4693921    711.87131  0.012692043  0.011194662            2 
 4675000    0.4965493   -8.4760288    712.03457  0.012692238  0.011191001            4 
 4676000   0.51784829   -8.4763869    711.43775  0.012678888   0.01118734            2 
 4677000   0.50149451   -8.4688093    712.66548  0.012698052   0.01118368            5 
 4678000   0.50582597   -8.4708515      712.963  0.012700638  0.011180023            2 
 4679000   0.50183469   -8.4715258     713.2324  0.012702721  0.011176368            4 
 4680000   0.48931867   -8.4632207    711.12865  0.012662547  0.011172715            4 
 4681000   0.51034236   -8.4772642    712.13571   0.01267777  0.011169059            4 
 4682000   0.50571544   -8.4836933    711.67181  0.012666806  0.011165405            2 
 4683000   0.50402693   -8.4781493    712.25232  0.012674431  0.011161753            2 
 4684000   0.50937936   -8.4763038     712.2327  0.012671376  0.011158104            4 
 4685000   0.50425349   -8.4688101    712.22646   0.01266856  0.011154461            3 
 4686000   0.50038179   -8.4840227     713.3405  0.012685668  0.011150812            3 
 4687000   0.49338911   -8.4677306    712.81371  0.012673596  0.011147166            4 
 4688000   0.50492849   -8.4689776     711.5701  0.012648786  0.011143521            2 
 4689000   0.50009683   -8.4738761    711.02596  0.012636418  0.011139879            4 
 4690000   0.49667174   -8.4881745    712.92778  0.012667516  0.011136238            4 
 4691000   0.49259921    -8.486676    710.91219  0.012629009  0.011132596            3 
 4692000   0.49396504   -8.4885529    711.64532  0.012639339  0.011128957            3 
 4693000   0.50544968   -8.4880349    712.93092  0.012659474  0.011125318            2 
 4694000   0.50810581   -8.4752555    712.04272  0.012641008  0.011121681            2 
 4695000   0.50557001   -8.4644048    711.69268  0.012632103  0.011118049            4 
 4696000   0.50968786   -8.4745485    712.80098   0.01264908  0.011114416            2 
 4697000   0.49258973   -8.4574613    712.21241  0.012635945  0.011110783            3 
 4698000    0.5065149   -8.4793122    712.48312  0.012638057  0.011107151            2 
 4699000   0.50797714   -8.4980706    711.44642  0.012616983  0.011103519            4 
 4700000   0.51241151   -8.4842015    711.58172  0.012616697  0.011099887            3 
 4701000   0.49459947   -8.4791636    710.40877  0.012593221  0.011096257            4 
 4702000    0.5024542   -8.4795422    711.24107  0.012605293  0.011092629            4 
 4703000   0.50225352   -8.4893277    712.35877  0.012622418  0.011089004            1 
 4704000   0.50060007   -8.4799057    713.00963  0.012631265  0.011085377            3 
 4705000   0.49150154   -8.4958192    712.01434  0.012610952   0.01108175            2 
 4706000   0.49461403   -8.4914878    712.41974  0.012615451  0.011078127            2 
 4707000   0.50539547   -8.4904047    712.47272  0.012613709  0.011074509            3 
 4708000    0.4998604   -8.4786445    711.66404  0.012596716  0.011070889            5 
 4709000   0.49101986   -8.4912274    710.51264  0.012573665  0.011067268            3 
 4710000   0.48802069    -8.470105    711.24097  0.012583881  0.011063649            1 
 4711000   0.49913502   -8.4837806     712.0712  0.012595896  0.011060035            2 
 4712000   0.50601276   -8.4833751    711.56091  0.012584198  0.011056422            3 
 4713000   0.49676798   -8.4828629    712.52589  0.012598591  0.011052809            3 
 4714000   0.49411278   -8.4880657    711.51963   0.01257813  0.011049198            2 
 4715000   0.49495694   -8.4985527    711.40487  0.012573434  0.011045587            3 
 4716000   0.51062864   -8.4833543    712.17586  0.012584391  0.011041979            3 
 4717000   0.50031609   -8.4878952    712.35149  0.012584826  0.011038372            3 
 4718000   0.50231321    -8.495625    711.54735  0.012567955  0.011034768            2 
 4719000   0.49035115   -8.4942645    712.43214  0.012580917  0.011031166            4 
 4720000   0.48671105   -8.4888346     710.8967  0.012551142  0.011027568            3 
 4721000   0.49531219   -8.4971209     713.0535  0.012586555  0.011023971            2 
 4722000   0.48138887   -8.4909346    711.46838  0.012555915  0.011020376            3 
 4723000   0.49104955    -8.496506    711.13092  0.012547303   0.01101678            2 
 4724000   0.49379205   -8.4830814    711.83979  0.012557151  0.011013187            2 
 4725000   0.48941847   -8.4807715     712.8129  0.012571656  0.011009592            4 
 4726000   0.48911032   -8.5021174    712.15226  0.012557347  0.011005997            6 
 4727000   0.50747314   -8.4744825    711.47373  0.012542728  0.011002407            5 
 4728000   0.49366918   -8.4925329    710.71019  0.012526618  0.010998815            4 
 4729000   0.49206687   -8.4841703    711.21011  0.012532778  0.010995225            4 
 4730000   0.50777689   -8.4966474    711.98709  0.012543818  0.010991638            2 
 4731000   0.48986059   -8.4945893    712.21466  0.012545175   0.01098805            3 
 4732000   0.49389655   -8.5020853    711.14951  0.012523766  0.010984463            3 
 4733000   0.48455929   -8.4667124    711.61106  0.012529246   0.01098088            3 
 4734000   0.49708929   -8.4862909    712.23242  0.012537537  0.010977298            2 
 4735000   0.49133107   -8.4941677    711.47033  0.012521477  0.010973718            3 
 4736000   0.49694661   -8.4925833    711.12671  0.012512787  0.010970137            3 
 4737000   0.49990016   -8.5106669    711.60375  0.012518538  0.010966561            3 
 4738000   0.48735493    -8.488896    712.91014  0.012538873  0.010962984            2 
 4739000   0.49287518   -8.4914723     712.1661  0.012523143  0.010959407            4 
 4740000   0.49896125    -8.481959    711.97862  0.012517205  0.010955837            3 
 4741000   0.48126837   -8.4865494    712.02831  0.012515438  0.010952267            3 
 4742000   0.49641504   -8.4949253    712.07416  0.012513605  0.010948699            2 
 4743000   0.48918609   -8.4906482    710.99219  0.012491956   0.01094513            4 
 4744000   0.49956743   -8.4900573    712.43038  0.012514586   0.01094156            4 
 4745000   0.49246295   -8.4862854    711.22272   0.01249074  0.010937992            2 
 4746000   0.49746185    -8.501015    710.96721  0.012483622  0.010934425            4 
 4747000   0.50303798   -8.4954386    711.40986  0.012488762   0.01093086            3 
 4748000   0.48576608   -8.4916363    712.12882  0.012498751  0.010927298            5 
 4749000   0.48850002   -8.4822247    712.46429  0.012502005  0.010923737            4 
 4750000   0.49955367   -8.4974314    712.18853  0.012494536   0.01092018            3 
 4751000   0.49345186   -8.5064286    710.93884  0.012469986  0.010916621            4 
 4752000   0.49195248   -8.4957463    710.65794  0.012462436  0.010913064            4 
 4753000   0.49661527   -8.4996769    711.30568   0.01247117  0.010909506            2 
 4754000   0.48673122   -8.4919625    711.20998   0.01246687  0.010905951            4 
 4755000   0.48324782   -8.5051552    711.94148  0.012477068  0.010902395            3 
 4756000   0.47948197   -8.5011613    710.66534  0.012452084  0.010898839            3 
 4757000   0.48603915   -8.5073246     711.1113  0.012457279  0.010895288            3 
 4758000   0.49163199   -8.4947721     711.9479  0.012469313   0.01089174            5 
 4759000   0.48751711   -8.4745063    710.72889  0.012445347  0.010888195            4 
 4760000   0.48735796   -8.5013597    710.50674  0.012438844  0.010884647            2 
 4761000   0.49339102   -8.5149889    711.19907  0.012448349  0.010881105            4 
 4762000   0.49016761   -8.4862944    712.45839  0.012467772  0.010877563            3 
 4763000    0.4871431   -8.5015998    711.27397  0.012444432  0.010874016            1 
 4764000   0.47941027    -8.499545    711.97481  0.012454079  0.010870474            3 
 4765000   0.49475166   -8.5106722    711.49336  0.012443046  0.010866934            3 
 4766000   0.48628809   -8.4996686    711.63042  0.012442832  0.010863396            2 
 4767000   0.47689517   -8.5042405     712.2127    0.0124504  0.010859862            3 
 4768000   0.48312731   -8.4977953    710.58567  0.012419352  0.010856328            5 
 4769000   0.48972904   -8.4929963    712.06694  0.012442632  0.010852793            3 
 4770000   0.48926105   -8.4889726    712.31822  0.012444413  0.010849262            5 
 4771000   0.49540898   -8.4941371    711.73108   0.01243155  0.010845731            3 
 4772000   0.47579676   -8.5040331     711.1028  0.012417973  0.010842202            3 
 4773000   0.48283848    -8.499835    711.50365   0.01242237  0.010838675            3 
 4774000   0.48745086   -8.5021807    712.73164  0.012441203  0.010835151            5 
 4775000    0.4780486   -8.4977916    712.43866  0.012433484  0.010831628            3 
 4776000   0.49199593   -8.5178054    711.19178  0.012409125  0.010828105            3 
 4777000   0.48393966   -8.4996028    711.09866  0.012404903  0.010824585            2 
 4778000   0.49301114   -8.5096149    712.51049   0.01242693  0.010821065            3 
 4779000   0.48201166   -8.5019422    710.00528  0.012380646  0.010817548            3 
 4780000   0.48575523   -8.5050968    712.05005  0.012413704  0.010814032            4 
 4781000   0.47662535   -8.4910246    711.44795  0.012400613  0.010810515            4 
 4782000   0.49014911   -8.4959821    711.12148   0.01239233  0.010807005            3 
 4783000   0.48497956   -8.5099026    711.23767  0.012391764  0.010803493            2 
 4784000   0.49444172   -8.5061936     711.3167   0.01239055  0.010799981            4 
 4785000   0.47322472   -8.5041405    711.85459  0.012397328  0.010796469            2 
 4786000   0.48252126   -8.4936379    711.31095  0.012385272   0.01079296            4 
 4787000   0.48963585   -8.4913459    710.81976  0.012374134   0.01078945            2 
 4788000   0.48940037   -8.5056196    711.28497  0.012379647  0.010785947            2 
 4789000   0.49193832   -8.5143877    710.74205  0.012367614  0.010782441            4 
 4790000   0.48692979   -8.4901415    711.58646  0.012379723  0.010778937            3 
 4791000   0.48486332   -8.5253415    711.67636  0.012378702  0.010775434            5 
 4792000   0.48642744   -8.5030633    711.10152  0.012366123  0.010771931            2 
 4793000   0.48084884   -8.4850033    710.60289  0.012354873   0.01076843            4 
 4794000   0.48051904   -8.5175163    712.61637  0.012387296  0.010764933            2 
 4795000   0.47445605   -8.4965412    710.64936  0.012350528  0.010761435            3 
 4796000   0.48796035   -8.5045669    711.87406  0.012369232  0.010757934            5 
 4797000   0.48401241   -8.5112756    711.89494  0.012367016   0.01075444            3 
 4798000   0.48182855   -8.5097553    711.16228  0.012351714  0.010750947            3 
 4799000   0.47663369   -8.5024475    711.07961  0.012347705  0.010747458            2 
 4800000   0.48204268     -8.50601    710.64041  0.012337507  0.010743969            4 
 4801000   0.49551418   -8.5110313     711.0821  0.012342604  0.010740484            1 
 4802000   0.48641604   -8.5011347    711.23717  0.012342725  0.010736994            4 
 4803000   0.47994905    -8.525009    709.78448   0.01231495  0.010733509            2 
 4804000   0.48476536   -8.5180514    710.74229  0.012329002  0.010730022            4 
 4805000   0.48198413   -8.5064278    710.40041  0.012320507  0.010726542            4 
 4806000   0.47183422   -8.5119975    711.30286  0.012333591  0.010723063            3 
 4807000   0.49189926   -8.5130341    710.24259  0.012312645  0.010719583            3 
 4808000    0.4827111   -8.5086408    711.44186   0.01233087  0.010716107            3 
 4809000   0.48674818   -8.4987676    711.38768  0.012327367  0.010712631            2 
 4810000   0.47622688   -8.5202185    711.68393  0.012329936  0.010709156            4 
 4811000   0.47375119   -8.4873175     711.6791   0.01232729   0.01070568            3 
 4812000    0.4751675    -8.516981    710.42867  0.012303073  0.010702208            3 
 4813000   0.48858387   -8.5077741    710.84444  0.012307716  0.010698736            5 
 4814000   0.48106496   -8.5237972    711.54606  0.012317305  0.010695267            4 
 4815000   0.49832766   -8.5208377    711.52239  0.012314337  0.010691797            4 
 4816000   0.48301307    -8.501316    710.22739  0.012289372  0.010688329            3 
 4817000   0.47809735   -8.5226346    711.61617  0.012310846   0.01068486            2 
 4818000   0.47829787   -8.5314378    711.67908  0.012309379  0.010681393            4 
 4819000   0.47513331   -8.5186937    710.64274  0.012288904  0.010677928            5 
 4820000   0.48318029   -8.5174462    712.09254   0.01231142  0.010674464            4 
 4821000   0.48275288    -8.525989    711.22528  0.012293875     0.010671            3 
 4822000   0.48622673   -8.5176895    711.22674  0.012291351  0.010667535            3 
 4823000    0.4720954   -8.5295766    710.48224  0.012275939  0.010664071            4 
 4824000   0.48352555   -8.5248502    710.49099  0.012273545   0.01066061            2 
 4825000   0.48551336   -8.5020403     710.1375  0.012264896   0.01065715            4 
 4826000   0.48000133    -8.495753    711.91468  0.012293043  0.010653692            4 
 4827000   0.47645803   -8.5129614    710.89449  0.012272883  0.010650234            5 
 4828000   0.47665438   -8.5186422    711.26917  0.012276808  0.010646778            4 
 4829000   0.47621033   -8.5270724    710.05825  0.012253369  0.010643323            3 
 4830000   0.47825601   -8.5069831    711.90703   0.01228273  0.010639873            5 
 4831000   0.48299002   -8.5137707    711.01401  0.012264783  0.010636422            3 
 4832000   0.48817286   -8.5135005    709.37189  0.012233925  0.010632973            4 
 4833000   0.47892524   -8.5211981    711.19123  0.012262763  0.010629522            3 
 4834000   0.48032465   -8.5129732    710.82744  0.012253955  0.010626076            4 
 4835000   0.46838062   -8.5219514    710.62078  0.012247859  0.010622627            4 
 4836000   0.47980114   -8.5190725     710.4522  0.012242421  0.010619183            3 
 4837000   0.47642907   -8.5233807    710.91225  0.012247816  0.010615742            3 
 4838000   0.47886773   -8.5167212    711.48564  0.012255161  0.010612303            4 
 4839000   0.47889319   -8.5202819    710.96667  0.012243691  0.010608864            3 
 4840000   0.48076115   -8.5262849    710.93603  0.012240634  0.010605428            3 
 4841000   0.48021989   -8.5145818    710.62028   0.01223267   0.01060199            3 
 4842000   0.47493505   -8.5169125    710.42086  0.012226712  0.010598556            4 
 4843000    0.4776532   -8.5153049    711.13582  0.012236489  0.010595121            4 
 4844000   0.47459851   -8.5245495    710.16692  0.012217295  0.010591688            7 
 4845000    0.4605949   -8.5254115    709.87084  0.012209681  0.010588254            5 
 4846000   0.47806564   -8.5230508    711.11194  0.012228504  0.010584823            4 
 4847000   0.48119481    -8.529709    709.46862  0.012197727   0.01058139            4 
 4848000    0.4823354    -8.527206    710.30069  0.012209514  0.010577962            3 
 4849000   0.48470986   -8.5053574    710.56411  0.012211523  0.010574538            6 
 4850000   0.47854735   -8.5219542       710.69  0.012211168   0.01057111            3 
 4851000   0.47942398   -8.5337889    711.77582  0.012227304  0.010567688            2 
 4852000   0.48684902   -8.5125645    710.07499  0.012195572  0.010564267            4 
 4853000   0.47239528   -8.5072325    710.25821  0.012196205  0.010560847            4 
 4854000   0.46977791   -8.5204457    710.96068  0.012205753  0.010557429            2 
 4855000   0.47762181    -8.507553    710.71759  0.012199066  0.010554013            3 
 4856000   0.48495973     -8.53297    710.93251  0.012200242  0.010550598            3 
 4857000   0.46979951   -8.5276275    710.25954  0.012186184  0.010547184            3 
 4858000   0.47999949   -8.5073787    710.58245  0.012189215  0.010543771            3 
 4859000   0.47346506   -8.5215381     710.1226  0.012178819   0.01054036            4 
 4860000   0.47134228   -8.5371878     710.7768  0.012187531   0.01053695            2 
 4861000   0.46782682   -8.5172328      710.832   0.01218597  0.010533538            2 
 4862000   0.47916653   -8.5069942    710.88305  0.012184339  0.010530128            2 
 4863000   0.47350233   -8.5280414    710.84758  0.012181225  0.010526722            3 
 4864000   0.46494476   -8.5288081    711.15036  0.012183908  0.010523316            3 
 4865000   0.47027323    -8.520056    711.18673  0.012182027  0.010519913            2 
 4866000    0.4729695   -8.5315211    709.27187   0.01214673  0.010516512            3 
 4867000    0.4758024   -8.5180039    709.61784  0.012150158  0.010513111            3 
 4868000   0.48067163   -8.5164854    711.52544  0.012180318  0.010509711            3 
 4869000   0.48116414   -8.5173582     710.2727  0.012156375  0.010506312            3 
 4870000    0.4625214   -8.5289925    710.72706  0.012161654  0.010502917            2 
 4871000    0.4644398    -8.535331    710.50044   0.01215528  0.010499518            3 
 4872000   0.46889276   -8.5309013    709.73325  0.012139663  0.010496121            2 
 4873000   0.47506824   -8.5349461    709.78357  0.012138032  0.010492726            6 
 4874000   0.47127969   -8.5214849    711.94531  0.012172502  0.010489336            2 
 4875000   0.46548489   -8.5179213    709.44762   0.01212731  0.010485945            3 
 4876000   0.46926103   -8.5250574    710.00308  0.012134316  0.010482556            4 
 4877000   0.46074918   -8.5428392    709.73285   0.01212721  0.010479169            4 
 4878000   0.46909448   -8.5313956    711.14469  0.012148843  0.010475781            2 
 4879000   0.46097085   -8.5291707    709.94565  0.012125874  0.010472395            5 
 4880000   0.46522146    -8.527304    710.65575  0.012135515  0.010469012            7 
 4881000   0.46103576   -8.5278706     710.5816  0.012131763  0.010465631            2 
 4882000   0.47086283   -8.5416043    709.72691  0.012114689   0.01046225            2 
 4883000   0.47271094   -8.5319393    710.95278  0.012133128  0.010458874            4 
 4884000   0.47193218    -8.527586    710.65603  0.012125581  0.010455497            4 
 4885000   0.47781575   -8.5305027    710.38953  0.012118552  0.010452117            3 
 4886000   0.46877947   -8.5342695    709.94224  0.012108443  0.010448742            3 
 4887000   0.46290979   -8.5242006    710.20733  0.012110486  0.010445368            2 
 4888000   0.46069475   -8.5431975    710.41928  0.012111622  0.010441994            4 
 4889000   0.48039115   -8.5264412    709.21062  0.012088543  0.010438622            3 
 4890000   0.47129024   -8.5296611    709.55003  0.012091855  0.010435249            4 
 4891000   0.46220208   -8.5322591    711.00489   0.01211417  0.010431879            5 
 4892000   0.46226969   -8.5241952     710.4851   0.01210284  0.010428516            4 
 4893000    0.4578571   -8.5409375    710.61746   0.01210262  0.010425147            2 
 4894000   0.47510658   -8.5266866    710.69104    0.0121014  0.010421782            5 
 4895000   0.46228385   -8.5373216    710.00073  0.012087176  0.010418419            4 
 4896000   0.47069394   -8.5214401    709.21678  0.012071364  0.010415056            4 
 4897000   0.46456264   -8.5332364    709.63189  0.012075963  0.010411696            3 
 4898000    0.4674326   -8.5124067    709.69958  0.012074649  0.010408337            3 
 4899000   0.46435779   -8.5381935    710.33471  0.012082988   0.01040498            5 
 4900000    0.4590805   -8.5295167    709.73755  0.012070367  0.010401623            3 
 4901000   0.45951182   -8.5298757    710.45257  0.012080061  0.010398268            2 
 4902000   0.47897251   -8.5336915    709.38944  0.012059524  0.010394915            3 
 4903000   0.46719274   -8.5456763    710.40787  0.012074374   0.01039156            4 
 4904000   0.46208076   -8.5347458    709.44504  0.012055551  0.010388206            3 
 4905000   0.46685196   -8.5329173    710.65338  0.012073622  0.010384858            2 
 4906000   0.46401991   -8.5199827    710.29821  0.012065128  0.010381509            5 
 4907000     0.465151   -8.5526233    710.21733  0.012061296  0.010378161            2 
 4908000   0.46287797   -8.5388562    709.61417  0.012048597  0.010374812            3 
 4909000   0.46526645   -8.5303041    710.71879  0.012064894  0.010371466            2 
 4910000   0.47282919    -8.533986    710.97291   0.01206675  0.010368124            4 
 4911000    0.4541352   -8.5460693    710.86256   0.01206242  0.010364777            2 
 4912000   0.46318323   -8.5339203    710.15609  0.012047979  0.010361438            3 
 4913000   0.45722949   -8.5243054     709.5157  0.012034665  0.010358096            3 
 4914000   0.46439951   -8.5467315    710.12422  0.012042535  0.010354754            4 
 4915000   0.47258055   -8.5257675    710.24055  0.012042057  0.010351415            4 
 4916000   0.46368993   -8.5356976    710.20111  0.012038939  0.010348078            3 
 4917000   0.44532811   -8.5381221    709.27649  0.012020821  0.010344742            2 
 4918000   0.46631946   -8.5372805      709.404  0.012020537   0.01034141            4 
 4919000   0.46607303   -8.5334164    710.27132  0.012032786  0.010338075            3 
 4920000   0.46925415   -8.5394131    711.17021  0.012045566  0.010334743            3 
 4921000     0.475729   -8.5499752    709.40365  0.012013203  0.010331415            4 
 4922000   0.45513761   -8.5386409    709.43054  0.012011217  0.010328082            5 
 4923000    0.4688017   -8.5455284    710.63975  0.012029246  0.010324753            4 
 4924000   0.46003795    -8.535029    710.30747   0.01202118  0.010321425            4 
 4925000   0.46077314   -8.5489405    710.23568  0.012017524  0.010318101            3 
 4926000   0.46007108   -8.5373131    709.36236  0.012000311  0.010314776            2 
 4927000   0.46821716   -8.5321946    708.89191  0.011989918  0.010311456            2 
 4928000   0.46515561   -8.5389395    710.71098  0.012018246  0.010308135            2 
 4929000   0.45613273   -8.5413857    709.51856  0.011995648  0.010304814            3 
 4930000   0.46408268   -8.5412705    711.29591  0.012023257  0.010301496            4 
 4931000   0.46057985   -8.5405831    709.45016  0.011989626  0.010298181            3 
 4932000   0.46623422   -8.5285937    710.08998  0.011998006  0.010294863            2 
 4933000   0.46159867   -8.5536474    710.52962  0.012003001   0.01029155            3 
 4934000   0.46213402    -8.553669    709.45582  0.011982432  0.010288237            3 
 4935000   0.46881919   -8.5454536    710.68679   0.01200079  0.010284929            4 
 4936000   0.45823419    -8.556215    709.44194  0.011977342  0.010281617            4 
 4937000   0.46827768   -8.5426819     709.6719  0.011978798  0.010278307            5 
 4938000   0.47728476   -8.5321064    709.58849  0.011974964  0.010274998            2 
 4939000    0.4610405   -8.5333121    710.15011  0.011982016  0.010271694            3 
 4940000   0.46618964   -8.5471639    708.81466  0.011957062  0.010268388            4 
 4941000   0.45514948    -8.553918    709.84241  0.011971976  0.010265084            3 
 4942000   0.44864027   -8.5554893    711.18173  0.011992138  0.010261781            4 
 4943000   0.46737003   -8.5330205     710.8529  0.011984168  0.010258479            4 
 4944000   0.46037796    -8.550034    709.40178  0.011957285  0.010255179            3 
 4945000   0.46476488   -8.5561165    709.41353  0.011955064  0.010251878            2 
 4946000   0.45101744   -8.5538929    709.47187   0.01195363  0.010248581            3 
 4947000   0.45595859   -8.5446012    708.79358  0.011939788  0.010245285            3 
 4948000   0.47037455   -8.5310653    710.02402  0.011958098  0.010241991            3 
 4949000   0.45824794   -8.5379899     709.9201  0.011953932  0.010238697            5 
 4950000   0.46391139   -8.5393569    709.40371  0.011942823  0.010235405            5 
 4951000   0.45893438   -8.5693037    710.01143   0.01195064  0.010232114            3 
 4952000   0.46229516    -8.555533    709.77357  0.011944224  0.010228828            3 
 4953000   0.44779511   -8.5516028     710.6783  0.011957034  0.010225541            3 
 4954000   0.46786536   -8.5563279    709.60151  0.011936508  0.010222254            5 
 4955000   0.46196584    -8.544112      709.409  0.011930861  0.010218972            2 
 4956000   0.45863682   -8.5515951    711.20365   0.01195863  0.010215688            2 
 4957000   0.45555475   -8.5385121    709.57163  0.011928781  0.010212405            3 
 4958000   0.45747702   -8.5464425    709.52333  0.011925564  0.010209123            3 
 4959000   0.45628454   -8.5480595    709.31875  0.011919721  0.010205847            7 
 4960000   0.46785769   -8.5394581    709.22252  0.011915701  0.010202569            3 
 4961000   0.45337015   -8.5324763    710.56172  0.011935795  0.010199292            3 
 4962000   0.45191884   -8.5495414    708.79247  0.011903676  0.010196018            6 
 4963000   0.45657691   -8.5589362    710.50863  0.011930093  0.010192747            3 
 4964000   0.45651038   -8.5457211    708.72294  0.011897713  0.010189476            2 
 4965000   0.45857732   -8.5491568      709.129  0.011902132  0.010186204            3 
 4966000   0.45566879   -8.5276162     710.0037  0.011914413  0.010182932            4 
 4967000   0.45629657   -8.5417888    710.58104  0.011921701  0.010179664            3 
 4968000   0.46379101   -8.5473744    709.90646  0.011907985  0.010176396            3 
 4969000    0.4692173   -8.5527395    708.76429  0.011886434  0.010173131            6 
 4970000   0.45840077   -8.5646074    709.38587  0.011894465  0.010169867            3 
 4971000   0.46311548    -8.556369    708.89283  0.011883807  0.010166601            2 
 4972000   0.45666491   -8.5713536    709.69985  0.011894943   0.01016334            3 
 4973000   0.45404416   -8.5381814    709.18685  0.011883954  0.010160079            2 
 4974000   0.45130066   -8.5483986    709.68789  0.011889959   0.01015682            4 
 4975000   0.45937167   -8.5462028    709.40521  0.011882834   0.01015356            3 
 4976000   0.45235458   -8.5447513    710.99266  0.011907031  0.010150302            2 
 4977000    0.4492216   -8.5461432    709.88963   0.01188617  0.010147048            2 
 4978000   0.45873668   -8.5491814     709.5932   0.01187882  0.010143794            2 
 4979000   0.46490492   -8.5495944    709.10622  0.011868284   0.01014054            2 
 4980000   0.45136703    -8.542511    709.06878  0.011865274  0.010137285            4 
 4981000   0.44175535   -8.5377336    708.89478  0.011859981  0.010134035            3 
 4982000   0.45664622   -8.5484488    709.59864  0.011869374  0.010130786            2 
 4983000   0.46251335   -8.5607016    710.23919  0.011877704  0.010127538            4 
 4984000   0.45487281   -8.5462208    710.09626  0.011872931  0.010124291            2 
 4985000     0.452667   -8.5554996     709.7494  0.011864751  0.010121046            7 
 4986000   0.45240377   -8.5659174     710.6269  0.011877037    0.0101178            3 
 4987000   0.45419143   -8.5453478    709.12562  0.011849569  0.010114557            3 
 4988000   0.45376515   -8.5667684    709.41962  0.011852105  0.010111313            4 
 4989000   0.44813603   -8.5628164    708.99441  0.011842627  0.010108071            3 
 4990000   0.45054198   -8.5574958    708.90499  0.011838761  0.010104829            2 
 4991000   0.45397434     -8.55516    709.05774  0.011838939  0.010101593            6 
 4992000    0.4469949   -8.5621341    709.66212  0.011846657  0.010098353            3 
 4993000   0.45307752    -8.563497    709.63401  0.011843815  0.010095117            4 
 4994000   0.44605006   -8.5533816    709.34687  0.011836652  0.010091882            2 
 4995000   0.45829743   -8.5538691    709.24536  0.011832589  0.010088648            2 
 4996000   0.45348014   -8.5505902    709.94178  0.011841836  0.010085416            1 
 4997000   0.44697859   -8.5749511    709.08545  0.011825186  0.010082185            3 
 4998000   0.45670205   -8.5569287    710.48267  0.011846116  0.010078954            2 
 4999000   0.45912974   -8.5667789    708.87762   0.01181699  0.010075726            3 
 5000000   0.44985041   -8.5607166    709.30021   0.01182167  0.010072501            3 
 5001000   0.46059049   -8.5528392    708.63618  0.011808241  0.010069274            3 
 5002000   0.44447907    -8.557219    709.91367  0.011827164   0.01006605            3 
 5003000   0.45265852   -8.5505228    709.30474  0.011814657  0.010062827            3 
 5004000   0.45433101   -8.5529854    709.59181  0.011817076  0.010059604            4 
 5005000   0.44590446    -8.565007    709.79176  0.011818045  0.010056384            3 
 5006000   0.43942701   -8.5614369    709.85548  0.011816745  0.010053164            5 
 5007000   0.45498262    -8.548022    709.70976  0.011811959  0.010049949            4 
 5008000   0.44977474    -8.560707    709.07926  0.011799109  0.010046734            2 
 5009000    0.4523434   -8.5543466    709.11494  0.011797347  0.010043518            2 
 5010000   0.44472587   -8.5520816    708.98243  0.011792788  0.010040304            2 
 5011000    0.4530399   -8.5521018    708.85543  0.011788323  0.010037089            3 
 5012000    0.4536101   -8.5633228    709.27218    0.0117929  0.010033879            4 
Loop time of 11842.3 on 48 procs for 5000000 steps with 4000 atoms

Performance: 72958.736 tau/day, 422.215 timesteps/s
99.4% CPU use with 48 MPI tasks x no OpenMP threads

MPI task timing breakdown:
Section |  min time  |  avg time  |  max time  |%varavg| %total
---------------------------------------------------------------
Pair    | 750.82     | 802.07     | 853.97     |  86.7 |  6.77
Neigh   | 77.19      | 80.841     | 84.526     |  20.8 |  0.68
Comm    | 735.34     | 788.26     | 847.8      |  98.8 |  6.66
Output  | 13.91      | 13.916     | 14.004     |   0.3 |  0.12
Modify  | 10031      | 10052      | 10079      |  13.1 | 84.89
Other   |            | 104.8      |            |       |  0.89

Nlocal:        83.3333 ave          91 max          78 min
Histogram: 5 6 3 9 9 6 6 1 1 2
Nghost:        2025.96 ave        2041 max        2009 min
Histogram: 3 0 4 4 11 10 4 6 2 4
Neighs:        13048.3 ave       14484 max       11716 min
Histogram: 3 4 3 9 5 9 7 4 2 2
FullNghs:      26096.6 ave       28429 max       24434 min
Histogram: 5 7 3 10 5 9 2 3 1 3

Total # of neighbors = 1252639
Ave neighs/atom = 313.15975
Neighbor list builds = 268002
Dangerous builds = 3

#clear
#
#next RN
#
#jump SELF
Total wall time: 3:17:25
