
units lj                  # Use reduced LJ style units
atom_style atomic         # Uncharged point particles
atom_modify map hash      # Needed for indexing of clusters etc
                          # Used to be able to find where atoms are in relation to each other.

lattice fcc 1.0 spacing 1 1 1
Lattice spacing in x,y,z = 1.5874011 1.5874011 1.5874011
region box block 0 10 0 10 0 10 units lattice
create_box 2 box
Created orthogonal box = (0.0000000 0.0000000 0.0000000) to (15.874011 15.874011 15.874011)
  3 by 4 by 4 MPI processor grid
create_atoms 1 box
Created 4000 atoms
  using lattice units in orthogonal box = (0.0000000 0.0000000 0.0000000) to (15.874011 15.874011 15.874011)
  create_atoms CPU = 0.017 seconds
set type 1 type/fraction 2 0.84 78393
Setting atom values ...
  3354 settings made for type/fraction
mass 1 1.0
mass 2 1.0
pair_style lj/cut  3.5
pair_modify tail  yes
pair_coeff 1  1  1.0  1.0   # Intearaction between 1 and 1 set with epsilon = 1 and sigma = 1
pair_coeff 1  2  1.5  0.8
pair_coeff 2  2  0.5  0.88

write_data data.0
System init for write_data ...
Neighbor list info ...
  update every 1 steps, delay 10 steps, check yes
  max neighbors/atom: 2000, page size: 100000
  master list distance cutoff = 3.8
  ghost atom cutoff = 3.8
  binsize = 1.9, bins = 9 9 9
  1 neighbor lists, perpetual/occasional/extra = 1 0 0
  (1) pair lj/cut, perpetual
      attributes: half, newton on
      pair build: half/bin/atomonly/newton
      stencil: half/bin/3d
      bin: standard
WARNING: Not all mixed pair coeffs generated from mixing. Use write_data with 'pair ij' option to store all pair coeffs. (../write_data.cpp:312)


#############################
#   M E L T   S Y S T E M   #
#############################

velocity all create 2.4 2750902 mom yes dist gaussian # Assign velocities
                                                    # Temperature 2.4, random number seed, zero linear momentum
                                                                                # Gaussian distribution

timestep 0.002   # simulation timestep
thermo 1000       # output thermodynamic data every 1000 steps bf 100

# Define a fix  in this case with index 1 applied to all
# particles in the simulation. This fix is for simulations
# in the anisotropic NPT ensemble. Note that we use the MTK
# correction.
fix 1 all npt temp 2.4 2.4 0.1 iso 5.68 5.68 0.5 mtk yes tchain 5 pchain 5 # Use NPT ensemble
                                                                         # Set temperature and pressure and damping
                                                                         # Numbers of thermostats in chain and in barostat
run 10000          # run for 10000 steps
Per MPI rank memory allocation (min/avg/max) = 3.642 | 3.644 | 3.648 Mbytes
Step Temp E_pair E_mol TotEng Press Volume 
       0          2.4   -3.4880302            0   0.11106983   -3.0192302         4000 
    1000    2.4150471    -2.692443            0   0.92922209    5.5427056      3911.85 
    2000    2.4670474   -2.7333483            0   0.96629769    5.9104473    3842.8796 
    3000    2.3764318   -2.7387128            0   0.82504374     5.686388    3855.1533 
    4000     2.349208   -2.6907303            0   0.83220065    5.4595971    3923.9108 
    5000    2.3770143   -2.6554532            0   0.90917682    5.5873019    3932.5421 
    6000    2.3697207   -2.6908288            0   0.86286364    5.7816776    3866.5926 
    7000    2.4055448   -2.7032698            0   0.90414533    5.8058805     3875.096 
    8000    2.4121161   -2.7679891            0   0.84928049    5.4531893    3859.5449 
    9000    2.3533192   -2.6835525            0   0.84554371     5.743944    3885.2258 
   10000    2.4042071   -2.7523493            0   0.85305977     5.886212    3819.2357 
Loop time of 2.50505 on 48 procs for 10000 steps with 4000 atoms

Performance: 689805.922 tau/day, 3991.932 timesteps/s
99.6% CPU use with 48 MPI tasks x no OpenMP threads

MPI task timing breakdown:
Section |  min time  |  avg time  |  max time  |%varavg| %total
---------------------------------------------------------------
Pair    | 1.1029     | 1.1871     | 1.2725     |   3.2 | 47.39
Neigh   | 0.21265    | 0.21865    | 0.24103    |   1.1 |  8.73
Comm    | 0.7725     | 0.84989    | 0.93406    |   3.8 | 33.93
Output  | 0.00026349 | 0.00026971 | 0.00033206 |   0.0 |  0.01
Modify  | 0.21388    | 0.23415    | 0.25359    |   2.2 |  9.35
Other   |            | 0.01503    |            |       |  0.60

Nlocal:        83.3333 ave          94 max          73 min
Histogram: 3 1 4 9 11 8 4 3 2 3
Nghost:        1691.85 ave        1715 max        1671 min
Histogram: 3 4 10 5 4 7 2 6 4 3
Neighs:        9994.29 ave       11644 max        8466 min
Histogram: 3 1 4 8 10 11 5 1 3 2

Total # of neighbors = 479726
Ave neighs/atom = 119.93150
Neighbor list builds = 913
Dangerous builds = 248

# Equilibrate just above the melting temperature to avoid step fn in T

fix 1 all npt temp 1.25 1.25 0.1 iso 5.68 5.68 0.5 mtk yes tchain 5 pchain 5
run 2000
Per MPI rank memory allocation (min/avg/max) = 3.643 | 3.645 | 3.649 Mbytes
Step Temp E_pair E_mol TotEng Press Volume 
   10000    2.4042071   -2.7523493            0   0.85305977     5.886212    3819.2357 
   11000    1.2520116   -4.0153932            0   -2.1378453    5.6468955    2992.7761 
   12000    1.2649443   -4.0112462            0   -2.1143041    5.4747016    3000.8095 
Loop time of 0.629112 on 48 procs for 2000 steps with 4000 atoms

Performance: 549345.660 tau/day, 3179.084 timesteps/s
99.6% CPU use with 48 MPI tasks x no OpenMP threads

MPI task timing breakdown:
Section |  min time  |  avg time  |  max time  |%varavg| %total
---------------------------------------------------------------
Pair    | 0.28063    | 0.30369    | 0.33181    |   2.3 | 48.27
Neigh   | 0.040511   | 0.04277    | 0.045791   |   0.6 |  6.80
Comm    | 0.20449    | 0.23225    | 0.2611     |   3.1 | 36.92
Output  | 5.4371e-05 | 5.563e-05  | 7.8191e-05 |   0.0 |  0.01
Modify  | 0.040803   | 0.04557    | 0.049178   |   1.1 |  7.24
Other   |            | 0.004782   |            |       |  0.76

Nlocal:        83.3333 ave          90 max          75 min
Histogram: 2 2 2 1 11 5 14 1 8 2
Nghost:        1993.23 ave        2012 max        1972 min
Histogram: 2 2 3 10 3 5 9 6 6 2
Neighs:        12726.6 ave       13938 max       11335 min
Histogram: 4 3 4 5 3 9 5 7 5 3

Total # of neighbors = 610879
Ave neighs/atom = 152.71975
Neighbor list builds = 145
Dangerous builds = 13

#############################
# L I N E A R  Q U E N C H  #
#############################

# Define solid atoms. This closely follows ten Wolde  Ruiz-Montero and Frenkel  Faraday Discuss  1996  104  93-110
# Compute components of the per-atom q6 vector
compute q6 all orientorder/atom degrees 1 6 components 6 nnn NULL cutoff 1.3 # compute the Q6 parameter.
                                                                             # Use all neighbours within 1.3 unit cell.

# get number of connections
compute coord_number all coord/atom orientorder q6 0.5

# An atom is solid if it has 8 or more connections (of a possible 14)
variable is_solid atom c_coord_number>=8
group solid dynamic all var is_solid    # Must be dynamic to update
dynamic group solid defined

# do clustering
compute cluster solid cluster/atom 1.3 # Create a cluster where all atoms within are solid and max 1.3 units from another member

# define chunks one chunk per cluster
compute clus_chunks solid chunk/atom c_cluster nchunk every compress yes  # Says which atoms are in which chunk

# count the size of each chunk
compute size_chunks solid property/chunk clus_chunks count


# Find the maximum entry in the vector of chunk sizes
variable max_n equal max(c_size_chunks)


# Thermo style which includes this variable
# thermo_style custom step temp pe vol v_max_n

thermo ${N}  # Print the thermo information every 100 steps
thermo 1000  

# Reset the npt fix at a lower temperature (below freezing)
fix 1  all npt temp  ${temp} ${temp}  0.1  iso  5.68  5.68  0.5  mtk yes tchain  5  pchain  5
fix 1  all npt temp  0.45 ${temp}  0.1  iso  5.68  5.68  0.5  mtk yes tchain  5  pchain  5
fix 1  all npt temp  0.45 0.45  0.1  iso  5.68  5.68  0.5  mtk yes tchain  5  pchain  5

dump dmp2 all dcd ${N} traj.dcd
dump dmp2 all dcd 1000 traj.dcd


compute msd all msd com yes
variable twopoint equal c_msd[4]/6/(step*dt+1.0e-6)
fix 9 all vector 10 c_msd[4]
variable fit equal slope(f_9)/6/(10*dt)
thermo_style custom step temp pe c_msd[4] v_twopoint v_fit v_max_n

fix 1 all npt temp 1.25 ${temp} 0.1 iso 5.68 5.68 0.5 mtk yes tchain 5 pchain 5
fix 1 all npt temp 1.25 0.45 0.1 iso 5.68 5.68 0.5 mtk yes tchain 5 pchain 5
run 500000 # 5000000  # Run for this many steps
Neighbor list info ...
  update every 1 steps, delay 10 steps, check yes
  max neighbors/atom: 2000, page size: 100000
  master list distance cutoff = 3.8
  ghost atom cutoff = 3.8
  binsize = 1.9, bins = 8 8 8
  4 neighbor lists, perpetual/occasional/extra = 1 3 0
  (1) pair lj/cut, perpetual
      attributes: half, newton on
      pair build: half/bin/atomonly/newton
      stencil: half/bin/3d
      bin: standard
  (2) compute orientorder/atom, occasional
      attributes: full, newton on
      pair build: full/bin/atomonly
      stencil: full/bin/3d
      bin: standard
  (3) compute coord/atom, occasional
      attributes: full, newton on
      pair build: full/bin/atomonly
      stencil: full/bin/3d
      bin: standard
  (4) compute cluster/atom, occasional
      attributes: full, newton on
      pair build: full/bin/atomonly
      stencil: full/bin/3d
      bin: standard
Per MPI rank memory allocation (min/avg/max) = 9.831 | 9.835 | 9.839 Mbytes
Step Temp PotEng c_msd[4] v_twopoint v_fit v_max_n 
   12000    1.2649443   -4.0112462 1.1130827e-30 7.7297409e-33 8.3333333e+20            3 
   13000    1.2536327   -4.0450288   0.88942916 0.0057014688  0.075789019            1 
   14000    1.2356699   -4.0511271    1.8133108  0.010793516  0.076259642            3 
   15000    1.2316013   -4.0217105    2.7425378  0.015236321  0.076887346            2 
   16000    1.2457297   -4.0269879      3.61152  0.018809999  0.076090941            4 
   17000    1.2381481   -4.0348222     4.485311  0.021986818  0.075337158            2 
   18000    1.2323594   -4.0276629    5.3499684  0.024768372  0.074755959            3 
   19000    1.2487821   -4.0674855    6.1861427  0.027132204  0.074007423            2 
   20000    1.2245326   -4.0719271    7.0620184  0.029425076  0.073661604            3 
   21000    1.2386447    -4.011423    7.9985673  0.031740345  0.073395215            3 
   22000    1.2154571   -4.0537957    8.7888562  0.033291121  0.073228157            1 
   23000    1.2255496   -4.0140717    9.5929682   0.03475713  0.072812187            2 
   24000    1.2489791   -4.0443227    10.488208  0.036417388  0.072420711            1 
   25000    1.2222423    -4.079157    11.246842  0.037489474  0.072229523            3 
   26000    1.2104188    -4.055195    12.348389   0.03957817  0.072140283            4 
   27000    1.2444684    -4.087409    13.035687  0.040233601  0.072140435            2 
   28000    1.2180068   -4.0666353    13.962455  0.041554926  0.072118526            1 
   29000    1.2150181    -4.085039    14.875989  0.042747095  0.072156108            3 
   30000    1.2133926   -4.0613028    15.822337  0.043950934  0.072256499            2 
   31000     1.213431   -4.0647635    16.709297  0.044917465  0.072495574           11 
   32000    1.2099301    -4.127573     17.47769  0.045514818  0.072627222            1 
   33000      1.22874   -4.0835261    18.311418  0.046240955  0.072546263            1 
   34000    1.2168644   -4.1043646    19.196277  0.047049697  0.072516654            4 
   35000    1.2406925   -4.1379788    20.072302  0.047791194  0.072538614            1 
   36000    1.1947892   -4.1096544    20.744003  0.048018525  0.072449256            5 
   37000    1.2261137   -4.0658863    21.797186  0.049092761  0.072351601            1 
   38000    1.2166852   -4.0473183    22.567997  0.049491221  0.072280341            1 
   39000    1.1945165   -4.1174595    23.184427  0.049539373  0.072109548            3 
   40000    1.2265032     -4.11393     23.89526  0.049781791  0.071901832            3 
   41000    1.1989835   -4.0855538    24.752652  0.050310267  0.071694595            2 
   42000    1.2435442   -4.1038349    25.716475  0.051024751  0.071517296            3 
   43000    1.1995492   -4.0908212    26.416341  0.051194458  0.071354473            2 
   44000    1.2011384   -4.1018389    27.073459   0.05127549  0.071173504            2 
   45000    1.1714003   -4.1405598    27.742385  0.051374786  0.070911859            3 
   46000    1.1884333   -4.1354993    28.653083  0.051907758  0.070668288            2 
   47000    1.1966465   -4.1159039    29.639065  0.052551533  0.070523538            3 
   48000    1.1845404   -4.1079482    30.649815  0.053211484  0.070405577            3 
   49000    1.2122593    -4.164264    31.449011  0.053484712  0.070334956            1 
   50000    1.1976508   -4.1212316    32.631518  0.054385863  0.070296699            1 
   51000    1.1792211   -4.1314213    33.398744  0.054573111  0.070339257            1 
   52000    1.2040405   -4.1399114    34.142389  0.054715367  0.070332896            1 
   53000    1.1812059   -4.1359648    35.034979  0.055086444  0.070332361            2 
   54000    1.1692096   -4.1163137    35.796619  0.055241695   0.07035898            2 
   55000    1.2017206   -4.1741041    36.513028  0.055322769  0.070358742            2 
   56000    1.1829125   -4.1530325    37.393195  0.055644635  0.070360067            2 
   57000    1.1688283   -4.1763064    38.121309  0.055732907  0.070319294            3 
   58000    1.1885523   -4.1566965    39.000121  0.056034656  0.070283812            1 
   59000    1.1910095   -4.1834218    39.822872  0.056246994  0.070224941            3 
   60000    1.1754974   -4.1839039    40.535564  0.056299394  0.070176108            3 
   61000    1.1506436   -4.1849563    41.335058  0.056468658  0.070116542            2 
   62000    1.1866208   -4.1626271    42.112163  0.056602369  0.070076592            3 
   63000    1.1554713   -4.1322968    43.314827  0.057294744  0.070041565            3 
   64000     1.169709    -4.168139    43.816195  0.057052337  0.070023841            3 
   65000    1.1646524   -4.1363637    44.815617  0.057455919  0.069979419            1 
   66000    1.1902882   -4.1230173    45.740922  0.057753689  0.069937457            2 
   67000     1.151311   -4.1545728    46.477366  0.057807669  0.069889967            1 
   68000    1.1491162   -4.1546835    47.288698  0.057951835  0.069880518            2 
   69000    1.1449666   -4.1934654    47.927698  0.057883693  0.069857559            2 
   70000    1.1364501   -4.1828921    48.509348  0.057749223  0.069811505            3 
   71000    1.1467649   -4.1880307    49.542176  0.058148094  0.069772818            5 
   72000     1.187397   -4.2149972    50.223723  0.058129308  0.069733727            3 
   73000    1.1532505   -4.1858053    50.453916  0.057595794  0.069656457            1 
   74000    1.1456613   -4.1848505    52.034695  0.058597629  0.069579144            1 
   75000    1.1264295   -4.2348877    52.402897  0.058225441  0.069506923            3 
   76000    1.1649075   -4.1765506    53.280713  0.058421834  0.069423011            1 
   77000    1.1407982   -4.1900005    53.555314  0.057960296  0.069305794            1 
   78000    1.1664009   -4.2018762    54.031428  0.057725885  0.069168471            4 
   79000    1.1400178   -4.2300868    54.784034  0.057789065  0.069009192            2 
   80000     1.137776   -4.2035741    55.346143  0.057652232  0.068847143            4 
   81000    1.1676153    -4.207367    55.998373  0.057611495  0.068675559            6 
   82000    1.1432383   -4.2097764    56.929579  0.057855263   0.06851192            2 
   83000    1.1139683   -4.2073333    57.932257  0.058164916  0.068376676            5 
   84000    1.1222964   -4.2723733    58.380343  0.057917006  0.068245242            2 
   85000    1.1628925   -4.2227908    59.262873  0.058100855  0.068120158            1 
   86000    1.1311274   -4.2231457    60.231486  0.058363843  0.068014503            4 
   87000    1.0980569   -4.2154494    61.217772  0.058637713  0.067922638            2 
   88000    1.1230387   -4.2231098    61.887292   0.05860539  0.067834408            3 
   89000    1.1188998    -4.265156    62.373096  0.058401775  0.067749323            2 
   90000    1.1232927    -4.248478    63.381403  0.058686484  0.067662919            1 
   91000     1.099234   -4.2377391    64.097522  0.058697364  0.067582139            2 
   92000    1.0994178   -4.2129824    64.697447   0.05860276  0.067491955            4 
   93000    1.1121187    -4.237939    65.204142   0.05842665  0.067408427            4 
   94000    1.0937525   -4.2207611    66.463058   0.05892115  0.067328128            2 
   95000    1.1124858   -4.2483945    66.859191  0.058648413  0.067245101            5 
   96000    1.1058544   -4.2484524    67.792724  0.058847851  0.067161327            1 
   97000    1.1159223   -4.2480032    68.223815  0.058611524  0.067074941            2 
   98000    1.1300204    -4.223418    69.191064  0.058835938  0.066984519            3 
   99000    1.1357971   -4.2490249    69.941582  0.058873385  0.066911987            4 
  100000    1.1151756   -4.2688681    70.723861  0.058936551  0.066833021            2 
  101000    1.0906291    -4.263842      71.4095  0.058918729  0.066761813            1 
  102000    1.1167351   -4.2749925    72.180371  0.058970891  0.066690982            7 
  103000      1.09864   -4.2697473    73.285297  0.059292311   0.06662624            3 
  104000    1.0909645   -4.2476939    74.035704  0.059323481  0.066569428            2 
  105000    1.1022077   -4.2718131    74.376213   0.05902874  0.066506452            5 
  106000    1.1094782   -4.2865584     75.19941  0.059119033  0.066439955            3 
  107000    1.0985503   -4.2679848    75.681286  0.058941811  0.066373959            3 
  108000    1.1153341    -4.228239    76.911985  0.059345667  0.066310552            2 
  109000     1.091355    -4.275146    77.452712  0.059214611  0.066247644            2 
  110000    1.0908118   -4.2748939    78.164632   0.05921563  0.066175581            4 
  111000    1.0782711   -4.2974987    78.735921  0.059111051   0.06609779            2 
  112000    1.1030456   -4.2850109    79.331756  0.059026604  0.066025294            1 
  113000     1.074645   -4.3293892    79.396515  0.058552002  0.065940385            3 
  114000    1.0920876   -4.2704088    80.821373  0.059079951  0.065857747            2 
  115000    1.0791405   -4.3235269    81.141141  0.058797928  0.065771025            4 
  116000    1.0763095   -4.3036263    81.712263  0.058701338  0.065684164            3 
  117000    1.1103346   -4.3303928    82.732276  0.058926123  0.065599987            7 
  118000    1.0707084   -4.2921498    83.465258  0.058944391  0.065520913            3 
  119000    1.0637287   -4.2734861    83.873188  0.058734725  0.065428689            1 
  120000    1.0768979   -4.3122648    84.085403  0.058392641  0.065335975            2 
  121000    1.0686221   -4.2987375    84.977134  0.058524197  0.065235479            2 
  122000    1.0753497   -4.2996032    85.708742  0.058544222  0.065132797            1 
  123000    1.0646651   -4.2959929    86.003969  0.058268272  0.065028549            2 
  124000    1.0728827    -4.293463    86.497024   0.05812972  0.064922336            2 
  125000      1.06458   -4.3042296    87.340935   0.05822729  0.064815402            2 
  126000    1.0766911   -4.3417448    87.604148  0.057939251  0.064700395            3 
  127000    1.0841073    -4.311777    88.274401  0.057922835  0.064582168            2 
  128000    1.0486206   -4.3492253    88.669578  0.057727589  0.064459186            2 
  129000    1.0754481   -4.2978492    89.595398  0.057878164  0.064341743            2 
  130000    1.0542992   -4.3556713    89.814358  0.057573306  0.064218636            2 
  131000    1.0675326   -4.3418291    90.529438  0.057588701  0.064088597            2 
  132000    1.0430751   -4.3632091    90.705681  0.057263687  0.063951952            3 
  133000    1.0707937   -4.3220707    91.260541   0.05718079  0.063817908            3 
  134000    1.0667702   -4.3705848    92.170436  0.057319923  0.063684391            3 
  135000     1.053943   -4.3536738    92.314786  0.056984435  0.063548367            1 
  136000    1.0679738   -4.3508565    93.121988  0.057060042  0.063410336            2 
  137000    1.0572155   -4.3644535    93.532673  0.056893353   0.06327761            1 
  138000    1.0695482   -4.3698581    94.177808  0.056870657  0.063149309            2 
  139000    1.0283014   -4.3575566    94.941044  0.056919091  0.063018014            5 
  140000    1.0367587     -4.38643    94.856482  0.056462192  0.062889328            3 
  141000    1.0539171   -4.3376881    96.043211  0.056763127  0.062758902            1 
  142000    1.0382893   -4.3736073     96.42449  0.056587142  0.062629382            3 
  143000    1.0308934   -4.3784367    96.878311  0.056455892  0.062496919            3 
  144000     1.028343   -4.3652348    97.372658  0.056349918  0.062358895            2 
  145000    1.0404896   -4.4155264    97.719297  0.056160515  0.062223958            3 
  146000    1.0585111   -4.3575001    98.676398  0.056322145  0.062094246            2 
  147000    1.0453443   -4.3927442     99.77762  0.056563277  0.061966376            2 
  148000    1.0308923   -4.3985293    100.34614  0.056501207  0.061840854            2 
  149000    1.0498839   -4.3991523    100.73874  0.056341577  0.061716584            5 
  150000    1.0013657   -4.3705129     101.4902  0.056383446   0.06159789            2 
  151000      1.02486   -4.3780041    101.53244  0.056033353  0.061483718            3 
  152000    1.0383693   -4.4108898    101.92208  0.055878334   0.06136217            4 
  153000    1.0101144   -4.4140182    102.54808  0.055854073  0.061241585            2 
  154000    1.0199261   -4.4224047    103.22783  0.055859216  0.061118811            5 
  155000    1.0533468   -4.4196982    104.05143   0.05594163  0.060999433            4 
  156000    1.0185983   -4.4106519    104.65571  0.055905828  0.060883013            2 
  157000    1.0044454   -4.4091215    104.97287  0.055718083  0.060765081            5 
  158000    1.0087902   -4.3961366    105.33039     0.055554  0.060642222            8 
  159000    1.0135058   -4.4186889    105.50416   0.05529568  0.060521061            2 
  160000    1.0231846   -4.4164435    106.48025  0.055458463  0.060393819            5 
  161000   0.99772265    -4.439844    106.48198  0.055114896  0.060269407            3 
  162000    1.0204634   -4.4173779    106.91079  0.054995263  0.060142627           11 
  163000   0.99579095   -4.3909976     108.4214  0.055430165  0.060021932            4 
  164000    1.0108829   -4.4429022    108.28157  0.055021123  0.059902466            3 
  165000   0.99078179   -4.4310891    108.56824  0.054832447  0.059778628            4 
  166000    1.0100192   -4.4305469     109.0593  0.054748644  0.059654744            2 
  167000    1.0240477   -4.4198652     110.2625  0.055021206  0.059534051            2 
  168000   0.99876855   -4.4550045    110.20078  0.054663087  0.059414387            4 
  169000   0.98763045   -4.4146908    110.76693  0.054618799  0.059289229            3 
  170000    1.0111355   -4.4349171    111.81524  0.054811394  0.059168527            5 
  171000   0.99991251   -4.4562737     111.6679  0.054419056  0.059046189            7 
  172000     1.006964    -4.458047    112.14119  0.054331971  0.058923203            3 
  173000   0.96251357   -4.4435748    112.92216  0.054394103  0.058802248            3 
  174000    1.0052849   -4.4795443    112.81292  0.054029174  0.058680641            4 
  175000   0.98555871   -4.4380908    113.58676  0.054088933  0.058556348            3 
  176000   0.99174465   -4.4762626      113.941  0.053949338  0.058432938            3 
  177000   0.99083725   -4.4672885    114.37035   0.05384668  0.058310549            7 
  178000   0.99364519   -4.4757041    114.86187  0.053774285  0.058189656            4 
  179000   0.98039758   -4.4522199    115.35337  0.053702685  0.058065158            3 
  180000   0.95450164   -4.4676606    115.48564  0.053465572   0.05793931            3 
  181000   0.98975662   -4.4696418    115.52312  0.053187439  0.057808127            3 
  182000   0.96826897   -4.4629698    116.27378   0.05323891   0.05767722            2 
  183000   0.95320717   -4.4975446    117.00307  0.053280086  0.057549684            2 
  184000   0.94768202   -4.4761688    117.79131  0.053347515  0.057423664            4 
  185000   0.97966523   -4.4689846    117.92859  0.053120988  0.057299638            8 
  186000   0.96310909   -4.4932628     118.2548   0.05298154   0.05717991            5 
  187000   0.96465952   -4.5023957    119.19105  0.053115442  0.057060281            2 
  188000   0.97761686   -4.4869305    119.02134  0.052757685  0.056938786            4 
  189000   0.98193526   -4.4887041    119.88893   0.05286108  0.056814654            6 
  190000   0.96589549   -4.5084987     120.7919  0.052978904  0.056692318            3 
  191000   0.94365473   -4.4922468    120.79945  0.052704819  0.056571114            2 
  192000   0.98145118   -4.4725183    121.60178   0.05277855  0.056450319            3 
  193000   0.95277139   -4.5341473    121.51414  0.052467244  0.056331839            2 
  194000   0.96810889   -4.4998829    122.04524   0.05242493  0.056213143            3 
  195000   0.94735175   -4.5295097    122.20243   0.05222326  0.056095852            2 
  196000   0.95567565    -4.515729    123.34361  0.052442009  0.055979021            4 
  197000   0.95427724   -4.5309417    123.19063  0.052111097  0.055861576            2 
  198000   0.93027829   -4.5452945    123.23226  0.051865429  0.055738234            3 
  199000   0.95306996   -4.5435232    123.26671  0.051619224   0.05561211            7 
  200000   0.94123562   -4.5151784    124.61104  0.051921264  0.055485838            4 
  201000   0.95402938   -4.5347381    124.70433  0.051701631  0.055361419           16 
  202000   0.96810862   -4.5462331      124.869  0.051513612  0.055235079            7 
  203000   0.94849376   -4.5367342    125.60985  0.051563976  0.055110155            4 
  204000   0.94560303   -4.5416298    125.44431  0.051243592  0.054989066            2 
  205000   0.94638848    -4.566783    125.82417  0.051148037  0.054866136            4 
  206000   0.93872706   -4.5327991    127.01627  0.051381985   0.05474561            5 
  207000   0.95015883   -4.5595195     126.9458  0.051105394  0.054624964            5 
  208000   0.93323295   -4.5420418    127.12961  0.050933337  0.054505034            4 
  209000   0.94111359   -4.5419077    128.63275  0.051288975  0.054388661            5 
  210000   0.95048069   -4.5849333     128.4525  0.050973213   0.05427526            3 
  211000   0.92343058   -4.5849722    129.16116  0.051011516  0.054161065            6 
  212000   0.90727209   -4.5623815    129.81257  0.051026954  0.054050672            6 
  213000   0.95163076   -4.5730399     130.2067  0.050941587  0.053943926            6 
  214000   0.91004416   -4.5458738    131.41309   0.05117332  0.053837952            3 
  215000   0.92235418   -4.6028183    131.22319  0.050861702  0.053728939            3 
  216000   0.91860808   -4.5842869    131.68608  0.050804814  0.053622136            2 
  217000   0.90276906    -4.566724    132.23043  0.050779737  0.053515275            4 
  218000   0.90559388   -4.5707357      132.336  0.050587157  0.053409149            5 
  219000   0.92115971   -4.5982031    132.66891  0.050482841  0.053305332            2 
  220000   0.89988834   -4.5717897    132.84697  0.050320822  0.053199691            2 
  221000   0.93505897   -4.5928055    133.55813  0.050361286  0.053092952            4 
  222000   0.93462648   -4.6240202    133.48898  0.050108476  0.052986393            3 
  223000   0.91364361    -4.580804    134.13037  0.050123457  0.052878279            2 
  224000   0.89859104   -4.6083724    134.37864  0.049992053  0.052769395            3 
  225000   0.92226996   -4.6272764    134.74672  0.049906191  0.052661458            3 
  226000   0.89594135   -4.6058937    135.26137  0.049875137  0.052554573            3 
  227000   0.90716229   -4.6116338     135.5009  0.049743356  0.052449168            4 
  228000   0.90969873   -4.6315507    136.36245  0.049840076  0.052347538            8 
  229000   0.88764969   -4.6284412    136.56833  0.049697355  0.052246866            4 
  230000   0.89141052    -4.623959    137.63892  0.049869175  0.052148026            5 
  231000   0.90158192   -4.6441064    137.61495  0.049644641   0.05204823            3 
  232000   0.89126821   -4.6173786    138.31608  0.049682499  0.051947333            6 
  233000   0.88758695   -4.6019508    138.39805  0.049498587  0.051848689            5 
  234000    0.8976113    -4.613174    138.59155  0.049355964  0.051748501            4 
  235000   0.89812362   -4.6294565    138.68207  0.049178037  0.051645065            6 
  236000   0.90558343   -4.6500366    138.89562  0.049045062  0.051539217            3 
  237000   0.89419944   -4.6119096    139.99459  0.049224541   0.05143697            2 
  238000   0.89493359   -4.6381961    139.89649  0.048983366  0.051335255            5 
  239000   0.90541557   -4.6282422    140.00021  0.048814577  0.051230988            5 
  240000   0.87545981   -4.6558083    140.29611  0.048713926  0.051127811            8 
  241000    0.8908911   -4.6758941    140.80229  0.048686823  0.051025732            4 
  242000   0.87234868   -4.6716566    141.45311  0.048709747  0.050922652            3 
  243000   0.87719338   -4.6611079    141.60755  0.048562259  0.050820756            2 
  244000   0.86785309   -4.6729311    142.28883  0.048595913  0.050719773            4 
  245000   0.86833385   -4.6337103    142.61896   0.04850985  0.050619694            2 
  246000   0.88119297   -4.6825846    142.44592  0.048254038  0.050520511            5 
  247000   0.87255899   -4.6944388     143.1074   0.04828185  0.050422076            4 
  248000   0.85701713    -4.692855    143.57272  0.048243523  0.050323515           15 
  249000   0.87228158    -4.685921    143.91403     0.048164  0.050225145            3 
  250000   0.85321168   -4.7177488    144.21371  0.048071238  0.050126131           12 
  251000   0.87408897   -4.6663929    145.05941  0.048160496  0.050026986            8 
  252000   0.87932423   -4.6749228    144.46892  0.047774114  0.049927907            2 
  253000   0.85355279   -4.6979537    145.02113  0.047767171  0.049828983            9 
  254000   0.85821227   -4.6753815    145.59852  0.047768544  0.049728681            3 
  255000   0.85209538   -4.7150518    145.29914  0.047483378  0.049628794            4 
  256000   0.87861369   -4.7020673    146.02031  0.047532653  0.049527731            8 
  257000   0.85794341   -4.6971492    146.07163  0.047364343  0.049427238            3 
  258000   0.86564657   -4.7195375    146.34499  0.047269052   0.04932449            3 
  259000   0.85684577   -4.7034106    146.08281   0.04700219  0.049219251            3 
  260000   0.84670608   -4.6754266    147.32995  0.047221137  0.049114817            8 
  261000   0.84038589   -4.7264515    146.53424  0.046786155  0.049009911            3 
  262000   0.84305974   -4.7517324    146.90661  0.046726021  0.048904632           11 
  263000   0.84646601   -4.7177628    147.27005  0.046663514   0.04879834            9 
  264000   0.82889497   -4.7369537    147.05924  0.046420215  0.048692291            9 
  265000   0.84008725   -4.7298354    147.98435   0.04653596  0.048584609            5 
  266000   0.83894783   -4.7459879    147.90176  0.046335139  0.048480755            6 
  267000   0.83345163    -4.758986    148.78394  0.046436936  0.048375453            5 
  268000   0.84735472   -4.7736413    148.66887  0.046227882  0.048269948            3 
  269000   0.84452907    -4.730957    148.75374  0.046082325  0.048163826            4 
  270000   0.84022059   -4.7611653    148.64937  0.045879434  0.048059131            3 
  271000   0.84722614   -4.7358556    149.32198  0.045916968  0.047954714            3 
  272000   0.81438386   -4.7541474    149.49975  0.045802618  0.047849131            6 
  273000   0.84346799   -4.7271236    150.08648  0.045813944  0.047743299            6 
  274000   0.83890759   -4.7415596    150.36167  0.045730434  0.047637949            8 
  275000   0.83507856   -4.7532661    150.55093  0.045621495  0.047533217            5 
  276000   0.82593474   -4.7441429     150.8779  0.045554921  0.047427435            2 
  277000    0.8254639   -4.7654307    150.84812  0.045381505  0.047322918            5 
  278000   0.81813154   -4.7648128    151.09482  0.045292213  0.047215671            3 
  279000   0.82069086   -4.7516801    151.54688  0.045264899  0.047109485            3 
  280000   0.80350542   -4.7961395    151.77487  0.045171092  0.047003794            5 
  281000   0.81895641   -4.7778372    151.50468  0.044930214  0.046897072            8 
  282000   0.81520218   -4.7900802    151.79537  0.044856788  0.046791559            4 
  283000   0.82287059   -4.7669523    152.42685  0.044884231   0.04668634            8 
  284000   0.81496703   -4.7973454    153.09432  0.044922042  0.046581028            8 
  285000    0.8113291   -4.8051954    152.80172  0.044678866  0.046476832            6 
  286000   0.80442871   -4.8113383    152.46056  0.044423241  0.046372142            3 
  287000   0.81220114   -4.8055461    153.62536  0.044606667  0.046267122            6 
  288000   0.82117289   -4.7939248    153.37325  0.044378835  0.046163247            8 
  289000    0.7984242   -4.8145737    153.35962  0.044221343  0.046058458            4 
  290000   0.82030472   -4.7903905    153.98664  0.044249036  0.045954108            7 
  291000   0.79994841   -4.7989558    154.29999  0.044186709  0.045850745            5 
  292000   0.80861961   -4.8390794    154.51523  0.044096812  0.045746733            5 
  293000   0.80414436   -4.7957327    155.36138  0.044186968  0.045643237            4 
  294000   0.79274733   -4.8023288    154.79192  0.043875261   0.04554068            4 
  295000   0.80820285   -4.8144189    155.21651  0.043846471  0.045437547            4 
  296000   0.79239699   -4.8051713    155.06778   0.04365647  0.045335721            8 
  297000   0.81790205   -4.8012856     155.2196  0.043552076  0.045233073            6 
  298000   0.80992426   -4.8421971    155.00834   0.04334685  0.045129685            7 
  299000   0.79325276   -4.8236002    155.91939  0.043455793  0.045027188            3 
  300000   0.78953118   -4.8131056    155.37283   0.04315912   0.04492369            7 
  301000   0.80660189   -4.8345206    155.81814  0.043139021  0.044819449           12 
  302000   0.79089535   -4.8460397    155.93015  0.043027082  0.044715687            5 
  303000   0.79097796   -4.8596018    156.64843  0.043082627  0.044612888           11 
  304000   0.78024784   -4.8358916    156.97518  0.043030476  0.044509733            4 
  305000   0.80382957    -4.878595    156.34421  0.042716997  0.044404906            8 
  306000    0.7671009   -4.8384576    156.66332  0.042664303  0.044299666            4 
  307000   0.78936127   -4.8559786     156.8724  0.042582085  0.044196039            6 
  308000   0.78480253   -4.8842446    156.89304  0.042449415  0.044091747            7 
  309000   0.77244288   -4.8888316    156.89966  0.042313824  0.043986589            6 
  310000    0.7800413   -4.8751128    156.68574  0.042119823  0.043881344            3 
  311000   0.77148286   -4.8935778    157.83606  0.042292619   0.04377728            5 
  312000   0.77107855   -4.8795277    157.80829   0.04214965  0.043673623           13 
  313000   0.78078995   -4.8647369    158.09522  0.042091379  0.043570602            9 
  314000    0.7582242   -4.8925519    158.52663  0.042071824  0.043468424           12 
  315000   0.77450382   -4.9097515    158.05716  0.041814062  0.043366085            6 
  316000   0.74643674   -4.8830316     158.4961  0.041797494  0.043263285            8 
  317000   0.76499703   -4.9152789    158.43644  0.041649959   0.04316015            7 
  318000   0.74236319   -4.8935484      159.022  0.041672431  0.043057187            4 
  319000   0.74615002   -4.9337526    158.58959  0.041428836   0.04295281            4 
  320000   0.74696042   -4.9114426    158.82542  0.041360787  0.042848511            5 
  321000   0.76660782   -4.9024101    159.32044  0.041360445  0.042745141            5 
  322000   0.76338006    -4.935373    159.29124   0.04122444   0.04264354            9 
  323000   0.73762736   -4.8978733     160.2167  0.041335577  0.042544165            7 
  324000   0.74613349   -4.8991741    159.95265  0.041140084  0.042443731            7 
  325000   0.76004485   -4.9013424    160.43989  0.041138434  0.042343933            6 
  326000    0.7545305   -4.8805246    160.49573  0.041026516  0.042245284            7 
  327000   0.72946425   -4.9133327    160.73202   0.04096127  0.042146767            7 
  328000   0.76249272   -4.9241848    160.94812   0.04089129  0.042047068            5 
  329000   0.72939849   -4.9245665    161.54298  0.040917675  0.041948078            6 
  330000   0.73065342   -4.9531523    161.01782  0.040661065  0.041849738            6 
  331000   0.73385966   -4.9484212     161.4036  0.040635348  0.041751092            9 
  332000   0.73168227   -4.9550738    161.04439  0.040422788  0.041651862            6 
  333000   0.72934362   -4.9366553    161.53346  0.040423788  0.041553332            9 
  334000   0.74786297   -4.9354773    162.03042   0.04042675  0.041455199            5 
  335000    0.7270164   -4.9692577    161.95397  0.040287058  0.041358909            7 
  336000    0.7214541   -4.9491248    162.36828   0.04026991  0.041262815            5 
  337000   0.72202775   -4.9494692    162.24621   0.04012023  0.041165861            7 
  338000   0.73725428   -4.9854895    162.26176  0.040005366  0.041068242            4 
  339000   0.73040271    -4.972167     163.1632  0.040108949  0.040971018            8 
  340000   0.72263165   -4.9729922    162.46849  0.039820708  0.040874135            4 
  341000   0.73239922   -4.9760985    162.55191  0.039724318  0.040777087            7 
  342000   0.71190328   -4.9639291    162.84541  0.039679682  0.040678908           10 
  343000   0.72141624   -4.9855129     162.4575  0.039469752  0.040580795            3 
  344000   0.72944668   -5.0121136    162.78374  0.039434045  0.040482999            8 
  345000   0.69994422     -4.94906    163.39902  0.039468362  0.040386212            7 
  346000   0.70502216   -4.9849827    162.82447  0.039215912  0.040288347            6 
  347000   0.70095075   -5.0115297    163.25024  0.039205148  0.040190321            8 
  348000   0.71188705   -5.0147312     163.2961  0.039103472  0.040092394            9 
  349000    0.7089702    -4.985764    163.89236    0.0391338    0.0399945            5 
  350000    0.7007525   -4.9994352    163.63067  0.038959683  0.039897421            7 
  351000   0.69895139   -5.0140349    163.35331  0.038782838  0.039800734            6 
  352000   0.70984537   -5.0068165    163.90314  0.038802826  0.039704994            9 
  353000   0.70866371    -5.006554    163.95645  0.038705488  0.039608817           12 
  354000   0.70155215   -5.0259852    163.95973  0.038596924  0.039513094            7 
  355000   0.71455344   -4.9981436    164.31756  0.038572198  0.039416218            4 
  356000   0.70705661   -5.0219239     164.2331  0.038444077  0.039319247            8 
  357000   0.69386266   -5.0589593    164.17984  0.038323958  0.039222498           11 
  358000   0.70295639     -5.02552    164.23517  0.038229787  0.039125433            8 
  359000   0.70106762   -5.0102024    164.25537  0.038127986   0.03902848            7 
  360000   0.69848628   -5.0483315    164.46775  0.038071239  0.038931898            6 
  361000   0.67953945   -5.0223655    164.95772  0.038078882  0.038836029           10 
  362000   0.69814932   -5.0571943    164.97298  0.037977206  0.038739434            7 
  363000   0.68122235   -5.0160557    164.91011  0.037858152  0.038643292            6 
  364000   0.69917903    -5.043287    165.17794  0.037815463  0.038547458           10 
  365000   0.69280005   -5.0423599    164.93812  0.037657104  0.038450722            9 
  366000   0.69673028   -5.0509262    165.05763  0.037581428  0.038354127           27 
  367000   0.68115734   -5.0636238    165.45777  0.037569884  0.038258614           10 
  368000   0.67744011   -5.0187794    165.22341  0.037414722  0.038163363            9 
  369000   0.68195994   -5.0811912    165.72329  0.037426217   0.03806876            8 
  370000   0.67248629   -5.0657268    165.66794  0.037312599  0.037974137            8 
  371000   0.66435692   -5.0656588    165.89858  0.037263832  0.037879373            7 
  372000   0.66643385   -5.0750643    166.05801  0.037199375  0.037785091            8 
  373000   0.66220009   -5.0931037    166.42586  0.037181828  0.037692059            7 
  374000   0.66094046   -5.0824449    166.39898  0.037076422  0.037599777            8 
  375000   0.66605013    -5.079948    166.32805   0.03696179  0.037507701           13 
  376000   0.67126842   -5.0646002    166.82815  0.036974324  0.037416356            8 
  377000   0.66848721   -5.1036029    166.92512  0.036897683  0.037324957            9 
  378000   0.66546281   -5.0610927    166.90796  0.036796288  0.037233912            5 
  379000   0.67265901   -5.0868328    166.73787  0.036661801  0.037142853            5 
  380000   0.66395874   -5.1046883    166.86078  0.036592277  0.037051315            5 
  381000   0.65967683   -5.1243021    167.28926  0.036589953  0.036960044            5 
  382000   0.66443547   -5.1189284     167.1917  0.036472884  0.036868246            8 
  383000    0.6549916   -5.1163257    166.80636  0.036293813  0.036776538            8 
  384000   0.65909672     -5.11906    167.06557   0.03625555  0.036685165            6 
  385000   0.66950108   -5.1179358     166.8837  0.036122013  0.036593516            6 
  386000   0.65749107   -5.1147061    167.45884  0.036152599  0.036502724            5 
  387000    0.6594768   -5.1287586    167.20828  0.036005227  0.036411591           13 
  388000   0.65040457   -5.1076577    167.13035  0.035895694  0.036321036            8 
  389000   0.63533619   -5.1270477    167.63835  0.035912242  0.036230473           13 
  390000   0.64941479   -5.1504803    167.43702   0.03577714  0.036140022           12 
  391000   0.63944966   -5.1360126    167.86158  0.035776126  0.036049734            4 
  392000   0.64847382   -5.1425443    167.28134   0.03556151  0.035959379            6 
  393000   0.63018589   -5.1331478    167.70956  0.035561823  0.035869497           10 
  394000   0.63566101   -5.1529746    168.06621  0.035546999  0.035779818            6 
  395000   0.63410027    -5.162768    167.78251  0.035397154  0.035690347            6 
  396000    0.6507692    -5.169234    167.61109  0.035271694  0.035600847           16 
  397000   0.64112627   -5.1469322    168.15147  0.035296279   0.03551207           11 
  398000   0.62068482   -5.1458003    168.13358  0.035203848  0.035423636           11 
  399000    0.6354957   -5.1505796    168.31538  0.035153588  0.035335013            7 
  400000   0.63172348   -5.1696024     168.5085  0.035105937  0.035246455           10 
  401000   0.63278144   -5.1717568     167.8526  0.034882086  0.035157663           10 
  402000   0.62770787   -5.2074206    168.51709  0.034933062  0.035069114           11 
  403000   0.62259134   -5.1678959    168.72192  0.034888734  0.034981045            9 
  404000   0.61506683    -5.187234    168.13141  0.034680571  0.034892654           20 
  405000   0.62247797   -5.2127665    168.26376  0.034622173   0.03480389            8 
  406000   0.63038074   -5.1967009    168.14828  0.034513195  0.034715084           10 
  407000   0.60762098   -5.2000825    168.88316  0.034578862  0.034627216            7 
  408000   0.61543641   -5.1862509    168.21925  0.034358507  0.034539637           16 
  409000   0.60690916   -5.1767549    168.89444  0.034412071  0.034452242           13 
  410000   0.61308045   -5.1968612    169.19229  0.034388677  0.034365668           13 
  411000   0.60555225   -5.1968665    168.80927  0.034227346  0.034279599            9 
  412000   0.61105273   -5.2112708    169.33257  0.034250116  0.034194062           12 
  413000    0.6073837   -5.1947937    169.74829  0.034251068  0.034108842           13 
  414000   0.60786781   -5.1977807    169.23184   0.03406438  0.034023578           13 
  415000    0.6091504   -5.2057419    169.65035  0.034066335  0.033938804           13 
  416000   0.59763861   -5.2291284    169.65492   0.03398536  0.033854372           14 
  417000   0.60174744   -5.2327856    169.69481  0.033911832   0.03377002           10 
  418000   0.58690377   -5.2413259    169.48887  0.033789647   0.03368578           20 
  419000   0.60808208   -5.2402456    169.63613  0.033738291  0.033601747           10 
  420000   0.58792589   -5.2578603    169.67318  0.033665313  0.033517833           10 
  421000   0.60937741   -5.2453767     169.8068  0.033611798  0.033434323           13 
  422000   0.58453669   -5.2551037    170.19626  0.033609057  0.033351214            8 
  423000   0.59522557   -5.2514625    169.91253  0.033473706  0.033268762            7 
  424000    0.5958825    -5.265831    170.27211   0.03346543  0.033185743           15 
  425000   0.58478965   -5.2625336    169.83495   0.03330097  0.033103221           23 
  426000   0.58913072   -5.2552238    169.83625  0.033223053   0.03302074           18 
  427000   0.57639227   -5.2512801    170.06678  0.033190238  0.032938367           12 
  428000    0.5891418   -5.2636537    170.09402  0.033117994  0.032855483           13 
  429000   0.58547132   -5.2656335    170.34442  0.033089436  0.032772953           10 
  430000   0.59217532   -5.2738623    170.25955  0.032996036  0.032690238           10 
  431000   0.58636952   -5.2737818     170.0446  0.032877919  0.032607821           13 
  432000   0.57573055   -5.2815154     170.2227   0.03283617   0.03252538           11 
  433000   0.57688227   -5.2980694    170.06607  0.032730191  0.032442958           18 
  434000   0.57119792   -5.3104515    169.89719  0.032622348  0.032360458           31 
  435000   0.56468335   -5.3061624    170.22203  0.032609584  0.032278352           14 
  436000   0.57727681   -5.2851454    170.13772  0.032518677  0.032196828           19 
  437000    0.5612389   -5.3145659    169.91208  0.032401235  0.032114894           28 
  438000   0.56980031   -5.3044949    170.04283  0.032352137  0.032032979           14 
  439000   0.56688995   -5.3130586    170.35104  0.032336948   0.03195127            9 
  440000   0.55938619   -5.2966673    169.98787  0.032194673    0.0318701           19 
  441000   0.56771295    -5.302877    170.54084  0.032226161  0.031789173           14 
  442000   0.56208093   -5.3076252    170.13584  0.032076893  0.031708044           23 
  443000   0.56167286   -5.3379586    169.98966  0.031976986  0.031626607           10 
  444000   0.56535685   -5.3141061    170.06865  0.031919791  0.031545378           17 
  445000   0.55939252   -5.3334292      169.883  0.031813296  0.031463784           18 
  446000   0.55192291   -5.3418526    169.88597  0.031742521  0.031382212           17 
  447000   0.56215444   -5.3558493    170.19413  0.031728959  0.031301272           34 
  448000   0.55996393   -5.3339413    170.33502  0.031684341  0.031220574           36 
  449000   0.55083373   -5.3403539    170.01702  0.031554755  0.031140208           18 
  450000   0.55467037   -5.3307195    170.20381  0.031519225  0.031060318           18 
  451000   0.53622273   -5.3560689    170.51329  0.031506521   0.03098027           11 
  452000   0.54263471   -5.3400358    169.90973  0.031325539  0.030899977           14 
  453000    0.5476328   -5.3694045    170.26116  0.031321037  0.030819818           23 
  454000   0.54896102   -5.3583265    169.73478  0.031155429  0.030739849           28 
  455000   0.54852584   -5.3400721    169.76704  0.031092865  0.030659816           16 
  456000   0.54698759   -5.3761671    169.86237    0.0310421  0.030579531           36 
  457000   0.53878559   -5.3873979    169.72114   0.03094842  0.030499319           14 
  458000    0.5310048   -5.3847283    169.69036  0.030875247  0.030419224           23 
  459000   0.53623287   -5.3765594    169.95032  0.030855178  0.030339282           18 
  460000   0.53851535    -5.376549     169.9269  0.030783859  0.030259454           13 
  461000   0.52627125   -5.3659456      169.756   0.03068619  0.030179898           19 
  462000   0.52849208   -5.3863337    169.74689  0.030618125  0.030100417           30 
  463000   0.52152336   -5.3941853    170.03785  0.030604365  0.030021289           23 
  464000   0.52205529   -5.3908846    170.16499  0.030561242  0.029942401           27 
  465000   0.53733302   -5.4068141    169.89104  0.030446422  0.029863931           29 
  466000    0.5303543   -5.4171718    169.49467  0.030310206  0.029785209           29 
  467000   0.52739142   -5.4144451    170.08007  0.030349763  0.029706556           43 
  468000   0.51788376   -5.4346508    170.11374  0.030290908  0.029628387           20 
  469000   0.51792516   -5.4240079     170.0183  0.030209364  0.029550318           33 
  470000   0.51900772   -5.4314668     169.5162  0.030056063  0.029472521           14 
  471000   0.52272213    -5.425139    170.09227  0.030094174  0.029394637           40 
  472000   0.51383352    -5.436023    170.01659  0.030017053  0.029317051           35 
  473000   0.50973464   -5.4415081    170.06529  0.029962173  0.029239592           27 
  474000   0.49978924   -5.4623148    169.74803  0.029843185  0.029162115           13 
  475000   0.50923612   -5.4243624    169.72141  0.029775687    0.0290849           13 
  476000   0.50007787   -5.4463104     169.7793  0.029723267  0.029008013           11 
  477000    0.5101576    -5.426994    169.66093  0.029640275  0.028931095           34 
  478000   0.50177697   -5.4497364    169.78824  0.029600461  0.028854362           25 
  479000   0.50241562    -5.460077    169.48503  0.029485913  0.028777667           17 
  480000   0.50300965   -5.4609973    169.63683  0.029450838  0.028701199           14 
  481000   0.49795606    -5.459651    169.91014  0.029436962  0.028624913           19 
  482000   0.49607861   -5.4680347    169.55797  0.029315001  0.028548803           19 
  483000   0.48026329   -5.4699179    169.79502  0.029295208  0.028472788           20 
  484000   0.50851621   -5.4657645    169.62552  0.029205495  0.028396825           34 
  485000   0.48744374    -5.459018     169.6003  0.029140944  0.028320983           35 
  486000   0.48833906   -5.4637787    169.60329  0.029081497  0.028245441           32 
  487000   0.48252014   -5.4670899    169.58508  0.029018665  0.028170046           21 
  488000   0.50474863   -5.4836891    169.34579  0.028918338  0.028094855           28 
  489000   0.47798285   -5.4876844    169.41247  0.028870565  0.028019352           40 
  490000   0.49593744    -5.502816    169.51196  0.028828564  0.027944088           59 
  491000   0.48444926   -5.5055266    169.02549  0.028687286  0.027869107           99 
  492000   0.48794712   -5.4970738    168.87129   0.02860286  0.027794062           75 
  493000   0.48227333   -5.4952255    169.35868  0.028627228  0.027719232           43 
  494000   0.48580734   -5.4983959    169.44563  0.028583946  0.027644449          111 
  495000   0.48818262   -5.5136029    169.11787  0.028471022  0.027569896           48 
  496000   0.47832953   -5.5102293    169.50446  0.028478572  0.027495448           74 
  497000   0.47486852   -5.5171963    169.19257  0.028368975  0.027421222           94 
  498000   0.48322661   -5.5088435     168.8447  0.028253798  0.027347234           41 
  499000   0.46606314   -5.5149861    168.58763  0.028154246  0.027273221           46 
  500000   0.47795016   -5.5150224    168.98307  0.028163845  0.027199366           45 
  501000   0.46943525   -5.5151997    169.16176  0.028137351   0.02712576           33 
  502000   0.46204836   -5.5255595    168.84061   0.02802799  0.027052189           57 
  503000   0.46091503   -5.5350039    169.37823  0.028061336  0.026978779           57 
  504000   0.47317431   -5.5342715    169.07019  0.027954727   0.02690573           23 
  505000   0.46796779   -5.5563542    168.83238  0.027860129  0.026832664           22 
  506000   0.45479671   -5.5593439    168.78407  0.027797113  0.026759742           39 
  507000   0.46027066   -5.5500121    168.68116  0.027725371  0.026687069           24 
  508000   0.46222843     -5.56104    168.80638  0.027691336  0.026614676           31 
  509000   0.45345786   -5.5569413     168.7996  0.027635822   0.02654253           22 
  510000   0.44895626   -5.5757048    168.68309  0.027562597  0.026470377           52 
  511000   0.45962709    -5.573111      168.786  0.027525441  0.026398574           34 
  512000   0.44525202   -5.5608014    169.07451  0.027518638  0.026326824           37 
Loop time of 1256.5 on 48 procs for 500000 steps with 4000 atoms

Performance: 68762.602 tau/day, 397.932 timesteps/s
99.4% CPU use with 48 MPI tasks x no OpenMP threads

MPI task timing breakdown:
Section |  min time  |  avg time  |  max time  |%varavg| %total
---------------------------------------------------------------
Pair    | 86.518     | 91.465     | 96.895     |  28.9 |  7.28
Neigh   | 8.5219     | 8.85       | 9.1853     |   6.0 |  0.70
Comm    | 81.363     | 87.333     | 93.45      |  33.8 |  6.95
Output  | 0.8632     | 0.86438    | 0.90686    |   0.7 |  0.07
Modify  | 1050.4     | 1056.3     | 1060.1     |   5.7 | 84.07
Other   |            | 11.64      |            |       |  0.93

Nlocal:        83.3333 ave          91 max          77 min
Histogram: 5 1 8 4 6 15 2 3 1 3
Nghost:        2308.46 ave        2328 max        2293 min
Histogram: 6 4 6 5 6 4 10 4 1 2
Neighs:        15698.8 ave       17639 max       14357 min
Histogram: 4 4 8 10 6 5 7 2 1 1
FullNghs:      31397.0 ave       34629 max       28530 min
Histogram: 2 4 3 8 12 9 3 3 2 2

Total # of neighbors = 1507057
Ave neighs/atom = 376.76425
Neighbor list builds = 26961
Dangerous builds = 0

#clear
#
#next RN
#
#jump SELF
Total wall time: 0:20:59
