
units lj                  # Use reduced LJ style units
atom_style atomic         # Uncharged point particles
atom_modify map hash      # Needed for indexing of clusters etc
                          # Used to be able to find where atoms are in relation to each other.

lattice fcc 1.0 spacing 1 1 1
Lattice spacing in x,y,z = 1.5874011 1.5874011 1.5874011
region box block 0 10 0 10 0 10 units lattice
create_box 2 box
Created orthogonal box = (0.0000000 0.0000000 0.0000000) to (15.874011 15.874011 15.874011)
  3 by 4 by 4 MPI processor grid
create_atoms 1 box
Created 4000 atoms
  using lattice units in orthogonal box = (0.0000000 0.0000000 0.0000000) to (15.874011 15.874011 15.874011)
  create_atoms CPU = 0.002 seconds
set type 1 type/fraction 2 0.88 78393
Setting atom values ...
  3511 settings made for type/fraction
mass 1 1.0
mass 2 1.0
pair_style lj/cut  3.5
pair_modify tail  yes
pair_coeff 1  1  1.0  1.0   # Intearaction between 1 and 1 set with epsilon = 1 and sigma = 1
pair_coeff 1  2  1.5  0.8
pair_coeff 2  2  0.5  0.88

write_data data.0
System init for write_data ...
Neighbor list info ...
  update every 1 steps, delay 10 steps, check yes
  max neighbors/atom: 2000, page size: 100000
  master list distance cutoff = 3.8
  ghost atom cutoff = 3.8
  binsize = 1.9, bins = 9 9 9
  1 neighbor lists, perpetual/occasional/extra = 1 0 0
  (1) pair lj/cut, perpetual
      attributes: half, newton on
      pair build: half/bin/atomonly/newton
      stencil: half/bin/3d
      bin: standard
WARNING: Not all mixed pair coeffs generated from mixing. Use write_data with 'pair ij' option to store all pair coeffs. (../write_data.cpp:312)


#############################
#   M E L T   S Y S T E M   #
#############################

velocity all create 2.4 1741580 mom yes dist gaussian # Assign velocities
                                                    # Temperature 2.4, random number seed, zero linear momentum
                                                                                # Gaussian distribution

timestep 0.002   # simulation timestep
thermo 1000       # output thermodynamic data every 1000 steps bf 100

# Define a fix  in this case with index 1 applied to all
# particles in the simulation. This fix is for simulations
# in the anisotropic NPT ensemble. Note that we use the MTK
# correction.
fix 1 all npt temp 2.4 2.4 0.1 iso 5.68 5.68 0.5 mtk yes tchain 5 pchain 5 # Use NPT ensemble
                                                                         # Set temperature and pressure and damping
                                                                         # Numbers of thermostats in chain and in barostat
run 10000          # run for 10000 steps
Per MPI rank memory allocation (min/avg/max) = 3.642 | 3.644 | 3.648 Mbytes
Step Temp E_pair E_mol TotEng Press Volume 
       0          2.4   -3.2921436            0   0.30695645   -2.7369977         4000 
    1000    2.3193526   -2.4125412            0     1.065618    5.4518683    3971.3543 
    2000    2.3998935   -2.3937496            0    1.2051907    5.6803784    3950.2269 
    3000     2.348264   -2.3492571            0    1.1722583    5.6953654    3983.0391 
    4000    2.3846747   -2.4008289            0    1.1752889    5.5680177     3961.443 
    5000     2.369964   -2.3643669            0    1.1896904    5.6320054    3979.4668 
    6000    2.3669852   -2.3947215            0    1.1548688    5.6320677    3958.1763 
    7000    2.4628974   -2.3881885            0    1.3052339    5.9641623     3927.704 
    8000    2.3764299   -2.3804131            0    1.1833405    5.7466381      3944.61 
    9000    2.3690155   -2.3708523            0    1.1817825     5.806029    3961.9191 
   10000    2.3845185   -2.3968834            0    1.1790001    5.7466324    3942.6726 
Loop time of 2.4807 on 48 procs for 10000 steps with 4000 atoms

Performance: 696578.371 tau/day, 4031.125 timesteps/s
99.6% CPU use with 48 MPI tasks x no OpenMP threads

MPI task timing breakdown:
Section |  min time  |  avg time  |  max time  |%varavg| %total
---------------------------------------------------------------
Pair    | 1.1065     | 1.1637     | 1.2358     |   3.2 | 46.91
Neigh   | 0.20962    | 0.21707    | 0.23294    |   1.0 |  8.75
Comm    | 0.76013    | 0.84462    | 0.92938    |   4.1 | 34.05
Output  | 0.00024103 | 0.00024915 | 0.0003834  |   0.0 |  0.01
Modify  | 0.2071     | 0.24001    | 0.26396    |   3.4 |  9.68
Other   |            | 0.01505    |            |       |  0.61

Nlocal:        83.3333 ave          92 max          75 min
Histogram: 1 5 7 6 7 9 2 5 3 3
Nghost:        1660.94 ave        1695 max        1627 min
Histogram: 3 1 9 7 8 3 5 3 5 4
Neighs:        9685.98 ave       11312 max        8444 min
Histogram: 2 4 9 10 6 6 5 1 3 2

Total # of neighbors = 464927
Ave neighs/atom = 116.23175
Neighbor list builds = 909
Dangerous builds = 232

# Equilibrate just above the melting temperature to avoid step fn in T

fix 1 all npt temp 1.25 1.25 0.1 iso 5.68 5.68 0.5 mtk yes tchain 5 pchain 5
run 2000
Per MPI rank memory allocation (min/avg/max) = 3.643 | 3.645 | 3.649 Mbytes
Step Temp E_pair E_mol TotEng Press Volume 
   10000    2.3845185   -2.3968834            0    1.1790001    5.7466324    3942.6726 
   11000    1.2562074   -3.5747284            0   -1.6908884    5.7542337    3057.1879 
   12000    1.2681268   -3.5683046            0     -1.66659    5.6476004    3070.0617 
Loop time of 0.611733 on 48 procs for 2000 steps with 4000 atoms

Performance: 564952.678 tau/day, 3269.402 timesteps/s
99.7% CPU use with 48 MPI tasks x no OpenMP threads

MPI task timing breakdown:
Section |  min time  |  avg time  |  max time  |%varavg| %total
---------------------------------------------------------------
Pair    | 0.27669    | 0.29691    | 0.32401    |   2.1 | 48.54
Neigh   | 0.03955    | 0.042031   | 0.046733   |   0.7 |  6.87
Comm    | 0.1937     | 0.22251    | 0.24488    |   2.8 | 36.37
Output  | 5.0988e-05 | 5.2917e-05 | 6.8107e-05 |   0.0 |  0.01
Modify  | 0.040129   | 0.045351   | 0.04952    |   1.3 |  7.41
Other   |            | 0.004875   |            |       |  0.80

Nlocal:        83.3333 ave          93 max          73 min
Histogram: 1 3 2 5 10 6 8 6 6 1
Nghost:        1966.15 ave        1983 max        1948 min
Histogram: 1 4 6 4 10 3 5 8 5 2
Neighs:        12446.5 ave       14354 max       10714 min
Histogram: 3 4 2 8 8 9 5 5 3 1

Total # of neighbors = 597431
Ave neighs/atom = 149.35775
Neighbor list builds = 143
Dangerous builds = 13

#############################
# L I N E A R  Q U E N C H  #
#############################

# Define solid atoms. This closely follows ten Wolde  Ruiz-Montero and Frenkel  Faraday Discuss  1996  104  93-110
# Compute components of the per-atom q6 vector
compute q6 all orientorder/atom degrees 1 6 components 6 nnn NULL cutoff 1.3 # compute the Q6 parameter.
                                                                             # Use all neighbours within 1.3 unit cell.

# get number of connections
compute coord_number all coord/atom orientorder q6 0.5

# An atom is solid if it has 8 or more connections (of a possible 14)
variable is_solid atom c_coord_number>=8
group solid dynamic all var is_solid    # Must be dynamic to update
dynamic group solid defined

# do clustering
compute cluster solid cluster/atom 1.3 # Create a cluster where all atoms within are solid and max 1.3 units from another member

# define chunks one chunk per cluster
compute clus_chunks solid chunk/atom c_cluster nchunk every compress yes  # Says which atoms are in which chunk

# count the size of each chunk
compute size_chunks solid property/chunk clus_chunks count


# Find the maximum entry in the vector of chunk sizes
variable max_n equal max(c_size_chunks)


# Thermo style which includes this variable
# thermo_style custom step temp pe vol v_max_n

thermo ${N}  # Print the thermo information every 100 steps
thermo 1000  

# Reset the npt fix at a lower temperature (below freezing)
fix 1  all npt temp  ${temp} ${temp}  0.1  iso  5.68  5.68  0.5  mtk yes tchain  5  pchain  5
fix 1  all npt temp  0.45 ${temp}  0.1  iso  5.68  5.68  0.5  mtk yes tchain  5  pchain  5
fix 1  all npt temp  0.45 0.45  0.1  iso  5.68  5.68  0.5  mtk yes tchain  5  pchain  5

dump dmp2 all dcd ${N} traj.dcd
dump dmp2 all dcd 1000 traj.dcd


compute msd all msd com yes
variable twopoint equal c_msd[4]/6/(step*dt+1.0e-6)
fix 9 all vector 10 c_msd[4]
variable fit equal slope(f_9)/6/(10*dt)
thermo_style custom step temp pe c_msd[4] v_twopoint v_fit v_max_n

fix 1 all npt temp 1.25 ${temp} 0.1 iso 5.68 5.68 0.5 mtk yes tchain 5 pchain 5
fix 1 all npt temp 1.25 0.45 0.1 iso 5.68 5.68 0.5 mtk yes tchain 5 pchain 5
run 5000000 # 5000000  # Run for this many steps
Neighbor list info ...
  update every 1 steps, delay 10 steps, check yes
  max neighbors/atom: 2000, page size: 100000
  master list distance cutoff = 3.8
  ghost atom cutoff = 3.8
  binsize = 1.9, bins = 8 8 8
  4 neighbor lists, perpetual/occasional/extra = 1 3 0
  (1) pair lj/cut, perpetual
      attributes: half, newton on
      pair build: half/bin/atomonly/newton
      stencil: half/bin/3d
      bin: standard
  (2) compute orientorder/atom, occasional
      attributes: full, newton on
      pair build: full/bin/atomonly
      stencil: full/bin/3d
      bin: standard
  (3) compute coord/atom, occasional
      attributes: full, newton on
      pair build: full/bin/atomonly
      stencil: full/bin/3d
      bin: standard
  (4) compute cluster/atom, occasional
      attributes: full, newton on
      pair build: full/bin/atomonly
      stencil: full/bin/3d
      bin: standard
Per MPI rank memory allocation (min/avg/max) = 9.826 | 9.831 | 9.838 Mbytes
Step Temp PotEng c_msd[4] v_twopoint v_fit v_max_n 
   12000    1.2681268   -3.5683046 1.9721523e-34 1.3695501e-36 8.3333333e+20            1 
   13000    1.2218952   -3.5823809   0.94391309 0.0060507247  0.079190961            1 
   14000    1.2556278   -3.5747369    1.9537063  0.011629204  0.081771478            2 
   15000    1.2418609    -3.578535    2.9876928  0.016598293  0.084080965            2 
   16000    1.2590835   -3.5453366    3.9945865  0.020805137  0.084571861            2 
   17000    1.2177356   -3.5813763    4.9672833  0.024349427  0.084041402            2 
   18000    1.2504133   -3.5861861    5.9850102   0.02770838  0.083845031            2 
   19000    1.2337712   -3.5736942    7.0184217   0.03078255  0.084214071            2 
   20000    1.2687608    -3.595741    8.0423712  0.033509879  0.084602558            2 
   21000    1.2384564   -3.5636425    9.1220132  0.036198464  0.084705146            3 
   22000    1.2480825   -3.5540596    10.152487  0.038456389  0.084857083            1 
   23000    1.2606887   -3.5778909    11.177924  0.040499724  0.085205489            1 
   24000    1.2639793   -3.5641809    12.103043  0.042024452  0.085189002            2 
   25000    1.2470237   -3.5459884    13.341572  0.044471906  0.085313508            2 
   26000    1.2537657   -3.5611388    14.546534  0.046623504   0.08578285            4 
   27000    1.2460107   -3.5533956    15.670111  0.048364538  0.086421663            2 
   28000    1.2517522   -3.5631809    16.724424  0.049775071  0.087006101            2 
   29000    1.2425588   -3.5607719    17.716117  0.050908381  0.087331176            3 
   30000    1.2734632   -3.5585829    18.864118  0.052400327  0.087592277            2 
   31000    1.2345538   -3.5737008    19.995408  0.053751096  0.087858208            2 
   32000    1.2509149   -3.5806718    21.001332  0.054690969   0.08812059            3 
   33000    1.2459444   -3.5831559    22.053433  0.055690485  0.088287711            1 
   34000    1.2675357   -3.5583757    23.118653  0.056663365  0.088369875            1 
   35000    1.2535647   -3.5862825    24.106893  0.057397363  0.088452838            1 
   36000    1.2241075   -3.5798378    25.059105  0.058007187  0.088443661            2 
   37000    1.2564705   -3.5651089    25.964889   0.05847948   0.08832378            2 
   38000    1.2414844   -3.5863112    27.078741  0.059383204  0.088177955            3 
   39000    1.2207932   -3.5622423    28.057731  0.059952415  0.088061119            1 
   40000    1.2391638   -3.5653185      29.0057   0.06042854  0.087865852            1 
   41000    1.1998508   -3.5436547     29.87409  0.060719694  0.087637127            3 
   42000    1.2629725   -3.5977301    31.013431  0.061534585   0.08745553            4 
   43000    1.2577271   -3.5692496    31.864872  0.061753627  0.087209598            2 
   44000     1.222245   -3.5616105    32.710354  0.061951427   0.08694606            1 
   45000    1.2615602    -3.588513    33.369205  0.061794824  0.086598752            2 
   46000    1.2312611   -3.5745296    34.285927  0.062112185  0.086273945            1 
   47000     1.255359    -3.573267    35.386695  0.062742367  0.085938134            2 
   48000     1.240142   -3.5898508    36.213607  0.062870844  0.085655299            3 
   49000    1.2509388   -3.6009998    37.292099  0.063421937  0.085438373            3 
   50000    1.2355515   -3.5827203    38.436544  0.064060906  0.085186595            1 
   51000    1.2523196   -3.6417304    39.031103  0.063776311  0.084937101            2 
   52000    1.2266169    -3.592497    40.215741  0.064448303  0.084718254            1 
   53000     1.212965   -3.5967338     41.08867  0.064604826  0.084494098            5 
   54000    1.2129077   -3.6172914    41.842908  0.064572389  0.084249445            1 
   55000    1.2571237   -3.5720206    42.993864  0.065142218  0.084055494            2 
   56000     1.267833   -3.5765862     43.99393  0.065467157  0.083883872            3 
   57000    1.2491218    -3.593065    45.051132  0.065864227  0.083743995            2 
   58000    1.2221945   -3.5635422    46.180929  0.066351908  0.083631446            2 
   59000    1.2331281    -3.612404    47.123511  0.066558631  0.083541994            2 
   60000    1.2342176   -3.5762156    48.303238  0.067087829  0.083496289            2 
   61000    1.2296468   -3.6101706    48.862181  0.066751613  0.083431967            1 
   62000     1.258117   -3.5887658    49.941239   0.06712532  0.083350306            1 
   63000    1.2282649   -3.5987822    50.712213  0.067079646  0.083240061            2 
   64000    1.2763035   -3.6007419    51.656008  0.067260427  0.083107056            2 
   65000    1.2535094   -3.5815241    52.440002  0.067230772  0.082957336            2 
   66000     1.270508    -3.581495    53.224017  0.067202041  0.082797961            2 
   67000    1.2690223   -3.6368806    54.495891  0.067780958  0.082688055            2 
   68000    1.2507308   -3.5865231    55.641006  0.068187507  0.082605811            1 
   69000    1.2218139   -3.5538744    56.695951   0.06847337  0.082539135            1 
   70000    1.2224797   -3.6178676    57.748478  0.068748187  0.082474465            4 
   71000    1.2428723   -3.5795853     59.02908  0.069282957  0.082438577            1 
   72000    1.2483483   -3.5792968     59.84807  0.069268599  0.082425849            2 
   73000    1.2437998    -3.605819     60.88401  0.069502294   0.08242465            2 
   74000    1.2518191   -3.5851765    62.069079  0.069897611  0.082408947            2 
   75000    1.2684276   -3.6185249    62.794875  0.069772083  0.082394619            1 
   76000    1.2354867   -3.5988307    63.877705  0.070041342  0.082379226            2 
   77000     1.230622   -3.5769225    64.883875  0.070220644  0.082363395            2 
   78000    1.2292763   -3.5907525    65.816401  0.070316667  0.082355781            1 
   79000     1.283223   -3.5479006    66.886541  0.070555422  0.082344934            2 
   80000    1.2446588   -3.6023996    67.676798  0.070496664  0.082345134            1 
   81000    1.2101687   -3.5780555     69.07371  0.071063487  0.082354137            4 
   82000     1.251147   -3.5853496    69.911222  0.071047989  0.082356084            1 
   83000     1.241522   -3.5986272    70.653339  0.070937087  0.082363244            2 
   84000    1.2415018    -3.565868    72.276252  0.071702631  0.082369309            1 
   85000    1.2560612   -3.5993784    72.848047  0.071419653  0.082382361            2 
   86000    1.2489931   -3.5859635    73.906537  0.071614861  0.082385125            1 
   87000    1.2248769   -3.6348998     74.67913  0.071531733  0.082381594            1 
   88000    1.2548448   -3.6067383    75.956926  0.071928906  0.082391461            2 
   89000    1.2319144   -3.5861804    76.970435  0.072069695  0.082417813            2 
   90000    1.2264261     -3.58325    77.801838  0.072038739  0.082437585            1 
   91000    1.2298688   -3.6073907     79.36007  0.072674057  0.082467852            4 
   92000    1.2394185   -3.5853743    80.361577  0.072791283  0.082517151            1 
   93000    1.2327821   -3.5922604    81.709563  0.073216454  0.082561861            1 
   94000    1.2377614   -3.6169607    82.921684  0.073512131  0.082623213            2 
   95000    1.2463117   -3.5710094    83.802285  0.073510776  0.082676536            1 
   96000    1.1870449   -3.6056228    84.511465  0.073360646  0.082722938            2 
   97000    1.2443285   -3.5790447    85.648113  0.073580852  0.082757915            2 
   98000    1.2396226    -3.571907    86.688636  0.073714826  0.082799083            1 
   99000    1.2594529    -3.567028     87.75107  0.073864536  0.082837637            2 
  100000    1.2659151   -3.5628717    88.820888  0.074017406  0.082868651            3 
  101000    1.2443728   -3.6107882    89.405967  0.073767299   0.08289631            3 
  102000    1.2627239   -3.5933726    90.324006  0.073794122  0.082919734            4 
  103000    1.2509332   -3.6039599    91.286024  0.073856006    0.0829462            1 
  104000    1.2159494   -3.5766729    92.655269  0.074243003  0.082977906            2 
  105000    1.2422335   -3.5869867    92.808337   0.07365741   0.08299241            2 
  106000    1.2214924   -3.5823956    94.627609  0.074392774  0.083010099            1 
  107000    1.2489655   -3.5465926    95.297755  0.074219435  0.083025428            4 
  108000    1.2296734   -3.6033402    95.766399  0.073893826  0.083026389            2 
  109000    1.2369994    -3.592603    97.296467  0.074385678  0.083026713            2 
  110000    1.2349997   -3.6201969    97.930629   0.07418987  0.083026877            1 
  111000    1.2147978   -3.5999974     99.10543  0.074403475  0.083029147            1 
  112000    1.2533007   -3.6010208    100.05928   0.07444887  0.083043588            2 
  113000    1.2462135     -3.56919    101.11945  0.074571865  0.083039112            2 
  114000     1.223306   -3.6082563    101.78653  0.074405356  0.083023313            1 
  115000    1.2315269   -3.6150371    103.36147  0.074899615  0.083015555            3 
  116000    1.2375641   -3.5642837    104.40116  0.075000833  0.083031442            1 
  117000    1.2325764   -3.6220436    104.67841   0.07455727   0.08304381            1 
  118000    1.2243619    -3.601097    106.45393  0.075179326  0.083059698            1 
  119000    1.2378388   -3.6177386    106.88415  0.074848842  0.083061642            4 
  120000    1.2429272   -3.5935322    107.87804  0.074915308  0.083068173            2 
  121000    1.2171093   -3.5806875    110.04071  0.075785611   0.08308613            2 
  122000    1.2525768   -3.6099456    111.42796  0.076111991  0.083116228            2 
  123000    1.2678756   -3.6202571    111.82648  0.075763197  0.083158868            2 
  124000    1.2157459   -3.6179028    112.92128  0.075887959   0.08319712            3 
  125000    1.2297989   -3.6126101    114.27437  0.076182914  0.083239056            1 
  126000     1.255307   -3.6107304    115.22566  0.076207449  0.083280316            2 
  127000    1.2175961   -3.5961911    116.33233  0.076333551  0.083316091            2 
  128000     1.244579   -3.6133454    117.59081  0.076556516  0.083364597            1 
  129000    1.2343647   -3.5839713    118.44373   0.07651404   0.08341153            1 
  130000    1.2432203   -3.5806687    119.94425   0.07688734  0.083453924            2 
  131000    1.2372892   -3.5992998     120.3553  0.076561894  0.083498597            1 
  132000    1.2379123   -3.5738613     121.9477  0.076987183  0.083537543            1 
  133000    1.2346984   -3.6200927    122.96586  0.077046279  0.083582337            1 
  134000    1.2141792   -3.6250866    123.88628  0.077043706  0.083636219            3 
  135000    1.2526332   -3.6163744    125.27981  0.077333214  0.083684052            1 
  136000     1.241315   -3.6061552    125.83148  0.077102621  0.083724413            3 
  137000    1.2366591   -3.5726787    127.14133  0.077336574  0.083767348            2 
  138000    1.2607599   -3.5863292     128.6488  0.077686474  0.083800083            3 
  139000    1.2384048   -3.6310474    127.99351  0.076734718  0.083831984            2 
  140000    1.2324299   -3.5890809    129.23806  0.076927417  0.083855218            1 
  141000    1.2346884   -3.6078896    129.57964  0.076583712  0.083877314            3 
  142000    1.2341964   -3.5651392    131.42133  0.077125195   0.08389012            1 
  143000    1.2034454   -3.6123164     132.1193  0.076992601  0.083889516            2 
  144000     1.219065   -3.5878349    132.80962   0.07685742  0.083889263            2 
  145000    1.2227148   -3.5895796    134.53824  0.077320826  0.083893777            2 
  146000    1.2217738    -3.586633    135.85175  0.077540956  0.083902769            3 
  147000    1.1831254   -3.5932461    136.65616  0.077469479  0.083920342            2 
  148000    1.2161006   -3.6382499    136.92271  0.077096119  0.083929925            3 
  149000    1.2000448   -3.6128173     137.3113  0.076796028  0.083931572            1 
  150000    1.2388094   -3.6453439    139.36019   0.07742233  0.083936192            3 
  151000    1.2435185   -3.6044863    140.28237  0.077418528  0.083943274            2 
  152000    1.2232537   -3.6163916    141.58884  0.077625461  0.083957965            2 
  153000    1.2217443    -3.648237    141.86761  0.077269941  0.083966398            2 
  154000    1.2266358   -3.5948625    143.26961  0.077526847  0.083973326            1 
  155000    1.2096682   -3.6139048    144.48742   0.07768141  0.083982005            3 
  156000    1.2163426    -3.609243    145.34872  0.077643547   0.08398974            5 
  157000    1.2138904   -3.6028188    147.17553  0.078118645    0.0839998            2 
  158000    1.2228564    -3.587841    147.62555  0.077861575  0.084009153            2 
  159000    1.2299235   -3.6078741    147.53685  0.077325392  0.084009914            2 
  160000    1.2345681    -3.610167    149.08498  0.077648427  0.084008361            3 
  161000    1.2273922   -3.6258687    150.14774  0.077716223  0.084009114            2 
  162000    1.2382662   -3.6348249    151.17675  0.077765817  0.084012678            2 
  163000    1.2322776   -3.6374954    151.25501  0.077328738  0.084012893            2 
  164000    1.2643767   -3.6525652    152.26492  0.077370386  0.084002456            2 
  165000    1.2248202   -3.5927698    153.75991  0.077656518  0.083989091            1 
  166000    1.2466446   -3.5890819    154.63013  0.077625568  0.083977886            2 
  167000    1.2452181    -3.583211    155.77286  0.077730966  0.083973546            1 
  168000    1.2169023   -3.5962018    156.29248  0.077526031  0.083963208            1 
  169000    1.2139499   -3.6057087    157.23985  0.077534444  0.083948276            1 
  170000    1.2438384   -3.5884065    158.35537  0.077625181  0.083927676            1 
  171000    1.2178121   -3.6113781    159.01861  0.077494449  0.083911419            1 
  172000    1.2204584   -3.6118762    160.25008  0.077640545  0.083887735            3 
  173000    1.2163077   -3.6169589    160.88298  0.077496616  0.083869325            1 
  174000    1.2409935    -3.626856    161.53092   0.07736155  0.083855424            5 
  175000    1.2172748   -3.6127542    162.52356   0.07739217  0.083828912            3 
  176000     1.211559   -3.6038083    163.33486  0.077336583  0.083802101            1 
  177000    1.2429471   -3.6385728    164.00229  0.077213886  0.083771579            2 
  178000    1.2407427   -3.6251441    164.80719  0.077156925  0.083736246            3 
  179000    1.2197966   -3.5934296     165.8025  0.077189245  0.083698028            1 
  180000    1.2284389   -3.6162323    166.78478  0.077215176  0.083659659            1 
  181000    1.2106987   -3.6032623    168.30787  0.077489813  0.083627424            2 
  182000     1.223356   -3.5992083    168.43544  0.077122453  0.083592112            2 
  183000    1.2299533   -3.5976422    169.11961  0.077012573  0.083545348            1 
  184000    1.2267546   -3.5657162    170.55764  0.077245309  0.083504528            1 
  185000    1.2047269   -3.6073891    171.64247  0.077316428  0.083469647            3 
  186000    1.2157038   -3.6339893    171.55487    0.0768615  0.083433313            2 
  187000    1.2342136   -3.6050386    172.89035  0.077045611  0.083395607            3 
  188000    1.2212444   -3.6315808    173.64078  0.076968432  0.083356851            1 
  189000    1.1953498   -3.6177391    174.08723  0.076758038  0.083320832            3 
  190000    1.2187922    -3.639188    176.48996  0.077407877   0.08328228            1 
  191000    1.2228813   -3.6018649     177.8891  0.077613045  0.083250768            2 
  192000    1.1987144   -3.6196476    178.27082  0.077374489  0.083222951            2 
  193000    1.2380937   -3.6051318     179.4491  0.077482339  0.083194583            1 
  194000    1.2261523   -3.6258637    180.72766  0.077632155  0.083178859            2 
  195000    1.2000465      -3.5913    181.29489  0.077476449  0.083156302            2 
  196000    1.2247438   -3.6040628    182.39883  0.077550522  0.083136567            1 
  197000    1.2190373   -3.6517187    183.15831  0.077478134  0.083119155            2 
  198000    1.1900665     -3.60228    184.41936  0.077617578  0.083104215            2 
  199000     1.233149   -3.6224843      186.501  0.078099246  0.083086089            1 
  200000     1.245686   -3.6438605    185.98377  0.077493239  0.083069008            2 
  201000    1.2218762     -3.62485    187.82537  0.077871214  0.083053869            1 
  202000    1.2383513   -3.5917509    188.81318  0.077893225  0.083036252            1 
  203000    1.2120103   -3.6411349    189.42808  0.077761938  0.083025607            2 
  204000     1.217513   -3.6376884     190.7863  0.077935581  0.083012736            1 
  205000    1.2272401   -3.6313749     192.0966  0.078088049   0.08300164            2 
  206000     1.206135    -3.601864    193.33892  0.078211536  0.082994183            1 
  207000    1.2274953   -3.5749319     194.9826  0.078495411  0.082990458            2 
  208000    1.2081543   -3.6128699    195.85799  0.078468748   0.08298977            1 
  209000    1.2164024   -3.5933927    196.31754  0.078276533  0.082986337            3 
  210000    1.2116658   -3.6285486    196.35317  0.077917925  0.082985901            4 
  211000    1.2402946   -3.6090233    198.55953  0.078420034  0.082983937            1 
  212000    1.1910637   -3.6360187     199.9028  0.078578144  0.082984641            3 
  213000    1.2473257   -3.5974473    199.66317   0.07811548  0.082979889            2 
  214000    1.2030179   -3.6355322    201.02556   0.07828098  0.082976644            2 
  215000    1.2091672    -3.647949    202.23144  0.078384277  0.082972588            2 
  216000    1.1896893   -3.6292275    203.71562  0.078593991  0.082963535            6 
  217000    1.2391918   -3.5956054    205.02164  0.078733349  0.082962092            1 
  218000     1.182411   -3.6300798    205.14091   0.07841778  0.082960042            2 
  219000    1.1777508   -3.5883135    205.90992  0.078352329  0.082951132            4 
  220000    1.1674011   -3.6127419    206.12323  0.078076982  0.082941093            1 
  221000    1.2396988   -3.6130877    207.65931  0.078302909  0.082934425            4 
  222000    1.2156085   -3.6553998    208.89438  0.078413805  0.082928772            2 
  223000    1.2322449   -3.6016475    210.21694  0.078556404  0.082925228            3 
  224000    1.2176256   -3.6077082    211.23704  0.078585207  0.082920815            1 
  225000    1.2309421   -3.6438166    211.95833  0.078503083  0.082915293            1 
  226000    1.2199579   -3.6001397    213.10801  0.078579648  0.082911521            2 
  227000    1.2163597   -3.6206586    213.80677  0.078490003  0.082905998            1 
  228000    1.1905226   -3.6236144    214.68171  0.078465536  0.082892504            2 
  229000    1.2032057   -3.6154438    215.52696  0.078430481  0.082878635            3 
  230000     1.206537    -3.652831     216.0577  0.078281777  0.082866098            2 
  231000     1.181137   -3.6300674    216.40001  0.078066381    0.0828474            1 
  232000    1.2173502   -3.5908661    217.97304  0.078294914   0.08282989            2 
  233000    1.2195439   -3.5975068    218.68641  0.078214024  0.082812667            2 
  234000    1.2485302   -3.6058226    219.24945   0.07808029  0.082792165            1 
  235000     1.214873   -3.6147975    220.98645  0.078363988  0.082773151            1 
  236000    1.2058046   -3.6397784    221.14668  0.078088516  0.082752735            2 
  237000    1.1787338   -3.5947083    222.03842  0.078072582  0.082733221            1 
  238000     1.229649   -3.6496141     223.1855  0.078146184  0.082714785            1 
  239000    1.2118189   -3.5967134    224.42311  0.078250734  0.082694162            5 
  240000    1.1852135   -3.6414824    225.44185  0.078278421  0.082677341            3 
  241000     1.200211   -3.6250955    227.29601  0.078594747  0.082659453            2 
  242000    1.2197408   -3.5989698    227.47678  0.078332223  0.082644446            3 
  243000    1.2219746   -3.6344899    227.77656  0.078112675  0.082627769            2 
  244000    1.2356694   -3.6004674    228.41293  0.078009882  0.082610273            2 
  245000    1.2325007   -3.6134073    230.58394  0.078429912  0.082594708            4 
  246000     1.204235   -3.6381417    231.23377  0.078331224  0.082578255            7 
  247000    1.2020498   -3.6027008     230.8224  0.077875305  0.082558639            2 
  248000     1.236718   -3.6222476    232.35366  0.078075826  0.082533476            2 
  249000     1.213543   -3.6439448    233.33818  0.078091761  0.082510857            3 
  250000    1.2014628   -3.6070028    234.77965  0.078259882  0.082487695            2 
  251000    1.2017304   -3.6561181    234.51397  0.077859883  0.082462575            3 
  252000    1.2184017   -3.6329257    235.66562  0.077931753  0.082436772            2 
  253000    1.2338816   -3.6258123    235.74576  0.077650119  0.082412864            2 
  254000    1.2186193   -3.6089625    239.26933  0.078500438  0.082388804            6 
  255000    1.2114163   -3.6172989    237.87004  0.077735308  0.082362586            2 
  256000    1.2109757    -3.654825    238.31837  0.077577594  0.082336181            2 
  257000    1.2091027   -3.6124372    240.47361  0.077974582  0.082309137            4 
  258000    1.2080591   -3.6362022     240.2406  0.077597092  0.082282011            4 
  259000    1.1916806   -3.6401439    241.14544  0.077588624  0.082252509            1 
  260000    1.2450916   -3.6380003     242.9977  0.077883876  0.082222121            1 
  261000    1.2208896   -3.5893192    244.11609  0.077942557   0.08219522            1 
  262000    1.1900682   -3.6258828    243.84799  0.077559794  0.082169591            1 
  263000    1.2116564   -3.6147637    245.22478  0.077701134  0.082143239            3 
  264000    1.2250867   -3.5803882    246.29898   0.07774589  0.082117357            2 
  265000    1.2026957   -3.6301844    246.36261  0.077472518  0.082085253            1 
  266000    1.2178742   -3.6387407    247.84652  0.077646153  0.082055629            2 
  267000    1.1950245   -3.6133485    249.34503  0.077823042   0.08202785            2 
  268000    1.2036402   -3.6525999    249.86183  0.077693354  0.082000788            2 
  269000    1.2018083   -3.6085819     251.0897  0.077784913  0.081975754            2 
  270000    1.2104357   -3.6332038    252.38923   0.07789791  0.081950672            3 
  271000    1.1905502   -3.6568086    252.84446  0.077750448  0.081929089            2 
  272000    1.2040119   -3.6127149    255.31324  0.078220969  0.081910828            1 
  273000    1.1953542   -3.6423838    254.82866  0.077786526  0.081888957            2 
  274000    1.2085677   -3.6145212    256.55078  0.078026393  0.081874276            1 
  275000    1.2047354   -3.6389996     258.0346  0.078192304  0.081855183            2 
  276000    1.1957932   -3.6122595    258.89117  0.078167623   0.08184031            4 
  277000    1.2001255   -3.6502728    259.45666  0.078055554  0.081823835            1 
  278000    1.2449129   -3.6477741    260.17815  0.077991051  0.081804204            1 
  279000    1.2157733   -3.6232362    260.97124  0.077948399  0.081787194            1 
  280000    1.2382625   -3.6391631    262.31957  0.078071301  0.081769889            1 
  281000    1.2070597   -3.6080746     264.1226  0.078328172   0.08175817            1 
  282000    1.2086343   -3.6289064    265.90445  0.078576965  0.081748969            2 
  283000      1.18486   -3.6425912    266.08964  0.078353839  0.081738948            3 
  284000    1.2117435   -3.6504551    268.22274  0.078703856  0.081730842            1 
  285000    1.2068391   -3.6373425    268.11764  0.078396972  0.081721378            6 
  286000    1.1906164     -3.63867    269.61026  0.078557769  0.081711465            1 
  287000    1.1882306   -3.6586255    270.34718  0.078498021     0.081704            2 
  288000    1.2297663   -3.6214333    270.53876   0.07828089  0.081691285            1 
  289000    1.1909624    -3.607217    271.99145  0.078428908  0.081674983            2 
  290000    1.2087933   -3.6567674    270.40384  0.077702252  0.081657122            2 
  291000    1.1976999   -3.6165283    272.73898  0.078103947  0.081641379            1 
  292000    1.2148308    -3.639657    273.71122  0.078113932  0.081623583            2 
  293000    1.2033852   -3.6231528    274.75156   0.07814322  0.081607027            1 
  294000    1.1951212   -3.6405652    274.55573  0.077821919  0.081593219            1 
  295000     1.190916    -3.618089     275.9988  0.077965763  0.081576767            1 
  296000    1.2113113   -3.6277191    277.94727  0.078250921  0.081561033            1 
  297000    1.2075347   -3.6415112    276.73649  0.077647724  0.081543271            2 
  298000    1.2103238    -3.659079    277.81135  0.077687738  0.081524333            2 
  299000    1.2071547   -3.6247703     279.8346  0.077991807  0.081504322            2 
  300000      1.20453   -3.6343722     280.4771  0.077910305  0.081486974            2 
  301000    1.2201739   -3.6332474    281.83297  0.078026845   0.08147104            1 
  302000    1.2086709   -3.6419218    283.22679  0.078153089  0.081455106            3 
  303000    1.2157048   -3.6394462    283.36986  0.077934506  0.081435582            2 
  304000    1.2148351   -3.6373812    284.19993  0.077905683  0.081417933            2 
  305000    1.1865815   -3.6755961    284.84653   0.07782692  0.081403365            7 
  306000    1.2155103   -3.6404608    286.58024  0.078044727  0.081389714            1 
  307000     1.230391    -3.593135    288.69229  0.078363814   0.08137574            2 
  308000    1.2036926    -3.634976    289.06828  0.078211116  0.081364895            2 
  309000     1.206315     -3.64451    289.25742  0.078009013  0.081354367            1 
  310000    1.2008304    -3.615554    292.15977  0.078537573   0.08134036            2 
  311000    1.1864663   -3.6652866     292.1476  0.078281779  0.081326861            1 
  312000    1.2036803    -3.658094    294.01052  0.078528451  0.081318551            2 
  313000    1.1966136   -3.6341385    293.78103  0.078216462  0.081308483            2 
  314000     1.203094   -3.6528904    293.98936  0.078022655  0.081296734            2 
  315000    1.1828058   -3.6345443    295.56578  0.078192006  0.081282978            1 
  316000     1.199422   -3.6597744    296.40922  0.078166989  0.081269916            1 
  317000    1.2137447    -3.651801    296.66873  0.077988624  0.081256068            2 
  318000    1.1954658   -3.6458114    298.44659  0.078209273  0.081241608            2 
  319000    1.1907069   -3.6412178    299.96627  0.078361094  0.081228871            2 
  320000    1.2010918   -3.6908023    298.47723  0.077728446  0.081216113            1 
  321000     1.189678   -3.6435408    301.04627  0.078153238  0.081202744            1 
  322000    1.2052657    -3.641513    303.16762  0.078459528  0.081191929            1 
  323000    1.2030273   -3.6014008     304.4533  0.078548323  0.081182875            2 
  324000    1.2048784   -3.6368227    304.16177  0.078230907  0.081170958            4 
  325000    1.1866736   -3.6545872    305.34964  0.078294778   0.08116146            1 
  326000    1.1794837   -3.6595856    305.77268  0.078162751  0.081148667            1 
  327000    1.1960236   -3.5865079    308.00831  0.078493453  0.081135839            2 
  328000    1.2346975   -3.6145906    308.54808   0.07839128  0.081125121            3 
  329000    1.2058263    -3.636081    308.49982  0.078140786  0.081112946            2 
  330000    1.1943589   -3.6456222    309.65847  0.078196584   0.08110311            2 
  331000    1.2127819   -3.6458615    310.52316  0.078178037  0.081091025            2 
  332000    1.2131655   -3.6352205    311.80373  0.078263988   0.08107762            3 
  333000    1.2350347   -3.6472791    311.30889  0.077905127  0.081063125            2 
  334000    1.1943137    -3.642892    311.36982  0.077687081   0.08104303            1 
  335000    1.1916717   -3.6224097    313.20666  0.077912103  0.081023044            2 
  336000    1.1915902   -3.6164571    312.91395  0.077607627  0.081000724            2 
  337000    1.2024865   -3.6507707     312.6993  0.077324257  0.080978127            1 
  338000    1.1671148   -3.6774793    317.52062  0.078284176  0.080958688            1 
  339000    1.1690098   -3.6680964    316.06827   0.07769623  0.080939763            2 
  340000    1.1828902   -3.6012958     319.7291  0.078364976  0.080924692            2 
  341000     1.179183   -3.6564835    319.59362  0.078102058  0.080910308            1 
  342000    1.2117506   -3.6492826    320.34341  0.078056385  0.080895908            2 
  343000    1.2135885   -3.6312012    320.28262  0.077814048  0.080879383            2 
  344000    1.1943681    -3.648439    321.39518   0.07785736  0.080864502            2 
  345000    1.2104748   -3.6850327    320.89524  0.077510926   0.08084879            1 
  346000    1.1807329   -3.6797001    322.10019  0.077577116  0.080832645            2 
  347000    1.2141447   -3.6525703     323.7386  0.077747022  0.080816399            1 
  348000    1.2083326   -3.6471568    325.41192  0.077924311  0.080801078            1 
  349000     1.177066   -3.6544998    327.18202   0.07812369  0.080784523            3 
  350000     1.200459   -3.6877397    327.02988  0.077864256  0.080770477            2 
  351000     1.210979    -3.629335    327.57711  0.077772344  0.080757362            2 
  352000    1.1955714   -3.6126466    329.48054  0.078002021  0.080744058            2 
  353000    1.1969292    -3.668428     331.1778  0.078181727  0.080728514            1 
  354000    1.2323839   -3.6166697    331.32751  0.077996117  0.080715583            1 
  355000    1.1750248   -3.6566127    331.46871  0.077809556  0.080700157            4 
  356000    1.2134976   -3.6377071    332.49028  0.077830121  0.080685355            2 
  357000    1.1889206   -3.6431337    333.26061  0.077791926  0.080668746            1 
  358000     1.195106   -3.6201881    335.52979  0.078102837  0.080653768            1 
  359000     1.204316   -3.6628384    335.22923  0.077815514  0.080638201            4 
  360000    1.2025807   -3.6302337     336.4964  0.077892684  0.080626614            4 
  361000    1.1975335   -3.6799681    336.52491  0.077683498  0.080612883            5 
  362000    1.1723181   -3.6390573    339.41504  0.078134218   0.08059693            1 
  363000    1.1660576   -3.6513907    339.23797  0.077878323    0.0805836            2 
  364000    1.1972245   -3.6754308     339.9543  0.077828364  0.080573506            1 
  365000    1.1972101   -3.6679933    342.24368  0.078137825   0.08056422            3 
  366000    1.2149602   -3.6461431    344.49916  0.078437877  0.080552963            2 
  367000    1.1716465   -3.6534321    345.01429  0.078341119  0.080541971            1 
  368000    1.1730817   -3.6103642    344.41742  0.077993075   0.08053286            2 
  369000    1.1814253   -3.6483995    345.51991  0.078030693  0.080521734            2 
  370000    1.2236191   -3.6526834    346.89904  0.078130414   0.08051326            3 
  371000    1.1927549   -3.6689991    346.46062  0.077821344  0.080503724            4 
  372000    1.2101696   -3.6705811    349.20109   0.07822605  0.080494362           11 
  373000    1.1921973   -3.6451397    348.51467  0.077862974  0.080486556            1 
  374000    1.1654164   -3.6652937    352.08957  0.078451329    0.0804802            3 
  375000    1.1976438   -3.6457468    351.80842  0.078179648    0.0804741            2 
  376000    1.2124001   -3.6594358    351.83634  0.077977912  0.080465663            4 
  377000    1.1938271   -3.6466805    353.19393   0.07807116  0.080456764            2 
  378000    1.1951303   -3.6370203    353.98272  0.078038519  0.080444054            3 
  379000    1.1931536    -3.650481    353.70902  0.077772431  0.080430192            2 
  380000    1.2159829   -3.6610674     354.1491  0.077664277  0.080417309            2 
  381000    1.1875591   -3.6566013    355.56999  0.077771214  0.080402245            2 
  382000    1.2094924   -3.6661863     356.6255  0.077797883  0.080391196            1 
  383000    1.1780882   -3.6478932    359.14666  0.078143311  0.080378219            1 
  384000    1.2052719   -3.6422864    358.80234  0.077865091  0.080366806            1 
  385000    1.2180428   -3.6879548    360.07346  0.077937978  0.080354942            3 
  386000    1.1798462    -3.651297    360.39259  0.077804964  0.080343124            3 
  387000    1.1757797   -3.6891077    361.82869  0.077913155  0.080330725            2 
  388000    1.1999741   -3.6565272    362.41034  0.077837273  0.080319452            3 
  389000    1.1980777   -3.6137006     365.1578   0.07822575  0.080308449            2 
  390000    1.1899843   -3.6442129    365.58425  0.078116294  0.080297314            1 
  391000    1.2101534   -3.6327048    366.17647  0.078042727  0.080284702            1 
  392000    1.1722649   -3.6410316    365.87891  0.077780381  0.080273054            2 
  393000    1.1936146    -3.670352    365.96399  0.077600506  0.080260087            1 
  394000    1.1839815    -3.648182    368.11791  0.077859117  0.080247224            2 
  395000    1.1912116   -3.6448315    369.44749  0.077942507  0.080234335            1 
  396000    1.2015579    -3.626634     369.2538  0.077704924  0.080219865            1 
  397000    1.1855242   -3.6884858    368.69913  0.077392765  0.080204513            2 
  398000    1.1961991   -3.6812968    369.67402  0.077402434  0.080189014            2 
  399000    1.1809974   -3.6700269     370.8149   0.07744672  0.080172604            4 
  400000    1.1868588   -3.6291376    372.64454   0.07763428  0.080158053            4 
  401000    1.2051937   -3.6791623    373.40385  0.077598472   0.08014483            3 
  402000    1.2090361    -3.642907    374.69892  0.077673906  0.080128683            2 
  403000    1.1871489   -3.6515388    375.93456  0.077736675  0.080114262            1 
  404000    1.1828091   -3.6591377    378.58978  0.078091952  0.080101263            1 
  405000    1.1819867   -3.6586752    377.91568  0.077760428  0.080089023            3 
  406000    1.1534659   -3.6549662    379.05013  0.077801752  0.080074088            3 
  407000     1.166469   -3.6700083    378.49008  0.077495922  0.080058846            2 
  408000    1.1888054   -3.6846645    378.40546  0.077288697  0.080044791            2 
  409000    1.1777927   -3.6833466    381.23986  0.077677233  0.080031559            2 
  410000    1.1947091   -3.6689938     382.2541  0.077693922  0.080018225            4 
  411000    1.2160515   -3.6739478    383.02198  0.077660579  0.080005401            3 
  412000    1.1943191   -3.6795208    384.63039  0.077797409   0.07999356            1 
  413000    1.2112473   -3.6714988    383.37241  0.077355208  0.079984014            2 
  414000     1.181347   -3.6805179    387.05622  0.077909866  0.079975966            3 
  415000    1.1858186   -3.6476093    387.81744  0.077874988  0.079966253            1 
  416000    1.1639282   -3.6299054    390.02407  0.078129822  0.079956386            1 
  417000    1.1871728   -3.6447427    390.07917   0.07795347  0.079944272            1 
  418000    1.1880162   -3.6357723    389.40536  0.077632647  0.079931403            2 
  419000    1.1736687   -3.6680542    390.65989  0.077696876  0.079918457            2 
  420000    1.1634287   -3.6762111    390.64992  0.077509905  0.079904056            2 
  421000    1.1836289   -3.6977385    392.00456  0.077593936  0.079890718            3 
  422000    1.1764872   -3.6533884    393.67803  0.077740527  0.079879781            1 
  423000    1.2103755   -3.6384549    395.40462   0.07789689  0.079865415            2 
  424000    1.1929473   -3.6685311    394.70365  0.077575402  0.079853427            1 
  425000    1.1876814   -3.6885652    394.22312  0.077298651  0.079840257            1 
  426000    1.1633591   -3.6651704    394.53808   0.07717881  0.079825471            2 
  427000    1.1605792   -3.6572729    397.27407  0.077532019  0.079808593            1 
  428000    1.1832965   -3.6713691    397.26888  0.077349859  0.079793385            4 
  429000    1.2032806   -3.6754575    397.37902  0.077190951  0.079777691            2 
  430000    1.1625551   -3.6629838    398.27855  0.077185765  0.079761827            5 
  431000    1.1950108   -3.6558568    399.82163  0.077305034  0.079747042            1 
  432000    1.2050692   -3.6535659    402.65294  0.077672249  0.079731409            2 
  433000    1.1999257   -3.6671372    402.06221  0.077379178  0.079718197            1 
  434000    1.1730188   -3.6773941    404.43788  0.077657043  0.079703348            2 
  435000    1.1633008   -3.6321038    406.23561  0.077822914  0.079690749            2 
  436000    1.1705794   -3.6210943    405.91821  0.077583756  0.079678171            1 
  437000    1.1941013   -3.6687337    405.84108   0.07739151  0.079665228            4 
  438000    1.1714836    -3.670982    406.28227  0.077298758  0.079651582            2 
  439000     1.171694   -3.6653615    407.50184  0.077354184  0.079636474            2 
  440000    1.2200813   -3.6449069    407.16543  0.077114665  0.079620981            2 
  441000    1.1905276   -3.6656442    408.50165    0.0771923  0.079603502            2 
  442000    1.1735657   -3.6843449    409.98534  0.077297387  0.079584707            2 
  443000    1.1857669   -3.6818291    409.54547  0.077040155  0.079568794            1 
  444000    1.1890212   -3.6441215    411.45608   0.07722524  0.079552905            2 
  445000    1.1789055    -3.678936    409.20228   0.07662964  0.079536353            3 
  446000    1.1891295   -3.6775821    411.64497  0.076914233  0.079518913            1 
  447000    1.1744637   -3.6843054    411.86468  0.076783125  0.079499438            1 
  448000    1.1759988   -3.6500872    414.42688  0.077088333   0.07947843            1 
  449000    1.1651089   -3.6536124    412.18498  0.076500552  0.079456634            4 
  450000    1.1648623   -3.6912506    413.27859  0.076533072  0.079433438            1 
  451000    1.1898082   -3.6540164    413.57241  0.076417667  0.079409741            1 
  452000    1.1708138   -3.6978981    413.90057  0.076309102  0.079385921            2 
  453000     1.201877   -3.6778296    415.77154   0.07648483  0.079359941            2 
  454000    1.2002212   -3.6675263    416.36366  0.076425047  0.079335704            1 
  455000    1.1788848   -3.6535473    419.27497  0.076790287  0.079312436            6 
  456000    1.1762921   -3.6843016    418.15916  0.076417975  0.079288941            1 
  457000    1.1629257   -3.6723216    420.89088  0.076748884  0.079266324            1 
  458000    1.1840108    -3.692222    421.38636  0.076671462  0.079243722            3 
  459000    1.2089231   -3.7016014     420.2754  0.076302724   0.07922253            5 
  460000    1.1729219   -3.6554578    424.68307  0.076935339  0.079202206            1 
  461000    1.1859586   -3.6488679    423.62107  0.076576478  0.079184768            5 
  462000    1.2090718    -3.683928    424.78589  0.076620831  0.079163983            3 
  463000    1.1775638   -3.6475693    425.55493   0.07659376  0.079144324            3 
  464000    1.1876045   -3.6505988    428.18777  0.076901539  0.079124742            3 
  465000    1.1606825   -3.6642866    429.04766  0.076890261  0.079104694            2 
  466000    1.1599003   -3.6967277    429.59401  0.076822963  0.079084899            1 
  467000    1.2029311   -3.7030811    428.97533  0.076548059  0.079065949            2 
  468000    1.1798677   -3.6639813    428.71491  0.076338124  0.079046197            2 
  469000    1.1679276   -3.6506827     432.7429  0.076891062   0.07902928            2 
  470000    1.1433293   -3.6541272    432.57301  0.076697342  0.079013087            3 
  471000    1.1409258    -3.676699    435.07078   0.07697643  0.078996632            4 
  472000    1.1864209   -3.6997513    436.33933  0.077037312  0.078980701            1 
  473000    1.1904276   -3.6802437    436.76922  0.076950179  0.078965012            1 
  474000    1.1752451   -3.6711803    436.92212  0.076814718  0.078948754            2 
  475000    1.1697037      -3.7044    437.20607  0.076702819  0.078931785            2 
  476000     1.195027   -3.6517669    436.54859  0.076426574  0.078914367            1 
  477000    1.1783712   -3.6580036    439.65077   0.07680831  0.078896808            3 
  478000    1.1644577   -3.6721974    440.66739  0.076824859  0.078880523            1 
  479000    1.1856212    -3.654337    442.46832  0.076977787  0.078864667            2 
  480000     1.156707   -3.6725189    442.29245  0.076786883  0.078848975            2 
  481000    1.1835713   -3.6580287    444.26976  0.076969812  0.078834435            3 
  482000    1.1791974   -3.6632023     444.4213  0.076836325  0.078818557            2 
  483000     1.179833   -3.6196991    447.32995  0.077179081  0.078802835            1 
  484000    1.1630907   -3.6871944    445.10009  0.076635691  0.078786773            1 
  485000    1.1738497   -3.6586897     447.0089  0.076805653  0.078771342            2 
  486000    1.2105581   -3.6533004    447.53915  0.076738537  0.078755785            4 
  487000    1.1730156   -3.6939309    447.42581  0.076561569  0.078739469            2 
  488000    1.1862564   -3.6921268     448.8749  0.076652134  0.078722655            3 
  489000    1.1722025   -3.6788802    449.10963  0.076535384  0.078705131            2 
  490000    1.1824669   -3.6529319    449.84687   0.07650457  0.078689445            3 
  491000    1.1686087   -3.6931269    451.10705  0.076562635  0.078673451            2 
  492000     1.149893   -3.6629796    454.48827  0.076979721  0.078658399            5 
  493000    1.1820407   -3.7014185    452.29065  0.076452104  0.078643053            1 
  494000    1.1806189   -3.6456959    453.54726  0.076509322  0.078627236            2 
  495000    1.1338305   -3.6672029    454.83547  0.076571628  0.078610312            1 
  496000    1.1784896   -3.6805778    453.72362  0.076230448  0.078592984            3 
  497000    1.1708782    -3.697366    455.54427  0.076382339  0.078575449            4 
  498000    1.1522383   -3.6519305    458.67677  0.076753141  0.078558072            2 
  499000    1.1509264   -3.6838205    456.86204  0.076296265   0.07854206            3 
  500000    1.1706438   -3.7300073     457.6112  0.076268533  0.078526364            4 
  501000    1.1543371   -3.7139064    458.76365  0.076307992  0.078512422            1 
  502000    1.1446037    -3.655533    462.53559  0.076782136  0.078497655            1 
  503000    1.1552073   -3.6956639    461.48063   0.07645471   0.07848312            2 
  504000     1.153241   -3.6783043    462.41633  0.076457726  0.078467572            3 
  505000    1.1762141   -3.6890609    462.63411  0.076342262  0.078450806            1 
  506000    1.1848276   -3.7106798    463.30804  0.076302378   0.07843285            2 
  507000    1.1502663   -3.6702925    464.21645  0.076301192  0.078416583            2 
  508000    1.1995942   -3.6403913    466.57914  0.076538573   0.07840143            1 
  509000    1.1714602   -3.6987213    465.74147  0.076251059  0.078385335            4 
  510000    1.1653504   -3.6731182    468.47382   0.07654801  0.078370846            2 
  511000    1.1632877   -3.6943571    468.00244  0.076321338   0.07835662            2 
  512000    1.1804047   -3.6544339    470.81163  0.076629497  0.078342182            1 
  513000    1.1712917   -3.7046749    470.24636  0.076388298  0.078329042            1 
  514000    1.1737363   -3.7028056    471.11389  0.076380333  0.078313831            2 
  515000    1.1640137   -3.6970245    471.87872  0.076355779  0.078300005            1 
  516000    1.1358918   -3.7082732    473.12824  0.076409599  0.078286466            2 
  517000    1.1494944   -3.6856375     475.1942   0.07659481  0.078272746            4 
  518000    1.1552791   -3.6549011    476.93057  0.076726282  0.078261065            4 
  519000    1.1889559   -3.6806099    476.66325  0.076535525  0.078247764            2 
  520000    1.1725519   -3.6676398    479.39246  0.076825715  0.078234475            3 
  521000    1.1752428   -3.7070052    477.43748   0.07636556  0.078221052            1 
  522000     1.188459   -3.6641744    477.03929  0.076155698  0.078206307            2 
  523000    1.1476028   -3.6691016    477.51168  0.076085353  0.078191412            2 
  524000    1.1642511   -3.6959426     480.7327  0.076452401  0.078177014            5 
  525000    1.1681329   -3.6852955     480.8847  0.076330905  0.078161985            4 
  526000    1.1597383   -3.7138848    480.03164   0.07605064  0.078145541            4 
  527000    1.1670858   -3.6922699    481.95515  0.076210492  0.078128102            3 
  528000    1.1601035   -3.6389507     485.9653  0.076699069   0.07811145            1 
  529000    1.1770881   -3.6593846    482.16054  0.075954717   0.07809494            1 
  530000    1.1657255   -3.6866228    482.84511  0.075919042   0.07807559            1 
  531000    1.1893325   -3.6610949    484.54663  0.076043099  0.078059036            2 
  532000    1.1660313    -3.690966    485.62818  0.076069577   0.07804071            5 
  533000    1.1528226   -3.6751627    485.85593  0.075962466  0.078021146            1 
  534000    1.1716628   -3.6926367    484.53136  0.075613508   0.07800166            1 
  535000    1.1637909   -3.6924536    485.57238  0.075634326  0.077982868            1 
  536000    1.1625498   -3.6656448    490.55812  0.076268364  0.077964829            1 
  537000    1.1853534   -3.6864501    488.59794   0.07582215  0.077946055            1 
  538000    1.1875304   -3.6909008    490.75992  0.076016096  0.077928801            2 
  539000    1.1772241   -3.6558687    490.55995  0.075844148  0.077909646            2 
  540000    1.1722721    -3.721669    492.15532  0.075949895  0.077890513            5 
  541000    1.1658441   -3.6767893    490.75525  0.075593846  0.077870044            1 
  542000    1.1731019   -3.6874587    492.94002  0.075790285  0.077850514            1 
  543000     1.160965   -3.6511967     492.7387  0.075619813  0.077830075            2 
  544000    1.1535917   -3.6761635    490.89951  0.075199067  0.077810287            2 
  545000    1.1930854   -3.6991783    494.30868  0.075582367  0.077786914            3 
  546000    1.1552721   -3.7102005    494.27394  0.075438635  0.077763261            2 
  547000    1.1650353    -3.654398    495.45172  0.075480152  0.077739676            1 
  548000    1.1885034   -3.7119818    493.35658  0.075023811  0.077716794            3 
  549000    1.1691002   -3.6909899    497.08966  0.075453803   0.07769278            1 
  550000    1.1562681   -3.6736882    498.47869  0.075527074  0.077670459            4 
  551000    1.1694231   -3.7010187    496.76908  0.075131439  0.077647982            1 
  552000    1.1867754   -3.7329669    498.02763   0.07518533  0.077626317            2 
  553000    1.1741038   -3.7028572    501.87647  0.075629365  0.077603008            2 
  554000    1.1590012   -3.6827973    499.76329  0.075174984  0.077581348            2 
  555000    1.1620176   -3.6735855    502.63321  0.075470453  0.077560138            2 
  556000    1.1486481   -3.7009112    503.11604   0.07540708  0.077539722            2 
  557000    1.1541001   -3.7036496    504.14811  0.075426109  0.077518806            2 
  558000    1.1561984   -3.7006808    504.26868  0.075308942  0.077498484            2 
  559000    1.1483127   -3.6764008    506.95163  0.075574184  0.077477555            1 
  560000    1.1380688   -3.7037612    507.17882  0.075473039  0.077456826            2 
  561000    1.1437918   -3.7211961    507.84225  0.075437054  0.077437356            1 
  562000    1.1695733   -3.6929547    509.19219  0.075502994  0.077418789            3 
  563000    1.1381265   -3.6810016    511.38581  0.075693577  0.077401607            1 
  564000    1.1556417    -3.694351    512.01613  0.075652502  0.077384341            2 
  565000    1.1660852   -3.7066266    510.95602  0.075362244  0.077367671            2 
  566000    1.1426788   -3.6769033    511.91878  0.075370844   0.07734897            4 
  567000    1.1793644   -3.6850072    512.76244  0.075361911  0.077333192            2 
  568000    1.1450438   -3.6570027    516.59286  0.075791206  0.077316403            3 
  569000    1.1627363   -3.6763783    513.80339  0.075249472  0.077300086            7 
  570000    1.1785798   -3.7061751    515.19076  0.075320287  0.077281681            2 
  571000    1.1631619   -3.6899829    516.67483  0.075404967  0.077264324            3 
  572000    1.1490156   -3.7323293    516.71419  0.075278874  0.077246643            5 
  573000    1.1803794   -3.7078994    519.19829  0.075508768  0.077229797            2 
  574000    1.1732066   -3.7009749     520.1366  0.075513444  0.077213364            2 
  575000    1.1655752   -3.6745272    522.91782  0.075785191   0.07719709            3 
  576000    1.1546899   -3.6996374    522.78062   0.07563377  0.077182063            2 
  577000    1.1860404   -3.6886277    522.88592  0.075517897  0.077167841            2 
  578000    1.1894822   -3.7340797    523.52214   0.07547897   0.07715371            8 
  579000    1.1479964   -3.7099146    524.79113   0.07553125  0.077138795            2 
  580000    1.1826285   -3.6914118    527.01495  0.075720539   0.07712615            1 
  581000    1.1517491   -3.6850761    526.51825  0.075518969  0.077112594            2 
  582000    1.1827266   -3.6810575    526.84174  0.075435529   0.07709916            3 
  583000    1.1606744    -3.713594    531.00282  0.075900918  0.077086097            2 
  584000    1.1607702   -3.6969556     530.0481  0.075634717  0.077072666            1 
  585000    1.1400049    -3.700715    532.82351  0.075900785  0.077060091            2 
  586000    1.1840824   -3.7311719    530.94246  0.075503763   0.07704741            1 
  587000     1.150699   -3.7160558    530.51702  0.075314738  0.077035175            2 
  588000    1.1457704   -3.7050812    532.64543  0.075488297  0.077022587            2 
  589000    1.1733817   -3.6664936     537.9936  0.076116807  0.077010457            1 
  590000     1.147769   -3.6743454     537.9489  0.075981483  0.076998681            4 
  591000    1.1482764    -3.733078    536.50213  0.075648918  0.076987831            2 
  592000     1.158601   -3.6584612    538.43772  0.075793598  0.076976684            2 
  593000    1.1693361   -3.6863663    539.03555  0.075749796  0.076965678            2 
  594000    1.1685992   -3.6908381    539.07026  0.075627141  0.076955367            6 
  595000      1.14985   -3.6928343    541.66694  0.075863717  0.076944691            3 
  596000    1.1597777   -3.7131254    540.75584  0.075609038  0.076934451            5 
  597000    1.1401424   -3.6839849    542.63111  0.075744152  0.076924024            1 
  598000    1.1617325   -3.7378681    543.79288  0.075779387  0.076913397            2 
  599000    1.1626295   -3.7128321    547.05358  0.076106508  0.076903655            1 
  600000    1.1538044   -3.6976568    546.79438  0.075943663  0.076893005            2 
  601000    1.1520681    -3.735788    546.28918  0.075747251  0.076881946            1 
  602000    1.1558293   -3.6898453    547.12687  0.075737385  0.076869914            2 
  603000    1.1523303   -3.7117618     545.5069  0.075387908  0.076858985            3 
  604000    1.1470655   -3.7083453    550.37789  0.075935139  0.076847506            1 
  605000    1.1509859   -3.7172321    547.71889  0.075443373  0.076834289            2 
  606000    1.1542203   -3.6975644    551.22558  0.075801097  0.076821077            1 
  607000    1.1414627   -3.7109325    551.62615  0.075731212  0.076808494            3 
  608000    1.1634896   -3.7007607     547.7724  0.075078454  0.076796018            2 
  609000    1.1664089    -3.713434    551.10893  0.075411732  0.076783634            4 
  610000    1.1593538   -3.6954125    551.36246   0.07532274  0.076771714            1 
  611000    1.1614696   -3.7221267    550.70691  0.075110054  0.076759667            1 
  612000    1.1583005   -3.7264564    554.23657  0.075467943  0.076747153            2 
  613000    1.1687306   -3.6731766    557.24421  0.075753698   0.07673552            2 
  614000    1.1444844   -3.7271863    555.84594  0.075440546  0.076722817            2 
  615000    1.1507341   -3.6781065    557.77812  0.075579691  0.076711081            1 
  616000    1.1573712   -3.6703812    557.12516  0.075368663  0.076697696            2 
  617000    1.1568895   -3.7197627    557.60316   0.07531107  0.076686409            1 
  618000    1.1667701   -3.6835457    562.52779  0.075853262  0.076675299            2 
  619000    1.1478307   -3.7315549    560.65747  0.075478927  0.076664714            1 
  620000    1.1600527   -3.6991822    561.30118  0.075443708  0.076653356            2 
  621000    1.1586112   -3.6852566    563.52208  0.075620247  0.076642403            2 
  622000    1.1371275   -3.6730644    565.18794  0.075721857  0.076631388            1 
  623000     1.163327   -3.7032602    565.31818  0.075617734  0.076621448            2 
  624000    1.1604723   -3.7233287    564.54916  0.075393851  0.076610324            2 
  625000    1.1316939   -3.7234043    566.47933  0.075530578  0.076600139            2 
  626000    1.1561448   -3.6850167    567.80097  0.075585859  0.076590026            2 
  627000    1.1482141   -3.6900748    568.87331   0.07560783  0.076579865            2 
  628000    1.1474865   -3.7307637    568.81715  0.075479983  0.076569365            3 
  629000    1.1738453   -3.6965474    572.61593  0.075863265  0.076559061            3 
  630000    1.1580023   -3.7140208    570.89568  0.075515302  0.076549387            3 
  631000    1.1515787   -3.7165217    570.49529  0.075342749  0.076537986            2 
  632000    1.1656508   -3.7038725    573.23712  0.075585064  0.076527234            1 
  633000    1.1337364   -3.7134852    573.47488  0.075496956  0.076516652            2 
  634000    1.1670281   -3.6939195    573.20144  0.075341935  0.076505948            3 
  635000    1.1325737   -3.7166839    575.59191  0.075536996  0.076495978            2 
  636000    1.1552841   -3.7107035    578.59383  0.075811561  0.076485746            2 
  637000    1.1182795   -3.7264387    574.84445  0.075202047  0.076475045            2 
  638000    1.1451593   -3.7093831    579.04594  0.075632959  0.076464511            1 
  639000    1.1686312   -3.7266237    577.23998   0.07527908  0.076452772            3 
  640000     1.176686   -3.7146444    576.43455  0.075056582  0.076441785            1 
  641000    1.1440391   -3.7208153     580.5224  0.075470931  0.076430354            1 
  642000    1.1571359   -3.7051127    577.86083  0.075007896  0.076417638            4 
  643000    1.1295612   -3.7146076    577.24504  0.074811436  0.076405481            2 
  644000      1.13598   -3.6997176    581.52334  0.075248879  0.076392778            2 
  645000    1.1461465   -3.7010873    581.11694  0.075079708   0.07637988            2 
  646000    1.1282613   -3.6906842    582.68254  0.075165446  0.076367749            4 
  647000    1.1575423   -3.6984106    584.40812  0.075271526  0.076355452            3 
  648000    1.1675877   -3.7209367    580.87235  0.074700662   0.07634227            2 
  649000    1.1225343   -3.7289925    585.63308  0.075196852  0.076329526            3 
  650000     1.152628   -3.6896779    588.48851  0.075447245  0.076317666            2 
  651000    1.1605176   -3.7166967    583.67277  0.074714896  0.076304845            2 
  652000    1.1323049   -3.7182741    584.46663  0.074701767  0.076292293            3 
  653000     1.160811    -3.725086    586.53092  0.074850806  0.076278793            2 
  654000    1.1220247   -3.7051817    589.10642  0.075064528  0.076265462            1 
  655000    1.1183452   -3.6955917    588.75751  0.074905536  0.076252204            1 
  656000    1.1278231   -3.7367327    587.51591  0.074633627  0.076238096            3 
  657000    1.1227831   -3.7601188     587.8014   0.07455624  0.076222749            2 
  658000    1.1430856   -3.7213611    590.10234  0.074734339  0.076207403            4 
  659000    1.1328649   -3.6899024    593.55404  0.075057416  0.076193269            1 
  660000    1.1579649   -3.7467925    590.12895  0.074511231  0.076179312            2 
  661000    1.1703167   -3.7237254     592.6556  0.074717045   0.07616457            2 
  662000    1.1494885    -3.713042    593.87033   0.07475709  0.076150197            2 
  663000    1.1537901   -3.7270506    594.60131  0.074736213   0.07613677            2 
  664000    1.1234072   -3.7793621    594.01852  0.074550517  0.076122531            2 
  665000    1.1411683   -3.7275158    593.11892   0.07432568  0.076107165            2 
  666000    1.1327135   -3.7031795    596.79682  0.074674277  0.076092705            3 
  667000    1.1291847   -3.6795616    597.82197  0.074690401  0.076080085            1 
  668000    1.1517877    -3.702728    599.76421  0.074820885  0.076066741            2 
  669000      1.14667   -3.7246405     598.6908  0.074575336   0.07605421            1 
  670000    1.1446308   -3.6965395    603.76172  0.075094741  0.076041258            2 
  671000    1.1500365   -3.7314871    602.57495  0.074835438  0.076027635            2 
  672000    1.1368848   -3.7478876    602.62259  0.074729984  0.076013464            1 
  673000    1.1484019   -3.7444525    601.54896  0.074486003    0.0759989            2 
  674000    1.1243987   -3.6806197    604.36014  0.074723064  0.075984635            2 
  675000     1.106092    -3.707692    607.34752  0.074981175  0.075970855            1 
  676000    1.1493562    -3.707535    605.89526   0.07469123  0.075956438            2 
  677000    1.1367793   -3.6789138    607.75227  0.074809487  0.075941256            1 
  678000    1.1658137   -3.7002693    609.04979  0.074858627  0.075928462            3 
  679000    1.1234767   -3.7313135    608.91627  0.074731992  0.075915017            2 
  680000    1.1439685   -3.6753352     609.3934  0.074680564  0.075901287            2 
  681000     1.172212   -3.7270869    608.32019  0.074439573  0.075887779            1 
  682000    1.1386857   -3.7279677    610.58351  0.074606978   0.07587394            2 
  683000    1.1664761   -3.6959728    613.13388  0.074808917  0.075859552            2 
  684000     1.171338   -3.7077795    614.03198  0.074808965  0.075846229            4 
  685000    1.1490935   -3.7404863    613.17983  0.074596087  0.075833648            3 
  686000    1.1458824   -3.7513394    614.03494  0.074591222  0.075819947            4 
  687000    1.1369994   -3.7164576    616.27988  0.074754958  0.075806975            2 
  688000    1.1553458   -3.7250691    618.73315  0.074943453  0.075794051            2 
  689000     1.134211   -3.7242302    620.43797  0.075040877  0.075782674            5 
  690000    1.1608128   -3.7325667    619.04798  0.074764249  0.075770416            2 
  691000    1.1240111   -3.7116488    615.51498  0.074229978  0.075757483            3 
  692000    1.1410503    -3.721084    620.24218  0.074691977  0.075745604            1 
  693000    1.1483205   -3.7328952     620.9511  0.074669444  0.075734286            2 
  694000    1.1398932   -3.7179237    623.84682   0.07490956  0.075723249            2 
  695000    1.1702525   -3.7583632    622.39085    0.0746272  0.075712847            3 
  696000    1.1616675   -3.7324978    623.63538  0.074668987  0.075702609            3 
  697000    1.1640101   -3.7197434    624.93353  0.074717065  0.075692784            1 
  698000    1.1369677   -3.7163377     628.2713  0.075008512   0.07568293            2 
  699000    1.1485967   -3.7362571    627.93085  0.074860617  0.075672179            3 
  700000    1.1520774   -3.7290034    626.93525  0.074635148  0.075661293            2 
  701000    1.1601621   -3.7011752    629.26985  0.074806212  0.075651352            3 
  702000    1.1397516   -3.7467429    627.49853  0.074489379  0.075640866            1 
  703000    1.1211109   -3.7199839    629.03905  0.074566033  0.075630166            2 
  704000    1.0964278   -3.6896005    632.78254  0.074903236  0.075619114            2 
  705000    1.1141464    -3.735159    630.93976  0.074579168  0.075608162            1 
  706000    1.1354923   -3.7693583    630.59714   0.07443309  0.075595436            4 
  707000     1.113958   -3.7305363    633.82183  0.074707901  0.075582809            3 
  708000    1.1506351   -3.7006122    634.09797  0.074634884  0.075570947            2 
  709000    1.1123133   -3.7268169    634.36372  0.074560851   0.07555849            1 
  710000    1.1485167   -3.7734418    632.94622  0.074289462  0.075547059            1 
  711000    1.1019459   -3.7434578    638.35638  0.074819079  0.075535281            2 
  712000    1.1404339   -3.7404927    635.54898  0.074385414  0.075523408            2 
  713000    1.1372533   -3.7722208     635.4921  0.074274439  0.075510978            4 
  714000    1.1515404    -3.743773     637.7387  0.074432621  0.075498055            2 
  715000    1.1323472   -3.7300098    639.49383   0.07453308  0.075486043            1 
  716000    1.1358346   -3.7239874    639.24732  0.074400293  0.075473976            3 
  717000    1.1498742   -3.7505856    642.44541  0.074668225  0.075461293            2 
  718000    1.1434597    -3.769952    638.98498  0.074162602  0.075448684            2 
  719000    1.1328025   -3.7232727    643.26088   0.07455504  0.075434803            4 
  720000    1.1301057   -3.6954724    643.08369  0.074430982  0.075421343            1 
  721000    1.1441547   -3.6995363    644.56601  0.074499076  0.075408844            1 
  722000    1.1406058   -3.7119356    643.72343  0.074298641  0.075395673            2 
  723000    1.1449643   -3.7384357    641.92683    0.0739888  0.075381058            2 
  724000    1.1703131   -3.7431139    642.02924  0.073898393  0.075365583            2 
  725000    1.1622282   -3.7279328    644.45706  0.074075524  0.075349912            6 
  726000    1.1311271   -3.7341306    642.75439  0.073778052  0.075334352            3 
  727000    1.1277783   -3.7318832    644.73124  0.073903168  0.075318497            3 
  728000    1.1159114   -3.7224637    646.44181  0.073997459  0.075303384            5 
  729000    1.1313347   -3.7503829     647.9631  0.074069855  0.075289069            2 
  730000    1.1348847   -3.7268098    651.78652  0.074404853  0.075274062            2 
  731000    1.1532073   -3.7074577    649.58821  0.074052463  0.075259714            2 
  732000    1.1402391   -3.7325244    651.91588  0.074216288  0.075245764            2 
  733000    1.1060895    -3.758229    651.77934  0.074099515  0.075231158            2 
  734000    1.1411521   -3.7363453    649.30652  0.073717815  0.075217075            3 
  735000    1.1465407   -3.7261031     651.0415  0.073814229   0.07520253            4 
  736000    1.1363875    -3.758112    650.04661  0.073601292  0.075187482            3 
  737000    1.1396133   -3.7252643    651.32399  0.073645861  0.075171726            3 
  738000    1.1340027   -3.7632017    652.33521  0.073660254  0.075155783            2 
  739000    1.1277872   -3.7456495    655.33782  0.073899167  0.075139786            1 
  740000    1.1373553   -3.7267924    657.90813  0.074088753  0.075125016            1 
  741000    1.1555785     -3.74856    652.76786  0.073410691  0.075108914            1 
  742000    1.1350813   -3.7449988    654.95568  0.073557467  0.075093441            3 
  743000    1.1296642   -3.7465888    659.03154  0.073915606   0.07507755            1 
  744000    1.1242181   -3.7650366    656.43083  0.073524958  0.075062204            2 
  745000    1.1494393   -3.7495508    660.72469  0.073906565  0.075046628            1 
  746000    1.1432672   -3.7374162    657.32496  0.073427721  0.075031709            3 
  747000    1.1289646   -3.7398578    662.36392  0.073891557  0.075016773            2 
  748000    1.1099059   -3.7634504    660.67219  0.073604299  0.075001104            3 
  749000    1.1486976   -3.7327738    663.04599  0.073770136   0.07498569            2 
  750000    1.1378904   -3.7029357    664.21485   0.07380165  0.074970544            1 
  751000      1.13669   -3.7128821    662.27815  0.073488476  0.074954884            1 
  752000    1.1394539   -3.7273734    661.66115  0.073322379  0.074938631            1 
  753000    1.1125341   -3.7373832    665.07475  0.073602783   0.07492306            2 
  754000    1.1478018   -3.7056667    666.65244  0.073679535  0.074907797            2 
  755000    1.1347419   -3.7392071    666.17287  0.073529014  0.074892307            2 
  756000    1.1497941   -3.7609331    666.30217  0.073446006  0.074875164            2 
  757000    1.1340762   -3.7416136    664.52911  0.073153799  0.074857841            4 
  758000    1.1523762   -3.7258398    669.01793  0.073550784  0.074842128            3 
  759000    1.1251448   -3.7353762    669.32982  0.073488123  0.074826409            1 
  760000    1.1323084   -3.7245034    669.77645  0.073440401   0.07481063            1 
  761000     1.106966   -3.7403575    670.92075  0.073469202  0.074794724            4 
  762000    1.1469687    -3.762575    673.09649  0.073610728  0.074779343            1 
  763000    1.1243092   -3.7476786    673.70844  0.073581088  0.074765051            2 
  764000     1.133686   -3.7531974    675.70808  0.073702888  0.074749353            2 
  765000    1.1075477   -3.7456349    672.21657  0.073226206  0.074734479            3 
  766000    1.1360122   -3.7670296    673.07496  0.073223995  0.074719656            5 
  767000    1.0925289   -3.7223757    677.85562  0.073647938  0.074703902            2 
  768000    1.1477346   -3.7572236    676.81928  0.073439592  0.074688186            4 
  769000    1.1374607   -3.7541711    677.26516   0.07339241  0.074673175            2 
  770000    1.1240167    -3.758125    676.49202  0.073213422  0.074657763            2 
  771000     1.132604   -3.7252928    679.19582  0.073410702  0.074641353            6 
  772000    1.1234893   -3.7650184    680.89918   0.07349948  0.074625896            1 
  773000    1.1654957   -3.7581097    679.78467  0.073284247  0.074610669            1 
  774000    1.1239921     -3.72426    681.45066  0.073368935  0.074595113            3 
  775000    1.1043249   -3.7827402    681.19553  0.073246831  0.074580425            3 
  776000    1.1432914   -3.7447255    682.82469  0.073327393  0.074565332            3 
  777000    1.1471419   -3.7655613    683.08442  0.073260877  0.074551034            4 
  778000    1.1117164   -3.7312388    683.74509  0.073237478  0.074536198            1 
  779000    1.1351486   -3.7206288    686.95251  0.073486576  0.074520854            3 
  780000    1.1292385   -3.7390824    687.38008  0.073438042  0.074506245            2 
  781000    1.1310553   -3.7633666    689.08315  0.073525731  0.074492221            2 
  782000    1.1051081   -3.7282429    690.47613   0.07358015  0.074478122            1 
  783000    1.1365717   -3.7615476    688.23594  0.073247758  0.074464095            6 
  784000    1.1365961   -3.7831642    692.47444  0.073604852  0.074450591            2 
  785000    1.1083914   -3.7585244    689.93568  0.073241579  0.074436647            2 
  786000    1.1255932   -3.7297826    691.49139  0.073313337  0.074422826            2 
  787000    1.1348637   -3.7910724    691.65127   0.07323711  0.074409566            4 
  788000     1.122497   -3.7571752     694.0801  0.073401025  0.074395639            1 
  789000    1.1000667   -3.7445112    693.82066  0.073280593  0.074381755            5 
  790000    1.1257714   -3.7214839    696.48166  0.073468529  0.074367663            3 
  791000     1.127966   -3.7414089      699.068  0.073648124  0.074354464            3 
  792000    1.0883275   -3.7277636    699.94133  0.073647025  0.074341904            2 
  793000    1.1267139   -3.7720983    697.57426  0.073305408  0.074329614            3 
  794000    1.1330633   -3.7349532    701.18117  0.073591642  0.074317315            2 
  795000    1.1408307   -3.7375426    699.25503  0.073297173  0.074305393            2 
  796000    1.1520265   -3.7091597     703.7855  0.073679387  0.074294176            1 
  797000    1.1223662   -3.7326056    700.91414  0.073286715  0.074282742            1 
  798000    1.1291621   -3.7288785    707.19818  0.073851105  0.074272802            2 
  799000    1.1373669    -3.768221    705.19855   0.07355012  0.074261434            2 
  800000    1.1074543   -3.7520153    707.30365  0.073677463  0.074249862            2 
  801000    1.1367406   -3.7246396    708.92508   0.07375417  0.074238741            2 
  802000    1.1320788   -3.7402773    707.56614  0.073521004  0.074227051            4 
  803000    1.1196539   -3.7109577    708.01607  0.073476139  0.074216139            3 
  804000    1.1235942   -3.7545924    710.86455   0.07367999  0.074204623            1 
  805000    1.0964614   -3.7607491    707.50161  0.073240333  0.074192258            3 
  806000    1.1304478   -3.7535755     708.6199  0.073265085  0.074180866            5 
  807000    1.1429935    -3.724315    710.62037  0.073380872  0.074169434            4 
  808000    1.1183666   -3.7525881    711.26627  0.073356669   0.07415763            1 
  809000    1.1511177    -3.776056    709.21059  0.073054243  0.074146205            4 
  810000    1.1081524   -3.7914743    712.83715  0.073337155  0.074133751            3 
  811000    1.1129905   -3.7684188    711.03377  0.073061423  0.074121208            3 
  812000    1.1222712   -3.7670553     716.3899  0.073521131  0.074108172            2 
  813000    1.1082821   -3.7813017    714.04833  0.073190685  0.074096308            2 
  814000    1.1292801   -3.7660065    712.90143  0.072983356   0.07408455            3 
  815000    1.1108844    -3.754855     715.0497  0.073113466  0.074071493            1 
  816000    1.1254687   -3.7653358    715.23415  0.073042703  0.074059187            2 
  817000     1.129245    -3.764771     714.7348  0.072902367  0.074046707            2 
  818000     1.126671   -3.7488717    720.95101  0.073446517  0.074033967            2 
  819000    1.1105807   -3.7508551    719.50337  0.073209541  0.074021346            6 
  820000    1.1408813   -3.7426667    721.32419  0.073305304  0.074008181            2 
  821000     1.125069   -3.7561178    719.34858  0.073015487  0.073995436            1 
  822000    1.1199166   -3.7280512    720.37213  0.073030427  0.073981959            1 
  823000    1.1088323   -3.7685226    722.88184  0.073195812  0.073968414            3 
  824000    1.1166391   -3.7507397    720.89363  0.072905909  0.073954461            4 
  825000    1.1299713    -3.788618    722.65708  0.072995664  0.073940411            6 
  826000    1.1279888   -3.7555075    721.23829  0.072764154  0.073925473            3 
  827000    1.1143724   -3.7691262    722.34732   0.07278792  0.073910086            1 
  828000    1.1331104   -3.7397776    725.53389  0.073020722  0.073895313            1 
  829000    1.1269782   -3.7819659    720.49847  0.072426464  0.073880999            5 
  830000    1.1082481   -3.7855344    721.78272  0.072468145  0.073865782            3 
  831000    1.1290753   -3.7660629    726.44021  0.072847995  0.073851146            2 
  832000    1.1226779   -3.7587636    727.72379  0.072889001  0.073836292            4 
  833000    1.1162793   -3.7288066    729.31005  0.072960189  0.073822046            2 
  834000    1.1199008   -3.7800253    725.71489  0.072513478  0.073807081            3 
  835000    1.1069565   -3.7346366    730.98794  0.072952889  0.073792929            4 
  836000    1.1285142   -3.7589649     727.6267  0.072530572  0.073779197            2 
  837000    1.1084459   -3.7568758    732.44086  0.072923224  0.073765738            2 
  838000    1.1318038    -3.754762    731.70109  0.072762638  0.073751789            3 
  839000    1.1217105   -3.7340078    730.79489  0.072585905  0.073738612            3 
  840000    1.1187333   -3.7511007     732.8098  0.072699385  0.073725101            2 
  841000    1.1340633   -3.7799284     736.0204  0.072931074   0.07371117            3 
  842000    1.1287587   -3.7930102    735.24793  0.072768006  0.073697595            3 
  843000    1.1148493   -3.7591989     735.3852  0.072695255  0.073683978            1 
  844000    1.1032413   -3.7740697    738.20177   0.07288722  0.073670176            5 
  845000    1.1194218   -3.7471027    736.29224  0.072612647  0.073656896            1 
  846000    1.1116512   -3.7554248    740.61656  0.072952774  0.073642991            1 
  847000    1.1121043   -3.7684553    740.38011   0.07284338  0.073629444            2 
  848000    1.1206095   -3.7812873    738.48009  0.072570763   0.07361513            7 
  849000    1.0913974    -3.761079    739.76055  0.072610968  0.073600747            2 
  850000    1.0949604   -3.7393359    740.81177  0.072628605  0.073586349            3 
  851000    1.1171359   -3.7614997    740.98152  0.072559882  0.073572763            2 
  852000    1.1428423   -3.7485919     746.2844  0.072993388  0.073559708            2 
  853000    1.1094147   -3.7807114    740.47116  0.072339895  0.073545988            2 
  854000    1.1158599   -3.7730019    741.10226   0.07231677  0.073531489            3 
  855000     1.122998    -3.760805    741.61714  0.072282372  0.073517322            1 
  856000    1.1275068    -3.735721    745.90421  0.072615285  0.073503108            3 
  857000    1.0934497   -3.7555547    743.97229  0.072342697  0.073489511            2 
  858000    1.0847771   -3.7584507    746.55612  0.072509336   0.07347557            1 
  859000    1.1075114   -3.7769514    746.93087   0.07246128  0.073462026            1 
  860000    1.1304082   -3.7114332    747.78588  0.072459872  0.073449129            3 
  861000    1.1088229   -3.7646265    747.86485  0.072383358  0.073435816            3 
  862000    1.1071902   -3.7703552    749.43636  0.072451311  0.073421593            2 
  863000    1.0868212   -3.7725762    751.54671  0.072571138  0.073408081            2 
  864000    1.1214048   -3.7575616    752.81174  0.072609157  0.073394579            4 
  865000    1.1375753   -3.7685622    752.27903  0.072473895  0.073380558            2 
  866000    1.1195855   -3.7500834    750.67152  0.072235519  0.073366681            4 
  867000    1.1450112   -3.7990022    749.84727  0.072072978  0.073352349            3 
  868000    1.0918613   -3.7819349    752.72134  0.072265873  0.073338545            2 
  869000    1.1120458   -3.7748925    757.13857  0.072606307  0.073324366            1 
  870000    1.1297462   -3.7647475    756.35846  0.072448128  0.073311011            2 
  871000    1.1162149   -3.7380451     755.3294  0.072266494  0.073296631            5 
  872000    1.1251278   -3.7600228     755.0978  0.072161487  0.073281789            4 
  873000    1.1266539   -3.7570878    756.46868  0.072209687  0.073267393            3 
  874000    1.1160331   -3.7575891     757.0821  0.072185555   0.07325253            2 
  875000    1.1125825   -3.7804154     755.5439  0.071956562  0.073238306            3 
  876000    1.1093162   -3.7612133    763.37971  0.072619835  0.073224221            2 
  877000    1.1235677   -3.7629003    762.18197  0.072423221  0.073210372            1 
  878000    1.1106873   -3.7560346    765.38717  0.072644947  0.073197247            1 
  879000    1.1169001    -3.759331    765.18993  0.072543604  0.073183856            1 
  880000    1.1118275   -3.7404078    763.63182  0.072313619  0.073170405            2 
  881000    1.1189858   -3.7336431    764.99845  0.072360807  0.073155912            2 
  882000    1.1264755   -3.7593149    764.92627  0.072271945  0.073141899            2 
  883000    1.1292616   -3.7587274    763.17655  0.072024967   0.07312736            3 
  884000    1.1128561   -3.7949623    760.58383  0.071699079  0.073111817            2 
  885000    1.1017161   -3.7231768    766.13134  0.072140428  0.073096659            2 
  886000    1.1111082   -3.7825666    767.59456  0.072196629  0.073082155            3 
  887000    1.1210848   -3.7765981    765.15253  0.071885807   0.07306714            2 
  888000    1.1216424    -3.758528      767.023  0.071980387  0.073051451            3 
  889000    1.1152138   -3.7628911    766.17725  0.071820139  0.073036332            2 
  890000    1.0958901   -3.8277358     765.4158  0.071668146   0.07302078            2 
  891000    1.1060812   -3.7975851    764.95435  0.071544552  0.073004889            3 
  892000    1.1026648   -3.7713993    768.97924  0.071840362  0.072989083            2 
  893000    1.0877379   -3.7482875    768.68395  0.071732358   0.07297374            1 
  894000    1.0813179   -3.7708774    768.51288  0.071636174  0.072957457            2 
  895000    1.1141507   -3.7810159    770.72895  0.071762472  0.072942366            3 
  896000    1.1403387   -3.7883586    770.26414   0.07163915  0.072927332            2 
  897000    1.1108123   -3.7478063     774.6105  0.071963072  0.072912695            2 
  898000    1.0895939   -3.7704967    777.29518   0.07213207  0.072898619            1 
  899000    1.1278828    -3.792352    773.53074  0.071702886  0.072883655            3 
  900000    1.0958551   -3.8002446    773.44936  0.071615682  0.072869379            5 
  901000    1.1033156   -3.7767449    779.72649  0.072116767  0.072855486            1 
  902000    1.1080151    -3.775535    778.38884  0.071913234  0.072841211            2 
  903000    1.1093391   -3.7753436     778.7649    0.0718683  0.072826856            3 
  904000    1.1082926   -3.7600858    779.11595  0.071821161   0.07281307            1 
  905000    1.0824058   -3.7944256    783.82834  0.072175722  0.072798821            3 
  906000     1.095535   -3.7496395    781.50036  0.071881931  0.072784907            2 
  907000    1.0978061   -3.7746489    783.25144  0.071963565  0.072770686            3 
  908000    1.1006869   -3.7806136    781.16873  0.071693166  0.072755531           10 
  909000    1.1047179   -3.7700968    784.31003  0.071902277  0.072740712            2 
  910000    1.1002335   -3.7692114    784.59196  0.071849081  0.072727021            2 
  911000    1.1069258   -3.7820359    782.02743  0.071535623  0.072712474            3 
  912000    1.1102881   -3.7661162    785.96731  0.071817188  0.072698183            2 
  913000    1.1047314   -3.7701434    783.95814  0.071555142  0.072683263            2 
  914000    1.1053313   -3.7871737    782.00779  0.071299033  0.072668124            3 
  915000    1.0870251   -3.7723256    786.35225  0.071616781  0.072652636            2 
  916000    1.1100207   -3.7541367    785.49223  0.071460355    0.0726372            2 
  917000    1.1146014    -3.784072     786.3697  0.071462169  0.072621774            2 
  918000     1.085818   -3.7727092     787.9607  0.071528749  0.072606186            2 
  919000    1.1184127   -3.8021214     784.1509   0.07110545   0.07259035            2 
  920000       1.1169   -3.7515805    790.06737  0.071564073   0.07257476            5 
  921000     1.137601   -3.7740609    790.77797  0.071550667  0.072559792            2 
  922000    1.0902601   -3.7660052    789.62241   0.07136862  0.072544597            2 
  923000    1.1478644    -3.767542    794.98923  0.071775842   0.07253036            3 
  924000    1.1013552   -3.7769338    793.10839  0.071528534  0.072515562            2 
  925000    1.1122889   -3.8069209    792.84164  0.071427175  0.072500595            2 
  926000    1.1111336   -3.7649449    795.74709  0.071611509  0.072486526            2 
  927000    1.0983163   -3.7905525    796.25234  0.071579678  0.072472414            1 
  928000    1.1110122   -3.7868264    794.26868  0.071324415  0.072457666            1 
  929000    1.0960456   -3.7896539    797.29273  0.071518903  0.072442273            4 
  930000    1.1235143   -3.7893693    797.20532  0.071434169  0.072427657            2 
  931000    1.1329369   -3.7900896    795.46193   0.07120139  0.072412708            4 
  932000     1.102909   -3.7648873    795.93513  0.071167304  0.072397599            4 
  933000    1.1140833   -3.7293923    803.64455  0.071779613  0.072382642            1 
  934000    1.1114411    -3.766513    802.90031  0.071636359  0.072368058            2 
  935000    1.0991233   -3.7880941    800.01844  0.071302891  0.072353497            3 
  936000    1.1073889   -3.7799276    801.20269  0.071332148  0.072339419            1 
  937000    1.1262598   -3.7815977    801.94422  0.071321969  0.072325519            4 
  938000    1.1003474   -3.7693524    805.61418  0.071571978   0.07231131            3 
  939000    1.0880298   -3.7828057    804.24627  0.071374359  0.072297386            2 
  940000    1.0766628   -3.7747549    805.85626  0.071441158  0.072283029            4 
  941000     1.092985   -3.7899638    805.85942  0.071365517  0.072268746            3 
  942000    1.1188796   -3.7372824    806.47583  0.071344288   0.07225445            1 
  943000    1.0770109   -3.7863505    809.06129  0.071497109  0.072240144            2 
  944000    1.1002787   -3.7844453    809.66603  0.071474755  0.072225859            3 
  945000    1.1275349   -3.8174581     803.4948   0.07085492  0.072210743            3 
  946000    1.0955396   -3.7546874    805.62367  0.070967554  0.072195484            1 
  947000    1.0906618   -3.7883763    809.36307  0.071221671  0.072180646            2 
  948000    1.1032237   -3.7742919    810.16073  0.071216661  0.072165468            2 
  949000    1.1138576   -3.7388904    809.02652  0.071042019  0.072150852            3 
  950000    1.0923029   -3.7953447    808.00238  0.070877402  0.072135746            2 
  951000    1.1178327   -3.7766079     809.2081  0.070908526  0.072120239            3 
  952000    1.1213508   -3.7871827    809.80579  0.070886362  0.072105012            1 
  953000    1.1162042    -3.787391    811.28124  0.070940997  0.072089004            3 
  954000    1.0902216   -3.7947258    813.93595  0.071098528  0.072072881            6 
  955000    1.0822696   -3.7875759    810.35633  0.070711721  0.072056193            4 
  956000    1.0876601   -3.7613575    816.33096  0.071158557  0.072039976            2 
  957000    1.1195954   -3.7498116    816.47448  0.071096698  0.072023538            3 
  958000    1.1283026   -3.7969192      811.371  0.070578549  0.072007093            3 
  959000    1.0660295   -3.7949244    816.75745  0.070973014  0.071991098            2 
  960000     1.079358   -3.7898582    814.37035   0.07069187  0.071975282            3 
  961000     1.093811    -3.774542    821.17504   0.07120838  0.071959727            2 
  962000    1.0970111   -3.7906163    818.65238  0.070915833  0.071943857            2 
  963000    1.0660822   -3.7869594    820.52021  0.071003826  0.071927938            3 
  964000    1.0894856    -3.774221    820.58687  0.070935932  0.071913015            4 
  965000    1.0862737    -3.772564    821.69626  0.070958226  0.071898458            4 
  966000    1.1165983    -3.788396    820.12619  0.070749326  0.071883141            4 
  967000    1.0872442   -3.7927399    824.00732  0.071010628   0.07186775            5 
  968000    1.0929239   -3.7806181    826.19997  0.071126031  0.071852787            1 
  969000    1.1225116   -3.7795344    826.48257  0.071076933  0.071838071            2 
  970000    1.1085433   -3.7811183    826.12086  0.070972582  0.071823267            3 
  971000    1.1063363   -3.7717863    829.58317  0.071196633  0.071808758            3 
  972000    1.0888302   -3.7887323    829.61124  0.071125792  0.071794756            3 
  973000    1.1112914   -3.7986596    825.62679  0.070711441  0.071780058            3 
  974000     1.102247   -3.8124531    827.54026  0.070802555  0.071764903            2 
  975000    1.0816134   -3.8203159    827.61819  0.070736597  0.071749769            4 
  976000    1.0803826   -3.7947072    826.19468  0.070542579  0.071733955            4 
  977000     1.088786   -3.8030296    831.02138  0.070882069  0.071719179            2 
  978000    1.0963271   -3.7944724    829.98254  0.070721076  0.071704269            2 
  979000    1.0692752   -3.7916095    829.42425  0.070601315  0.071689509            2 
  980000    1.1047923    -3.783844    829.60478  0.070544624  0.071674359            3 
  981000    1.1020617    -3.792056     831.0326  0.070594003   0.07165851            4 
  982000    1.0783867   -3.7953449    831.41845  0.070554858  0.071642371            1 
  983000    1.0981105   -3.7624433    830.78802  0.070429639  0.071626327            3 
  984000    1.0938798   -3.8093028    833.98766  0.070629036  0.071611079            2 
  985000    1.1008902   -3.7931241    837.80129  0.070879974  0.071595471            2 
  986000    1.1177247   -3.7559715    838.03796   0.07082809  0.071580759            1 
  987000    1.0871749   -3.7779843    834.97718  0.070497905  0.071565526            3 
  988000      1.10743   -3.8239776    835.12675  0.070439166  0.071550221            2 
  989000    1.0883066   -3.8216333    834.12532  0.070283563  0.071534869            2 
  990000    1.0835076    -3.767213    836.78598   0.07043653  0.071519494            3 
  991000    1.0822296   -3.7907192     839.2666   0.07057405  0.071504696            5 
  992000     1.079376    -3.798445    837.57071  0.070360442   0.07149022            3 
  993000    1.0837872   -3.8193101    839.60209  0.070460061   0.07147483            4 
  994000    1.1034208    -3.789422    839.83998   0.07040912  0.071459513            3 
  995000    1.0571871   -3.7860042    840.14757  0.070364118  0.071445514            3 
  996000    1.0962091   -3.7826975    848.53052  0.070994856  0.071431834            4 
  997000    1.0991451   -3.7968042    846.17374  0.070726658  0.071418054            1 
  998000    1.0914835   -3.7953063    846.99759  0.070724582  0.071404248            2 
  999000    1.1092978    -3.778366    848.31567  0.070763736  0.071390541            3 
 1000000    1.0891147   -3.7802988    847.92518  0.070660431  0.071376277            1 
 1001000    1.0989037   -3.8034522    846.34942   0.07045866  0.071362579            3 
 1002000    1.1151782   -3.7805442     851.3522  0.070804408  0.071349209            2 
 1003000    1.0994441   -3.7690112     849.3154  0.070564589  0.071335193            2 
 1004000    1.0882825   -3.8004523    852.36369  0.070747318   0.07132086            4 
 1005000    1.0756079   -3.7948102    848.79848    0.0703813  0.071306468            4 
 1006000    1.0988894   -3.7687838    853.90602  0.070734429  0.071292162            1 
 1007000    1.1023399   -3.8101263    852.51614  0.070549168  0.071279017            1 
 1008000    1.0856154   -3.8329675    852.00068  0.070436564  0.071265028            3 
 1009000    1.0817888   -3.7882987    851.90624  0.070358956  0.071250734            4 
 1010000    1.0751675    -3.792013    853.18312  0.070394647  0.071236415            2 
 1011000    1.0728545   -3.8004628    855.04624  0.070478589  0.071221935            2 
 1012000    1.1009665   -3.7970087    853.76337  0.070303308  0.071208448            3 
 1013000    1.0942425   -3.8167131    855.26652  0.070357561  0.071195002            3 
 1014000    1.1073569   -3.7875998    857.27662  0.070453371  0.071181328            2 
 1015000    1.0911456   -3.8196087    855.85015  0.070266843  0.071167694            2 
 1016000    1.0732748    -3.818423    857.33908  0.070319806  0.071153835            3 
 1017000    1.1013708    -3.808302    862.16095  0.070645768  0.071140312            5 
 1018000    1.0997741   -3.8023383    856.22991  0.070090857  0.071127021            2 
 1019000    1.0867762   -3.8176703    860.53695  0.070374301  0.071113618            2 
 1020000    1.0869916   -3.7890568    863.07175  0.070512398  0.071100172            4 
 1021000    1.0988351   -3.7862433    865.00994  0.070601529  0.071086238            6 
 1022000    1.0932699   -3.7840447    862.77581  0.070350278  0.071073418            3 
 1023000    1.1074788   -3.7863089    863.84855  0.070368894  0.071060158            2 
 1024000    1.0608966   -3.8002299    865.16627  0.070407411  0.071047544            2 
 1025000    1.0676238   -3.8083013     862.7775  0.070144513  0.071034543            1 
 1026000    1.0779878   -3.8163158    865.96372  0.070334935  0.071021479            4 
 1027000    1.0640028   -3.7993702    869.64854  0.070565445  0.071008538            3 
 1028000    1.0808236   -3.8000214    871.10709  0.070615036  0.070995778            3 
 1029000    1.0549462   -3.7960322    869.99922  0.070456691  0.070983002            1 
 1030000    1.0868992   -3.8191794    871.95298  0.070546357  0.070970832            2 
 1031000    1.0835175   -3.8395124    868.01275  0.070159453  0.070957724            2 
 1032000    1.0934212   -3.7736291    873.81125  0.070559694  0.070945287            3 
 1033000    1.0767478   -3.8198265    868.73026  0.070081499  0.070932811            3 
 1034000    1.1093015    -3.820531    873.10455   0.07036626  0.070920428            2 
 1035000    1.0690071   -3.8074361    873.04272  0.070293295  0.070908139            3 
 1036000     1.081133   -3.8104641    874.75512  0.070363185  0.070896127            3 
 1037000    1.0881335   -3.7942492    878.13521  0.070566957  0.070883902            2 
 1038000    1.0619261   -3.7924702    881.47218  0.070766874  0.070872149            2 
 1039000    1.0960375   -3.8260206     876.0231  0.070261718  0.070860234            3 
 1040000    1.0745351   -3.7891766    878.38768  0.070383628  0.070848442            2 
 1041000    1.1163914   -3.7947193    879.13941  0.070376194  0.070836869            3 
 1042000    1.0765059   -3.8470655    879.03387  0.070300214  0.070825477            4 
 1043000    1.0879961   -3.8169729    881.30834  0.070414537  0.070814025            2 
 1044000    1.0926076   -3.7834465    881.84482  0.070389912  0.070803043            3 
 1045000     1.095287   -3.8159241    886.01683  0.070655249   0.07079195            5 
 1046000    1.0786964   -3.8076991    886.41808  0.070619669  0.070781008            2 
 1047000    1.0892679   -3.8369574    882.66303  0.070253345  0.070770194            3 
 1048000    1.0768934   -3.8124574    887.72656  0.070588944  0.070759263            2 
 1049000    1.0597123   -3.8211538    888.17839  0.070557546  0.070748643            3 
 1050000    1.0920423   -3.8019596    890.10053  0.070642899  0.070737883            1 
 1051000    1.0949835   -3.8113495    885.26936  0.070192623  0.070727082            4 
 1052000    1.0893196   -3.8033465    888.17991  0.070356457  0.070715869            3 
 1053000    1.1043882   -3.7694341    889.68298  0.070408593  0.070704602            2 
 1054000    1.1045277   -3.7924143    890.66655  0.070419557  0.070693991            1 
 1055000    1.0835507   -3.7931458    891.85963  0.070447048  0.070683118            2 
 1056000    1.0870811   -3.8248479    893.14517  0.070481784  0.070672601            1 
 1057000    1.0610938    -3.805805    893.77198  0.070464521   0.07066199            2 
 1058000    1.0653581   -3.8069178    892.13404  0.070268907    0.0706511            1 
 1059000    1.0884212   -3.8086481    897.90179   0.07065642  0.070640201            3 
 1060000      1.08083   -3.8261223    900.83756  0.070820563  0.070629953            3 
 1061000    1.1006017   -3.8120101    898.20863  0.070547332  0.070619378            2 
 1062000    1.0903789    -3.812483    894.99616  0.070228826  0.070608859            2 
 1063000    1.0864575   -3.7839041    897.11826   0.07032912   0.07059804            4 
 1064000    1.0731539   -3.8117069      896.229  0.070193374  0.070587025            1 
 1065000    1.0860824   -3.7951137    898.26889   0.07028708  0.070576539            3 
 1066000    1.0814492   -3.8088341    897.65484  0.070173143  0.070565332            5 
 1067000    1.0833826   -3.8342982    897.15623  0.070068434   0.07055452            3 
 1068000    1.0707559   -3.8051663    900.56878    0.0702691  0.070543068            2 
 1069000    1.0877049   -3.8237754    901.71972  0.070293087  0.070532517            2 
 1070000    1.0760625   -3.8169509    903.76039  0.070386323  0.070521056            2 
 1071000    1.0914249   -3.7909386    901.94662  0.070179475  0.070510207            3 
 1072000    1.0722345   -3.8092015    905.67944  0.070404185  0.070499315            1 
 1073000    1.0869836   -3.8523631    906.00358  0.070363745  0.070488307            2 
 1074000    1.0754529   -3.8249446    901.63184  0.069959019  0.070477417            2 
 1075000    1.0926711   -3.8179304    906.82216  0.070296291  0.070467028            4 
 1076000    1.0902058   -3.8167793    904.60177  0.070058997   0.07045629            2 
 1077000    1.0774868   -3.7995858    908.55523  0.070299848  0.070445547            6 
 1078000    1.0991568   -3.8059528    908.45913  0.070227205  0.070435173            4 
 1079000    1.1013959   -3.8189597    906.98292  0.070048109  0.070424303            1 
 1080000    1.0733208   -3.8012742     906.2201  0.069924391  0.070413267            2 
 1081000     1.093449   -3.8088335    912.14313  0.070316306  0.070402418            2 
 1082000    1.0756764    -3.836368    912.07801  0.070246304  0.070392102            4 
 1083000     1.074861   -3.8132077    914.98758  0.070405323  0.070381322            3 
 1084000    1.0875623   -3.7982098    916.93662  0.070490207  0.070370984            2 
 1085000    1.1228904   -3.8050787    910.77796  0.069952225  0.070360477            3 
 1086000    1.0840267   -3.8445491    914.68389   0.07018753  0.070350026            3 
 1087000     1.055367   -3.8323953    913.91313  0.070063871  0.070339481            8 
 1088000    1.0617608    -3.833494     911.0555  0.069780599  0.070328581            4 
 1089000    1.0811064   -3.8310243    913.77548  0.069924662  0.070317778            3 
 1090000    1.0825763   -3.8142522    919.35605   0.07028716  0.070307504            2 
 1091000    1.0903802   -3.8106965    918.15384  0.070130907  0.070297272            2 
 1092000    1.0707071   -3.7820913    922.71703  0.070414914  0.070287323            3 
 1093000     1.069832   -3.8234156    921.56492   0.07026265  0.070277358            3 
 1094000     1.060866   -3.7964506    922.69434  0.070284456  0.070267821            4 
 1095000    1.0894382   -3.7737388    923.91227  0.070312958  0.070258817            3 
 1096000    1.0876385   -3.8314804    923.89781  0.070247705  0.070249664            1 
 1097000    1.0908405   -3.8136937    921.13229  0.069973587  0.070240264            2 
 1098000    1.0980947    -3.839481    922.63651  0.070024021  0.070231353            3 
 1099000    1.0894632   -3.8272905    925.67561   0.07019075  0.070221562            3 
 1100000    1.0854122   -3.7977383    927.81491  0.070289008  0.070212389            2 
 1101000    1.0939625   -3.7900795    928.67687  0.070290408  0.070202977            3 
 1102000    1.0608114   -3.8220144    928.13894  0.070185945   0.07019315            2 
 1103000    1.0793294   -3.8106864    926.31762   0.06998471  0.070183095            1 
 1104000    1.0758936   -3.8294707    926.39765  0.069927359  0.070172702            2 
 1105000    1.1033838   -3.8501474    928.04826  0.069988556  0.070161967            2 
 1106000    1.0501098   -3.8324594    928.70188  0.069974524  0.070152015            2 
 1107000    1.0579869   -3.8505116    929.68321  0.069985186  0.070141722            3 
 1108000    1.1009015   -3.8103816    929.39726  0.069900516  0.070131231            1 
 1109000    1.0641689   -3.8023915    932.93118  0.070103034  0.070120806            2 
 1110000    1.0497658   -3.7969159    931.81878  0.069956365  0.070110649            5 
 1111000    1.0647102   -3.8154195    931.23625  0.069849704  0.070100052            4 
 1112000    1.0917927   -3.8416238    932.08902  0.069850796  0.070089498            4 
 1113000    1.0800471   -3.8162392    933.47782   0.06989202  0.070079222            4 
 1114000    1.0773807   -3.8386595    930.70528  0.069621879  0.070068441            2 
 1115000    1.0644877   -3.8296056    937.54668  0.070070753  0.070058295            3 
 1116000    1.0807521   -3.8413417    933.56007   0.06971028  0.070047459            2 
 1117000    1.0550169   -3.8202643     932.9927  0.069605543  0.070036445            5 
 1118000    1.0601831   -3.8143888     939.4877  0.070027407  0.070025994            4 
 1119000    1.0871001   -3.8224256     936.3448  0.069730771  0.070015609            1 
 1120000    1.0649673   -3.8458283    939.71941  0.069919599  0.070005118            4 
 1121000     1.080497    -3.792517    937.92959  0.069724174   0.06999514            5 
 1122000      1.07801   -3.8205907    942.60975  0.070009637  0.069985493            3 
 1123000    1.0791482   -3.8410571    942.00525  0.069902437  0.069975542            4 
 1124000    1.0880216   -3.7867935    946.43217  0.070168459  0.069965485            2 
 1125000    1.0576963   -3.8348791    941.82053  0.069764483  0.069955901            4 
 1126000    1.0673901   -3.8303677     944.2985  0.069885917  0.069945865            2 
 1127000    1.0859391   -3.8198366    943.20443  0.069743007   0.06993524            1 
 1128000    1.0557177   -3.8406054    939.91031  0.069437819  0.069924173            5 
 1129000    1.0753702   -3.8388043    944.03013  0.069680405  0.069913519            4 
 1130000    1.0578022   -3.8514348    944.92121  0.069684455  0.069902951            4 
 1131000    1.0598672   -3.7989585    949.58765   0.06996667  0.069892264            2 
 1132000    1.0453459    -3.846577     947.6675  0.069763509  0.069881738            4 
 1133000    1.0415342   -3.8153396    945.77858  0.069563002  0.069870727            2 
 1134000    1.0903461   -3.7943082    947.99086  0.069664231  0.069860224            2 
 1135000    1.0676643   -3.8302059    949.25858  0.069695931  0.069849882            4 
 1136000    1.0692214   -3.8775101    946.43871  0.069427722  0.069839034            2 
 1137000    1.0675333    -3.845832    946.13428  0.069344348   0.06982801            7 
 1138000    1.0659992   -3.8279679    947.67343  0.069396121  0.069817136            8 
 1139000    1.1006574   -3.8492248    951.39376  0.069607387  0.069806687            3 
 1140000    1.0772894   -3.8411975    949.56205  0.069412431  0.069795713            4 
 1141000    1.0456471   -3.8542543     952.1794  0.069542755  0.069784552            2 
 1142000    1.0856624   -3.8392281    955.53708  0.069726874  0.069773218            4 
 1143000    1.0757411   -3.8108509    957.43925  0.069804553  0.069762217            2 
 1144000    1.0574871   -3.8298213    954.82789  0.069553314  0.069751336            1 
 1145000    1.0928789   -3.8313115     954.8653  0.069495291  0.069740375            2 
 1146000    1.0659827   -3.8573217    957.65465  0.069637482   0.06972942            3 
 1147000    1.0755585   -3.8412237    951.36973  0.069120149  0.069718385            3 
 1148000    1.0725699   -3.8400497    961.08282  0.069765013   0.06970771            1 
 1149000    1.0927196   -3.8425673     962.0611  0.069775247  0.069696861            6 
 1150000     1.075462   -3.8011101    963.03868  0.069785412  0.069685597            8 
 1151000    1.0556306   -3.8542753    958.68967   0.06940991  0.069674685            3 
 1152000    1.0559941   -3.8363151    960.55645  0.069484697  0.069663731            2 
 1153000    1.0543287   -3.8289915    963.10956  0.069608959  0.069653363            3 
 1154000    1.0713121   -3.8367251    959.81145  0.069310474  0.069642888            2 
 1155000    1.0625997   -3.8431276    964.57299  0.069594011  0.069632331            1 
 1156000    1.0479468   -3.8503029    965.18413  0.069577864  0.069621649            3 
 1157000    1.0596377   -3.8268398    968.54938  0.069760111  0.069611271            3 
 1158000    1.0886774   -3.8500754    963.15049  0.069311348  0.069601032            3 
 1159000    1.0688602   -3.8196261    967.36535  0.069554598  0.069591142            3 
 1160000     1.056951    -3.843155    966.70257  0.069447024  0.069581677            4 
 1161000    1.0788836   -3.8183127    967.58265  0.069450377   0.06957157            4 
 1162000    1.0828018   -3.8219332    968.37286  0.069447279  0.069561563            4 
 1163000    1.0640337   -3.8404975    974.43878  0.069822211  0.069551917            1 
 1164000    1.0468088   -3.8167799    973.70184  0.069709467  0.069541541            2 
 1165000    1.0623182   -3.8218164    972.01345  0.069528859  0.069531778            2 
 1166000    1.0706991   -3.8277773    974.04819  0.069614651  0.069522613            4 
 1167000    1.1010687   -3.8436238    973.80441   0.06953759  0.069512595            3 
 1168000    1.0616959   -3.8474549    972.68637  0.069398285  0.069503213            1 
 1169000    1.0733116   -3.8322646    977.43395  0.069677356  0.069493813            3 
 1170000    1.0800578   -3.8141991    977.76891   0.06964166  0.069483725            2 
 1171000    1.0458307   -3.8431481    976.99966  0.069527445  0.069473717            2 
 1172000    1.0620973   -3.8137496    980.34712  0.069706137  0.069464264            2 
 1173000    1.0720282   -3.8539524    975.05174  0.069270513  0.069454245            3 
 1174000    1.0530149   -3.8569635    974.50094  0.069172412  0.069444682            3 
 1175000    1.0803758   -3.8542259    979.54752  0.069471456  0.069435155            2 
 1176000    1.0769003   -3.8372169     978.7613  0.069356668   0.06942567            3 
 1177000    1.0677505   -3.8462687    983.57808  0.069638777  0.069415821            1 
 1178000    1.0503577   -3.8461244    981.72417  0.069448512  0.069406236            2 
 1179000    1.0463303   -3.8452861    980.35738  0.069293001  0.069396647            2 
 1180000    1.0631041   -3.8347209    983.81324  0.069478336  0.069387191            3 
 1181000    1.0697915   -3.8782279    981.41691  0.069250417  0.069377895            2 
 1182000    1.0796714   -3.8319225    982.52471  0.069269932   0.06936854            1 
 1183000    1.0620561   -3.8701844    982.53214    0.0692119   0.06935879            2 
 1184000    1.0610596   -3.8613784    982.62999  0.069160332  0.069348873            2 
 1185000    1.0695434   -3.8600934    984.72888   0.06924957  0.069339235            3 
 1186000    1.0752735   -3.8467262    986.34342  0.069304625  0.069329584            2 
 1187000    1.0850282   -3.8253617    986.50604  0.069257655   0.06931985            2 
 1188000    1.0379815   -3.8663746    983.55046  0.068992035  0.069310067            6 
 1189000     1.079347   -3.8631019    984.30575  0.068986946  0.069300076            4 
 1190000    1.0624037   -3.8156469    989.18733  0.069270821  0.069290455            1 
 1191000    1.0571796   -3.8334728    990.94244  0.069335463  0.069280647            2 
 1192000    1.0493958    -3.844405    985.88334  0.068923612  0.069270826            3 
 1193000    1.0765502   -3.8490507    993.59789  0.069404714  0.069260935            2 
 1194000     1.065375   -3.8465565    990.36221  0.069120757  0.069251045            6 
 1195000    1.0773197   -3.8317637    995.75528  0.069439001  0.069241341            2 
 1196000    1.0505251   -3.8693218    989.11251  0.068918096  0.069231887            2 
 1197000    1.0631786   -3.8246437     1000.364  0.069643834  0.069222762            5 
 1198000    1.0416706   -3.8901754    989.20846  0.068809715  0.069213345            2 
 1199000    1.0601715   -3.8211099    999.80104  0.069488535  0.069203455            3 
 1200000    1.0769894   -3.8580259     997.1319  0.069245271  0.069194191            3 
 1201000    1.0595755   -3.8503561    997.99321  0.069247378   0.06918445            4 
 1202000    1.0506586   -3.8435743    1000.2041  0.069343044  0.069174636            1 
 1203000    1.0531417   -3.8397791    999.62038  0.069244969  0.069165155            4 
 1204000    1.0550511   -3.8301916    999.38685  0.069171294  0.069155602            2 
 1205000    1.0645713   -3.8444941    998.19582  0.069031523  0.069145928            2 
 1206000     1.045628   -3.8453569    998.84217  0.069018945  0.069136558            3 
 1207000    1.0591769   -3.8332064    1002.9112  0.069242695  0.069126969            1 
 1208000     1.061607   -3.8511907    1000.3098  0.069005916  0.069117932            4 
 1209000    1.0771357   -3.8271611    1005.0626  0.069276438  0.069108539            6 
 1210000    1.0658196   -3.8107865     1006.076  0.069288979  0.069099569            3 
 1211000    1.0498969   -3.8791149    1000.5016  0.068848168  0.069090309            4 
 1212000    1.0650032   -3.8431015    1002.7082  0.068943085  0.069080858            2 
 1213000    1.0366579    -3.866071    1009.7949  0.069373106  0.069071207            3 
 1214000    1.0543437   -3.8659232    1007.0755  0.069129288  0.069061737            6 
 1215000    1.0571988   -3.8531991    1008.6283  0.069178898  0.069053029            3 
 1216000    1.0386357   -3.8620455     1003.234  0.068752331  0.069044105            4 
 1217000    1.0445052   -3.8477115     1011.131  0.069236579  0.069034863            2 
 1218000    1.0503716     -3.84957    1010.1254  0.069110931  0.069025486            4 
 1219000    1.0915877   -3.8251002    1011.6991   0.06916182  0.069016034            1 
 1220000    1.0715818   -3.8020583    1012.2019  0.069139475  0.069007107            2 
 1221000    1.0622736   -3.8859417    1008.4984  0.068830085  0.068997761            2 
 1222000    1.0499808   -3.8571158    1010.2142  0.068890765  0.068988396            4 
 1223000    1.0469544   -3.8338501    1016.6116  0.069270346  0.068979238            2 
 1224000    1.0364485   -3.8535207    1014.2146  0.069050562  0.068969911            2 
 1225000    1.0598073   -3.8592335    1016.5165  0.069150779  0.068960701            3 
 1226000     1.077017   -3.8625235      1013.91  0.068917211  0.068951303            2 
 1227000    1.0743516   -3.8919024    1017.2221  0.069085988  0.068941963            4 
 1228000    1.0587836   -3.8580577    1015.1444  0.068888734  0.068933017            4 
 1229000    1.0621977   -3.8462064    1024.0905  0.069439283  0.068923681            2 
 1230000    1.0620463   -3.8762947    1019.1894  0.069050772  0.068914713            2 
 1231000    1.0547759   -3.8633563    1017.4669  0.068878075  0.068905472            2 
 1232000    1.0409865   -3.8777669    1019.9744  0.068991778  0.068895802            1 
 1233000    1.0531086   -3.8714293    1019.4265  0.068898788  0.068886001            2 
 1234000    1.0733978   -3.8516608     1019.533  0.068850151  0.068875943            4 
 1235000    1.0707062   -3.8741645    1020.9459   0.06888974  0.068866077            1 
 1236000    1.0704992   -3.8449544    1023.2797  0.068991349  0.068855769            4 
 1237000     1.071022   -3.8192823    1023.0692  0.068921394  0.068845977            4 
 1238000    1.0384661   -3.8104664    1023.8688  0.068919551  0.068836357            1 
 1239000    1.0611361   -3.8331589    1023.1789  0.068817519  0.068826354            1 
 1240000    1.0464924   -3.8641888    1024.6152  0.068858548  0.068816467            3 
 1241000    1.0527634   -3.8439008    1024.3019  0.068782022  0.068806144            3 
 1242000    1.0266688   -3.8340974    1025.3171  0.068794761  0.068795889            1 
 1243000    1.0311387    -3.839962    1026.4963  0.068818468  0.068785449            4 
 1244000    1.0616842   -3.8663586    1026.9696  0.068794854  0.068775261            2 
 1245000    1.0341746   -3.8676339     1027.882  0.068800671  0.068765182            1 
 1246000    1.0640687   -3.8357625    1030.2686  0.068905071  0.068755535            3 
 1247000    1.0254733   -3.8494726    1031.9686   0.06896342  0.068745893            3 
 1248000    1.0495874   -3.8940379    1027.8619  0.068633944  0.068736386            3 
 1249000     1.045283   -3.8721187    1027.7254  0.068569884  0.068727019            1 
 1250000    1.0607069   -3.8647759    1031.1871  0.068745806   0.06871771            3 
 1251000    1.0686615   -3.8574009    1036.0439  0.069014381  0.068708455            2 
 1252000    1.0636594    -3.867587    1031.0553  0.068627215  0.068699096            4 
 1253000    1.0344974   -3.8478813    1037.6968  0.069014155  0.068689855            2 
 1254000    1.0623301   -3.8396704    1038.1845  0.068991526  0.068680692            4 
 1255000    1.0685227   -3.8679464    1036.7141  0.068838915  0.068670943            2 
 1256000     1.048845   -3.8710708    1031.1619  0.068415732   0.06866138            3 
 1257000    1.0354088   -3.8667264    1038.5609  0.068851822  0.068651571            3 
 1258000    1.0499052   -3.8474359    1034.4094  0.068522084  0.068641661            2 
 1259000    1.0436892   -3.8639601    1038.7467  0.068754749  0.068631777            4 
 1260000    1.0410292   -3.8832562     1034.979  0.068450992  0.068621817            3 
 1261000    1.0597644   -3.8728066    1037.7498  0.068579818  0.068612153            4 
 1262000     1.052946   -3.8722959    1037.6806  0.068520904  0.068602604            2 
 1263000    1.0820811   -3.8512401     1034.516  0.068257852  0.068593012            3 
 1264000    1.0495875   -3.8686811    1040.9545  0.068628333  0.068583017            3 
 1265000    1.0471291   -3.8348103    1041.7509  0.068626538  0.068572703            3 
 1266000    1.0691851    -3.877942    1035.5034  0.068161095  0.068562658            4 
 1267000    1.0431763   -3.8447019    1040.4235  0.068430903  0.068552577            3 
 1268000    1.0399774   -3.8479107    1040.3016  0.068368927  0.068542865            2 
 1269000    1.0731329   -3.8687416    1040.6595  0.068338552  0.068532617            2 
 1270000    1.0362707   -3.8745343    1041.4607  0.068337318  0.068522564            2 
 1271000    1.0474934   -3.8428003     1045.778  0.068566615  0.068512623            5 
 1272000    1.0628255   -3.8767703    1044.4082   0.06842297   0.06850301            5 
 1273000    1.0524728   -3.8836023    1041.3699  0.068170326  0.068492673            3 
 1274000    1.0162529   -3.8709687    1043.3787  0.068248214  0.068482502            5 
 1275000    1.0547097   -3.8320629     1047.648  0.068473728  0.068472768            6 
 1276000    1.0839219   -3.8763849    1047.0954  0.068383974  0.068462653            2 
 1277000    1.0544313   -3.8824721     1045.358  0.068217047  0.068452537            5 
 1278000    1.0329896   -3.8764626    1044.2951  0.068094359  0.068442951            1 
 1279000    1.0439329   -3.8747682    1048.0819   0.06828785  0.068432897            2 
 1280000    1.0445254   -3.8674668    1047.0943  0.068170203  0.068422709            3 
 1281000    1.0518456   -3.8817539    1050.3199   0.06832682  0.068412897            1 
 1282000    1.0627215   -3.8570861    1044.5059  0.067895599  0.068402936            3 
 1283000    1.0582003   -3.8553259    1055.0885  0.068530041  0.068392985            4 
 1284000    1.0329587   -3.8924798    1049.5627  0.068118038  0.068383055            6 
 1285000    1.0148262   -3.8794892    1049.2763  0.068046454  0.068372831            4 
 1286000    1.0608332   -3.9191923    1050.0795  0.068045588  0.068362239            2 
 1287000    1.0391015   -3.8593806    1053.0606  0.068185743  0.068351354            2 
 1288000    1.0590912   -3.8705778    1052.6893  0.068108777  0.068341058            4 
 1289000    1.0703841   -3.8669813     1055.556  0.068241273  0.068330482            2 
 1290000    1.0509956   -3.8586902    1056.2261   0.06823166  0.068320377            8 
 1291000    1.0500183   -3.8784831    1056.9152  0.068223287  0.068309806            2 
 1292000    1.0305215   -3.8606015     1054.234  0.067997548  0.068298857            2 
 1293000    1.0303776   -3.8568267    1059.4792  0.068283013  0.068288621            2 
 1294000     1.025554   -3.8666747    1056.6434  0.068047614  0.068278276            3 
 1295000    1.0518775   -3.8422253    1062.3923  0.068365015  0.068267913            5 
 1296000    1.0482582    -3.879335    1058.7057  0.068075214  0.068257379            5 
 1297000    1.0345662   -3.8640588    1058.4771  0.068008038   0.06824702            3 
 1298000    1.0309987    -3.863281    1061.1488  0.068127169  0.068236401            3 
 1299000     1.036136   -3.9292892    1060.9768  0.068063688  0.068225612            3 
 1300000    1.0309289   -3.8350764    1063.3532  0.068163664  0.068215152            4 
 1301000    1.0302604   -3.8580368    1063.5004  0.068120705  0.068205594            3 
 1302000    1.0427235   -3.8797155    1065.3545   0.06818705  0.068195808            1 
 1303000      1.05072   -3.8776588    1064.0826  0.068053378  0.068186164            3 
 1304000    1.0630448   -3.8669436    1066.2946  0.068142549  0.068176258            3 
 1305000    1.0588621   -3.8634115    1068.3114  0.068219116  0.068166585            3 
 1306000    1.0320789   -3.8653873    1068.8747  0.068202826  0.068156997            4 
 1307000    1.0360743   -3.8648548    1073.8726  0.068469306  0.068147704            2 
 1308000    1.0378067   -3.8890869    1068.1462  0.068052127  0.068138271            2 
 1309000     1.043506   -3.8678326    1069.2669  0.068071484  0.068128006            3 
 1310000     1.031295   -3.8822238    1074.7691  0.068369535  0.068118174            2 
 1311000    1.0547408   -3.8988515    1070.1296  0.068022475  0.068108952            3 
 1312000    1.0557013   -3.9138847    1067.2822  0.067789775  0.068098803            2 
 1313000    1.0355488    -3.845584    1075.2103  0.068241324  0.068088995            1 
 1314000    1.0524412   -3.8463829    1073.8404  0.068102513  0.068079894            3 
 1315000    1.0281639   -3.8467416     1075.129  0.068132382  0.068069858            1 
 1316000    1.0570899   -3.8531329    1077.2245  0.068213306  0.068060127            3 
 1317000    1.0282197   -3.8848061    1071.2426  0.067783005  0.068050366            6 
 1318000    1.0477448   -3.8772213    1075.7343  0.068015572  0.068040509            5 
 1319000    1.0510703   -3.8825978    1077.7123  0.068088976  0.068030737            3 
 1320000    1.0385984   -3.8754862     1077.697  0.068036427  0.068021222            1 
 1321000    1.0395766   -3.8836707    1076.9025  0.067934802  0.068011193            2 
 1322000     1.035488   -3.8669883    1081.3037  0.068160851  0.068001355            4 
 1323000    1.0549928   -3.8810895    1083.1355  0.068224707  0.067991658            6 
 1324000    1.0436373   -3.8765716    1080.0617  0.067979714  0.067982312            6 
 1325000    1.0428355   -3.8580749    1086.9871  0.068363966  0.067973098            5 
 1326000    1.0279322   -3.9017985    1081.6103  0.067974507  0.067963836            3 
 1327000    1.0326179   -3.8535905    1085.3868  0.068160436  0.067954344            2 
 1328000    1.0246511   -3.8867225    1085.1073  0.068091571  0.067944804            2 
 1329000    1.0336011   -3.8873328    1081.3272  0.067803314  0.067935544            5 
 1330000    1.0666949   -3.8972476    1084.1449   0.06792888  0.067925737            2 
 1331000    1.0421781   -3.8769176    1084.6376  0.067908689  0.067916045            4 
 1332000    1.0183492   -3.8593403    1086.8099  0.067993613    0.0679061            2 
 1333000     1.047182   -3.8675504    1088.5135  0.068049104    0.0678963            2 
 1334000    1.0311481    -3.873903    1085.8133  0.067829414  0.067886385            2 
 1335000    1.0501776   -3.8560823    1086.4971   0.06782129  0.067876575            3 
 1336000    1.0489225   -3.8858347    1085.6573  0.067718147  0.067866972            2 
 1337000    1.0113816   -3.8736616    1089.8871  0.067931131   0.06785696            4 
 1338000    1.0555487   -3.9065958    1085.3799  0.067599646  0.067846671            3 
 1339000    1.0516918   -3.8640762    1093.0068  0.068023824  0.067836783            2 
 1340000    1.0381631   -3.8804463    1090.6406   0.06782591  0.067827102            2 
 1341000    1.0296918   -3.9056328    1088.0513  0.067614425  0.067817407            3 
 1342000    1.0295228   -3.8886277       1090.6  0.067722305  0.067806944            5 
 1343000    1.0037828   -3.8879119    1086.5201   0.06741872  0.067796718            5 
 1344000     1.047672   -3.8857133    1093.1179  0.067777646  0.067786033            2 
 1345000     1.024278   -3.8868511    1087.7796  0.067396509  0.067775472            2 
 1346000    1.0130865   -3.8855674    1090.3359  0.067504698  0.067765643            1 
 1347000    1.0564717   -3.8954063    1091.4591  0.067524071  0.067754921            3 
 1348000    1.0408494   -3.8869536     1095.527  0.067725458  0.067745061            2 
 1349000    1.0390268   -3.8929478     1093.697  0.067562206  0.067735102            3 
 1350000    1.0155136   -3.8836675    1095.5978  0.067629495   0.06772532            4 
 1351000    1.0402638   -3.9096164    1095.0902  0.067548125  0.067715505            2 
 1352000    1.0471161   -3.9040052    1095.2175  0.067506012  0.067705826            4 
 1353000    1.0273675   -3.8871304    1100.2025  0.067763151   0.06769608            5 
 1354000    1.0130127   -3.8911561    1099.3442  0.067660279  0.067686017            2 
 1355000    1.0250401   -3.8741021    1098.4827  0.067557362   0.06767606            4 
 1356000     1.036389   -3.8822777    1101.7043  0.067705526  0.067666333            3 
 1357000    1.0259014   -3.8671263    1098.9399   0.06748587  0.067656769            2 
 1358000    1.0225989    -3.886714     1100.753  0.067547433   0.06764724            2 
 1359000    1.0100879   -3.8776588    1103.2907  0.067653341  0.067637539            4 
 1360000    1.0269919   -3.9006531    1103.2601   0.06760172  0.067627841            2 
 1361000    1.0405724   -3.8736411    1101.9816   0.06747377   0.06761803            4 
 1362000    1.0583164   -3.8937863    1099.2673  0.067258153  0.067607862            2 
 1363000    1.0405457   -3.9212563    1100.6092  0.067290852  0.067597708            2 
 1364000    1.0350169   -3.8751342    1107.5352   0.06766466   0.06758793            4 
 1365000    1.0307056   -3.8680848    1104.6168  0.067436926  0.067578025            3 
 1366000    1.0277439   -3.8758684    1105.8186  0.067460871  0.067567852            3 
 1367000    1.0300604   -3.8673142    1106.1965  0.067434561  0.067557606            2 
 1368000    1.0357842   -3.8996767    1104.3903  0.067275235  0.067547137            2 
 1369000    1.0148805   -3.9204446    1108.8984  0.067500513  0.067536606            1 
 1370000     1.032841   -3.8713229    1106.2593  0.067290711  0.067526111            2 
 1371000    1.0373267   -3.8768576    1113.8731  0.067704421  0.067515388            3 
 1372000    1.0318256   -3.8830435    1110.4827  0.067449141  0.067504693            2 
 1373000    1.0474731   -3.9039762    1103.3522   0.06696724  0.067493977            2 
 1374000    1.0369475   -3.8982747    1111.6139  0.067419572  0.067483416            2 
 1375000    1.0251292   -3.8957805    1114.2799  0.067532117  0.067473218            2 
 1376000    1.0084902   -3.8606778    1111.4564  0.067312041  0.067463024            2 
 1377000    1.0418373   -3.8802505    1113.6739  0.067397356  0.067452869            2 
 1378000    1.0417444   -3.9094065     1109.531  0.067097908  0.067442889            5 
 1379000    1.0220385   -3.8934332     1113.199  0.067270909  0.067432338            2 
 1380000    1.0360545   -3.9095819    1118.1914  0.067523635  0.067421686            2 
 1381000    1.0222392   -3.8964324    1110.7701  0.067026922  0.067411215            4 
 1382000    1.0143535   -3.8805579    1110.5138  0.066962961  0.067400374            1 
 1383000    1.0242997   -3.8725285    1110.9881  0.066943127  0.067389439            4 
 1384000    1.0483497    -3.887887    1117.9841  0.067316001  0.067378483            6 
 1385000    1.0352336   -3.8852199    1119.2011  0.067340619  0.067367606            3 
 1386000    1.0075523   -3.8862642    1117.9025  0.067213952  0.067356327            6 
 1387000    1.0040407   -3.8841199    1114.7207  0.066974326  0.067345187            2 
 1388000    1.0535078   -3.8867496    1117.3144  0.067081796  0.067334177            1 
 1389000    1.0491312    -3.909787    1116.1976    0.0669665  0.067322989            2 
 1390000    1.0488092   -3.8629605     1122.105  0.067272483  0.067311903            1 
 1391000    1.0249521   -3.8840348    1119.0879  0.067043368  0.067301065            1 
 1392000    1.0233663   -3.8798291    1119.3611  0.067011562  0.067290578            3 
 1393000    1.0392539   -3.9297311    1124.6366   0.06727905   0.06727995            3 
 1394000    1.0685576   -3.9051882    1117.3039   0.06679244   0.06726899            2 
 1395000    1.0250431   -3.9027036    1119.4201  0.066870975  0.067257911           11 
 1396000    1.0352933   -3.9227569    1122.1452  0.066985746  0.067247149            2 
 1397000    1.0424828   -3.9161908    1122.0305  0.066930954  0.067236248            1 
 1398000    1.0483307   -3.8860898    1120.7854  0.066808855   0.06722543            3 
 1399000    1.0075445    -3.923369    1123.0027  0.066893178   0.06721455            3 
 1400000    1.0373637   -3.8828388     1127.648  0.067121907  0.067204058            2 
 1401000    1.0153102   -3.8863546    1125.6666  0.066956137  0.067193559            3 
 1402000    1.0305029   -3.8970526    1126.6994  0.066969769  0.067182815            2 
 1403000    1.0221139   -3.9208353    1126.5368  0.066912379  0.067172045            3 
 1404000     1.033821   -3.8779394    1127.4277  0.066917596  0.067161061            2 
 1405000    1.0000598   -3.9112339    1126.2441  0.066799768  0.067150353            2 
 1406000    1.0300723   -3.8896457    1129.8331  0.066964978  0.067139261            2 
 1407000    1.0415848   -3.9037435    1125.8543  0.066681727  0.067128438            1 
 1408000    1.0194122   -3.8711621    1128.2747  0.066777623  0.067116987            2 
 1409000    1.0330079   -3.9138735     1125.401  0.066560266  0.067106183            3 
 1410000    1.0068149   -3.8838545    1136.0108  0.067140116    0.0670954            3 
 1411000     1.005693   -3.8753141     1131.269  0.066812486  0.067084272            5 
 1412000    1.0298531   -3.8896681    1130.4305  0.066715683  0.067073207            2 
 1413000    1.0170525   -3.9086508    1129.4563  0.066611014  0.067062072            2 
 1414000    1.0484424   -3.9413672    1129.4156  0.066561503  0.067050967            2 
 1415000      1.03969   -3.9019257    1129.2213  0.066503023  0.067039401            2 
 1416000     1.050481   -3.9019237    1131.3985  0.066584189  0.067028195            4 
 1417000     1.042903     -3.87833    1136.4575  0.066834715  0.067017162            3 
 1418000    1.0334261   -3.8895205    1134.1866  0.066654128  0.067006159            1 
 1419000    1.0276639   -3.9142806    1136.2265   0.06672695  0.066995263            2 
 1420000    1.0128499   -3.9086059    1133.5876  0.066525093  0.066984551            2 
 1421000    1.0237602   -3.9052856    1143.6057   0.06706578  0.066973642            4 
 1422000    1.0077274   -3.9179123    1139.0604  0.066752248  0.066963047            2 
 1423000    1.0167186   -3.8857822    1142.6166  0.066913595  0.066952311            3 
 1424000    1.0267936   -3.9131096     1137.387   0.06656057  0.066941772            2 
 1425000    1.0209616   -3.8761373    1140.4148  0.066690922  0.066931316            2 
 1426000    0.9950703   -3.9118855    1143.1976  0.066806781  0.066920537            3 
 1427000    1.0341765   -3.9179512    1142.6248  0.066726514  0.066909303            3 
 1428000    1.0437154   -3.8890357    1138.8377  0.066458784    0.0668982            5 
 1429000    1.0437144   -3.9166515    1143.7405  0.066698186  0.066887024            3 
 1430000    1.0288342   -3.8930909    1144.4455  0.066692628  0.066876771            2 
 1431000    1.0003036   -3.8955023    1145.8002  0.066724913  0.066866234            3 
 1432000    1.0278465   -3.8859677    1145.5272  0.066662431  0.066855387            2 
 1433000    1.0199865   -3.9007133    1151.3799  0.066956266  0.066844878            2 
 1434000    1.0280747   -3.9379091    1146.2881  0.066613672  0.066834824            2 
 1435000    1.0218894   -3.9181146    1146.6742  0.066589676  0.066824147            3 
 1436000    1.0233854   -3.8794641    1155.3882  0.067048987  0.066813933            2 
 1437000    1.0338089   -3.8691622    1150.7813   0.06673517  0.066803435            2 
 1438000    1.0135327   -3.8971435     1151.789  0.066747163  0.066792933            2 
 1439000    1.0240944   -3.9017098     1150.411  0.066620976  0.066782206            2 
 1440000    1.0220786   -3.9001342    1156.1016   0.06690403   0.06677189            3 
 1441000    1.0061395   -3.9092308     1152.425  0.066644979  0.066761214            3 
 1442000    1.0304687   -3.8948796    1156.7227  0.066847127  0.066750839            3 
 1443000    1.0065592   -3.8968228    1154.7838  0.066688832  0.066740486            3 
 1444000    1.0197078   -3.8924023    1154.6085  0.066632532  0.066729938            2 
 1445000    1.0199383   -3.9313729    1153.5294  0.066524188  0.066719424            6 
 1446000    1.0050244   -3.9111128    1153.8394  0.066496045  0.066708634            2 
 1447000    1.0091737   -3.9063019    1156.1102  0.066580867  0.066698498            2 
 1448000    1.0171882    -3.899225    1159.3502  0.066721352  0.066687873            2 
 1449000    1.0138694   -3.8828973    1162.4792  0.066855255  0.066677428            4 
 1450000    1.0109019   -3.9266758    1154.7461  0.066364716  0.066666972            2 
 1451000    1.0169963   -3.9157533     1158.838  0.066553985  0.066657077            2 
 1452000    1.0138114   -3.9036042    1154.8046  0.066276663    0.0666469            3 
 1453000    1.0134111   -3.8903832     1159.554  0.066503442  0.066636632            4 
 1454000    1.0527328   -3.8825019    1158.2746  0.066384378  0.066626061            2 
 1455000    1.0309935   -3.9110513    1161.7085  0.066535423   0.06661575            4 
 1456000    1.0031732   -3.8994241    1157.9461  0.066274387  0.066605362            2 
 1457000    1.0160879   -3.8998688    1163.2338  0.066531332  0.066594952            4 
 1458000    1.0183148   -3.9118657    1163.6444  0.066509167  0.066584345            4 
 1459000    1.0139118    -3.935495    1163.4871  0.066454597  0.066573711            3 
 1460000    1.0467705   -3.9005237    1161.8878  0.066317796  0.066563056            2 
 1461000    1.0545019   -3.9068139    1163.7484  0.066378531   0.06655238            4 
 1462000     1.047865   -3.8867758    1165.8818  0.066454732  0.066542074            2 
 1463000     1.034523   -3.9246781    1156.6045  0.065880867  0.066530933            3 
 1464000    1.0120903   -3.9097655     1165.258  0.066328435  0.066519888            4 
 1465000    1.0289817   -3.9260356    1161.4911  0.066068892  0.066508953            4 
 1466000    1.0026849   -3.9042952    1163.0395   0.06611184  0.066498119            2 
 1467000    1.0348706   -3.8904842    1169.7087   0.06644562  0.066487147            3 
 1468000   0.98926364   -3.9548856    1170.2497  0.066431069  0.066476536            5 
 1469000    1.0379248   -3.9258332    1171.0618  0.066431915  0.066465518            2 
 1470000    1.0271732   -3.9281597    1170.1328  0.066334062  0.066454999            2 
 1471000     1.036049   -3.9407298    1169.4057  0.066247775  0.066444349            4 
 1472000    1.0036008   -3.9241459    1168.5862  0.066156372  0.066433449            4 
 1473000    1.0305646   -3.9082207    1171.1026  0.066253823  0.066422982            2 
 1474000    1.0222629   -3.9146405    1174.7008    0.0664123  0.066412484            5 
 1475000    1.0112606   -3.9009884    1177.1789   0.06650728  0.066401812            3 
 1476000    0.9849091   -3.8999766    1172.7111  0.066209978  0.066390987            3 
 1477000    1.0183506   -3.9023325    1172.4855  0.066152418   0.06638037            2 
 1478000     1.028464   -3.8882302    1177.3319  0.066380916  0.066369668            5 
 1479000    1.0309824   -3.9218766    1173.5163  0.066121043  0.066359116            3 
 1480000    0.9936207   -3.9340094    1173.8585  0.066095636  0.066348031            3 
 1481000    1.0257988   -3.9061821    1176.4975  0.066199502  0.066337294            3 
 1482000    1.0185809   -3.9206991    1176.1655   0.06613616   0.06632649            2 
 1483000    1.0283992   -3.9108581    1179.0371  0.066252926    0.0663153            3 
 1484000    1.0001993    -3.909884     1172.885  0.065862815  0.066304014            3 
 1485000    1.0033801   -3.8968908    1176.4426  0.066018103    0.0662926            1 
 1486000    1.0162077   -3.9007956    1172.7222   0.06576504  0.066281422            1 
 1487000    1.0158669   -3.9352294    1175.8705  0.065897246  0.066270207            2 
 1488000    1.0205074   -3.9055701    1181.6233  0.066175142  0.066259093            2 
 1489000    1.0231553   -3.9134676    1180.8583  0.066087881  0.066248288            2 
 1490000    1.0078996   -3.9175231    1180.3051  0.066012589  0.066236942            3 
 1491000    1.0189865   -3.9429997    1185.1996  0.066241871  0.066226007            1 
 1492000    1.0072134   -3.9271942    1179.4206  0.065874698     0.066215            2 
 1493000    1.0023451   -3.9235636    1177.5308  0.065725096   0.06620422            1 
 1494000    1.0164504   -3.9189633    1182.9301   0.06598227  0.066193076            2 
 1495000    1.0106938   -3.9349962    1183.3494  0.065961507  0.066181853            2 
 1496000   0.99056249   -3.9231093      1183.53  0.065927474  0.066170704            2 
 1497000    1.0023958   -3.9077148    1183.8236  0.065899776  0.066159778            2 
 1498000     1.011272   -3.9120012    1185.8102  0.065966298  0.066148633            4 
 1499000    1.0283387   -3.8966759    1189.8826  0.066148687  0.066137991            3 
 1500000    0.9979022   -3.9403008    1186.0234  0.065890186   0.06612702            2 
 1501000   0.99571677   -3.9227515    1186.6857   0.06588306  0.066116409            2 
 1502000    1.0099018   -3.9334871    1190.0279  0.066024629  0.066105594            4 
 1503000   0.99546505   -3.9201587    1188.6868   0.06590634   0.06609524            4 
 1504000    1.0012283   -3.9430758    1189.8955  0.065929491  0.066084618            4 
 1505000    1.0042904   -3.9196125    1190.7258   0.06593166  0.066073814            2 
 1506000   0.99751088   -3.9061273    1195.5519  0.066154929  0.066063454            1 
 1507000   0.99175115   -3.8959941    1194.3855  0.066046535  0.066052834            3 
 1508000    1.0228147   -3.9073533    1197.0583  0.066150436  0.066042356            3 
 1509000    1.0207943   -3.8994903    1195.8608  0.066040469  0.066031595            5 
 1510000    1.0108577   -3.9194034    1190.7391   0.06571408  0.066021112            2 
 1511000    1.0139218   -3.9311576    1195.1288  0.065912683  0.066010661            5 
 1512000    1.0173048    -3.930639    1193.1149  0.065758094  0.066000335            2 
 1513000    1.0154798   -3.9120152    1198.6357   0.06601871  0.065989726            3 
 1514000    1.0018942   -3.9108875    1195.7336  0.065815368  0.065979096            5 
 1515000   0.99956242   -3.9511296    1194.2319  0.065689326  0.065968219            2 
 1516000     1.005141   -3.9233767    1192.7731  0.065565806  0.065957827            2 
 1517000    1.0012939   -3.9385127    1196.8558  0.065746856  0.065946814            2 
 1518000     1.007431   -3.8893134    1199.2614  0.065835606  0.065936142            4 
 1519000    1.0067866    -3.924281    1199.2344  0.065790782  0.065925691            2 
 1520000   0.99105115   -3.9244318    1196.0781   0.06557446  0.065914658            2 
 1521000    1.0235955    -3.909835    1201.8652  0.065848412   0.06590383            3 
 1522000    1.0174341   -3.9210423    1197.8728  0.065586552  0.065893056            4 
 1523000     1.013722   -3.8968322    1199.4859  0.065631753   0.06588226            5 
 1524000    1.0095479   -3.8997053    1204.4918  0.065862412    0.0658715            4 
 1525000    1.0047121   -3.9112491    1201.0663  0.065632039  0.065860986            2 
 1526000    1.0263673   -3.9205047     1202.407  0.065662241  0.065850154            2 
 1527000    1.0013223   -3.9190848     1208.299  0.065940791  0.065839773            3 
 1528000   0.97765119   -3.9178418    1207.5842  0.065858652  0.065829335            2 
 1529000   0.99236939   -3.9204082     1206.308  0.065746023  0.065819053            3 
 1530000   0.99454544   -3.9111914    1207.7125  0.065779547  0.065809126            2 
 1531000    1.0158212   -3.9470762    1208.5539  0.065782379  0.065799013            2 
 1532000    0.9828599   -3.9241396    1208.0978  0.065714634  0.065788669            2 
 1533000    1.0263142   -3.8938237    1213.4706  0.065963826  0.065778831            8 
 1534000    1.0283592    -3.931132    1211.3051   0.06580319  0.065768713            5 
 1535000   0.98588789    -3.956635    1207.4912  0.065553268  0.065758491            5 
 1536000    0.9930745   -3.9469908    1208.3314  0.065556173  0.065747939            4 
 1537000   0.99528611    -3.909077    1208.8497  0.065541623  0.065737307            2 
 1538000    1.0005997   -3.9174967    1211.9115  0.065664908  0.065726737            5 
 1539000   0.97331352    -3.925998    1210.4374  0.065542421  0.065716062            2 
 1540000   0.98257004   -3.9642307    1204.9435  0.065202572  0.065704959            2 
 1541000   0.97788473    -3.943343    1207.9024  0.065320268   0.06569392            3 
 1542000    1.0254784   -3.9073871    1213.3368  0.065571596  0.065682783            2 
 1543000      1.01885   -3.9333567    1212.5339  0.065485738  0.065671794            2 
 1544000   0.99239152    -3.948956    1210.6612  0.065342251  0.065660923            2 
 1545000    1.0215035   -3.9507344    1207.2082   0.06511371  0.065649456            4 
 1546000   0.96762207   -3.9424011    1208.0794  0.065118554  0.065638052            8 
 1547000    1.0095926   -3.9440343    1212.0057  0.065287959  0.065626314            2 
 1548000    1.0045829   -3.9334531    1213.2562  0.065313103  0.065614909            2 
 1549000   0.98134852   -3.9434786    1212.3496  0.065222167  0.065603644            2 
 1550000    1.0039126   -3.9862671    1217.6862  0.065466998  0.065592234            5 
 1551000    1.0104631   -3.9219069    1211.5328  0.065094174  0.065580872            2 
 1552000    1.0131917   -3.9385698    1217.1744  0.065355156  0.065569828            3 
 1553000    1.0062772   -3.9260837    1215.0657  0.065199922  0.065558149            2 
 1554000   0.98941347   -3.9353108    1217.3129   0.06527847   0.06554636            4 
 1555000   0.98711846   -3.9360839     1214.274  0.065073633  0.065534684            2 
 1556000    1.0231706   -3.9465684    1212.5271  0.064938255  0.065523221            3 
 1557000    1.0138608   -3.9148171    1221.6885  0.065386881  0.065511966            3 
 1558000   0.99409937   -3.9276653    1217.0994  0.065099454  0.065500239            2 
 1559000   0.99691715    -3.922416    1214.8616  0.064938079  0.065488895            1 
 1560000   0.97238116   -3.9501357    1218.6268  0.065097584  0.065477083            2 
 1561000    1.0209849   -3.9435619    1220.4134  0.065151259  0.065465828            3 
 1562000    1.0109991   -3.9484482    1214.0661  0.064770919  0.065453935            2 
 1563000    1.0038549   -3.9578202    1216.0857  0.064837155  0.065441839            3 
 1564000    1.0205348    -3.936975    1217.8516  0.064889789  0.065430218            1 
 1565000     0.976243   -3.9504631    1222.0348  0.065071073  0.065418405            4 
 1566000    1.0104858   -3.9374793    1220.3329  0.064938957  0.065406518            2 
 1567000    1.0238613   -3.9196491    1225.2349  0.065158204  0.065395149            3 
 1568000    1.0001999   -3.9421808    1221.7054  0.064929069    0.0653833            2 
 1569000    1.0065681   -3.9360616    1224.6861  0.065045998  0.065371532            3 
 1570000   0.99099218   -3.9111626    1224.8753  0.065014612  0.065359631            4 
 1571000   0.99709711   -3.9119583    1232.3271  0.065368508   0.06534801            5 
 1572000   0.98969352   -3.9428557     1224.115  0.064891593  0.065336412            6 
 1573000    1.0185251   -3.9406366    1224.9172  0.064892839  0.065324315            6 
 1574000   0.98894244   -3.9253196    1227.0484  0.064964441  0.065312367            3 
 1575000    1.0034642   -3.9823859    1222.0552  0.064659007  0.065300789            3 
 1576000     1.003512   -3.9564068     1224.179  0.064730278  0.065288818            6 
 1577000    1.0081715   -3.9130541    1227.5871  0.064869327  0.065276942            3 
 1578000    1.0069384   -3.9232111     1224.435  0.064661755  0.065265264            1 
 1579000     1.002213   -3.9503324    1228.6652  0.064844058  0.065253597            4 
 1580000    1.0105087   -3.9367739    1231.1727  0.064935267  0.065241961            4 
 1581000   0.99501246   -3.9429009    1229.4934   0.06480568  0.065230609            5 
 1582000    1.0007916   -3.9375752    1228.3361  0.064703755  0.065219047            3 
 1583000     1.006466   -3.9485164    1230.8042  0.064792807  0.065207641            4 
 1584000    1.0046512   -3.9824659     1233.909  0.064915244  0.065196378            2 
 1585000    0.9952198   -3.9367239    1234.6501  0.064913256  0.065184813            2 
 1586000    1.0037712   -3.9487589    1233.1232  0.064792095  0.065173247            3 
 1587000   0.97955419   -3.9325082    1236.2232   0.06491405  0.065162086            3 
 1588000   0.97705012   -3.9398442    1237.4747   0.06493885  0.065150841            2 
 1589000   0.98178101   -3.9320287     1239.949  0.065027741  0.065139707            4 
 1590000    1.0041755   -3.9395838    1237.0198  0.064833325  0.065128361            3 
 1591000   0.98380114   -3.9615054    1233.4806  0.064607198   0.06511655            2 
 1592000   0.98503791   -3.9220774     1240.648   0.06494179  0.065105105            5 
 1593000   0.99623585   -3.9125029    1232.4726  0.064473353  0.065093463            3 
 1594000   0.99794674   -3.9354994    1241.6626  0.064913353  0.065081636            3 
 1595000   0.99425955   -3.9431636    1236.5973   0.06460801  0.065069707            4 
 1596000   0.97136748   -3.9768961    1238.3663  0.064659896  0.065057888            3 
 1597000   0.98643276   -3.9460721    1239.4072  0.064673719  0.065045839            4 
 1598000   0.99759499   -3.9396192    1240.8727  0.064709671  0.065033791            3 
 1599000    1.0065892   -3.9481664    1240.4371  0.064646502  0.065022088            3 
 1600000   0.97407668   -3.9524539    1235.4408  0.064345873  0.065010166            4 
 1601000   0.99341488    -3.959416    1235.9455  0.064331956  0.064998272            3 
 1602000   0.98263578   -3.9368217    1240.1964   0.06451292  0.064986424            3 
 1603000    1.0149168   -3.9246498    1241.2749  0.064528742  0.064974762            2 
 1604000   0.99313952   -3.9391254    1245.0851  0.064686465  0.064963152            3 
 1605000   0.97565998   -3.9578417    1239.8731  0.064375552   0.06495146            7 
 1606000   0.99480202   -3.9585158    1250.2722  0.064875064  0.064939922            5 
 1607000    1.0140578   -3.9520958    1245.5664  0.064590668  0.064928497            3 
 1608000   0.98995818   -3.9375247    1244.0162  0.064470162  0.064917005            2 
 1609000   0.97363594   -3.8990547    1248.4016  0.064657221  0.064905095            4 
 1610000    0.9802799   -3.9198436    1252.0753  0.064807211  0.064893596            2 
 1611000   0.99130163   -3.9548255    1249.6987  0.064644046  0.064882184            2 
 1612000   0.98975306   -3.9352959    1248.3499  0.064534215  0.064870678            2 
 1613000   0.99623023   -3.9570171    1248.8462  0.064519849  0.064859385            4 
 1614000   0.99865624   -3.9727963    1249.1665   0.06449641  0.064847924            3 
 1615000   0.97728344   -3.9580055    1247.8957  0.064390904  0.064836278            2 
 1616000    1.0067382   -3.9493163    1247.8876  0.064350638  0.064825039            7 
 1617000     1.009071   -3.9649017     1246.784  0.064253967  0.064813479            3 
 1618000    1.0037657   -3.9670237    1248.3601   0.06429543   0.06480171            7 
 1619000   0.99445058   -3.9781856    1251.2572   0.06440484  0.064789928            6 
 1620000    1.0063502   -3.9851078    1251.1866   0.06436145  0.064778102            2 
 1621000   0.99522998   -3.9650529    1250.1321  0.064267535  0.064766288            1 
 1622000   0.98779749   -3.9676593    1251.0397  0.064274545  0.064754435            2 
 1623000   0.99304928   -3.9236008    1260.1873  0.064704624   0.06474288            3 
 1624000   0.99810138   -3.9674072    1252.9568  0.064293759  0.064731126            3 
 1625000   0.98652391   -3.9486097    1251.2276   0.06416552  0.064719321            6 
 1626000    1.0043585   -3.9302795    1261.0861   0.06463131  0.064707954            1 
 1627000    1.0168887   -3.9566143    1260.1383  0.064543042  0.064696604            2 
 1628000   0.98234851   -3.9470747    1256.3138  0.064307627  0.064685362            4 
 1629000   0.99456616   -3.9588803    1256.0329  0.064253781  0.064674011            4 
 1630000   0.98751772   -3.9402225    1258.3373  0.064332173  0.064662644            2 
 1631000   0.98903901   -3.9467905    1256.6132  0.064204642  0.064651149            2 
 1632000    1.0126806   -3.9404154    1261.8224  0.064431291  0.064639708            3 
 1633000    0.9960919    -3.934013    1265.5138   0.06458021  0.064628157            1 
 1634000   0.97390304   -3.9489567    1255.3515  0.064022417  0.064616582            4 
 1635000   0.97482054   -3.9438258    1261.8667  0.064315327  0.064604986            4 
 1636000   0.99991206   -3.9621164    1260.4985  0.064206323  0.064593431            3 
 1637000   0.97051553   -3.9267784    1264.1934  0.064355191  0.064581813            2 
 1638000   0.98418164   -3.9563795    1262.8305  0.064246566  0.064570066            2 
 1639000   0.98913166   -3.9708357    1262.0737  0.064168891  0.064558253            5 
 1640000   0.99085813   -3.9638076    1263.0206  0.064177878  0.064546448            1 
 1641000    1.0073742   -3.9283888    1263.9005   0.06418345  0.064534789            3 
 1642000   0.98649289   -3.9804007    1262.7413  0.064085532  0.064523261            3 
 1643000    1.0044812   -3.9615769    1264.4553  0.064133462  0.064511859            3 
 1644000   0.98388544   -3.9535939    1267.4027  0.064243852  0.064500321            5 
 1645000    0.9740975   -3.9394525    1272.8183  0.064479145   0.06448906            4 
 1646000   0.99128844   -3.9615477    1268.6297  0.064227909  0.064477714            4 
 1647000   0.98136314   -3.9508929    1268.5113  0.064182925  0.064466433            2 
 1648000     0.986884   -3.9393422    1267.2614  0.064080774  0.064455108            3 
 1649000   0.99748199   -3.9503021    1270.3427  0.064197631  0.064443802            3 
 1650000   0.98141877    -3.956563     1266.759  0.063977727  0.064431936            4 
 1651000   0.99632429   -3.9889349    1266.0339  0.063902379  0.064419933            2 
 1652000   0.98072523   -3.9685141      1272.01  0.064165154  0.064408309            3 
 1653000   0.99539291   -3.9562904    1271.0255  0.064076706  0.064396869            4 
 1654000   0.99877636   -3.9754317    1272.5508  0.064114812  0.064385378            4 
 1655000   0.98750187   -3.9706285    1272.6245  0.064079784  0.064373905           11 
 1656000   0.99854828   -3.9603153    1277.7988  0.064301471  0.064362709            2 
 1657000   0.96545353   -3.9777039    1277.4163  0.064243427  0.064351581            4 
 1658000   0.98593843   -3.9527834    1273.6327  0.064014509  0.064340372            3 
 1659000   0.95618321   -3.9379149    1277.8346  0.064186992  0.064329401            2 
 1660000    1.0037808   -3.9543259    1276.0207  0.064057262  0.064318155            3 
 1661000   0.99720775   -3.9517065    1276.9186  0.064063747  0.064307168            2 
 1662000    1.0039087   -3.9613895    1279.6472  0.064162012  0.064295991            2 
 1663000   0.99792102   -3.9583588    1278.8109  0.064081526  0.064285094            5 
 1664000   0.99521175   -3.9784058    1277.6638  0.063985565  0.064274011            4 
 1665000   0.99322157   -3.9909196    1279.0543  0.064016733  0.064263217            9 
 1666000    1.0002418   -3.9793806    1274.1735   0.06373417  0.064252191            3 
 1667000     0.986061   -3.9824266    1282.0962  0.064091992  0.064241252            2 
 1668000   0.96963054    -3.975545    1281.5698  0.064027266  0.064229981            1 
 1669000   0.99248889   -3.9598733    1280.9797  0.063959442  0.064219159            3 
 1670000   0.98705884   -3.9642599    1287.2786  0.064235461  0.064208536            3 
 1671000   0.99496843   -3.9359227    1283.0235  0.063984814  0.064198153            2 
 1672000   0.96334141   -3.9481013    1285.9772   0.06409376  0.064187322            3 
 1673000   0.96809265   -3.9607984    1287.0563  0.064109202  0.064176569            2 
 1674000   0.95847952   -3.9498262    1286.7135   0.06405384  0.064165768            7 
 1675000   0.97241512   -3.9588649    1286.4054   0.06400027  0.064154744            3 
 1676000   0.98921519   -3.9643691    1289.7257  0.064127171  0.064143587            1 
 1677000   0.97719376   -3.9900953    1281.5728  0.063683799  0.064132677            2 
 1678000    1.0073374   -3.9633685     1293.393  0.064232867   0.06412169            3 
 1679000   0.99368079   -3.9909464    1289.3158  0.063992246  0.064110772            5 
 1680000   0.98803363   -3.9587662    1290.2962   0.06400279  0.064100063            3 
 1681000   0.99777997   -3.9693405    1290.9612  0.063997679  0.064089331            5 
 1682000   0.99171253   -3.9784215    1284.6135  0.063645139  0.064078769            3 
 1683000   0.96446267   -3.9852645    1290.4664  0.063897128  0.064068103            4 
 1684000   0.99570456   -3.9848732    1296.7006  0.064167685  0.064057349            3 
 1685000   0.98628185   -3.9524166    1294.5632  0.064023896  0.064046739            2 
 1686000   0.97797714   -3.9714958    1294.2472  0.063970302  0.064036148            2 
 1687000    0.9814326   -3.9927572    1294.9098  0.063965115  0.064025601            3 
 1688000   0.96122673   -3.9902462    1293.4994  0.063857593  0.064014922            2 
 1689000   0.97406593   -3.9750364    1295.9402  0.063940212  0.064004104            3 
 1690000    1.0002329   -3.9742229    1296.2593  0.063918109  0.063993208            3 
 1691000   0.97689505   -3.9486393     1296.034  0.063869212    0.0639825            2 
 1692000   0.97329988   -3.9321537     1299.438  0.063999112  0.063971803            6 
 1693000   0.97306018   -3.9656913     1295.621  0.063773431  0.063961125            3 
 1694000   0.97966273   -3.9453034    1302.7549  0.064086723  0.063950552            2 
 1695000   0.98954019   -3.9471614    1304.7623  0.064147606  0.063940066            4 
 1696000   0.97198292     -3.95859    1300.5927  0.063904907  0.063929082            2 
 1697000   0.98426671   -3.9585274    1301.8049  0.063926775  0.063918287            6 
 1698000    1.0052812   -3.9358455     1305.015  0.064046675  0.063907315            4 
 1699000   0.95924588   -3.9547475    1298.6503  0.063696798   0.06389623            5 
 1700000   0.98736924   -3.9627145    1296.6492  0.063561237  0.063885271            7 
 1701000    1.0123376   -3.9621867    1298.3244  0.063605936  0.063874264            5 
 1702000   0.98196311   -3.9660173    1299.3972  0.063621091  0.063863109            2 
 1703000   0.98378048   -3.9849009    1297.0475  0.063468757  0.063851817            6 
 1704000   0.96819015   -3.9790126    1302.3776  0.063692176   0.06384055            3 
 1705000   0.98120177    -4.005585     1292.696  0.063181623  0.063829092            2 
 1706000   0.98376424   -3.9911968     1300.372  0.063519537  0.063817553            5 
 1707000   0.98216146   -3.9506578    1300.2792  0.063477796  0.063806095            2 
 1708000    0.9711843    -3.961738    1295.7579  0.063220037  0.063794467            2 
 1709000   0.96675196    -3.978705    1300.1303  0.063396248  0.063782686            6 
 1710000   0.96639626   -4.0049163    1295.1046   0.06311426  0.063770537            3 
 1711000   0.98991359   -3.9884839    1300.4533  0.063337878  0.063758471            6 
 1712000   0.97763944   -3.9992445     1301.844  0.063368573  0.063746874            4 
 1713000   0.94471347   -3.9396588    1301.0478  0.063292847  0.063734868            3 
 1714000   0.98143064   -3.9348402    1302.7466  0.063338516  0.063723023            3 
 1715000   0.98095723   -3.9650024    1301.5558  0.063243722   0.06371084            2 
 1716000   0.97954644   -3.9609786     1306.727  0.063457994  0.063699031            2 
 1717000   0.99667654   -3.9486313    1304.9667  0.063335598  0.063687506            2 
 1718000    0.9918993   -3.9797672    1302.5032   0.06317924  0.063675706            2 
 1719000    0.9823657   -3.9837633    1302.3165  0.063133433  0.063663676            3 
 1720000   0.96343369   -3.9691018    1308.3117  0.063387195   0.06365147            1 
 1721000   0.99509305   -3.9810977    1299.5964  0.062928354  0.063639645            3 
 1722000   0.98045088   -4.0032861     1304.717  0.063139613  0.063627485            3 
 1723000   0.97574768   -3.9507389    1304.2878  0.063082213  0.063615156            2 
 1724000    0.9605141    -3.972731    1309.2932   0.06328757  0.063603001            3 
 1725000    0.9715745   -3.9659849    1307.2832  0.063153777  0.063591034            4 
 1726000   0.98122732   -3.9691269    1310.8264  0.063288259  0.063579044            2 
 1727000   0.97770626   -3.9646663    1306.2762  0.063032051  0.063566914            6 
 1728000   0.98819703   -3.9733982    1311.9005  0.063266807  0.063554821            4 
 1729000     0.972211   -3.9385302    1313.5775  0.063311042  0.063542951            2 
 1730000   0.98128373     -3.96816      1312.96  0.063244703  0.063530911            1 
 1731000   0.99168849   -3.9784115    1311.0919  0.063118232  0.063519078            4 
 1732000   0.96357244   -3.9647245     1309.573   0.06300871  0.063507251            2 
 1733000   0.94945717   -3.9747206      1308.08  0.062900557  0.063494975            5 
 1734000   0.97224079   -3.9703921    1308.8612  0.062901825  0.063482929            2 
 1735000   0.98865195   -3.9730754     1312.676  0.063048802  0.063470893            3 
 1736000   0.96515691   -3.9755789    1311.9605  0.062978132   0.06345892            3 
 1737000   0.96569553    -3.980781     1312.079  0.062947564  0.063446762            4 
 1738000   0.97694863   -3.9970129    1313.0094  0.062955957  0.063434434            3 
 1739000   0.97478533   -3.9930473    1313.1498  0.062926479  0.063422135            4 
 1740000   0.96796886   -3.9770876     1313.595  0.062911636  0.063409865            1 
 1741000    0.9731701   -3.9675059    1310.7319  0.062738459  0.063397773            3 
 1742000   0.97288688   -3.9840193    1316.1001  0.062959249  0.063385678            3 
 1743000   0.96351995   -3.9886369    1315.2224  0.062881162  0.063373513            4 
 1744000   0.95509515   -3.9579793     1317.389  0.062948635  0.063361416            3 
 1745000   0.97089392   -3.9778087    1317.3804   0.06291215  0.063349494            5 
 1746000   0.96574109   -3.9624505    1316.2938  0.062824258  0.063337232            3 
 1747000   0.97370666   -3.9992919    1315.2262  0.062737366  0.063324896            3 
 1748000   0.95186151   -3.9795696    1315.4671  0.062712961  0.063312619            3 
 1749000   0.94465608   -3.9635734    1314.0093  0.062607648  0.063300243            2 
 1750000   0.95659198   -3.9518372    1316.5543  0.062693064  0.063287978            7 
 1751000   0.98652672   -3.9966658    1320.2807  0.062834605   0.06327558            2 
 1752000   0.98795121   -3.9616892     1322.142  0.062887272  0.063263171            4 
 1753000   0.99539833   -3.9743696    1317.0597  0.062609798  0.063250773            4 
 1754000   0.95287955   -3.9873729     1316.351  0.062540429  0.063238406            3 
 1755000     0.977918   -3.9882376    1322.2904  0.062786817  0.063225901            4 
 1756000   0.95118105   -3.9597874    1322.5877  0.062765172  0.063213643            2 
 1757000   0.95201882   -3.9564587    1321.7644  0.062690402  0.063201148            2 
 1758000   0.98308951   -3.9797407    1321.5769  0.062645854  0.063188699            4 
 1759000   0.97569968   -4.0120101     1318.793  0.062478351  0.063176259            3 
 1760000   0.97666801   -3.9899931    1320.0382  0.062501807    0.0631638            2 
 1761000    0.9685105   -3.9781263    1318.9437  0.062414524  0.063151208            4 
 1762000   0.96502628   -3.9891944    1322.7546  0.062559334  0.063138912            7 
 1763000   0.94753467   -4.0075982    1320.1043  0.062398576  0.063126405            2 
 1764000   0.99023006   -3.9977675    1325.6031  0.062622972  0.063114035            1 
 1765000   0.99941773   -3.9952369     1325.657  0.062590037  0.063101659            2 
 1766000   0.96914826   -3.9806698    1330.8279  0.062798598  0.063089393            2 
 1767000    0.9735896   -3.9625143    1331.4259  0.062791263   0.06307731            5 
 1768000   0.97811796   -4.0211722    1322.6224  0.062340798  0.063065066            2 
 1769000   0.96547493   -3.9750477    1324.0779  0.062374126  0.063052791            2 
 1770000   0.95362188   -4.0196099    1326.1752  0.062437629  0.063040606            3 
 1771000   0.98236959   -3.9708022     1333.226  0.062734142  0.063028247            3 
 1772000   0.96985633   -3.9909101     1328.091  0.062457252  0.063015974            3 
 1773000   0.97473589   -3.9816491    1324.5618  0.062256146   0.06300346            2 
 1774000   0.97425289   -3.9862157    1327.2537  0.062347507  0.062991293            2 
 1775000   0.94588772   -3.9953376    1327.8646  0.062341062  0.062979035            2 
 1776000   0.96340237   -3.9923724    1332.3353  0.062515732  0.062966901            8 
 1777000   0.98826148   -3.9847379    1335.4207  0.062625245  0.062955078            3 
 1778000   0.95899545   -3.9730089    1341.7317  0.062885813  0.062943537            3 
 1779000   0.96424287   -3.9941195    1330.5885  0.062328483  0.062931907            5 
 1780000   0.98998664   -3.9531914    1337.5048  0.062617265  0.062920309            4 
 1781000    0.9777877    -3.983151    1340.3346  0.062714514  0.062908777            2 
 1782000   0.94121824    -4.000893    1334.6556  0.062413748  0.062897055            3 
 1783000   0.97184015   -4.0250285    1336.3456  0.062457728  0.062885117            3 
 1784000   0.98419246   -4.0033473    1335.1371  0.062366271  0.062873144            2 
 1785000   0.98176981   -3.9831333    1341.5599   0.06263118  0.062861224            3 
 1786000   0.96858377   -4.0037189    1341.5016  0.062593392  0.062849265            2 
 1787000   0.96932891   -3.9890186    1337.2132  0.062358384   0.06283749            6 
 1788000    0.9514475   -3.9814845    1337.7976  0.062350746  0.062825724            3 
 1789000   0.95937047   -3.9930777     1340.337  0.062434181   0.06281373            3 
 1790000   0.97524113   -4.0213964    1335.2805  0.062163898  0.062801885            4 
 1791000   0.96993262   -3.9953766    1339.7932  0.062339156  0.062789886            2 
 1792000   0.96486717   -4.0049686    1341.1215  0.062366142  0.062778226            2 
 1793000   0.97906917   -3.9756194    1344.0616  0.062468003  0.062766552            6 
 1794000   0.95392161    -4.009746    1339.7015  0.062230653  0.062754702            2 
 1795000   0.97255993   -4.0186356    1344.4046  0.062414328  0.062742689            4 
 1796000   0.95098209   -4.0064609    1341.7449  0.062256167  0.062730624            2 
 1797000   0.96547692    -3.982297    1346.7462   0.06245345  0.062718609            5 
 1798000   0.95314663   -3.9960088    1344.2014   0.06230077  0.062706789            3 
 1799000   0.96475114   -3.9814545    1344.3993  0.062275307  0.062694862            3 
 1800000   0.96985231   -4.0004569    1344.4972  0.062245241  0.062682941            4 
 1801000   0.97003258   -4.0035249    1346.7691  0.062315801  0.062671101            2 
 1802000   0.97858249   -3.9889715    1343.0447  0.062108987  0.062659118            5 
 1803000   0.95837137   -3.9891169    1339.4808  0.061909817  0.062647056            3 
 1804000   0.96615141   -4.0039997    1342.8252  0.062029989  0.062635033            2 
 1805000    0.9588235   -3.9635866    1345.7294  0.062129705  0.062623125            4 
 1806000    0.9617535   -4.0159856     1345.285  0.062074796  0.062611021            4 
 1807000   0.94090927   -4.0024913    1346.3812     0.062091   0.06259919            5 
 1808000   0.97528332   -3.9699098    1348.8624  0.062171016  0.062587123            2 
 1809000   0.92932857   -3.9993409    1351.3753  0.062252407  0.062575177            4 
 1810000   0.96227395    -3.996948    1353.4266  0.062312458  0.062563206            6 
 1811000   0.97949652     -3.98091    1349.0948   0.06207872  0.062551359            4 
 1812000   0.95513071   -4.0131231    1348.0623  0.061996978  0.062539296            1 
 1813000   0.97116851   -4.0139048    1348.7993   0.06199666  0.062527042            7 
 1814000   0.96291938   -3.9885811    1350.4957  0.062040411  0.062515086            6 
 1815000   0.97018632   -4.0380876    1344.5159  0.061731676   0.06250266            4 
 1816000    0.9785825   -3.9898465    1353.7317  0.062120582  0.062490061            2 
 1817000   0.94530776   -4.0386558    1348.8701  0.061863426  0.062477693            4 
 1818000   0.95677731   -4.0417776    1348.7156  0.061822312  0.062465298            3 
 1819000    0.9520409   -3.9922041    1353.0504  0.061986915  0.062452904            3 
 1820000   0.96724939   -4.0258999    1348.6711  0.061752339  0.062440461            4 
 1821000   0.94759143   -3.9973625     1352.434   0.06189063  0.062428059            3 
 1822000   0.98502427   -4.0012108    1353.2003  0.061891707  0.062415677            5 
 1823000   0.95895398   -3.9763828    1357.3379  0.062046898  0.062403598            3 
 1824000   0.96174605   -3.9989949    1352.8749  0.061808979  0.062391312            4 
 1825000   0.95053911   -3.9698681    1349.6944   0.06162988  0.062378771            2 
 1826000   0.97818141   -4.0317641    1349.9937  0.061609791  0.062366323            4 
 1827000   0.96696704    -3.990249    1356.1846  0.061858447  0.062353935            2 
 1828000   0.96445685   -4.0147966    1349.8843  0.061537397  0.062341172            5 
 1829000   0.96262032   -3.9801279    1354.3518  0.061707297  0.062329031            2 
 1830000    0.9578897   -3.9852147    1354.1163  0.061662857  0.062316577            3 
 1831000   0.96458222   -4.0032041    1358.4301  0.061825508  0.062304111            3 
 1832000   0.93291872   -3.9909902    1352.9497   0.06154247  0.062291889            3 
 1833000   0.95216939   -3.9954426    1356.7737  0.061682747  0.062279928            3 
 1834000   0.95409073   -4.0058607    1356.0639  0.061616863  0.062267627            5 
 1835000   0.96238195   -4.0005278    1360.6421  0.061791193  0.062255301            3 
 1836000   0.97452612   -4.0237668    1359.2594  0.061694782     0.062243            4 
 1837000   0.97302216    -3.991629    1358.9528  0.061647289   0.06223066            3 
 1838000    0.9567733    -4.024447    1358.0074  0.061570882    0.0622182            2 
 1839000   0.94599493   -4.0279715    1357.4138  0.061510505  0.062205466            3 
 1840000   0.95661246   -4.0231074    1358.3707  0.061520411  0.062193041            4 
 1841000    0.9486463   -4.0122779    1360.2968  0.061574181  0.062180733            4 
 1842000   0.98064251   -4.0111932    1360.0218   0.06152831  0.062168321            5 
 1843000   0.94558472   -3.9895606    1366.4593  0.061786007  0.062156231            6 
 1844000   0.94111801   -3.9660625    1363.9684   0.06163993  0.062144084            4 
 1845000    0.9421206   -3.9874922     1366.414  0.061716983  0.062132216            2 
 1846000   0.94677403     -4.03897    1368.3706  0.061771874  0.062120025            4 
 1847000   0.93047428   -4.0279273     1365.362  0.061602691  0.062107929            4 
 1848000   0.94481013   -3.9985975    1368.7572  0.061722455  0.062096117            3 
 1849000   0.95127205   -4.0076811    1367.2886  0.061622888  0.062084415            4 
 1850000   0.95520317   -4.0002603    1373.5883  0.061873347  0.062072738            4 
 1851000   0.95363049   -4.0062432    1368.9763  0.061632285  0.062060907            5 
 1852000   0.95754653   -4.0122011     1366.255  0.061476556  0.062048794            4 
 1853000   0.96809972   -4.0253346    1369.0184  0.061567655  0.062036703            4 
 1854000   0.96131797   -4.0052442    1374.7081  0.061790188  0.062024544            5 
 1855000   0.93847365   -4.0150025    1366.6453  0.061394668  0.062012379            5 
 1856000   0.93489565    -4.026076    1366.0885  0.061336589  0.062000163            2 
 1857000   0.95983735   -4.0265105    1366.6064  0.061326801  0.061987691            6 
 1858000   0.96252652   -4.0031478    1373.0627  0.061583365  0.061975398            3 
 1859000   0.96232887   -4.0120625    1375.6306  0.061665351  0.061963459            4 
 1860000   0.96185511   -3.9934248     1372.175  0.061477376   0.06195155            3 
 1861000   0.95682091   -4.0064541     1376.281  0.061628203  0.061939477            3 
 1862000   0.95662054   -3.9737675    1375.8926  0.061577721  0.061927742            2 
 1863000   0.95913291    -4.032172    1380.0203  0.061729305   0.06191579            2 
 1864000   0.96054656   -4.0183974    1375.4839  0.061493379  0.061903991            4 
 1865000   0.94732858   -4.0088744    1375.1264  0.061444431  0.061892293            4 
 1866000   0.95067198   -4.0250668    1375.9834  0.061449777  0.061880326            5 
 1867000   0.95793123   -4.0129775    1374.4909  0.061350245  0.061868545            5 
 1868000   0.95515445   -3.9967936    1374.6893  0.061326255  0.061856569            3 
 1869000   0.93413863   -4.0301212    1373.4521  0.061238277  0.061844564            4 
 1870000    0.9504996   -3.9978914    1374.9496  0.061272266  0.061832474            5 
 1871000   0.96238062    -4.036871    1375.2197  0.061251547  0.061820537            4 
 1872000   0.93621251   -3.9937778    1380.7901  0.061466795  0.061808586            5 
 1873000   0.95156956   -4.0162239    1379.6534  0.061383402  0.061796216            4 
 1874000   0.95705065   -4.0211564    1382.1795   0.06146298  0.061784241            7 
 1875000   0.96379325   -4.0219868    1378.8415  0.061281845  0.061772468            4 
 1876000   0.95875034   -4.0180879    1384.9505  0.061520545  0.061760459            3 
 1877000   0.95253604   -4.0070758    1378.0759  0.061182556  0.061748385            5 
 1878000   0.95853566   -4.0101442    1377.3201   0.06111644  0.061736226            3 
 1879000    0.9532788   -4.0346989     1380.671  0.061232525  0.061724062            4 
 1880000   0.94127347   -4.0014588    1385.5272  0.061415214  0.061711951            3 
 1881000   0.95628254   -4.0327893    1379.2922  0.061106334   0.06170001           15 
 1882000   0.95296328   -4.0096212    1381.9786  0.061192818  0.061687951            2 
 1883000   0.95926912   -4.0167166     1386.184  0.061346435  0.061676271            4 
 1884000   0.95269467   -4.0137109    1389.6313  0.061466351  0.061664649            4 
 1885000   0.95288961    -4.031548    1382.6883  0.061126803  0.061652749            2 
 1886000    0.9659617   -4.0201647    1387.9046  0.061324878  0.061641046            7 
 1887000   0.94530261   -4.0587964    1385.1992  0.061172903   0.06162935            4 
 1888000   0.93712449   -4.0525485    1386.7379  0.061208418  0.061617608            3 
 1889000   0.96025376    -4.035398    1391.8632  0.061402116  0.061605766            5 
 1890000   0.95419653   -4.0331099    1389.3509  0.061258856  0.061594089            4 
 1891000   0.94207484   -4.0255099    1394.2041  0.061440334  0.061582435            3 
 1892000   0.94811396   -4.0109574    1396.1334  0.061492839  0.061570868            5 
 1893000   0.95572087   -4.0274445    1388.6684  0.061131732  0.061559416            4 
 1894000   0.95407127   -4.0371241    1389.2396  0.061124585  0.061547806            3 
 1895000   0.95918573   -4.0262093    1391.5167  0.061192468  0.061536272            3 
 1896000   0.93610668   -4.0174156    1394.5623  0.061294055  0.061524686            5 
 1897000   0.95515481   -4.0372952    1393.7987  0.061228197  0.061513161            3 
 1898000   0.93044786   -4.0288473    1390.8011  0.061064328  0.061501664            4 
 1899000   0.93625389   -4.0150676    1395.5797  0.061241868   0.06149034            3 
 1900000   0.95329529   -4.0212304     1396.714  0.061259388  0.061478714            1 
 1901000   0.94847762   -4.0415422    1392.3267  0.061034839   0.06146692            4 
 1902000   0.95751397   -4.0525402    1390.6216   0.06092804  0.061455447            5 
 1903000   0.94486263   -4.0484376    1393.9755  0.061042893  0.061443757            4 
 1904000   0.92106442   -4.0149106    1400.9937  0.061318001  0.061432218            6 
 1905000   0.95995842   -4.0265619    1397.4516  0.061130865  0.061420813            5 
 1906000   0.94111671   -4.0507551    1389.3602  0.060745023  0.061409257            4 
 1907000   0.93708274   -4.0449841    1395.6653  0.060988695  0.061397608            3 
 1908000   0.95891065   -4.0356469    1398.9121  0.061098537  0.061386111            4 
 1909000   0.93995832   -4.0283449    1404.4318  0.061307481  0.061374568            9 
 1910000   0.92001491   -4.0570002    1401.6142  0.061152451   0.06136322            4 
 1911000   0.95705351    -4.034802    1403.5327  0.061204111  0.061351723            3 
 1912000   0.94500111   -4.0254134    1402.1222  0.061110624  0.061340227            3 
 1913000   0.94355346   -4.0464609    1399.3197  0.060956602  0.061328865            3 
 1914000   0.94623022   -4.0271967    1403.9089  0.061124559  0.061317324            3 
 1915000    0.9386389   -4.0085959    1404.5364  0.061119948  0.061305808            3 
 1916000   0.95426606    -4.022564    1405.8462  0.061145016  0.061294357            3 
 1917000   0.93266953    -4.002576    1403.4012  0.061006833  0.061282943            2 
 1918000   0.93458247   -4.0397982     1401.237  0.060880995  0.061271405            5 
 1919000   0.92808691   -4.0394658    1399.2852  0.060764512  0.061259634            3 
 1920000   0.94180813    -4.010674    1401.8991  0.060846314  0.061247896            2 
 1921000    0.9697638   -4.0080623    1407.5044  0.061057798  0.061236303            4 
 1922000   0.94432483   -4.0213141    1405.9155  0.060957141   0.06122478            2 
 1923000   0.95681242   -4.0376339    1404.2115  0.060851601  0.061213315            2 
 1924000   0.94030455   -4.0374178    1402.9737  0.060766359  0.061201782            4 
 1925000   0.94851731   -4.0225373    1406.0248  0.060866872  0.061189848            4 
 1926000   0.92054805   -4.0447667     1402.463  0.060681162  0.061178122            2 
 1927000   0.92617213   -4.0260046    1413.4519  0.061124888  0.061166199            2 
 1928000     0.944799   -4.0166794    1412.6984  0.061060617  0.061154702            3 
 1929000   0.94048132    -4.037678    1406.0201  0.060740457  0.061143316            3 
 1930000   0.92213159   -4.0477635    1409.2976  0.060850499  0.061131552            3 
 1931000   0.95270303   -3.9883043     1412.928  0.060975659  0.061119837            3 
 1932000   0.94543528   -3.9975176    1412.5532  0.060927931  0.061108172            4 
 1933000   0.96232908   -4.0482508    1412.7667  0.060905618  0.061096613            8 
 1934000    0.9126676   -4.0364662    1411.1952  0.060806412  0.061084941            3 
 1935000   0.95878706   -4.0271825    1420.5082  0.061176062   0.06107365            3 
 1936000   0.93701904   -4.0348352     1414.371  0.060880296  0.061062135            5 
 1937000   0.92708333   -4.0575924     1409.941  0.060658275  0.061050517            6 
 1938000   0.94963769   -4.0509579    1412.6592  0.060743859  0.061039023            7 
 1939000   0.93976827   -4.0169777    1417.3601  0.060914567  0.061027532            1 
 1940000   0.95308303   -4.0292191    1413.3593  0.060711311  0.061015781            4 
 1941000   0.93949316   -4.0238738    1413.4337  0.060683228  0.061004038            3 
 1942000   0.95891861   -4.0365382    1412.9395  0.060630772  0.060992505            6 
 1943000   0.95443541   -4.0505016    1415.9529  0.060728809  0.060981053            4 
 1944000   0.93924279   -4.0723782    1417.7503  0.060774617   0.06096933            4 
 1945000   0.96556337   -4.0121434    1416.9432  0.060708791  0.060957551            3 
 1946000   0.92808154   -4.0397258    1415.3887  0.060611028  0.060945848            6 
 1947000   0.92520264   -4.0195515     1416.668  0.060634652   0.06093428            5 
 1948000    0.9522828   -4.0017842    1420.7567  0.060778433  0.060922961            3 
 1949000   0.94536112   -4.0434394    1415.4558  0.060520599  0.060911363            5 
 1950000   0.93944491   -4.0272753    1422.1197  0.060774347  0.060899825            5 
 1951000   0.95243728   -4.0466524    1415.8326  0.060474656  0.060887989            4 
 1952000   0.94248196   -4.0177666    1421.8195   0.06069926  0.060876472            5 
 1953000   0.92173595   -4.0306257    1420.2557  0.060601456  0.060864717            5 
 1954000   0.95025042   -4.0150251    1420.5882  0.060584621  0.060852993            2 
 1955000   0.92520099   -4.0555265    1420.3222  0.060542294  0.060841443            8 
 1956000   0.93750431   -4.0448857    1419.5954  0.060480375  0.060829655            3 
 1957000   0.94233121   -4.0235564    1420.2976  0.060479374  0.060818048            3 
 1958000    0.9255938    -4.028111    1419.9136  0.060432141  0.060806318            5 
 1959000    0.9081461   -4.0469762    1417.6636  0.060305581  0.060794754            2 
 1960000   0.92005835   -4.0651908    1423.6428   0.06052903  0.060783033            6 
 1961000   0.94201881   -4.0542602    1425.9185  0.060594872  0.060771804            3 
 1962000   0.94824885   -4.0405361    1426.7694  0.060600128  0.060760541            5 
 1963000   0.93985501   -4.0129891    1426.6651   0.06056483  0.060749097            3 
 1964000    0.9297402   -4.0358639    1430.4624  0.060695114  0.060737787            3 
 1965000   0.95287397   -4.0125451     1430.504  0.060665987  0.060726427            2 
 1966000   0.95745949   -4.0531382    1424.5763  0.060383872  0.060714976            4 
 1967000   0.94906193   -4.0288289    1428.6947  0.060527651  0.060703651            3 
 1968000   0.94636515   -4.0125449      1430.59  0.060577153  0.060692408            3 
 1969000   0.93901995     -4.01178    1435.9145  0.060771733  0.060680931            3 
 1970000    0.9460129   -4.0456062    1430.2185  0.060499935  0.060669629            3 
 1971000   0.92532417   -4.0186701    1428.2666  0.060386716  0.060658205            3 
 1972000   0.95009067   -4.0394746     1429.693  0.060416373  0.060646832            2 
 1973000   0.93063938   -4.0587987     1432.519   0.06050511  0.060635607            8 
 1974000   0.93911623   -4.0630768    1431.6961   0.06043972  0.060624306            3 
 1975000     0.908921   -4.0450064    1433.2089  0.060472948  0.060612871            4 
 1976000   0.90595947   -4.0117456    1435.0237  0.060518881   0.06060163            1 
 1977000    0.9343298   -4.0460909    1437.6351  0.060598345  0.060590477            2 
 1978000   0.94449083   -4.0449701    1430.8026  0.060279855  0.060579348            3 
 1979000   0.93415106   -4.0447714    1430.1189  0.060220602  0.060568277            4 
 1980000   0.94327518   -4.0756928    1438.1653  0.060528844  0.060556853            4 
 1981000    0.9423414   -4.0394013    1435.3861  0.060381379  0.060545521            6 
 1982000    0.9510678   -4.0406187    1440.3241  0.060558529  0.060534647            3 
 1983000   0.90989275   -4.0462063    1438.4131  0.060447682  0.060523845            5 
 1984000   0.90264193   -4.0529105    1441.2173  0.060534999  0.060513108            3 
 1985000   0.93711386   -4.0488781    1441.7958  0.060528792  0.060502289            8 
 1986000    0.9147385   -4.0181845     1444.387  0.060607043  0.060491392            2 
 1987000   0.93062101   -4.0436993    1439.7347  0.060381424  0.060480518            2 
 1988000   0.93617896   -4.0563247    1439.6209  0.060346282  0.060469481            3 
 1989000   0.92821182   -4.0281793    1442.8769  0.060452357  0.060458598            3 
 1990000   0.91575003   -4.0422085    1445.0667   0.06051368  0.060447816            2 
 1991000   0.92900527   -4.0506339    1440.3314   0.06028509  0.060436953            1 
 1992000   0.93986229   -4.0348733    1442.0366  0.060326161  0.060426026            2 
 1993000   0.93865993   -4.0226336    1442.5379  0.060316853  0.060414943            5 
 1994000   0.93197284   -4.0456193    1441.3754  0.060238021  0.060404136            2 
 1995000   0.93003593   -4.0348256    1445.7446  0.060390336  0.060393136            4 
 1996000   0.91914795   -4.0443409    1442.0939  0.060207661  0.060382102            3 
 1997000   0.92199218   -4.0557157     1439.224  0.060057753  0.060371116            5 
 1998000   0.93990834   -4.0291279    1446.8254  0.060344737  0.060360107            2 
 1999000   0.93287167   -4.0559492    1441.9803  0.060112571  0.060349073            2 
 2000000   0.92611765   -4.0629274    1443.8774  0.060161556  0.060338136            3 
 2001000   0.94272504   -4.0637172    1447.8879  0.060298512  0.060327168            4 
 2002000   0.93062991   -4.0160029    1443.4196  0.060082403  0.060316296            3 
 2003000   0.93787997   -4.0630043     1450.586  0.060350556  0.060305654           20 
 2004000   0.92614312   -4.0410619    1451.8266  0.060372032   0.06029501            4 
 2005000   0.94580403    -4.053216    1450.6402   0.06029261  0.060284397            2 
 2006000    0.9185512   -4.0440382    1457.8488  0.060562013  0.060273468            5 
 2007000   0.91618288     -4.05022    1448.0482  0.060124905  0.060262695            2 
 2008000   0.92944479   -4.0568913    1451.3754  0.060233042  0.060251951            3 
 2009000   0.93694869   -4.0856827    1454.3872   0.06032799  0.060241163            3 
 2010000   0.93226332   -4.0514444    1453.5473  0.060263154  0.060230297            2 
 2011000   0.91817119   -4.0654633    1450.1986   0.06009442  0.060219366            2 
 2012000   0.95620441   -4.0530649    1454.2858  0.060233838  0.060208692            3 
 2013000   0.96082601   -4.0646989    1451.6781  0.060095964  0.060197703            3 
 2014000   0.92570312   -4.0832929    1444.2813  0.059760066  0.060186644            7 
 2015000   0.91271505   -4.0511313    1450.7948  0.059999784  0.060175557            4 
 2016000    0.9086025   -4.0649807    1453.2296  0.060070666  0.060164602            5 
 2017000    0.9135286   -4.0646464    1454.6142  0.060098091  0.060153701            3 
 2018000   0.93694804    -4.042485    1462.1588  0.060379864  0.060143192            5 
 2019000   0.92400602   -4.0653011    1454.9107  0.060050799  0.060132691            6 
 2020000   0.91660994   -4.0624303    1453.5778  0.059966082  0.060121822            3 
 2021000   0.93072989   -4.1009454     1456.115  0.060041028  0.060110927            3 
 2022000    0.9339582   -4.0597453    1458.6575  0.060116118  0.060100125            6 
 2023000   0.92340859   -4.0627265    1461.8717  0.060218804  0.060089169            2 
 2024000   0.93285255   -4.0405048     1454.993  0.059905838  0.060078443            3 
 2025000   0.92742614   -4.0419292    1462.7895  0.060197099  0.060067471            3 
 2026000   0.93277416   -4.0683548    1461.2712  0.060104938  0.060056796            4 
 2027000   0.93155247   -4.0890192    1461.8036   0.06009717  0.060045946            2 
 2028000   0.93236515   -4.0703866    1462.8799  0.060111763  0.060035226            2 
 2029000   0.92306126   -4.0718054    1465.7211  0.060198829  0.060024865            2 
 2030000   0.92291459   -4.0612864    1466.2677  0.060191614  0.060014372            3 
 2031000    0.9212972   -4.0517133    1460.2709  0.059915923  0.060003768            3 
 2032000   0.92398484    -4.077735    1464.1957  0.060047394  0.059992968            3 
 2033000   0.92897894   -4.0516723    1466.0906  0.060095531  0.059982222            6 
 2034000   0.92455328   -4.0612142    1463.4165   0.05995643  0.059971591            4 
 2035000   0.94179422   -4.0597816    1466.8284  0.060066682  0.059960974            4 
 2036000   0.93464806   -4.0686332    1467.1515  0.060050404  0.059950318            3 
 2037000   0.93724138   -4.0758097    1466.3888  0.059989725  0.059939669            2 
 2038000   0.92683013   -4.0844977    1464.3457  0.059876745  0.059929269            2 
 2039000   0.92020384   -4.0629754     1467.673  0.059983367  0.059918799            5 
 2040000   0.91284745   -4.0209863     1470.932  0.060087093  0.059908458            2 
 2041000   0.92880131   -4.0323089    1474.1375   0.06018853  0.059898155            4 
 2042000    0.9210053   -4.0690467    1472.2134  0.060080533  0.059887672            2 
 2043000   0.94717444   -4.0773199    1470.4594   0.05997958  0.059877258            3 
 2044000   0.95561878   -4.0383214    1476.6891  0.060204218  0.059867185            2 
 2045000   0.91168104   -4.0548805    1470.8467  0.059936703  0.059857092            5 
 2046000   0.89550547   -4.0566822    1479.4625   0.06025833  0.059846922            3 
 2047000   0.93133558   -4.0851785    1473.0717  0.059968724   0.05983671            3 
 2048000   0.92463577   -4.0686199    1478.5298  0.060161531  0.059826581            2 
 2049000   0.91284071   -4.0610686    1475.7949  0.060020939  0.059816421            8 
 2050000   0.91879161   -4.0539822    1481.9171  0.060240534  0.059806449            2 
 2051000   0.93052465   -4.0621448    1480.6679  0.060160405  0.059796657            3 
 2052000   0.91645756   -4.0832266    1481.7795  0.060176232  0.059786558            4 
 2053000   0.91614442   -4.1051125    1481.2494  0.060125403  0.059776541            4 
 2054000   0.91767485   -4.0719669    1481.6574  0.060112684  0.059766465            4 
 2055000   0.94533266    -4.062428    1479.5463  0.059997822  0.059756405            3 
 2056000   0.94150757   -4.0484403    1482.1549   0.06007437  0.059746389            6 
 2057000   0.93640176   -4.0938173    1478.1757  0.059883959  0.059736515            4 
 2058000   0.91423979   -4.0572924    1483.6966  0.060078419  0.059726386            3 
 2059000   0.90797635   -4.0568965    1484.8646  0.060096511  0.059716508            4 
 2060000   0.90921711   -4.0469653    1480.5754  0.059893828  0.059706441            3 
 2061000   0.93443604   -4.0792661    1478.6379  0.059786428   0.05969619            2 
 2062000   0.91328033   -4.0610585    1480.9337  0.059850213  0.059686023            3 
 2063000   0.94023876    -4.044534    1483.3934  0.059920561  0.059675924            5 
 2064000   0.91926282   -4.0515119    1487.4806  0.060056551  0.059665816            4 
 2065000   0.92398777   -4.0660258    1487.4173  0.060024912  0.059655594            5 
 2066000   0.90876954   -4.0577785     1490.011  0.060100476  0.059645722            5 
 2067000   0.93774992   -4.0601543    1482.1634  0.059755015  0.059635493            3 
 2068000   0.91547319   -4.0479723    1486.9329  0.059918313  0.059625494            5 
 2069000   0.92313267   -4.0938486    1483.7244  0.059760124  0.059615268            5 
 2070000   0.91662457   -4.0696219    1483.2173   0.05971084  0.059604907            3 
 2071000   0.90881086   -4.0719014     1487.747  0.059864278  0.059594507            4 
 2072000   0.90105868   -4.0663239    1487.3117  0.059817879  0.059584221            2 
 2073000   0.92360267   -4.0632643    1485.9192  0.059733045  0.059573884            3 
 2074000   0.91343145    -4.102033     1485.563  0.059689932  0.059563622            5 
 2075000   0.91590814   -4.0702208     1494.043  0.060001726  0.059553403            3 
 2076000     0.942325    -4.050693    1488.0859  0.059733699  0.059543308            3 
 2077000   0.92194322   -4.0418211    1492.9614  0.059900555  0.059533344            3 
 2078000   0.91005686    -4.088623     1489.279  0.059724052  0.059523183            7 
 2079000   0.93626261   -4.0446707    1488.5978   0.05966802  0.059513065            4 
 2080000   0.90162214   -4.0859052    1487.7378   0.05960488  0.059502835            2 
 2081000   0.92540093   -4.0695281     1496.628  0.059932243  0.059492685            3 
 2082000   0.91703272   -4.0758556    1488.9219  0.059595018  0.059482669            6 
 2083000   0.93215092   -4.0305176    1492.2735  0.059700494  0.059472466            6 
 2084000   0.95034154   -4.0893997    1491.5041  0.059641079  0.059462282            3 
 2085000   0.93254922   -4.0794513    1491.7668  0.059622972  0.059452017            4 
 2086000    0.8992995    -4.052134    1493.7666  0.059674282  0.059441987            3 
 2087000   0.92801099   -4.0528359    1494.5552  0.059677176  0.059431835            9 
 2088000   0.89846888   -4.0801255    1495.0474   0.05966824  0.059421613            5 
 2089000    0.9264962   -4.0889672    1494.1394  0.059603454  0.059411426            2 
 2090000   0.91162803   -4.0821473     1493.414  0.059546014  0.059401258            7 
 2091000    0.9267606   -4.0686973    1496.2544  0.059630737  0.059390888            3 
 2092000   0.91753614   -4.0760919    1496.3895  0.059607614  0.059380752            3 
 2093000   0.92615617   -4.0928346    1497.4682  0.059622081  0.059370579            4 
 2094000   0.93059177   -4.0583968    1500.2431  0.059704038  0.059360391            4 
 2095000   0.91777518   -4.0801951    1498.2973  0.059598144   0.05935012            5 
 2096000   0.93322691   -4.0917874    1493.8692  0.059393653  0.059339508            3 
 2097000   0.91068722   -4.0747219    1499.8417  0.059602673  0.059329066            7 
 2098000   0.90548443   -4.0828487    1497.6353  0.059486627  0.059318492            5 
 2099000   0.90419662   -4.0352785    1495.8163  0.059386068  0.059308086            2 
 2100000   0.91430793   -4.0667735    1498.5619  0.059466743  0.059297542            7 
 2101000   0.91409178   -4.0934615    1496.7592  0.059366937  0.059286805            3 
 2102000   0.90119844   -4.0988875    1490.7796  0.059101634  0.059276136            2 
 2103000    0.9170468     -4.11841    1494.1983     0.059209  0.059265473            4 
 2104000   0.90767591   -4.0658749    1502.7947  0.059521338  0.059254853            5 
 2105000   0.92922964   -4.0761584    1492.8023  0.059097478  0.059244296            3 
 2106000   0.94054541   -4.0893571    1497.5427  0.059256992  0.059233588            3 
 2107000    0.9112797   -4.0889307    1499.0425  0.059288188  0.059223125            6 
 2108000   0.91560223   -4.1004741    1497.6949  0.059206786   0.05921235            3 
 2109000   0.92267798   -4.0551986    1499.7196  0.059258717  0.059201589            2 
 2110000   0.90087593   -4.0795794    1500.2875  0.059253063  0.059190757            2 
 2111000   0.91357261    -4.065919    1497.3752  0.059110028  0.059180108            5 
 2112000   0.93370187   -4.0775603    1500.4438  0.059203118  0.059169568            5 
 2113000    0.9112887   -4.0955484    1496.9045  0.059035513  0.059158954            4 
 2114000   0.91576115   -4.0560879    1498.2877  0.059062114  0.059148137            4 
 2115000   0.92131048   -4.0641539    1502.0015  0.059180516   0.05913756            3 
 2116000   0.89936716   -4.1028789    1501.3526  0.059126995  0.059126982            3 
 2117000   0.92301966   -4.0733994    1501.8114  0.059117124  0.059116428            4 
 2118000    0.9263201   -4.0732758    1502.7255  0.059125176  0.059105655            3 
 2119000   0.90902907   -4.0828611    1505.9971  0.059225934  0.059094875            4 
 2120000   0.91385868   -4.0684829    1503.6291  0.059104918  0.059084183            5 
 2121000   0.89439296   -4.0842847    1512.4656  0.059424233  0.059073511            9 
 2122000   0.90831764    -4.080837    1503.5476   0.05904601  0.059062828            3 
 2123000   0.91227273   -4.1101232    1503.6744  0.059023174  0.059052245            3 
 2124000   0.91804732   -4.0916316    1501.8623  0.058924289  0.059041612            6 
 2125000   0.91186362   -4.0865771    1503.3171  0.058953611  0.059031007            6 
 2126000   0.89959145   -4.0988999    1500.0496  0.058797804  0.059020283            2 
 2127000   0.92898718   -4.0854283    1506.6458  0.059028592  0.059009311            3 
 2128000   0.90498773   -4.0749159    1511.2688  0.059181894  0.058998571            3 
 2129000   0.91103026   -4.1011072    1501.8739  0.058786358  0.058987598            3 
 2130000   0.93333689   -4.0919376    1505.0152  0.058881659  0.058976569            8 
 2131000   0.90026883   -4.0895263    1507.8514   0.05896494  0.058965479            2 
 2132000   0.90819097   -4.0414474    1505.7419  0.058854827  0.058954286            3 
 2133000   0.92224317    -4.091339    1503.8566  0.058753581  0.058943175            4 
 2134000   0.89823772   -4.0856581    1507.6173  0.058872902  0.058932421            3 
 2135000   0.90333689   -4.0838506    1513.7431   0.05908443  0.058921397            7 
 2136000   0.91587957   -4.0721543    1504.5347  0.058697516  0.058910541            3 
 2137000   0.91201667   -4.0725992    1507.6013  0.058789633  0.058899476            2 
 2138000   0.90872821   -4.0717818    1508.2945  0.058789152  0.058888303            3 
 2139000   0.90698456   -4.0568812     1511.834  0.058899563  0.058877379            3 
 2140000   0.91551706   -4.1176749     1503.969  0.058565769   0.05886641            3 
 2141000    0.8943939   -4.0797223    1508.4136  0.058711411  0.058855299            3 
 2142000   0.90134997   -4.0837119     1511.392  0.058799875  0.058844197            3 
 2143000   0.89686991   -4.0684676    1513.9677  0.058872599  0.058833406            3 
 2144000   0.89803628   -4.0930793    1514.0947  0.058850073   0.05882245            2 
 2145000   0.90440585   -4.1093052    1509.5759  0.058647083  0.058811426            3 
 2146000   0.91568918    -4.091671    1509.6567   0.05862289   0.05880023            4 
 2147000   0.92880243   -4.0913722    1518.5366  0.058940251  0.058789132            4 
 2148000   0.91111587   -4.0997237    1508.9418  0.058540572  0.058778001            5 
 2149000   0.91003069   -4.0858922    1516.1103   0.05879131  0.058766791            7 
 2150000   0.90963267   -4.1120623    1512.1323  0.058609779  0.058755596            4 
 2151000   0.88845183   -4.0900825    1514.5588  0.058676536  0.058744389            3 
 2152000   0.91659108   -4.0943083     1515.274  0.058676969  0.058733279            4 
 2153000    0.9268821    -4.060751    1517.3204  0.058728921  0.058722218            4 
 2154000   0.91073823   -4.0812379    1513.9779  0.058572341  0.058711204            3 
 2155000   0.91978507   -4.0977589    1513.7909  0.058537933  0.058700137            1 
 2156000   0.91464071   -4.0941859    1516.6322  0.058620602  0.058688981            3 
 2157000   0.89030323   -4.1016363    1516.9596  0.058606074  0.058677704            3 
 2158000   0.91362429   -4.1011497    1514.8942  0.058499157  0.058666542            3 
 2159000   0.92600098   -4.0920536    1517.7841  0.058583607   0.05865552            2 
 2160000   0.91866475   -4.0904025    1516.7223  0.058515522  0.058644468            3 
 2161000   0.89340713   -4.0681759     1518.417  0.058553794  0.058633464            4 
 2162000   0.92105147   -4.0998234    1524.2904  0.058753101  0.058622549            4 
 2163000   0.92452207   -4.0611602    1521.2978  0.058610642  0.058611395            3 
 2164000     0.910868   -4.1047624    1520.7245   0.05856148  0.058600354            3 
 2165000   0.91702611   -4.0875383    1520.8011   0.05853738   0.05858921            3 
 2166000   0.89073005    -4.107004    1519.7468  0.058469791  0.058577898            2 
 2167000   0.88429465   -4.0954935    1517.8487  0.058369818  0.058566794            3 
 2168000   0.90874516   -4.0802787    1525.7192  0.058645417  0.058555604            2 
 2169000   0.90740409   -4.1053672    1516.4875  0.058263697  0.058544476            4 
 2170000   0.91860146    -4.081049    1522.6127  0.058472069  0.058533357            3 
 2171000   0.90405218   -4.0840512    1521.4579  0.058400809  0.058522316            4 
 2172000   0.90847502    -4.084648    1521.9029  0.058390995  0.058511295            4 
 2173000   0.89066829   -4.1050548    1524.9891  0.058482476    0.0585002            5 
 2174000   0.90213837   -4.1218139    1521.1537  0.058308558  0.058488927            6 
 2175000   0.87960296   -4.0868678    1520.3738  0.058251869  0.058477815            4 
 2176000   0.89888716    -4.115122     1519.619  0.058196194  0.058466525            3 
 2177000   0.89501363   -4.1124881    1525.1144  0.058379819  0.058455397            6 
 2178000   0.89458896   -4.0992304    1525.0919  0.058352155  0.058444155            4 
 2179000   0.90722127   -4.0768478    1523.3301  0.058257998  0.058433161            5 
 2180000     0.880835   -4.1237583    1521.7187  0.058169677  0.058422149            3 
 2181000   0.90395271    -4.100746    1524.1192  0.058234723  0.058410924            4 
 2182000   0.89720116   -4.0819095    1522.7266   0.05815485  0.058399764            2 
 2183000   0.91333698   -4.1080845    1529.5306  0.058387946   0.05838867            3 
 2184000    0.9059948   -4.1091133    1527.7726  0.058294133  0.058377414            2 
 2185000    0.8933277   -4.1137893    1521.4125  0.058024886  0.058366475            2 
 2186000   0.90984827   -4.0702261    1531.7261  0.058391509  0.058355487            4 
 2187000   0.89811428   -4.1218733    1531.6599  0.058362289  0.058344432            3 
 2188000   0.92161611   -4.1097361    1529.8824  0.058267915  0.058333429            3 
 2189000   0.88751921   -4.1183469    1527.9694  0.058168471  0.058322483            5 
 2190000    0.8941616   -4.0888924    1533.8231  0.058364655  0.058311605            3 
 2191000   0.89130844   -4.1243712    1532.3596  0.058282352  0.058300549            5 
 2192000   0.89787216    -4.122088    1535.3473  0.058369348  0.058289498            4 
 2193000   0.90441899     -4.09038    1541.6218   0.05858116  0.058278552            3 
 2194000   0.90316356   -4.1159289     1524.527  0.057905158  0.058267224            6 
 2195000   0.89510524   -4.0880035    1533.5112  0.058219864  0.058255969            4 
 2196000   0.88198533   -4.1041032    1534.5933  0.058234414  0.058244949            4 
 2197000   0.91375174   -4.1114278    1532.9799  0.058146711   0.05823368            2 
 2198000   0.91072891   -4.0910809    1531.7321  0.058072949  0.058222337            5 
 2199000   0.89875945   -4.1268656    1529.4094   0.05795852  0.058211023            3 
 2200000   0.89267735   -4.1032312    1528.1151  0.057883147  0.058199705            3 
 2201000   0.90547909   -4.0665208    1537.1707  0.058199707  0.058188463            3 
 2202000   0.88053841   -4.1321294     1531.231  0.057948495  0.058177346            4 
 2203000   0.90795929   -4.1016544    1537.5689  0.058161933  0.058166083            6 
 2204000   0.91656147   -4.1120491    1538.3631  0.058165572  0.058155213            5 
 2205000   0.89395584   -4.1371918    1533.5295   0.05795652  0.058144127            5 
 2206000   0.92275667    -4.101016    1537.3623  0.058075036  0.058132948            2 
 2207000    0.8852913   -4.0885838    1544.2543  0.058308952  0.058121923            8 
 2208000   0.90089828   -4.1229615    1534.5228  0.057915262  0.058110944            4 
 2209000   0.89950218   -4.1260748    1539.1755  0.058064564   0.05810003            3 
 2210000   0.89565891   -4.1043478    1537.3424  0.057969172  0.058088907            3 
 2211000   0.88645122   -4.1179975    1540.5254   0.05806292  0.058077757            5 
 2212000    0.8868792   -4.1007235    1544.2877  0.058178411  0.058066716            2 
 2213000   0.90443232    -4.085796    1540.1799  0.057997434  0.058055805            3 
 2214000   0.89833364   -4.1272246    1537.5299  0.057871496  0.058044854            5 
 2215000   0.88208411   -4.1160696     1538.894  0.057896688  0.058033815            6 
 2216000   0.92931438   -4.0907743    1539.3506  0.057887735  0.058022858            4 
 2217000   0.88784447   -4.1240384     1541.086  0.057926853  0.058012129            3 
 2218000   0.89420086   -4.1088084    1542.3478  0.057948146   0.05800112            6 
 2219000   0.90412484    -4.110258    1543.2915  0.057957468  0.057990003            2 
 2220000   0.88852628   -4.0927814    1544.1946  0.057965261  0.057979129            1 
 2221000   0.90334577    -4.097899    1545.6506  0.057993796  0.057968224            5 
 2222000   0.90132211   -4.0803524    1544.8538  0.057937812   0.05795733            4 
 2223000   0.91506234    -4.124061    1541.2375  0.057776183  0.057946327            2 
 2224000   0.90398571   -4.1241473    1542.1211  0.057783315  0.057935146            7 
 2225000    0.8815157   -4.1150986    1545.2967   0.05787628  0.057924038            4 
 2226000   0.90658114   -4.0908155    1546.1622   0.05788268  0.057912944            4 
 2227000   0.89641549   -4.1007125    1541.1351  0.057668577  0.057901814            3 
 2228000   0.92186779   -4.0849491    1548.4926  0.057917885    0.0578909            7 
 2229000   0.92006518   -4.0933685    1548.8034  0.057903521  0.057880115           14 
 2230000   0.89027831    -4.105596    1547.0549  0.057812215  0.057869129            3 
 2231000   0.88151458   -4.1170339    1548.6515  0.057845941  0.057858177            3 
 2232000   0.90568557   -4.0827938    1546.7691  0.057749741  0.057847257            3 
 2233000   0.88163247   -4.1388643    1541.3715  0.057522447  0.057836282            5 
 2234000   0.91994871   -4.1169096     1548.512  0.057763056  0.057825364            4 
 2235000    0.8731506   -4.1330487    1547.2658  0.057690745  0.057814386            3 
 2236000    0.8879823   -4.1231305     1550.079  0.057769788  0.057803312            5 
 2237000   0.88708551   -4.0882033    1551.3123  0.057789909  0.057792429            4 
 2238000   0.89695938   -4.1348941    1548.2013  0.057648248  0.057781563            5 
 2239000   0.87521925   -4.0836469    1557.8367  0.057981117  0.057770514            5 
 2240000   0.90236499    -4.119356    1547.3648  0.057565655  0.057759632           10 
 2241000   0.88753633    -4.125726    1547.2046  0.057534011  0.057748677            2 
 2242000   0.90170518   -4.1344074    1553.4587  0.057740807  0.057737772            5 
 2243000   0.88002429   -4.1375417    1555.8453  0.057803735  0.057726908            2 
 2244000   0.88541728   -4.1557015    1551.5944  0.057620114   0.05771607            3 
 2245000   0.89159108   -4.1235323    1559.3536  0.057882463  0.057705233            8 
 2246000   0.89313278   -4.0554009    1560.1428  0.057885976  0.057694561            3 
 2247000    0.8749521   -4.1314498    1557.6213  0.057766699  0.057683856            3 
 2248000   0.89599627   -4.1223855    1556.1155  0.057685183  0.057673047            3 
 2249000   0.89255932   -4.1066597    1560.1795   0.05781012   0.05766218            4 
 2250000   0.92805252   -4.1002695    1556.8777  0.057662139  0.057651247            3 
 2251000    0.8961468   -4.1058403    1557.4039     0.057656  0.057640427            4 
 2252000   0.87546296   -4.1001244    1557.6693  0.057640219   0.05762966            4 
 2253000   0.88048263   -4.1178743    1557.5005  0.057608392  0.057618891            3 
 2254000   0.88222323   -4.1047582    1563.0576  0.057788288  0.057608133            4 
 2255000    0.8862769   -4.1231431    1558.6496  0.057599762  0.057597313            2 
 2256000   0.86708693   -4.1070317    1563.7373  0.057762165  0.057586685            5 
 2257000   0.87396816   -4.1063828    1561.3842  0.057649689  0.057575781            8 
 2258000   0.89872078    -4.113615    1562.4177    0.0576623  0.057564908            7 
 2259000   0.87450012    -4.109399    1560.2983  0.057558592  0.057554026            5 
 2260000   0.88523149   -4.0994268    1560.5977  0.057544161  0.057543166            3 
 2261000    0.8879591   -4.1071662    1557.2959  0.057397018  0.057532362            5 
 2262000   0.90000093   -4.1432167    1562.8787  0.057577318  0.057521821            4 
 2263000   0.87553497   -4.0909868      1567.95  0.057738622  0.057511244            5 
 2264000   0.89234549   -4.1031248     1563.366  0.057544391  0.057500608            4 
 2265000   0.87985083   -4.1220881    1560.9569   0.05743035  0.057490009            4 
 2266000   0.87989315   -4.1379704    1566.0353  0.057591766  0.057479527            3 
 2267000   0.89223424   -4.1111939    1563.9725  0.057490536  0.057468995            3 
 2268000   0.87100715   -4.1395962    1565.7319   0.05752983   0.05745837            5 
 2269000   0.89261465   -4.1184691    1561.6772  0.057355562   0.05744768            2 
 2270000   0.89501019   -4.1216025    1567.7316  0.057552555  0.057436852            3 
 2271000   0.89486693   -4.0802522     1567.475  0.057517797  0.057426149            3 
 2272000   0.87201062   -4.1303451    1568.4477  0.057528159  0.057415451            2 
 2273000   0.89057169   -4.1247178    1573.0336  0.057670979  0.057404922            3 
 2274000   0.88692881   -4.1388487    1573.2347  0.057652987  0.057394344            2 
 2275000   0.89215161   -4.1424283    1567.6129   0.05742172   0.05738382            4 
 2276000   0.88445719   -4.1457005    1565.8418  0.057331641  0.057373244            5 
 2277000   0.90574536   -4.1414797    1568.1891   0.05739237  0.057362599            3 
 2278000   0.89466057   -4.1077495    1577.0146  0.057690029  0.057352005            3 
 2279000   0.88354104   -4.1265877    1571.4582  0.057461541  0.057341635            5 
 2280000   0.88297883   -4.1341168    1568.7977  0.057339096  0.057331064            4 
 2281000    0.8818505   -4.1372879    1575.7748   0.05756886  0.057320419            7 
 2282000   0.87586288   -4.1264123    1573.3193  0.057453963  0.057309834            3 
 2283000   0.87243754   -4.1064194    1574.3532  0.057466537  0.057299525            3 
 2284000   0.88480743    -4.120217    1571.5691  0.057339796   0.05728897            4 
 2285000   0.89218511   -4.1228621    1570.0984  0.057261063  0.057278421            4 
 2286000   0.89321208   -4.1147938    1570.8888  0.057264829  0.057267903            3 
 2287000   0.90192326   -4.1071427    1572.3118  0.057291643  0.057257271            5 
 2288000   0.89789741   -4.1168862    1575.1978  0.057371714  0.057246674            3 
 2289000   0.88368286   -4.1238918    1574.7475  0.057330258  0.057236152            5 
 2290000   0.90221875   -4.1135556    1572.0192  0.057205938  0.057225515            3 
 2291000   0.90165418   -4.1260692    1571.1274  0.057148529  0.057214863            4 
 2292000   0.87101531   -4.1359089    1572.6433  0.057178713  0.057204224            3 
 2293000   0.91110486   -4.1322704    1575.2246  0.057247588  0.057193734            7 
 2294000   0.86561819    -4.124015    1581.0815  0.057435394  0.057183249            4 
 2295000    0.8651827   -4.1589155    1578.6476  0.057321991   0.05717269            3 
 2296000   0.89074295   -4.1175111    1581.8673  0.057413883  0.057162091            5 
 2297000   0.86839983   -4.1320413    1575.7085  0.057165452  0.057151505            9 
 2298000    0.8861867   -4.1068995    1580.0658  0.057298586  0.057140898            2 
 2299000    0.8810449   -4.1501469    1576.0343  0.057127531  0.057130265            3 
 2300000   0.87553958    -4.102399    1581.5316  0.057301868  0.057119525            3 
 2301000   0.88235172   -4.1262605    1577.4308   0.05712845  0.057109048            5 
 2302000   0.87639607   -4.1636346    1575.3718  0.057029097  0.057098298            5 
 2303000   0.87786544   -4.1036132    1584.4129  0.057331483  0.057087744            4 
 2304000   0.88531519   -4.1144642    1582.4471  0.057235498  0.057077056            7 
 2305000   0.87408325   -4.1336331    1581.7409  0.057185136  0.057066477            2 
 2306000   0.88075632   -4.1208413    1581.8937  0.057165862  0.057055875            5 
 2307000   0.88592841   -4.1310627    1579.9657   0.05707144  0.057045367            3 
 2308000   0.87489597   -4.1118597     1582.904  0.057152803  0.057034711            4 
 2309000   0.87668794   -4.1418785    1577.0728  0.056917598  0.057023984            3 
 2310000   0.86857471     -4.13063    1583.5191   0.05712551  0.057013431           14 
 2311000   0.88343468   -4.1329886    1583.5702  0.057102632  0.057002545            3 
 2312000   0.88766202   -4.1388936    1580.1231  0.056953686  0.056991854            2 
 2313000   0.88733606   -4.1341151    1584.8721  0.057100161  0.056981115            3 
 2314000   0.90753252   -4.1247063    1584.0454  0.057045715  0.056970404            6 
 2315000   0.87220628   -4.1497165    1578.7565  0.056830686  0.056959735            3 
 2316000   0.87331316   -4.1141159    1582.6612  0.056946647  0.056948909            5 
 2317000   0.87251197   -4.1195509    1586.6798    0.0570666  0.056938161            3 
 2318000   0.90543561    -4.118051    1579.0913  0.056769174  0.056927351            5 
 2319000   0.87459626   -4.1238537    1586.8775  0.057024491  0.056916474            6 
 2320000   0.89426666   -4.1278298    1590.5574  0.057132089   0.05690591            8 
 2321000   0.89015948   -4.1233762    1586.0257   0.05694477  0.056895069            5 
 2322000     0.873783   -4.1132462    1583.3648  0.056824749  0.056884238            3 
 2323000   0.89297352   -4.1142578    1583.4398  0.056802979  0.056873431            4 
 2324000   0.88777578   -4.1485593     1585.815  0.056863704   0.05686269            4 
 2325000   0.88435643   -4.1140467    1583.1094  0.056742271   0.05685175            6 
 2326000   0.89666823   -4.1221634    1587.9362  0.056890806  0.056840948            5 
 2327000   0.85912442   -4.1599319    1587.7297  0.056858964  0.056830142            7 
 2328000   0.88037414   -4.1599553    1581.7953  0.056622112  0.056819212            5 
 2329000    0.8723508   -4.1355807    1587.9686  0.056818685   0.05680826            2 
 2330000   0.87840913   -4.1487602     1586.467  0.056740594  0.056797547            5 
 2331000   0.86879572   -4.1099136    1589.7304  0.056832918  0.056786887            4 
 2332000   0.88129052   -4.1243473    1590.6672  0.056842024  0.056776109            4 
 2333000   0.85981841   -4.1232291    1585.2821  0.056625308  0.056765472            5 
 2334000   0.88653066   -4.1676437    1585.0178  0.056591611  0.056754717            4 
 2335000    0.8924625   -4.1321353    1590.9673  0.056779705  0.056743761            3 
 2336000   0.88028188   -4.1618155    1593.1447  0.056833074   0.05673286            4 
 2337000   0.87246838   -4.1359527    1590.8198  0.056725853  0.056721939            5 
 2338000   0.87270547   -4.1576219    1590.3931  0.056686381  0.056711246            5 
 2339000   0.89628115   -4.1531169    1589.4791  0.056629582   0.05670033            7 
 2340000   0.90430945   -4.1725241    1591.7433  0.056686014  0.056689454            3 
 2341000   0.87123924   -4.1598421    1598.9486  0.056918291  0.056678716           10 
 2342000   0.90065304   -4.1240827    1599.3978  0.056909969  0.056668126            3 
 2343000   0.87225175    -4.139803    1588.6658  0.056503976  0.056657666            3 
 2344000   0.88555831   -4.1189268     1597.346  0.056788469  0.056647038            4 
 2345000   0.87354484   -4.1529267    1596.2344  0.056724748  0.056636465            7 
 2346000   0.86772719   -4.1651036    1595.0151  0.056657256  0.056625856            4 
 2347000   0.87400246   -4.1624504     1596.451  0.056684101  0.056615254            4 
 2348000   0.87178607   -4.1353779    1594.8242   0.05660222  0.056604526            3 
 2349000   0.86386948   -4.1492168    1601.8173  0.056826214  0.056593945            3 
 2350000   0.87309418   -4.1442544    1595.9248  0.056593077  0.056583288            6 
 2351000   0.87429691   -4.1473383    1600.2501  0.056722319  0.056572811            3 
 2352000   0.86587902   -4.1728061     1598.323  0.056629926   0.05656223            4 
 2353000   0.87591527   -4.1448934    1605.7105  0.056867492  0.056551658           14 
 2354000   0.89518023   -4.1329259    1605.3169  0.056829399  0.056541206            7 
 2355000   0.88779445    -4.136525    1596.8014  0.056503941  0.056530871           11 
 2356000    0.8913902   -4.1400348    1599.5707  0.056577911  0.056520326            5 
 2357000   0.88170434   -4.1442007    1601.6144  0.056626165  0.056509907            7 
 2358000   0.86747275   -4.1185643    1600.2126  0.056552608  0.056499635            1 
 2359000   0.86340993   -4.1455289    1601.6897  0.056580814  0.056489108            8 
 2360000   0.87436764   -4.1541032    1608.7641  0.056806644  0.056478528            3 
 2361000   0.86748504   -4.1653781     1607.387  0.056733977  0.056467965            2 
 2362000   0.87700338   -4.1526065    1606.3342  0.056672812  0.056457724            3 
 2363000   0.88258388   -4.1429925    1605.9504  0.056635294  0.056447476            4 
 2364000   0.88192311   -4.1370022    1609.1082  0.056722652  0.056437018            3 
 2365000   0.86614873   -4.1554909     1606.021  0.056589889  0.056426674            4 
 2366000   0.86780899   -4.1531571    1602.3864  0.056437953  0.056416522            6 
 2367000   0.86840159   -4.1319716    1612.1088  0.056756401   0.05640625            2 
 2368000   0.87403369   -4.1329012    1608.4413  0.056603367  0.056396204            3 
 2369000   0.86817734   -4.1385996    1613.4862  0.056756935  0.056386057            6 
 2370000   0.87448075   -4.1374431    1611.4893  0.056662774  0.056375971            4 
 2371000   0.88658618   -4.1538276    1611.7225  0.056647073  0.056365764            8 
 2372000   0.87940209   -4.1791112    1610.3297  0.056574258  0.056355607            3 
 2373000   0.86708838   -4.1560014    1610.4244  0.056553745  0.056345248            2 
 2374000   0.88143457   -4.1524058    1615.0597  0.056692634  0.056335093            3 
 2375000   0.86734589   -4.1526614    1615.1305  0.056671244  0.056324961            2 
 2376000    0.8943888   -4.1397187    1617.0891  0.056716087  0.056314985            4 
 2377000   0.86587284   -4.1528495    1612.2179  0.056521452  0.056305013            3 
 2378000   0.87544017   -4.1336077    1616.7221  0.056655525  0.056294928            3 
 2379000   0.86294061    -4.152028    1614.1611  0.056542002  0.056284726            5 
 2380000   0.86877661   -4.1425157    1616.6344  0.056604846   0.05627466            3 
 2381000   0.87420092   -4.1418249    1619.4502  0.056679624  0.056264725            3 
 2382000   0.85990449   -4.1412606    1617.1728  0.056576155  0.056254681            5 
 2383000   0.87614692   -4.1379863    1613.8106  0.056434838   0.05624456            5 
 2384000   0.84050244   -4.1108791    1620.2704   0.05663697  0.056234582            2 
 2385000   0.87276011   -4.1427919    1619.6745  0.056592402  0.056224471            4 
 2386000   0.86597204   -4.1205305    1614.8536  0.056400307  0.056214447            5 
 2387000   0.89676949   -4.1346779    1618.4242  0.056501334  0.056204563            7 
 2388000   0.87557622   -4.1830531    1614.5017  0.056340792  0.056194353            3 
 2389000   0.85320235   -4.1400028    1614.9766  0.056333772  0.056184235            4 
 2390000    0.8735818   -4.1658567    1621.1292  0.056524729  0.056174011            3 
 2391000   0.83608506   -4.1509312    1622.5899  0.056551997  0.056163839            2 
 2392000   0.87577472   -4.1655204    1617.0117   0.05633402   0.05615369            4 
 2393000   0.86700435   -4.1813852    1620.9038  0.056446015  0.056143475            6 
 2394000   0.86903127   -4.1683891    1620.0772  0.056393664  0.056133275            4 
 2395000   0.85909527   -4.1874301    1617.8421  0.056292347  0.056123158            4 
 2396000   0.85145431   -4.1376487    1621.8682  0.056408884  0.056113025            3 
 2397000   0.86134169   -4.1456011    1622.0381  0.056391258  0.056102904            4 
 2398000   0.86440202   -4.1503624    1624.4185  0.056450461  0.056092759            6 
 2399000   0.87950205   -4.1833443    1621.9789  0.056342189  0.056082659            3 
 2400000   0.86610025    -4.150971    1620.7645  0.056276544  0.056072394            4 
 2401000   0.89372466   -4.1753394    1624.7675  0.056392043  0.056062295            2 
 2402000   0.87092658   -4.1719079    1628.1596  0.056486248  0.056052066            6 
 2403000    0.8917105   -4.1525657    1621.3667  0.056227171  0.056041828            3 
 2404000   0.85639779   -4.1857664    1619.9953  0.056156245  0.056031498            3 
 2405000   0.87296121   -4.1557292    1623.1832  0.056243354  0.056021276            4 
 2406000   0.85530574   -4.1318347    1625.6991  0.056307116  0.056011211            4 
 2407000   0.85560839   -4.1752759    1623.3618  0.056202805   0.05600094            3 
 2408000   0.86992351    -4.169017    1623.0015  0.056166995  0.055990734            4 
 2409000   0.85609984   -4.1721041    1620.3767  0.056052881  0.055980642            7 
 2410000    0.8793878   -4.1570527    1624.6246  0.056176509  0.055970563            7 
 2411000   0.87673245   -4.1473795    1627.1673  0.056241094  0.055960528            6 
 2412000   0.86056862   -4.1727162    1628.4237  0.056261183  0.055950234            6 
 2413000   0.85921251    -4.154051    1628.4572  0.056239025  0.055940162            4 
 2414000   0.85985896   -4.1452532    1628.8779  0.056230252  0.055930127            3 
 2415000    0.8729389      -4.1527    1629.9936  0.056245464  0.055920119            3 
 2416000   0.88475531   -4.1380078    1625.9746  0.056083562  0.055909923            5 
 2417000   0.88714559   -4.1654908    1632.6784  0.056291492  0.055899976            5 
 2418000   0.89278431   -4.1766603    1627.6965  0.056096515  0.055889806            5 
 2419000   0.86376698   -4.1534934    1628.2297  0.056091693  0.055879608            8 
 2420000   0.85788317   -4.1797013    1625.7518   0.05598319  0.055869351            2 
 2421000   0.86675403   -4.1651274    1625.6265   0.05595575  0.055859047            3 
 2422000   0.85788025    -4.174584     1628.465  0.056030313   0.05584864           10 
 2423000   0.85029078   -4.1676146    1629.5206  0.056043494  0.055838253            2 
 2424000   0.85752541     -4.16019    1634.3398  0.056186049  0.055827979            4 
 2425000   0.83911864   -4.1567431    1634.2628  0.056160234  0.055817689            5 
 2426000   0.87372552   -4.1614628    1629.4023  0.055970124  0.055807331            2 
 2427000    0.8663077   -4.2108905    1626.1867  0.055836653  0.055796928            7 
 2428000   0.88679248   -4.1873148    1630.7854  0.055971492   0.05578641            4 
 2429000      0.86441   -4.1772278    1631.8907  0.055986369  0.055776079            2 
 2430000   0.87283016   -4.1658049    1622.7929  0.055651334  0.055765641            3 
 2431000   0.86190084   -4.1805725    1627.7476  0.055798286  0.055755143            4 
 2432000   0.87186221   -4.1513466    1631.3647  0.055899284   0.05574461            6 
 2433000   0.85204783   -4.1664008    1634.8942  0.055997197  0.055734327            4 
 2434000   0.87509945   -4.1829362    1637.5556  0.056065312  0.055723991            2 
 2435000   0.86423982   -4.1425835    1636.6233  0.056010381  0.055713786            6 
 2436000   0.85719908   -4.1782162    1635.9288   0.05596363  0.055703594            5 
 2437000   0.86773907   -4.1739044    1641.8808  0.056144195  0.055693379            5 
 2438000    0.8560688   -4.1565054     1633.474   0.05583381  0.055683151            2 
 2439000   0.86439184   -4.1722316    1636.8412  0.055925969  0.055672804            3 
 2440000   0.86548575   -4.1980529    1630.7308  0.055694358   0.05566237            4 
 2441000   0.88732701   -4.1428598    1638.6956  0.055943453  0.055652094            3 
 2442000   0.84717995    -4.157716    1636.4229  0.055842986  0.055641987            6 
 2443000   0.86538837   -4.1678324    1630.2022  0.055607933  0.055631622            7 
 2444000   0.86942151   -4.1746446    1637.5637  0.055836189  0.055621254            3 
 2445000   0.86234101   -4.1706688    1635.6405    0.0557478   0.05561096            3 
 2446000   0.85486672   -4.1746926    1631.8632   0.05559632  0.055600543            3 
 2447000   0.86703855    -4.144555    1636.1498  0.055719582  0.055590155            3 
 2448000   0.87650231   -4.1656426    1643.8681  0.055959563  0.055579902            3 
 2449000   0.82668213   -4.1949888    1641.7778  0.055865585  0.055569659            6 
 2450000   0.85485136   -4.1630233    1635.2929  0.055622209  0.055559291            3 
 2451000    0.8485897    -4.163285    1635.4752  0.055605712  0.055549068            4 
 2452000   0.84296528   -4.1805027    1645.1214   0.05591087  0.055538794            7 
 2453000   0.86719694   -4.1858539    1637.8498  0.055641045  0.055528471            4 
 2454000   0.86055285   -4.1748642    1636.6385  0.055577238   0.05551806            4 
 2455000   0.85107641   -4.1788456    1640.7959   0.05569572  0.055507615            3 
 2456000   0.84261145   -4.1794581    1640.8557  0.055675072  0.055497131            2 
 2457000   0.87809398   -4.1800886    1633.7238   0.05541052  0.055486551            3 
 2458000   0.86452009   -4.1707163       1643.2  0.055709248  0.055476164            4 
 2459000   0.86297245   -4.1569334    1639.3395  0.055555765  0.055465739            4 
 2460000   0.88797771   -4.2019694    1638.9132  0.055518741  0.055455346            3 
 2461000   0.88323815   -4.1772735    1640.3784  0.055545796  0.055444996            8 
 2462000   0.84884711   -4.1799917    1640.7558  0.055536009  0.055434716            8 
 2463000   0.85802576   -4.1747094      1647.14  0.055729463  0.055424353            2 
 2464000   0.85582492   -4.1733392    1646.5608  0.055687255  0.055413929            3 
 2465000   0.83970924   -4.1716589    1642.2605  0.055519287   0.05540359            5 
 2466000   0.85428616   -4.2085341     1638.892   0.05538294  0.055393079            2 
 2467000   0.87361122   -4.1498862    1654.4486  0.055885981  0.055382763            3 
 2468000   0.86051714   -4.1607116    1648.6875   0.05566881  0.055372465           12 
 2469000   0.85677526   -4.1458891    1649.9979  0.055690493  0.055362146            2 
 2470000    0.8571758   -4.1672915     1648.567   0.05561967  0.055352031            4 
 2471000   0.84646694   -4.1733001    1651.1022  0.055682657  0.055341767            4 
 2472000   0.87560436   -4.1894188    1642.7392   0.05537821  0.055331193            4 
 2473000   0.85356622   -4.1859841    1649.2287  0.055574493  0.055320661            7 
 2474000    0.8619597   -4.1571284    1649.1751  0.055550224  0.055310146            5 
 2475000   0.84635401   -4.1961953    1641.6906  0.055275779  0.055299453            4 
 2476000   0.86267123   -4.1752136    1647.0879  0.055435106  0.055288809            4 
 2477000   0.86968945   -4.1847049    1644.5765  0.055328237  0.055278345            4 
 2478000   0.84409529   -4.1859665    1645.1258  0.055324382  0.055267596            5 
 2479000   0.85510494   -4.1653771    1647.6015  0.055385286  0.055256982            6 
 2480000   0.85253352    -4.210369    1641.1516  0.055146222  0.055246385            5 
 2481000   0.86731997   -4.1912617    1647.7741  0.055346435  0.055235791            8 
 2482000   0.84776177   -4.1755507    1648.9544  0.055363766  0.055225173            4 
 2483000   0.84944517   -4.1512229    1645.0793  0.055211415   0.05521458            4 
 2484000   0.86451217   -4.1721968    1645.0765  0.055189093  0.055204016            4 
 2485000   0.85095591   -4.1852999    1647.3164  0.055241997  0.055193402            3 
 2486000   0.86302825   -4.1594188    1648.2587  0.055251364  0.055182849            4 
 2487000   0.83166283   -4.1973429    1647.9657  0.055219329  0.055172278            4 
 2488000   0.86515348   -4.1692809    1648.3685  0.055210627  0.055161724            2 
 2489000   0.84529981   -4.1684997    1650.4188   0.05525709  0.055151262            2 
 2490000   0.84282999   -4.1891201    1654.8367  0.055382753  0.055140899            4 
 2491000   0.85754898   -4.1391338    1653.4937  0.055315591   0.05513048            5 
 2492000   0.85435889   -4.1445589    1646.3372  0.055054078  0.055119989            7 
 2493000   0.86232212   -4.1712838    1651.8404  0.055215951  0.055109435            3 
 2494000   0.84886377   -4.1939153     1648.824  0.055093023  0.055098696            2 
 2495000   0.85378535   -4.1881855    1648.8888  0.055073105  0.055087992            2 
 2496000   0.86237026   -4.1914933    1647.9397  0.055019355  0.055077353            4 
 2497000   0.87102572   -4.2036163    1646.6832  0.054955385  0.055066737            5 
 2498000    0.8561232   -4.1869751    1654.4755  0.055193339  0.055056058            7 
 2499000   0.85866432   -4.1761336    1650.1866  0.055028233  0.055045253            5 
 2500000   0.84592414    -4.141823    1650.1094  0.055003648  0.055034513            5 
 2501000   0.86066631    -4.195779    1648.5838   0.05493082  0.055023772            3 
 2502000   0.85463435   -4.1694113    1657.5127  0.055206259    0.0550129            9 
 2503000   0.83568383   -4.1734645    1654.3564  0.055079117  0.055002197            5 
 2504000   0.86593286   -4.1984503    1657.1221  0.055149165  0.054991542            4 
 2505000   0.85281373    -4.213597    1652.1019  0.054960143  0.054980839            2 
 2506000   0.85436348   -4.1561109    1658.8301  0.055161949  0.054970109            3 
 2507000   0.85530661   -4.1824999    1653.9562  0.054977934  0.054959238            4 
 2508000   0.84384139    -4.197614    1651.9706  0.054890037  0.054948294            6 
 2509000    0.8514582   -4.1966324    1657.4775  0.055051067  0.054937529            8 
 2510000   0.86632528   -4.1721792    1656.2131  0.054987153  0.054926891            3 
 2511000   0.84954143   -4.1792651    1654.2264  0.054899325  0.054916135            3 
 2512000   0.83659102    -4.163396    1662.9352  0.055166374  0.054905421            2 
 2513000   0.84743938   -4.1681333    1663.7295  0.055170762  0.054894786            4 
 2514000    0.8745927   -4.1904008     1660.261  0.055033844  0.054884249            4 
 2515000   0.83612482   -4.1684459    1656.7291  0.054894933  0.054873483            5 
 2516000   0.86271547   -4.2097025    1654.0939  0.054785835  0.054862528            3 
 2517000   0.86644061   -4.1949048    1656.7532  0.054852113   0.05485174            3 
 2518000   0.83786929   -4.1997347    1655.9078  0.054802351  0.054840924            6 
 2519000   0.84221225   -4.2006249    1655.8135  0.054777475  0.054830216            5 
 2520000   0.85975142   -4.1633414    1655.9522  0.054760324  0.054819277            2 
 2521000   0.84420073   -4.1585871     1657.692  0.054796113  0.054808493            4 
 2522000     0.831397   -4.1900597     1659.554  0.054835909  0.054797707            2 
 2523000   0.85066658   -4.1862469    1655.6665  0.054685774  0.054786893            4 
 2524000   0.84796177   -4.2045272    1651.0337  0.054511151    0.0547759            8 
 2525000   0.84389146   -4.2123851    1655.5481  0.054638552  0.054764981            7 
 2526000   0.84928426    -4.186518    1657.8644  0.054693336  0.054754058            5 
 2527000   0.84376814   -4.1954077    1657.2423  0.054651177  0.054743235            4 
 2528000   0.85459209   -4.1822947    1662.7208  0.054810154   0.05473227            3 
 2529000   0.85761656   -4.1756577    1661.5511  0.054749938  0.054721421            3 
 2530000   0.85749262   -4.1780252     1662.109  0.054746672  0.054710556            3 
 2531000    0.8369601   -4.1895434    1658.2698  0.054598637  0.054699814           10 
 2532000   0.86265608   -4.2007365    1660.6416  0.054655135   0.05468908            5 
 2533000   0.84421815    -4.196819    1660.9543  0.054643843  0.054678307            4 
 2534000   0.83874319   -4.1807625    1664.7041  0.054745598  0.054667608            6 
 2535000   0.85412174   -4.1883444    1665.0503  0.054735382  0.054656721            5 
 2536000   0.86282496   -4.1618629    1662.5808  0.054632649  0.054645952            3 
 2537000    0.8441822   -4.1900162    1663.1298  0.054629147  0.054635382            5 
 2538000     0.845401   -4.1852825    1671.1609   0.05487132  0.054624535            4 
 2539000   0.83025184    -4.206726    1662.8829  0.054578014  0.054613879            5 
 2540000   0.85927738   -4.1784764    1663.7536  0.054585091  0.054603093            5 
 2541000   0.83408176   -4.2070895    1663.7796  0.054564462  0.054592292            4 
 2542000   0.83842321   -4.2061435    1668.6736  0.054703437  0.054581487            8 
 2543000    0.8450833   -4.2118572    1661.8879  0.054459558  0.054570771            7 
 2544000   0.84670691   -4.1871607    1667.5234  0.054622753  0.054560111            4 
 2545000   0.83339369   -4.2246955    1665.6917  0.054541314   0.05454929            5 
 2546000   0.82362566   -4.1958429    1663.6678  0.054453646  0.054538481            5 
 2547000   0.83277465   -4.1920266    1665.9119  0.054505691  0.054527693            4 
 2548000   0.83477966   -4.1743065    1670.6967  0.054640788  0.054516852            5 
 2549000   0.84932196   -4.1973888    1664.3995  0.054413481   0.05450602            6 
 2550000   0.82638813    -4.223881    1666.2323  0.054452035  0.054495256            2 
 2551000    0.8534501   -4.2267755    1669.7142  0.054544435  0.054484408            2 
 2552000   0.82764978   -4.1918812    1665.9925  0.054401532  0.054473586            4 
 2553000   0.81454432   -4.2068384    1668.8826  0.054474559  0.054462802            3 
 2554000   0.83720921    -4.194293    1662.5651    0.0542471  0.054451957            3 
 2555000     0.855574   -4.1904008    1670.6344  0.054489056  0.054441307            4 
 2556000   0.84163102   -4.2111332     1669.678  0.054436555  0.054430579           12 
 2557000   0.84408601   -4.2024299    1676.0039  0.054621429  0.054419938            3 
 2558000   0.85683588   -4.2291445    1669.9317  0.054402258  0.054409397            5 
 2559000    0.8354914   -4.1996233    1670.4917  0.054399234  0.054398782            5 
 2560000   0.84362846   -4.2005931    1670.1677  0.054367439   0.05438817            2 
 2561000   0.84007711   -4.2085947    1671.8539  0.054401079  0.054377594            3 
 2562000    0.8417465   -4.1916368    1675.2221  0.054489399  0.054366934            2 
 2563000   0.84726319   -4.1926619    1674.6367  0.054449107  0.054356284            4 
 2564000   0.84272708   -4.2454737     1669.626  0.054265014  0.054345497            6 
 2565000   0.84570347   -4.2352095    1669.3478  0.054234822  0.054334645            9 
 2566000   0.82412884    -4.206199    1671.7308  0.054291075  0.054323813            4 
 2567000   0.82660346   -4.2044255    1676.0303  0.054409502  0.054313113            5 
 2568000   0.82913252   -4.2032018    1671.5052  0.054241472  0.054302385            5 
 2569000   0.83401582   -4.1958445    1679.6115  0.054483311  0.054291596            4 
 2570000    0.8480591   -4.2233565    1674.6401   0.05430091  0.054280913            9 
 2571000   0.86385528   -4.2007017    1678.3754  0.054400864  0.054270144            1 
 2572000   0.83458225   -4.2213642    1673.5538  0.054223491  0.054259488            4 
 2573000   0.84723917   -4.1836113    1679.9167  0.054408496  0.054248819           10 
 2574000   0.81957063   -4.2119498    1672.3963  0.054143885   0.05423806            7 
 2575000   0.81858888   -4.1897207    1672.2539  0.054118248  0.054227274            7 
 2576000   0.83132437   -4.2017105     1673.134  0.054125711  0.054216424            2 
 2577000   0.83156147   -4.2240466    1678.4779  0.054277514   0.05420583            3 
 2578000   0.84773032   -4.1851625      1678.34  0.054252006  0.054195282            5 
 2579000   0.84142521    -4.209441    1681.3114   0.05432698  0.054184581            3 
 2580000   0.85039002   -4.2103636    1680.3949   0.05427632   0.05417387            5 
 2581000   0.82276149   -4.2110765    1678.3385  0.054188898  0.054163141            6 
 2582000   0.83227821   -4.2213857    1680.6375   0.05424211  0.054152504            4 
 2583000   0.82142274   -4.2074705    1681.9365  0.054263019  0.054141943            3 
 2584000   0.83595003   -4.2123316    1685.0767  0.054343289  0.054131308            5 
 2585000    0.8149638   -4.2129268    1679.3249  0.054136845  0.054120627            7 
 2586000   0.82310636   -4.2044818    1682.3901  0.054214684  0.054109905            4 
 2587000   0.82200502   -4.1910834    1681.0939  0.054151974  0.054099323            7 
 2588000   0.82320344   -4.2075695     1676.902  0.053996073   0.05408878            9 
 2589000   0.85618382   -4.2109287    1685.3074  0.054245765  0.054078059            6 
 2590000   0.84057735   -4.1905049    1687.4305  0.054293132  0.054067533            4 
 2591000   0.83897922    -4.203258    1680.0475  0.054034719  0.054057026            6 
 2592000   0.82288322   -4.2314828    1678.9022  0.053977053  0.054046289            2 
 2593000   0.85096959    -4.223561    1686.1366  0.054188733  0.054035755            8 
 2594000   0.82446978   -4.1916883    1685.9464  0.054161733  0.054025162            4 
 2595000   0.83490287   -4.2232358    1690.2103  0.054277787  0.054014736            7 
 2596000   0.80747142    -4.203488    1686.0992   0.05412491  0.054004305            3 
 2597000   0.85972739   -4.2217249    1686.7994  0.054126536   0.05399389            2 
 2598000   0.83036286    -4.238786    1679.9254  0.053885213  0.053983177            5 
 2599000   0.84323102   -4.2452238    1681.0535  0.053900651  0.053972404            2 
 2600000    0.8225323   -4.2362747    1687.5394  0.054087802  0.053961796            4 
 2601000   0.81635201   -4.2328913    1690.4668  0.054160797  0.053951113            5 
 2602000   0.82386807   -4.2192663    1687.4862  0.054044524  0.053940443            4 
 2603000   0.84884923   -4.2074289    1689.6414  0.054092758  0.053929811            2 
 2604000   0.81540268   -4.1897474    1692.9467  0.054177761  0.053919389            3 
 2605000   0.83591009    -4.217087    1686.6415  0.053955262   0.05390891            4 
 2606000   0.83426969   -4.1939924    1695.3732  0.054213776    0.0538985            6 
 2607000   0.85291883   -4.2192728     1685.291  0.053870699  0.053887872            3 
 2608000   0.83090502   -4.2361355    1686.0306  0.053873678  0.053877199            2 
 2609000   0.82183407   -4.2255715    1689.3601  0.053959376  0.053866683            4 
 2610000   0.84615206   -4.2333332    1685.3757  0.053811483  0.053856152            5 
 2611000    0.8548629   -4.2354647    1684.6334  0.053767182  0.053845502            2 
 2612000   0.83490791     -4.24711    1688.9367  0.053883892  0.053834765            6 
 2613000   0.84327696   -4.2058111    1691.5511  0.053946649  0.053824199            5 
 2614000   0.83471614   -4.2391448    1692.8611  0.053967772   0.05381375            4 
 2615000    0.8404611   -4.2099119    1692.5489  0.053937185  0.053803253            3 
 2616000   0.84587802   -4.2307728    1695.2683  0.054003194  0.053792834            7 
 2617000   0.82828294   -4.2098302    1696.7109  0.054028496  0.053782343            7 
 2618000   0.83566352   -4.2221294    1694.4929  0.053937259  0.053771879            6 
 2619000   0.83731425   -4.2364023    1689.2742   0.05375061   0.05376142            4 
 2620000   0.80811101   -4.2464963    1689.9119  0.053750378  0.053750954            4 
 2621000   0.84332092   -4.2195602    1698.3083  0.053996829  0.053740442            3 
 2622000   0.82868182    -4.246929    1693.6818  0.053829195  0.053729948            6 
 2623000   0.83925431   -4.2260558    1693.6304  0.053807041  0.053719498            3 
 2624000   0.85035549   -4.2298308    1697.8757  0.053921358  0.053709095            4 
 2625000   0.82906866   -4.2255659     1695.436  0.053823364  0.053698749            6 
 2626000    0.8253258   -4.1913852    1701.1469  0.053984099  0.053688465            3 
 2627000   0.81239378    -4.215197    1700.4198  0.053940485  0.053678162            5 
 2628000     0.821468   -4.2027294    1701.1711  0.053943781  0.053667927            5 
 2629000   0.83440049   -4.2012189    1698.5309  0.053839573  0.053657666            5 
 2630000    0.8328236   -4.2486923    1699.1864  0.053839873  0.053647451            4 
 2631000   0.84374797   -4.2541376    1698.4117  0.053794871  0.053637136            5 
 2632000   0.82951838    -4.238078    1697.9096  0.053758536  0.053626899            4 
 2633000   0.83056512   -4.2205609    1698.6893  0.053762795  0.053616628            3 
 2634000    0.8377936   -4.2284367    1701.3748  0.053827349  0.053606388            9 
 2635000    0.8453533   -4.2225192    1702.1774  0.053832303  0.053596093            5 
 2636000   0.84271677    -4.208997    1705.4675  0.053915894  0.053585975            3 
 2637000   0.81298865   -4.2433418    1696.0895  0.053599088  0.053575659            7 
 2638000   0.81931556   -4.2125503    1700.9196   0.05373135  0.053565346            6 
 2639000   0.81936277   -4.2483007    1707.3044  0.053912606    0.0535551            9 
 2640000   0.81527401   -4.2028313    1709.9168  0.053974647  0.053544921            4 
 2641000   0.82414266   -4.2163134    1699.9568  0.053639933  0.053534779            5 
 2642000   0.84159142    -4.240629     1700.325  0.053631246   0.05352442            7 
 2643000    0.8254011   -4.2412838     1702.345  0.053674643  0.053514167            3 
 2644000    0.8332883   -4.2385921    1705.3588  0.053749332  0.053503922            6 
 2645000   0.83357764   -4.2212679    1706.4874   0.05376457  0.053493571            3 
 2646000   0.83462145   -4.2525684     1701.058  0.053573255  0.053483368            3 
 2647000   0.83275011   -4.2285588    1702.5006  0.053598432   0.05347306            6 
 2648000   0.83496021   -4.2277098    1701.8878  0.053558907  0.053462643            6 
 2649000   0.84051734   -4.2176646    1705.7042  0.053658744  0.053452351            8 
 2650000   0.83519906   -4.2126047    1704.5438  0.053602006  0.053441978            6 
 2651000   0.83147503   -4.2102792    1709.6287  0.053741628  0.053431779           10 
 2652000   0.80605765   -4.2209053    1703.5569  0.053530572  0.053421505            2 
 2653000   0.83592231    -4.207959    1713.2684  0.053815442  0.053411399            3 
 2654000   0.82637734   -4.2309786     1711.443  0.053737847  0.053401379            9 
 2655000     0.830884   -4.2368755    1707.6969  0.053600027  0.053391256            7 
 2656000    0.8282085   -4.2199387    1705.9446  0.053524868  0.053381118           10 
 2657000   0.82566715   -4.2483674    1712.7059  0.053716782  0.053370885            3 
 2658000   0.82796521   -4.2356567    1710.0088  0.053612013   0.05336069            5 
 2659000   0.82150252   -4.2159488    1712.6507   0.05367465  0.053350543            5 
 2660000   0.79971172   -4.2279958    1714.7752  0.053721029  0.053340399            6 
 2661000   0.81206629   -4.2341121    1707.9674  0.053487643   0.05333024            3 
 2662000   0.80392658   -4.2125099    1712.0754  0.053596151  0.053320025            3 
 2663000   0.83222339    -4.245182    1708.5851  0.053466802  0.053309765            8 
 2664000   0.84582545   -4.2061334    1714.7605  0.053639906  0.053299613            5 
 2665000   0.81232136   -4.2219465     1710.543  0.053487899   0.05328947            3 
 2666000   0.82611128   -4.2218467    1713.4464  0.053558589  0.053279199            6 
 2667000   0.84020761   -4.2461914    1715.5777  0.053605103  0.053269091            7 
 2668000    0.8051175   -4.2207547    1714.8278  0.053561587  0.053258826            4 
 2669000   0.82109482   -4.2490836    1710.0102    0.0533911  0.053248606            6 
 2670000   0.83480525   -4.2416436    1714.0797  0.053498117  0.053238402            2 
 2671000   0.84612398   -4.2395966    1713.6428  0.053464459   0.05322818            4 
 2672000   0.83041902   -4.2490827    1710.7327  0.053353688  0.053217892            7 
 2673000   0.83697155   -4.2640718    1715.7198  0.053489207  0.053207735            4 
 2674000   0.84693964   -4.2349782    1716.7419  0.053501056  0.053197573            4 
 2675000   0.82347809   -4.2335288    1713.4974  0.053379981  0.053187299            4 
 2676000   0.80799585   -4.2382573    1720.0821  0.053565088  0.053177085            8 
 2677000   0.83625721   -4.2416394     1712.292  0.053302579  0.053166938            5 
 2678000   0.82942519   -4.2254627    1714.9733  0.053366109  0.053156666           13 
 2679000   0.83071828   -4.2403097    1713.0391  0.053286023  0.053146414            6 
 2680000   0.81805039   -4.2275584    1713.9179  0.053293468  0.053136118            3 
 2681000   0.83260713   -4.2590411    1716.3945  0.053350569  0.053126047            4 
 2682000   0.81908324   -4.2376153    1716.4132  0.053331258  0.053115665            6 
 2683000    0.8115448    -4.263088     1714.783  0.053260746  0.053105299            6 
 2684000   0.82883607   -4.2481484    1716.7675  0.053302519  0.053094865            2 
 2685000   0.80948714   -4.2280763    1715.5723  0.053245572  0.053084515            4 
 2686000   0.83291139   -4.2666639    1710.5589  0.053070206  0.053074022            4 
 2687000   0.81507121   -4.2561784    1715.4087  0.053200865  0.053063562            7 
 2688000   0.83148843   -4.2213538     1719.665  0.053313028  0.053053092            3 
 2689000   0.82330436   -4.2230144    1716.5917  0.053197959   0.05304279            5 
 2690000   0.81678541   -4.2585755    1716.9257  0.053188527   0.05303245            3 
 2691000   0.82869082   -4.2237022    1717.4759  0.053185801  0.053022148            4 
 2692000     0.827259   -4.2385552    1721.2948  0.053284263  0.053011695            6 
 2693000   0.82495971   -4.2168822    1719.8418  0.053219514  0.053001222            4 
 2694000   0.83511291   -4.2661755    1715.6952  0.053071491  0.052990836            6 
 2695000   0.81738625   -4.2264063    1715.8103   0.05305536  0.052980478            2 
 2696000   0.81051934   -4.2556389    1717.0592  0.053074282  0.052970014            3 
 2697000   0.81380561   -4.2580641    1718.1716  0.053088976  0.052959596            5 
 2698000   0.81022114   -4.2321903    1721.8899  0.053184146  0.052949252            4 
 2699000   0.82309968   -4.2498825    1720.1097  0.053109476  0.052938948            3 
 2700000   0.83059048    -4.213838    1719.5183  0.053071553  0.052928488            3 
 2701000   0.81404547   -4.2610856    1720.8646  0.053093441  0.052918123            8 
 2702000    0.7957284   -4.2174713    1725.5338  0.053217794  0.052907705            6 
 2703000   0.82227936   -4.2438436    1727.4774  0.053258029  0.052897371            1 
 2704000   0.80155004   -4.2579688     1718.117  0.052949857  0.052886992            4 
 2705000    0.8120558   -4.2325538    1720.0426  0.052989607  0.052876467            3 
 2706000   0.83247348   -4.2489757     1720.447  0.052982477  0.052865971            8 
 2707000   0.81545362   -4.2243784    1718.5077  0.052903205  0.052855478            3 
 2708000   0.82308284   -4.2249649    1727.1085  0.053148342  0.052845133            5 
 2709000   0.80558124   -4.2620069    1723.8816  0.053029456   0.05283477            4 
 2710000   0.81443573   -4.2505111    1720.3185  0.052900324  0.052824136            7 
 2711000   0.82044135   -4.2346174    1718.1899   0.05281538  0.052813773            3 
 2712000   0.80881232   -4.2399111    1724.1722  0.052979726  0.052803099            2 
 2713000   0.82271648   -4.2356401    1721.4442  0.052876405  0.052792544            6 
 2714000   0.84140377   -4.2434729    1723.8094  0.052929545  0.052781928            4 
 2715000   0.82063139   -4.2296247    1726.8471  0.053003287  0.052771494            4 
 2716000   0.82029303   -4.2310864    1722.4455  0.052848722  0.052761134            5 
 2717000   0.79693204   -4.2595204    1722.7913  0.052839875  0.052750869            4 
 2718000   0.83168936   -4.2425223    1724.4337  0.052870789  0.052740434            3 
 2719000   0.83517148    -4.271883    1724.3005  0.052847262  0.052730078            3 
 2720000   0.83000095   -4.2278645    1728.6683   0.05296165  0.052719707            4 
 2721000   0.82356125   -4.2583851     1726.475  0.052875016   0.05270942            3 
 2722000   0.81441251   -4.2437822    1720.0868  0.052660016  0.052698998            5 
 2723000    0.8077403   -4.2576762    1728.6962  0.052904156  0.052688562            3 
 2724000    0.8181475   -4.2399794    1720.9743  0.052648504  0.052678332            6 
 2725000   0.79534645   -4.2254219    1729.0021  0.052874682  0.052668062            8 
 2726000   0.80772127   -4.2593677    1727.2295  0.052801098  0.052657809            4 
 2727000   0.82347274   -4.2186561    1730.0511  0.052867959  0.052647439            3 
 2728000   0.80719118   -4.2633957    1724.4011  0.052675987  0.052637124            7 
 2729000   0.79833856   -4.2420636    1734.0256  0.052950579  0.052626552            5 
 2730000   0.81303654   -4.2234512     1725.521  0.052671581  0.052616135            5 
 2731000   0.81932562   -4.2483933    1728.2595  0.052735857  0.052605793            3 
 2732000   0.82931879   -4.2360766    1724.8895  0.052613761  0.052595354            7 
 2733000   0.81202357   -4.2394282    1735.0246  0.052903543  0.052584932            3 
 2734000   0.80154846   -4.2498942    1723.6145   0.05253641  0.052574466            9 
 2735000   0.80968505   -4.2616296    1729.1488  0.052685826  0.052564019            4 
 2736000   0.82253964   -4.2364204    1729.0233  0.052662746  0.052553764            4 
 2737000   0.80957202   -4.2605986    1729.8522  0.052668743  0.052543438            4 
 2738000   0.81011943   -4.2624607    1730.8022   0.05267842  0.052532914            3 
 2739000   0.81562274   -4.2667289    1728.7837  0.052597777  0.052522342            7 
 2740000   0.81335663   -4.2543265    1731.4316  0.052659113   0.05251179            8 
 2741000   0.82389345   -4.2338019    1731.3538  0.052637535  0.052501339            3 
 2742000   0.82399822   -4.2417111     1733.755  0.052691313  0.052490862            7 
 2743000   0.81103134   -4.2579282    1726.7581  0.052459535  0.052480401            7 
 2744000   0.80081671    -4.256581    1737.3587   0.05276235  0.052469862            4 
 2745000   0.82481935   -4.2452501    1739.7021  0.052814271  0.052459347            8 
 2746000   0.82345599   -4.2653722     1731.438  0.052544248  0.052448884            7 
 2747000   0.80538891   -4.2700141    1731.5492  0.052528493  0.052438354            4 
 2748000   0.80647061    -4.250015    1734.9095  0.052611278  0.052427881            5 
 2749000   0.80330111    -4.263503    1732.9243  0.052531959   0.05241741            8 
 2750000   0.79640446   -4.2726145    1735.0835  0.052578286  0.052406987            3 
 2751000   0.81762633   -4.2623924    1731.7106  0.052457004  0.052396464            4 
 2752000    0.8185361   -4.2775126    1734.4037  0.052519492  0.052386023            5 
 2753000   0.80322643   -4.2457241    1737.9365  0.052607352  0.052375616            7 
 2754000   0.82196593   -4.2555386    1736.7658  0.052552825  0.052365215            4 
 2755000   0.81187894   -4.2666877    1733.7993  0.052444021  0.052354661            3 
 2756000    0.8244164   -4.2351673    1737.7304  0.052543856  0.052344138            6 
 2757000   0.80895179   -4.2616144    1732.6195  0.052370315  0.052333726            5 
 2758000   0.80781267   -4.2757683    1741.5034  0.052619755  0.052323121            9 
 2759000   0.80218919   -4.2708218    1736.0559  0.052436145  0.052312706            8 
 2760000   0.80685094    -4.248119    1736.5496  0.052432053  0.052302228            5 
 2761000     0.814175   -4.2443439    1734.2102  0.052342455  0.052291675            4 
 2762000   0.82211934   -4.2688449    1737.8714  0.052433966  0.052281225            2 
 2763000   0.80466245   -4.2585424    1737.8272  0.052413657  0.052270876            2 
 2764000   0.82234367   -4.2313869    1743.5586  0.052567493  0.052260528            6 
 2765000   0.80188194   -4.2645415    1736.5703  0.052337864  0.052250056            5 
 2766000   0.79473326   -4.2557349    1742.0345  0.052483566  0.052239657            5 
 2767000   0.79761724   -4.2596441    1738.3786  0.052354494  0.052229334            4 
 2768000   0.81243946   -4.2661037    1745.1468  0.052539344  0.052218875            4 
 2769000   0.80175401   -4.2670446    1736.5331  0.052261138  0.052208395            3 
 2770000   0.80953845    -4.274937    1739.0616  0.052318339  0.052197997            4 
 2771000   0.80779261   -4.2358295     1738.579  0.052284946  0.052187499            7 
 2772000   0.80058266   -4.2436214    1748.6075  0.052567567   0.05217719            7 
 2773000   0.79685091   -4.2694189    1742.1677   0.05235508  0.052166929            8 
 2774000    0.8173507   -4.2872413    1742.9779  0.052360548  0.052156609           10 
 2775000   0.81389347   -4.2487739    1736.4267  0.052144947  0.052146133            5 
 2776000   0.81834171   -4.2450986    1740.3688  0.052244501  0.052135689            5 
 2777000   0.81866834   -4.2585807    1743.3634  0.052315551  0.052125176            4 
 2778000   0.80465274   -4.2726037    1740.8957  0.052222692  0.052114802            4 
 2779000   0.80853794   -4.2872425    1736.9596  0.052085871  0.052104416            8 
 2780000   0.82000697   -4.2509274    1750.5586   0.05247478  0.052094118            6 
 2781000   0.80083496   -4.2552408    1743.5624  0.052246265  0.052083765            8 
 2782000   0.80514993   -4.2754997    1742.4113  0.052193006  0.052073496            5 
 2783000   0.80840631   -4.2540265    1743.8617  0.052217682  0.052063172            6 
 2784000   0.81296058   -4.2728325    1744.5891    0.0522207  0.052052899            5 
 2785000   0.79735635   -4.2518541    1747.3697  0.052285149  0.052042522            2 
 2786000   0.80690812   -4.2515679     1745.489  0.052210129  0.052032197            3 
 2787000    0.7981946   -4.2626368    1746.1213  0.052210301  0.052021832            5 
 2788000   0.81473518    -4.303367    1743.8671  0.052124196  0.052011355            4 
 2789000   0.79330583   -4.3085609    1745.5866  0.052156883  0.052000946            4 
 2790000   0.79997612   -4.2600943     1747.975  0.052209529   0.05199045            8 
 2791000   0.82818884   -4.2448151    1748.5385  0.052207646  0.051980204            7 
 2792000   0.82121292    -4.264551    1752.1691  0.052297312  0.051969948            2 
 2793000   0.79670163   -4.2640227    1748.7007    0.0521751   0.05195971            7 
 2794000   0.77709126   -4.2782335    1741.4314  0.051939616   0.05194952            4 
 2795000   0.79959815   -4.2794121    1749.1729  0.052151847  0.051939147            3 
 2796000   0.81078524   -4.2562006    1747.1227  0.052072089   0.05192891            5 
 2797000   0.81072339   -4.2771509    1752.1953  0.052204604  0.051918522            8 
 2798000   0.79706672   -4.2363467     1754.022  0.052240351   0.05190824            4 
 2799000   0.80001901   -4.2597628    1747.8639  0.052038344  0.051897934            3 
 2800000   0.79470965    -4.271238    1746.1239  0.051967974  0.051887579            7 
 2801000   0.78244231   -4.2794238    1749.4076  0.052047115  0.051877342            5 
 2802000   0.80195978   -4.2850142    1747.4896  0.051971496  0.051867129            2 
 2803000   0.78982609   -4.2759851     1752.302  0.052096027   0.05185693            3 
 2804000   0.81359309    -4.277687    1750.7672  0.052031837   0.05184662            6 
 2805000   0.78590127   -4.2863839      1751.91  0.052047236  0.051836436            3 
 2806000   0.78985978   -4.2559721    1751.3804  0.052012962  0.051826165            2 
 2807000   0.80453605   -4.2699357    1759.8966  0.052247256  0.051816021            5 
 2808000   0.79282724   -4.2834571    1754.7407  0.052075639  0.051805915            4 
 2809000   0.79703424   -4.2770582    1750.9102  0.051943463   0.05179555            4 
 2810000   0.79188353   -4.2957548     1757.001  0.052105605  0.051785203            7 
 2811000   0.80317825   -4.3025305    1753.3852  0.051979877  0.051774935            5 
 2812000   0.80017786   -4.2847447    1755.8973  0.052035837  0.051764768            8 
 2813000   0.79266516   -4.2952757    1746.7193  0.051745447  0.051754438            3 
 2814000   0.80379687   -4.2470399    1757.8459   0.05205656  0.051744181            3 
 2815000   0.79993753   -4.2742099    1753.0957  0.051897444  0.051733914            5 
 2816000   0.80125936    -4.256877    1755.9152  0.051962453  0.051723637            6 
 2817000   0.78760344   -4.2803296    1760.5361  0.052080703  0.051713384            6 
 2818000   0.79028018   -4.2656917    1758.9134  0.052014237  0.051703234            4 
 2819000   0.78836451   -4.2720889    1756.2664  0.051917536   0.05169319            3 
 2820000    0.7968441   -4.2708197    1757.0173  0.051921314  0.051683082            5 
 2821000   0.80245893   -4.2820567    1761.5767  0.052037595  0.051672918            6 
 2822000   0.80550618   -4.2732893    1758.8742  0.051939353  0.051662778            5 
 2823000   0.79628846   -4.2757082    1756.0056  0.051836273  0.051652593            3 
 2824000   0.81325929   -4.2803655    1758.9488  0.051904767  0.051642432           10 
 2825000   0.79621173   -4.2840225    1755.2979    0.0517787  0.051632255           11 
 2826000   0.79256602    -4.268705    1760.8728  0.051924769  0.051621965            3 
 2827000   0.79427095   -4.2750368    1755.6305  0.051751871  0.051611581            3 
 2828000   0.80081147   -4.2962136    1760.5617  0.051878881  0.051601212            5 
 2829000   0.79413971    -4.279476    1758.6269  0.051803548    0.0515909            4 
 2830000   0.80040919   -4.2874708    1760.7051  0.051846439  0.051580569            5 
 2831000   0.78608685    -4.272446    1760.3344  0.051817215  0.051570383            4 
 2832000   0.80839535   -4.2888426    1760.4131  0.051801233  0.051560205            5 
 2833000   0.78946241   -4.2696693     1767.398   0.05198841  0.051550095            2 
 2834000   0.81037409   -4.3043914    1761.8946  0.051808239  0.051539853            7 
 2835000   0.80533996   -4.2840162    1760.4586  0.051747755  0.051529659            6 
 2836000   0.79718828   -4.2974325    1760.0577  0.051717728  0.051519419            4 
 2837000   0.78656414   -4.2696404    1762.2308  0.051763329  0.051509085            5 
 2838000   0.79431787   -4.2976908    1766.0874  0.051858333  0.051498878            3 
 2839000   0.80315287   -4.2945483     1763.268  0.051757309  0.051488584            5 
 2840000   0.81549715   -4.2361508    1767.5996  0.051866186   0.05147844            2 
 2841000    0.7890062   -4.2721965     1758.172  0.051571395  0.051468254            3 
 2842000   0.80477371   -4.3018573    1761.8505  0.051661109  0.051457964            3 
 2843000    0.7943795   -4.2659692     1770.371  0.051892689  0.051447816            7 
 2844000   0.80390686    -4.285177    1764.5049  0.051702557  0.051437733            3 
 2845000   0.81142254   -4.2686744    1763.0594  0.051642043  0.051427583            2 
 2846000   0.79680618   -4.2927216    1759.9497  0.051532846  0.051417398            5 
 2847000   0.77978916   -4.3097803    1763.6383   0.05162271  0.051407167            5 
 2848000   0.79862163   -4.3091126    1765.0408  0.051645621  0.051396984            5 
 2849000   0.77783091   -4.2692429    1764.3004  0.051605838  0.051386821            5 
 2850000   0.79877636   -4.3021349    1766.5197  0.051652623  0.051376639            4 
 2851000   0.80121229   -4.3072766    1766.5302  0.051634812  0.051366478            4 
 2852000   0.80470963   -4.2720927     1766.707  0.051621873  0.051356357            4 
 2853000   0.78869313   -4.2891784    1770.4821  0.051714046  0.051346279            7 
 2854000   0.80647582   -4.2950846    1768.1135  0.051626766  0.051336259           11 
 2855000   0.78591395   -4.2932685    1770.9431  0.051691276  0.051326344            7 
 2856000   0.80478505   -4.2901241    1766.6287   0.05154729   0.05131634            2 
 2857000   0.81957453   -4.3096267    1772.3201  0.051695255  0.051306385            5 
 2858000   0.77991482   -4.2925545    1769.8786  0.051605979  0.051296286            4 
 2859000    0.7825659    -4.283554    1775.7158  0.051758068  0.051286322            5 
 2860000   0.78827894   -4.2987883    1775.9983  0.051748202  0.051276422            5 
 2861000   0.78539913   -4.2798547    1775.4791  0.051714992  0.051266496            4 
 2862000   0.79702918    -4.291455    1774.6628  0.051673155  0.051256571            5 
 2863000   0.79964625   -4.2812102     1768.477  0.051475057   0.05124647            4 
 2864000   0.78086882   -4.2962161    1774.7391  0.051639288  0.051236581            4 
 2865000   0.79308171   -4.2842714    1773.7135  0.051591433  0.051226637            7 
 2866000   0.78235525   -4.2946584    1767.7182   0.05139911  0.051216649            5 
 2867000   0.79253964   -4.3123055    1774.9304  0.051590815  0.051206618            4 
 2868000    0.7897557   -4.2712393    1779.3779  0.051702056  0.051196708            4 
 2869000   0.79009462   -4.2898547    1778.1879  0.051649467  0.051186895            5 
 2870000   0.79768089   -4.2957276     1774.414  0.051521893  0.051176962           14 
 2871000   0.78096049   -4.2808268    1777.3143  0.051588132   0.05116698            6 
 2872000    0.7937383    -4.295237    1783.5717  0.051751732  0.051157105            3 
 2873000   0.80060034   -4.3002723     1775.709  0.051505655  0.051147235            3 
 2874000    0.8234798   -4.2690375    1779.6131  0.051600938  0.051137496            2 
 2875000   0.79300216   -4.2825065    1776.7209  0.051499155  0.051127627           11 
 2876000   0.79952069   -4.2832618    1777.5771   0.05150606  0.051117828           10 
 2877000   0.80403532   -4.2979628    1782.6079  0.051633876  0.051108069            3 
 2878000   0.77279378    -4.295593    1783.4867   0.05164138  0.051098298           10 
 2879000   0.79560977   -4.2857117     1780.493  0.051536789  0.051088453            4 
 2880000   0.78590949   -4.3007858    1781.7945  0.051556554  0.051078645            2 
 2881000   0.77675755   -4.2882063    1779.9585  0.051485553  0.051068917            2 
 2882000   0.78944658    -4.292333    1783.3402  0.051565468  0.051059088            5 
 2883000   0.80098256   -4.3270533    1780.2742  0.051458959  0.051049381            6 
 2884000   0.77751029   -4.2847783    1784.2989  0.051557411  0.051039665            9 
 2885000   0.80745593   -4.3036492     1786.459  0.051601937  0.051029788           11 
 2886000   0.78376914   -4.2944677    1787.1163  0.051603034   0.05102001            4 
 2887000    0.7809825   -4.2866851    1782.2324  0.051444186  0.051010286            6 
 2888000   0.79006616   -4.2894276    1786.9452  0.051562362  0.051000532            6 
 2889000   0.78182457   -4.2913874    1783.6984  0.051450859  0.050990771            8 
 2890000   0.79045279   -4.3234938    1782.4001   0.05139562  0.050980989            4 
 2891000   0.80357042   -4.2920964    1786.5577  0.051497686  0.050971198            2 
 2892000   0.79645641   -4.2978304    1784.5897   0.05142317  0.050961384           12 
 2893000   0.77305849   -4.2887924    1780.4402  0.051285867  0.050951546            6 
 2894000   0.78889326   -4.3189121    1778.4382  0.051210499  0.050941895            7 
 2895000   0.77769848   -4.2755892    1792.7145  0.051603756  0.050932088            5 
 2896000   0.79745349   -4.2786597    1785.4567  0.051377091  0.050922367           10 
 2897000   0.80659451   -4.2875944    1779.1883  0.051179043  0.050912606            4 
 2898000   0.79094762   -4.3036079    1782.2274  0.051248774  0.050902934            7 
 2899000   0.79860311    -4.313655    1786.6947  0.051359512  0.050893202            5 
 2900000   0.78916298    -4.287559    1787.9813  0.051378772  0.050883495            3 
 2901000   0.77627964   -4.2923951    1793.1811   0.05151043  0.050873675            6 
 2902000   0.78526968   -4.2948816     1787.617  0.051332902  0.050863933            6 
 2903000   0.78155041   -4.2954703    1789.2763  0.051362852  0.050854203            5 
 2904000   0.78558584   -4.2756107    1791.2769  0.051402573  0.050844497            2 
 2905000   0.79780022   -4.3067916    1786.0063  0.051233685  0.050834634            3 
 2906000   0.78574964   -4.3047053    1784.7155   0.05117904   0.05082474            5 
 2907000   0.77121526   -4.2738979    1788.9746  0.051283528  0.050814901            7 
 2908000   0.78184335   -4.3229764    1786.8655  0.051205454  0.050805005            6 
 2909000   0.78757599   -4.3409441    1786.8739  0.051188091  0.050795185            6 
 2910000   0.78903463   -4.2974014    1791.0967  0.051291428  0.050785432            7 
 2911000   0.76925824   -4.3191792    1784.1944  0.051076217  0.050775631            5 
 2912000   0.77384907   -4.2856998     1790.733  0.051245793  0.050765825            8 
 2913000   0.80312992    -4.303558    1787.8208  0.051144891  0.050756151            7 
 2914000   0.78813117   -4.3027436    1789.2603  0.051168505  0.050746278            5 
 2915000   0.80250501   -4.2750842    1795.3811  0.051325931  0.050736556            5 
 2916000   0.77334745   -4.3213677     1784.644  0.051001485  0.050726753            6 
 2917000   0.77866322   -4.2859922    1794.5684  0.051267524  0.050716933            6 
 2918000   0.79292386   -4.3121589    1791.2321  0.051154676  0.050707113            6 
 2919000   0.80097921   -4.2991909    1789.3753  0.051084141   0.05069726            6 
 2920000   0.78990763   -4.2939534    1790.9512  0.051111622  0.050687422            7 
 2921000   0.79788422   -4.2806908     1792.699  0.051143985  0.050677629            6 
 2922000   0.77716952   -4.3035563     1789.788  0.051043462  0.050667908            7 
 2923000    0.7971149   -4.3088057    1792.3308  0.051098494  0.050658064            3 
 2924000   0.78391468   -4.3157802     1795.758  0.051178694  0.050648088            3 
 2925000   0.76743919   -4.3027826    1792.7343  0.051075051  0.050638124            6 
 2926000   0.75145499   -4.3245924    1792.2688  0.051044338  0.050628224            5 
 2927000   0.78736905   -4.3080119    1796.7831  0.051155424  0.050618262            8 
 2928000   0.79867761   -4.3233426    1794.0519  0.051060221  0.050608493            8 
 2929000   0.80055114   -4.2979509    1792.1374  0.050988317  0.050598557           17 
 2930000   0.78746133    -4.299004    1792.3677  0.050977465  0.050588696            7 
 2931000   0.80491499   -4.3279749     1792.289  0.050957837  0.050578834            4 
 2932000   0.78071083   -4.3023167    1795.5561  0.051033312  0.050568826            3 
 2933000   0.78138198   -4.3185004     1795.171  0.051004972   0.05055895            4 
 2934000   0.79231394   -4.3194035    1788.3679  0.050794362  0.050548911            2 
 2935000   0.78127682   -4.3253876    1786.9473  0.050736722  0.050538747            3 
 2936000   0.79484153   -4.3010182    1790.7677  0.050827876  0.050528655            6 
 2937000   0.77392248   -4.3152201    1791.8443  0.050841116  0.050518594            9 
 2938000   0.78887808   -4.3086421    1793.4503  0.050869364  0.050508609            3 
 2939000   0.78970991   -4.3085638    1796.9042  0.050949987  0.050498572            4 
 2940000   0.77540475   -4.2976819    1794.5886  0.050867025   0.05048847            4 
 2941000   0.78343054   -4.3157229    1799.2358  0.050981407  0.050478448            6 
 2942000   0.79771132   -4.3173937    1793.3731  0.050798014  0.050468322            8 
 2943000   0.77343613   -4.2866304    1789.8746  0.050681691  0.050458243            5 
 2944000   0.79623212   -4.3106999    1789.3999  0.050651038  0.050448101            4 
 2945000   0.76942699   -4.3216492    1788.5054  0.050608528  0.050437993            8 
 2946000   0.77740296   -4.3243676    1789.5383  0.050620569  0.050427784            7 
 2947000   0.79259095   -4.3155923    1790.1824  0.050621605  0.050417541            9 
 2948000   0.77807147   -4.2873921    1789.7393  0.050591906  0.050407344            3 
 2949000   0.77955302   -4.2944494     1790.687  0.050601531  0.050397099            6 
 2950000   0.76191682   -4.3136548    1790.4229  0.050576917  0.050386822            7 
 2951000   0.78497793   -4.3023874    1795.0722   0.05069107  0.050376704            5 
 2952000   0.79655037   -4.3318108    1788.8357  0.050497846  0.050366431           10 
 2953000     0.776542   -4.3147758    1792.6624  0.050588734    0.0503562            4 
 2954000   0.77054178    -4.343284    1788.4428  0.050452573  0.050346024            8 
 2955000    0.7771508   -4.2899651    1801.2221  0.050795886  0.050335841            3 
 2956000   0.77236556   -4.3205525    1793.8696  0.050571424   0.05032576            2 
 2957000   0.78560531   -4.3077215    1794.9957  0.050586057  0.050315592            7 
 2958000   0.77324047   -4.2810712    1790.1412  0.050432194  0.050305383            4 
 2959000   0.76643679   -4.3074552     1796.166  0.050584827  0.050295387            3 
 2960000   0.76111336   -4.3137236    1798.8168  0.050642365  0.050285284            3 
 2961000   0.77480109   -4.2953854    1802.1487  0.050719033  0.050275231            4 
 2962000   0.77848759   -4.3208395    1792.5195     0.050431  0.050265019            4 
 2963000   0.77744961   -4.3358414    1794.6927  0.050475102  0.050254822            7 
 2964000   0.77617175   -4.3434259     1793.901  0.050435813  0.050244621            3 
 2965000   0.78790096   -4.3235168    1797.3548  0.050515875  0.050234357            5 
 2966000   0.74763191   -4.3255703    1795.0191  0.050433219  0.050224238            4 
 2967000   0.77573708   -4.3059655    1801.0469  0.050585522  0.050213995            4 
 2968000   0.79504435   -4.3171423    1798.7771  0.050504747  0.050203831           11 
 2969000   0.77457482   -4.3387895    1791.6225  0.050286923  0.050193664            4 
 2970000   0.77890788    -4.342024    1796.3062   0.05040141  0.050183492            5 
 2971000   0.78450164   -4.3152029    1798.6515  0.050450227   0.05017336            5 
 2972000   0.75270535   -4.3311131    1796.9265  0.050384884  0.050163116            4 
 2973000   0.79426195    -4.294983    1803.1816  0.050543267  0.050153014            8 
 2974000   0.79497842   -4.2929173    1797.9049  0.050378416  0.050142899            9 
 2975000   0.77217544   -4.2937797     1800.527  0.050434931   0.05013284            5 
 2976000   0.78028098   -4.3376665    1801.4908  0.050444972  0.050122844            3 
 2977000   0.78277533   -4.3411897    1794.8134   0.05024111  0.050112771            5 
 2978000   0.76425142   -4.3235131    1803.8371   0.05047675  0.050102635            3 
 2979000   0.78466159   -4.3393855     1802.518  0.050422905  0.050092568            8 
 2980000   0.77606265   -4.3255477    1801.2015   0.05036917  0.050082517            7 
 2981000   0.77849067   -4.3293158    1796.4253  0.050218755  0.050072501            4 
 2982000   0.77383767   -4.3264226    1800.4335  0.050313924  0.050062354            7 
 2983000   0.78425993   -4.3540245    1798.4657  0.050242085  0.050052146            4 
 2984000   0.78673559   -4.3156389    1799.7668  0.050261583  0.050041915            6 
 2985000   0.76367042   -4.3126488    1803.1273  0.050338562  0.050031736            3 
 2986000   0.75371322   -4.3245514    1802.5212  0.050304789  0.050021682            5 
 2987000   0.79258155   -4.3172292    1804.1947  0.050334638  0.050011553            5 
 2988000   0.75811265   -4.3314886    1809.1623  0.050456332  0.050001356            6 
 2989000   0.76020244   -4.3307163    1797.5216  0.050114909  0.049991134            3 
 2990000   0.78065977   -4.3375345     1800.537  0.050182192  0.049980835            3 
 2991000   0.77757046   -4.3267734    1802.1963  0.050211643  0.049970601           10 
 2992000   0.77731302   -4.3121547    1805.8452   0.05029649  0.049960289            5 
 2993000   0.75939004   -4.3103099    1807.0091  0.050312093  0.049950084            3 
 2994000   0.77313261   -4.3387406    1799.0987  0.050075115  0.049939717            7 
 2995000   0.77709195   -4.3287061    1800.8837   0.05010806  0.049929438           12 
 2996000   0.76736132   -4.3390668    1800.1864  0.050071941  0.049919073           14 
 2997000   0.78219093   -4.3286811    1808.1197  0.050275823  0.049908829            3 
 2998000     0.772341   -4.3553608    1803.4958  0.050130527   0.04989858            7 
 2999000   0.78425561   -4.3349255    1802.0523    0.0500737  0.049888291           10 
 3000000   0.77203344   -4.3335801    1803.1779  0.050088274  0.049877921            3 
 3001000   0.77145809    -4.330946    1801.9992  0.050038853  0.049867542            5 
 3002000   0.77352192   -4.3408879    1802.1645  0.050026774  0.049857371            7 
 3003000   0.77239613   -4.3314145    1804.2717  0.050068589  0.049847081            7 
 3004000   0.76936022   -4.3016554    1804.8158  0.050067018  0.049836901            5 
 3005000   0.76643445   -4.3268305     1801.015  0.049944952  0.049826641            7 
 3006000   0.78927391   -4.3109245    1805.6713  0.050057421  0.049816335            4 
 3007000   0.76804157   -4.3141664    1805.9414  0.050048259  0.049806187            4 
 3008000   0.77074265   -4.3094406    1807.2535   0.05006797  0.049795947            4 
 3009000   0.77721096   -4.3417319    1805.6241  0.050006207  0.049785731            6 
 3010000   0.78079604   -4.3271446    1806.5594  0.050015487  0.049775491            3 
 3011000   0.78144014   -4.3314221    1810.2143  0.050100032  0.049765361            7 
 3012000   0.78819754   -4.3533617    1809.6692  0.050068316  0.049755132            4 
 3013000   0.77496764   -4.3292938    1809.0297  0.050034011  0.049744911            8 
 3014000   0.75651066   -4.3400264    1808.8272  0.050011812    0.0497348            4 
 3015000    0.7785664   -4.3314009    1808.7292  0.049992515   0.04972451            6 
 3016000   0.77089374   -4.3240056    1812.7486  0.050086998  0.049714304            6 
 3017000   0.77284781   -4.3184341    1803.3194  0.049809949   0.04970404            8 
 3018000   0.78039904   -4.3316419    1805.5743  0.049855707  0.049693791           12 
 3019000    0.7934659   -4.3342936    1803.7694  0.049789373  0.049683584           12 
 3020000    0.7921758   -4.3553333    1806.1736  0.049839227  0.049673283            4 
 3021000    0.7484601   -4.3238475    1809.0623  0.049902415  0.049662984           12 
 3022000   0.77520785   -4.3341591    1809.2438  0.049890904  0.049652787           13 
 3023000    0.7687701   -4.3466479     1802.601  0.049691284   0.04964254            4 
 3024000   0.77225247   -4.3191439    1809.3645  0.049861236  0.049632362            3 
 3025000   0.77839477   -4.3119599    1805.3911  0.049735291  0.049622129            9 
 3026000   0.74651121   -4.3244447    1807.9145  0.049788349  0.049611874            6 
 3027000   0.75610335   -4.3325469    1810.1697  0.049833985  0.049601704            4 
 3028000   0.77805688   -4.3217063    1815.0196  0.049951003    0.0495915            5 
 3029000   0.76016099   -4.3261286    1811.5848  0.049840012  0.049581336           12 
 3030000   0.75585493   -4.3639577    1805.2484  0.049649296  0.049570987            6 
 3031000   0.76703041   -4.3514964     1806.858  0.049677168  0.049560613            6 
 3032000   0.77449695   -4.3483357     1808.134  0.049695855  0.049550327            6 
 3033000   0.76042396   -4.3282239    1810.9398  0.049756561  0.049540058            3 
 3034000   0.77701285   -4.3382689    1808.5799  0.049675344   0.04952984            5 
 3035000   0.78891278   -4.3329485    1807.7552   0.04963633  0.049519622            3 
 3036000   0.74963555   -4.3247628    1818.0095  0.049901446   0.04950934            4 
 3037000   0.77354727    -4.347258    1812.2542  0.049727093  0.049499127            4 
 3038000    0.7778497   -4.3429423    1811.5177  0.049690523  0.049488878            8 
 3039000   0.76995806    -4.338981     1820.156  0.049911046  0.049478635            5 
 3040000   0.76055012   -4.3258363    1809.1982   0.04959425  0.049468468            3 
 3041000   0.75865979   -4.3418217    1815.6636  0.049755114  0.049458285            5 
 3042000   0.75359354   -4.3250682    1810.9247   0.04960894  0.049448111            4 
 3043000   0.76307905   -4.3276885    1814.4924   0.04969034  0.049437997            6 
 3044000   0.75149824   -4.3550537    1810.4165  0.049562432   0.04942772            4 
 3045000   0.76611707   -4.3198877    1817.5822  0.049742262  0.049417498            2 
 3046000   0.76073141   -4.3625684    1814.0297   0.04962874  0.049407323            5 
 3047000   0.77035448   -4.3640356    1815.9825  0.049665859  0.049396956            9 
 3048000   0.76151209   -4.3418068    1819.5072  0.049745931   0.04938677            3 
 3049000   0.77254494   -4.3549084    1819.5879  0.049731823  0.049376563            5 
 3050000   0.76303733    -4.356334     1815.226   0.04959634  0.049366347            5 
 3051000   0.74873157    -4.339988    1820.1503  0.049714582   0.04935618            3 
 3052000   0.74836263   -4.3418213    1823.1359  0.049779813  0.049345984            8 
 3053000   0.75717993   -4.3591941    1814.5571  0.049529347  0.049335805            6 
 3054000   0.76018442   -4.3245814    1821.0264  0.049689654  0.049325611            7 
 3055000    0.7658327   -4.3321273    1813.3416  0.049463764  0.049315528            8 
 3056000   0.75355607   -4.3553021     1815.302  0.049501037  0.049305312            7 
 3057000   0.75964833    -4.332085    1818.2222  0.049564447  0.049295235            4 
 3058000   0.74845216   -4.3594126    1819.1685  0.049574028  0.049285077           11 
 3059000   0.76011802   -4.3164821    1820.5876  0.049596481  0.049274891            7 
 3060000    0.7483061      -4.3018    1820.6991   0.04958331  0.049264781            7 
 3061000   0.75609676   -4.3538403    1815.9849  0.049438771  0.049254629            7 
 3062000    0.7766413   -4.3497799    1817.8452  0.049473253  0.049244462            4 
 3063000    0.7711602   -4.3346704    1816.6896  0.049425662  0.049234373            4 
 3064000   0.75820079   -4.3518093    1817.3418  0.049427267  0.049224118            6 
 3065000   0.75559504   -4.3332357    1817.9504   0.04942769  0.049213913            6 
 3066000   0.73968476   -4.3383809    1818.5656  0.049428287  0.049203706            9 
 3067000   0.75934598   -4.3369599    1821.1446  0.049482247   0.04919359            4 
 3068000    0.7541929   -4.3468367     1816.783  0.049347649  0.049183388            4 
 3069000   0.77230789   -4.3512724    1821.1046  0.049448914  0.049173188            5 
 3070000   0.75207018   -4.3268081    1824.3101  0.049519819  0.049163036            4 
 3071000   0.75934344   -4.3456395    1819.6913  0.049378358   0.04915283            6 
 3072000    0.7665426   -4.3544084    1817.4496  0.049301474   0.04914265            6 
 3073000   0.75417765   -4.3360366    1819.5883  0.049343429  0.049132457            4 
 3074000   0.74636688   -4.3656232    1816.9587  0.049256091  0.049122153            3 
 3075000   0.76130858   -4.3500518    1822.2419  0.049383249  0.049111898           10 
 3076000   0.74480949   -4.3591384    1812.7795  0.049110844  0.049101589            4 
 3077000   0.74668386   -4.3334404    1823.5571   0.04938677   0.04909134           14 
 3078000    0.7531472   -4.3516423     1818.805  0.049242066  0.049081176            5 
 3079000   0.74950433   -4.3551763    1818.5552  0.049219312   0.04907097            4 
 3080000   0.75472163    -4.363992    1823.2785  0.049331128  0.049060771            6 
 3081000   0.76915876   -4.3437205     1820.943  0.049251946   0.04905053           10 
 3082000   0.74469243   -4.3308842    1819.9958  0.049210357  0.049040333            6 
 3083000   0.76492159   -4.3912215    1816.0201  0.049086932  0.049030072            5 
 3084000   0.74575778   -4.3418813    1825.0954  0.049316241  0.049019662            6 
 3085000   0.77235455   -4.3669718    1822.1757  0.049221385  0.049009377            3 
 3086000   0.75863314   -4.3462916    1823.5028  0.049241271  0.048999148            9 
 3087000    0.7529307   -4.3458248    1820.5714  0.049146187  0.048988942            6 
 3088000   0.75576412   -4.3685086    1819.8892  0.049111864  0.048978687            5 
 3089000   0.74131445   -4.3706086    1824.3426  0.049216104  0.048968499            5 
 3090000   0.75595785   -4.3464898    1825.0114  0.049218216  0.048958313            4 
 3091000    0.7586778   -4.3689369    1822.3915   0.04913166  0.048948189            4 
 3092000   0.75534059   -4.3729585    1821.9281  0.049103281  0.048937889            9 
 3093000   0.76974224   -4.3456545    1826.8232  0.049219291  0.048927647            4 
 3094000   0.75885138   -4.3714922     1827.909  0.049232628  0.048917478            4 
 3095000   0.75423576   -4.3540965     1825.755  0.049158724  0.048907303            5 
 3096000    0.7518126   -4.3726517    1827.0254  0.049177039   0.04889709            4 
 3097000   0.75616801   -4.3350807    1830.0975  0.049243825  0.048886889            5 
 3098000   0.75763086    -4.354859    1826.5483   0.04913246  0.048876695            6 
 3099000   0.76896846   -4.3476101    1827.9306  0.049153774  0.048866543            6 
 3100000   0.75526462   -4.3691257    1824.3513  0.049041701  0.048856357            5 
 3101000   0.75222951   -4.3767108     1824.327  0.049025234  0.048846102            3 
 3102000   0.74423188   -4.3517189    1827.7543  0.049101502   0.04883589            4 
 3103000   0.75175068   -4.3763985    1830.4388  0.049157771  0.048825752            9 
 3104000   0.74286345   -4.3452066    1823.1203  0.048945456  0.048815571            7 
 3105000   0.75826676   -4.3284101    1831.7534  0.049161391  0.048805467            5 
 3106000   0.76927665    -4.353847    1830.5543   0.04911339  0.048795443            3 
 3107000   0.75162899   -4.3708638    1829.4214  0.049067198  0.048785295            4 
 3108000   0.77220522   -4.3516342    1826.6891   0.04897815  0.048775148            3 
 3109000   0.76696736    -4.336921    1833.4813  0.049144455  0.048764979            6 
 3110000   0.74053469   -4.3700065    1825.3739  0.048911412  0.048754774            8 
 3111000    0.7608947   -4.3696418    1829.5682   0.04900804  0.048744612            4 
 3112000   0.74310937   -4.3659769    1833.8593  0.049107199  0.048734445            3 
 3113000   0.75556611   -4.3668906    1829.8878   0.04898511  0.048724341            3 
 3114000   0.75510287   -4.3531393    1828.1501  0.048922877  0.048714188            3 
 3115000   0.75028488   -4.3797142     1827.245  0.048882959  0.048704042            4 
 3116000   0.75008015   -4.3797564    1829.5667  0.048929362   0.04869388            7 
 3117000   0.74465608   -4.3557161    1830.5337  0.048939517  0.048683704            2 
 3118000   0.75942861   -4.3509903    1831.1595  0.048940546  0.048673454            5 
 3119000   0.75193569   -4.3367905    1827.4961  0.048826977  0.048663258            6 
 3120000    0.7686743   -4.3748654    1830.9873  0.048904576  0.048653091            5 
 3121000   0.76154262   -4.3743487    1826.3048  0.048763878  0.048642896            4 
 3122000   0.75136416   -4.3644666     1828.019  0.048794017  0.048632609            6 
 3123000   0.73836348   -4.3602039    1833.5968  0.048927227   0.04862243            5 
 3124000   0.74112492   -4.3656221    1835.5093  0.048962583  0.048612281            4 
 3125000   0.74333221   -4.3786912    1828.8007  0.048768019   0.04860211            6 
 3126000   0.75473362    -4.351165    1830.7144  0.048803434  0.048591904            5 
 3127000   0.75524059   -4.3465876    1833.9232  0.048873339  0.048581841            6 
 3128000   0.74629184   -4.3639087    1838.9871  0.048992623  0.048571818            6 
 3129000    0.7531558   -4.3563333    1842.1628  0.049061543  0.048561751            4 
 3130000   0.74597998    -4.374485    1833.5798  0.048817353  0.048551601            5 
 3131000   0.74958902   -4.3754161     1831.286   0.04874071  0.048541508            5 
 3132000   0.74972916   -4.3920919    1833.1763  0.048775444  0.048531383            4 
 3133000   0.74254883   -4.3461018    1836.2764  0.048842334  0.048521339            7 
 3134000   0.75995454   -4.3826328    1837.3077  0.048854173  0.048511131            2 
 3135000   0.76140911   -4.3815121    1831.3495  0.048680211  0.048500913           12 
 3136000   0.74594737   -4.3715338    1834.6371   0.04875205  0.048490738            5 
 3137000   0.74345875   -4.3681436    1835.9621  0.048771705  0.048480645            2 
 3138000   0.73965136   -4.3527325    1836.9628  0.048782739  0.048470503            7 
 3139000   0.74979975   -4.3924398    1832.5692  0.048650557  0.048460356            5 
 3140000     0.749236   -4.3580129    1837.2694  0.048759803  0.048450192            7 
 3141000   0.75093266   -4.3331564    1841.2578  0.048850096  0.048440091            2 
 3142000   0.74916995   -4.3641823    1831.9485  0.048587643  0.048430016            6 
 3143000   0.73842402   -4.3757434    1841.4219  0.048823362  0.048419849            5 
 3144000   0.74524863   -4.3802836    1836.4546  0.048676172  0.048409796            5 
 3145000   0.75699406    -4.384774    1833.0085  0.048569382  0.048399657            4 
 3146000   0.75537736   -4.3700522    1840.3372  0.048748073  0.048389505            3 
 3147000   0.73192035   -4.3935093    1828.8069  0.048427257  0.048379437            6 
 3148000   0.74273017   -4.3651306    1837.7501  0.048648616  0.048369223            3 
 3149000   0.75899053   -4.3888931    1834.0875  0.048536242  0.048359057            4 
 3150000   0.73755748   -4.3947658    1833.1489  0.048496002  0.048348797           11 
 3151000   0.72646275   -4.3579455    1830.9591  0.048422698  0.048338524            4 
 3152000   0.77082763   -4.3624206    1835.9864  0.048540249  0.048328312            7 
 3153000   0.75311129   -4.3863002    1834.5226  0.048486168  0.048318085            6 
 3154000   0.74643624   -4.3924642    1835.3333  0.048492214  0.048307775            3 
 3155000   0.75795023   -4.3757234    1837.5438  0.048535229  0.048297569            4 
 3156000   0.75701199   -4.3807375    1839.9549  0.048583515  0.048287343            4 
 3157000   0.75331119   -4.3653631    1835.3312  0.048446076  0.048277137            6 
 3158000   0.73840934   -4.3619611    1840.7097  0.048572664  0.048266976            5 
 3159000   0.75254825    -4.369318    1838.4995  0.048498983  0.048256799            5 
 3160000   0.76720684     -4.34918    1840.7565  0.048543157  0.048246686            5 
 3161000   0.74074131   -4.3717895    1838.1933  0.048460226  0.048236551            9 
 3162000   0.73411892    -4.405828    1835.7871  0.048381486  0.048226368            5 
 3163000   0.74484382   -4.3769099    1840.9361  0.048501848   0.04821602            6 
 3164000   0.73902282   -4.3536808    1842.7406  0.048534045  0.048205736            3 
 3165000   0.73775316   -4.3776406    1836.6653   0.04835875  0.048195518            5 
 3166000   0.75372838   -4.3854509    1844.3393  0.048545464   0.04818522            4 
 3167000   0.74292548   -4.3667175    1838.1621  0.048367596  0.048174992            4 
 3168000   0.74938177    -4.355301    1842.4464  0.048465025    0.0481648           11 
 3169000   0.74436174   -4.3705574    1840.3087  0.048393519  0.048154716            6 
 3170000    0.7327469   -4.3827983     1843.422  0.048460095  0.048144548            3 
 3171000   0.75898109   -4.3930865    1842.0613  0.048409054  0.048134288            9 
 3172000   0.74219043   -4.3848276    1840.6886  0.048357728  0.048124132            6 
 3173000    0.7351418   -4.3616553     1838.564  0.048286689  0.048113945            3 
 3174000   0.73988728   -4.3615212    1846.5658  0.048481565  0.048103689            6 
 3175000   0.74529129   -4.4016032    1840.5336  0.048307969  0.048093567            6 
 3176000   0.76128616   -4.3855815    1838.1581  0.048230429  0.048083378            4 
 3177000   0.76333235   -4.3973937    1840.1601  0.048267761  0.048073075            7 
 3178000   0.75371718   -4.4109213    1839.8568  0.048244619  0.048062741            4 
 3179000   0.72702535   -4.4115644    1835.6377  0.048118844  0.048052393            6 
 3180000    0.7350818   -4.3903203     1840.278  0.048225315  0.048042114           12 
 3181000   0.73417807    -4.373781    1841.2521  0.048235672  0.048031903            9 
 3182000   0.75024369   -4.4033427    1838.2268  0.048141285  0.048021696            9 
 3183000    0.7486762   -4.3861099    1843.8865  0.048274334  0.048011426            8 
 3184000   0.72586374   -4.3817558    1851.2613   0.04845219  0.048001333            3 
 3185000   0.73771875   -4.4054641    1845.9081  0.048296916  0.047991233           12 
 3186000   0.73294725   -4.3890021    1844.3952  0.048242185  0.047981075            4 
 3187000   0.74045682   -4.3886857    1836.6888  0.048025542  0.047970991            6 
 3188000   0.75592187    -4.373998    1847.2121  0.048285552  0.047960825            6 
 3189000    0.7459536   -4.3911401    1848.2086  0.048296452  0.047950708            6 
 3190000   0.74698126   -4.3859234    1843.4341  0.048156587  0.047940618            5 
 3191000   0.73339565   -4.3810044    1847.4766  0.048247065  0.047930509            4 
 3192000   0.74125393    -4.392373    1848.2441  0.048251987   0.04792043            5 
 3193000   0.74262263   -4.3725605    1852.4013  0.048345371  0.047910483            6 
 3194000    0.7562805   -4.3921121    1841.2009  0.048038011  0.047900367           10 
 3195000    0.7438759   -4.4016074    1846.9073  0.048171812  0.047890222            8 
 3196000   0.72622716   -4.3745541    1849.1403  0.048214965   0.04788003            4 
 3197000   0.73310896   -4.4155922    1847.0241  0.048144721  0.047870042            9 
 3198000   0.73977088   -4.3587966    1852.2811  0.048266653  0.047860101            7 
 3199000   0.73339788    -4.407818    1849.9317  0.048190365  0.047850097            4 
 3200000   0.74837986   -4.3924817    1844.9282  0.048045005  0.047840026            8 
 3201000   0.75229961   -4.3764392    1850.9238  0.048186083  0.047829946            5 
 3202000   0.73039667   -4.4110719    1846.6817  0.048060631  0.047819891            6 
 3203000   0.74247679   -4.4001884    1851.6764  0.048175575  0.047809771            5 
 3204000   0.74701701   -4.4003948    1847.6926  0.048056925  0.047799725            3 
 3205000   0.75215055   -4.3766068    1851.5353  0.048141842  0.047789643            8 
 3206000   0.72946343   -4.3883266    1847.5624   0.04802356  0.047779547            7 
 3207000   0.73821353   -4.3876537    1850.8005  0.048092727   0.04776951            4 
 3208000   0.74167203   -4.4133446    1845.1755  0.047931617   0.04775951            7 
 3209000   0.74901622   -4.3927596    1852.0562  0.048095363  0.047749397            7 
 3210000   0.73165917   -4.3753212    1851.5853  0.048068155  0.047739379            4 
 3211000   0.73686466   -4.3856256     1846.662  0.047925413   0.04772935           12 
 3212000   0.73122617   -4.3796467    1855.1828  0.048131558  0.047719311            3 
 3213000   0.74136917   -4.4042159    1855.4338  0.048123089  0.047709287            5 
 3214000   0.73789142    -4.381744     1851.386  0.048003164  0.047699268            5 
 3215000   0.73265018   -4.4173255    1843.8332  0.047792462  0.047689166            5 
 3216000   0.73805148   -4.3856197    1854.8515   0.04806311  0.047679016            6 
 3217000   0.73062024   -4.4078006    1850.8489  0.047944486   0.04766888            8 
 3218000   0.73781533   -4.3958556    1858.0147  0.048115152   0.04765878            8 
 3219000   0.73192876   -4.3920789    1851.9257  0.047942572   0.04764864            5 
 3220000   0.72659618   -4.3990251     1850.733  0.047896817  0.047638449            5 
 3221000   0.73209365    -4.386274    1848.4372   0.04782255  0.047628273           11 
 3222000   0.72867935   -4.3877504     1853.264  0.047932547  0.047618177            2 
 3223000    0.7431235   -4.3943674    1852.6167  0.047900938  0.047608159            3 
 3224000   0.75842205   -4.3891636    1852.6697  0.047887451  0.047598135            4 
 3225000   0.73544157   -4.4127865    1853.4016  0.047891514  0.047588123            4 
 3226000   0.74089459   -4.3951119    1857.4021   0.04798001  0.047578077           10 
 3227000   0.72888986   -4.3903927    1856.3137  0.047937033   0.04756807           20 
 3228000   0.72839063   -4.4112676    1851.7342  0.047803959  0.047557941            8 
 3229000   0.72997307   -4.4030046    1851.8198  0.047791365  0.047547851            6 
 3230000   0.73199554   -4.4014866    1854.2346   0.04783887  0.047537867           13 
 3231000   0.73004234   -4.3806604    1861.2537  0.048005099  0.047527956            8 
 3232000   0.74334748   -4.3845391    1857.4981  0.047893412  0.047517996            6 
 3233000   0.75841819   -4.3880543    1856.8953  0.047863062  0.047508031            4 
 3234000   0.75069766   -4.4030811    1854.0708  0.047775478  0.047498024            4 
 3235000   0.72031814   -4.3909312    1859.8343  0.047909179  0.047488077            9 
 3236000   0.72252129   -4.4026779    1853.2731  0.047725409  0.047478079            6 
 3237000   0.72934845   -4.4039653    1858.9494  0.047856797  0.047468134           17 
 3238000   0.73175988   -4.4073481    1861.4711  0.047906916  0.047458209            4 
 3239000   0.70852879   -4.4185577    1860.9308  0.047878224   0.04744831           21 
 3240000   0.75337457   -4.3920006    1861.9833  0.047890517  0.047438394           10 
 3241000   0.72896827   -4.3939158    1855.6137  0.047711964  0.047428466           22 
 3242000   0.74249442   -4.4015746    1857.5783  0.047747746  0.047418569           11 
 3243000   0.73205024   -4.4155109    1853.8612  0.047637507  0.047408608            5 
 3244000   0.74369798   -4.3991087    1860.0546  0.047781919  0.047398664            4 
 3245000   0.73690905   -4.4008826    1856.3618  0.047672363  0.047388704            7 
 3246000   0.72531402   -4.4136596    1854.3987  0.047607279  0.047378693           13 
 3247000   0.73694459   -4.3938461    1854.2798  0.047589565  0.047368722            4 
 3248000   0.74312767   -4.4053437    1859.5087  0.047709069  0.047358726            9 
 3249000   0.72146538    -4.403274    1857.3644  0.047639386  0.047348666            7 
 3250000   0.73979699   -4.4194711    1859.4449  0.047678074   0.04733853            8 
 3251000   0.72325148   -4.3965048    1860.4256  0.047688547  0.047328561            8 
 3252000   0.73348471   -4.3989731    1859.6855  0.047654916   0.04731856            6 
 3253000   0.73468766   -4.3648242    1859.2074   0.04762802  0.047308528            4 
 3254000   0.72880856   -4.3752607    1864.8663  0.047758305  0.047298495            7 
 3255000   0.71879254   -4.4008416    1859.2627  0.047600172  0.047288512           10 
 3256000   0.72107718   -4.4116222    1854.9044  0.047474006  0.047278448           10 
 3257000   0.71975595    -4.382686    1855.9881  0.047487159   0.04726843            4 
 3258000   0.73939734   -4.3950022    1858.8421  0.047545583  0.047258465            5 
 3259000   0.73652816   -4.4219244    1863.5703  0.047651895  0.047248432           14 
 3260000   0.73490188   -4.4102881    1853.7913  0.047387303  0.047238459            9 
 3261000   0.72440783   -4.4211238    1856.9055  0.047452354   0.04722832           10 
 3262000   0.72827367   -4.3935814    1864.3244  0.047627335  0.047218373            6 
 3263000   0.73316177   -4.4161661    1865.5187  0.047643241  0.047208358            3 
 3264000   0.73083084   -4.4120901    1860.3298  0.047496164   0.04719837            6 
 3265000   0.72759484   -4.3986851    1863.3503   0.04755871  0.047188331            8 
 3266000   0.72628276   -4.3859352    1866.6102  0.047627326  0.047178391            5 
 3267000   0.72717593    -4.426281    1865.3964  0.047581789  0.047168389            6 
 3268000   0.71841739   -4.3956917    1863.8212   0.04752706  0.047158383            7 
 3269000   0.73278541   -4.4092753    1862.1169  0.047469077  0.047148396            5 
 3270000   0.72595103   -4.4155863    1863.1201  0.047480124  0.047138403           17 
 3271000   0.72852213   -4.4082851    1860.0137  0.047386471  0.047128416            4 
 3272000   0.73164547   -4.4106439    1860.6868  0.047389129  0.047118447            4 
 3273000   0.72462625    -4.422272    1859.6582  0.047348463  0.047108549            5 
 3274000   0.72956372   -4.4196159     1859.491  0.047329744  0.047098574            4 
 3275000    0.7250915   -4.4140559    1860.4733  0.047340289  0.047088618           14 
 3276000   0.74098022   -4.4475813    1858.6082  0.047278395  0.047078628           10 
 3277000   0.71767994   -4.4079216    1863.8947  0.047398401  0.047068704            7 
 3278000   0.72186638    -4.390272    1864.9579   0.04741097  0.047058823            7 
 3279000   0.71140828   -4.3837898    1867.8446  0.047469873  0.047048924            6 
 3280000   0.72681525   -4.4057478    1863.9253  0.047355827  0.047039003            5 
 3281000   0.71924402    -4.426078    1864.1501  0.047347101  0.047029047           13 
 3282000    0.7400032   -4.4170024    1864.2428  0.047335028  0.047019087            3 
 3283000    0.7130086   -4.3993427    1870.7169  0.047484946   0.04700912           23 
 3284000   0.73130355   -4.4271223    1860.0527  0.047199877  0.046999081           12 
 3285000   0.74187063   -4.3970292    1864.2966  0.047293166  0.046989093            3 
 3286000   0.72120113   -4.4028569    1865.6515  0.047313133  0.046979193            6 
 3287000   0.72164514   -4.4231958    1868.6401  0.047374509  0.046969189            8 
 3288000   0.72680071   -4.4241597    1865.9086  0.047290872  0.046959234            6 
 3289000   0.72909624   -4.4278387    1864.7733  0.047247727  0.046949196            7 
 3290000   0.73542483   -4.4063636    1869.8325  0.047361513  0.046939175            5 
 3291000   0.73097119   -4.4409281    1863.6878  0.047191528  0.046929195           16 
 3292000   0.73850732   -4.4109682    1863.7814  0.047179562   0.04691922            4 
 3293000   0.71938248   -4.4331188    1864.2514  0.047177127  0.046909233            6 
 3294000   0.69454528   -4.4225491    1867.9711  0.047256908  0.046899203           12 
 3295000   0.71894725   -4.4319095    1871.6308  0.047335125  0.046889204            5 
 3296000   0.72190575   -4.4147262    1869.9315  0.047277798  0.046879266            4 
 3297000   0.72158965     -4.42554    1871.3711  0.047299846  0.046869309            7 
 3298000   0.72372521   -4.4225715    1870.2512  0.047257208  0.046859283           10 
 3299000   0.71595437   -4.4389277    1866.9091   0.04715846  0.046849334            5 
 3300000   0.71940322   -4.4007162    1867.4031  0.047156645  0.046839282            5 
 3301000   0.72686319   -4.4217876    1866.6336  0.047122932  0.046829274            6 
 3302000   0.72150267   -4.4255269    1873.5237  0.047282548  0.046819321            5 
 3303000   0.73186163   -4.4237507    1870.4631  0.047191017  0.046809398            8 
 3304000   0.72065391    -4.420369    1871.4523  0.047201682  0.046799396            4 
 3305000   0.74040244   -4.4256915     1868.657  0.047116919  0.046789319            7 
 3306000   0.71771761    -4.442466    1868.6203  0.047101741  0.046779164            7 
 3307000   0.72877812   -4.4242729    1873.1807  0.047202417  0.046769034            5 
 3308000   0.72908782   -4.4282127    1863.5505  0.046945549  0.046758968            9 
 3309000   0.70159964   -4.4351184    1866.2745  0.046999961  0.046748808            4 
 3310000   0.72323953   -4.4186998    1865.9035  0.046976422  0.046738665            4 
 3311000   0.72388159    -4.432682    1868.5837  0.047029692  0.046728628            7 
 3312000   0.72381324   -4.4365993     1865.875  0.046947338  0.046718561           11 
 3313000   0.70586477   -4.4134656    1867.5838  0.046976148   0.04670853            7 
 3314000   0.71288992   -4.4349263    1864.9744  0.046896358   0.04669847            6 
 3315000    0.7363719   -4.4306284    1872.3502  0.047067627   0.04668842            5 
 3316000   0.71384241    -4.430177    1875.8487  0.047141351  0.046678455           13 
 3317000   0.69707448   -4.4247426     1868.814  0.046950407   0.04666842            5 
 3318000   0.71401669    -4.427367    1864.7277  0.046833627  0.046658384            7 
 3319000   0.73524966   -4.4377769     1858.631   0.04666644  0.046648235           20 
 3320000   0.72463307   -4.4243082    1866.8577  0.046858877  0.046638073           11 
 3321000   0.72533531   -4.4213817    1873.5826  0.047013515  0.046628051            6 
 3322000   0.71665555   -4.4144785    1871.4085  0.046944824   0.04661793            4 
 3323000   0.73295252    -4.441611    1870.9423  0.046919006  0.046607889            7 
 3324000   0.71853113   -4.4497293     1866.793  0.046800867  0.046597699            4 
 3325000   0.71767008   -4.4456201    1868.9861  0.046841757  0.046587544            8 
 3326000   0.72171098   -4.4311925    1868.2623   0.04680954  0.046577417            7 
 3327000   0.73805257    -4.427952    1874.3708  0.046948472  0.046567367            6 
 3328000   0.72123349   -4.4156621    1867.5078  0.046762516  0.046557327            7 
 3329000   0.72285817   -4.4229296    1875.3246  0.046944142  0.046547348            8 
 3330000    0.7249415   -4.4330721    1870.3899  0.046806553  0.046537342            5 
 3331000   0.72713616     -4.43685    1873.4562  0.046869214  0.046527317            6 
 3332000   0.72944559   -4.4311979    1873.4228  0.046854312  0.046517304            4 
 3333000   0.71695239   -4.4125514    1873.5771  0.046844113  0.046507336            8 
 3334000   0.72560267   -4.4227001     1873.931  0.046838907  0.046497269           11 
 3335000   0.71514314   -4.4130021    1874.1777  0.046831028  0.046487214            9 
 3336000   0.72947149    -4.409717    1874.0177  0.046812993  0.046477205            3 
 3337000   0.71235174   -4.4376069    1874.3714  0.046807796  0.046467232           10 
 3338000   0.72941331   -4.4124954    1879.4048  0.046919432  0.046457308            6 
 3339000   0.71956621   -4.4361874    1873.0056  0.046745672  0.046447366            4 
 3340000   0.71107449   -4.4110514    1877.3232  0.046839401  0.046437485            9 
 3341000     0.701557   -4.4397423     1873.572  0.046731817  0.046427496            6 
 3342000   0.71708543   -4.4189331      1869.38  0.046613305  0.046417493            5 
 3343000   0.70822596   -4.4379327    1875.4479   0.04675062  0.046407523            8 
 3344000    0.7174005   -4.4513631    1871.2485   0.04663199  0.046397528            9 
 3345000   0.70631579   -4.4556129    1870.5689  0.046601118   0.04638742            6 
 3346000   0.72288688   -4.4149048    1875.8597   0.04671896  0.046377355            7 
 3347000   0.71308296   -4.4213876    1871.9879  0.046608602  0.046367355            6 
 3348000   0.71731849   -4.4261374     1875.906  0.046692204   0.04635729            4 
 3349000   0.71847969   -4.4414876    1873.1449  0.046609558  0.046347305            5 
 3350000   0.72122381   -4.4232935    1870.2184  0.046522846  0.046337223            4 
 3351000   0.72308366   -4.4509779    1871.3582  0.046537306   0.04632715            6 
 3352000   0.72835603   -4.4155141    1876.0092  0.046639052   0.04631709            9 
 3353000   0.72095127    -4.437878    1877.9888  0.046674342    0.0463071            8 
 3354000   0.72132642   -4.4259844    1874.8397  0.046582184  0.046297085            5 
 3355000   0.71698156   -4.4306034     1870.209   0.04645328  0.046287009            5 
 3356000   0.71833936    -4.428029     1876.923  0.046606153  0.046276985            5 
 3357000   0.70076027   -4.4349448    1877.1825  0.046598712  0.046267067            9 
 3358000   0.70319031   -4.4515421    1874.7685  0.046524927  0.046257004            6 
 3359000   0.71197217   -4.4435232    1880.4329  0.046651604  0.046247014            8 
 3360000   0.70882019   -4.4674843    1870.8219  0.046399353  0.046236975            7 
 3361000   0.72006597   -4.4258772    1877.1228  0.046541772  0.046226864            8 
 3362000   0.69762552   -4.4632257    1879.2485  0.046580619  0.046216816            5 
 3363000   0.72093086   -4.4254265      1879.17  0.046564822  0.046206799            3 
 3364000   0.70351067   -4.4207888    1875.6742  0.046464382  0.046196821            8 
 3365000   0.70502011   -4.4416845    1873.0181  0.046384797  0.046186799            5 
 3366000   0.70998844   -4.4246123    1875.6523  0.046436233  0.046176795            6 
 3367000   0.70426471   -4.4555838     1879.087   0.04650745  0.046166809            8 
 3368000   0.70249783   -4.4486215    1880.2758  0.046523056  0.046156824            7 
 3369000   0.70892933   -4.4556909    1875.6538  0.046394919  0.046146737            5 
 3370000   0.69630764   -4.4386001    1883.6465  0.046578796  0.046136696            5 
 3371000    0.7027373   -4.4540723    1877.5407  0.046414038  0.046126635            4 
 3372000   0.72990491   -4.4353586    1879.4398  0.046447209  0.046116533            7 
 3373000   0.73065687   -4.4259867    1885.7624  0.046589644  0.046106596            7 
 3374000   0.71161199    -4.442337    1875.6188    0.0463253  0.046096602           10 
 3375000   0.70767007   -4.4287481    1880.6328  0.046435378   0.04608661            7 
 3376000   0.70960698    -4.451444    1877.4084  0.046342032  0.046076532            5 
 3377000   0.71568148   -4.4174908    1879.7811  0.046386859   0.04606646            6 
 3378000   0.71519635    -4.450018    1880.6513  0.046394594   0.04605637            5 
 3379000   0.71608046   -4.4612603    1876.4996  0.046278474  0.046046276           13 
 3380000   0.72232019   -4.4416909    1873.5321   0.04619162  0.046036158            7 
 3381000   0.68935739   -4.4287892     1878.375  0.046297323  0.046026052            7 
 3382000   0.71015188   -4.4518562    1878.6587  0.046290624  0.046015927           11 
 3383000   0.71160187   -4.4463301    1877.2986  0.046243439  0.046005775            6 
 3384000   0.71257737   -4.4463815    1875.9463  0.046196472   0.04599563            8 
 3385000   0.71471978   -4.4253846    1876.5948   0.04619879  0.045985404            4 
 3386000   0.70676103   -4.4409941    1874.2483  0.046127396  0.045975253            5 
 3387000   0.70707701   -4.4418842    1879.7725  0.046249694  0.045965083           12 
 3388000   0.70053706   -4.4721165    1878.4582  0.046203715  0.045954844           14 
 3389000   0.71041168   -4.4682893    1874.2156  0.046085757  0.045944607            6 
 3390000   0.70336178   -4.4812486    1876.0578  0.046117449  0.045934394            6 
 3391000   0.69433995   -4.4166648    1878.1965  0.046156406  0.045924123            8 
 3392000   0.69470199   -4.4465122    1875.8339  0.046084757  0.045913958            6 
 3393000   0.70228227   -4.4437853    1882.8603  0.046243744  0.045903751            7 
 3394000   0.71348138   -4.4698031    1874.6819  0.046029315  0.045893589            4 
 3395000   0.70759384   -4.4554412     1876.662   0.04606436  0.045883297            7 
 3396000   0.71773632   -4.4635364    1876.5117  0.046047108  0.045873054            2 
 3397000   0.71344978   -4.4632504    1876.1631  0.046024999  0.045862865           11 
 3398000   0.71670604   -4.4848548    1882.2907   0.04616173  0.045852588            4 
 3399000   0.69907247   -4.4778346    1879.9369  0.046090441  0.045842398           11 
 3400000   0.71685342   -4.4330782    1885.2514  0.046207141  0.045832263            7 
 3401000   0.70910094   -4.4495555    1879.8887  0.046062156   0.04582214            4 
 3402000   0.72727666   -4.4532314    1880.5736  0.046065392  0.045811982            6 
 3403000   0.71541192     -4.47485    1878.7574   0.04600738  0.045801814            6 
 3404000   0.70119883   -4.4619792    1876.0103  0.045926613  0.045791671            3 
 3405000   0.71305817   -4.4520451    1880.5818  0.046025007  0.045781584            8 
 3406000   0.70313676   -4.4623751    1876.6974  0.045916456  0.045771519           12 
 3407000   0.69038934   -4.4454303    1877.4573  0.045921566  0.045761425            8 
 3408000   0.72032271   -4.4670082    1883.1127  0.046046379  0.045751228            6 
 3409000   0.70787743   -4.4403486    1883.5324  0.046043131  0.045741126            6 
 3410000    0.7118308   -4.4709465    1879.8353  0.045939279  0.045730958           14 
 3411000   0.71840362   -4.4290079    1884.2885  0.046034606  0.045720786           11 
 3412000   0.70997047   -4.4506787     1883.735  0.046007596  0.045710656            4 
 3413000   0.71027068   -4.4329978    1883.8865  0.045997814  0.045700563           21 
 3414000   0.70847817   -4.4674272    1887.5386  0.046073486  0.045690443            8 
 3415000   0.71745403   -4.4405926    1881.7534  0.045918823  0.045680301            8 
 3416000   0.70323169   -4.4397012    1879.9705  0.045861889  0.045670161           15 
 3417000   0.71263444   -4.4435587    1881.1879  0.045878155  0.045660032            5 
 3418000   0.71169733   -4.4702698    1885.1202  0.045960605  0.045649931            8 
 3419000   0.71405455   -4.4629618    1881.1294  0.045849892  0.045639824            4 
 3420000   0.70590159   -4.4648623    1878.1934  0.045764946  0.045629756            7 
 3421000   0.71570131   -4.4462855    1882.3175  0.045852028  0.045619662            3 
 3422000   0.71943868    -4.459368    1881.6389  0.045822104  0.045609584            4 
 3423000    0.7118774   -4.4450101    1884.7651  0.045884825  0.045599528            5 
 3424000   0.70314178   -4.4772074    1885.0726  0.045878909  0.045589481            4 
 3425000   0.71207016   -4.4631241    1885.9472  0.045886793  0.045579466            5 
 3426000   0.70228059   -4.4686564    1887.6669   0.04591523  0.045569406           17 
 3427000   0.70751987   -4.4549721    1883.3319  0.045796417   0.04555931            3 
 3428000   0.70078967   -4.4526418    1889.5778  0.045934893   0.04554924            8 
 3429000   0.70392249   -4.4715216    1884.9966  0.045810164  0.045539203            9 
 3430000   0.72616138   -4.4693856    1889.8421  0.045914532  0.045529205            5 
 3431000   0.70766769   -4.4735456    1885.6271  0.045798775  0.045519186            8 
 3432000   0.71057418   -4.4574611    1884.4482  0.045756805  0.045509086            7 
 3433000   0.71123436   -4.4648815    1885.9448  0.045779804  0.045498983            4 
 3434000   0.71315446    -4.473481    1883.9172  0.045717268   0.04548892            7 
 3435000   0.69510771   -4.4763156    1881.1647  0.045637185  0.045478791            6 
 3436000   0.70881392   -4.4653341      1884.99  0.045716676  0.045468715            6 
 3437000    0.6913346   -4.4748025     1879.612  0.045572981  0.045458622            7 
 3438000   0.69659527   -4.4875505    1888.6611  0.045779066  0.045448537           14 
 3439000   0.69753667   -4.4438527    1886.2911  0.045708322  0.045438521            6 
 3440000   0.69561031   -4.4549861    1887.2003  0.045717062   0.04542844            7 
 3441000   0.70947685    -4.452989    1885.3398  0.045658717  0.045418484           17 
 3442000    0.6901846   -4.4510777      1886.56  0.045674994  0.045408421            7 
 3443000   0.70419916   -4.4467573    1890.3825  0.045754249  0.045398378            9 
 3444000   0.70444602   -4.4778863    1882.1547  0.045541877  0.045388302            4 
 3445000   0.71466236   -4.4698878    1891.9239   0.04576497  0.045378232            9 
 3446000   0.70197621   -4.4865064    1888.0358  0.045657666  0.045368202            5 
 3447000   0.70536387    -4.492103    1887.4721  0.045630792  0.045358138            7 
 3448000   0.70594782   -4.4650866    1886.8267   0.04560196  0.045347989            7 
 3449000   0.68764292   -4.4610406     1888.373    0.0456261  0.045337921            9 
 3450000   0.70017386   -4.4561821    1886.5267  0.045568278  0.045327764            5 
 3451000   0.70412443   -4.4412272    1891.3255  0.045670953  0.045317705            6 
 3452000   0.68667205   -4.4707342    1885.4672    0.0455163  0.045307665            5 
 3453000   0.70138714   -4.4635107    1888.4243  0.045574482  0.045297562            5 
 3454000   0.70471993   -4.4705287    1887.6169  0.045541809  0.045287432            9 
 3455000   0.68453154   -4.4594403    1888.9274  0.045560237  0.045277324           10 
 3456000   0.68707714    -4.496642    1888.0792  0.045526602  0.045267181            9 
 3457000   0.69692247   -4.4720758    1890.8859  0.045581089  0.045257076            4 
 3458000   0.69912051   -4.4644469    1891.5961  0.045585022  0.045247009            8 
 3459000   0.69899272    -4.466834    1892.2104  0.045586643  0.045236899           10 
 3460000   0.70164661   -4.4853865    1888.2879  0.045478996  0.045226851           12 
 3461000   0.70226262    -4.461075    1886.3312  0.045418742  0.045216774            6 
 3462000   0.69673939   -4.4674975    1894.5556  0.045603593  0.045206742            6 
 3463000    0.6934616   -4.4767276    1891.4724   0.04551623  0.045196703            6 
 3464000   0.70174057   -4.4656296    1893.6867  0.045556358  0.045186659            5 
 3465000   0.69796912    -4.480051    1890.7988  0.045473756  0.045176639           18 
 3466000   0.68188506   -4.4503796    1890.6285  0.045456541  0.045166579            2 
 3467000   0.69300984   -4.4590463    1891.5175    0.0454648  0.045156501            4 
 3468000   0.69254822    -4.480707    1891.3058  0.045446602  0.045146442            9 
 3469000   0.70413757   -4.4625063    1887.6923  0.045346696  0.045136335           10 
 3470000   0.69209108   -4.4573552    1896.8519    0.0455536  0.045126284            6 
 3471000   0.70718255   -4.4800657    1892.1634  0.045427912  0.045116312            6 
 3472000   0.68516546    -4.471763    1891.1077  0.045389489  0.045106303            5 
 3473000   0.69903636   -4.4684191    1894.7229  0.045463166  0.045096281            5 
 3474000   0.69179836   -4.4478204    1894.6248  0.045447726  0.045086274           12 
 3475000   0.69407361   -4.4729153    1890.7498  0.045341721  0.045076278            7 
 3476000   0.70592304   -4.4707601    1894.3271  0.045414441  0.045066231            4 
 3477000   0.68796558   -4.4806853    1891.2328  0.045327217  0.045056153            5 
 3478000   0.70374078   -4.4966642    1889.2709  0.045267176  0.045046123            6 
 3479000   0.69176804   -4.4801087    1888.1324  0.045226894  0.045036097           15 
 3480000   0.69090173   -4.5011504    1893.9756  0.045353822  0.045026018            4 
 3481000   0.69751825   -4.4679305       1892.8  0.045312649   0.04501589            8 
 3482000   0.69475866   -4.4628114    1897.1623  0.045404038  0.045005837           12 
 3483000   0.70360442   -4.4854237    1890.8155  0.045239151  0.044995769           17 
 3484000   0.67944395    -4.479642    1894.5369  0.045315175  0.044985712           14 
 3485000   0.70525171   -4.4831997    1896.7766  0.045355728  0.044975733           12 
 3486000   0.69881918   -4.4715822    1897.5218  0.045360532  0.044965691            7 
 3487000    0.6890458   -4.4742998    1894.4707  0.045274607    0.0449557            5 
 3488000   0.68858663    -4.472365    1894.9947  0.045274147  0.044945679           12 
 3489000   0.67748395   -4.4748581    1894.8412  0.045257505  0.044935697            6 
 3490000    0.6891158   -4.4808917    1897.3778  0.045305105  0.044925687            7 
 3491000    0.6879434   -4.4579869    1898.8816  0.045328024  0.044915732            6 
 3492000   0.68990162   -4.4631147    1899.7018  0.045334616  0.044905732           11 
 3493000   0.70043697   -4.4686703    1896.6112  0.045247905  0.044895794            9 
 3494000   0.70173616   -4.4638488    1894.6253   0.04518759  0.044885799            7 
 3495000   0.69747182   -4.5076533    1893.8921   0.04515718  0.044875734            7 
 3496000   0.68630869   -4.4706324    1902.6282  0.045352502  0.044865713           11 
 3497000   0.70104151    -4.478686    1895.7791   0.04517632  0.044855666           16 
 3498000   0.70035666   -4.4856921    1889.2792  0.045008558  0.044845609            4 
 3499000   0.69770644    -4.494552    1891.7793  0.045055238  0.044835533            5 
 3500000   0.69104217   -4.4863777    1897.5632  0.045180077  0.044825428            9 
 3501000   0.68382851   -4.5014338     1890.317  0.044994691  0.044815367            6 
 3502000   0.69606974     -4.47763    1901.7895  0.045254842  0.044805287            7 
 3503000   0.69049816   -4.4709923      1900.68   0.04521553  0.044795306           11 
 3504000   0.70279311   -4.4825331    1898.4463  0.045149504  0.044785358            7 
 3505000   0.66767245   -4.4772606    1894.4351  0.045041254  0.044775381            3 
 3506000   0.69328879   -4.4703628    1897.2623  0.045095606  0.044765408            8 
 3507000   0.68256222    -4.495658    1896.5748  0.045066411  0.044755313           18 
 3508000   0.68802492   -4.4739616    1896.1519  0.045043517  0.044745221           12 
 3509000   0.68928612   -4.4826602    1901.3966  0.045155233  0.044735203            6 
 3510000   0.68834187   -4.4896787     1892.808  0.044938461  0.044725195            9 
 3511000   0.67957367   -4.4697201    1897.7012  0.045041801  0.044715251            7 
 3512000   0.67949981   -4.4822536    1895.8249  0.044984455  0.044705232            6 
 3513000   0.69592613   -4.4634667    1898.2605  0.045029426  0.044695205            8 
 3514000   0.68589454   -4.4751005    1897.6727  0.045002672  0.044685125            7 
 3515000   0.69490366   -4.4809192    1890.1172  0.044810744  0.044675077           10 
 3516000   0.69023037   -4.4792432    1896.1142  0.044940135  0.044664931            5 
 3517000   0.69397118    -4.464913    1898.8275  0.044991648  0.044654835            6 
 3518000   0.68434024   -4.5070846    1894.8065   0.04488361  0.044644672            9 
 3519000   0.68549204   -4.4939377    1895.2694  0.044881818  0.044634572           12 
 3520000   0.68697915    -4.487465    1901.9239  0.045026608  0.044624516            5 
 3521000   0.68336788   -4.4766504    1893.6272  0.044817458  0.044614367            7 
 3522000   0.68578495    -4.492312    1891.9814  0.044765792  0.044604298           13 
 3523000   0.68469291   -4.5033894    1895.1848  0.044828858  0.044594224            9 
 3524000   0.70497855   -4.4714178    1893.5748  0.044778065  0.044584089            6 
 3525000   0.67794166   -4.4793823    1894.9973  0.044798991  0.044573859           11 
 3526000   0.68977353   -4.4592509    1900.8345  0.044924242  0.044563756            3 
 3527000   0.68270485   -4.5005956    1892.1075  0.044705308  0.044553613            5 
 3528000   0.70118479   -4.4815518    1893.9367  0.044735845  0.044543479            6 
 3529000    0.6933556   -4.5140072     1889.067  0.044608175  0.044533303            6 
 3530000   0.65795301   -4.4795834    1895.8361  0.044755338  0.044523107            9 
 3531000   0.68000547   -4.4977592    1888.1933  0.044562288  0.044512906           17 
 3532000   0.70063506   -4.4975448    1895.0799  0.044712152  0.044502669            3 
 3533000   0.70617848   -4.4853256    1897.6218  0.044759453  0.044492544            6 
 3534000   0.68613966   -4.4924637    1894.4244  0.044671393  0.044482396            3 
 3535000   0.70039256   -4.4841306    1899.1654  0.044770519  0.044472231            9 
 3536000   0.70310001   -4.4921173    1892.9863  0.044612235  0.044462112            9 
 3537000   0.68237391   -4.5100727    1896.4438  0.044681081  0.044451959            6 
 3538000   0.66875454   -4.4695781    1895.1554  0.044638105  0.044441759            7 
 3539000   0.67507315   -4.4710412    1892.0719  0.044552884  0.044431592            5 
 3540000   0.68463939   -4.5032907     1892.867  0.044559016   0.04442139            6 
 3541000   0.67405154   -4.4970664    1892.4726  0.044537151  0.044411185            8 
 3542000    0.6921742   -4.4851177    1898.6114  0.044669006  0.044401024            4 
 3543000   0.68780805   -4.4847467    1900.7161  0.044705901  0.044390917            6 
 3544000   0.66720827   -4.5109471    1888.9691  0.044417068  0.044380786            6 
 3545000   0.69374581   -4.4891845    1897.4168  0.044603122  0.044370611            8 
 3546000   0.69562286   -4.4731615    1898.9292  0.044626087   0.04436054           12 
 3547000   0.68131422   -4.4854568    1899.4878  0.044626627  0.044350463            4 
 3548000   0.69254935   -4.5200331    1895.9839  0.044531753  0.044340388            7 
 3549000   0.68757161   -4.4806811    1902.4756  0.044671635  0.044330284            7 
 3550000   0.67782898   -4.4749987    1895.1655  0.044487452  0.044320241            7 
 3551000   0.68298807   -4.4984687    1895.8838  0.044491782  0.044310142            5 
 3552000   0.68787317   -4.4896376    1903.2515  0.044652109   0.04430004            6 
 3553000   0.68617433    -4.494986     1901.104  0.044589173  0.044289993           11 
 3554000   0.69469831   -4.4949024    1898.4259  0.044513832  0.044279942           10 
 3555000   0.68372971   -4.4973354    1899.2412  0.044520423  0.044269979            6 
 3556000    0.6683843   -4.4865791    1902.1486  0.044576035  0.044259977           12 
 3557000   0.68631647   -4.5209583    1892.8363  0.044345336  0.044249887           15 
 3558000   0.68219696   -4.4807246    1900.8724  0.044521088  0.044239822            6 
 3559000   0.69622815   -4.5140379     1900.847  0.044507984  0.044229738           12 
 3560000   0.69245007   -4.5258704      1899.14  0.044455523  0.044219622            5 
 3561000   0.67675151   -4.4831923    1899.8746  0.044460231  0.044209586            9 
 3562000   0.66933679   -4.4970328    1907.8917  0.044635309  0.044199598            3 
 3563000   0.69373536   -4.5117247    1899.2453  0.044420556  0.044189551            7 
 3564000   0.70598386   -4.5042328    1900.7095  0.044442328  0.044179456           14 
 3565000   0.67284705   -4.5108778    1900.9756  0.044436083  0.044169404            6 
 3566000   0.68026016   -4.4994581    1901.1748  0.044428276  0.044159363           10 
 3567000   0.67832087   -4.5019311    1900.0836  0.044390328  0.044149322           13 
 3568000   0.68657232   -4.5191065    1902.4033  0.044432065  0.044139205           15 
 3569000   0.67929024   -4.5294435    1897.8042   0.04431223  0.044129084            7 
 3570000   0.68345418   -4.5172341    1903.7478  0.044438557  0.044119069           10 
 3571000   0.68551642   -4.5007095    1904.0537  0.044433253  0.044109051           10 
 3572000   0.68522197   -4.4889244      1902.44  0.044383164  0.044099049           11 
 3573000   0.68219757   -4.5060271     1899.706  0.044306978  0.044089048           16 
 3574000   0.68179458   -4.5109346    1908.1158  0.044490668  0.044078976            5 
 3575000   0.67217124   -4.4952142     1899.139  0.044268975  0.044068898           10 
 3576000   0.67838274   -4.4943189    1902.4089  0.044332795  0.044058873           13 
 3577000    0.6810175   -4.5473092    1894.2423  0.044130144  0.044048731            9 
 3578000   0.67067116   -4.5140955    1898.5208  0.044217458   0.04403864           13 
 3579000    0.6752528   -4.4712902    1908.5635  0.044438938  0.044028577            6 
 3580000   0.67605848    -4.510087    1899.7455  0.044221264  0.044018535            5 
 3581000   0.68209985   -4.5115949    1901.3435  0.044246102  0.044008495            7 
 3582000   0.67292347   -4.4899949    1901.2073  0.044230582  0.043998475            3 
 3583000    0.6820855   -4.4915257    1903.9844  0.044282826  0.043988406            8 
 3584000   0.70077165   -4.5073086     1906.029  0.044318011  0.043978401            7 
 3585000   0.67912632   -4.4896807    1912.0789  0.044446279  0.043968414           10 
 3586000   0.67634727   -4.5069611    1904.9319  0.044267799  0.043958314           13 
 3587000   0.67561178   -4.5050867    1898.9673  0.044116886  0.043948256            3 
 3588000   0.67138738   -4.4972045    1905.3931  0.044253835  0.043938198            7 
 3589000   0.67130372   -4.5135632    1900.2078  0.044121105  0.043928194           18 
 3590000   0.67292932   -4.5080462    1904.8805  0.044217282  0.043918122            7 
 3591000   0.67924217   -4.4853453    1912.5125  0.044382079  0.043908099            2 
 3592000   0.66588694   -4.4907941    1903.4817   0.04416021  0.043898104            6 
 3593000   0.67431741   -4.4996959    1907.2343  0.044234954   0.04388816            5 
 3594000   0.67127292   -4.5106422    1901.4722  0.044089042  0.043878205            5 
 3595000   0.66604474   -4.5129146    1902.6139  0.044103243  0.043868131            7 
 3596000   0.68352304    -4.498603    1905.9832  0.044169057  0.043858167           12 
 3597000   0.67936878   -4.5111857    1905.8314  0.044153263   0.04384819           11 
 3598000   0.67089294   -4.5230062    1906.5382   0.04415736  0.043838195           17 
 3599000   0.68308611   -4.5113598    1909.4876  0.044213384  0.043828235            4 
 3600000   0.68142443   -4.5001273    1906.9971  0.044143452  0.043818269            9 
 3601000   0.68082718   -4.5078746    1908.1799  0.044158566  0.043808205            3 
 3602000   0.66780421   -4.5136701     1909.338  0.044173099  0.043798197            6 
 3603000    0.6678005   -4.5091353    1908.4187  0.044139575  0.043788117            9 
 3604000   0.67229431   -4.5327817    1906.9243  0.044092775  0.043778125            4 
 3605000   0.69145202   -4.5317272    1901.9586  0.043965757  0.043768137            5 
 3606000   0.67758441   -4.5300864     1899.154  0.043888751   0.04375811           10 
 3607000   0.67126619   -4.5000493      1904.92  0.044009797  0.043748122            6 
 3608000   0.67923831   -4.5042758    1910.9643  0.044137202  0.043738101            9 
 3609000   0.65665477    -4.516131    1906.3228  0.044017799  0.043728155            9 
 3610000   0.66989484   -4.5166256    1908.5205  0.044056336  0.043718166            8 
 3611000   0.68646905   -4.5111508    1910.6956  0.044094332  0.043708269            6 
 3612000   0.66766099   -4.5257371    1906.7323  0.043990685  0.043698333            7 
 3613000   0.65204906   -4.5107238     1907.903  0.044005512  0.043688356            4 
 3614000   0.67577687   -4.5039091    1911.5372  0.044077135  0.043678415            6 
 3615000    0.6452678   -4.5256746    1909.2815  0.044012945  0.043668443            6 
 3616000   0.67534025   -4.5369173    1907.5635   0.04396118  0.043658419            5 
 3617000   0.66498177   -4.5389961    1910.3565  0.044013375  0.043648407            9 
 3618000   0.67561061   -4.5243069    1911.0671  0.044017576  0.043638364            7 
 3619000   0.65674499   -4.5020853    1914.0733  0.044074636  0.043628383            7 
 3620000   0.66534093   -4.5275298    1905.9671  0.043875854  0.043618391            4 
 3621000   0.67281509   -4.5080505     1910.917  0.043977653  0.043608357            6 
 3622000   0.67104161   -4.5227691    1909.4611  0.043932014  0.043598366            8 
 3623000   0.67086297   -4.4987107    1909.1948  0.043913765  0.043588385           16 
 3624000   0.68223947   -4.5350534    1908.4898  0.043885434  0.043578379           16 
 3625000   0.65384724   -4.5301774    1902.3602  0.043732418  0.043568265            5 
 3626000   0.67275146   -4.5275188    1903.5337  0.043747327   0.04355819           12 
 3627000   0.68311385   -4.5244693    1907.3854  0.043823762  0.043548112            7 
 3628000   0.66848549    -4.546193    1904.9141  0.043754917  0.043537956            9 
 3629000   0.67092557   -4.5301903    1908.5697  0.043826805  0.043527859           11 
 3630000   0.66253962   -4.5094044    1907.3351  0.043786388  0.043517776           24 
 3631000   0.66699086   -4.5179813    1905.1987  0.043725298  0.043507741            8 
 3632000   0.67441733   -4.5204524    1910.7629  0.043840925  0.043497761            3 
 3633000    0.6764802   -4.5294712    1907.4139  0.043752039  0.043487783            5 
 3634000   0.66562327   -4.5175718     1911.339  0.043830008  0.043477809            5 
 3635000   0.66576704    -4.547731    1906.6501  0.043710456  0.043467792            8 
 3636000   0.67097878   -4.5438848    1910.2579  0.043781123  0.043457713           14 
 3637000   0.65845951    -4.552943    1905.7074  0.043664821  0.043447625            6 
 3638000   0.66676592   -4.5062586     1911.727  0.043790706  0.043437576            5 
 3639000   0.64930049   -4.5416321    1907.0244  0.043670981  0.043427482            7 
 3640000   0.66345416   -4.5251927    1905.8226   0.04363147  0.043417402            4 
 3641000   0.67447427   -4.5243284    1908.4001  0.043678478  0.043407232            9 
 3642000   0.66033898    -4.547171    1906.4837  0.043622637  0.043397118            9 
 3643000   0.67041566   -4.5240607    1909.6691  0.043683529  0.043387009            6 
 3644000    0.6717521   -4.5370388    1904.7545  0.043559149  0.043376879            5 
 3645000   0.67820724   -4.5380871    1903.6185  0.043521227  0.043366727           10 
 3646000   0.67327391   -4.5319003    1908.8615  0.043629125  0.043356544            6 
 3647000   0.67338555   -4.5068836    1908.1808  0.043601608  0.043346375           10 
 3648000   0.65831322     -4.54228     1903.566  0.043484238  0.043336211            6 
 3649000   0.67102475   -4.5415003    1905.9239   0.04352617  0.043326023           13 
 3650000   0.66629888   -4.5398629    1908.4684  0.043572338  0.043315967            4 
 3651000   0.65994671   -4.5103782    1906.9243   0.04352516  0.043305824            8 
 3652000    0.6783631    -4.537459    1906.8017  0.043510445  0.043295673            6 
 3653000   0.66115303   -4.5265567    1909.7324  0.043565389  0.043285526            4 
 3654000   0.65650487   -4.5225879     1913.717  0.043644339  0.043275382            7 
 3655000   0.67061864   -4.5316748    1909.9615  0.043546774  0.043265248            9 
 3656000    0.6617558   -4.5252118    1913.0069  0.043604278  0.043255226            8 
 3657000   0.66413321    -4.534611    1903.1601  0.043367973  0.043245092            5 
 3658000   0.68200877   -4.5297077    1907.7603  0.043460915  0.043234936            6 
 3659000   0.67432224   -4.5355864    1906.5958  0.043422515  0.043224818            7 
 3660000   0.68084382   -4.5034977     1913.636  0.043570948   0.04321471            6 
 3661000   0.65673248   -4.5288447    1908.1011  0.043433057  0.043204672            5 
 3662000   0.67346943   -4.5238927    1908.7601  0.043436193  0.043194516           11 
 3663000   0.66006084   -4.5181584    1910.4027  0.043461705  0.043184403            8 
 3664000   0.67874257   -4.5268534    1907.7659  0.043389872  0.043174333            7 
 3665000   0.65045652    -4.514502    1908.6503  0.043398143  0.043164198            5 
 3666000   0.66991235   -4.5515384    1909.2965  0.043400993  0.043154061            9 
 3667000   0.67117023   -4.5460325    1909.1394  0.043385588  0.043143959           12 
 3668000   0.65697459     -4.54206    1911.9896  0.043438513  0.043133821            9 
 3669000   0.67059355   -4.5272902    1904.4521  0.043255475  0.043123671           14 
 3670000    0.6585735   -4.5389488    1911.0443  0.043393376  0.043113496           10 
 3671000    0.6679814   -4.5316405    1909.7593  0.043352386  0.043103403            8 
 3672000   0.66228251   -4.5294197     1909.164   0.04332707  0.043093267            9 
 3673000   0.67980801   -4.5343053    1905.1609   0.04322445  0.043083069            7 
 3674000   0.67319888   -4.5367084    1907.8941   0.04327468  0.043072949           15 
 3675000   0.66776166   -4.5096495    1908.2125  0.043270125  0.043062725           16 
 3676000   0.67851505   -4.5374048    1916.6528  0.043449692   0.04305264            7 
 3677000   0.66361131   -4.5388599    1911.5013  0.043321124  0.043042551            4 
 3678000   0.65300866   -4.5311011    1915.1992  0.043393131  0.043032412           16 
 3679000   0.66125803   -4.5401671    1912.7402  0.043325637  0.043022267            7 
 3680000   0.65420223   -4.5323537    1911.6575  0.043289345  0.043012133           15 
 3681000   0.65568476   -4.5389807    1905.5732  0.043139844  0.043001981            6 
 3682000   0.65919985   -4.5393928    1909.6111  0.043219516  0.042991833            7 
 3683000   0.65845701   -4.4973139    1911.0101  0.043239436  0.042981745            4 
 3684000   0.66598236    -4.518929    1913.8483  0.043291899   0.04297164            3 
 3685000   0.65090169   -4.5448123    1910.1443  0.043196388  0.042961549           15 
 3686000   0.63865173   -4.5454006    1912.5179  0.043238332  0.042951408            5 
 3687000   0.66002184   -4.5449691    1913.5603  0.043250164  0.042941352           16 
 3688000   0.65634463    -4.519025    1916.7365  0.043310208  0.042931359            6 
 3689000   0.65639922   -4.5479541    1912.5476   0.04320384  0.042921386            7 
 3690000   0.64710703   -4.5365367    1916.5654  0.043282868  0.042911383            5 
 3691000   0.66349376   -4.5551483    1910.6451  0.043137476   0.04290136           16 
 3692000   0.67186701   -4.5328178    1913.5341  0.043191001   0.04289144           11 
 3693000   0.65943373   -4.5539104    1912.3521  0.043152633  0.042881407            6 
 3694000   0.66748724   -4.5502663    1913.1031  0.043157893  0.042871388           14 
 3695000   0.64691235   -4.5389101    1912.1212  0.043124069  0.042861363            5 
 3696000   0.65671702   -4.5226775    1915.1503  0.043180698  0.042851442            9 
 3697000   0.66159987   -4.5381213    1919.6589  0.043270644  0.042841496           13 
 3698000   0.67101679   -4.5342975    1916.3288  0.043183901    0.0428315            5 
 3699000   0.66743713   -4.5388853    1913.7393  0.043113889   0.04282152            8 
 3700000   0.65423856   -4.5351044    1922.4383  0.043298161  0.042811538           10 
 3701000   0.65754515   -4.5421951    1915.9714  0.043140849  0.042801589           22 
 3702000   0.65138936   -4.5516213    1921.6264  0.043256491  0.042791635            5 
 3703000   0.66255149   -4.5474612     1915.508   0.04310712  0.042781658           16 
 3704000   0.65232514   -4.5239796    1917.3054   0.04313592  0.042771727            6 
 3705000   0.66460069    -4.544592      1916.92  0.043115609  0.042761776            5 
 3706000   0.65746963   -4.5440583    1920.4107  0.043182467  0.042751811            9 
 3707000   0.66816108   -4.5551181    1914.9208  0.043047406  0.042741917            9 
 3708000   0.66256253   -4.5343584    1917.6115  0.043096267  0.042731997           10 
 3709000   0.65247003   -4.5414195    1921.8137  0.043179062  0.042722126            9 
 3710000   0.66907904   -4.5216182    1926.6093  0.043275141  0.042712228           16 
 3711000   0.65416862   -4.5203861    1915.1882   0.04300701  0.042702329            4 
 3712000   0.65099342   -4.5501146    1918.9097  0.043078971  0.042692437            9 
 3713000   0.65655549   -4.5527375    1914.7195  0.042973326  0.042682431           13 
 3714000   0.65810152   -4.5495286    1917.2898  0.043019428  0.042672439           10 
 3715000   0.66623391   -4.5371453    1921.1654  0.043094783  0.042662468            4 
 3716000   0.63933869   -4.5573077    1914.0226  0.042923004  0.042652528            5 
 3717000   0.65385584    -4.529926    1918.8608  0.043019926  0.042642546            9 
 3718000    0.6482211   -4.5554164    1917.3733  0.042975017  0.042632623            8 
 3719000    0.6472888   -4.5672525    1918.9391  0.042998546  0.042622604           10 
 3720000   0.64399538   -4.5643397     1917.648  0.042958064  0.042612634           10 
 3721000   0.65932768   -4.5824485    1915.5078  0.042898588  0.042602676            6 
 3722000   0.64981658    -4.571572    1915.2861  0.042882099  0.042592697            7 
 3723000   0.66330545    -4.542191    1922.5903  0.043034074  0.042582789            7 
 3724000   0.64978826   -4.5264767    1925.7752  0.043093788  0.042572825            9 
 3725000   0.65497369    -4.543096    1913.5125  0.042807886  0.042562913            3 
 3726000   0.64018944   -4.5610599    1917.6676  0.042889327  0.042552911            9 
 3727000   0.65307057   -4.5518624    1914.8967  0.042815863  0.042542905           10 
 3728000   0.64825417   -4.5443343    1917.0987  0.042853602  0.042532945           20 
 3729000   0.66948381    -4.562248    1916.3159  0.042824615  0.042523014           16 
 3730000    0.6451212   -4.5741659    1918.0923  0.042852823  0.042513055            9 
 3731000   0.65459581   -4.5489273    1917.2748  0.042823076  0.042503114            9 
 3732000   0.64676086   -4.5391031    1919.5735   0.04286293   0.04249325            8 
 3733000   0.64344188   -4.5912874    1915.6872  0.042764694  0.042483303           11 
 3734000   0.65344351   -4.5688973    1921.8095  0.042889875  0.042473359            8 
 3735000   0.64329991   -4.5595141    1917.5182  0.042782646  0.042463385            8 
 3736000   0.66699176   -4.5536571    1911.9944  0.042647983  0.042453398            9 
 3737000   0.64430168   -4.5891524    1916.1312   0.04272882  0.042443374            8 
 3738000   0.65262488   -4.5555962    1921.0951  0.042828052   0.04243338            7 
 3739000   0.65235069   -4.5687957    1920.1308  0.042795106  0.042423376            6 
 3740000   0.64902496   -4.5632021    1923.1665  0.042851303  0.042413419           14 
 3741000   0.65682646   -4.5677431    1919.4867  0.042757878  0.042403426            7 
 3742000   0.65969382   -4.5700395    1921.5077   0.04279146  0.042393474            9 
 3743000   0.65278413   -4.5559207    1918.5367  0.042713882  0.042383572           10 
 3744000   0.66266825   -4.5843641    1921.6355  0.042771445  0.042373586           12 
 3745000   0.64596696   -4.5490196    1918.2442  0.042684562  0.042363624           14 
 3746000    0.6481407   -4.5621191    1920.8816  0.042731839  0.042353659            5 
 3747000   0.63680682   -4.5242626    1926.5213  0.042845862  0.042343736            4 
 3748000   0.64715494   -4.5651474    1920.5124  0.042700827  0.042333823           13 
 3749000   0.65558156   -4.5671296    1916.3209  0.042596268  0.042323892            5 
 3750000   0.65901955   -4.5310053    1924.0134  0.042755852  0.042313977            5 
 3751000   0.65214309   -4.5298901    1921.8605  0.042696625   0.04230413            9 
 3752000   0.65562514   -4.5881608    1920.1777  0.042647871  0.042294221           11 
 3753000   0.64669032   -4.5396296    1915.6579  0.042536147  0.042284286           15 
 3754000   0.64376522     -4.54048    1919.3966   0.04260781  0.042274348            7 
 3755000   0.66099862   -4.5597122    1915.5514  0.042511128  0.042264358            6 
 3756000   0.64279513   -4.5843788    1914.9421  0.042486292  0.042254371           12 
 3757000   0.66786527   -4.5771058    1921.0768  0.042611055  0.042244367            9 
 3758000     0.655065   -4.5719971    1923.2112  0.042647046  0.042234424            4 
 3759000   0.65422096   -4.5571004    1914.5118  0.042442845  0.042224493            5 
 3760000   0.65420449   -4.5519963    1919.4991  0.042542089  0.042214516           25 
 3761000    0.6475574    -4.531374    1922.5373  0.042598096  0.042204632            6 
 3762000   0.65702203   -4.5555123    1919.3773  0.042516775  0.042194683           13 
 3763000   0.64081807   -4.5722646    1920.6981  0.042534725   0.04218474            9 
 3764000   0.67091508    -4.537358    1921.5397  0.042542059    0.0421748            7 
 3765000   0.65238352   -4.5470304    1922.8324  0.042559371  0.042164868           15 
 3766000   0.64328747   -4.5373298    1924.3265  0.042581132  0.042154969            5 
 3767000   0.64995472   -4.5510812    1922.3962  0.042527127  0.042145069            7 
 3768000   0.63656624   -4.5500732    1921.4126  0.042494087  0.042135127            9 
 3769000    0.6397547   -4.5592751    1925.8778  0.042581538  0.042125214            6 
 3770000   0.64511366   -4.5563826    1922.0522  0.042485681  0.042115329           14 
 3771000   0.64642969   -4.5659077    1927.1118  0.042586224  0.042105487            6 
 3772000   0.65193443   -4.5676594    1925.0643    0.0425297  0.042095546            7 
 3773000   0.65470425   -4.5840835    1922.6518  0.042465143  0.042085593            8 
 3774000   0.66478145   -4.5733705    1923.8013  0.042479272  0.042075647            7 
 3775000   0.64462623   -4.5823936    1920.4869  0.042394855  0.042065735           11 
 3776000   0.63460882   -4.5594958    1924.2113  0.042465822  0.042055809            5 
 3777000   0.64761628    -4.570803    1922.3208  0.042412867  0.042045906            7 
 3778000   0.67074938   -4.5984972    1925.3507  0.042468474  0.042035933           11 
 3779000   0.64800433   -4.5416594    1919.0256  0.042317757  0.042025995           20 
 3780000   0.63752738    -4.576489    1922.1864  0.042376244  0.042016119           11 
 3781000   0.64677836   -4.5575349    1928.3218  0.042500261   0.04200623            6 
 3782000   0.66439598   -4.5774402    1920.0788  0.042307394  0.041996382            9 
 3783000   0.63541579    -4.578823    1920.2427  0.042299822  0.041986461            4 
 3784000    0.6410636   -4.5778911    1921.0738  0.042306945  0.041976507           13 
 3785000   0.64546769   -4.5811346    1928.5961  0.042461385  0.041966632            7 
 3786000   0.65957929   -4.5577421    1927.1165  0.042417603  0.041956822            5 
 3787000   0.64266358   -4.5530134    1928.5244  0.042437383   0.04194697           17 
 3788000   0.64991394   -4.5546999    1925.6618  0.042363205  0.041937124            9 
 3789000   0.65459076   -4.5557269    1920.2181  0.042232297  0.041927309            7 
 3790000   0.64581051   -4.5592173    1924.5518  0.042316443  0.041917439            6 
 3791000   0.64203883   -4.5724008    1926.2711  0.042343073  0.041907558           13 
 3792000   0.65649275   -4.5818544    1923.9507  0.042280914   0.04189764            7 
 3793000   0.64254591   -4.5798933    1925.2761  0.042298885  0.041887754           10 
 3794000   0.63227834   -4.5510845    1926.1566  0.042307078  0.041877901           10 
 3795000   0.63941192   -4.5640393    1925.5451  0.042282501  0.041868063           14 
 3796000   0.65621854   -4.5698419    1923.6469  0.042229691  0.041858171            9 
 3797000   0.64315719   -4.6056237    1917.6369  0.042086668  0.041848258           24 
 3798000   0.65901957    -4.571624    1922.6316  0.042185176  0.041838297            5 
 3799000   0.63798315   -4.5860914    1922.5581  0.042172461  0.041828387            8 
 3800000   0.65485379   -4.5691563     1921.552  0.042139297   0.04181846           10 
 3801000   0.63945164   -4.5698182    1923.5622  0.042172284  0.041808486            4 
 3802000   0.63987632   -4.5968495    1921.9488  0.042125829   0.04179852            9 
 3803000   0.65356776   -4.5613248    1919.3645  0.042058123  0.041788546            5 
 3804000   0.66281431   -4.5791164     1923.811  0.042144476  0.041778602            9 
 3805000   0.63171185   -4.5799734    1921.1908  0.042076013  0.041768686            6 
 3806000    0.6378618   -4.5912395    1925.5287  0.042159937  0.041758741            6 
 3807000   0.66209295   -4.5834786    1926.0107  0.042159415  0.041748822            8 
 3808000   0.63737977   -4.5551975    1924.8647  0.042123265  0.041738956            5 
 3809000   0.63065883   -4.5957703    1918.6958  0.041977243  0.041729068            4 
 3810000   0.64500061   -4.5859129    1919.0735  0.041974487  0.041719028           12 
 3811000   0.65160486   -4.5867527    1922.9141  0.042047453  0.041708998            5 
 3812000   0.64149192   -4.5803423    1925.0619  0.042083376   0.04169898           10 
 3813000   0.63429369     -4.57222    1921.7262  0.041999436  0.041689064            8 
 3814000   0.64045156   -4.5548469    1926.8549  0.042100484  0.041679121            6 
 3815000   0.64215325   -4.5786252    1923.7028  0.042020595  0.041669199           12 
 3816000    0.6481724   -4.5728765    1920.0965  0.041930829  0.041659293           12 
 3817000   0.63067852   -4.5879331    1917.9467  0.041872909  0.041649396            6 
 3818000    0.6489503    -4.585454    1927.4821  0.042070064  0.041639432            6 
 3819000   0.64229355   -4.5734536    1921.3486  0.041925211  0.041629479           24 
 3820000   0.62350737   -4.5852625    1924.0644  0.041973482  0.041619511           10 
 3821000   0.63322521   -4.5907901    1917.4761  0.041818811  0.041609536            6 
 3822000   0.63792041   -4.5786361     1924.505  0.041961123   0.04159954            6 
 3823000   0.62640665   -4.6039528    1924.7564  0.041955629  0.041589582           10 
 3824000   0.63872433   -4.5976351    1919.5932   0.04183214  0.041579641            4 
 3825000   0.63610396   -4.6055232    1920.5156    0.0418413  0.041569625            9 
 3826000     0.634977   -4.5836903    1927.8006  0.041989036  0.041559618            8 
 3827000   0.64090456   -4.6234067    1920.8734  0.041827223  0.041549597           15 
 3828000   0.63771145   -4.5797877    1925.9031   0.04192579  0.041539567           16 
 3829000   0.64202265   -4.5832401    1920.6536  0.041800592  0.041529616            7 
 3830000    0.6362332    -4.573204     1921.754  0.041813621  0.041519632           15 
 3831000   0.64807502   -4.6123977    1915.2735   0.04166174  0.041509584           11 
 3832000    0.6288867    -4.583205    1919.0389  0.041732753  0.041499575            6 
 3833000   0.63078794   -4.5712854    1920.9479  0.041763368  0.041489576           11 
 3834000   0.64397498   -4.6052422    1920.3692  0.041739898  0.041479528           11 
 3835000   0.63649441   -4.5916867    1929.2358  0.041921682  0.041469513           10 
 3836000   0.61978462   -4.5818847    1921.2502  0.041737273  0.041459475           12 
 3837000   0.63370741   -4.5891156    1919.0344  0.041678273   0.04144948            7 
 3838000      0.62913   -4.5816968    1921.9378  0.041730453  0.041439428           14 
 3839000   0.62373993   -4.5706962    1923.0513  0.041743754  0.041429369           10 
 3840000   0.64037554   -4.5934448    1914.0747  0.041538079   0.04141929           19 
 3841000    0.6221866   -4.5896267    1922.4642  0.041709282  0.041409074           15 
 3842000   0.62746608   -4.5876313    1919.7447   0.04163944  0.041398997           16 
 3843000   0.62498269   -4.5690426    1920.4554  0.041644016   0.04138888           13 
 3844000   0.65289522   -4.5919436    1923.6003  0.041701359   0.04137881            7 
 3845000   0.63856068   -4.5845192    1922.3561  0.041663548  0.041368744            9 
 3846000     0.637272   -4.5949551    1921.1517   0.04162662   0.04135868           16 
 3847000   0.65595377   -4.6008963     1916.516  0.041515379  0.041348545           14 
 3848000   0.66590403   -4.5798096     1926.236   0.04171509  0.041338464           15 
 3849000   0.63877784   -4.5701086    1920.7448  0.041585364  0.041328416            8 
 3850000   0.63128126   -4.5993247    1919.8085  0.041554297  0.041318271            5 
 3851000   0.62614262   -4.5988105    1919.7111  0.041541398  0.041308113           11 
 3852000   0.62860307    -4.617132    1918.6761  0.041508224  0.041297963            9 
 3853000   0.63621025   -4.6059636    1919.8912   0.04152373  0.041287759           14 
 3854000   0.62437664   -4.5940128    1915.0931  0.041409208  0.041277601           24 
 3855000   0.63437795   -4.5780596    1924.1132  0.041593454  0.041267447           14 
 3856000   0.63448901   -4.5856031    1917.1283  0.041431715  0.041257312            9 
 3857000   0.63305735    -4.604979    1915.3314  0.041382149  0.041247176           10 
 3858000   0.64170429   -4.5935892    1917.0448  0.041408433  0.041237054            9 
 3859000   0.63651222   -4.5790509    1923.6519  0.041540379  0.041226955           11 
 3860000   0.63919082   -4.6073977    1923.0746  0.041517155  0.041216826           10 
 3861000    0.6407546   -4.6075336    1916.4271  0.041362927  0.041206718           10 
 3862000   0.63156857   -4.5913278    1919.4294     0.041417   0.04119665            8 
 3863000   0.63091801   -4.6147797     1920.691  0.041433494    0.0411866           12 
 3864000   0.63703708   -4.5813358    1922.8178  0.041468639  0.041176517           15 
 3865000   0.61417199   -4.5838487    1920.4357  0.041406548  0.041166457            8 
 3866000   0.62637468   -4.5909332    1921.4372  0.041417426  0.041156406           10 
 3867000   0.63892057   -4.5999095    1921.7502   0.04141346  0.041146357           13 
 3868000   0.63714064   -4.6034166    1920.3402  0.041372376  0.041136363            6 
 3869000   0.62412194    -4.599904    1922.8838  0.041416469  0.041126344           12 
 3870000   0.63242006    -4.619554    1921.9324  0.041385279  0.041116264            5 
 3871000   0.63515723   -4.6055101    1920.4214  0.041342061  0.041106207            8 
 3872000   0.62620718   -4.6056372    1920.0126  0.041322585  0.041096163            9 
 3873000   0.62388142   -4.5881204    1919.1035  0.041292356   0.04108606            7 
 3874000   0.64369186   -4.6048763     1921.097  0.041324578  0.041076025           13 
 3875000   0.63346299   -4.5878079    1920.7592  0.041306649  0.041066012            7 
 3876000   0.62263483   -4.5863647     1921.167   0.04130476  0.041055979           10 
 3877000    0.6218652   -4.6185695    1919.8619  0.041266053  0.041045873            7 
 3878000   0.62689752   -4.5864456    1926.3243  0.041394282  0.041035864            6 
 3879000   0.61054079   -4.5924201    1920.7931  0.041264783  0.041025837            8 
 3880000   0.61573369    -4.573141    1921.8657  0.041277185  0.041015807           31 
 3881000   0.64670241   -4.5929759    1926.5632  0.041367413   0.04100583           22 
 3882000   0.62147764   -4.5986855    1927.0228  0.041366623  0.040995838            8 
 3883000   0.61804718   -4.6069278    1922.1192  0.041250733  0.040985802            9 
 3884000   0.62501969   -4.6227593    1918.8744  0.041170494  0.040975731           10 
 3885000   0.63396445   -4.5911747    1925.5154  0.041302347  0.040965745           13 
 3886000   0.63055308   -4.5926939    1926.2494  0.041307459  0.040955775           11 
 3887000   0.62802388   -4.6445058    1928.5601  0.041346371  0.040945787            9 
 3888000   0.61497491   -4.6009639    1920.9635  0.041172914   0.04093576           11 
 3889000   0.63147794   -4.6057103    1920.0307  0.041142338  0.040925727            5 
 3890000   0.62548994   -4.5891335    1924.3409  0.041224099  0.040915799           17 
 3891000   0.62490576   -4.5825739    1928.1604  0.041295306  0.040905847            7 
 3892000   0.61997705   -4.6159108    1934.4352  0.041419047  0.040895889           29 
 3893000   0.63114616   -4.6083237    1928.6979  0.041285596  0.040885992            5 
 3894000   0.62798315   -4.6059106    1926.8733  0.041235947  0.040876039           15 
 3895000   0.64158655   -4.6045568    1924.2314  0.041168836  0.040866087           11 
 3896000   0.64534705   -4.5963664    1923.3745   0.04113994  0.040856156           17 
 3897000   0.63234674   -4.5921455    1928.4594   0.04123812  0.040846223           16 
 3898000   0.61953419   -4.5865215    1927.5844  0.041208833  0.040836314            6 
 3899000   0.62354581   -4.6215185    1923.6964  0.041115165  0.040826381           12 
 3900000    0.6263855   -4.5928362     1925.858  0.041150811  0.040816435            9 
 3901000   0.62577355   -4.6125293    1933.3874  0.041301106  0.040806524            9 
 3902000   0.63636692   -4.6223746    1927.8242   0.04117171  0.040796616           15 
 3903000   0.62281848   -4.5923439    1925.3467  0.041108266  0.040786739           11 
 3904000   0.63699474   -4.6262055    1927.9231  0.041152729   0.04077687            8 
 3905000   0.62556745   -4.6214619    1926.7099  0.041116301  0.040766955           18 
 3906000   0.62460327   -4.6231996     1923.782   0.04104331  0.040757022           20 
 3907000   0.63952266   -4.5752506    1931.2512  0.041192118  0.040747132            6 
 3908000   0.62169265   -4.6139856    1928.5647   0.04112429  0.040737263           13 
 3909000    0.6107095   -4.6077972    1925.4902  0.041048226  0.040727373           11 
 3910000   0.62660275   -4.6194059    1928.2748  0.041097075  0.040717506           10 
 3911000   0.64197306    -4.609151    1924.2606  0.041001036   0.04070763            8 
 3912000   0.62830469    -4.619812    1927.9143  0.041068385  0.040697714            6 
 3913000   0.62130157   -4.6254367    1925.1755  0.040999563  0.040687788           12 
 3914000   0.62168292   -4.6050394    1929.0293   0.04107114  0.040677858           19 
 3915000   0.63000212   -4.6101459    1924.5514  0.040965334  0.040667946           16 
 3916000   0.62885677   -4.5787523    1932.6541  0.041127301  0.040658042            9 
 3917000    0.6350042   -4.6072869    1928.2506  0.041023118  0.040648181            9 
 3918000   0.62398693    -4.610991    1926.6613  0.040978843  0.040638279            7 
 3919000   0.62618275   -4.5810467    1928.2184  0.041001496  0.040628394           11 
 3920000   0.62844609   -4.6086819    1928.9608   0.04100682  0.040618559            9 
 3921000   0.63274477   -4.5990105    1932.1495  0.041064131  0.040608708            8 
 3922000   0.61937576   -4.6236414     1931.841  0.041047106  0.040598894           12 
 3923000   0.61544776   -4.6153354    1930.6948  0.041012295  0.040589043           19 
 3924000   0.62496436   -4.6047001    1931.6379  0.041021873   0.04057922            4 
 3925000   0.61740417   -4.6125513    1926.2024  0.040896018  0.040569397            8 
 3926000   0.61106462   -4.6246013    1922.0899  0.040798308   0.04055946            7 
 3927000   0.61976747   -4.6214224    1930.5023  0.040966436  0.040549573           11 
 3928000   0.62155006   -4.6036839    1924.7111  0.040833143  0.040539704            6 
 3929000   0.61362067   -4.6241249    1928.8488  0.040910512  0.040529803           10 
 3930000   0.63781339   -4.6186372    1925.0023  0.040818538  0.040519865            5 
 3931000   0.64018886   -4.6186142    1925.5496  0.040819758  0.040509939           12 
 3932000   0.61806486   -4.6185552    1924.0971  0.040778591  0.040499987           10 
 3933000   0.61675601   -4.6175495    1932.2906  0.040941829  0.040490043           11 
 3934000   0.62079369   -4.6233541    1924.7457  0.040771599  0.040480158           13 
 3935000    0.6200052   -4.5983812    1927.8707  0.040827418   0.04047026           15 
 3936000   0.60970497   -4.6116072    1932.2057  0.040908826  0.040460355           18 
 3937000   0.62849073   -4.6095733     1922.857  0.040700555  0.040450457            9 
 3938000   0.61732284   -4.6220426    1926.9728  0.040777314   0.04044053            5 
 3939000   0.62559895   -4.6324106    1926.7828  0.040762943  0.040430648           13 
 3940000   0.62171362   -4.6239888     1926.212  0.040740524  0.040420752           18 
 3941000   0.61654193   -4.6184648    1930.4323  0.040819427  0.040410885           35 
 3942000   0.62781186   -4.6299084    1929.3572  0.040786344  0.040401002            5 
 3943000   0.61545893   -4.6053119    1929.0204  0.040768882  0.040391109            8 
 3944000   0.60113671   -4.6278738    1927.2294  0.040720701   0.04038119           14 
 3945000    0.6211071   -4.6347674    1926.7569    0.0407004  0.040371279           17 
 3946000   0.61184059   -4.6277205    1928.1109  0.040718679  0.040361345           12 
 3947000   0.62478126    -4.619064    1926.6926  0.040678418  0.040351468           12 
 3948000   0.60557509   -4.6171669    1927.7092  0.040689572  0.040341564           10 
 3949000    0.6260445   -4.6218511     1930.825  0.040745019  0.040331678           11 
 3950000   0.61738028    -4.624788    1928.6157  0.040688095  0.040321787            9 
 3951000   0.61501299   -4.6344846    1932.5331  0.040760421  0.040311939            8 
 3952000   0.61093442   -4.6030028    1929.0332  0.040676307  0.040301985           10 
 3953000   0.61973454   -4.6275304    1932.2825  0.040734515  0.040292048            7 
 3954000   0.61846435   -4.6418152    1924.0874  0.040551497  0.040282081           12 
 3955000   0.62284758   -4.6400019    1931.1606  0.040690278   0.04027212           12 
 3956000   0.61273827   -4.6054527    1928.8911  0.040632185  0.040262162           12 
 3957000   0.61559543    -4.621768    1925.2672  0.040545597  0.040252281           16 
 3958000    0.6132654   -4.6258374    1925.8654  0.040547948  0.040242369            3 
 3959000   0.61547687   -4.6222468     1932.389  0.040675022  0.040232409            5 
 3960000   0.62754269   -4.6272067    1928.4549  0.040581964  0.040222519           11 
 3961000   0.61524596   -4.6326021     1930.948  0.040624168   0.04021269           17 
 3962000    0.6161665   -4.6321535     1933.555  0.040668749  0.040202828            6 
 3963000   0.62076433   -4.6160938    1929.7485  0.040578444   0.04019298           11 
 3964000   0.62038774   -4.6185733    1932.7981  0.040632318   0.04018312           10 
 3965000   0.61368994   -4.6294232     1924.471  0.040447058  0.040173255           12 
 3966000   0.61364375   -4.6173645    1928.9926  0.040531868  0.040163422            6 
 3967000    0.6209495   -4.6269337    1930.2265  0.040547569  0.040153503           12 
 3968000   0.60549537   -4.6242109    1930.2068  0.040536937  0.040143629            6 
 3969000   0.63319228   -4.6347591     1933.812  0.040602419  0.040133767            9 
 3970000   0.62233621   -4.6227875    1933.6592  0.040588984  0.040123921            6 
 3971000   0.61697397   -4.6157115     1930.737  0.040517439  0.040114069           11 
 3972000   0.61552195   -4.6338522    1931.8721  0.040531052  0.040104185           10 
 3973000   0.61894915   -4.6275677    1928.2107  0.040444053  0.040094292           14 
 3974000    0.6223809   -4.6223168     1924.595  0.040358057  0.040084328            6 
 3975000   0.61493107   -4.6278916    1929.7719  0.040456434  0.040074403           10 
 3976000   0.61815455   -4.6299644     1934.311  0.040541395  0.040064496           18 
 3977000   0.61268316   -4.6282026    1924.7923  0.040331747  0.040054651           18 
 3978000   0.61331861   -4.6257733     1928.423  0.040397666  0.040044747           22 
 3979000   0.60214907   -4.6247044    1935.7002  0.040539923  0.040034845            9 
 3980000   0.62375392    -4.616189    1931.3511  0.040438674  0.040024989           13 
 3981000   0.61447441   -4.6290966    1932.2666   0.04044768  0.040015133           14 
 3982000   0.61423195   -4.6309372    1929.4479  0.040378535  0.040005272           12 
 3983000   0.62334279   -4.6344078    1927.8884  0.040335769  0.039995355            9 
 3984000   0.61366473   -4.6342114    1931.5245    0.0404017  0.039985471           12 
 3985000   0.60917798   -4.6217674    1928.9469   0.04033766  0.039975562           19 
 3986000   0.61280441   -4.6067947    1930.1225  0.040352117  0.039965682            7 
 3987000   0.62199065   -4.6426671    1924.8126  0.040231014  0.039955828           11 
 3988000   0.61638421   -4.6245657     1930.067  0.040330722  0.039945942           19 
 3989000   0.61702339   -4.6237053    1929.6786  0.040312497  0.039936027           12 
 3990000   0.60771687   -4.6222662     1928.799  0.040284022  0.039926092            8 
 3991000   0.60750906   -4.6480401    1927.4136  0.040245001   0.03991613            8 
 3992000    0.6158661   -4.6312281    1935.0205  0.040393715  0.039906266            8 
 3993000   0.61026951   -4.6703374    1929.6157    0.0402708  0.039896302           22 
 3994000   0.62273606   -4.6500902     1929.326  0.040254673   0.03988636           10 
 3995000   0.63001443   -4.6554366    1930.4751  0.040268566   0.03987643           32 
 3996000   0.61707401   -4.6486421    1924.0289   0.04012406  0.039866535           23 
 3997000   0.60162731   -4.6559592     1927.715  0.040190871  0.039856601            7 
 3998000   0.60907341   -4.6410212    1928.3554  0.040194168  0.039846722            9 
 3999000   0.61141413   -4.6481307    1929.1501  0.040200678    0.0398368            9 
 4000000   0.60409265   -4.6613744    1929.4881  0.040197669  0.039826896           13 
 4001000   0.60647725   -4.6484661    1931.0048  0.040219212  0.039816978           37 
 4002000   0.61978448   -4.6309461      1931.91  0.040228012  0.039807067           18 
 4003000    0.6213648   -4.6466487    1927.8142  0.040132696  0.039797198            5 
 4004000   0.62200086   -4.6619719    1924.0718  0.040044784  0.039787312            9 
 4005000   0.60843175   -4.6448545    1933.6792   0.04023469   0.03977742           19 
 4006000   0.61102666   -4.6431789    1934.9552   0.04025119  0.039767582           13 
 4007000   0.61663936   -4.6306771    1931.5753  0.040170853  0.039757774            9 
 4008000   0.59260328   -4.6464226    1925.2387  0.040029081  0.039747901           24 
 4009000   0.61231284   -4.6347103    1927.3228  0.040062419  0.039738081           10 
 4010000   0.61237954   -4.6350977    1934.2387  0.040196149  0.039728278            8 
 4011000    0.6111375   -4.6614083    1935.5089  0.040212518  0.039718496           13 
 4012000   0.60543747   -4.6426156    1929.1022   0.04006942  0.039708665            9 
 4013000   0.61842744   -4.6144346    1926.8456  0.040012576  0.039698864           12 
 4014000   0.60628022    -4.648897    1933.6301  0.040143457  0.039689044           10 
 4015000    0.6107497   -4.6489604    1928.4572  0.040026093  0.039679166           10 
 4016000   0.61302533   -4.6377159    1934.0106  0.040131362  0.039669367            6 
 4017000   0.60985419   -4.6626273    1932.2763  0.040085393  0.039659559            6 
 4018000   0.60144764   -4.6258097    1930.2636  0.040033673  0.039649749            8 
 4019000   0.62039346   -4.6490674    1931.3625  0.040046499  0.039639951            8 
 4020000   0.59710561   -4.6341465    1931.9733  0.040049197  0.039630102            6 
 4021000   0.60976629   -4.6748731    1927.4387   0.03994526    0.0396203           19 
 4022000    0.6114643   -4.6330779    1930.3021  0.039994656  0.039610442            8 
 4023000   0.60299787   -4.6379806    1933.3148   0.04004712  0.039600596            5 
 4024000   0.62016941   -4.6442774    1932.1428  0.040012898  0.039590798            8 
 4025000   0.61386162   -4.6624103    1925.8577  0.039872831  0.039581001            9 
 4026000   0.60624093   -4.6538836    1931.4529   0.03997874   0.03957117            9 
 4027000    0.6119957   -4.6543026    1931.8871  0.039977797  0.039561295           11 
 4028000    0.6197215   -4.6666437    1930.0509  0.039929885  0.039551429           11 
 4029000   0.60741496   -4.6226499    1932.3577  0.039967687  0.039541604            6 
 4030000   0.59753491   -4.6452214     1933.158  0.039974317  0.039531814           17 
 4031000   0.60832561   -4.6487034    1929.7737  0.039894436  0.039521986            8 
 4032000   0.60497451    -4.644975    1932.8973  0.039949101  0.039512188           13 
 4033000   0.61432115   -4.6402898    1937.0291  0.040024571  0.039502399            7 
 4034000   0.60532244   -4.6516405     1931.022  0.039890556  0.039492639            4 
 4035000   0.61426851   -4.6448895    1935.6001  0.039975218  0.039482874            8 
 4036000   0.60396588   -4.6366493    1933.8257  0.039928677  0.039473089           13 
 4037000   0.61711624   -4.6381972    1933.7451  0.039917124  0.039463306           14 
 4038000    0.6098534   -4.6671905    1936.4555  0.039963173  0.039453516           14 
 4039000    0.6023538   -4.6459173    1935.8671  0.039941138  0.039443753           12 
 4040000   0.59608527   -4.6642256    1933.1237  0.039874663  0.039433987           17 
 4041000   0.59736727   -4.6501624    1936.2656  0.039929588  0.039424239           15 
 4042000   0.61066898   -4.6656638     1930.618  0.039803274  0.039414477            7 
 4043000    0.5924045   -4.6526425    1932.7813  0.039838018  0.039404684           10 
 4044000   0.59285225   -4.6570727    1932.9238  0.039831104  0.039394939            7 
 4045000   0.60032446   -4.6362971    1938.5537  0.039937241  0.039385205           16 
 4046000   0.60535175   -4.6376793    1934.9892  0.039853954  0.039375567            8 
 4047000   0.59914001   -4.6664008    1934.9107   0.03984249  0.039365836            9 
 4048000   0.61372712   -4.6403232    1934.7137  0.039828592  0.039356066           16 
 4049000   0.60486925   -4.6369129     1933.922  0.039802461  0.039346321            7 
 4050000   0.61107546   -4.6775659    1932.1583  0.039756344  0.039336532            5 
 4051000   0.60241828   -4.6380486    1930.1854  0.039705945  0.039326793            6 
 4052000   0.59857947   -4.6230329    1931.7761   0.03972886  0.039317013            9 
 4053000   0.59160801    -4.650798    1933.4384  0.039753236  0.039307276           12 
 4054000   0.60668118   -4.6532488    1930.6139  0.039685369  0.039297562           11 
 4055000   0.59614195   -4.6684036    1934.3995  0.039753381  0.039287813           10 
 4056000     0.594679   -4.6509883    1934.8026  0.039751862  0.039277986           13 
 4057000   0.59407056   -4.6707669    1931.1772  0.039667595  0.039268219           11 
 4058000   0.60831984   -4.6510712    1933.4195  0.039703867   0.03925848           16 
 4059000   0.61568153   -4.6541014    1932.9681  0.039684818  0.039248743           11 
 4060000   0.60461565   -4.6677451    1938.2019   0.03978247  0.039239086           16 
 4061000   0.59947644   -4.6527191    1932.3355  0.039652293  0.039229452           10 
 4062000   0.60853865   -4.6285102      1937.64  0.039751354  0.039219815           18 
 4063000    0.6098002   -4.6583363    1937.4129  0.039736913  0.039210186           11 
 4064000   0.59971944    -4.660586    1938.4002  0.039747379  0.039200533            9 
 4065000   0.59431737   -4.6611812    1935.9044  0.039686438  0.039190867           22 
 4066000   0.59947933   -4.6550209    1938.8908  0.039737884  0.039181232            9 
 4067000   0.59372947   -4.6616724    1939.1782  0.039734001  0.039171576           11 
 4068000   0.60109933   -4.6678834    1938.4599  0.039709519  0.039161928           19 
 4069000   0.60592144   -4.6482448     1936.751  0.039664762  0.039152208           20 
 4070000   0.60190392   -4.6648218    1941.1495  0.039745076  0.039142477           16 
 4071000    0.5996187   -4.6583653    1933.7409  0.039583659  0.039132793            8 
 4072000   0.60289106   -4.6596348    1936.7032  0.039634562  0.039123135           12 
 4073000   0.58776608   -4.6561706     1934.785  0.039585585  0.039113488            9 
 4074000   0.60419357   -4.6408378    1933.3511  0.039546536  0.039103811            8 
 4075000   0.60073079   -4.6434341    1936.1992  0.039595076  0.039094153           10 
 4076000   0.59451089   -4.6565915    1936.2387  0.039586169  0.039084488           28 
 4077000   0.59265343   -4.6694491    1932.5964  0.039502012   0.03907476           29 
 4078000   0.60651577   -4.6685092    1938.0683  0.039604143  0.039065047            8 
 4079000   0.59159944   -4.6545288    1934.0124  0.039511571  0.039055331            7 
 4080000    0.5950345   -4.6644291    1939.5856   0.03961572   0.03904565           13 
 4081000   0.59380907     -4.66722    1932.2074   0.03945535  0.039035958            9 
 4082000   0.60205671   -4.6531821    1940.5856  0.039616725   0.03902623           10 
 4083000   0.58319743   -4.6703851     1934.064  0.039473915  0.039016525           10 
 4084000   0.59929978    -4.658026    1936.3673  0.039511249  0.039006813           17 
 4085000   0.59551475   -4.6823506    1931.3448  0.039399118  0.038997112           10 
 4086000   0.60201531    -4.693362    1931.8979  0.039400757  0.038987409           17 
 4087000   0.60150316   -4.6657732    1933.1466  0.039416577  0.038977691           22 
 4088000   0.59041981   -4.6665041    1937.2266  0.039490105  0.038967958            9 
 4089000   0.59596412   -4.6482333     1935.801  0.039451395  0.038958323           10 
 4090000    0.5952635     -4.65834    1931.6389  0.039356945  0.038948614           17 
 4091000   0.59292501   -4.6641862    1937.1752    0.0394601  0.038938881           21 
 4092000   0.59408775   -4.6515698     1936.735  0.039441491  0.038929248           11 
 4093000   0.58830181   -4.6650893    1939.2561  0.039483186  0.038919588           13 
 4094000   0.60081711   -4.6720206    1937.2111  0.039431914  0.038909957           13 
 4095000   0.59178016   -4.6553853    1935.4975  0.039387413  0.038900323            9 
 4096000   0.60890058   -4.6700354    1936.1632   0.03939134  0.038890739           10 
 4097000   0.58151544   -4.6664025    1943.5799  0.039532583  0.038881102           11 
 4098000   0.58502852   -4.6583083    1941.1402  0.039473325  0.038871518           25 
 4099000   0.60505225   -4.6655018    1941.3042  0.039467029   0.03886192           14 
 4100000   0.60533073    -4.680807    1940.2651  0.039436282   0.03885231            9 
 4101000   0.58204516    -4.667334    1934.0375   0.03930012  0.038842662            9 
 4102000   0.59723993   -4.6708994    1940.2711  0.039417177   0.03883299           12 
 4103000   0.59397224   -4.6942489    1935.7655  0.039316059  0.038823307           12 
 4104000   0.59729622   -4.6533927    1939.7222  0.039386822   0.03881359           12 
 4105000   0.59174129   -4.6689209    1941.5911  0.039415167  0.038803942           16 
 4106000   0.59751599   -4.6844543    1933.8219  0.039247886  0.038794346           18 
 4107000   0.58287111   -4.6860721    1937.5407  0.039313787  0.038784743           17 
 4108000   0.59323642   -4.6657206     1937.248   0.03929828  0.038775122           13 
 4109000   0.58838544   -4.6663643    1938.4236  0.039312557  0.038765534           10 
 4110000   0.60031107   -4.6721413     1939.036  0.039315409  0.038755941            8 
 4111000   0.60418912   -4.6889599    1938.6443  0.039297906  0.038746343            6 
 4112000   0.59185298   -4.6953808    1931.4083  0.039141704  0.038736618           21 
 4113000   0.59276827    -4.671395    1935.1998  0.039209009  0.038726906           10 
 4114000   0.58974151   -4.6586375    1936.8713  0.039233336  0.038717236           17 
 4115000   0.58873107   -4.6680222     1936.225  0.039210713  0.038707624           20 
 4116000   0.59738696   -4.6787324    1941.9642  0.039317383  0.038698003           16 
 4117000     0.585391   -4.6555215    1937.7684  0.039222905  0.038688413           17 
 4118000   0.59545048   -4.6525444    1944.0856  0.039341218  0.038678852           16 
 4119000   0.59219119   -4.6943763    1936.5685  0.039179585  0.038669215           16 
 4120000   0.58307427   -4.6933538     1932.221   0.03908214  0.038659579            9 
 4121000   0.60359881   -4.6973804    1938.2486  0.039194543  0.038649895           17 
 4122000    0.5913846   -4.6898065    1938.9081  0.039198369  0.038640194           14 
 4123000   0.59682105   -4.6873223    1933.3402  0.039076323  0.038630514           22 
 4124000    0.5954158   -4.6701575    1933.3774  0.039067601  0.038620866           10 
 4125000   0.59003632   -4.6589545    1940.9932  0.039211984  0.038611243           21 
 4126000   0.58378457   -4.6813888    1942.2293  0.039227447  0.038601681           17 
 4127000    0.6020043   -4.6785736    1934.1702   0.03905521  0.038592053            7 
 4128000   0.59219676   -4.6656289    1937.1779  0.039106465  0.038582398           22 
 4129000   0.59915338   -4.6672067    1938.2908  0.039119457  0.038572811           29 
 4130000   0.57362043   -4.6806232    1939.4098  0.039132563  0.038563194           22 
 4131000   0.59909179   -4.6797083    1937.4769  0.039084098  0.038553574           12 
 4132000   0.58948343    -4.694555    1938.5552  0.039096386  0.038543947           14 
 4133000   0.60221043   -4.6626667    1939.6873  0.039109753  0.038534323           22 
 4134000   0.59297564   -4.6776722    1945.1734  0.039210882  0.038524742            9 
 4135000   0.58730217    -4.699037    1935.7866  0.039012226  0.038515126            8 
 4136000   0.58935518   -4.6656891    1937.6629  0.039040596  0.038505472           14 
 4137000   0.59556843   -4.6905837    1933.6893  0.038951118  0.038495906           12 
 4138000   0.59477191   -4.6721713    1938.2118  0.039032782  0.038486305            9 
 4139000   0.59452961   -4.6812268    1937.8035   0.03901513   0.03847674            9 
 4140000   0.60061228   -4.6824708    1941.8221  0.039086596  0.038467207            7 
 4141000   0.59762043   -4.6855537    1940.1192  0.039042887  0.038457654           16 
 4142000   0.59705696    -4.670141    1942.6689  0.039084761  0.038448108           15 
 4143000   0.58987262   -4.6751198    1936.2558  0.038946331  0.038438576           19 
 4144000   0.57948405   -4.6610328    1941.6437   0.03904528  0.038429028           10 
 4145000    0.6042367   -4.6709124    1935.5568  0.038913486  0.038419461           10 
 4146000   0.59235314   -4.6900799    1942.3592  0.039040827  0.038409859           19 
 4147000   0.58180255   -4.6933062    1938.6542  0.038956962  0.038400277           14 
 4148000   0.58057945   -4.7029816    1937.3304  0.038920974  0.038390713            9 
 4149000   0.57741086   -4.6939225    1936.9493  0.038903938  0.038381137           11 
 4150000   0.57480477   -4.6771628    1945.1527  0.039059292  0.038371555            8 
 4151000   0.59001625   -4.6897571     1937.381  0.038893861  0.038361971           14 
 4152000   0.58901807   -4.6996051     1940.466  0.038946411  0.038352396           18 
 4153000   0.58996669   -4.6915787    1940.4593    0.0389369  0.038342877           31 
 4154000   0.60220892   -4.6966452    1938.1182  0.038880561  0.038333308           14 
 4155000    0.5889638   -4.6923328    1942.2065  0.038953199  0.038323743           11 
 4156000   0.58235225   -4.6869731     1939.482  0.038889197  0.038314177            6 
 4157000   0.58010768   -4.6914419    1940.5961  0.038902175  0.038304592           18 
 4158000    0.5935283   -4.6865103    1936.2158   0.03880503   0.03829499           14 
 4159000   0.60129398   -4.6846871    1941.0681  0.038892925  0.038285395           13 
 4160000   0.57998899   -4.6802475    1939.4026  0.038850212  0.038275816           14 
 4161000   0.58308394   -4.6956979    1940.2346  0.038857537   0.03826626           14 
 4162000   0.57917762   -4.6917399    1940.5962  0.038855442  0.038256698           13 
 4163000   0.57860493   -4.6802896    1941.7303  0.038868811  0.038247177            6 
 4164000    0.5800217   -4.6817787    1940.2724    0.0388303  0.038237632           14 
 4165000   0.58867737    -4.693352    1940.0227   0.03881598  0.038228075           11 
 4166000   0.59358686   -4.7012439    1941.1236  0.038828684   0.03821849           11 
 4167000   0.59060446   -4.6816971    1938.8071   0.03877304   0.03820893            8 
 4168000   0.57875898   -4.6969949    1934.2873  0.038673371  0.038199321           11 
 4169000     0.577037   -4.6957711    1942.5219  0.038828694  0.038189728           18 
 4170000    0.5897103   -4.6733354    1942.8016  0.038824973  0.038180228           16 
 4171000   0.59661405   -4.6770914    1942.6452   0.03881254  0.038170708           21 
 4172000   0.58924472    -4.704182    1939.9553  0.038749506  0.038161168           15 
 4173000   0.57896362   -4.6940055     1938.811  0.038717369  0.038151572            7 
 4174000   0.58086772   -4.6886428    1941.0744  0.038753282  0.038142065            9 
 4175000   0.58410334    -4.685247    1942.0427  0.038763327  0.038132503           10 
 4176000   0.56908934   -4.6929338     1937.209  0.038657586  0.038122956           10 
 4177000   0.59397271    -4.701543    1940.7526  0.038719028  0.038113459           12 
 4178000    0.5796529   -4.7130386    1940.3319   0.03870137  0.038103998            9 
 4179000   0.58138324   -4.7042717    1937.1877  0.038629411   0.03809448           11 
 4180000   0.58812972   -4.7008453    1942.1184  0.038718468  0.038084969           11 
 4181000   0.56918123    -4.689239    1939.5748  0.038658511  0.038075459           13 
 4182000   0.58906001   -4.6949583    1944.2566  0.038742558  0.038065983            8 
 4183000   0.59067961   -4.6820565    1942.6244  0.038700781  0.038056496           10 
 4184000   0.59256639     -4.70452    1946.2285  0.038763315  0.038047036            5 
 4185000   0.57749771   -4.6979354    1941.5356  0.038660605  0.038037578            9 
 4186000   0.57605828   -4.6879592    1946.1089  0.038742414  0.038028109           15 
 4187000   0.57248487    -4.705908    1942.1154  0.038653678  0.038018591            8 
 4188000   0.58411059   -4.7046465    1944.2831  0.038687581  0.038009147           10 
 4189000   0.58295345   -4.6854253    1944.6929  0.038686499  0.037999704           16 
 4190000   0.58263032     -4.69805    1939.3288  0.038570582  0.037990279           13 
 4191000   0.57745163   -4.7154701    1942.4374  0.038623188  0.037980835           12 
 4192000   0.58170669   -4.6910575     1944.679  0.038658535   0.03797134           11 
 4193000   0.60050201   -4.7100309    1937.2763  0.038502191  0.037961931           13 
 4194000   0.57605608   -4.7128073    1945.8206  0.038662784  0.037952472           10 
 4195000   0.58327396    -4.715977    1945.3345  0.038643912  0.037943019           13 
 4196000   0.58266329   -4.7002437    1942.6105  0.038580603  0.037933576            6 
 4197000   0.57906073   -4.7153979    1943.7505  0.038594045  0.037924137            7 
 4198000   0.57981398   -4.6896608    1943.9409  0.038588632  0.037914696            7 
 4199000   0.57563343   -4.7121312    1942.3978  0.038548818  0.037905244            8 
 4200000   0.58952936   -4.7008367    1946.1465  0.038614018   0.03789586           10 
 4201000   0.57322942    -4.697588     1948.479  0.038651094  0.037886464           10 
 4202000   0.57658287   -4.7085127    1940.5866  0.038485376  0.037877079            8 
 4203000   0.58410246   -4.6939005    1940.9274  0.038482977   0.03786762           22 
 4204000   0.58856218   -4.7089954    1941.2741  0.038480696  0.037858213           10 
 4205000   0.57303733   -4.7044101    1947.3672  0.038592294   0.03784879           15 
 4206000   0.57833928   -4.6901577     1943.735  0.038511154  0.037839409           24 
 4207000   0.57369911    -4.697797    1949.8143   0.03862242   0.03783004           10 
 4208000   0.57029495    -4.700788    1945.3307  0.038524452  0.037820674           11 
 4209000   0.58552303   -4.7168416     1937.299   0.03835628  0.037811305            8 
 4210000   0.57782806   -4.6876856    1949.0174  0.038579126  0.037801921           14 
 4211000   0.57946523   -4.7178868    1944.0922  0.038472497  0.037792606            7 
 4212000   0.58044041   -4.7272648    1948.1627  0.038543895  0.037783244            8 
 4213000   0.58040325   -4.7085296    1943.6668  0.038445818  0.037773899           14 
 4214000   0.58774373   -4.6869714    1948.9174  0.038540529  0.037764585           10 
 4215000   0.58413637   -4.7142869    1942.9403  0.038413213  0.037755246            6 
 4216000   0.57940925   -4.7189034    1939.9458  0.038344912  0.037745883           12 
 4217000   0.57327575   -4.7043507    1941.7525  0.038371523  0.037736515           33 
 4218000   0.56738734   -4.7008005    1941.0398  0.038348344  0.037727091           17 
 4219000   0.58234071   -4.7267802    1942.5589  0.038369261  0.037717714           25 
 4220000   0.56029841   -4.7281987     1946.087  0.038429838   0.03770836           13 
 4221000   0.57302456   -4.7124806    1951.2181  0.038522034  0.037699049            9 
 4222000    0.5788893   -4.7154495    1944.8939  0.038388085  0.037689715            7 
 4223000   0.58963134   -4.7093993    1945.6174  0.038393272  0.037680389            9 
 4224000   0.58071556   -4.7237549    1944.2983  0.038358158  0.037671063           11 
 4225000   0.57553745   -4.7218461    1946.3212  0.038388979  0.037661746            8 
 4226000   0.57221617   -4.7203837    1946.0445  0.038374437  0.037652413            8 
 4227000   0.58101291   -4.7127751    1945.6945   0.03835846  0.037643059           15 
 4228000   0.57334072   -4.7450792    1943.8461  0.038312956  0.037633708           10 
 4229000   0.57737968   -4.7108101    1947.5635  0.038377148  0.037624382           13 
 4230000   0.56954921   -4.6963374    1950.4488  0.038424917  0.037615061           20 
 4231000   0.58021684   -4.7147637    1948.0164  0.038367927   0.03760576            8 
 4232000   0.57119384   -4.7171683    1948.2649  0.038363754  0.037596453            7 
 4233000   0.57200579   -4.6996612     1952.102   0.03843023  0.037587104           11 
 4234000   0.55787385   -4.7163929    1946.3924  0.038308779  0.037577816           14 
 4235000   0.57178256   -4.7188609    1949.8438  0.038367646  0.037568538           12 
 4236000   0.58134321   -4.7105093    1943.3974  0.038231772  0.037559241           11 
 4237000   0.58461671   -4.7368942    1943.8403  0.038231458  0.037549912           13 
 4238000   0.57578777   -4.7377143    1937.1399  0.038090685   0.03754054           18 
 4239000    0.5931904    -4.744433    1945.6348  0.038248698  0.037531189           11 
 4240000   0.58064368   -4.7334471    1944.4687   0.03821676  0.037521854           11 
 4241000   0.58522312   -4.7402697    1946.9257  0.038256026  0.037512517           11 
 4242000    0.5583182   -4.7224793    1946.9941  0.038248353  0.037503166            8 
 4243000   0.56725054   -4.7110572    1944.4343  0.038189063  0.037493832            9 
 4244000   0.56466645    -4.699315    1946.7448  0.038225432  0.037484541           13 
 4245000   0.59077905   -4.7433037    1942.5036  0.038133168  0.037475223           11 
 4246000   0.57980987   -4.7212256    1945.5006  0.038183008  0.037465909           13 
 4247000   0.58034764   -4.7005945    1946.3537  0.038190756    0.0374566            9 
 4248000   0.58737117   -4.7290332    1947.4245  0.038202773  0.037447298            7 
 4249000   0.57458349   -4.6934826    1951.1748  0.038267333   0.03743796            8 
 4250000   0.56631874   -4.7240861    1943.6753  0.038111281  0.037428645           15 
 4251000   0.57022481   -4.7152732    1947.7041  0.038181292  0.037419311           11 
 4252000   0.57547265   -4.7116977    1949.2716  0.038203034  0.037410009           28 
 4253000   0.55688805    -4.721208    1940.6506  0.038025131  0.037400741           23 
 4254000   0.56603423   -4.7302533    1943.5445  0.038072883  0.037391371           21 
 4255000   0.57834523   -4.7244775    1945.2239  0.038096825  0.037382063           21 
 4256000   0.57283012   -4.7402684     1947.861  0.038139509  0.037372741           11 
 4257000   0.56490406   -4.7215673    1946.5578  0.038105038  0.037363421           10 
 4258000   0.56981116   -4.7171137    1946.6845   0.03809857  0.037354069           13 
 4259000   0.56717683   -4.7211498    1945.9293  0.038074848  0.037344725            7 
 4260000   0.57843646   -4.7419965    1947.1467  0.038089725  0.037335392           24 
 4261000   0.57137818   -4.7362769    1944.4984  0.038028992  0.037326033           11 
 4262000   0.58053109   -4.7486626    1942.8526   0.03798789  0.037316628           13 
 4263000   0.56299115   -4.7389749    1940.7409  0.037937699  0.037307254           11 
 4264000   0.56937603   -4.7403072    1950.4305  0.038118169  0.037297912           12 
 4265000   0.55631145   -4.7267934    1945.2102  0.038007233  0.037288567           13 
 4266000   0.57439861   -4.7674434    1939.8236  0.037893101  0.037279169           10 
 4267000   0.57281289   -4.7548594    1941.8946  0.037924666  0.037269777           19 
 4268000   0.56087153   -4.7349584    1943.7101  0.037951227  0.037260426           16 
 4269000   0.58168341   -4.7425837    1944.9252  0.037966057  0.037251072           33 
 4270000   0.57471619   -4.7410256    1943.1992  0.037923481  0.037241747           10 
 4271000   0.56699423    -4.727672    1949.5532  0.038038578  0.037232431           41 
 4272000   0.56906236   -4.7228004    1946.3964  0.037968094  0.037223149            5 
 4273000    0.5621745   -4.7147252    1948.9284  0.038008588  0.037213841           14 
 4274000   0.56013864   -4.7290126    1944.3471   0.03791037  0.037204583            6 
 4275000   0.57387307   -4.7215229     1943.743  0.037889726  0.037195294           18 
 4276000   0.55595403    -4.730504    1946.6255  0.037937042  0.037186096            9 
 4277000   0.55745142   -4.7240233    1947.7314  0.037949719  0.037176843           13 
 4278000   0.57006385   -4.7095143     1950.336  0.037991585  0.037167601            9 
 4279000   0.57477038   -4.7317954    1945.2532  0.037883718   0.03715836           11 
 4280000    0.5676401   -4.7207582    1946.5937  0.037900968  0.037149117            9 
 4281000    0.5825091   -4.7197205    1947.0552  0.037901098  0.037139894           24 
 4282000    0.5646381   -4.7332668    1946.9427  0.037890058  0.037130653           12 
 4283000   0.55815698   -4.7324182    1946.6348   0.03787522  0.037121373           19 
 4284000   0.57184744   -4.7437526    1944.7267  0.037829263  0.037112101           15 
 4285000   0.55836593   -4.7350117    1942.3306  0.037773836  0.037102791           17 
 4286000   0.56493439   -4.7564857    1945.5936  0.037828465  0.037093487           14 
 4287000   0.56384401   -4.7433171    1947.4297  0.037855332  0.037084227           26 
 4288000   0.56821907   -4.7320545    1946.0672  0.037820025  0.037074929           15 
 4289000   0.55398413   -4.7360299    1945.1017  0.037792447  0.037065646           14 
 4290000   0.56426978   -4.7285208    1945.1567  0.037784707  0.037056323           19 
 4291000    0.5572532   -4.7254537    1948.8201  0.037847046   0.03704704           19 
 4292000   0.57146779   -4.7143549    1946.0251  0.037783961   0.03703777            8 
 4293000    0.5664612   -4.7359931    1948.1918  0.037817217  0.037028511            7 
 4294000   0.57093137   -4.7342407    1945.9661  0.037765217  0.037019245           11 
 4295000   0.56803142   -4.7355575    1947.7372  0.037790788  0.037009961           21 
 4296000   0.55799573   -4.7465241    1946.8065  0.037763937  0.037000679           14 
 4297000   0.57475817   -4.7478671    1948.8899  0.037795554  0.036991362           17 
 4298000   0.55022674   -4.7602534    1942.5686  0.037664197  0.036982054           25 
 4299000   0.55424719   -4.7538701    1947.3613  0.037748339  0.036972711           13 
 4300000   0.56589758   -4.7396185    1949.0302  0.037771903  0.036963449           17 
 4301000   0.56249715   -4.7348386    1950.8251  0.037797898  0.036954174           12 
 4302000   0.56052069   -4.7344696    1949.8891  0.037770981  0.036944897            9 
 4303000   0.57096287   -4.7578831    1943.3568  0.037635697  0.036935581           11 
 4304000   0.56341065   -4.7504105     1946.136  0.037680761  0.036926302           18 
 4305000   0.55822085    -4.761742    1948.2959  0.037713819  0.036917029           11 
 4306000   0.55307926   -4.7626596    1943.6232  0.037614631  0.036907728           13 
 4307000   0.56874178    -4.740631    1945.4953  0.037642119  0.036898423           26 
 4308000   0.55124872   -4.7359564    1947.3365  0.037668998  0.036889154           23 
 4309000   0.56747088   -4.7457826    1948.8871  0.037690242  0.036879895           10 
 4310000   0.56232892   -4.7236247    1944.9144  0.037604686  0.036870637           15 
 4311000   0.56091066   -4.7669847    1943.8384  0.037575164  0.036861385           13 
 4312000   0.57054929   -4.7420304    1947.0801  0.037629099  0.036852131            9 
 4313000   0.55365021   -4.7556168    1947.5547  0.037629544  0.036842871           11 
 4314000   0.54648912   -4.7497199    1947.4713  0.037619212  0.036833598           17 
 4315000    0.5556987   -4.7538008    1947.9491  0.037619719  0.036824341           17 
 4316000   0.55859838   -4.7474097    1941.9977  0.037496094  0.036815104           32 
 4317000   0.55627186   -4.7373263    1952.3141   0.03768655  0.036805857           26 
 4318000   0.56237395   -4.7350576      1950.42  0.037641268  0.036796636           22 
 4319000   0.56825576   -4.7380304    1944.9355  0.037526733   0.03678742           33 
 4320000   0.56577959    -4.749413    1947.9263  0.037575739  0.036778197           11 
 4321000    0.5575109   -4.7517325    1947.0879  0.037550875   0.03676892            7 
 4322000   0.56161641   -4.7667256    1946.4253   0.03752941   0.03675965           16 
 4323000   0.55695368   -4.7378725    1946.7493  0.037526975  0.036750407           29 
 4324000   0.55697192   -4.7466201    1944.1942  0.037469053   0.03674117           30 
 4325000   0.55621991   -4.7443147    1948.2846  0.037539201  0.036731924           23 
 4326000   0.55732885   -4.7399982    1946.7654   0.03750126  0.036722709           12 
 4327000   0.56737968   -4.7411328    1945.1427  0.037461341  0.036713437           11 
 4328000   0.55759644   -4.7651696    1947.8127  0.037504095  0.036704166           40 
 4329000    0.5477168   -4.7452772    1947.9182  0.037497463  0.036694935           15 
 4330000   0.54976868   -4.7297252    1948.2971  0.037496095  0.036685703           24 
 4331000   0.54666723   -4.7540576     1946.248   0.03744801  0.036676502           14 
 4332000   0.54914916   -4.7372463    1950.4203  0.037519627  0.036667279           21 
 4333000   0.55872611   -4.7700183    1945.0057  0.037406834  0.036658044           17 
 4334000    0.5536648   -4.7743156    1945.3912  0.037405614  0.036648792           13 
 4335000   0.56215451   -4.7398043    1947.8098   0.03744348  0.036639556            7 
 4336000    0.5628093   -4.7557797    1948.4659  0.037447454  0.036630319           44 
 4337000   0.55860774   -4.7614735    1944.0316  0.037353617  0.036621069           29 
 4338000   0.54500052   -4.7248044    1945.8227  0.037379413  0.036611873           14 
 4339000   0.55075492   -4.7584572    1945.5419  0.037365406  0.036602672           24 
 4340000   0.55151157   -4.7599797    1945.2174  0.037350564  0.036593444           33 
 4341000   0.55452284   -4.7480399    1944.1486  0.037321444   0.03658423            7 
 4342000   0.55718787   -4.7706607    1948.2784  0.037392108  0.036575017           12 
 4343000   0.56078921   -4.7540226    1948.8392   0.03739426  0.036565844            8 
 4344000   0.55175774    -4.748896     1947.166  0.037353553  0.036556692           11 
 4345000   0.55279424   -4.7574107    1947.7666  0.037356475  0.036547507           23 
 4346000   0.56251422   -4.7421292    1950.0026  0.037390755  0.036538335           17 
 4347000     0.560039   -4.7242906    1952.7306  0.037434448  0.036529213           15 
 4348000    0.5535876   -4.7507546    1950.7503  0.037387886  0.036520072           17 
 4349000    0.5552072   -4.7508829    1947.3813  0.037314733  0.036510887           17 
 4350000    0.5583909   -4.7619186    1947.4917   0.03730827  0.036501691           11 
 4351000   0.54715603   -4.7610099    1944.0254  0.037233307  0.036492501           18 
 4352000   0.54215435   -4.7632988    1952.0893  0.037379161  0.036483295           15 
 4353000    0.5513686   -4.7424284    1947.2145  0.037277251  0.036474169           14 
 4354000   0.54724026   -4.7601345     1950.767  0.037336683  0.036465006            7 
 4355000   0.54666497   -4.7596449    1948.3979  0.037282777  0.036455841           18 
 4356000   0.55222955   -4.7579601    1947.3189  0.037253575  0.036446704           14 
 4357000   0.55901259   -4.7612435    1946.9868  0.037238674  0.036437529           19 
 4358000   0.56151494   -4.7657645    1954.1583  0.037367262  0.036428373           29 
 4359000   0.55227719   -4.7559711    1952.0564  0.037318506  0.036419233           14 
 4360000    0.5509542   -4.7788916     1947.919  0.037230868  0.036410065           23 
 4361000   0.54791648   -4.7505828    1951.6799  0.037294197  0.036400915           24 
 4362000   0.55569657   -4.7491882    1952.1504  0.037294636  0.036391773           10 
 4363000    0.5469542    -4.772432    1951.1246  0.037266494  0.036382639           11 
 4364000   0.56798588   -4.7705753    1949.1696  0.037220624   0.03637351           21 
 4365000   0.55863066   -4.7842851    1944.3883  0.037120815  0.036364328           14 
 4366000    0.5534669   -4.7901692    1944.3779  0.037112115  0.036355119           28 
 4367000   0.55790597   -4.7556826    1945.2081  0.037119459  0.036345943           23 
 4368000    0.5560082   -4.7547244    1946.8848   0.03714295  0.036336774           30 
 4369000   0.54759276   -4.7733681    1952.5741  0.037242963   0.03632762           18 
 4370000   0.55416723   -4.7765023    1944.3713  0.037078019  0.036318435           21 
 4371000   0.55065756   -4.7642657    1948.2071  0.037142665  0.036309266           22 
 4372000    0.5552477   -4.7643859    1946.1006  0.037094019  0.036300119           20 
 4373000   0.56577028    -4.791376    1941.2985  0.036994026  0.036290963           28 
 4374000   0.55190229   -4.7710797    1944.0573  0.037038128  0.036281751           19 
 4375000   0.55467912   -4.7573431    1951.4682  0.037170823  0.036272571           24 
 4376000    0.5536858   -4.7670948    1949.9787  0.037133964  0.036263397           11 
 4377000   0.55061622   -4.7678952    1947.4376  0.037077099  0.036254203            8 
 4378000   0.55015333   -4.7905783    1950.0915  0.037119146  0.036245021           20 
 4379000   0.54901339   -4.7695375    1945.9533   0.03703192   0.03623587           24 
 4380000   0.56872773   -4.7829931    1948.9689  0.037080839  0.036226705           34 
 4381000   0.55198268   -4.7617539    1950.7876   0.03710697  0.036217566            7 
 4382000   0.54518231   -4.7738744    1949.0158  0.037064806  0.036208408           29 
 4383000   0.54988938   -4.7622923    1945.7468  0.036994197  0.036199299           19 
 4384000    0.5471326   -4.7796926    1948.9346  0.037046354  0.036190151           31 
 4385000   0.54112271   -4.7670731    1946.7449  0.036996292  0.036181036           18 
 4386000   0.54554398   -4.7758262     1942.708  0.036911157  0.036171879            9 
 4387000   0.54167512   -4.7774331    1948.2501  0.037008019  0.036162725           12 
 4388000   0.54805677   -4.7466373    1946.9822  0.036975506    0.0361536           14 
 4389000    0.5575494    -4.788146    1945.3368   0.03693584  0.036144474           22 
 4390000    0.5444051   -4.7859351    1946.4275  0.036948129  0.036135346           24 
 4391000   0.54469812    -4.750784    1944.5158  0.036903436  0.036126222           22 
 4392000   0.54968324   -4.7561573    1950.0895  0.037000787  0.036117139           16 
 4393000   0.54565544   -4.7632219    1947.9548  0.036951871  0.036108032           23 
 4394000   0.55427233   -4.7697076    1946.3338  0.036912719  0.036098903           23 
 4395000   0.55328015   -4.7726047    1949.3673  0.036961837  0.036089803           34 
 4396000    0.5545822   -4.7841162    1946.1455  0.036892356  0.036080669           14 
 4397000   0.55855094   -4.7949845    1943.8321   0.03684012  0.036071533           21 
 4398000   0.53947065   -4.7723645    1950.7269  0.036962386  0.036062444           27 
 4399000   0.54120454   -4.7812382    1946.2533  0.036869237    0.0360533           19 
 4400000   0.54114576   -4.7781777    1947.6592  0.036887486  0.036044186           21 
 4401000   0.54138652   -4.7777174    1948.7573  0.036899895  0.036035073           17 
 4402000   0.53921344   -4.7931876    1954.8233  0.037006347  0.036025948            9 
 4403000    0.5552613   -4.7710215    1950.7838  0.036921489  0.036016855           22 
 4404000   0.54976139   -4.7753636    1946.0887  0.036824264  0.036007751           16 
 4405000    0.5482693   -4.7758405    1948.8225  0.036867621  0.035998661           29 
 4406000   0.55551751   -4.7752737    1949.5517  0.036873046  0.035989588           27 
 4407000   0.54345468   -4.7797515    1948.9437  0.036853183  0.035980486           22 
 4408000   0.55016635   -4.7866828    1950.1631  0.036867875  0.035971383           20 
 4409000   0.55466706   -4.7712197    1945.2421  0.036766501  0.035962308           17 
 4410000    0.5354528   -4.7791244    1947.9989  0.036810258  0.035953211           11 
 4411000   0.55100819   -4.7645957    1949.7547  0.036835084  0.035944125           20 
 4412000   0.53944235    -4.772293    1952.4143   0.03687697  0.035935063           19 
 4413000   0.55514283   -4.7966873    1946.4091  0.036755214   0.03592598           21 
 4414000   0.54998481   -4.7720492    1950.4276  0.036822754   0.03591687           26 
 4415000   0.53834789   -4.7808389    1955.5692  0.036911461  0.035907801           18 
 4416000   0.55059979   -4.7648728    1951.5066  0.036826438  0.035898716           15 
 4417000   0.55146349   -4.7766395    1948.0824  0.036753497  0.035889664           15 
 4418000   0.55030131   -4.7602884    1948.0981  0.036745474  0.035880606            7 
 4419000   0.54324194   -4.7789234      1952.82  0.036826205  0.035871566           26 
 4420000   0.53182081   -4.7752473    1954.9814  0.036858624  0.035862588           11 
 4421000   0.55325362   -4.7647695    1952.4471  0.036802517  0.035853577           18 
 4422000   0.55036685   -4.7662237    1948.2243  0.036714614  0.035844562           13 
 4423000   0.54441718   -4.7956842    1947.4367  0.036691475  0.035835507           17 
 4424000   0.53562114   -4.7726809     1948.665  0.036706318  0.035826457           14 
 4425000   0.53962428   -4.7670376    1947.0343  0.036667312  0.035817439           16 
 4426000   0.54992108   -4.7745392    1950.3163  0.036720821  0.035808446           13 
 4427000   0.55423775   -4.7708898    1949.5303  0.036697732   0.03579945           18 
 4428000    0.5513493    -4.776435     1948.505  0.036670149  0.035790443           11 
 4429000   0.53261246   -4.7659523    1954.6728  0.036777917  0.035781432           14 
 4430000   0.54484066   -4.7811993    1954.2986  0.036762577  0.035772457           20 
 4431000   0.54041335   -4.8089746    1949.3897   0.03666196   0.03576345           12 
 4432000   0.53841699   -4.7733396    1944.6127  0.036563867  0.035754416           20 
 4433000   0.53923258   -4.8013068    1945.8517  0.036578909   0.03574536           12 
 4434000   0.53627844   -4.7629929    1951.6536  0.036679703  0.035736301           11 
 4435000   0.54946446   -4.7760937    1949.6011  0.036632865  0.035727287           20 
 4436000   0.54607717   -4.7794565    1953.9529  0.036706359  0.035718271           13 
 4437000   0.55416065   -4.8039157    1947.1476  0.036570273  0.035709227           19 
 4438000   0.54959436   -4.7647334    1948.4693   0.03658685  0.035700182            9 
 4439000   0.54223837   -4.7857716    1953.0293  0.036664212  0.035691192           15 
 4440000   0.54807097   -4.7798466    1949.3736  0.036587342  0.035682188           41 
 4441000   0.53247347    -4.806877    1949.0249  0.036572561  0.035673142           28 
 4442000   0.54007261   -4.7983332    1948.1854  0.036548578  0.035664095            6 
 4443000    0.5400444   -4.7836887    1950.7378  0.036588224  0.035655043           14 
 4444000   0.54455218    -4.782168    1953.0074  0.036622552  0.035646025           17 
 4445000   0.53862006   -4.8008521    1949.7907  0.036554007  0.035637003           22 
 4446000   0.53778965   -4.7810498    1951.5914  0.036579535  0.035627986           23 
 4447000   0.53665905   -4.7914453    1953.5563  0.036608131  0.035618962            9 
 4448000   0.54351361   -4.7768726    1947.1821  0.036480479  0.035609959           15 
 4449000   0.54455421   -4.7925468    1950.7116   0.03653839  0.035600958            8 
 4450000   0.53847444   -4.7903635    1952.7561  0.036568467   0.03559192           16 
 4451000   0.55012069   -4.8157998    1946.8745  0.036450133    0.0355829           36 
 4452000   0.52381429   -4.7907723    1951.0103  0.036519359  0.035573868           32 
 4453000   0.53514548   -4.7973887    1945.1236  0.036400996  0.035564834           17 
 4454000   0.54284008   -4.7864237     1948.122  0.036448922  0.035555822           13 
 4455000    0.5445099   -4.7813942    1951.0732  0.036495945  0.035546824           13 
 4456000   0.54009017   -4.7810893    1954.2593  0.036547338  0.035537847            8 
 4457000   0.52811554    -4.761553     1951.137   0.03648076    0.0355289            8 
 4458000   0.52906801   -4.7813555    1951.0598  0.036471135   0.03551995           24 
 4459000   0.54292169   -4.7935881    1951.0247  0.036462298  0.035510971           19 
 4460000   0.54404756    -4.792414    1951.1261  0.036456018  0.035501989            7 
 4461000   0.53908305    -4.784138    1960.1954  0.036617264  0.035493034           21 
 4462000   0.54849894   -4.8011501    1950.1335  0.036421139   0.03548409           17 
 4463000   0.53931994   -4.7902038    1949.8132  0.036406999  0.035475149           24 
 4464000   0.53791676   -4.8029177    1951.8898  0.036437607  0.035466179           13 
 4465000   0.53178303     -4.79639    1950.9039  0.036411047  0.035457226           14 
 4466000   0.54684605   -4.7944718    1950.1286  0.036388427  0.035448267           19 
 4467000   0.53518701   -4.7834249    1952.0769  0.036416628  0.035439308            8 
 4468000   0.53472678   -4.7926516    1953.6587  0.036437979  0.035430348            6 
 4469000   0.52625428   -4.7969233    1948.7484  0.036338263  0.035421397           12 
 4470000   0.53243983   -4.7930305    1952.9786  0.036408997   0.03541241           25 
 4471000   0.52930234   -4.8157095    1948.0548  0.036309082   0.03540341           25 
 4472000   0.54508194   -4.8061813    1946.6696   0.03627515  0.035394426           38 
 4473000   0.53725213    -4.799169    1953.3412  0.036391334  0.035385431           16 
 4474000   0.53657936   -4.7852059    1956.4753  0.036441576  0.035376463           22 
 4475000   0.53899095   -4.8119024    1945.8788  0.036236104  0.035367506           18 
 4476000     0.536714   -4.7963711     1955.701  0.036410876   0.03535855           14 
 4477000   0.53660759   -4.8176894    1948.0449  0.036260235  0.035349605           10 
 4478000   0.53867566   -4.8081837    1950.2731  0.036293604  0.035340627           22 
 4479000   0.52801153    -4.804452    1952.4206  0.036325455  0.035331677           27 
 4480000   0.54459497   -4.8193503    1946.1952  0.036201548  0.035322727           18 
 4481000   0.54836735   -4.7956498    1955.1606  0.036360199  0.035313762           26 
 4482000   0.52629976   -4.8097546    1950.4257   0.03626405  0.035304833           19 
 4483000   0.53572959   -4.8164453    1950.6119  0.036259422  0.035295878           16 
 4484000    0.5299961   -4.8235883    1951.9194  0.036275636  0.035286911           35 
 4485000   0.53599306   -4.8210298    1951.7802  0.036264961  0.035277922           28 
 4486000   0.52772581   -4.8164205    1947.5266  0.036177861  0.035268934           29 
 4487000   0.52698774   -4.8198725    1948.9637  0.036196488  0.035259943           55 
 4488000   0.53650247   -4.8104705    1952.8549  0.036260676  0.035250964           25 
 4489000   0.52784393   -4.8212725    1947.8815  0.036160272  0.035241997           24 
 4490000   0.53315111   -4.8160169    1949.4361  0.036181071  0.035233015           13 
 4491000   0.52974921   -4.8159899    1947.6176  0.036139271  0.035224027           12 
 4492000   0.52571262   -4.8222708    1950.1663  0.036178507  0.035215091           40 
 4493000   0.52501336   -4.7974158    1950.0479  0.036168261  0.035206135           15 
 4494000   0.53968233   -4.8280373    1946.8308  0.036100557  0.035197186           15 
 4495000   0.53001334   -4.8180537    1950.9402   0.03616871  0.035188211           21 
 4496000   0.52483977    -4.823754    1947.9111   0.03610452  0.035179228           13 
 4497000   0.53156513   -4.8000182    1951.6335  0.036165471  0.035170246           31 
 4498000   0.52994365   -4.8125171    1948.7175  0.036103406  0.035161282           18 
 4499000   0.52948628   -4.7998718    1951.1642  0.036140702  0.035152338           10 
 4500000   0.52788167   -4.8043883    1951.2582  0.036134412  0.035143433           25 
 4501000   0.52800984   -4.7962675    1951.6949  0.036134468  0.035134503           14 
 4502000   0.52438952   -4.8082642    1949.3873  0.036083727  0.035125578           10 
 4503000   0.53051145    -4.803793    1954.3154  0.036166915  0.035116655            7 
 4504000   0.52457226   -4.8003569    1946.6285  0.036016662  0.035107713           12 
 4505000   0.54000294   -4.7964032    1947.6881  0.036028266  0.035098751           13 
 4506000   0.52879263   -4.7890043     1952.911  0.036116862  0.035089814           16 
 4507000   0.53010806    -4.798384    1950.5824  0.036065794  0.035080904           14 
 4508000   0.53313592   -4.8022099    1953.1317   0.03610492  0.035071992           18 
 4509000   0.53557245   -4.7932288     1954.369  0.036119779  0.035063098           11 
 4510000   0.53282373   -4.8199328    1953.0435  0.036087279  0.035054227           18 
 4511000   0.52123444    -4.798376     1951.625  0.036053075  0.035045326           11 
 4512000   0.51341741   -4.7949079    1952.1783  0.036055302   0.03503642           17 
 4513000   0.53658019   -4.8136969    1944.7382   0.03590993  0.035027509           10 
 4514000   0.51509867   -4.8129266    1950.4442  0.036007315  0.035018583            5 
 4515000   0.52897308   -4.8060987    1950.4405  0.035999272  0.035009646           14 
 4516000   0.54482108    -4.822506    1948.6028  0.035957388  0.035000771           25 
 4517000   0.54291309    -4.798323    1954.8397  0.036064492  0.034991904           23 
 4518000   0.53049778   -4.8065026    1955.6886  0.036072167  0.034983017            7 
 4519000   0.52030273   -4.8061189    1950.9111  0.035976084  0.034974114           18 
 4520000   0.52298351    -4.808575     1947.015  0.035896295  0.034965231           22 
 4521000    0.5322764   -4.8019945    1949.2618  0.035929769  0.034956331           15 
 4522000   0.52451562   -4.8394395     1951.545    0.0359639  0.034947431           12 
 4523000   0.53100097   -4.8024806    1949.8973   0.03592559  0.034938518           20 
 4524000   0.52602645   -4.8090072    1946.4195  0.035853587  0.034929638           16 
 4525000   0.53408294   -4.8026641    1950.7451  0.035925325  0.034920731           11 
 4526000   0.52106609   -4.7947248    1954.3494   0.03598375  0.034911827           13 
 4527000   0.52315031   -4.7974491    1950.2553  0.035900437  0.034902926           22 
 4528000   0.52462708   -4.8078554    1951.0359  0.035906875  0.034894012            9 
 4529000   0.53802591   -4.8194653    1950.0558  0.035880912  0.034885109           18 
 4530000   0.54014042   -4.7993673    1952.2423  0.035913215  0.034876195           13 
 4531000   0.53226197   -4.8206588    1949.2725  0.035850667  0.034867308           36 
 4532000   0.52571316   -4.8030905    1948.0163  0.035819657  0.034858413           15 
 4533000    0.5170519   -4.8130927    1952.5792  0.035895639  0.034849524           18 
 4534000   0.52868982   -4.8058875     1952.425  0.035884888  0.034840643           15 
 4535000   0.52587268   -4.8129354    1952.5877  0.035879966  0.034831772           28 
 4536000   0.52989708   -4.8159686     1948.241  0.035792199  0.034822902           46 
 4537000   0.52623852   -4.8402901    1947.4202  0.035769234  0.034813995           38 
 4538000   0.52434829   -4.8285211    1951.9861  0.035845198  0.034805097           13 
 4539000   0.53244896   -4.8190719    1945.2921  0.035714402  0.034796178           19 
 4540000   0.51858931   -4.8457487    1946.8073  0.035734348  0.034787265            8 
 4541000   0.52134897   -4.8147726    1951.5855  0.035814166  0.034778386            5 
 4542000   0.53106754   -4.8079797    1952.0896  0.035815529  0.034769504           14 
 4543000   0.52942127   -4.7974769    1951.5338  0.035797451  0.034760666            8 
 4544000   0.53051075   -4.8116513    1949.6113  0.035754315  0.034751845            9 
 4545000   0.52934726   -4.8137503    1951.2998  0.035777407  0.034743022            9 
 4546000   0.52694979   -4.8190675    1951.5067  0.035773331  0.034734187           12 
 4547000   0.52292436   -4.8218544    1950.6747  0.035750214  0.034725318           16 
 4548000   0.52723631    -4.818981    1946.9385  0.035673894  0.034716441            8 
 4549000   0.52575874   -4.8248774    1951.5887   0.03575124  0.034707575           28 
 4550000   0.51685893   -4.8329572    1949.6348  0.035707598  0.034698686           15 
 4551000    0.5171888   -4.8246599    1951.1984  0.035728382  0.034689832           11 
 4552000   0.52176104   -4.8280018    1950.6896  0.035711218  0.034681031            8 
 4553000   0.51933054   -4.8221258     1951.489  0.035718006  0.034672193           12 
 4554000   0.52962615   -4.8252618     1947.836  0.035643317  0.034663326           13 
 4555000   0.52685494   -4.8392653    1943.9674  0.035564716  0.034654434           13 
 4556000   0.52466099   -4.8492368    1949.0692  0.035650227  0.034645551            8 
 4557000   0.52119961    -4.832398    1948.3539  0.035629323  0.034636684           16 
 4558000   0.52129671   -4.8295586    1950.8736  0.035667573  0.034627848           19 
 4559000   0.52826941   -4.8456188    1944.9302  0.035551112  0.034618964           12 
 4560000   0.52401495   -4.8399342     1944.706  0.035539218  0.034610063           16 
 4561000   0.52243322   -4.8286103    1952.1043  0.035666599  0.034601194           32 
 4562000   0.53086961   -4.8419976    1950.6619  0.035632432  0.034592288           13 
 4563000   0.53262114   -4.8392706    1948.8876  0.035592219  0.034583391           16 
 4564000   0.53566823   -4.8294302    1953.9375  0.035676627  0.034574496           13 
 4565000   0.51614494     -4.84516    1951.2418  0.035619601  0.034565616           10 
 4566000   0.51791998   -4.8505304     1945.632  0.035509418  0.034556736           12 
 4567000   0.52206929   -4.8261984    1948.2109  0.035548699  0.034547834           16 
 4568000   0.52240575   -4.8349455     1944.821  0.035479075  0.034538927           36 
 4569000   0.50863378   -4.8476862    1950.0436  0.035566564  0.034529988           22 
 4570000     0.528942   -4.8296347    1949.8872   0.03555593  0.034521068           26 
 4571000   0.51523594   -4.8405682    1947.4445  0.035503618  0.034512199           17 
 4572000   0.51703688   -4.8101081     1947.545  0.035497685  0.034503321           13 
 4573000   0.51625683   -4.8293677    1951.2462   0.03555737  0.034494467           11 
 4574000   0.51906206   -4.8109969    1947.8223  0.035487216  0.034485629           15 
 4575000   0.51262365   -4.8267868    1953.9082  0.035590313  0.034476772           22 
 4576000   0.51579007   -4.8377254    1948.2165  0.035478885  0.034467927           26 
 4577000   0.51332195   -4.8455812     1956.114  0.035614922  0.034459072           22 
 4578000    0.5245783   -4.8214572    1947.9319  0.035458204  0.034450208           15 
 4579000   0.51522711   -4.8186122    1948.6084  0.035462771  0.034441382           18 
 4580000   0.52302398   -4.8224672    1945.9688  0.035407002  0.034432537           35 
 4581000   0.51504632   -4.8354922    1946.9823  0.035417709  0.034423697           22 
 4582000   0.52328926   -4.8382817    1945.3815  0.035380865  0.034414815            8 
 4583000   0.52292408   -4.8442999    1946.2568  0.035389061  0.034405965           10 
 4584000   0.51992725   -4.8399992    1947.0987  0.035396646  0.034397112           35 
 4585000   0.51343124    -4.850912    1947.1383  0.035389645  0.034388239           24 
 4586000   0.51196296   -4.8423808    1948.5428   0.03540745  0.034379417           18 
 4587000   0.51845361   -4.8202609    1949.2174  0.035411987  0.034370565           15 
 4588000   0.51556833   -4.8155132    1956.0599  0.035528552   0.03436174           17 
 4589000   0.50926178   -4.8413681    1947.1612  0.035359214  0.034352917           19 
 4590000   0.52308289   -4.8385845    1949.0809  0.035386363  0.034344105           11 
 4591000   0.50618888   -4.8412104    1945.2722  0.035309523  0.034335274           16 
 4592000   0.52662651   -4.8410924    1944.3444  0.035284995  0.034326409           38 
 4593000   0.51549572   -4.8646982    1947.4914   0.03533441  0.034317517           16 
 4594000   0.51272098   -4.8416876    1946.5571  0.035309772  0.034308628           19 
 4595000   0.52346236   -4.8547118    1946.4021  0.035299276  0.034299753           25 
 4596000   0.51638902   -4.8483211    1945.7052  0.035278961  0.034290849           21 
 4597000   0.51018028   -4.8547565    1943.0855  0.035223796  0.034281941           16 
 4598000    0.5201442   -4.8597622    1948.9625   0.03532265  0.034273068           19 
 4599000    0.5225328   -4.8357094    1947.0806  0.035280868  0.034264178           17 
 4600000   0.51827122   -4.8479325    1941.9495  0.035180245  0.034255315           13 
 4601000   0.51288053    -4.844777    1946.5753   0.03525638  0.034246433           12 
 4602000    0.5102721   -4.8490244    1944.5128  0.035211372  0.034237562           35 
 4603000   0.50673846   -4.8208299    1943.8106   0.03519101  0.034228697           26 
 4604000   0.52500832   -4.8477345    1941.8097  0.035147149  0.034219845           25 
 4605000   0.52198229   -4.8579213     1946.192   0.03521882  0.034210983           30 
 4606000   0.52300631    -4.853758    1946.6849  0.035220092  0.034202118           19 
 4607000   0.51796828   -4.8382408    1948.2687  0.035241095  0.034193265           12 
 4608000   0.51825944   -4.8343476     1945.203  0.035178006  0.034184418           11 
 4609000   0.51820265   -4.8360689    1947.2206  0.035206852  0.034175602            9 
 4610000   0.51134015   -4.8388785    1947.8917  0.035211346  0.034166768           13 
 4611000   0.50189286   -4.8402709    1947.1738  0.035190735  0.034157932           18 
 4612000   0.50014473   -4.8351809    1948.3014   0.03520348  0.034149111           43 
 4613000   0.50857041   -4.8445813    1944.7526   0.03513174  0.034140295           27 
 4614000   0.50758376   -4.8484126    1948.1655  0.035185767  0.034131479           19 
 4615000   0.51073641   -4.8425427    1942.1723  0.035069923  0.034122673           19 
 4616000   0.51185649   -4.8603445    1950.3618  0.035210171  0.034113867           13 
 4617000   0.51029441   -4.8591362    1946.6521  0.035135588  0.034105035           11 
 4618000   0.51036039   -4.8317262    1948.4461  0.035160352   0.03409623           22 
 4619000    0.5086102   -4.8475514    1948.4376  0.035152587  0.034087439           19 
 4620000   0.52005797   -4.8265246    1950.0242  0.035173597  0.034078615           23 
 4621000   0.51061655   -4.8452623    1948.9533  0.035146672  0.034069811           15 
 4622000   0.51518496   -4.8358127    1948.8767  0.035137687  0.034061025           21 
 4623000    0.5200207   -4.8529769    1946.4588  0.035086502  0.034052236           30 
 4624000   0.51641574   -4.8555341    1942.8457    0.0350138  0.034043416           41 
 4625000   0.50931231    -4.850835    1945.6778  0.035057257  0.034034577           21 
 4626000   0.53286018   -4.8396704    1950.6991  0.035140133  0.034025768           39 
 4627000   0.51011972   -4.8657255    1947.7045  0.035078606  0.034016964           25 
 4628000   0.51515544   -4.8391072    1947.2567  0.035062964  0.034008149           31 
 4629000   0.51436623   -4.8345196    1944.3033  0.035002219  0.033999382           24 
 4630000   0.52147219     -4.84003    1947.1801  0.035046438  0.033990614           29 
 4631000   0.51611974   -4.8552094    1944.9872   0.03499941    0.0339818           10 
 4632000   0.51139369    -4.864571    1946.0454  0.035010892  0.033972988           20 
 4633000   0.51847059   -4.8455079    1943.2847  0.034953678  0.033964157           13 
 4634000   0.49902819   -4.8460693    1945.5009  0.034985989  0.033955335           12 
 4635000   0.50551522    -4.857452    1949.7836   0.03505544  0.033946556            9 
 4636000   0.50683233   -4.8354384    1947.4203  0.035005399  0.033937788            9 
 4637000   0.51720363   -4.8681256    1944.3317  0.034942343  0.033929012           10 
 4638000   0.51843715   -4.8557505    1944.7231  0.034941841  0.033920216           19 
 4639000   0.51748685   -4.8546057    1946.5262    0.0349667  0.033911396           16 
 4640000    0.4951349   -4.8400661    1946.5193   0.03495904  0.033902577           10 
 4641000   0.51452004   -4.8555527    1942.4502  0.034878442  0.033893759           47 
 4642000   0.50761304   -4.8443882    1946.7138  0.034947468  0.033884963           16 
 4643000   0.50737527   -4.8723285    1940.7637  0.034833149  0.033876176           86 
 4644000   0.52278363   -4.8624552    1947.9968  0.034955441  0.033867385           30 
 4645000   0.50344781   -4.8601261     1946.576  0.034922425  0.033858603           33 
 4646000   0.52216535   -4.8667878    1945.7015  0.034899223  0.033849784           35 
 4647000   0.53179126   -4.8706337    1944.3396  0.034867291  0.033840994          101 
 4648000     0.509098   -4.8732201    1946.9933  0.034907366  0.033832198           52 
 4649000   0.50276138   -4.8669708    1945.6152  0.034875156  0.033823402           26 
 4650000   0.50576811   -4.8561195    1943.0163  0.034821081   0.03381461           28 
 4651000   0.49854707   -4.8526587    1944.7729  0.034845068  0.033805794           58 
 4652000   0.49867695   -4.8460804    1943.2907  0.034811026  0.033797013           23 
 4653000   0.50622865   -4.8572352     1945.834  0.034849094  0.033788245           33 
 4654000   0.50336494   -4.8546356    1946.3226  0.034850354  0.033779447           38 
 4655000   0.49818535   -4.8598949    1942.3271   0.03477134  0.033770681           23 
 4656000   0.51032614    -4.853178     1948.818  0.034880047    0.0337619           27 
 4657000   0.50018644   -4.8665034    1946.1208  0.034824292  0.033753143           14 
 4658000   0.50785245   -4.8578864    1946.6974  0.034827133  0.033744396           32 
 4659000   0.51611483   -4.8470412    1948.3071   0.03484845  0.033735639           23 
 4660000   0.49590235   -4.8590321    1950.4711  0.034879669  0.033726868           25 
 4661000   0.50022555   -4.8628488    1944.7655  0.034770176  0.033718097           23 
 4662000    0.5029775   -4.8394885    1947.0457  0.034803477  0.033709321           26 
 4663000   0.51734328   -4.8726666    1947.9992  0.034813053  0.033700555           29 
 4664000    0.4995834   -4.8564954    1942.6852  0.034710642  0.033691803           20 
 4665000   0.50223538   -4.8475736    1947.5239  0.034789637  0.033683052           39 
 4666000   0.50910555   -4.8531533    1949.5963  0.034819194  0.033674278           53 
 4667000   0.50039702   -4.8651344    1941.7609  0.034671826  0.033665501           35 
 4668000   0.50742464   -4.8668373    1945.3457  0.034728393  0.033656738           41 
 4669000   0.51054445   -4.8925053    1943.2444  0.034683451   0.03364797           16 
 4670000   0.50770999   -4.8797421    1939.8075  0.034614694  0.033639178           20 
 4671000   0.50163389    -4.889818    1941.5093  0.034637646  0.033630389           15 
 4672000   0.51364914    -4.876208    1942.0762  0.034640344   0.03362161           28 
 4673000   0.49985171   -4.8699789    1944.7257  0.034680179   0.03361282           30 
 4674000   0.50948962   -4.8697253    1948.4494  0.034739149  0.033604064           14 
 4675000    0.4958482   -4.8652036    1944.2324  0.034656549  0.033595303           33 
 4676000   0.49364259   -4.8789257    1945.1609  0.034665684  0.033586526           20 
 4677000   0.50445282   -4.8703872    1944.8976  0.034653582  0.033577751           32 
 4678000   0.51119424   -4.8777911      1946.23  0.034669909  0.033568963           21 
 4679000   0.48068657   -4.8556586    1944.0654  0.034623948  0.033560211            9 
 4680000   0.50128822    -4.869922    1943.0547  0.034598553  0.033551445           11 
 4681000   0.49721563   -4.8855064    1942.9705  0.034589662  0.033542655           19 
 4682000   0.50233654   -4.8859942    1944.9555  0.034617604  0.033533862           23 
 4683000    0.5112057   -4.8682807    1940.0032  0.034522087  0.033525071           16 
 4684000   0.49560477   -4.8761149    1943.7143  0.034580741  0.033516327           17 
 4685000   0.50207581   -4.8595847    1947.7964  0.034645969  0.033507617           28 
 4686000   0.50410171   -4.8736366    1939.0988  0.034483902  0.033498899           15 
 4687000   0.50110407   -4.8546567    1945.4798  0.034589998  0.033490186           29 
 4688000   0.49361732   -4.8623758    1948.4619  0.034635629  0.033481532           19 
 4689000   0.50454343   -4.8498992    1947.8112  0.034616678  0.033472859           15 
 4690000   0.49688319   -4.8694701    1942.1282   0.03450832  0.033464195           17 
 4691000   0.51062834   -4.8735125    1946.9198  0.034586084  0.033455513           24 
 4692000   0.50019586   -4.8698219    1943.4394  0.034516897  0.033446814           24 
 4693000   0.50110825   -4.8682475    1946.3772  0.034561708  0.033438152           14 
 4694000   0.49463644   -4.8768033    1949.0907   0.03460252  0.033429479           23 
 4695000   0.49721483   -4.8715741    1949.7935  0.034607623  0.033420801           14 
 4696000   0.50102921   -4.8640571    1949.7321  0.034599163  0.033412135           51 
 4697000   0.49702264   -4.8708701    1947.4463  0.034551244  0.033403465           41 
 4698000   0.49949156   -4.8713861    1940.5172  0.034420981  0.033394743           27 
 4699000   0.50022091   -4.8908068    1939.7534   0.03440011  0.033386007           88 
 4700000   0.49772855   -4.8677435    1945.5649  0.034495832  0.033377296           74 
 4701000   0.50776749   -4.8798465    1948.0778  0.034533039  0.033368597           46 
 4702000   0.50364618   -4.8703152    1947.4264  0.034514151  0.033359912           66 
 4703000   0.49701799   -4.8695269    1943.5864  0.034438769  0.033351215           49 
 4704000   0.50181285   -4.8862713    1941.6127  0.034396484  0.033342491           39 
 4705000    0.4953036   -4.8554835    1949.3406  0.034526046  0.033333803           53 
 4706000   0.49316733   -4.8776485     1943.539  0.034415976  0.033325096           48 
 4707000   0.50652329   -4.8718357    1944.9879  0.034434316  0.033316395           28 
 4708000   0.49409606   -4.8681423    1948.0367  0.034480966  0.033307712           30 
 4709000   0.49358009   -4.8901335    1946.9594   0.03445458  0.033299024           32 
 4710000   0.49547462   -4.8797756    1945.1098  0.034414541   0.03329033           28 
 4711000   0.49845329   -4.8969116    1946.1497   0.03442563  0.033281631           29 
 4712000   0.50606535   -4.8815854    1943.4618  0.034370788  0.033272926           37 
 4713000   0.49238148    -4.886017    1942.4046  0.034344802  0.033264219           30 
 4714000   0.48820571   -4.8823251     1943.363  0.034354458  0.033255537           23 
 4715000   0.50072989   -4.8806817    1944.5878  0.034368819  0.033246869           13 
 4716000   0.49032647     -4.88432    1946.6852  0.034398593   0.03323819           26 
 4717000   0.48691114   -4.8846742    1944.1294  0.034346148  0.033229504           21 
 4718000   0.50019178   -4.8784572    1947.3218  0.034395256  0.033220826           26 
 4719000   0.49241884   -4.8860644    1944.5158  0.034338415  0.033212144           50 
 4720000   0.49956676    -4.874155    1943.7213  0.034317113   0.03320348           11 
 4721000   0.48583071   -4.8858329    1946.0089  0.034350224  0.033194806           24 
 4722000   0.49582805   -4.8751088    1945.5072  0.034334095  0.033186157           35 
 4723000   0.49863786   -4.8650793    1947.1735  0.034356227  0.033177511           24 
 4724000   0.49643665   -4.8716273    1949.2989  0.034386446  0.033168891           25 
 4725000   0.50681064   -4.8885766    1942.0718  0.034251708  0.033160221           25 
 4726000   0.49989832   -4.8783842    1946.2197  0.034317599  0.033151574           28 
 4727000   0.48685299   -4.8990134    1942.4379  0.034243669  0.033142912           22 
 4728000   0.49706071   -4.8721039    1940.9488  0.034210181  0.033134238           37 
 4729000     0.497473   -4.8708385    1946.6795  0.034303931  0.033125555           51 
 4730000   0.48310084   -4.8624283    1940.3044  0.034184362  0.033116872           70 
 4731000   0.49013389   -4.8934869    1945.4063  0.034267002  0.033108198           33 
 4732000   0.49374116    -4.882983    1940.3879  0.034171385  0.033099525           59 
 4733000   0.48723953   -4.8764957    1945.4968  0.034254117  0.033090892           34 
 4734000   0.50062401   -4.8755104    1940.3619   0.03415649  0.033082242           29 
 4735000   0.48682238   -4.9066987    1942.0011  0.034178126  0.033073598           51 
 4736000   0.49544771   -4.8767034    1944.2363   0.03421024  0.033064929           19 
 4737000    0.4912021   -4.8747512    1944.6183  0.034209738  0.033056262           21 
 4738000   0.48913494   -4.8886522    1946.7277  0.034239618  0.033047577           40 
 4739000   0.49254747    -4.880611    1941.8727  0.034147019  0.033038911           20 
 4740000   0.50217764   -4.9031399    1942.7483   0.03415521  0.033030226           23 
 4741000   0.48796174   -4.9000479    1943.2254  0.034156391  0.033021534           28 
 4742000    0.4909676   -4.8928506    1945.4707  0.034188645  0.033012884           26 
 4743000   0.49493955    -4.888565    1939.3089  0.034073177  0.033004217           36 
 4744000   0.49398285   -4.8955093    1941.3991   0.03410271  0.032995558           35 
 4745000   0.49554602    -4.922476    1940.5972  0.034081439  0.032986878           13 
 4746000   0.48484229   -4.8917148    1944.1471   0.03413659    0.0329782           23 
 4747000    0.4953671   -4.8987426    1937.2722  0.034008711  0.032969511           20 
 4748000    0.4919293   -4.8941651    1947.2782  0.034177166  0.032960842           26 
 4749000   0.49065684   -4.8885446    1943.7381  0.034107849  0.032952189           43 
 4750000   0.49803595   -4.8679941    1941.7251  0.034065353  0.032943559           23 
 4751000    0.4757452   -4.8937987    1941.2572  0.034049975  0.032934923           12 
 4752000   0.49730038   -4.8891322    1946.3294  0.034131759  0.032926289           34 
 4753000   0.48903468   -4.8718445    1943.9894  0.034083551  0.032917668           43 
 4754000     0.487854   -4.8764144    1939.1826  0.033992123   0.03290905           66 
 4755000   0.49439837    -4.867259    1941.5306  0.034026123  0.032900425           42 
 4756000   0.48784545   -4.8723907    1945.7679  0.034093214  0.032891797           25 
 4757000   0.48531381   -4.8891002    1943.6357  0.034048694  0.032883167           41 
 4758000    0.4902551   -4.8881411    1943.1078  0.034032293  0.032874549           36 
 4759000   0.49208408   -4.8936903    1945.5045   0.03406711  0.032865897           42 
 4760000   0.50184381   -4.9082725    1940.4044  0.033970664  0.032857266           43 
 4761000   0.49228852   -4.9044741    1947.2061  0.034082583  0.032848617           46 
 4762000   0.48515162   -4.8883722    1939.3376  0.033937729  0.032839967           26 
 4763000   0.48315012   -4.8915148    1941.6432  0.033970942  0.032831304           44 
 4764000   0.47819265    -4.902875    1942.0238   0.03397047  0.032822662           39 
 4765000   0.49313601   -4.8710827    1942.7061  0.033975273  0.032814016           83 
 4766000   0.48530148   -4.9005546    1946.6986  0.034037953    0.0328054           99 
 4767000   0.50399818   -4.9025755    1945.2524  0.034005532  0.032796772          124 
 4768000   0.49477584   -4.9011378    1943.0889  0.033960586  0.032788119           92 
 4769000   0.48348887   -4.9137702    1944.7067  0.033981734  0.032779492          137 
 4770000   0.48542081   -4.9013195    1941.7345  0.033922685  0.032770868          103 
 4771000    0.4938322   -4.8935323    1943.9741  0.033954694  0.032762261           36 
 4772000   0.48430851   -4.9119929    1945.7627  0.033978813  0.032753637           25 
 4773000   0.49210379   -4.9021717    1938.9678   0.03385306  0.032745019           75 
 4774000   0.48501109   -4.8920263     1942.529  0.033908131   0.03273641           57 
 4775000   0.50117006   -4.9000047    1943.7844  0.033922939  0.032727797           21 
 4776000    0.4837229    -4.905431    1940.3965  0.033856723  0.032719175           25 
 4777000   0.50858055   -4.9079062    1941.3303  0.033865925  0.032710568           35 
 4778000   0.48612167   -4.8939207    1938.8285  0.033815203  0.032701968           38 
 4779000    0.4835767   -4.9089137    1944.1516  0.033900948  0.032693358           41 
 4780000   0.48346747   -4.9129662    1940.4265  0.033828914  0.032684742           37 
 4781000   0.48131979   -4.9217725    1939.0718  0.033798225  0.032676112           20 
 4782000   0.48013709   -4.9024438    1937.5761  0.033765093  0.032667492           28 
 4783000   0.49063382    -4.890272    1940.1216  0.033802384  0.032658896           33 
 4784000   0.48617368   -4.9137102      1939.69    0.0337878  0.032650293           30 
 4785000   0.48148664   -4.9106953     1940.334  0.033791954  0.032641673           71 
 4786000   0.47364532   -4.9102008    1941.3334  0.033802295   0.03263305           48 
 4787000   0.48338758   -4.9173147     1944.414  0.033848862  0.032624431           94 
 4788000   0.46985692   -4.9206097    1938.2105  0.033733822  0.032615824          135 
 4789000   0.49560673   -4.9219632     1941.268  0.033779982  0.032607204          110 
 4790000    0.4807179   -4.9048994    1942.2938  0.033790777  0.032598594           34 
 4791000    0.4886432   -4.9150967    1942.7885  0.033792327  0.032589976           60 
 4792000   0.48504125   -4.9231982    1936.6022  0.033677695  0.032581339           94 
 4793000   0.48907899   -4.9178324    1937.1218  0.033679702  0.032572705           60 
 4794000   0.48011233     -4.92386    1941.0445  0.033740865  0.032564085          151 
 4795000   0.48282133   -4.9266654    1937.2155  0.033667284  0.032555429           33 
 4796000    0.4822913   -4.9276645    1941.0188  0.033726348  0.032546783           49 
 4797000   0.47455759   -4.9182723    1941.0747  0.033720289  0.032538137           33 
 4798000   0.48691092   -4.9273884    1940.7137   0.03370699   0.03252949           19 
 4799000   0.47906252   -4.9282045    1936.9925  0.033635349  0.032520858           18 
 4800000   0.47029728   -4.9400035    1941.0962  0.033699588  0.032512224           27 
 4801000   0.49611847   -4.9118876    1938.1633  0.033641659  0.032503594           30 
 4802000   0.47811938   -4.9295525    1940.4914  0.033675056   0.03249496           38 
 4803000   0.48347867   -4.9123587    1944.2295  0.033732901  0.032486374           31 
 4804000   0.48154598   -4.9069857    1942.4553  0.033695103  0.032477781           15 
 4805000   0.48461593   -4.9315135    1940.9596  0.033662151  0.032469202           44 
 4806000   0.48366388   -4.9078495    1938.4843  0.033612226  0.032460608           38 
 4807000   0.48006252   -4.9074408    1937.3577  0.033585703  0.032452028           43 
 4808000   0.47445373   -4.9150552    1937.4503  0.033580322  0.032443431           22 
 4809000   0.49175051   -4.9166907    1937.5324  0.033574763  0.032434847           26 
 4810000   0.47351795   -4.9203484    1941.1946   0.03363123  0.032426278           16 
 4811000   0.47569313   -4.9248184    1937.8834  0.033566885  0.032417709           17 
 4812000   0.48167279   -4.9147488    1940.8915  0.033612003  0.032409149           23 
 4813000   0.48784923   -4.9246943    1939.3997   0.03357919  0.032400581           37 
 4814000   0.49097103   -4.9070919     1938.725  0.033560535  0.032391999           36 
 4815000   0.48296463    -4.912867    1941.9227  0.033608908  0.032383415           66 
 4816000   0.47501808   -4.9098187    1940.1316  0.033570938  0.032374846           82 
 4817000   0.48463315   -4.9266281    1938.5274  0.033536215  0.032366266           55 
 4818000   0.48715474   -4.9091368    1938.3915  0.033526905  0.032357715           31 
 4819000   0.48680479   -4.9008219    1943.7956  0.033613398  0.032349182           32 
 4820000    0.4707211   -4.9185712    1940.5007  0.033549459  0.032340659           35 
 4821000    0.4725878   -4.9062104    1939.2508  0.033520895  0.032332126           68 
 4822000   0.48508247    -4.920982    1939.9081  0.033525303   0.03232359           68 
 4823000   0.48101696   -4.9104423    1937.6446  0.033479242  0.032315037           41 
 4824000   0.46133989   -4.9362634    1938.4567   0.03348633  0.032306484           45 
 4825000   0.48689282   -4.9168543    1939.3019  0.033493989  0.032297924           48 
 4826000   0.47792514   -4.9177342    1939.7519  0.033494818  0.032289356           32 
 4827000   0.48024068   -4.9033196     1943.014  0.033544196  0.032280799           43 
 4828000   0.48559259   -4.9173451    1933.7802  0.033377869  0.032272239           39 
 4829000   0.48414684   -4.9321152    1939.8433  0.033475587  0.032263691           52 
 4830000   0.48330787   -4.9279185    1937.4198  0.033426842  0.032255139           15 
 4831000   0.48510118   -4.9244171    1938.8284  0.033444221  0.032246598           25 
 4832000   0.47598123    -4.923407    1937.8373  0.033420207  0.032238045           35 
 4833000   0.47919386   -4.9336788    1935.0019  0.033364403  0.032229509           49 
 4834000   0.47487056   -4.9173962    1942.6665  0.033489631  0.032220986           38 
 4835000   0.47032088   -4.9092209    1940.9037  0.033452322   0.03221247           25 
 4836000   0.47652578   -4.9189731    1940.5893  0.033439986  0.032203946           14 
 4837000   0.48128011   -4.9245999    1938.6966  0.033400465  0.032195437           23 
 4838000   0.47908088   -4.9129281    1944.2256  0.033488798  0.032186933           12 
 4839000   0.47226314   -4.9222619    1941.3019  0.033431527  0.032178419           12 
 4840000   0.48791529   -4.9211228    1942.0552   0.03343759  0.032169908           11 
 4841000   0.47902645   -4.9211311     1942.677  0.033441387  0.032161398           13 
 4842000   0.46482891   -4.9207795      1935.38  0.033308895  0.032152883           15 
 4843000   0.46899291   -4.9260143    1939.0469  0.033365112  0.032144378           32 
 4844000    0.4761166   -4.9035786    1940.4298  0.033382015  0.032135889           16 
 4845000   0.47932889    -4.926202    1942.1543  0.033404786  0.032127373           14 
 4846000   0.47558824   -4.9211653    1938.5362  0.033335675  0.032118837           25 
 4847000   0.47365279   -4.9200615    1941.0827  0.033372579  0.032110326           23 
 4848000   0.46953201   -4.9274525    1939.5682  0.033339662  0.032101828           11 
 4849000    0.4754947    -4.909502    1939.8889  0.033338298  0.032093326           31 
 4850000   0.47522956   -4.9229017    1942.5985  0.033377981  0.032084839           37 
 4851000   0.48098135   -4.9277918    1938.2688  0.033296723  0.032076341           29 
 4852000   0.47195108   -4.9155578    1942.2078  0.033357512  0.032067869           25 
 4853000   0.49319356   -4.9089141    1940.2909  0.033317723  0.032059402           31 
 4854000   0.47703145   -4.9183976    1937.7136  0.033266612  0.032050917           34 
 4855000   0.47736083   -4.9170948    1937.0904  0.033249063  0.032042434           48 
 4856000   0.48044857   -4.9261653    1937.3119  0.033246018  0.032033893           26 
 4857000   0.47276627    -4.912073     1940.621  0.033295948  0.032025385           36 
 4858000   0.47516649   -4.9387007    1938.1508   0.03324672  0.032016891           53 
 4859000   0.47149849   -4.9250901    1938.6759  0.033248884  0.032008389           59 
 4860000   0.47435818    -4.928276    1938.8124  0.033244383  0.031999898           47 
 4861000   0.47163707    -4.934311    1938.6836  0.033235336  0.031991385           41 
 4862000   0.47277806   -4.9258466     1939.924   0.03324976  0.031982884           67 
 4863000    0.4825982   -4.9201655    1939.9855  0.033243977  0.031974402           42 
 4864000   0.45980957   -4.9234914    1936.2362  0.033172906  0.031965919           44 
 4865000   0.47047169   -4.9067654    1942.3943  0.033271571  0.031957459           41 
 4866000   0.48088227   -4.9129122    1939.8399  0.033220988   0.03194898           53 
 4867000    0.4747406   -4.9207218    1938.0384  0.033183316  0.031940499           56 
 4868000   0.47079442   -4.9170099    1937.4181  0.033165882  0.031932014           59 
 4869000   0.46728548   -4.9222875    1938.7281  0.033181491  0.031923537           47 
 4870000   0.46935871   -4.9343617    1936.3486  0.033133959  0.031915063           43 
 4871000    0.4747772   -4.9386561    1939.2372  0.033176575  0.031906586          111 
 4872000   0.48364367   -4.9377098    1936.0937  0.033115998  0.031898099           34 
 4873000   0.47072261   -4.9477678    1935.5356  0.033099659  0.031889606           23 
 4874000   0.47077822   -4.9277306    1939.1224  0.033154192  0.031881117           36 
 4875000   0.46565239   -4.9290587    1937.9291  0.033126993  0.031872653           55 
 4876000   0.46777854   -4.9186095    1935.4746  0.033078251  0.031864196           34 
 4877000   0.46972041   -4.9521798    1932.5147  0.033020893  0.031855729           79 
 4878000   0.47148396   -4.9520348    1936.1036  0.033075435  0.031847264           61 
 4879000   0.46850159   -4.9324756    1937.4972  0.033092458  0.031838785           91 
 4880000    0.4704948   -4.9414576    1938.4744  0.033102364  0.031830328           92 
 4881000   0.47303184   -4.9394569    1935.8122   0.03305013  0.031821858           84 
 4882000   0.48327332   -4.9367266    1937.8283  0.033077774  0.031813383           38 
 4883000   0.47784144    -4.935946    1935.6307  0.033033495  0.031804924           37 
 4884000   0.47335584   -4.9354013    1936.8911  0.033048237  0.031796443           17 
 4885000   0.46658699   -4.9267346    1936.4438  0.033033841  0.031787967           18 
 4886000   0.46373522   -4.9501847    1937.0826  0.033037976  0.031779496           26 
 4887000   0.46706865    -4.954752    1939.7392  0.033076515  0.031771011           54 
 4888000   0.47354461   -4.9459865    1933.7265  0.032967241   0.03176252           51 
 4889000   0.47552569   -4.9264354     1937.691  0.033028073   0.03175406           18 
 4890000   0.48040227    -4.954579    1932.3732  0.032930696  0.031745614           31 
 4891000   0.47073303   -4.9369543    1933.9437  0.032950721  0.031737143           31 
 4892000   0.46120412   -4.9468614    1937.2574  0.033000432   0.03172868           21 
 4893000   0.47206163   -4.9331959    1937.2576  0.032993692  0.031720248           46 
 4894000   0.47373088   -4.9312768    1932.7066  0.032909458   0.03171182           26 
 4895000   0.47380722   -4.9349552    1940.7777  0.033040138  0.031703399           33 
 4896000    0.4557683   -4.9395067    1938.0791  0.032987458   0.03169499           16 
 4897000   0.47796734   -4.9534476    1938.8288  0.032993479  0.031686566           30 
 4898000   0.47628852   -4.9344439    1935.2209   0.03292536  0.031678126           50 
 4899000   0.47591028   -4.9449228    1940.0054  0.033000024  0.031669716           24 
 4900000   0.45714486    -4.936087    1939.3704   0.03298249  0.031661272           21 
 4901000   0.45584288   -4.9241746    1939.5769   0.03297927  0.031652851           48 
 4902000   0.46984233   -4.9380877    1933.2737  0.032865391  0.031644418           35 
 4903000   0.47486621   -4.9547174    1934.5202  0.032879872  0.031635985           45 
 4904000   0.47602191   -4.9582352    1930.6135  0.032806782  0.031627531           38 
 4905000   0.45574946   -4.9473391     1937.271  0.032913201  0.031619106           87 
 4906000   0.45089521   -4.9539565    1933.5226  0.032842822  0.031610677           33 
 4907000   0.46349433   -4.9703676    1934.6378  0.032855067  0.031602213           62 
 4908000   0.46237904   -4.9537561    1938.8424  0.032919763   0.03159377           51 
 4909000   0.46401664   -4.9567295    1934.5409  0.032840037  0.031585317           55 
 4910000   0.47114347   -4.9429777    1935.3946  0.032847837  0.031576856           30 
 4911000   0.45556706   -4.9365726     1935.052  0.032835336  0.031568426           26 
 4912000   0.47195489   -4.9457524    1932.0595  0.032777883  0.031560018           58 
 4913000   0.46836948   -4.9526489    1938.1457  0.032874444   0.03155162           49 
 4914000   0.45715765   -4.9582841    1937.5906   0.03285834  0.031543203          115 
 4915000   0.46425619   -4.9465243    1935.3364  0.032813435  0.031534813           30 
 4916000   0.47760019   -4.9407789    1935.2241  0.032804856  0.031526409           90 
 4917000   0.44595998   -4.9459336    1938.5284  0.032854185  0.031518027          106 
 4918000   0.46215217   -4.9543534    1935.2822  0.032792501  0.031509636           89 
 4919000   0.46555763    -4.956367    1937.1572  0.032817598  0.031501235           72 
 4920000   0.46694511   -4.9547603    1934.1687   0.03276031  0.031492842          147 
 4921000   0.46518201   -4.9562673    1936.8867  0.032799679  0.031484426          134 
 4922000   0.46764597   -4.9679074    1931.2033  0.032696791  0.031475981          140 
 4923000   0.46837835   -4.9605736    1934.1311   0.03273971  0.031467557           62 
 4924000   0.46820058   -4.9670276    1935.0827  0.032749166  0.031459137          115 
 4925000   0.46718025   -4.9650681     1937.099  0.032776632  0.031450735           66 
 4926000   0.46295595   -4.9500312    1934.1473  0.032720046  0.031442323          160 
 4927000   0.46107093   -4.9546712    1934.8949  0.032726048  0.031433913          131 
 4928000   0.46312785   -4.9720211    1938.3855  0.032778434   0.03142551          132 
 4929000   0.46697445   -4.9630401    1937.0447  0.032749116   0.03141708          201 
 4930000   0.46563531   -4.9438855    1933.2351  0.032678079  0.031408661          111 
 4931000   0.46145435   -4.9780938    1933.5289  0.032676417  0.031400257          163 
 4932000   0.46954861   -4.9683237     1936.139  0.032713892  0.031391858           40 
 4933000   0.46602908   -4.9698948    1935.3802  0.032694443  0.031383457           53 
 4934000   0.45596967   -4.9486284    1936.6301  0.032708926  0.031375078           79 
 4935000   0.46192867   -4.9637511     1937.162   0.03271128  0.031366731           60 
 4936000   0.46180962   -4.9584272    1934.9731  0.032667698  0.031358377          110 
 4937000   0.46640253   -4.9658681    1934.6853  0.032656224   0.03135005           92 
 4938000   0.46444854   -4.9598054    1932.7785  0.032617432   0.03134171           86 
 4939000   0.45754766   -4.9677629    1937.3236  0.032687514  0.031333346          101 
 4940000   0.45997079   -4.9595229    1936.5845  0.032668429  0.031324986           74 
 4941000   0.46717044   -4.9614342    1936.8806  0.032666812  0.031316619           62 
 4942000   0.46486965   -4.9647665    1938.3767  0.032685429  0.031308268           54 
 4943000   0.46309402   -4.9621004    1934.9707  0.032621395  0.031299926           67 
 4944000   0.46585519   -4.9668371    1936.2911  0.032637053  0.031291573          121 
 4945000   0.46908092   -4.9593119    1936.5406  0.032634658  0.031283233           57 
 4946000   0.45613991   -4.9630881    1940.3967   0.03269303  0.031274896           35 
 4947000   0.46208816   -4.9803592    1936.0097  0.032612521  0.031266547           43 
 4948000   0.47464878   -4.9653733    1935.6752  0.032600296  0.031258184           64 
 4949000   0.45959632   -4.9709028    1937.5322  0.032624978  0.031249817           56 
 4950000   0.47670419    -4.964736    1933.7718  0.032555081  0.031241446           19 
 4951000      0.45723   -4.9643226    1936.8512  0.032600337  0.031233082           46 
 4952000   0.46227025   -4.9722626    1930.7805  0.032491595  0.031224726           38 
 4953000   0.47034314   -4.9893853    1938.7774   0.03261958  0.031216383           42 
 4954000   0.46003851   -4.9634722    1935.9925   0.03256615  0.031208059           27 
 4955000   0.46107513   -4.9597039    1942.6401  0.032671377  0.031199733           23 
 4956000   0.46145886    -4.981667    1932.5033  0.032494338  0.031191415           23 
 4957000   0.44644189   -4.9753609    1934.3643  0.032519069  0.031183087           20 
 4958000   0.45523669   -4.9677868    1935.9798  0.032539664  0.031174755           20 
 4959000   0.46285284   -4.9491986    1937.2021  0.032553642  0.031166435           29 
 4960000   0.45396707   -4.9531729     1931.323  0.032448303  0.031158104           21 
 4961000   0.44996113   -4.9559688    1935.0396  0.032504193  0.031149781           18 
 4962000   0.45886314   -4.9660583    1936.4452  0.032521249  0.031141446           14 
 4963000   0.45329131   -4.9683887    1931.1101  0.032425115  0.031133111           14 
 4964000   0.46078196   -4.9777407    1935.5414  0.032492973  0.031124789           13 
 4965000   0.45311108   -4.9667002    1935.1682  0.032480164  0.031116452           35 
 4966000   0.45486885   -4.9763438    1933.5493  0.032446457  0.031108118           11 
 4967000     0.459433    -4.957523    1934.0586  0.032448471  0.031099804           11 
 4968000   0.45711084   -4.9832011    1936.4352  0.032481803  0.031091486           15 
 4969000   0.46012607   -4.9639545    1935.1657  0.032453976   0.03108317           41 
 4970000   0.46818161   -4.9773819    1934.7334  0.032440198  0.031074861           31 
 4971000   0.46161765   -4.9726391    1933.1475  0.032407086  0.031066567           26 
 4972000   0.45910168   -4.9629356     1936.062  0.032449417  0.031058249           10 
 4973000   0.45540115    -4.972067    1934.5693  0.032417879  0.031049951           19 
 4974000   0.45786594    -4.968018    1931.5216    0.0323603  0.031041664           29 
 4975000   0.45301378   -4.9740201    1932.7364  0.032374144  0.031033375           43 
 4976000   0.45993626   -4.9658488    1935.5285  0.032414398  0.031025087           41 
 4977000   0.44836487   -4.9509904    1940.8718   0.03249735  0.031016815           31 
 4978000   0.45861633   -4.9648072    1936.3099  0.032414455   0.03100857           26 
 4979000   0.45764775   -4.9537445    1934.3586  0.032375287  0.031000324           27 
 4980000    0.4445368   -4.9760313    1934.5973  0.032372779  0.030992066           13 
 4981000   0.45868099   -4.9693731     1939.085   0.03244136  0.030983808           21 
 4982000   0.45032701   -4.9731617    1932.8073  0.032329843  0.030975519           24 
 4983000   0.45431767   -4.9745982     1937.358  0.032399459  0.030967245           17 
 4984000   0.45268301   -4.9881545    1935.9712  0.032369771  0.030958968           25 
 4985000   0.45338269   -4.9719546    1932.8151  0.032310516  0.030950676           26 
 4986000   0.45642348   -4.9979848    1930.9359  0.032272629  0.030942388           33 
 4987000    0.4525243   -4.9893564    1934.3204  0.032322712  0.030934093           28 
 4988000   0.45851063   -4.9647628    1937.1778  0.032363971   0.03092582           17 
 4989000   0.45411454   -4.9797706     1935.727   0.03233325  0.030917538           38 
 4990000   0.45494181   -4.9768967    1929.3389  0.032220088  0.030909236           52 
 4991000   0.44685904   -4.9820448    1934.9388  0.032307133  0.030900937           58 
 4992000   0.45839053   -4.9776081    1930.5101  0.032226731  0.030892666           50 
 4993000   0.46191241   -4.9795344    1932.7401  0.032257496  0.030884389           22 
 4994000   0.45915017   -4.9676447    1932.4679  0.032246495   0.03087613           27 
 4995000    0.4583593   -4.9540419    1932.3324  0.032237778  0.030867861          124 
 4996000   0.45000167   -4.9603689    1935.9178  0.032291129  0.030859608           76 
 4997000   0.45028729   -4.9685134    1935.1897  0.032272526  0.030851347           98 
 4998000   0.44537678   -4.9502551    1929.4266  0.032169978   0.03084308          114 
 4999000   0.45081522   -4.9799436    1933.5815  0.032232805  0.030834804          121 
 5000000   0.44933491   -4.9679435    1933.0889  0.032218148  0.030826546           65 
 5001000   0.44774722   -4.9737187    1937.9864  0.032293314  0.030818271           64 
 5002000    0.4585478   -4.9906446    1933.8848  0.032218526  0.030810011           41 
 5003000   0.44385411   -4.9827039    1931.7442   0.03217643  0.030801745           95 
 5004000   0.44389609   -4.9813257    1932.3656  0.032180349  0.030793472           40 
 5005000   0.45268273   -4.9850043    1932.0653   0.03216892  0.030785209           79 
 5006000   0.45226506   -4.9869271    1931.0144  0.032144999  0.030776957           86 
 5007000   0.45392405   -4.9860973    1933.0113  0.032171814  0.030768703           39 
 5008000   0.45225571   -4.9894608    1931.9077  0.032147026  0.030760463          158 
 5009000   0.43802284    -4.986094    1933.7502  0.032171262  0.030752201           37 
 5010000   0.44585426   -4.9751091    1933.2204  0.032156028  0.030743948           42 
 5011000    0.4487672   -4.9781168     1932.921  0.032144633  0.030735695           36 
 5012000    0.4497764   -4.9798346    1932.9942  0.032139435  0.030727451           59 
Loop time of 12488.8 on 48 procs for 5000000 steps with 4000 atoms

Performance: 69181.881 tau/day, 400.358 timesteps/s
99.4% CPU use with 48 MPI tasks x no OpenMP threads

MPI task timing breakdown:
Section |  min time  |  avg time  |  max time  |%varavg| %total
---------------------------------------------------------------
Pair    | 876.07     | 918.36     | 973.48     |  75.4 |  7.35
Neigh   | 84.546     | 87.357     | 90.168     |  14.3 |  0.70
Comm    | 809.45     | 865.02     | 918.38     |  85.3 |  6.93
Output  | 14.112     | 14.116     | 14.208     |   0.4 |  0.11
Modify  | 10462      | 10489      | 10513      |  12.1 | 83.99
Other   |            | 114.7      |            |       |  0.92

Nlocal:        83.3333 ave          90 max          75 min
Histogram: 1 1 2 2 11 7 12 8 3 1
Nghost:        2277.29 ave        2292 max        2263 min
Histogram: 1 3 5 6 11 7 8 3 2 2
Neighs:        15384.6 ave       17346 max       13946 min
Histogram: 4 4 2 10 13 5 7 2 0 1
FullNghs:      30767.9 ave       33271 max       27325 min
Histogram: 1 1 2 3 9 9 11 7 3 2

Total # of neighbors = 1476857
Ave neighs/atom = 369.21425
Neighbor list builds = 270036
Dangerous builds = 0

#clear
#
#next RN
#
#jump SELF
Total wall time: 3:28:12
