
units lj                  # Use reduced LJ style units
atom_style atomic         # Uncharged point particles
atom_modify map hash      # Needed for indexing of clusters etc
                          # Used to be able to find where atoms are in relation to each other.

lattice fcc 1.0 spacing 1 1 1
Lattice spacing in x,y,z = 1.5874011 1.5874011 1.5874011
region box block 0 10 0 10 0 10 units lattice
create_box 2 box
Created orthogonal box = (0.0000000 0.0000000 0.0000000) to (15.874011 15.874011 15.874011)
  3 by 4 by 4 MPI processor grid
create_atoms 1 box
Created 4000 atoms
  using lattice units in orthogonal box = (0.0000000 0.0000000 0.0000000) to (15.874011 15.874011 15.874011)
  create_atoms CPU = 0.019 seconds
set type 1 type/fraction 2 0.18 78393
Setting atom values ...
  747 settings made for type/fraction
mass 1 1.0
mass 2 1.0
pair_style lj/cut  3.5
pair_modify tail  yes
pair_coeff 1  1  1.0  1.0   # Intearaction between 1 and 1 set with epsilon = 1 and sigma = 1
pair_coeff 1  2  1.5  0.8
pair_coeff 2  2  0.5  0.88

write_data data.0
System init for write_data ...
Neighbor list info ...
  update every 1 steps, delay 10 steps, check yes
  max neighbors/atom: 2000, page size: 100000
  master list distance cutoff = 3.8
  ghost atom cutoff = 3.8
  binsize = 1.9, bins = 9 9 9
  1 neighbor lists, perpetual/occasional/extra = 1 0 0
  (1) pair lj/cut, perpetual
      attributes: half, newton on
      pair build: half/bin/atomonly/newton
      stencil: half/bin/3d
      bin: standard
WARNING: Not all mixed pair coeffs generated from mixing. Use write_data with 'pair ij' option to store all pair coeffs. (../write_data.cpp:312)


#############################
#   M E L T   S Y S T E M   #
#############################

velocity all create 2.4 9580093 mom yes dist gaussian # Assign velocities
                                                    # Temperature 2.4, random number seed, zero linear momentum
                                                                                # Gaussian distribution

timestep 0.002   # simulation timestep
thermo 1000       # output thermodynamic data every 1000 steps bf 100

# Define a fix  in this case with index 1 applied to all
# particles in the simulation. This fix is for simulations
# in the anisotropic NPT ensemble. Note that we use the MTK
# correction.
fix 1 all npt temp 2.4 2.4 0.1 iso 5.68 5.68 0.5 mtk yes tchain 5 pchain 5 # Use NPT ensemble
                                                                         # Set temperature and pressure and damping
                                                                         # Numbers of thermostats in chain and in barostat
run 10000          # run for 10000 steps
Per MPI rank memory allocation (min/avg/max) = 3.642 | 3.644 | 3.648 Mbytes
Step Temp E_pair E_mol TotEng Press Volume 
       0          2.4   -7.1764538            0   -3.5773538   -3.5088476         4000 
    1000    2.4071374   -4.7872802            0   -1.1774769    5.9143684     4517.218 
    2000    2.3795437   -4.7581846            0   -1.1897614     5.741071    4555.1073 
    3000    2.4269242   -4.7938268            0   -1.1543507    5.7982487    4537.9115 
    4000    2.3755738   -4.7904443            0   -1.2279745    5.6934871    4544.3048 
    5000    2.4100186   -4.7409207            0   -1.1267966    5.6732567     4578.323 
    6000    2.4463059   -4.7682803            0   -1.0997389    5.7545186      4550.12 
    7000    2.4197674   -4.8066313            0   -1.1778877    5.5316425    4561.3703 
    8000    2.3604599   -4.8057115            0   -1.2659068    5.4205004     4570.856 
    9000    2.4198865   -4.7811808            0   -1.1522585    5.8887346    4536.2256 
   10000    2.4127051   -4.8007537            0   -1.1826008    5.7024441    4544.1317 
Loop time of 2.28534 on 48 procs for 10000 steps with 4000 atoms

Performance: 756122.345 tau/day, 4375.708 timesteps/s
99.7% CPU use with 48 MPI tasks x no OpenMP threads

MPI task timing breakdown:
Section |  min time  |  avg time  |  max time  |%varavg| %total
---------------------------------------------------------------
Pair    | 0.94233    | 1.0139     | 1.1872     |   3.9 | 44.37
Neigh   | 0.19066    | 0.20181    | 0.23629    |   1.4 |  8.83
Comm    | 0.63467    | 0.80007    | 0.92639    |   6.3 | 35.01
Output  | 0.00023893 | 0.00024409 | 0.00030365 |   0.0 |  0.01
Modify  | 0.19451    | 0.2548     | 0.32193    |   8.4 | 11.15
Other   |            | 0.01451    |            |       |  0.63

Nlocal:        83.3333 ave          92 max          74 min
Histogram: 1 1 5 8 7 7 11 4 2 2
Nghost:        1514.44 ave        1553 max        1490 min
Histogram: 3 6 8 10 6 7 5 1 1 1
Neighs:        8392.90 ave        9479 max        7164 min
Histogram: 2 1 4 4 12 6 9 5 3 2

Total # of neighbors = 402859
Ave neighs/atom = 100.71475
Neighbor list builds = 905
Dangerous builds = 207

# Equilibrate just above the melting temperature to avoid step fn in T

fix 1 all npt temp 1.25 1.25 0.1 iso 5.68 5.68 0.5 mtk yes tchain 5 pchain 5
run 2000
Per MPI rank memory allocation (min/avg/max) = 3.642 | 3.644 | 3.648 Mbytes
Step Temp E_pair E_mol TotEng Press Volume 
   10000    2.4127051   -4.8007537            0   -1.1826008    5.7024441    4544.1317 
   11000    1.2315328   -6.4863079            0   -4.6394706     5.714744     3711.711 
   12000    1.2486585   -6.4754538            0   -4.6029343    5.7761106    3710.9578 
Loop time of 0.47897 on 48 procs for 2000 steps with 4000 atoms

Performance: 721548.117 tau/day, 4175.626 timesteps/s
99.7% CPU use with 48 MPI tasks x no OpenMP threads

MPI task timing breakdown:
Section |  min time  |  avg time  |  max time  |%varavg| %total
---------------------------------------------------------------
Pair    | 0.22088    | 0.23677    | 0.25532    |   1.9 | 49.43
Neigh   | 0.031628   | 0.033403   | 0.034978   |   0.5 |  6.97
Comm    | 0.13935    | 0.16039    | 0.18267    |   2.5 | 33.49
Output  | 4.7151e-05 | 4.8971e-05 | 6.1182e-05 |   0.0 |  0.01
Modify  | 0.038729   | 0.044051   | 0.04894    |   1.3 |  9.20
Other   |            | 0.004311   |            |       |  0.90

Nlocal:        83.3333 ave          90 max          74 min
Histogram: 2 1 2 2 5 12 15 0 5 4
Nghost:        1731.83 ave        1751 max        1708 min
Histogram: 2 3 1 6 8 7 7 5 5 4
Neighs:        10291.4 ave       11376 max        9009 min
Histogram: 2 2 3 5 8 10 7 4 3 4

Total # of neighbors = 493987
Ave neighs/atom = 123.49675
Neighbor list builds = 141
Dangerous builds = 13

#############################
# L I N E A R  Q U E N C H  #
#############################

# Define solid atoms. This closely follows ten Wolde  Ruiz-Montero and Frenkel  Faraday Discuss  1996  104  93-110
# Compute components of the per-atom q6 vector
compute q6 all orientorder/atom degrees 1 6 components 6 nnn NULL cutoff 1.3 # compute the Q6 parameter.
                                                                             # Use all neighbours within 1.3 unit cell.

# get number of connections
compute coord_number all coord/atom orientorder q6 0.5

# An atom is solid if it has 8 or more connections (of a possible 14)
variable is_solid atom c_coord_number>=8
group solid dynamic all var is_solid    # Must be dynamic to update
dynamic group solid defined

# do clustering
compute cluster solid cluster/atom 1.3 # Create a cluster where all atoms within are solid and max 1.3 units from another member

# define chunks one chunk per cluster
compute clus_chunks solid chunk/atom c_cluster nchunk every compress yes  # Says which atoms are in which chunk

# count the size of each chunk
compute size_chunks solid property/chunk clus_chunks count


# Find the maximum entry in the vector of chunk sizes
variable max_n equal max(c_size_chunks)


# Thermo style which includes this variable
# thermo_style custom step temp pe vol v_max_n

thermo ${N}  # Print the thermo information every 100 steps
thermo 1000  

# Reset the npt fix at a lower temperature (below freezing)
fix 1  all npt temp  ${temp} ${temp}  0.1  iso  5.68  5.68  0.5  mtk yes tchain  5  pchain  5
fix 1  all npt temp  0.45 ${temp}  0.1  iso  5.68  5.68  0.5  mtk yes tchain  5  pchain  5
fix 1  all npt temp  0.45 0.45  0.1  iso  5.68  5.68  0.5  mtk yes tchain  5  pchain  5

dump dmp2 all dcd ${N} traj.dcd
dump dmp2 all dcd 1000 traj.dcd


compute msd all msd com yes
variable twopoint equal c_msd[4]/6/(step*dt+1.0e-6)
fix 9 all vector 10 c_msd[4]
variable fit equal slope(f_9)/6/(10*dt)
thermo_style custom step temp pe c_msd[4] v_twopoint v_fit v_max_n

fix 1 all npt temp 1.25 ${temp} 0.1 iso 5.68 5.68 0.5 mtk yes tchain 5 pchain 5
fix 1 all npt temp 1.25 0.45 0.1 iso 5.68 5.68 0.5 mtk yes tchain 5 pchain 5
run 2000000 # 5000000  # Run for this many steps
Neighbor list info ...
  update every 1 steps, delay 10 steps, check yes
  max neighbors/atom: 2000, page size: 100000
  master list distance cutoff = 3.8
  ghost atom cutoff = 3.8
  binsize = 1.9, bins = 9 9 9
  4 neighbor lists, perpetual/occasional/extra = 1 3 0
  (1) pair lj/cut, perpetual
      attributes: half, newton on
      pair build: half/bin/atomonly/newton
      stencil: half/bin/3d
      bin: standard
  (2) compute orientorder/atom, occasional
      attributes: full, newton on
      pair build: full/bin/atomonly
      stencil: full/bin/3d
      bin: standard
  (3) compute coord/atom, occasional
      attributes: full, newton on
      pair build: full/bin/atomonly
      stencil: full/bin/3d
      bin: standard
  (4) compute cluster/atom, occasional
      attributes: full, newton on
      pair build: full/bin/atomonly
      stencil: full/bin/3d
      bin: standard
Per MPI rank memory allocation (min/avg/max) = 9.772 | 9.776 | 9.780 Mbytes
Step Temp PotEng c_msd[4] v_twopoint v_fit v_max_n 
   12000    1.2486585   -6.4754538 1.4966664e-30 1.0393516e-32 8.3333333e+20            3 
   13000    1.2876029    -6.475733   0.54310573 0.0034814469  0.045375314            4 
   14000    1.2545586   -6.4543151    1.0904969 0.0064910525  0.044858901            2 
   15000    1.2535994   -6.4621495    1.6455609 0.0091420048  0.045480941            1 
   16000    1.2339192   -6.4704043    2.2248441  0.011587729  0.046436093            2 
   17000    1.2636253   -6.5326843    2.6832392  0.013153133  0.045728614            1 
   18000    1.2514538   -6.5153238    3.2086567  0.014854892  0.044631815            2 
   19000    1.2404632   -6.4850311    3.7564065  0.016475466  0.044392767            3 
   20000    1.2450068   -6.4789809    4.3234089  0.018014203  0.044435043            1 
   21000    1.2346345   -6.4829118    4.9057516  0.019467268  0.044739091            1 
   22000    1.2336734   -6.4864942    5.4015202  0.020460303  0.044761583            1 
   23000    1.2497099   -6.5044077     5.911419  0.021418184  0.044710335            2 
   24000    1.2409782   -6.5345438    6.4976996  0.022561457  0.044757109            1 
   25000    1.2820227   -6.4757076    6.9338086  0.023112695  0.044635933            2 
   26000    1.2392627   -6.4787039    7.3829979  0.023663454  0.044368712            2 
   27000    1.2403545   -6.4931409    7.8390728  0.024194669  0.044077037            1 
   28000    1.2585963   -6.4894874    8.3082257  0.024726862  0.043839186            2 
   29000    1.2386198   -6.5283348    8.8495724  0.025429805  0.043544162            2 
   30000    1.2499946   -6.5182901    9.3520369   0.02597788   0.04334417            1 
   31000    1.2258088   -6.4807894     9.895504  0.026600817  0.043220139            2 
   32000    1.2385195   -6.5125739    10.340985  0.026929648   0.04307056            1 
   33000    1.2579878   -6.4471863    11.005579  0.027791866  0.043004324            3 
   34000    1.2314921   -6.5096443    11.496634  0.028178023  0.042995144            3 
   35000    1.2259543    -6.493787    12.069422  0.028736719  0.043035999            2 
   36000    1.2239889   -6.4723569    12.681449  0.029355206  0.043128657            4 
   37000     1.247604   -6.5182081    13.123146  0.029556635  0.043192402            2 
   38000    1.2376254   -6.4784247    13.693826  0.030030321  0.043275025            1 
   39000    1.2172276   -6.4946471    14.180307  0.030299801  0.043335972            2 
   40000    1.2618809   -6.5299013    14.650521  0.030521917  0.043370133            1 
   41000    1.2414372   -6.5274587    15.088711  0.030668111  0.043334186            2 
   42000    1.2430814   -6.5041195    15.696825  0.031144493  0.043300063            2 
   43000    1.2292875   -6.5162712    16.342366  0.031671252  0.043316699            4 
   44000    1.2474684   -6.5173844    16.759777  0.031742001  0.043365586            2 
   45000    1.2546583   -6.5349781    17.292085  0.032022379  0.043380203            2 
   46000    1.2443425   -6.4692155    17.754585  0.032164103  0.043374529            1 
   47000    1.2435837   -6.5490597    18.093705  0.032081037  0.043322004            2 
   48000    1.2279954   -6.4872689    18.571186  0.032241642  0.043233904            1 
   49000     1.234604   -6.5094179    18.967021  0.032256838  0.043133672            1 
   50000    1.2573589   -6.5206792     19.48874  0.032481233  0.043025237            1 
   51000    1.2405809   -6.5232266    19.955591  0.032607174  0.042926191            3 
   52000    1.2381619   -6.5198584    20.479899   0.03282035  0.042822251            2 
   53000    1.2254381   -6.5395922    20.904043  0.032867991  0.042730069            3 
   54000    1.2794839   -6.5155881    21.308057  0.032882804  0.042634997            1 
   55000    1.2612904   -6.5366499    21.681777  0.032851177  0.042515118            2 
   56000    1.2231047   -6.5064301     22.13364  0.032936965  0.042393068            1 
   57000    1.2478448   -6.5007614     22.55596   0.03297655  0.042247122            1 
   58000    1.2173007   -6.5174917    22.865399  0.032852584  0.042104379            1 
   59000    1.2007139   -6.5631202    23.409084  0.033063678  0.041961879            2 
   60000    1.2238493    -6.513248    23.916207  0.033216954  0.041826206            2 
   61000    1.2345408   -6.5188831    24.498708  0.033468181  0.041718378            2 
   62000    1.2457539    -6.509461    25.100649  0.033737431  0.041648618            2 
   63000    1.2241618   -6.5121602    25.435009  0.033644192   0.04158363            2 
   64000    1.2369648   -6.5040884    26.149537  0.034048876  0.041514745            2 
   65000    1.2182568   -6.5403843    26.498209  0.033972062  0.041459143            2 
   66000    1.2384894   -6.5347337    27.058112  0.034164283  0.041415736            2 
   67000    1.2297518   -6.5437551    27.585983  0.034310924  0.041387666            2 
   68000    1.2382646   -6.5582365    28.168491  0.034520209  0.041363241            2 
   69000    1.2516419   -6.5065096    28.900221  0.034903648  0.041368112            1 
   70000    1.2140795   -6.5243506    29.168962  0.034724955  0.041369925            2 
   71000     1.233199   -6.5034213    29.747309  0.034914681  0.041370955            3 
   72000    1.2088994   -6.5130732    30.489618   0.03528891  0.041383939            4 
   73000     1.217369   -6.4976374     31.24705  0.035670148  0.041427575            2 
   74000    1.1997633   -6.5682925      31.4627  0.035430968  0.041462783            1 
   75000    1.2060904   -6.5267406    32.019267  0.035576963  0.041495278            1 
   76000    1.2129769    -6.555028    32.641521  0.035791141  0.041532527            2 
   77000    1.2102861   -6.5787591    32.975586  0.035687864  0.041567311            3 
   78000    1.2066827   -6.5915782    33.276272  0.035551573  0.041577694            2 
   79000     1.233217   -6.5436014    33.706831  0.035555729  0.041571744            1 
   80000    1.2140437   -6.4938677    34.392839  0.035825874   0.04156232            1 
   81000    1.2319814   -6.5290028    34.726966  0.035727331  0.041555332            2 
   82000    1.2052767   -6.5472779    35.146187   0.03571767  0.041538395            2 
   83000    1.2316289   -6.5601497     35.49475  0.035637299  0.041507798            2 
   84000    1.1865055    -6.560846    36.122238  0.035835553  0.041482538            3 
   85000    1.2476174   -6.5638807    36.745558  0.036025057  0.041475453            2 
   86000    1.2281909   -6.5219749    37.039521  0.035891008  0.041471749            3 
   87000    1.2305098   -6.5223509    37.637007  0.036050772  0.041461175            2 
   88000    1.1967163   -6.5489952    38.087901  0.036068088  0.041446201            2 
   89000    1.2526958   -6.5695272    38.491033  0.036040293  0.041432133            2 
   90000    1.2496881   -6.5679084    39.188518  0.036285665  0.041426243            2 
   91000    1.2178016   -6.5441208    39.666009  0.036324184  0.041422673            1 
   92000    1.2179144   -6.5531442    40.119325  0.036339968  0.041420498            2 
   93000      1.20445   -6.5307403    40.541615  0.036327611  0.041415604            2 
   94000    1.1955055   -6.5609487    41.105421  0.036440975  0.041407078            1 
   95000    1.1919141   -6.5512193     41.48453  0.036389938  0.041397523            3 
   96000    1.2175604   -6.5694613    41.840587  0.036319953  0.041381555            4 
   97000    1.2140838   -6.5177838    42.319616  0.036357058  0.041359562            1 
   98000    1.2026864   -6.5269295    42.824549  0.036415433  0.041334434            3 
   99000     1.182574   -6.5927333    43.196809   0.03636095  0.041310922            2 
  100000    1.2424307   -6.5304501    43.991409  0.036659507  0.041300049            2 
  101000    1.2074897   -6.5670251    44.341561  0.036585446   0.04128729            1 
  102000    1.2263907   -6.5871319    44.766066  0.036573583  0.041271516            4 
  103000    1.2014253   -6.5490319    45.450209  0.036772013  0.041262529            1 
  104000    1.2174433   -6.5476328    46.003351  0.036861659  0.041261569            3 
  105000    1.2110782   -6.5604966    46.242662  0.036700525  0.041246882            3 
  106000    1.2287782   -6.5531852    46.772615  0.036770923  0.041231712            3 
  107000    1.2214627   -6.5406445    47.344981  0.036873038  0.041226581            2 
  108000     1.218607   -6.5551295    47.986809  0.037026859  0.041226297            2 
  109000    1.2102938   -6.5358158    48.496112  0.037076538  0.041228251            1 
  110000    1.2252543   -6.5621732    49.040669  0.037152022   0.04122323            1 
  111000    1.2177307   -6.5556122    49.219061  0.036951247   0.04121624            3 
  112000    1.2183834   -6.6141747    49.798701  0.037052605  0.041206458            3 
  113000     1.188869   -6.5259819    50.451142  0.037205856  0.041201466            2 
  114000    1.1980015   -6.5720034    51.077839  0.037337601  0.041198732            2 
  115000    1.2312676   -6.5518725    51.689769  0.037456354  0.041203688            2 
  116000    1.2122223   -6.5922754    52.174682  0.037481811  0.041217977            1 
  117000     1.201236   -6.5724689    52.916491  0.037689808  0.041236829            2 
  118000    1.2017809   -6.5766552    53.298239  0.037639999  0.041257052            1 
  119000    1.1979151   -6.5509561    53.898001  0.037743698  0.041268855            2 
  120000    1.1939835   -6.5935097    54.021605  0.037515003   0.04127554            4 
  121000    1.1834832   -6.5906632    54.647991  0.037636357  0.041278271            3 
  122000    1.2181846   -6.5920309    54.945802  0.037531286  0.041280207            3 
  123000    1.2303631   -6.5633891    55.308444  0.037471845  0.041270538            3 
  124000    1.2121158   -6.5453906    55.686045  0.037423417   0.04126313            4 
  125000    1.1905503   -6.5636753    56.150014  0.037433342  0.041253152            3 
  126000    1.2079907   -6.5468077     56.74416  0.037529206  0.041243896            2 
  127000    1.2086589   -6.5669814    57.087926  0.037459269   0.04123033            3 
  128000    1.1834613   -6.5710151    57.611386  0.037507412  0.041215147            2 
  129000    1.1883149    -6.550273    57.978992  0.037454129  0.041204945            2 
  130000    1.2062293   -6.5873018    58.549948  0.037532018  0.041188438            1 
  131000    1.1952501   -6.5384544    59.040819  0.037557773  0.041168901            2 
  132000    1.1851487   -6.6144851    59.051581  0.037280038  0.041148757            4 
  133000    1.2156788   -6.5754732    59.735854   0.03742848  0.041126867            2 
  134000    1.1877583   -6.4944487    60.542594  0.037650867  0.041108757            1 
  135000    1.1981403   -6.6262541    60.569847  0.037388794  0.041091917            2 
  136000    1.2023895   -6.5752212    61.217161  0.037510515   0.04107757            1 
  137000    1.2178402   -6.5948747    61.731147  0.037549359  0.041060038            1 
  138000    1.2081291   -6.5415529    62.335638  0.037642293   0.04104813            1 
  139000    1.2168879   -6.5688603     62.84609  0.037677512  0.041036468            2 
  140000    1.2065709   -6.5847783    63.482307  0.037787087  0.041026243            1 
  141000    1.2058357   -6.6283286    64.092418   0.03787968  0.041023364            1 
  142000    1.2126228   -6.5756749    64.808391  0.038033093  0.041023426            1 
  143000    1.1984649   -6.6210181    64.909523  0.037826062  0.041022786            3 
  144000    1.1972229   -6.5888527    65.229269  0.037748419   0.04101342            2 
  145000    1.1917017   -6.5927826    65.545391  0.037669765  0.041000957            3 
  146000    1.2140832   -6.6363728    65.980256  0.037659963  0.040990638            1 
  147000     1.169371   -6.5761806    66.538746  0.037720377  0.040978139            3 
  148000     1.201867   -6.6183125    67.253192  0.037867788  0.040967107            3 
  149000    1.2027232   -6.6551598    67.566011  0.037788597  0.040955417            6 
  150000    1.1790478   -6.6144656    68.173102  0.037873946  0.040946145            2 
  151000     1.180969   -6.5616544    68.781109  0.037958669  0.040940978            1 
  152000    1.1841194   -6.5788077    69.214745   0.03794668    0.0409379            1 
  153000    1.1958016   -6.5785899    70.002153  0.038127534  0.040937337            4 
  154000    1.1935967     -6.60532    70.150168  0.037960048  0.040932545            1 
  155000    1.1837226   -6.5354613    70.677437  0.037998622  0.040927611            3 
  156000    1.1951707   -6.6484934    70.815514    0.0378288  0.040920481            2 
  157000    1.1687425   -6.5811649    71.471536  0.037936059  0.040912925            2 
  158000    1.1869808   -6.5775783    71.694731  0.037813677  0.040898433            2 
  159000    1.2035008   -6.5736003    72.276926  0.037880989  0.040882764            1 
  160000    1.1656689   -6.5831091    73.042703  0.038043074  0.040873069            2 
  161000    1.1859015   -6.5846452    73.625306  0.038108337  0.040869334            3 
  162000    1.1873032   -6.5784438    74.077571  0.038105746  0.040865619            4 
  163000    1.1882566   -6.5504686    74.164766  0.037916547  0.040857046            2 
  164000    1.1810835   -6.6202993    74.494514  0.037852903  0.040847499            2 
  165000    1.1704408   -6.5880943    74.994377  0.037875948  0.040831602            1 
  166000    1.1887899   -6.5763286    75.726635  0.038015379  0.040818855            2 
  167000    1.2002251   -6.5991557    75.753325   0.03780106  0.040804176            2 
  168000    1.1929207    -6.604544    76.110351   0.03775315  0.040787299            1 
  169000    1.1794153   -6.6028671    76.685419  0.037813323   0.04076968            2 
  170000     1.194959   -6.6136994    76.835374  0.037664399  0.040747853            2 
  171000    1.2118012   -6.5918579    77.644658  0.037838527  0.040729672            1 
  172000    1.1887679   -6.6344357    77.849179  0.037717625  0.040712597            1 
  173000    1.1419165   -6.6100696    78.364745   0.03774795   0.04069505            2 
  174000    1.2076585   -6.6301942    78.734923  0.037708297  0.040672441            2 
  175000    1.1497225   -6.5947134     79.46232    0.0378392  0.040650791            1 
  176000    1.1857877   -6.6194589    79.570001   0.03767519  0.040627128            3 
  177000    1.1727115   -6.6248004    79.550935  0.037453359  0.040598833            3 
  178000    1.1757128   -6.5913013    80.421726  0.037650621  0.040571719            2 
  179000    1.1866421    -6.635443    80.493409  0.037473654  0.040549042            2 
  180000    1.1655649   -6.6151586     81.34213  0.037658394    0.0405269            1 
  181000    1.1719478   -6.6379143    81.842863  0.037680876  0.040504166            2 
  182000     1.192275   -6.6330693    82.537774  0.037792021  0.040483973            3 
  183000    1.1843245    -6.603215    82.856013  0.037730425   0.04046429            3 
  184000    1.1784122   -6.5909304    83.423464  0.037782366   0.04044453            3 
  185000    1.2049346   -6.6298891    83.758677  0.037729134  0.040424631            3 
  186000    1.1708246   -6.6345974    83.812229  0.037550282  0.040400366            2 
  187000    1.1856977   -6.6288998    84.456678  0.037636666  0.040377293            1 
  188000    1.1943088   -6.6474101    85.030544  0.037690844  0.040357063            3 
  189000     1.187452   -6.5872439    85.673502  0.037774913  0.040338358            3 
  190000    1.1933723   -6.5990542     86.22072  0.037816105   0.04032035            1 
  191000    1.1983255   -6.6195514    86.385979  0.037690217  0.040304246            3 
  192000     1.174093   -6.6251037    86.751598  0.037652603  0.040285744            6 
  193000    1.1905653   -6.6360894    87.358906  0.037719735  0.040266689            1 
  194000    1.1701351   -6.6499822    87.890179  0.037753513  0.040246956            3 
  195000     1.166049   -6.6398724    88.528145  0.037832541  0.040231926            2 
  196000    1.2013026   -6.5970278    89.144162  0.037901429  0.040218888            1 
  197000    1.1842033   -6.6244584    89.533106  0.037873564  0.040206009            3 
  198000    1.1801815   -6.6497977    90.128064  0.037932687  0.040193486            3 
  199000    1.1891425   -6.6291124    90.714758  0.037987754  0.040183953            4 
  200000    1.1796707   -6.6450297    91.266131  0.038027555  0.040175942            1 
  201000    1.1613186   -6.6044787    91.825459  0.038070257  0.040169855            1 
  202000     1.190416    -6.611164    92.366379  0.038104942   0.04016309            4 
  203000    1.1942713   -6.6061261    92.788108  0.038090356  0.040155304            2 
  204000    1.1763817   -6.6513342    92.819233  0.037916353  0.040147104            2 
  205000    1.1767575    -6.634289    93.301206  0.037927319  0.040137625            3 
  206000    1.2003131    -6.617633    93.890772  0.037981704  0.040131824            1 
  207000    1.1836446   -6.6097594    94.874944  0.038194422   0.04012605            6 
  208000    1.1505322   -6.6128424    94.894842  0.038018767  0.040119657            2 
  209000    1.1938257   -6.6225926    95.422281  0.038047162  0.040110142            1 
  210000    1.1503451   -6.6571754    95.471123  0.037885366   0.04009924            1 
  211000    1.1743858   -6.6445516    95.994259  0.037912424  0.040086203            3 
  212000    1.1739391    -6.656838    95.951577  0.037716815  0.040071622            1 
  213000    1.1584608   -6.6330055    96.495099  0.037752386  0.040055901            1 
  214000    1.1799341   -6.6157862    97.318803   0.03789673   0.04004008            1 
  215000    1.1465215   -6.6353795    97.556235  0.037812494  0.040024954            2 
  216000    1.1546212   -6.6351152    97.950611  0.037789587  0.040010764            1 
  217000    1.1591365   -6.6837568    98.322528  0.037758267  0.039996486            2 
  218000     1.168799   -6.6417327    98.924705  0.037815254  0.039980367            1 
  219000     1.184256   -6.6348365    99.240558  0.037762769  0.039963708            1 
  220000    1.1857907    -6.650639    99.461393   0.03767477  0.039946039            4 
  221000    1.1918451    -6.612052     100.0025  0.037708332  0.039928321            7 
  222000    1.1503722   -6.6236179     100.3112  0.037654353   0.03991144            2 
  223000    1.1566175   -6.6895381    100.57353  0.037583532  0.039893546            1 
  224000    1.1811956   -6.6482941    100.94414  0.037553623  0.039874839            3 
  225000    1.1721191   -6.6256118    101.94699  0.037758144  0.039856124            1 
  226000    1.1630751   -6.6312137    101.72977  0.037510976   0.03983565            2 
  227000    1.1444165   -6.6983048     102.2196  0.037525551  0.039816024            2 
  228000    1.1480322   -6.6689018    102.83892  0.037587324  0.039794746            4 
  229000    1.1622182   -6.6609599     103.3407  0.037605788  0.039774656            3 
  230000    1.1700376   -6.6976203    103.42349  0.037472278   0.03975453            2 
  231000    1.1740616   -6.6621986    104.01089  0.037521967  0.039735186            4 
  232000    1.1627838   -6.6794497    104.50709  0.037538467  0.039715548            2 
  233000    1.1439942   -6.6922317    104.81959  0.037489125  0.039696375            2 
  234000    1.1839352   -6.6166844    105.20458  0.037466018  0.039677943            1 
  235000    1.1698469   -6.6376836    105.65912  0.037467772  0.039657775            3 
  236000    1.1390862   -6.6807445    105.76393  0.037346022  0.039636249            3 
  237000    1.1640725    -6.676187    106.45124  0.037430112  0.039613365            3 
  238000    1.1598116   -6.6535814    106.78724   0.03739049  0.039592072            1 
  239000     1.160961   -6.7005322    106.79109  0.037235386  0.039571889            2 
  240000    1.1408596   -6.6515354    107.87533  0.037456713  0.039552442            1 
  241000    1.1314692   -6.6248897    108.72787  0.037596082  0.039532472            1 
  242000     1.140353   -6.6728268    108.65448  0.037415454  0.039515526            2 
  243000    1.1704478    -6.661386    109.25207  0.037466415  0.039497144            5 
  244000    1.1409881   -6.6531213    109.56132  0.037418485  0.039477754            2 
  245000     1.180483   -6.6710846    110.08612   0.03744426  0.039459585            2 
  246000     1.170648    -6.651814    110.42935  0.037408315    0.0394407            2 
  247000    1.1524512     -6.68085    110.87083  0.037405813  0.039421265            2 
  248000    1.1370583   -6.6562525    111.78457  0.037562018  0.039403694            2 
  249000    1.1484989   -6.6758953    112.07578  0.037508626  0.039387483            1 
  250000    1.1571759   -6.6911151    112.26694  0.037422315  0.039370802            2 
  251000    1.1473359   -6.6808294    112.79204  0.037447558  0.039353285            2 
  252000    1.1172868   -6.6497816    113.19647  0.037432694  0.039336152            2 
  253000    1.1368116   -6.6706213    113.34593  0.037333968   0.03931693            2 
  254000    1.1355458   -6.6523804    114.04883  0.037417597  0.039298273            2 
  255000    1.1509789   -6.6784513    113.68818  0.037153001  0.039278739            2 
  256000     1.166078    -6.682813    114.25278   0.03719166  0.039257591            1 
  257000    1.1647162   -6.6487164    114.62537  0.037167759  0.039236174            6 
  258000     1.160853   -6.6946245    114.93139  0.037122541  0.039213367            6 
  259000    1.1258394   -6.6623121    115.71904   0.03723264  0.039191255            2 
  260000    1.1463403   -6.6794702    115.87949  0.037140861  0.039171005            2 
  261000    1.1676373   -6.6558673    116.57009  0.037219058  0.039150428            2 
  262000    1.1477677   -6.7023553    116.87643  0.037174438  0.039131136            2 
  263000    1.1485392   -6.6857585    117.77451  0.037317652  0.039111887            3 
  264000    1.1509572   -6.6835552    117.81876  0.037190266  0.039093048            1 
  265000     1.175102    -6.660073    118.70351  0.037328147  0.039075043            2 
  266000     1.108226   -6.6726349    118.61518  0.037160145   0.03905711            2 
  267000    1.1585392   -6.6626563    119.24063  0.037216177  0.039039826            2 
  268000    1.1263742   -6.6300666    120.05157  0.037329468  0.039024411            1 
  269000    1.1314883   -6.6908203    120.26043    0.0372554  0.039009315            6 
  270000     1.160498   -6.6738777     121.0729  0.037368178  0.038994042            2 
  271000    1.1036655   -6.6690307    121.40294  0.037331779  0.038979479            3 
  272000    1.1470508   -6.7105198    121.67355  0.037277434  0.038964237            2 
  273000    1.1434991   -6.6655172    121.98775  0.037236799  0.038947387            2 
  274000    1.1309757   -6.6937338    122.43178  0.037235944  0.038930161            2 
  275000    1.1425727   -6.6852572    122.44625  0.037104925  0.038913387            1 
  276000    1.1340722    -6.707817    122.72624  0.037055023  0.038895403            2 
  277000    1.1412721   -6.6993203     123.2153  0.037068381    0.0388761            2 
  278000    1.1568481   -6.6991388    123.28134  0.036954838  0.038856807            2 
  279000    1.1415362   -6.7058944    124.12841  0.037075391  0.038837209            4 
  280000     1.144776   -6.6879674    124.10707  0.036936629  0.038818654            1 
  281000    1.1625666   -6.7055735    124.64577  0.036964938  0.038798098            2 
  282000    1.1514116   -6.7245258    125.06169  0.036956763  0.038777069            3 
  283000    1.1325964   -6.6932939    125.75494  0.037030311  0.038757257            4 
  284000    1.1672017   -6.6849741    126.02176  0.036978214  0.038738513            2 
  285000      1.13625   -6.6724742    126.60929  0.037020261  0.038720558            5 
  286000    1.1252356   -6.6807237    127.39655  0.037120206  0.038703275            2 
  287000     1.133939   -6.6929005    127.82541  0.037115391  0.038685474            2 
  288000    1.1306637   -6.7321438    127.99649  0.037036022  0.038670072            1 
  289000    1.1270391   -6.6639733    128.57619  0.037075026  0.038651741            1 
  290000    1.1083421   -6.7164338    128.52882   0.03693357  0.038634639            2 
  291000    1.1232705   -6.7008211    129.04235  0.036953708  0.038616183            3 
  292000    1.1211076   -6.7189746    129.37011  0.036920693  0.038597375            5 
  293000    1.1305048   -6.6786624    129.70995  0.036891338  0.038579322            2 
  294000    1.1290097   -6.7102353    130.03845  0.036858971  0.038559407            4 
  295000    1.1416157   -6.7048998    130.42314  0.036842696  0.038538905            1 
  296000    1.1351776   -6.7186449    130.27446  0.036676368  0.038517716            2 
  297000    1.1412612   -6.7227366    131.20493  0.036813954  0.038496814            4 
  298000    1.1594192   -6.6699868    131.77568  0.036850022  0.038476723            2 
  299000    1.1214641   -6.7456467    131.62328  0.036684303  0.038457338            4 
  300000     1.129548   -6.7169847    132.57832   0.03682731  0.038437803            2 
  301000    1.1310822   -6.7428215     132.9416  0.036805536  0.038418619            2 
  302000    1.1214846   -6.7314874    133.56032  0.036854394  0.038399494            3 
  303000    1.1443883   -6.7248163    134.29704  0.036935379  0.038381567            2 
  304000      1.16373   -6.6698101    134.48061  0.036864202  0.038364862            5 
  305000    1.1288719    -6.686011    134.88434  0.036853645  0.038347845            2 
  306000    1.1118758   -6.7453278    134.98072  0.036759455  0.038330627            2 
  307000    1.1469758   -6.7719525    134.88875  0.036614753  0.038312639            1 
  308000    1.1345976   -6.7168132    135.77852  0.036736612  0.038293414            3 
  309000    1.1320133    -6.729312    135.84509  0.036635676  0.038273476            1 
  310000    1.1187192   -6.7039887     136.4158  0.036670914  0.038253742            4 
  311000    1.1303216   -6.7065324    136.63831  0.036612623  0.038233817            1 
  312000    1.1611202   -6.7614039    137.08601  0.036614853   0.03821432            2 
  313000    1.1441086   -6.7220505    137.34416  0.036566602  0.038195148            3 
  314000    1.1311437   -6.7369943    137.72658  0.036551641  0.038176775            1 
  315000    1.1435178   -6.7712545     138.1914  0.036558571  0.038158191            3 
  316000    1.0987827   -6.7473562    138.33553  0.036480888  0.038137939            1 
  317000    1.1446979   -6.7128782    139.38477  0.036641631  0.038119148            4 
  318000    1.1280906   -6.7486228    139.42507  0.036536969  0.038100204            5 
  319000     1.138056   -6.7123931    140.18459  0.036620845  0.038081915            3 
  320000    1.1420018   -6.7173431    140.76111   0.03665654  0.038064552            2 
  321000    1.1206568     -6.66363    141.12806  0.036637607  0.038047637            4 
  322000    1.1306615   -6.7084078    141.60875  0.036648226  0.038029978            8 
  323000    1.1353965    -6.719352    141.38525  0.036477104  0.038011399            2 
  324000    1.1163103   -6.7429905    141.62675  0.036426633  0.037991364            2 
  325000    1.1196394   -6.7389788    142.20407  0.036462582  0.037971362            2 
  326000    1.1137505   -6.7800796    142.39119  0.036398567  0.037951428            4 
  327000    1.1185226   -6.7362181     143.0228  0.036448215  0.037931198            4 
  328000    1.1016564   -6.7292616    142.78342  0.036276276   0.03790992            1 
  329000    1.1356056   -6.7168067    143.32884  0.036304163  0.037888298            5 
  330000    1.1188632   -6.7363809      143.961  0.036353787  0.037866976            1 
  331000    1.0888596   -6.7378434    143.93565  0.036237576  0.037845186            3 
  332000    1.0986466   -6.7415124     144.3379  0.036229392   0.03782385            4 
  333000    1.1179006   -6.7703655    144.82189  0.036241713  0.037802019            2 
  334000    1.1419823   -6.7266694    145.20382  0.036228499    0.0377807            3 
  335000    1.1043224   -6.7195509    145.51464  0.036197672   0.03775916            2 
  336000    1.1303429   -6.7116681    145.53319   0.03609454  0.037737446            2 
  337000     1.140564   -6.7366822    146.05828  0.036117281  0.037715605            2 
  338000    1.1309773    -6.749654    146.25263   0.03605834  0.037692835            2 
  339000    1.1124433   -6.7160975    146.93873  0.036120633  0.037669942            1 
  340000    1.1270574   -6.7124121    146.67637  0.035950091  0.037647323            1 
  341000    1.1483554   -6.7648547    147.02906  0.035930854  0.037623427            2 
  342000    1.1284796   -6.7166381    147.68221  0.035984944  0.037600107            5 
  343000    1.1122232   -6.7281591     147.7808  0.035903985  0.037576849            2 
  344000    1.1020583   -6.7413045    148.22631  0.035907536  0.037552493            3 
  345000    1.1375322   -6.7377003    149.15254  0.036027184  0.037528251            2 
  346000    1.1116114   -6.7739244    148.72686  0.035820536  0.037504862            3 
  347000    1.1157697   -6.7217274    149.61809  0.035931339  0.037481708            2 
  348000    1.1214361    -6.758621    149.94687  0.035906817  0.037458702            2 
  349000     1.103917   -6.7296724     150.2516  0.035876694  0.037435359            2 
  350000    1.1019212   -6.7419326    150.81088  0.035907354  0.037412361            1 
  351000    1.1390919     -6.75124    151.11766  0.035877887  0.037389206            2 
  352000    1.1203536    -6.782897    151.37331  0.035836483  0.037366489            6 
  353000    1.0862935   -6.7546529    151.84581  0.035846509  0.037343962            3 
  354000    1.1132974   -6.7040683     152.8114  0.035972553  0.037322198            2 
  355000    1.0794344    -6.700515    152.68828  0.035842319  0.037301743            4 
  356000    1.1266376   -6.7679148    153.27628  0.035879279  0.037281562            2 
  357000    1.0988451   -6.7489066    153.57142  0.035847669  0.037261283            3 
  358000    1.1120065   -6.7507483    153.70077  0.035777646   0.03723955            4 
  359000    1.1124765    -6.753733    153.94391  0.035734426  0.037217887            3 
  360000    1.1202358   -6.7280133    154.38569  0.035737429  0.037196641            3 
  361000    1.0819226   -6.7797794    154.71123  0.035713581  0.037174744            1 
  362000    1.1190006   -6.7576381    154.98401  0.035677718  0.037152303            1 
  363000    1.1011046   -6.7603105    155.32027  0.035656628  0.037130564            1 
  364000    1.1090841   -6.7600094    156.00377  0.035715149   0.03710988            2 
  365000    1.1189674   -6.7661245    156.30922  0.035687036  0.037088584            3 
  366000    1.1021575   -6.7527064     157.1681  0.035785087  0.037068268            2 
  367000    1.1205233   -6.7425403    157.03648  0.035657692  0.037047694            4 
  368000    1.1006914   -6.7240817    158.70829  0.035939378  0.037028762            3 
  369000     1.105878   -6.7847706     158.3829  0.035768496  0.037010984            2 
  370000    1.1092435   -6.7139742    158.73708  0.035751594  0.036992537            2 
  371000    1.0769841   -6.7435106    158.88181  0.035687738  0.036974041            3 
  372000    1.1347369   -6.7300532    159.50397  0.035731177  0.036955448            3 
  373000    1.0949082   -6.7763946    159.31609  0.035593406  0.036936311            1 
  374000    1.1194209   -6.7828415     159.5797  0.035556974  0.036915519            2 
  375000    1.0890407   -6.7900202    160.23111  0.035606913  0.036895619            2 
  376000    1.0979838   -6.7924701     161.2381  0.035735394  0.036876465            2 
  377000    1.1162955   -6.7829779    161.24614  0.035642383  0.036858175            1 
  378000    1.1049888   -6.7396479    161.69906  0.035647942  0.036839141            4 
  379000    1.0923342   -6.7287616    162.53759  0.035738257  0.036821187            3 
  380000    1.0845477   -6.7528123    162.96254  0.035737399  0.036802609            2 
  381000    1.0967628    -6.775295    162.69778  0.035585691  0.036783717            2 
  382000    1.1043858   -6.8157242    163.05243  0.035569901   0.03676537            4 
  383000    1.1060028    -6.766657    163.29512  0.035529835  0.036746455            1 
  384000    1.0838615   -6.7740604    163.88311  0.035564912  0.036727877            2 
  385000    1.1121277   -6.7126839    164.81462  0.035674161   0.03671012            2 
  386000    1.1016399   -6.7891376    164.75157  0.035568128  0.036692848            5 
  387000    1.1082493     -6.75993    165.35654  0.035606491  0.036674546            2 
  388000    1.1104963   -6.7608278    165.13702  0.035467573  0.036656207            3 
  389000    1.1208309   -6.7922552    165.79385  0.035517106  0.036637697            1 
  390000    1.1052241   -6.7697235    166.49804  0.035576503  0.036620196            1 
  391000    1.0898094   -6.7401005    167.10021  0.035613855  0.036602799            2 
  392000    1.1113454   -6.7762862    166.99405  0.035500436  0.036584972            3 
  393000    1.1080199    -6.793159    167.65636  0.035550544  0.036567157            2 
  394000    1.0899907   -6.7915558    167.89261  0.035510282  0.036549528            4 
  395000    1.1026775   -6.7586194    168.14285  0.035473175  0.036533189            2 
  396000    1.0895228   -6.7506368    168.82562  0.035527277  0.036515922            4 
  397000    1.1071241    -6.772172    169.28651  0.035534533  0.036498489            2 
  398000    1.1031037   -6.7953792    168.89386  0.035363035   0.03647995            2 
  399000    1.1010833    -6.766029    169.53955  0.035409263  0.036461958            2 
  400000    1.0927805   -6.7559231    169.73404  0.035361258  0.036444206            3 
  401000    1.0983023   -6.8517524    169.86884  0.035301088  0.036426616            2 
  402000    1.1129467   -6.7959611    169.90567  0.035220909  0.036409137            3 
  403000    1.1106383   -6.7752933    170.18605  0.035191492  0.036390387            2 
  404000    1.1028429   -6.7988518     170.6329  0.035196554  0.036370789            3 
  405000    1.1004833   -6.7700475    171.02846  0.035191041   0.03635153            2 
  406000    1.0971794   -6.7836829    170.97699    0.0350938  0.036330962            1 
  407000    1.0866731   -6.7660709    171.65773  0.035146956  0.036310525            4 
  408000    1.0960649   -6.7551374    172.48349   0.03522947   0.03628983            2 
  409000    1.0889669   -6.8157452    171.92375  0.035029289  0.036269735            3 
  410000    1.1030204   -6.8414277    172.42816  0.035046373  0.036249467            3 
  411000    1.1030338   -6.7729706    173.32008  0.035141947  0.036229298            1 
  412000    1.0960111   -6.8118725    173.58068   0.03510936   0.03621003            2 
  413000    1.0827806   -6.8190171    173.92615  0.035094057  0.036190819            2 
  414000    1.0849038   -6.7995719    174.50122  0.035125045  0.036171344            2 
  415000    1.0900916    -6.801362     175.0409  0.035148774  0.036151983            2 
  416000    1.1008178   -6.7847555    175.08309  0.035072734  0.036133122            1 
  417000    1.0928052   -6.8033536    175.00483  0.034972988   0.03611376            3 
  418000    1.1176115    -6.787837    175.76177  0.035040225  0.036095007            1 
  419000    1.0918335   -6.8012861    176.05938  0.035015788  0.036076402            1 
  420000    1.1099694   -6.8201175    176.17882  0.034956115  0.036057219            3 
  421000    1.0695552   -6.7868779    177.21001    0.0350772  0.036039207            2 
  422000    1.0662386   -6.8068536     176.9989  0.034952389  0.036021531            9 
  423000    1.0642057   -6.8050942    178.59356  0.035183916  0.036004258            3 
  424000    1.0972972   -6.8240542     178.4095  0.035064761  0.035987217            5 
  425000    1.0834077   -6.8276728     178.1998  0.034941136  0.035969928            2 
  426000    1.0794328   -6.8397094    178.99353  0.035014384  0.035952962            4 
  427000    1.1269694   -6.8383313    179.60486  0.035051689  0.035936523            2 
  428000    1.0755611   -6.8149844    179.53528  0.034956245  0.035920114            4 
  429000    1.0748634   -6.7624926    180.66522  0.035094255  0.035903585            3 
  430000    1.0678127   -6.8254482    180.31795  0.034945338  0.035887223            2 
  431000    1.0865095   -6.8318798    180.98095   0.03499245  0.035870288            2 
  432000    1.0832948   -6.8009672    180.56795   0.03483178  0.035852665            1 
  433000    1.0725873    -6.836583    181.22424  0.034877645  0.035835105            5 
  434000    1.0868787   -6.8096824    180.85032  0.034725485   0.03581722            2 
  435000    1.0883739   -6.8237338    181.53128  0.034776107  0.035798565            6 
  436000    1.0971438   -6.8228209    182.30928  0.034845046  0.035780643            4 
  437000    1.0927443   -6.7906591    182.92907  0.034883498  0.035763186            3 
  438000    1.0763308   -6.8158424    183.35209   0.03488434  0.035745622            3 
  439000    1.0995808   -6.8376496    184.21499  0.034968677  0.035728689            2 
  440000    1.0728516   -6.8256926    184.16611  0.034879945  0.035712284            2 
  441000    1.0820667   -6.8559715    184.06596  0.034781928  0.035695093            2 
  442000    1.0964245   -6.8169181    184.57062  0.034798382  0.035677944            2 
  443000    1.0682872   -6.8241438     184.4766  0.034702145  0.035660869            3 
  444000    1.0798108   -6.8233997    184.67353  0.034660947  0.035642603            5 
  445000    1.0773178   -6.8234612    184.52967  0.034556117  0.035624408            1 
  446000    1.0633648   -6.7961883     185.2771  0.034618292  0.035605757            2 
  447000    1.1022081   -6.7938432    185.56722  0.034594933  0.035587548            1 
  448000    1.0705198   -6.8349786    186.05055  0.034607618  0.035569406            3 
  449000    1.0852793   -6.8017281    186.68579  0.034648439  0.035551015            2 
  450000    1.0871273   -6.8246429    186.13399  0.034469258  0.035532462            2 
  451000    1.0752403   -6.8121003    186.44365  0.034450045  0.035513071            3 
  452000    1.0659555   -6.8204591    187.43357  0.034556337  0.035493586            5 
  453000     1.079715   -6.7842862    187.51058  0.034494221  0.035474887            4 
  454000    1.0994186   -6.8056181    187.86636  0.034483546  0.035456066            9 
  455000    1.0580096   -6.8156902    188.11824  0.034453891   0.03543708            3 
  456000      1.08232    -6.787158    188.99605  0.034538752  0.035418111            3 
  457000    1.0561195   -6.8338795     189.4051  0.034537764  0.035399577            3 
  458000     1.081099   -6.8223282    189.67722  0.034511866   0.03538122            2 
  459000    1.0881532   -6.8416023     189.7736  0.034454175  0.035363183            6 
  460000    1.0609085   -6.8482917      189.266  0.034287318  0.035344107            5 
  461000    1.0670145   -6.8739143    190.44489  0.034426047   0.03532525            4 
  462000    1.0869438   -6.8575112    189.81257  0.034237476  0.035306595            2 
  463000    1.0727959   -6.8615676    190.43362   0.03427531  0.035287708            2 
  464000    1.0817324   -6.8318188    191.22046  0.034342756  0.035268983            4 
  465000     1.061966   -6.8481118    191.28985  0.034281335  0.035250289            2 
  466000    1.0683583   -6.8422454      192.428  0.034411301   0.03523194            3 
  467000    1.0766233   -6.8619537    193.15946   0.03446814  0.035214343            2 
  468000    1.0616771   -6.8031306    192.65297  0.034304304  0.035196872            6 
  469000     1.067938   -6.8448757    192.72091  0.034243232   0.03517896            2 
  470000    1.0825707   -6.8595729    192.67951  0.034163034  0.035160604            2 
  471000    1.0543856   -6.8084401    193.91619  0.034309305   0.03514194            3 
  472000    1.0891275   -6.8268602    193.97538  0.034247066  0.035123249            3 
  473000    1.0816222   -6.8216329     194.0004  0.034179069  0.035104291            1 
  474000    1.0471542   -6.8401852     193.7333  0.034060004  0.035085382            3 
  475000    1.0741313   -6.8825389    194.32395  0.034091921  0.035066074            2 
  476000    1.0906292   -6.8587515    195.17166  0.034168709  0.035046763            3 
  477000    1.0730962   -6.8623356    195.12035  0.034088111  0.035027562            3 
  478000    1.0535539   -6.8491764     195.7899  0.034133524  0.035008579            4 
  479000    1.0722816   -6.8378114    195.89102  0.034079857  0.034989436            2 
  480000    1.0580329   -6.8395627    196.59412  0.034130923  0.034971154            5 
  481000    1.0674437   -6.8284736    197.50268  0.034217373  0.034953592            4 
  482000    1.0692324   -6.8744656    197.80468  0.034198596  0.034935744            2 
  483000    1.0578567   -6.8556804     197.7695  0.034121721   0.03491755            2 
  484000    1.0380105   -6.8185471    197.03846  0.033925355  0.034899312            2 
  485000    1.0536509   -6.8324528      197.875  0.033999141  0.034881026            4 
  486000    1.0281002   -6.8456192    198.61562  0.034056176  0.034862942            2 
  487000    1.0621128     -6.81152     197.8672  0.033858178   0.03484449            3 
  488000    1.0490072   -6.8591535    198.39461  0.033878861  0.034825171            2 
  489000    1.0586709   -6.8666877    199.10617   0.03393084   0.03480604            2 
  490000     1.064793   -6.8816076     198.8222    0.0338133  0.034786823            2 
  491000    1.0411444   -6.8430601    199.32911  0.033830467  0.034768473            3 
  492000    1.0763833   -6.8576934    200.33254  0.033931663  0.034750407            2 
  493000     1.068135   -6.8660716    200.59677  0.033907501  0.034732502            1 
  494000    1.0454527   -6.8786616    200.47192    0.0338178  0.034713972            2 
  495000     1.036752   -6.8337501    201.03948   0.03384503  0.034694968            2 
  496000    1.0880679    -6.882131    201.23833  0.033810203  0.034676206            1 
  497000    1.0463893   -6.9101466     201.0392  0.033708786  0.034657391            1 
  498000    1.0571795   -6.8698856    201.08792   0.03364925  0.034638521            3 
  499000    1.0584927   -6.9027898    201.91669  0.033720223  0.034619317            3 
  500000    1.0434668    -6.866694    202.70463  0.033784105  0.034600695            3 
  501000    1.0430883   -6.8784235    202.78257  0.033729636  0.034582359            4 
  502000    1.0520279   -6.8773841    202.71889  0.033651875  0.034563779            2 
  503000    1.0346812   -6.8682691     203.9724  0.033792644  0.034545499            2 
  504000     1.052733   -6.8521454    203.55498  0.033656577  0.034527202            2 
  505000     1.054934   -6.9023751    204.27752  0.033709161  0.034508391            2 
  506000    1.0642497   -6.8901686    204.20262  0.033630208  0.034489672            4 
  507000    1.0655093   -6.8446279    205.18712  0.033725693  0.034471665            1 
  508000    1.0442213   -6.8861862     204.6177  0.033565895  0.034453118            3 
  509000     1.059634   -6.8528733    204.93896  0.033552548  0.034433926            6 
  510000    1.0274109     -6.86197    205.30923  0.033547259  0.034414161            3 
  511000    1.0709668     -6.85583    205.29101  0.033478638  0.034394574            2 
  512000     1.051458   -6.8672179    206.45338  0.033602438  0.034375474            6 
  513000    1.0464228    -6.899076    206.01968  0.033466485  0.034355906            4 
  514000    1.0433999   -6.8629919    206.33338  0.033452233  0.034336793            2 
  515000    1.0490214   -6.8711537    207.23685   0.03353347  0.034317232            2 
  516000    1.0510709   -6.9389488    206.27447   0.03331306  0.034297552            4 
  517000    1.0452567   -6.9200271    206.32093  0.033256114  0.034277504            3 
  518000    1.0560501   -6.9114629    207.56697  0.033392369  0.034257774            3 
  519000    1.0370231    -6.906783      207.565  0.033327713  0.034238186            2 
  520000     1.047742   -6.8710769    208.07637  0.033345572  0.034218786            3 
  521000    1.0470501   -6.8615786    208.14223  0.033292103  0.034199077            2 
  522000    1.0476511   -6.8460993    208.93322    0.0333546  0.034179559            2 
  523000    1.0554032   -6.8865779    208.82384  0.033273396   0.03415951            4 
  524000    1.0490729   -6.9181805    207.91847  0.033065914  0.034139049            6 
  525000    1.0271716   -6.8914877    209.15802  0.033199685  0.034118417            4 
  526000    1.0586484   -6.8773668    208.97158  0.033107031  0.034097858            2 
  527000     1.060515   -6.8913188    209.67809  0.033155928  0.034077278            2 
  528000    1.0341955   -6.8576145    210.15301  0.033168089  0.034057278            2 
  529000    1.0393178    -6.903872     209.7281  0.033038453  0.034037205            2 
  530000    1.0604332   -6.8792922    210.30438  0.033066726  0.034016677            4 
  531000     1.043398   -6.8682191    210.28493  0.033001401  0.033995905            2 
  532000    1.0493582   -6.8773903    210.81718  0.033022741  0.033975343            3 
  533000    1.0448144   -6.9144555    210.43074  0.032900366  0.033954001            3 
  534000    1.0311348   -6.8897789    210.89292   0.03291088  0.033933357            4 
  535000    1.0232233   -6.8530547    211.72858   0.03297953  0.033912323            3 
  536000    1.0405669   -6.8756759    212.10438  0.032976427  0.033890949            1 
  537000    1.0543019   -6.9010851    212.14072  0.032920658   0.03386944            3 
  538000    1.0242573   -6.8844509    212.38861  0.032897863   0.03384771            6 
  539000     1.045961   -6.9107924    211.48734  0.032697485  0.033825859            4 
  540000    1.0486108   -6.9013586    211.96462   0.03271059   0.03380372            2 
  541000    1.0568733   -6.9158713     212.1653  0.032681038  0.033781084            2 
  542000    1.0365268   -6.8841436    212.77459  0.032714421  0.033758513            2 
  543000    1.0482089   -6.8720121    213.00762  0.032689935   0.03373612            1 
  544000    1.0242471   -6.9040317    213.06941   0.03263931  0.033714043            3 
  545000    1.0558349   -6.9245365    213.18772   0.03259751  0.033691864            4 
  546000    1.0319041   -6.9265575     213.5722  0.032596489  0.033669359            2 
  547000    1.0359752   -6.8931665    214.35326   0.03265589  0.033647029            2 
  548000    1.0471074   -6.9111904    214.17999   0.03256995  0.033625568            2 
  549000    1.0247747   -6.8949151    214.96502  0.032629784  0.033603824            3 
  550000    1.0257059   -6.9129901    215.27716  0.032617752  0.033581643            4 
  551000     1.051761   -6.9007174     215.3902   0.03257565  0.033559938            4 
  552000    1.0253139   -6.9155783    215.80469   0.03257921   0.03353834            1 
  553000    1.0276156   -6.8585256    216.47133  0.032620755  0.033516557            1 
  554000    1.0267544   -6.9083593    216.13719  0.032511612  0.033494944            2 
  555000    1.0516686   -6.9275482    216.28251  0.032474851  0.033472777            2 
  556000    1.0231589   -6.9273829    215.48374  0.032296724  0.033450302            1 
  557000    1.0281238   -6.9100057    216.21662  0.032348387   0.03342749            1 
  558000    1.0295401   -6.9169148    216.74057  0.032368664  0.033404396            2 
  559000    1.0434105   -6.9278908    216.65209  0.032297569  0.033382074            4 
  560000   0.99619648   -6.9593187    217.05943  0.032300511  0.033359461            5 
  561000   0.99104015   -6.9113196    217.39066  0.032292136  0.033337222            3 
  562000    1.0261815    -6.878212    217.78557  0.032293234  0.033314799            5 
  563000    1.0533879   -6.8932995     218.3951  0.032326095  0.033292582            2 
  564000    1.0201498    -6.876391     217.8652  0.032190485  0.033270257            2 
  565000    1.0411314   -6.9059316    218.32976  0.032202029  0.033247623            4 
  566000    1.0161665   -6.9150447      218.253  0.032133834  0.033225001            3 
  567000    1.0330452   -6.9287387    218.98938  0.032185387  0.033202573            5 
  568000    1.0519459   -6.9207742    219.89922  0.032262209  0.033180276            3 
  569000    1.0086163   -6.9274753    219.48755  0.032145218  0.033158429            4 
  570000    1.0177582   -6.8865635    220.97943  0.032306934  0.033137073            1 
  571000    1.0264531    -6.931644    221.01677  0.032255803  0.033115817            2 
  572000    1.0194174   -6.9321968    220.66008  0.032147447  0.033094317            7 
  573000    1.0269228   -6.9585213    220.79193  0.032110519  0.033072706            2 
  574000    1.0141185   -6.9466443    221.12147  0.032102421  0.033051173            4 
  575000    1.0166816   -6.9368063     221.6996  0.032130377  0.033029441            4 
  576000     1.008348   -6.9190288    221.58436  0.032057923  0.033007613            5 
  577000    1.0248023   -6.9552136    221.60622   0.03200552  0.032985207            2 
  578000    1.0208171   -6.9324048    222.55438  0.032086848  0.032963454            3 
  579000    1.0128357   -6.9686151    222.36721  0.032004492    0.0329413            5 
  580000    1.0400439   -6.9513813    222.26658  0.031934854  0.032919034            2 
  581000    1.0228331   -6.9361005     222.8869  0.031968861  0.032896537            5 
  582000    1.0407422   -6.9559718    222.83166  0.031906023  0.032874221            2 
  583000    1.0268696   -6.9364873    223.64033  0.031966885  0.032852215            4 
  584000    1.0330555   -6.9115667    223.77552  0.031931438  0.032830318            2 
  585000    1.0335228   -6.9423469      222.584  0.031707123  0.032807921            3 
  586000    1.0247182   -6.9225582    223.43507  0.031774043  0.032785408            4 
  587000    1.0248449   -6.9775018    224.26841  0.031838218  0.032763207            6 
  588000    1.0349775   -6.8769549    225.10288  0.031902335  0.032741693            5 
  589000    1.0055784   -6.9471767    224.81354  0.031807236  0.032720343            1 
  590000    1.0055659   -6.9393253    225.21467  0.031809981  0.032698502            2 
  591000    1.0432705    -6.944469    225.26668  0.031763491  0.032676808            1 
  592000    1.0032723   -6.9130685    225.40091  0.031728732  0.032654665            6 
  593000    1.0315443   -6.9431493    225.66288   0.03171204  0.032632445            5 
  594000   0.99725417   -6.9126752    226.44673  0.031768621  0.032610782            3 
  595000    1.0107588   -6.9046201    226.31149  0.031696287   0.03258895            3 
  596000    1.0166191   -6.9234895    227.26417   0.03177631  0.032567409            3 
  597000    1.0349191   -6.9533027    226.14804  0.031567286  0.032545871            2 
  598000    1.0246456   -6.9237947    226.76071  0.031599877   0.03252376            3 
  599000    1.0004302   -6.9653621    228.07028  0.031729309   0.03250176            2 
  600000   0.99997619   -6.9477845    227.61047  0.031612565  0.032479793            4 
  601000    1.0163361   -6.9319842    227.84859  0.031592982  0.032457898            2 
  602000    1.0142302   -6.9323076    228.25772  0.031597138  0.032436205            3 
  603000    1.0067469   -6.9639082    228.08802  0.031521286  0.032414237            2 
  604000   0.98935673   -6.9276562    228.61878  0.031542327  0.032392429            1 
  605000    1.0065705   -6.9366057    228.60237   0.03148793  0.032370581            5 
  606000    1.0439351   -6.9717995    228.33687   0.03139946   0.03234845            5 
  607000    1.0251772   -6.9438193    229.11101   0.03145401  0.032326412            6 
  608000    1.0259196   -6.9663722    228.92179  0.031376342  0.032304155            3 
  609000    1.0290984   -6.9178384    229.51019  0.031405335  0.032282015            3 
  610000    1.0177105   -6.9348429    229.87872  0.031404196  0.032260184            2 
  611000    1.0085831   -6.9562209    229.88422  0.031353549  0.032238586            2 
  612000    1.0179628   -6.9612424    229.94409  0.031310469  0.032216367            3 
  613000    1.0089944   -6.9384806    230.14965  0.031287337   0.03219431            6 
  614000   0.99666817   -6.9730571    230.07436  0.031226162  0.032171973            1 
  615000    1.0320434     -6.93832    231.14966  0.031321093  0.032150087            4 
  616000   0.99393945   -6.9437455    231.26388  0.031285698  0.032128637            3 
  617000    1.0208648   -6.9742281    232.21774  0.031363823  0.032107763            2 
  618000   0.99430118   -6.9928629    231.49197  0.031215206   0.03208665            3 
  619000    1.0077204   -6.9694397    232.95466  0.031361694  0.032065805            3 
  620000   0.98689576   -6.9762838    232.84152  0.031295903  0.032044667            4 
  621000    1.0179996   -6.9982431    232.70432  0.031227097  0.032023789            3 
  622000    1.0332876   -6.9650086    233.74807  0.031316729  0.032002835            3 
  623000    1.0042689   -6.9780385     233.3217   0.03120943  0.031982507           13 
  624000    1.0063372   -6.9294287    234.00211  0.031250282   0.03196188            2 
  625000    1.0014698   -6.9567712    234.01124  0.031201498  0.031941023            2 
  626000    1.0022086   -6.9426495    234.30273  0.031190459  0.031919904            2 
  627000    1.0153736   -6.9563759    235.15476  0.031253956   0.03189916            4 
  628000    1.0065847   -6.9753707    235.45262  0.031243713  0.031878574            3 
  629000    1.0120766    -7.005575    234.98218  0.031131715  0.031858059            4 
  630000    1.0300431   -6.9448181    236.08931  0.031228745  0.031837824            2 
  631000    1.0168854   -6.9778678    236.07007  0.031176713  0.031817569            4 
  632000   0.98143476   -6.9954045    235.48952  0.031050833   0.03179715            2 
  633000   0.99880792   -6.9864668    235.42905  0.030993819  0.031776429            2 
  634000     1.003814   -6.9884449    236.08778  0.031031517  0.031755781            3 
  635000   0.99950575   -6.9340525    236.76287  0.031071242  0.031735614            5 
  636000    1.0349502   -6.9598252    237.28746  0.031091124  0.031715713            2 
  637000    1.0004138   -6.9228401    238.17691  0.031158674  0.031695711            4 
  638000   0.98415205   -6.9602938    237.92709  0.031077206  0.031676072            3 
  639000    1.0036719   -6.9495882    237.65625  0.030993251  0.031656133            2 
  640000    1.0065415   -6.9905586    237.88914  0.030975149  0.031635828            1 
  641000   0.99527023   -6.9748576    238.01459  0.030943134  0.031615539            3 
  642000   0.98964889   -6.9962263    238.17761  0.030916097  0.031595202            5 
  643000   0.99522395   -6.9901604    237.53125  0.030784247  0.031574439            2 
  644000   0.99568922   -6.9940742    238.07997   0.03080745  0.031553743            4 
  645000    1.0015522   -7.0067657    238.41591  0.030803089  0.031532944            2 
  646000   0.98867065   -7.0119355    238.38849  0.030751869  0.031511967            1 
  647000    1.0119047   -6.9640129    239.01233  0.030784689  0.031490935            2 
  648000    1.0059469    -6.976095    238.96787  0.030731465  0.031470138            2 
  649000    1.0056372   -7.0419681    239.24648  0.030719888  0.031449315            2 
  650000    1.0023639   -6.9702928    239.46839  0.030701076  0.031428694            2 
  651000    1.0039473   -6.9982939    240.10936  0.030735965  0.031408448            1 
  652000    1.0015764   -6.9625377    240.91981  0.030792409  0.031387948            3 
  653000    1.0067933   -6.9868586    240.55516  0.030698719  0.031367626            2 
  654000   0.97687244   -6.9758312    240.94769  0.030701796  0.031347334            2 
  655000   0.99230504    -7.012909    240.19107   0.03055866  0.031326649            4 
  656000   0.99125681    -6.998434    240.86187   0.03059729   0.03130585            6 
  657000   0.98446335   -6.9782383    241.83982  0.030674761  0.031284962            3 
  658000    1.0120103   -7.0409138    240.86515  0.030504705  0.031264141            2 
  659000   0.98506924   -6.9992038    240.70305  0.030437917  0.031243004            4 
  660000    1.0120843   -6.9962049    241.61137  0.030506486  0.031221721            5 
  661000   0.97184735   -7.0274379    241.26854  0.030417113  0.031200411            4 
  662000   0.98499061   -6.9610712    241.88622   0.03044892  0.031179032            4 
  663000   0.99922663   -7.0211048    241.93603  0.030409254  0.031157765            2 
  664000   0.97931307   -6.9900366    242.27401  0.030405875  0.031136426            3 
  665000    1.0144599   -6.9751073    242.93502  0.030442985  0.031115289            9 
  666000   0.98683694   -6.9856186    242.82037  0.030382929  0.031094192            2 
  667000   0.97443448   -7.0168397      242.194  0.030259121  0.031072705            4 
  668000   0.98568657    -7.017984    242.56835  0.030260523  0.031050976            3 
  669000     0.989944   -7.0056428    242.71391  0.030233422  0.031029334            2 
  670000   0.99601399   -6.9854882    244.00117  0.030348404  0.031007829            6 
  671000   0.96404273   -7.0158939    243.52184  0.030243646  0.030986447            2 
  672000   0.99740562   -7.0056748    244.40579  0.030308257  0.030965223            2 
  673000   0.99373216   -6.9937941    243.98294  0.030210864  0.030944171            5 
  674000   0.96464536   -7.0134626    244.90628  0.030280203  0.030923012            2 
  675000   0.99643372   -7.0215906    244.86005  0.030229636  0.030902191            2 
  676000   0.99121531   -7.0237896    245.59453  0.030275459  0.030881529            3 
  677000   0.99944619   -6.9994758    245.90413  0.030268849  0.030860684            3 
  678000   0.96815596   -7.0426415    245.25232  0.030144091  0.030840001            3 
  679000   0.98400192   -6.9821097    245.81348  0.030168566  0.030819566            3 
  680000   0.98750175   -7.0353691    245.89972   0.03013477  0.030798898            5 
  681000   0.98007671   -7.0306812    246.70433  0.030188978  0.030778565            4 
  682000   0.97361692    -7.017645    246.42735  0.030110869   0.03075836            3 
  683000   0.97331738   -6.9816964    247.66738  0.030218079  0.030738348            5 
  684000    0.9821887   -7.0239255    247.78254  0.030187932  0.030718215            5 
  685000   0.96384465   -7.0363262    247.95008  0.030164243  0.030698336            3 
  686000   0.99953262   -6.9994725    248.53206  0.030190969  0.030678721            4 
  687000   0.96178371   -6.9688251    248.55734   0.03015009  0.030659095            2 
  688000    0.9844995   -6.9929953    249.43699  0.030212813  0.030639748            3 
  689000    0.9876496   -7.0232928    248.88594  0.030102315  0.030620481            2 
  690000   0.97078069   -7.0625439    249.57635  0.030142071  0.030600818            5 
  691000    0.9900904   -7.0694889    249.32783  0.030068479  0.030581457            2 
  692000   0.97289589   -7.0010102    250.30624  0.030142852  0.030562264            1 
  693000   0.96717551   -7.0133145    250.44251  0.030115742  0.030543177            6 
  694000   0.99047881   -7.0663836    250.19103  0.030042151  0.030524282            6 
  695000   0.95680133    -7.005671    251.32889  0.030135358  0.030505173            4 
  696000   0.97918338   -7.0266916    251.37611  0.030097714  0.030486221            1 
  697000   0.98523663   -7.0399074     251.2158  0.030035366  0.030466975            3 
  698000   0.96608923   -7.0544032    251.91795  0.030076165  0.030447887            2 
  699000   0.99830264   -7.0251849    252.02313  0.030045676  0.030429254            3 
  700000   0.99308911   -7.0438693    251.96668  0.029996034  0.030410767            5 
  701000   0.97880922   -7.0271202     252.4963  0.030016203  0.030392254            2 
  702000   0.97160937   -7.0076242      252.754  0.030004036   0.03037439            3 
  703000   0.97999948   -7.0539917    252.75531  0.029961511  0.030355895            5 
  704000    0.9722248   -7.0560151    253.63061  0.030022562  0.030337888            2 
  705000   0.97029931   -7.0362903    253.27235   0.02993763  0.030319461            5 
  706000   0.96851795    -7.077273    252.89366  0.029850526   0.03030112            4 
  707000   0.99120954   -7.0470065    254.07699  0.029947782  0.030282544            3 
  708000   0.96425511   -7.0372432     253.7914  0.029871869   0.03026415            6 
  709000   0.97944125   -7.0436478    254.68738  0.029935047  0.030245735            1 
  710000     0.946318   -7.0615811    253.63879  0.029769811  0.030227218            4 
  711000   0.96235423   -7.0392877    254.91391  0.029877392  0.030208672            4 
  712000   0.95791007   -7.0497422    254.13383  0.029744128  0.030190262            2 
  713000   0.96954474   -7.0002085    256.11096  0.029933492  0.030172186            3 
  714000   0.96115375   -7.0533787    255.24341  0.029790314  0.030154165            5 
  715000   0.96191635   -7.0341712    255.99687  0.029836465  0.030136196            2 
  716000   0.96230856   -7.0651605    256.08163   0.02980466  0.030118069            2 
  717000   0.97390667    -7.036415    255.78715  0.029728865  0.030099826            5 
  718000   0.97182657   -7.0605812    255.57679  0.029663044   0.03008163            3 
  719000   0.94902952   -7.0332897    256.79844   0.02976338  0.030063438            5 
  720000   0.97148901   -7.0365769    256.65416  0.029705342  0.030045215            4 
  721000   0.96858707   -7.0247381    256.75438  0.029675726  0.030026891            3 
  722000   0.95915005   -7.0567971    256.43945  0.029598274  0.030008075            4 
  723000    0.9610975   -7.0518504    256.56707  0.029572046  0.029989199            2 
  724000   0.96766261    -7.047302     257.1263  0.029595569  0.029970222            2 
  725000   0.98010962   -7.0521324    256.19684  0.029447913  0.029951363            5 
  726000   0.95372905   -7.0567497    257.10927  0.029512083  0.029932303            4 
  727000   0.98363763   -7.0392052    257.03217  0.029462652  0.029913277            2 
  728000   0.93860353   -7.0425997    256.28507   0.02933666  0.029893909            2 
  729000     0.988346   -7.0769902    257.67287   0.02945506  0.029874634            2 
  730000   0.95612606   -7.0459837    257.37198  0.029380363  0.029855385            4 
  731000   0.94779751   -7.0717864    258.19997  0.029434561  0.029836015            3 
  732000   0.95613758   -7.0756095    257.82013  0.029351107  0.029816813            2 
  733000   0.95917302   -7.0372626    258.85552  0.029428776  0.029797848            3 
  734000   0.98810751   -7.0727721    258.26734  0.029321905   0.02977883            7 
  735000   0.98565292   -7.0645281    258.91043  0.029354924  0.029759967            4 
  736000   0.95699025   -7.0606875    258.58069  0.029277705  0.029740996            2 
  737000   0.96337085   -7.0462125    259.60566  0.029353873  0.029721955            1 
  738000   0.96256056   -7.0476587    259.81009  0.029337183  0.029703148            3 
  739000   0.95542098   -7.0814156    259.59038  0.029272708  0.029684498            2 
  740000   0.95466126   -7.0560168    260.04617  0.029284478  0.029665662            5 
  741000   0.94714683   -7.0497237    260.66895  0.029314996   0.02964724            6 
  742000   0.95387015   -7.0786273    260.74227  0.029283723  0.029628633            4 
  743000   0.94215018   -7.0416086     260.1887  0.029182223  0.029609835            2 
  744000   0.95327765   -7.0576924    260.20043  0.029144314   0.02959124            2 
  745000    0.9538813   -7.0557005    260.60971  0.029150975  0.029572284            1 
  746000   0.96232757   -7.0848298    260.84612  0.029138306  0.029553326            6 
  747000   0.95394856   -7.0733921    260.64922  0.029077333  0.029534244            5 
  748000   0.92838629   -7.0885548    260.81335  0.029056745  0.029515089            4 
  749000   0.95121337   -7.0916364    260.78781   0.02901511  0.029495998            2 
  750000   0.95081687   -7.0616659    261.73077  0.029081197  0.029477025            3 
  751000   0.94348584   -7.0871604    260.83248  0.028942796   0.02945814            3 
  752000   0.95882616   -7.0815871    262.17874  0.029053495  0.029439161            4 
  753000   0.95152812    -7.061945    261.70409  0.028962382  0.029420047            3 
  754000   0.96714552     -7.05895    261.85592  0.028940751  0.029400834            4 
  755000   0.93672275   -7.0825843    262.07035  0.028926088  0.029381579            5 
  756000   0.95509309   -7.0855159    262.17442  0.028899297  0.029362397            2 
  757000   0.95005223   -7.1195279    262.35946  0.028881491  0.029343208            3 
  758000   0.95972037   -7.0630487    263.41541  0.028959478  0.029323964            3 
  759000   0.96002841   -7.0753769     263.6734  0.028949649  0.029304938            3 
  760000   0.95934222   -7.1188194    262.49953  0.028782843   0.02928579            4 
  761000   0.94146385   -7.0447856    263.70673  0.028877215  0.029266786            4 
  762000   0.93301603   -7.0878874    263.60675  0.028828385  0.029247858            3 
  763000   0.95421436   -7.0397105    263.43823  0.028772197  0.029228502            2 
  764000   0.93257574   -7.0807819    264.72004  0.028874349  0.029209278            3 
  765000   0.96098502   -7.0684328    264.58457  0.028821849  0.029189773            4 
  766000   0.94229194   -7.1345945    263.40768  0.028656188  0.029170349            3 
  767000   0.94411651   -7.0535643     264.8479  0.028775304  0.029151135            3 
  768000   0.95473913   -7.0904384    264.78037  0.028730509  0.029132133            3 
  769000   0.93617538   -7.1053362    264.47374   0.02865992  0.029113046            4 
  770000   0.94484962   -7.0938332    265.47886  0.028731479  0.029094077            3 
  771000   0.93346543   -7.0928471    264.58968  0.028598106  0.029075255            3 
  772000   0.94890584   -7.1036331    265.73985  0.028685217  0.029056061            3 
  773000   0.96269774   -7.0847629    265.59216  0.028632186  0.029037045            5 
  774000   0.92933862   -7.0825712    265.80071  0.028617648  0.029017939            4 
  775000   0.93230663   -7.1035326    265.78867  0.028579427  0.028998736            2 
  776000   0.92231399    -7.095721    266.38168   0.02860628  0.028979507            3 
  777000   0.92662402   -7.0987272    266.20183  0.028550174  0.028960475            2 
  778000   0.93034471   -7.1154567    265.97101  0.028488755  0.028941115            4 
  779000   0.92267043   -7.1399117    266.46993  0.028505555  0.028921759            7 
  780000   0.93030581   -7.0941328    267.13829  0.028540416   0.02890276            4 
  781000   0.92931618   -7.1169652    266.91936  0.028480512  0.028883751            3 
  782000   0.92992658   -7.1077103    267.27606  0.028482103  0.028865044            4 
  783000    0.9268342   -7.1170842    267.91355  0.028513575  0.028846199            2 
  784000   0.96016647   -7.0967404    268.28791  0.028516998  0.028827419            2 
  785000   0.94072517   -7.1054738    268.27151  0.028478928  0.028808841            3 
  786000   0.92992062    -7.103029    268.71966   0.02849021  0.028790323            3 
  787000   0.92700738   -7.1188213    267.81423  0.028358135  0.028771638            2 
  788000    0.9333723   -7.1059173    268.70168  0.028415998  0.028752819            6 
  789000   0.94006452   -7.1214931    268.62706  0.028372102  0.028733857            3 
  790000   0.92926006   -7.0646271    269.47917  0.028426073  0.028714987            4 
  791000    0.9590384   -7.0889611    268.64379  0.028302127  0.028696148            3 
  792000   0.93363039   -7.1073307    269.14684  0.028319322  0.028677205            3 
  793000   0.93286021   -7.0880899    269.24792  0.028294233  0.028658231            2 
  794000   0.93317381   -7.1200613    268.96571  0.028228978  0.028639272            3 
  795000   0.94816603   -7.0958858    269.23485  0.028221682  0.028620116            3 
  796000   0.94389012   -7.1143443    269.72094  0.028237117  0.028600903            6 
  797000   0.91931646   -7.0911812    270.13603  0.028245089  0.028581654            7 
  798000   0.91260272   -7.1089378    269.74647  0.028169013  0.028562682            3 
  799000   0.91726683    -7.131404    270.43895  0.028205981  0.028543873            4 
  800000   0.91308973   -7.1145152    270.43481  0.028170293  0.028525341            4 
  801000   0.92332456   -7.0989239    271.43827   0.02823952  0.028506751            4 
  802000   0.92134831   -7.1170659    271.67863  0.028229284  0.028488364            5 
  803000   0.92481003   -7.1071955     272.5734  0.028286986  0.028470065            3 
  804000   0.91873493    -7.087566    271.94631  0.028186807  0.028451666            6 
  805000   0.94325711   -7.1233004    272.07722  0.028165344  0.028433271            2 
  806000   0.93264108   -7.1588516    271.94548  0.028116778   0.02841489            3 
  807000   0.95784148   -7.1101425    272.08025  0.028095854  0.028396325            6 
  808000    0.9128206   -7.1194198     271.8479  0.028037119  0.028377784            3 
  809000   0.91437476   -7.0981143    272.14449  0.028033013  0.028359431            3 
  810000    0.9125087   -7.1354833    272.67209  0.028052685  0.028341041            5 
  811000   0.93215547   -7.0966333    272.76477  0.028027617  0.028322421            3 
  812000   0.92159966   -7.1138178    273.11656  0.028029203  0.028303745            3 
  813000   0.92339909   -7.1133469    272.07055   0.02788751   0.02828511            5 
  814000   0.95510983   -7.1154911     272.6497  0.027912541  0.028266293            3 
  815000   0.91819727   -7.1479739    272.38984  0.027851722  0.028247436            4 
  816000   0.94088299   -7.1608929    272.82826  0.027862364  0.028228309            6 
  817000   0.91400084   -7.1469237     272.8843  0.027833976  0.028209076            2 
  818000    0.9439348   -7.1500341    272.97669  0.027809361  0.028190044            3 
  819000   0.92960197   -7.1580908    272.72751  0.027750052   0.02817113            2 
  820000   0.90660321   -7.1422631     273.5929  0.027804157  0.028152225            3 
  821000   0.94054586    -7.128137    273.81543  0.027792877  0.028133409            2 
  822000    0.9324443   -7.1239576    274.29597  0.027807783  0.028114563            2 
  823000   0.92161455   -7.1244509    274.23407  0.027767727  0.028095778            3 
  824000   0.92176231   -7.1102972    274.17864  0.027728422  0.028076802            1 
  825000   0.92197787   -7.0989667    273.95154  0.027671873   0.02805764            3 
  826000   0.92258877   -7.1514553     274.2395  0.027667423  0.028038761            3 
  827000   0.93627851   -7.1256818     273.6796   0.02757755  0.028019748            3 
  828000   0.93705823   -7.1400111    274.95464  0.027672568   0.02800066            4 
  829000   0.92867361   -7.1377904    274.87909  0.027631593  0.027981541            5 
  830000   0.93687141   -7.1443083    274.45385  0.027555608  0.027962431            3 
  831000    0.9089424   -7.1608484    274.71746  0.027548883  0.027943518            2 
  832000    0.9126125   -7.1412528    275.17039  0.027561137  0.027924422            4 
  833000   0.92774535   -7.1417791    275.34253  0.027545271  0.027905394            2 
  834000   0.92983388   -7.1483871    274.77902  0.027455938  0.027885993            3 
  835000   0.92778484   -7.1313291    275.37084   0.02748212  0.027866663            4 
  836000   0.90780722   -7.1538922    275.23101  0.027435308  0.027847369            7 
  837000   0.92359396   -7.1322969    275.04137  0.027383649  0.027827837            2 
  838000   0.92258793   -7.1693741     275.1491  0.027361685  0.027808432            3 
  839000   0.90531078   -7.1666066    276.13113  0.027426612  0.027788891            5 
  840000   0.91518245   -7.0936635    276.43901  0.027424504  0.027769504            3 
  841000   0.89417546   -7.1570084    275.52114  0.027300946  0.027750022            2 
  842000   0.93817146   -7.1971866     275.3126  0.027247882   0.02773055            4 
  843000   0.92058601   -7.1248204    276.50444  0.027333377  0.027710933            6 
  844000    0.9462651   -7.1546914    276.25979  0.027276835   0.02769151            3 
  845000   0.90097458   -7.1290939    276.22718  0.027241339  0.027671948            3 
  846000   0.92228158   -7.1219879    276.66185  0.027251955  0.027652499            5 
  847000   0.90916592   -7.1423804    277.10039  0.027262927  0.027633012            2 
  848000   0.92109237   -7.1325065    276.79214  0.027200485  0.027613479            2 
  849000   0.91115303   -7.1282466    277.43097  0.027231151  0.027593808            3 
  850000   0.92273656   -7.1551859    276.86565  0.027143691  0.027574145            6 
  851000   0.90442428   -7.1261619    277.32605  0.027156879   0.02755451            6 
  852000   0.91056043    -7.172355    277.68019  0.027159643  0.027534793            5 
  853000   0.90675475    -7.136051    277.03402  0.027064675  0.027515174            5 
  854000   0.89724334   -7.1794039    277.22807   0.02705192  0.027495671            4 
  855000   0.92910528   -7.1628803    278.03734  0.027099156  0.027476148            2 
  856000   0.90869658   -7.1454412    277.87794   0.02705198  0.027456633            2 
  857000   0.90752907   -7.1529931    278.50297  0.027081191  0.027437246            3 
  858000   0.92544393   -7.1437882    277.80963  0.026982287  0.027417877            4 
  859000   0.90572281   -7.1586329    278.74466  0.027041585  0.027398416            5 
  860000   0.89620019    -7.134821    278.14004  0.026951554  0.027378991            5 
  861000   0.91580495   -7.1508024    279.45254  0.027047284  0.027359706            5 
  862000   0.90739958   -7.1432872     279.6393  0.027033961  0.027340495            6 
  863000    0.8999749   -7.1712667    278.53573  0.026896073  0.027321281            3 
  864000   0.91503247   -7.1484397    279.37615  0.026946002  0.027302046            4 
  865000   0.89398515    -7.171815    279.83539  0.026959093   0.02728301            5 
  866000   0.90666742   -7.2052182    278.72628  0.026821236  0.027263686            3 
  867000   0.90582665    -7.200547    279.28961  0.026844445  0.027244312            1 
  868000   0.91111305   -7.1777426    279.14148  0.026799297  0.027224709            3 
  869000   0.89199711   -7.1886013     280.0829  0.026858736  0.027205158            3 
  870000   0.90645535   -7.1631026    280.26004  0.026844832  0.027185518            2 
  871000   0.88830874    -7.185535    279.47933  0.026739316  0.027166041            3 
  872000   0.90630768    -7.195673    279.84936  0.026744013  0.027146443            7 
  873000   0.92009846   -7.1883476    280.52926  0.026778279  0.027126927            3 
  874000   0.93100068   -7.1971454    280.44423  0.026739533  0.027107403            6 
  875000   0.92294019    -7.187723    280.48243  0.026712612  0.027087986            4 
  876000   0.91420298     -7.19705    280.44476  0.026678535  0.027068461            4 
  877000   0.91332026   -7.1962957     280.9323  0.026694441  0.027049164            4 
  878000    0.8817321   -7.2031501    281.09814  0.026679778  0.027029798            5 
  879000   0.88789606   -7.1559894    281.44173     0.026682  0.027010351            3 
  880000   0.90016328   -7.1766787    281.37278   0.02664515  0.026990919            3 
  881000   0.91272272   -7.2381526    280.82013   0.02656263  0.026971399            3 
  882000   0.89962734   -7.1877514    280.76089  0.026526917  0.026951706           11 
  883000   0.89231811   -7.1862977    280.86029  0.026506257  0.026932032            2 
  884000   0.89055952   -7.1932963     280.8096  0.026471493  0.026912305            4 
  885000   0.89739657   -7.1778085    281.34914  0.026492387  0.026892649            5 
  886000   0.90094984   -7.2029659    281.38967  0.026466297   0.02687293            5 
  887000   0.89354619   -7.1856897    282.45943  0.026536963  0.026853283            4 
  888000   0.89691696   -7.2074292    281.99072  0.026463093  0.026833715            3 
  889000   0.90213339   -7.1620817    282.31335  0.026463569  0.026814152            5 
  890000   0.89389204   -7.1612029    281.63488  0.026370307  0.026794479            2 
  891000    0.9088386   -7.2075603    282.40675  0.026412902  0.026774876            2 
  892000   0.89404112   -7.1573457    282.84531  0.026424263   0.02675529            2 
  893000   0.89877574   -7.1895155    281.75257    0.0262927  0.026735755            3 
  894000   0.90524191   -7.2039085    282.60847  0.026343071  0.026716278            3 
  895000   0.89196487   -7.2240906    282.55646  0.026308795  0.026696975            5 
  896000   0.89048793   -7.2058099    282.82446  0.026304358  0.026677509            4 
  897000   0.88732807   -7.1889283    282.44569  0.026239845  0.026658154            4 
  898000   0.89658995   -7.1771657    283.64325  0.026321757  0.026638666            3 
  899000   0.88607452   -7.2246557    282.71037  0.026206004  0.026619222            4 
  900000   0.91289253   -7.1981945    284.23676  0.026318218  0.026599616            3 
  901000   0.90854083   -7.1671991    284.55612  0.026318546   0.02658036            6 
  902000   0.88714021   -7.1858578    284.48435  0.026282738  0.026561217            3 
  903000   0.89726924   -7.1801754    283.65659  0.026177242  0.026542053            4 
  904000   0.90663149   -7.1696807    284.29527  0.026207159  0.026522831            2 
  905000   0.88315941   -7.2190059    284.71668  0.026217005  0.026503445            5 
  906000   0.87768381   -7.1921948    283.87826  0.026110951  0.026484305            2 
  907000   0.90224635   -7.2110676    284.76757  0.026163871  0.026465036            5 
  908000   0.88045914   -7.1893192    285.04876  0.026160863  0.026446006            2 
  909000   0.89733672   -7.1972564    284.78883  0.026108254  0.026427073            2 
  910000   0.89856659   -7.1750317      285.044   0.02610293  0.026408124            2 
  911000   0.90111157   -7.2130231    284.59185  0.026032917  0.026389019            3 
  912000    0.8649487   -7.2072125    284.62542   0.02600744  0.026369892            2 
  913000   0.88781122   -7.1630668    286.35427  0.026136753  0.026350751            3 
  914000   0.87912605   -7.1975839    286.70003  0.026139682  0.026332064            4 
  915000    0.8928006   -7.2133911    286.09184  0.026055723   0.02631329            2 
  916000   0.87936323   -7.2068397    285.77436  0.025998395  0.026294599            5 
  917000   0.90164499   -7.1996645    286.52306  0.026038082   0.02627568            3 
  918000   0.86892631   -7.1775607    286.42842  0.026001127   0.02625686            3 
  919000   0.88175204   -7.1934357    286.48583  0.025978041  0.026237908            4 
  920000   0.89517993   -7.2376706    285.74111  0.025882346  0.026218916            4 
  921000   0.88350759   -7.2382954    286.32339   0.02590693  0.026199505            4 
  922000   0.89616099   -7.2254797    285.86421  0.025837329  0.026180101            2 
  923000   0.86931776   -7.2450693    286.19433  0.025839141  0.026160681            4 
  924000    0.8802412   -7.2282812    286.26167   0.02581725  0.026141123            4 
  925000   0.87920414   -7.2325814    285.98095  0.025764049  0.026121494            3 
  926000   0.87699687   -7.2522725    285.49849  0.025692809  0.026101877            2 
  927000   0.87400281   -7.2478558    286.18222  0.025726557  0.026082292            5 
  928000   0.87456816   -7.2094306     286.7427  0.025749164  0.026062757            3 
  929000   0.87369075   -7.2105794    286.91514  0.025736916  0.026043287            4 
  930000   0.87397583   -7.2139189    287.09843  0.025725666  0.026023888            4 
  931000   0.86955339   -7.2161846    286.85085  0.025675873  0.026004347            4 
  932000   0.86523807   -7.2123886    287.02068  0.025663508  0.025985046            8 
  933000   0.88439848   -7.2299126    286.68449  0.025605974   0.02596567            6 
  934000    0.8911111   -7.2313509    286.88237  0.025596215  0.025946321            4 
  935000   0.90118995   -7.2173173    287.40258  0.025615203  0.025926968            6 
  936000    0.8812873   -7.2284309    287.70389  0.025614663  0.025907715            4 
  937000    0.8726709   -7.2269156    288.03631   0.02561689    0.0258886            8 
  938000   0.87294775   -7.2206962    288.15507  0.025600131   0.02586952            6 
  939000   0.89066422   -7.2619688     287.8292  0.025543948  0.025850517            6 
  940000   0.89429516   -7.2469087    287.68675  0.025504144  0.025831361            5 
  941000   0.86777938   -7.2601362    287.91553  0.025497301  0.025812343            3 
  942000   0.88211937   -7.2330229    288.16551  0.025492349  0.025793269            3 
  943000   0.87981496   -7.2410104    289.27032  0.025562948  0.025774138            4 
  944000   0.89120167   -7.2264548     288.9775   0.02551002   0.02575515            4 
  945000   0.86834731    -7.236513    289.38089  0.025518597  0.025736015            3 
  946000   0.86016624   -7.2168886     289.4593  0.025498529  0.025717014            4 
  947000   0.87280434    -7.263609     290.1055  0.025528467  0.025698295            3 
  948000    0.8779979   -7.2652413    289.46581  0.025445307  0.025679712            4 
  949000   0.90336571   -7.2386482    289.51073  0.025422439  0.025661068            7 
  950000   0.88138385    -7.238619     289.7315  0.025415044  0.025642176            5 
  951000   0.88086623   -7.2195709    290.04832  0.025416081   0.02562352            3 
  952000   0.86672271   -7.2288735    290.90536  0.025464404  0.025604787            9 
  953000   0.87940128    -7.224231    290.28771  0.025383675  0.025586148            3 
  954000   0.87596463   -7.2607449    289.91875  0.025324838  0.025567533            5 
  955000    0.9065567   -7.2435631    290.48015  0.025347308  0.025548852            3 
  956000    0.8649625   -7.2386402    290.97549  0.025363972  0.025530124            3 
  957000   0.86552247    -7.242941    290.85392  0.025326882  0.025511536            4 
  958000   0.87323322   -7.2510206    290.52301   0.02527166  0.025492977            3 
  959000   0.87182558   -7.2458471    290.97997  0.025285017  0.025474404            6 
  960000   0.85680951   -7.2674421    290.64029  0.025229191  0.025455834            2 
  961000   0.86423578    -7.274982     290.4602  0.025187322  0.025437062            4 
  962000   0.87072701   -7.2599178    291.45915  0.025247674  0.025418269            6 
  963000   0.86082353   -7.2598078    290.79144  0.025163676  0.025399439            4 
  964000   0.85493237   -7.2603302    290.75239  0.025134197  0.025380547            3 
  965000   0.85295077   -7.2441988    290.88798   0.02511986  0.025361598            3 
  966000   0.85727883   -7.2539316    291.46871  0.025143953  0.025342753            2 
  967000   0.87457907   -7.2409866    291.34897  0.025107632  0.025323992            5 
  968000   0.87572616   -7.2698121    290.72929  0.025028348  0.025305053            2 
  969000   0.87786353   -7.2729529    292.51867  0.025156404  0.025286177            4 
  970000   0.86122913   -7.2603916    291.67976  0.025058399  0.025267303            7 
  971000   0.86134065   -7.2815912    290.73455  0.024951472  0.025248379            5 
  972000   0.86884296   -7.2706645    291.73144  0.025011269  0.025229452            3 
  973000   0.85005763    -7.265652    291.40732  0.024957804  0.025210481            4 
  974000   0.83743212   -7.2344125    292.38435  0.025015773  0.025191716            5 
  975000   0.87091826   -7.2713453    291.23859  0.024892188  0.025172939            4 
  976000   0.85241285   -7.2659258    291.77226  0.024912249  0.025154184            5 
  977000   0.84383666   -7.2508773    292.10169  0.024914849  0.025135333            8 
  978000   0.88419031   -7.2371508    291.76881   0.02486101  0.025116485            4 
  979000   0.84772068   -7.2699284    292.08535   0.02486256   0.02509753            3 
  980000   0.86710204   -7.2872933    291.61843  0.024797485  0.025078375            2 
  981000   0.87230575   -7.2976597    291.84336  0.024791315  0.025059327            4 
  982000   0.87972911   -7.2936963    292.20639  0.024796876  0.025040295            4 
  983000   0.84609916   -7.2893337    292.56429  0.024801991  0.025021291            2 
  984000   0.85532816   -7.2714387    292.11832  0.024739018  0.025002426            4 
  985000   0.85660308   -7.2682549    292.77541  0.024769493  0.024983555            2 
  986000   0.84944625   -7.2571521    293.47923  0.024803857  0.024964743            3 
  987000   0.87385973   -7.2720729    292.84047  0.024724795  0.024945834            3 
  988000   0.87243546   -7.2615241    293.05265  0.024717667  0.024927035            5 
  989000   0.86954273   -7.2995676    292.67951  0.024661233  0.024908214            3 
  990000    0.8519875   -7.2573313    293.82081  0.024732392  0.024889393            3 
  991000   0.84761801   -7.2583609    293.40457  0.024672433  0.024870712            4 
  992000   0.83577376   -7.2760021    293.86507  0.024686246  0.024852014            4 
  993000   0.85766869    -7.243361    294.08549  0.024679883  0.024833597            5 
  994000   0.83494695    -7.289697    293.64503  0.024618128  0.024815297            4 
  995000   0.86345045   -7.2458585     294.5552  0.024669614  0.024797079            5 
  996000   0.84653615   -7.3086002    294.61311  0.024649691  0.024778699            3 
  997000   0.87516116    -7.282423    294.32393  0.024600797  0.024760292            7 
  998000   0.85559858   -7.2895345    294.80758  0.024616532  0.024741982            3 
  999000   0.84420171   -7.2967994    294.52882  0.024568637   0.02472361            7 
 1000000   0.86992665   -7.3385473    293.97399  0.024497832  0.024705083            3 
 1001000   0.85119511   -7.3080964    295.02439  0.024560805  0.024686725            3 
 1002000   0.86064009    -7.270594    295.20863  0.024551616  0.024668268            5 
 1003000   0.84806603   -7.3143891    295.57018  0.024557176  0.024649955            4 
 1004000   0.85851688   -7.3111824    295.08341  0.024492315  0.024631687            2 
 1005000   0.84791746   -7.2831867    295.52754  0.024504771  0.024613362            6 
 1006000   0.83046347   -7.2954643    295.75286  0.024499078  0.024594927            6 
 1007000   0.84963515   -7.2875606    295.63488  0.024464985  0.024576607            3 
 1008000   0.85798053   -7.3176594    295.56735  0.024435131  0.024558344            3 
 1009000   0.85523011   -7.3173051    295.80605  0.024430628  0.024539941            3 
 1010000   0.85215805   -7.2927515     296.0664  0.024427921  0.024521607            3 
 1011000   0.84768916   -7.3143444     295.8986  0.024389928  0.024503143            8 
 1012000   0.85886019   -7.3122699    295.06345  0.024297056  0.024484681            3 
 1013000   0.84420445   -7.3126501    295.41474  0.024301969  0.024466108            2 
 1014000   0.86209568   -7.3050518    295.93051   0.02432039  0.024447721            5 
 1015000   0.84555373   -7.3072839    296.23933  0.024321784   0.02442943            5 
 1016000   0.84628899   -7.3017705    297.19486  0.024376219  0.024411359            4 
 1017000   0.84522754   -7.3321244    296.54977  0.024299391  0.024393344            3 
 1018000   0.85160509   -7.3011418     296.7862  0.024294876  0.024375335            2 
 1019000   0.85537233   -7.2707831    297.48576  0.024328243  0.024357303            5 
 1020000    0.8279155   -7.3013021    297.22394  0.024283002  0.024339275            3 
 1021000   0.85485472    -7.261848    297.15387  0.024253499  0.024321446            4 
 1022000   0.84759907   -7.2473579    298.20341  0.024315347   0.02430354            2 
 1023000   0.85379988   -7.2778674    297.47573  0.024232302  0.024285656            6 
 1024000   0.85290516   -7.2900462    297.01428  0.024171084  0.024267739            3 
 1025000   0.86347104     -7.29543    298.08894  0.024234873  0.024249793            3 
 1026000   0.85459378   -7.2965982    297.89324  0.024195357  0.024232034            3 
 1027000   0.84006021   -7.3148373    299.17809  0.024276054  0.024214384           11 
 1028000   0.83785966   -7.3065438    298.75179  0.024217882  0.024196773            2 
 1029000   0.83586073   -7.2691759    298.74284  0.024193622  0.024179091            4 
 1030000   0.85494297   -7.3196681    298.43056  0.024144867  0.024161272            3 
 1031000   0.83274047   -7.3278094    298.42988  0.024121393  0.024143447            5 
 1032000    0.8409408    -7.323255    297.98354  0.024061978  0.024125681            5 
 1033000   0.82866214   -7.3224497    298.66475  0.024093639  0.024107901            3 
 1034000   0.84555563   -7.3255409    299.08444  0.024104162  0.024090104            5 
 1035000   0.83408185   -7.3081526    298.42762  0.024027988  0.024072375            6 
 1036000   0.83054711   -7.3362124    299.00716  0.024051412  0.024054656            3 
 1037000   0.83975652   -7.3226543    298.65297  0.023999757  0.024036917            3 
 1038000   0.85141117   -7.3093471    298.09606  0.023931925  0.024019152            4 
 1039000   0.83777154   -7.3115279     298.8035  0.023965632  0.024001329            3 
 1040000    0.8463351   -7.3005564    298.67152  0.023932013   0.02398362            3 
 1041000   0.84437626   -7.3050676    299.31377  0.023960437  0.023966019            5 
 1042000   0.84917925   -7.3191262    300.30032   0.02401634  0.023948418            4 
 1043000   0.83516349   -7.2993248    300.28069  0.023991746  0.023930941            2 
 1044000   0.82539127   -7.3299396    300.19054  0.023961569   0.02391338            5 
 1045000   0.83687886   -7.2993646    300.63399  0.023974002   0.02389601            4 
 1046000   0.84650416   -7.3216609    300.07429  0.023906493  0.023878664            4 
 1047000   0.83524908   -7.3176206     300.3214  0.023903327  0.023861157            4 
 1048000   0.82511085   -7.3538012     300.9317  0.023929047   0.02384366            8 
 1049000   0.83199672   -7.3399324    300.82618  0.023897853  0.023826196            4 
 1050000   0.85494385   -7.3375035    300.59885  0.023857051  0.023808829            3 
 1051000   0.84373534   -7.3376431    299.78599  0.023769901  0.023791451            4 
 1052000   0.83824889   -7.3136783    300.66138  0.023816649  0.023774198            2 
 1053000   0.82392038   -7.3346573     300.0598  0.023746423   0.02375671            5 
 1054000   0.85268551   -7.3473198    300.49398  0.023758221  0.023739241            3 
 1055000   0.82492322   -7.3392932    300.82759  0.023762053  0.023721842            5 
 1056000   0.82422512   -7.3259335    302.22956  0.023850186  0.023704506            5 
 1057000   0.85013452   -7.3301047    301.12329  0.023740404  0.023687283            3 
 1058000   0.82446866   -7.3320768    300.59433  0.023676302   0.02366995            4 
 1059000   0.83515361   -7.3562167    300.82346  0.023671975   0.02365255            4 
 1060000   0.82688921   -7.3338201    301.58019  0.023709135  0.023635064            2 
 1061000   0.83600485   -7.3407224    301.33883  0.023667831  0.023617756           10 
 1062000   0.83532966   -7.3582802    301.44337  0.023653748   0.02360043            9 
 1063000   0.81448499   -7.3493734    301.35451   0.02362453  0.023583223            6 
 1064000   0.85255072   -7.3175212     301.6378  0.023624515   0.02356608            5 
 1065000   0.82729255   -7.3413517    302.13978  0.023641611  0.023548958            5 
 1066000   0.82545062   -7.3079255    302.12534  0.023618304    0.0235318            5 
 1067000   0.82706368   -7.3643003    301.83415  0.023573426  0.023514688            5 
 1068000   0.82027153   -7.3325376    302.40677  0.023596034  0.023497541            2 
 1069000   0.82724541   -7.3195182    302.26524  0.023562928   0.02348038            5 
 1070000    0.8017343   -7.3145706    302.42549  0.023553387  0.023463414            4 
 1071000   0.82271152   -7.3265116    303.18446   0.02359045  0.023446494            7 
 1072000   0.81504121   -7.3267727    303.61658  0.023602035  0.023429648            2 
 1073000   0.82890726   -7.3579782    302.15053   0.02346618  0.023412628            4 
 1074000   0.82564644   -7.3638085    303.62689  0.023558883  0.023395649            2 
 1075000   0.83188709    -7.330496    303.71613  0.023543886  0.023378709            7 
 1076000   0.83386544   -7.3536381    302.82688  0.023453135  0.023361706            5 
 1077000   0.82751871   -7.3330015    303.21135  0.023461107  0.023344739            2 
 1078000   0.81075796   -7.3518142    303.16354  0.023435648  0.023327835            7 
 1079000   0.83112193    -7.347655    304.29439  0.023501266  0.023311068            9 
 1080000   0.80514859   -7.3296171    303.83711  0.023444221  0.023294293            3 
 1081000   0.80435912   -7.3412649     304.0313  0.023437504  0.023277521            4 
 1082000   0.83242526   -7.3327232    304.51591  0.023453167  0.023260856            3 
 1083000   0.83743206   -7.3351782     303.6433  0.023364366  0.023244178            6 
 1084000   0.80354288   -7.3470926    303.95306  0.023366625  0.023227363           10 
 1085000   0.81578757   -7.3604773    303.78868  0.023332464  0.023210558            8 
 1086000   0.80146483    -7.340926    304.36393  0.023355121  0.023193856            5 
 1087000   0.83449379   -7.3379509    305.21987  0.023399254  0.023177095            5 
 1088000   0.82087584   -7.3365619    305.03973   0.02336395  0.023160499            2 
 1089000   0.81505178    -7.386785    304.51219  0.023302126  0.023143785            4 
 1090000   0.81830634   -7.3596623    305.38678  0.023347613  0.023127015            3 
 1091000     0.834696   -7.4021155    304.82808  0.023283538  0.023110315            5 
 1092000   0.82147282   -7.3930054    304.23058  0.023216619  0.023093571            5 
 1093000   0.81120342    -7.362973    304.66592   0.02322857  0.023076779            4 
 1094000   0.83235166   -7.3942985    304.57971   0.02320077  0.023059992            3 
 1095000   0.81469366   -7.3726651    304.88868  0.023203096  0.023043267            2 
 1096000   0.81422871   -7.3493162    305.36645  0.023218252  0.023026531            6 
 1097000   0.83087958   -7.4001144    305.08544   0.02317574  0.023009801            4 
 1098000   0.81546063   -7.3479532     305.2744  0.023168974  0.022993091            3 
 1099000   0.80877597   -7.3486607    305.51456  0.023166102  0.022976411            7 
 1100000   0.81329006   -7.3662667    305.42842  0.023138516  0.022959695            3 
 1101000   0.82105795   -7.3727507    305.43716  0.023118163  0.022943058            5 
 1102000   0.80504649   -7.3656377    305.45111  0.023098239   0.02292631            6 
 1103000    0.8175524    -7.402675    305.12894  0.023052957  0.022909578            4 
 1104000   0.81463045   -7.3896959    305.04921  0.023026057  0.022892974            6 
 1105000   0.82771294   -7.3628534    305.92212   0.02307105  0.022876335            6 
 1106000   0.80554447   -7.3425281    306.11687  0.023064863  0.022859851            4 
 1107000    0.8041034   -7.3829062    305.19833  0.022974882  0.022843286            4 
 1108000   0.81016468   -7.3777569    306.27923  0.023035441  0.022826673            2 
 1109000   0.82156087   -7.3692511    305.54143   0.02295923   0.02281014            4 
 1110000   0.81446211   -7.3900775    306.42926  0.023005199   0.02279351            4 
 1111000   0.80717899   -7.3743118    305.81625  0.022938513  0.022776868            7 
 1112000    0.7964622   -7.4103796    306.19455  0.022946234   0.02276033            3 
 1113000   0.81591865   -7.3831098    307.10836  0.022994037  0.022743802            3 
 1114000    0.8096701    -7.388749    306.53948  0.022930841  0.022727298            4 
 1115000   0.81424284   -7.3800941    306.17546  0.022883068  0.022710748            4 
 1116000   0.81233322    -7.418712    306.47085  0.022884621   0.02269426            4 
 1117000   0.80658516   -7.4116375    306.36558   0.02285628  0.022677753            7 
 1118000   0.80670128    -7.408488    307.10141  0.022890683  0.022661337            4 
 1119000   0.82101639   -7.4017847    306.71368  0.022841352  0.022644934            3 
 1120000   0.78099719   -7.3731099    307.16343  0.022854422  0.022628502            2 
 1121000   0.79950998   -7.3954316    307.16159  0.022833898  0.022612014            4 
 1122000   0.81612971   -7.3946632    307.59826  0.022845979  0.022595511            3 
 1123000    0.8074856   -7.4276668    306.62122  0.022753133  0.022579038            3 
 1124000   0.80826188    -7.385375     307.1428   0.02277156  0.022562457            4 
 1125000   0.80199586   -7.3948471    306.90084  0.022733395  0.022546048            4 
 1126000   0.81432405   -7.3711271    307.37073  0.022747982  0.022529609            5 
 1127000   0.81907663   -7.4118874    307.09993  0.022707774  0.022513184            6 
 1128000   0.80233454    -7.390381    307.14241  0.022690781  0.022496686            2 
 1129000   0.80927001   -7.3801887    307.98138  0.022732608  0.022480317            4 
 1130000   0.80830252   -7.4164084     306.9357  0.022635376  0.022463889            4 
 1131000   0.79895567   -7.3898276    307.15387  0.022631437  0.022447327            5 
 1132000   0.81711106   -7.4092564     307.4916  0.022636307  0.022430968            5 
 1133000   0.81076153   -7.3912006    307.38738  0.022608663  0.022414571            6 
 1134000   0.80512182    -7.402056    307.60815  0.022604949  0.022398058            3 
 1135000   0.80018871   -7.4309124    307.57512  0.022582608  0.022381612            2 
 1136000   0.81806405    -7.399919    307.71783  0.022573198  0.022365245            4 
 1137000   0.81246691   -7.4317942    307.50339  0.022537627  0.022348778            6 
 1138000   0.80664567   -7.4362705    307.82538  0.022541402   0.02233238            7 
 1139000   0.79496618   -7.4175126    308.42454  0.022565448  0.022316114            9 
 1140000    0.8068792   -7.4140021    308.45679  0.022548011  0.022299843            6 
 1141000   0.78733952   -7.3805561    309.38985  0.022596396  0.022283725            6 
 1142000   0.81389699   -7.4072828    308.90615  0.022541313   0.02226765            3 
 1143000   0.81407873    -7.409482    308.59563  0.022498952  0.022251571            3 
 1144000   0.78748802   -7.4056486    309.16623   0.02252085  0.022235417            5 
 1145000   0.81225721   -7.4162098    308.85878  0.022478805  0.022219235            4 
 1146000   0.78755491   -7.4179831    308.36808  0.022423508  0.022203029            5 
 1147000   0.78616232   -7.4054709    309.33179  0.022473975   0.02218685            5 
 1148000   0.80451999   -7.4197454    308.92212   0.02242466  0.022170687            7 
 1149000   0.78492245   -7.4085945    309.33344  0.022434976  0.022154456            4 
 1150000   0.80341102   -7.4306663    308.90705  0.022384569  0.022138212            4 
 1151000   0.78988526    -7.409709    309.43124  0.022403073  0.022121985            6 
 1152000   0.79158485   -7.4239158    309.38104  0.022379994  0.022105929            6 
 1153000   0.79010647   -7.4333291    308.84412  0.022321778  0.022089828            4 
 1154000   0.78942126   -7.4147155    309.15717  0.022325041  0.022073682            7 
 1155000   0.78456341   -7.4146589      310.117  0.022374964  0.022057524            4 
 1156000     0.811501   -7.4187262     309.7879  0.022331884  0.022041458            2 
 1157000   0.76182998   -7.4244328    309.56332  0.022296407  0.022025414            7 
 1158000   0.79896233   -7.4092153    309.76774  0.022291864  0.022009456            8 
 1159000   0.79370204   -7.4171035    310.45461  0.022322017  0.021993646            3 
 1160000   0.80511914   -7.4454854     310.6354  0.022315761  0.021977732            5 
 1161000   0.79616419   -7.4331919    309.93463  0.022246241  0.021961816            5 
 1162000   0.79165015     -7.41309    309.80282  0.022217643  0.021945808            6 
 1163000   0.78932474   -7.4269523    309.80391  0.022198617  0.021929694            6 
 1164000   0.77847829   -7.4348369    310.37098  0.022220144  0.021913609            3 
 1165000   0.79942621   -7.4416873    310.24275  0.022191899  0.021897483            9 
 1166000   0.77571166   -7.4189266    309.76804  0.022138939  0.021881338            4 
 1167000   0.76910908   -7.4571312    309.65178  0.022111667  0.021865222            7 
 1168000   0.78251419   -7.4371224    310.36549  0.022143657  0.021849193            3 
 1169000   0.78789154   -7.4446948    309.85536  0.022088349  0.021833128            3 
 1170000   0.79815219   -7.4488265    309.87389   0.02207079  0.021817178            8 
 1171000   0.79270247    -7.416523    310.83437  0.022120294  0.021801293            5 
 1172000   0.80157999   -7.4528783    310.03702  0.022044725  0.021785414            4 
 1173000   0.77843309   -7.4410344    311.00899  0.022094984  0.021769575            5 
 1174000    0.7809021   -7.4182655    311.89357  0.022138953  0.021753771            5 
 1175000   0.78940623   -7.4319725    310.89461  0.022049263  0.021737967            5 
 1176000   0.79839287   -7.4466908      311.086  0.022044076  0.021722099            6 
 1177000   0.78887807   -7.4358225    311.06263  0.022023692  0.021706282            6 
 1178000   0.79238318   -7.4690822    310.75052  0.021982917  0.021690445            5 
 1179000   0.80535791   -7.4416653    311.02783  0.021983872  0.021674727            8 
 1180000   0.77964092   -7.4642945    311.29803  0.021984324  0.021658886            4 
 1181000   0.77462587   -7.4656535    311.45433  0.021976738  0.021643125            9 
 1182000   0.76603143   -7.4479809    311.43502  0.021956784  0.021627353            3 
 1183000   0.78505554   -7.4391923    311.38285  0.021934548  0.021611608            4 
 1184000   0.78987104   -7.4316111    311.56343  0.021928732  0.021595778            6 
 1185000   0.77510157   -7.4514792    311.21447  0.021885687  0.021579917            9 
 1186000   0.78150445   -7.4331744    311.32482  0.021874987  0.021564095            3 
 1187000   0.78519319   -7.4823445    310.78516  0.021818672   0.02154837           17 
 1188000   0.77071418   -7.4671379    311.43832  0.021846122  0.021532551            5 
 1189000   0.79181044   -7.4744093    311.61575  0.021840185   0.02151679            7 
 1190000   0.77957335   -7.4845717    311.97732  0.021847151  0.021501034            4 
 1191000    0.7759107   -7.4695818     311.9203  0.021824818  0.021485316            4 
 1192000   0.76574008   -7.5057225    312.00563  0.021812474  0.021469586            5 
 1193000   0.76704094   -7.4626132     312.0979  0.021800636   0.02145385            5 
 1194000   0.78074186   -7.4845486    312.18964   0.02178878  0.021438124            4 
 1195000   0.79015009   -7.4330959    312.25121  0.021774841  0.021422497            3 
 1196000   0.77550797   -7.4693791    312.76479  0.021792419  0.021406908            2 
 1197000   0.77229374   -7.4940525    312.96208  0.021787947  0.021391332            5 
 1198000   0.78130567   -7.4725154    312.62895  0.021746588  0.021375721            3 
 1199000   0.74928902   -7.4401825    312.93857   0.02174997  0.021360168            5 
 1200000   0.78016611   -7.4500033    312.76984  0.021720128  0.021344629            3 
 1201000   0.77523996   -7.4674173    312.53083  0.021685459  0.021329197            3 
 1202000   0.75721252   -7.4753922    312.82206  0.021687608  0.021313814            6 
 1203000   0.77634607   -7.4502104    312.30646  0.021633864  0.021298438            5 
 1204000   0.75002725   -7.4651776    312.83542  0.021652507  0.021283014            2 
 1205000   0.77354417   -7.5026892    313.23792  0.021662374  0.021267525            3 
 1206000   0.76427631   -7.4721823    312.49358  0.021592978  0.021252087            8 
 1207000   0.77369996   -7.4752521    313.24551  0.021627003   0.02123666            6 
 1208000   0.77431378   -7.4815205    313.93306   0.02165653  0.021221281            8 
 1209000   0.78293516    -7.479548    313.02715  0.021576175  0.021205986            8 
 1210000   0.76673919   -7.4688347    313.48669  0.021589992  0.021190687            7 
 1211000   0.76999178   -7.4506317    314.14632  0.021617556  0.021175436            2 
 1212000   0.76891505   -7.4617591     313.8316   0.02157808  0.021160223            3 
 1213000    0.7696812   -7.4626945    315.30324  0.021661393  0.021145032            5 
 1214000   0.76005321   -7.4767217     314.1114  0.021561738  0.021129926            3 
 1215000   0.76375165    -7.477889    314.28352  0.021555797  0.021114757            3 
 1216000   0.76651368   -7.4994856     314.5887  0.021558984  0.021099596            4 
 1217000   0.77208461   -7.4947367    313.62645   0.02147538  0.021084409            7 
 1218000    0.7707086   -7.5104705     314.1288  0.021492118  0.021069257            3 
 1219000   0.75580231   -7.4871004    314.78637   0.02151944  0.021054166            3 
 1220000   0.77056982   -7.4989445    314.28346  0.021467449  0.021039011            4 
 1221000   0.76236321   -7.4874204    315.08354  0.021504473  0.021023841            6 
 1222000   0.76628524   -7.4866519    314.65312  0.021457523  0.021008761            8 
 1223000   0.75491406   -7.4986805    313.82472  0.021383532  0.020993618            9 
 1224000   0.75654408   -7.4873968    314.74966  0.021429034  0.020978521           10 
 1225000   0.76468121   -7.4965038    315.14557  0.021438474  0.020963472            3 
 1226000   0.75400535   -7.5012951    314.93562  0.021406717  0.020948376            5 
 1227000   0.77055574   -7.5139565    315.40226  0.021420963  0.020933316            4 
 1228000   0.75999451    -7.491258    315.29042  0.021395929  0.020918236            3 
 1229000   0.77823889   -7.4830929    315.17099  0.021370422   0.02090319           10 
 1230000   0.77004575   -7.4988263    315.46401  0.021372901  0.020888148            3 
 1231000    0.7611554    -7.481224     315.4345  0.021353541  0.020873137            7 
 1232000   0.75175612   -7.4734374    315.61768  0.021348598  0.020858096            6 
 1233000   0.75738176   -7.4717092    315.79604  0.021343339  0.020843178            4 
 1234000   0.75111208   -7.5294137    315.93446   0.02133539  0.020828312            6 
 1235000   0.75123841   -7.5270908    316.23553   0.02133843  0.020813442            5 
 1236000   0.78148336   -7.5131571    315.53868  0.021274183  0.020798649            4 
 1237000   0.76369896   -7.4598874    316.04154  0.021290861  0.020783854            6 
 1238000   0.75990436   -7.4703538    316.40539  0.021298155   0.02076904            4 
 1239000    0.7419557   -7.5319494    315.52277  0.021221601  0.020754171            5 
 1240000   0.75643213   -7.5232497    316.12071  0.021244671  0.020739256            6 
 1241000   0.76706573    -7.500929    315.71754  0.021200479  0.020724337            7 
 1242000   0.73484367   -7.4981151    315.18735  0.021147836  0.020709393            8 
 1243000   0.76375771   -7.5136722    315.85932  0.021175873  0.020694419            6 
 1244000   0.75830482   -7.5126708    315.97698  0.021166732  0.020679537            4 
 1245000   0.77876357   -7.4994769    316.82699  0.021206626  0.020664725            8 
 1246000   0.76396873   -7.5065032    316.12529  0.021142676   0.02064978            4 
 1247000   0.74537565   -7.5044779    315.40481  0.021077574  0.020634834            5 
 1248000   0.77490557    -7.504073    315.90751  0.021094251  0.020619822            8 
 1249000   0.75739765   -7.5044085    316.62505  0.021125237  0.020604901            3 
 1250000   0.75797564    -7.532679    316.06559   0.02107104  0.020590043            6 
 1251000     0.754565   -7.5060908    316.52877   0.02108505  0.020575147            9 
 1252000   0.75302841   -7.5289387    316.00158  0.021033119  0.020560154           11 
 1253000   0.76972064   -7.5026487    316.12409  0.021024481  0.020545278            4 
 1254000   0.76528839   -7.4859951    315.59212  0.020972363  0.020530454           15 
 1255000   0.76761847   -7.5137414     315.9281  0.020977961  0.020515593            6 
 1256000   0.75062936   -7.4690816    316.94314  0.021028606  0.020500758            5 
 1257000   0.73854473   -7.5354882    316.22748  0.020964431  0.020485895            5 
 1258000   0.76858645   -7.4862895    316.19692  0.020945742  0.020471027            5 
 1259000   0.75686596   -7.4812147     317.1483  0.020992077  0.020456235            7 
 1260000   0.74803045   -7.5131132    316.69381  0.020945358  0.020441424            8 
 1261000   0.74445271   -7.5054414    316.62999   0.02092453  0.020426607            3 
 1262000   0.73914471   -7.4910766    316.72908  0.020914493  0.020411776            5 
 1263000   0.74718954   -7.5254591    316.75635  0.020899733  0.020396927            3 
 1264000   0.73420859   -7.4834685    316.81932   0.02088735  0.020382056            5 
 1265000   0.76595034   -7.5542744    316.50115  0.020849878  0.020367123            5 
 1266000   0.74290506   -7.5358649    315.91936  0.020795113  0.020352161            2 
 1267000   0.74842324    -7.547988    316.02386  0.020785573  0.020337194            6 
 1268000   0.75292034   -7.5253477    316.32309  0.020788847  0.020322192            5 
 1269000   0.73217485   -7.5520203    317.57905  0.020854941  0.020307223            5 
 1270000   0.74499744   -7.5508902    316.88296  0.020792845  0.020292314            4 
 1271000   0.74961758   -7.5568806    316.44789   0.02074796  0.020277365            3 
 1272000   0.74402871   -7.5101967    316.46826  0.020732984  0.020262492            4 
 1273000   0.75170265   -7.5269159    316.85223  0.020741833  0.020247626            5 
 1274000   0.75572096    -7.542635    317.04685  0.020738282  0.020232762            4 
 1275000   0.73700988   -7.5180037    317.07894  0.020724113  0.020217924            5 
 1276000   0.75347024   -7.5439326    316.82713  0.020691427  0.020203144            5 
 1277000   0.73640232   -7.5405067    317.40856  0.020713166    0.0201884            7 
 1278000   0.74720374   -7.5689952    317.08174  0.020675648  0.020173638            8 
 1279000   0.74929049   -7.5360942    318.01057  0.020720001  0.020158971            7 
 1280000   0.75947972   -7.5669526    316.73479  0.020620755  0.020144319            4 
 1281000   0.74659235   -7.5403237    317.65379  0.020664441  0.020129633            4 
 1282000   0.74223041   -7.5337932    317.50018  0.020638337   0.02011496            5 
 1283000   0.72907298   -7.5179373     318.0455  0.020657671  0.020100351            4 
 1284000   0.74156691   -7.5465725    317.90546  0.020632494  0.020085764            3 
 1285000   0.74626531   -7.5426829    318.16578  0.020633319   0.02007114            2 
 1286000   0.74502793   -7.5602375    317.29154  0.020560624  0.020056521            7 
 1287000   0.73498395   -7.5550832    317.77717  0.020576093  0.020041878            6 
 1288000   0.73169552   -7.5313002    317.90483  0.020568377  0.020027279            7 
 1289000   0.73861598   -7.5682131    318.38664  0.020583569  0.020012673            5 
 1290000   0.74387945   -7.5316613    318.33627  0.020564359  0.019998054            5 
 1291000   0.72563024   -7.5662005    318.79599  0.020578104  0.019983442            4 
 1292000   0.73368721   -7.5567101    317.61631  0.020486088  0.019968849            7 
 1293000   0.73652506   -7.5582781    317.96958  0.020493013  0.019954247            5 
 1294000   0.72672688    -7.565276    318.01374  0.020480019  0.019939613            4 
 1295000   0.73424768    -7.564073     318.5773   0.02050047  0.019925005           12 
 1296000   0.72805304   -7.5547187    317.95328  0.020444527  0.019910389           13 
 1297000    0.7424262   -7.5591904    318.47159  0.020462066   0.01989578           12 
 1298000   0.72625445   -7.5610649     317.8858  0.020408693  0.019881154            4 
 1299000   0.74210449   -7.5648264    317.63248  0.020376731  0.019866534            4 
 1300000   0.71891961   -7.5616141    318.30931  0.020404443  0.019851868           12 
 1301000   0.72428175   -7.5705873     317.5664  0.020341173  0.019837186            6 
 1302000   0.72514057   -7.5805558     317.9904  0.020352688  0.019822434            5 
 1303000   0.73699208   -7.5723133    317.76102  0.020322398  0.019807706            4 
 1304000   0.74166824    -7.552963     317.2192  0.020272188  0.019792964            5 
 1305000   0.73486094   -7.5646775    317.32003  0.020263092  0.019778261            3 
 1306000   0.73232239   -7.5768909    317.54386  0.020261859  0.019763602            5 
 1307000   0.72230798   -7.5797264    318.12872  0.020283647  0.019748923            7 
 1308000   0.73315775   -7.5568611    317.54495  0.020230947  0.019734265            2 
 1309000   0.72328065   -7.5706461    318.71991  0.020290292  0.019719658            6 
 1310000   0.73711313   -7.5741213    318.89537  0.020285965  0.019705125            3 
 1311000   0.73862435   -7.5639282    318.34332    0.0202354  0.019690549            5 
 1312000   0.73326413   -7.5713989    318.56779  0.020234234  0.019676008            4 
 1313000   0.73083299   -7.5731499      318.252  0.020198781  0.019661489            3 
 1314000   0.73468939   -7.5571291    318.83898  0.020220636  0.019646964            6 
 1315000   0.72539848   -7.5916453    317.68232  0.020131959  0.019632399            5 
 1316000   0.74751851   -7.5945863    318.21802  0.020150584  0.019617734            4 
 1317000   0.74193062   -7.5638828    318.96726  0.020182692  0.019603112            4 
 1318000   0.72222456    -7.584007    318.46521  0.020135636  0.019588563           12 
 1319000   0.73168836   -7.5637082    318.88151  0.020146671  0.019574014            4 
 1320000   0.71097389   -7.5597398    319.24758  0.020154519  0.019559487            6 
 1321000   0.72250557   -7.5734023    317.79881  0.020047868  0.019544963            5 
 1322000   0.72129298    -7.548696    318.94092  0.020104697  0.019530448            5 
 1323000   0.72453993    -7.573843    319.02151  0.020094577  0.019515912            5 
 1324000   0.76356889   -7.5689104    318.03883   0.02001755  0.019501349            6 
 1325000   0.73250662   -7.5870181    318.13148  0.020008269   0.01948671            2 
 1326000   0.73235627   -7.5798849    318.36672  0.020007964  0.019472107            4 
 1327000    0.7404314   -7.5529037    319.17975  0.020043943  0.019457559            5 
 1328000   0.71915894   -7.5731018    318.91674  0.020012346  0.019442999            5 
 1329000   0.72871835   -7.5863033    318.62923  0.019979259   0.01942844            5 
 1330000   0.73983079   -7.5686388    318.69244  0.019968198  0.019413911            3 
 1331000   0.72214035   -7.5712199    318.95198  0.019969445  0.019399416            9 
 1332000   0.71015549   -7.5809889    318.88979  0.019950563  0.019384923            4 
 1333000   0.73750246   -7.6012247    319.02587  0.019944103  0.019370369            5 
 1334000   0.73616618   -7.6058745      318.423  0.019891492  0.019355783            5 
 1335000    0.7217515   -7.6018162      317.764  0.019835456  0.019341098           17 
 1336000   0.71122831   -7.6145964    318.17232  0.019846078  0.019326363            3 
 1337000   0.71995376   -7.5887379    318.36864   0.01984347   0.01931168            5 
 1338000   0.72087787   -7.6177368    317.89927  0.019799406  0.019297046            4 
 1339000   0.71576641   -7.5987869    318.44009  0.019818278  0.019282393            6 
 1340000   0.71183567   -7.6015112    318.77079  0.019824054  0.019267769            8 
 1341000   0.72694746     -7.61205    318.70778  0.019805356  0.019253085            5 
 1342000   0.70895435   -7.6253695    317.94716  0.019743366  0.019238387            9 
 1343000   0.70731008   -7.6063327    317.96268  0.019729627  0.019223679            6 
 1344000   0.70153549   -7.5645392     318.6942  0.019760305  0.019209023            4 
 1345000   0.71034233   -7.6195314     318.6296  0.019741611  0.019194358            5 
 1346000   0.71288054    -7.592839    317.93493  0.019683936  0.019179693            4 
 1347000   0.70305957   -7.6227272    317.29152  0.019629518  0.019164998            3 
 1348000     0.714275   -7.6006988     318.9366  0.019716654  0.019150299            7 
 1349000   0.72796752   -7.6037807    318.57376  0.019679624  0.019135653            9 
 1350000   0.72648127   -7.6078779    317.71406  0.019611979  0.019120967            3 
 1351000    0.6954758   -7.6384004    317.80758  0.019603231  0.019106266            7 
 1352000   0.71024176   -7.6088005    318.14811  0.019609721  0.019091613            3 
 1353000   0.71724069    -7.595694    318.35363  0.019607885  0.019077036            4 
 1354000   0.70383649   -7.6271091    318.20131  0.019584029  0.019062423            6 
 1355000   0.69832973   -7.6006481    318.17736  0.019568103  0.019047827            5 
 1356000   0.72383711   -7.6032684    318.22239   0.01955644  0.019033252           10 
 1357000   0.71402597   -7.5912263    319.24091  0.019604576  0.019018655            4 
 1358000   0.71354879    -7.602318    318.23791   0.01952859  0.019004053           15 
 1359000    0.7005876   -7.5952793    318.82784  0.019550395  0.018989455            3 
 1360000   0.71806451   -7.6016039    318.04292  0.019487924  0.018974874            7 
 1361000   0.71005311   -7.6416739    318.22768  0.019484918  0.018960287           10 
 1362000   0.71566998   -7.6285238    318.51331  0.019488088  0.018945686            5 
 1363000   0.71583705   -7.6069398    318.66554  0.019483098  0.018931098           15 
 1364000   0.70289806   -7.6011406    318.91691  0.019484171  0.018916491            6 
 1365000   0.70398696   -7.6022403    318.88464  0.019467927  0.018901932            6 
 1366000   0.71389793   -7.6313239     318.1067  0.019406216  0.018887396            7 
 1367000   0.69165635   -7.6090295    318.51261  0.019416765  0.018872881            6 
 1368000   0.72111396   -7.5918321    318.98015  0.019431052  0.018858413            4 
 1369000   0.70322162   -7.6077584    318.76737  0.019403906  0.018843989            3 
 1370000   0.70135268   -7.5743733    318.71937  0.019386823  0.018829562            3 
 1371000   0.70414097   -7.6115286    318.78385  0.019376602  0.018815097            7 
 1372000   0.71669932   -7.6188809    318.87683  0.019368126  0.018800628            5 
 1373000   0.71306084   -7.6204563    317.90579  0.019295083   0.01878614            4 
 1374000   0.69371796   -7.6159936    318.13424  0.019294896  0.018771685            7 
 1375000    0.6995012   -7.6009061    319.23168  0.019347374  0.018757229            3 
 1376000   0.70084111   -7.6319207     318.9016  0.019313324  0.018742792            5 
 1377000   0.70528952   -7.6165639    318.69954   0.01928707  0.018728386            6 
 1378000   0.69276867   -7.6415051    318.95445  0.019288489  0.018713959            4 
 1379000   0.70946816   -7.6241183     318.5114  0.019247728  0.018699527            4 
 1380000     0.692746   -7.6344053    318.50794  0.019233571    0.0186851            4 
 1381000   0.70259409   -7.6189639    318.75235  0.019234393  0.018670704            5 
 1382000   0.70379319   -7.6425503    318.16558  0.019185093  0.018656304            5 
 1383000   0.67935472   -7.6236738    318.64478  0.019200095  0.018641927           10 
 1384000   0.70557172   -7.6299523    319.33869  0.019228004  0.018627536            8 
 1385000   0.71061513   -7.6008541    319.19778  0.019205642  0.018613208            9 
 1386000   0.70447834   -7.6162744    318.47403   0.01914827  0.018598883            5 
 1387000   0.70040264   -7.6286569    319.13609  0.019174242  0.018584589            5 
 1388000    0.6944194   -7.6362223    318.48829  0.019121535  0.018570273            6 
 1389000   0.69960801   -7.6123781    319.06686   0.01914248  0.018555957            8 
 1390000   0.69330903   -7.6232133    319.40259  0.019148836  0.018541711            7 
 1391000   0.68864847   -7.6383041    318.64877   0.01908991  0.018527456            7 
 1392000   0.71291929   -7.6577058    318.47593  0.019065848  0.018513123            7 
 1393000   0.70738221   -7.6471224    318.97668  0.019082118   0.01849879            5 
 1394000   0.70269654   -7.6342186    318.37371  0.019032383  0.018484446            3 
 1395000   0.68902964   -7.6484395    318.33353   0.01901634  0.018470092            3 
 1396000   0.69119589   -7.6433807    318.35637  0.019004081  0.018455752            6 
 1397000   0.70155959   -7.6383141     318.8835  0.019021922  0.018441412            6 
 1398000   0.70655207   -7.6163706    318.92029  0.019010509  0.018427126            4 
 1399000   0.69192376   -7.6320453    318.72134  0.018985069  0.018412842            5 
 1400000   0.68498739   -7.6467808     318.8236  0.018977595  0.018398626            6 
 1401000   0.68548114   -7.6547058    319.10508  0.018980792   0.01838443            6 
 1402000   0.69452709   -7.6529611    318.38158   0.01892425  0.018370169            8 
 1403000   0.71059915   -7.6274389    319.23916  0.018961699  0.018355918            6 
 1404000   0.69103358   -7.6259574    318.80468  0.018922405  0.018341651            4 
 1405000   0.68880946   -7.6445069    318.01892  0.018862332  0.018327352            7 
 1406000   0.69540662   -7.6528272    318.46517  0.018875366  0.018313036            5 
 1407000    0.6878175   -7.6648404    318.36189  0.018855833  0.018298717            8 
 1408000   0.70268249   -7.6673621    318.31971  0.018839945  0.018284417            6 
 1409000   0.69017617   -7.6369727    318.82522  0.018856472  0.018270138            7 
 1410000   0.68458617   -7.6539211    318.35696  0.018815423  0.018255879            6 
 1411000   0.68046003   -7.6371829    318.67816  0.018821058  0.018241574            4 
 1412000   0.68409972   -7.6407876    319.07141  0.018830938  0.018227239            5 
 1413000   0.70034422   -7.6677505    318.50969  0.018784483  0.018212932            5 
 1414000    0.6843795   -7.6569999     318.3024  0.018758981  0.018198596           10 
 1415000   0.68478612   -7.6473226    318.67654  0.018767759  0.018184323            7 
 1416000   0.70395542   -7.6566641    319.10961  0.018779991  0.018170063            5 
 1417000   0.69157313   -7.6669316    319.34913  0.018780824  0.018155808            3 
 1418000   0.69085804   -7.6516846    317.72444  0.018672099  0.018141524            3 
 1419000   0.68895889   -7.6614804    318.89079  0.018727437  0.018127296            5 
 1420000   0.69297295   -7.6665962    318.86289  0.018712611  0.018113076            8 
 1421000   0.68607113   -7.6757292    318.29232  0.018665982  0.018098855            8 
 1422000   0.70141059   -7.6411044    319.02045  0.018695526  0.018084651            8 
 1423000   0.69108433   -7.6522691    318.44357  0.018648604  0.018070451            4 
 1424000   0.67583289   -7.6878518    318.67438  0.018649016  0.018056233            4 
 1425000   0.68525219   -7.6467178     318.3718  0.018618234  0.018041978            8 
 1426000   0.70225693   -7.6724754     318.7465  0.018627075  0.018027765            4 
 1427000   0.69079066   -7.6658935    318.35413  0.018591108  0.018013536            5 
 1428000   0.67760938   -7.6665722    319.20085  0.018627501  0.017999316            5 
 1429000   0.67356441   -7.6632536    318.73497  0.018587297  0.017985144           14 
 1430000   0.68508348   -7.6829964    318.82891  0.018579774  0.017971005            7 
 1431000   0.67743554   -7.6687593    318.28891  0.018535343  0.017956854            8 
 1432000   0.68878689    -7.663804    318.50246  0.018534826  0.017942726            4 
 1433000   0.68803888   -7.6739934    319.20826  0.018562936   0.01792865            5 
 1434000   0.70082656   -7.6624446    318.94454  0.018534666  0.017914608            7 
 1435000   0.67117161   -7.6682334    319.18145  0.018535508  0.017900546            7 
 1436000   0.66886893   -7.6585457    319.67493  0.018551238   0.01788655            5 
 1437000   0.69110832   -7.6925672    320.28732  0.018573841  0.017872514           14 
 1438000   0.68112107   -7.6886855    318.80497  0.018475021  0.017858488            6 
 1439000    0.6756971   -7.6960603    319.42207  0.018497919  0.017844443            3 
 1440000   0.68883711   -7.6687747    319.13867  0.018468673   0.01783041            9 
 1441000   0.69069925     -7.67839    318.88699  0.018441302  0.017816357            9 
 1442000    0.6719299    -7.681224    319.46035  0.018461648  0.017802327            7 
 1443000   0.66979971   -7.7124112    318.48618  0.018392596  0.017788269            5 
 1444000   0.68750322   -7.6944248    318.86837  0.018401914  0.017774167            5 
 1445000   0.67354117   -7.6808208    318.77515  0.018383803  0.017760109            4 
 1446000   0.66966518   -7.6777331    318.36081  0.018347211  0.017746092            6 
 1447000   0.68138242   -7.7030091    318.45839  0.018340151  0.017732056            3 
 1448000   0.68199953   -7.6960863    317.69347  0.018283464  0.017718041            7 
 1449000   0.67433869   -7.6768714    318.48655  0.018316457  0.017704006            9 
 1450000   0.67045253   -7.6996817    318.83966  0.018324118  0.017690015            2 
 1451000   0.67522843   -7.6752837    318.73717  0.018305603  0.017675994           10 
 1452000   0.68530995   -7.6991831    318.92689  0.018303885  0.017661968            6 
 1453000   0.67228489   -7.6963288     318.6452  0.018275132  0.017647951            8 
 1454000   0.67310212   -7.7105212     318.0792  0.018230124  0.017633921            6 
 1455000   0.67292857   -7.7081514    318.39425  0.018235639  0.017619894            4 
 1456000   0.67262459   -7.7180332    318.58916   0.01823427  0.017605879            3 
 1457000   0.65789044   -7.6962482    318.50738  0.018217077  0.017591876            4 
 1458000   0.67401406   -7.7043955    318.43511  0.018200452  0.017577887            5 
 1459000   0.68581966   -7.6949373    318.91243   0.01821524  0.017563906            6 
 1460000   0.65907242   -7.6933377    318.83546  0.018198371  0.017549967            7 
 1461000   0.66556385   -7.6888116    318.98441  0.018194411   0.01753603            5 
 1462000   0.67500601    -7.672472    318.59068  0.018159524  0.017522092            5 
 1463000     0.663257   -7.6928607    318.56701  0.018145763  0.017508147            4 
 1464000     0.670272   -7.7042071    318.36857  0.018122073  0.017494224            3 
 1465000   0.65924192   -7.6966662    318.37605  0.018110128  0.017480342            5 
 1466000   0.67146269   -7.7020966     318.5659  0.018108566  0.017466485            9 
 1467000   0.65653797   -7.6903556     318.8692  0.018113452  0.017452604            9 
 1468000   0.66661096   -7.6664725    319.70984  0.018148833  0.017438716            7 
 1469000   0.66421772   -7.7291646    318.89529  0.018090271  0.017424824            8 
 1470000    0.6730737   -7.7143881    318.33048  0.018045946  0.017410909           10 
 1471000   0.66602801   -7.7152572    318.53977  0.018045534   0.01739704            5 
 1472000   0.66662659   -7.6989197    318.27101   0.01801806  0.017383191            6 
 1473000   0.67556377   -7.7175817    319.01017  0.018047645  0.017369333            8 
 1474000   0.65879566   -7.7204145    319.24916  0.018048912  0.017355523            4 
 1475000   0.66907908   -7.7386004    318.48223  0.017993346  0.017341704            3 
 1476000   0.65899335   -7.7077749     318.9353  0.018006736  0.017327907            5 
 1477000   0.66800169   -7.7302765    318.30429  0.017958942  0.017314084            6 
 1478000   0.66648119   -7.7154502    318.71511  0.017969955  0.017300224            6 
 1479000    0.6485014   -7.7211728     318.2166  0.017929716   0.01728643            7 
 1480000   0.66101513   -7.7219732    318.69565  0.017944575  0.017272657            5 
 1481000   0.66366173   -7.7429403    318.91112  0.017944582  0.017258909            6 
 1482000   0.65832647   -7.7101011    318.76089  0.017924027  0.017245166            4 
 1483000   0.66490297   -7.7094095    319.41433  0.017948659  0.017231418            6 
 1484000   0.67011535   -7.7481036    318.71433  0.017897256  0.017217645            5 
 1485000    0.6728965   -7.7277625    319.08651  0.017906089  0.017203911            4 
 1486000   0.64742452   -7.7436252    318.64428   0.01786924  0.017190201            6 
 1487000    0.6647607    -7.734498    318.67828  0.017859128  0.017176507            4 
 1488000   0.65545876   -7.7372541    318.78064  0.017852859  0.017162795            4 
 1489000   0.64961233    -7.750854     318.9463   0.01785014  0.017149085            4 
 1490000   0.66710631   -7.7234384    318.61722  0.017819755  0.017135382            5 
 1491000   0.66168308   -7.7419724    319.44484   0.01785406  0.017121733            6 
 1492000   0.65046913   -7.7448098      319.271  0.017832384  0.017108048            8 
 1493000   0.65097308   -7.7387004    318.86415  0.017797731  0.017094344           12 
 1494000   0.66186847   -7.7385065    318.68568  0.017775863  0.017080672           13 
 1495000   0.65169473   -7.7567825    318.74381  0.017767214  0.017066979           16 
 1496000   0.65744529   -7.7184174    319.26788   0.01778453  0.017053341            9 
 1497000   0.65406108   -7.7443612    319.17609   0.01776754  0.017039708           11 
 1498000   0.65683886   -7.7491409    318.89683  0.017740144  0.017026069            7 
 1499000   0.65601672   -7.7386548    318.90406  0.017728711  0.017012435            9 
 1500000   0.66379174    -7.736891    318.39865  0.017688814  0.016998829           10 
 1501000   0.64146357     -7.75065    319.07573   0.01771462  0.016985238            6 
 1502000   0.66586294   -7.7617812    318.55734  0.017674065  0.016971616            6 
 1503000   0.64739611   -7.7739139    318.55581   0.01766222  0.016957998            8 
 1504000   0.63912894   -7.7562815    318.50229  0.017647512  0.016944382           10 
 1505000   0.65026061   -7.7498513    318.33888  0.017626738  0.016930824            9 
 1506000    0.6557045     -7.74481    318.77749  0.017639303  0.016917254            8 
 1507000   0.64914705   -7.7695422    318.67459  0.017621908  0.016903676            8 
 1508000   0.65948063   -7.7605278    318.23545  0.017585955  0.016890105            8 
 1509000   0.65759124   -7.7742679    317.98101   0.01756025  0.016876521            5 
 1510000   0.65264585   -7.7677904    319.11547  0.017611229  0.016862923           10 
 1511000   0.64860177   -7.7839045    318.16986  0.017547422  0.016849344            5 
 1512000   0.65442909   -7.7485751    318.29505  0.017542717  0.016835757            6 
 1513000   0.63793414   -7.7641294    318.57096  0.017546318  0.016822233            7 
 1514000   0.66078666   -7.7353649    318.13188  0.017510561  0.016808701            6 
 1515000   0.66152218   -7.7549392    318.74769  0.017532876  0.016795213            5 
 1516000   0.64654479   -7.7339739    318.26839  0.017494964  0.016781728            8 
 1517000   0.64026661   -7.7464683    319.60854   0.01755705  0.016768302            4 
 1518000   0.64473855   -7.7424254    318.68065  0.017494546  0.016754878            6 
 1519000   0.65045335   -7.7460877    318.48472   0.01747228  0.016741448            8 
 1520000   0.64221918   -7.7963238    318.42747  0.017457646  0.016727989            6 
 1521000   0.64659897   -7.7724464    318.48754   0.01744946  0.016714536            7 
 1522000   0.63896816   -7.7646297    318.64411  0.017446567  0.016701061            7 
 1523000   0.64703504   -7.7674381    318.43477  0.017423658  0.016687615           11 
 1524000   0.64682835   -7.7583553    318.87292  0.017436183  0.016674194            9 
 1525000   0.64971105   -7.7581724    319.19782  0.017442504  0.016660765            7 
 1526000   0.64543895   -7.7564293    318.52551  0.017394359  0.016647371           13 
 1527000   0.64307981   -7.7789602    318.84203  0.017400242  0.016633998           12 
 1528000   0.63830179   -7.7628992    318.61412  0.017376425  0.016620577           13 
 1529000    0.6356905   -7.7866099    318.68544  0.017368947  0.016607184            7 
 1530000   0.64930115   -7.7725669    318.54758  0.017350086  0.016593794           11 
 1531000   0.64585273   -7.7428179    318.37829  0.017329539  0.016580427            7 
 1532000   0.64290821   -7.7943343    318.73288  0.017337515  0.016567092           12 
 1533000   0.64185738   -7.7810843     318.0508  0.017289128   0.01655375            4 
 1534000   0.62316719   -7.7531307    318.58262  0.017306748  0.016540395            9 
 1535000   0.62719216   -7.7456097    318.50568  0.017291297   0.01652706            7 
 1536000   0.64390448   -7.7660685    318.99912   0.01730681  0.016513766            5 
 1537000   0.64556065   -7.7777784    318.50435  0.017268724   0.01650046            3 
 1538000   0.63590227   -7.7689782    318.62959  0.017264282  0.016487171            9 
 1539000   0.64535035   -7.7414885    318.80376  0.017262495  0.016473915            5 
 1540000   0.64142598   -7.7854754    319.21187  0.017273369  0.016460707            7 
 1541000   0.64153479   -7.7584137     318.8758  0.017243986  0.016447504            5 
 1542000   0.63553968   -7.7591319    318.24708  0.017198826  0.016434329            4 
 1543000   0.62922509   -7.7835191    319.22625  0.017240562  0.016421186            4 
 1544000   0.63598838   -7.7743193    319.00319  0.017217357  0.016408021            5 
 1545000   0.63450359   -7.7841459    318.77423  0.017193863  0.016394856            8 
 1546000   0.62287073   -7.7958702    319.18983  0.017205144  0.016381708            8 
 1547000   0.62332074   -7.7699099    319.63083  0.017217778  0.016368561            6 
 1548000    0.6412725   -7.7743769    318.91247  0.017167984  0.016355444            4 
 1549000   0.63666763   -7.7837357    318.87208  0.017154728  0.016342323            5 
 1550000   0.63483084   -7.7915626    318.73465  0.017136271  0.016329192            6 
 1551000   0.64447638   -7.7993998    318.57028  0.017116392  0.016316047            8 
 1552000   0.62575071   -7.7909796    318.53776  0.017103617   0.01630291            6 
 1553000   0.61650019   -7.7751242    318.17038   0.01707289  0.016289763           12 
 1554000   0.63984378    -7.767767    319.13875  0.017113832   0.01627669            6 
 1555000   0.64137206   -7.7993822    317.81846  0.017032072  0.016263579            6 
 1556000   0.62505344   -7.7795428    318.58762  0.017062319  0.016250473           13 
 1557000   0.62674898   -7.7826011    318.72539  0.017058734  0.016237381            4 
 1558000   0.64291727   -7.7659265    318.68011  0.017045363   0.01622431            3 
 1559000    0.6298951    -7.770462    319.27949  0.017066469  0.016211271            7 
 1560000   0.63038237   -7.7978838     318.5573   0.01701695  0.016198246            6 
 1561000   0.62902941   -7.7816273    318.40959  0.016998163   0.01618524            8 
 1562000   0.64025439   -7.7631875    319.39597  0.017039905  0.016172275            6 
 1563000   0.63851195    -7.773876     319.0626  0.017011228  0.016159286           11 
 1564000   0.62458811   -7.7911666     318.7261  0.016982422  0.016146335            7 
 1565000   0.64980619   -7.7783387    319.29653  0.017001945  0.016133408            6 
 1566000   0.61824379   -7.7807302    318.96937  0.016973679   0.01612049            9 
 1567000   0.63685121   -7.7819818     319.3674  0.016984014  0.016107572            3 
 1568000   0.62347089   -7.8010776    318.95016  0.016951008  0.016094665           11 
 1569000   0.64382738   -7.7888418     319.6502  0.016977385  0.016081775            5 
 1570000   0.61914028   -7.7814397    318.60429  0.016911056  0.016068903            6 
 1571000    0.6244869   -7.8092905    318.75575  0.016908325  0.016056018            3 
 1572000   0.62409968   -7.8267556    318.87545  0.016903915  0.016043131           12 
 1573000   0.63843989   -7.7970721    319.15848  0.016908163  0.016030272           10 
 1574000   0.61732605    -7.819123    319.37458  0.016908862  0.016017441            3 
 1575000   0.62504958   -7.7924061    319.34458  0.016896538  0.016004629            4 
 1576000   0.61782936   -7.7983562    319.33641  0.016885386  0.015991837            8 
 1577000   0.63216142    -7.790777    318.94145  0.016853807   0.01597906            8 
 1578000   0.61902311   -7.8077603    319.62881  0.016879426  0.015966302            9 
 1579000   0.61875212   -7.8197949    319.17158  0.016844605  0.015953548            5 
 1580000   0.63642248    -7.783303    319.51788  0.016852209   0.01594084            8 
 1581000    0.6146052   -7.8084831    319.79164   0.01685598   0.01592815            7 
 1582000   0.61601474   -7.7993492    318.97448   0.01680228  0.015915419            5 
 1583000   0.61683683   -7.7834913    319.40068  0.016814102  0.015902744            6 
 1584000   0.61474561   -7.7857828    319.60506  0.016814239  0.015890102            8 
 1585000   0.62049466   -7.7886966     319.9497  0.016821751   0.01587747            6 
 1586000   0.61589897    -7.803956     319.7594  0.016801145  0.015864847            6 
 1587000   0.62209271   -7.7973875    320.00239  0.016803318  0.015852248            6 
 1588000    0.6224908   -7.8025524    319.95372  0.016790182  0.015839671            8 
 1589000   0.62260625   -7.7922897    319.77306  0.016770142  0.015827106            5 
 1590000   0.61027125   -7.8150465     319.5854  0.016749759  0.015814531            8 
 1591000   0.60898492   -7.8239849    319.29849  0.016724203  0.015801967            4 
 1592000   0.63295934   -7.7878032     320.1618  0.016758888  0.015789416            7 
 1593000   0.61156721   -7.8076783    319.80631  0.016729772  0.015776894            4 
 1594000    0.5986187   -7.7796974    320.13399  0.016736407  0.015764407            6 
 1595000    0.6245696   -7.7839942    319.71068  0.016703797  0.015751927            7 
 1596000   0.61830363   -7.7932084    319.95956  0.016706326  0.015739452            9 
 1597000    0.6239003   -7.8064185    319.63565  0.016678963  0.015726964           15 
 1598000   0.61111227   -7.8037916    319.42829  0.016657712  0.015714457            6 
 1599000   0.61658005   -7.8080195    319.22272  0.016636581  0.015701974            8 
 1600000   0.62432482     -7.79256    319.58798  0.016645208  0.015689522           14 
 1601000    0.6070706   -7.8084197    319.83103  0.016647461  0.015677087           13 
 1602000   0.59866511   -7.8131433    319.53086  0.016621455  0.015664654            8 
 1603000   0.61041424   -7.8154921    319.83834  0.016627071  0.015652239            4 
 1604000   0.61309886   -7.8288835    319.80655  0.016615053  0.015639814            9 
 1605000   0.62254885    -7.821555    319.39402  0.016583283  0.015627372           11 
 1606000   0.61788651   -7.8016861    320.11229  0.016610227  0.015614948            6 
 1607000   0.61127144   -7.8248147    319.26944  0.016556184  0.015602556            9 
 1608000   0.60157093   -7.8053489      320.192  0.016593698  0.015590171            2 
 1609000   0.61121964   -7.8074968    319.21409  0.016532737  0.015577782           12 
 1610000   0.60868732   -7.8090114    319.85971  0.016555886  0.015565409            8 
 1611000   0.61584665    -7.838129    319.36747  0.016520146  0.015553029            6 
 1612000   0.61351353   -7.8296143     318.9627  0.016488974  0.015540655            8 
 1613000    0.6065627    -7.843071      319.122  0.016486981  0.015528276            5 
 1614000   0.60407988   -7.8514666    319.42601  0.016492462  0.015515933            7 
 1615000   0.60199598   -7.8498123    319.30875    0.0164762   0.01550357            7 
 1616000    0.6118231    -7.859469    319.92188  0.016497622  0.015491195            5 
 1617000   0.60922847   -7.8527761    319.35576  0.016458243  0.015478846            8 
 1618000   0.60193815   -7.8451509    320.24874  0.016494064  0.015466511            4 
 1619000   0.60886311   -7.8341692     318.7787   0.01640821   0.01545416            4 
 1620000   0.60581037   -7.8659684    319.61138  0.016440915  0.015441817            8 
 1621000   0.59459774   -7.8460984    319.34913   0.01641729  0.015429488            5 
 1622000   0.60906839   -7.8539251    319.51911  0.016415902  0.015417151            4 
 1623000   0.60556832   -7.8453634    319.76105   0.01641821  0.015404837            3 
 1624000   0.60491511   -7.8501294    319.02667  0.016370416  0.015392519            9 
 1625000   0.60318529   -7.8639358    319.17634  0.016368018  0.015380178            7 
 1626000   0.60182859   -7.8424783    319.18514  0.016358402  0.015367876           12 
 1627000   0.59764065   -7.8796366    318.96359     0.016337  0.015355583            7 
 1628000   0.60679797   -7.8549092     319.5174  0.016355313  0.015343283            7 
 1629000   0.59074646   -7.8485969    319.31707  0.016335025  0.015330987           11 
 1630000   0.59913233    -7.862082    319.36994  0.016327706  0.015318713            9 
 1631000   0.60833674   -7.8789975    318.65987  0.016281416  0.015306433           14 
 1632000   0.60941301   -7.8720058    318.95518  0.016286519  0.015294166           11 
 1633000   0.59517006   -7.8649302    319.05759  0.016281771  0.015281898            9 
 1634000   0.58643746   -7.8743938     319.5682  0.016297848  0.015269657           10 
 1635000   0.59985204   -7.8612556     318.9133  0.016254501  0.015257399            8 
 1636000   0.58686479   -7.8589257    319.75022  0.016287195  0.015245151            5 
 1637000   0.60285108   -7.8589272    319.08404  0.016243333  0.015232913            5 
 1638000   0.58624723   -7.8619828    319.02574  0.016230451  0.015220689            4 
 1639000   0.60476159   -7.8491001    318.79133   0.01620863  0.015208499           12 
 1640000   0.58360632   -7.8563528    319.25207  0.016222158  0.015196306           10 
 1641000   0.58913924   -7.8607565    319.22673  0.016210986  0.015184108            8 
 1642000   0.60351538   -7.8777337    319.56312  0.016218185   0.01517193            9 
 1643000   0.59977285   -7.8467899      319.163   0.01618802  0.015159816           14 
 1644000   0.59033501   -7.8628451    319.74424  0.016207636  0.015147685           12 
 1645000   0.59233815   -7.8607073    318.37444  0.016128391  0.015135571           12 
 1646000     0.595912   -7.8642203    318.87466  0.016143917  0.015123456            8 
 1647000   0.60471818   -7.8776948    319.33899  0.016157609  0.015111353            9 
 1648000    0.5900817   -7.8452844    318.73785  0.016117408  0.015099284            5 
 1649000   0.59851829   -7.8353095    319.61478   0.01615195  0.015087226            3 
 1650000   0.59071854   -7.8557039    319.43045  0.016132851  0.015075175            8 
 1651000   0.59045459   -7.8805849    318.74437   0.01608845   0.01506311            6 
 1652000    0.5854725   -7.8749339    318.58061   0.01607045  0.015051039            7 
 1653000   0.58997378   -7.8854403     319.0713  0.016085466  0.015038977            5 
 1654000   0.59767686    -7.858058    319.13683  0.016079042  0.015026941            8 
 1655000   0.58978846   -7.8800448    318.48353  0.016036432  0.015014908            5 
 1656000   0.59029171   -7.8772657    318.92118  0.016048771  0.015002887            7 
 1657000   0.58865028   -7.8775644    319.58116  0.016072277  0.014990881            9 
 1658000   0.59165681   -7.8583767    319.39262  0.016053107    0.0149789            8 
 1659000   0.58100433   -7.8743324    318.82788  0.016015063  0.014966925            4 
 1660000   0.59423671   -7.8815919    319.34888   0.01603157  0.014954962           14 
 1661000   0.60005112   -7.8924394    319.00937  0.016004885  0.014942979           14 
 1662000   0.58877867   -7.8884798    319.45677  0.016017688  0.014930991           16 
 1663000    0.5838787   -7.8713133    319.00221  0.015985278  0.014919015           10 
 1664000    0.5929859    -7.874124    318.77233  0.015964159  0.014907042            7 
 1665000   0.59452859   -7.9015231    319.13939  0.015972942  0.014895081            9 
 1666000   0.58468673   -7.8813928    318.85301   0.01594903  0.014883146           12 
 1667000   0.60219687   -7.9025765    318.80765  0.015937195  0.014871205           11 
 1668000   0.57972634   -7.8886862     318.3932  0.015906934   0.01485927            9 
 1669000   0.57079615   -7.8873998    318.89268  0.015922343   0.01484736           15 
 1670000   0.58327074   -7.9160812    319.21709  0.015928997  0.014835461            9 
 1671000   0.59270217   -7.8851643    318.98069  0.015907675  0.014823559           12 
 1672000   0.58343853   -7.9042228     318.7286  0.015885596  0.014811668           11 
 1673000   0.57306479   -7.8881735    319.05329  0.015892274  0.014799788            8 
 1674000   0.59947531   -7.8757325    319.17414  0.015888796  0.014787933           14 
 1675000    0.5951314    -7.885961    319.10432  0.015875837  0.014776087           13 
 1676000   0.58164029   -7.8830337    318.62555  0.015842559   0.01476424           11 
 1677000   0.58709428   -7.8781079    317.88271  0.015796199  0.014752386            8 
 1678000    0.5815299   -7.9245321    318.74944  0.015829829  0.014740513           14 
 1679000   0.60112575   -7.8992647    318.37786  0.015801958  0.014728683           10 
 1680000   0.59031175   -7.8919393    318.57536  0.015802349  0.014716838           10 
 1681000   0.58289878   -7.8829669     318.7975  0.015803961  0.014705019           13 
 1682000   0.58037588   -7.8966342    318.37819  0.015773791  0.014693203            9 
 1683000   0.58077635   -7.8830849    319.03968  0.015797172  0.014681394           13 
 1684000   0.57930923   -7.8994654    318.51878  0.015762014  0.014669583           11 
 1685000   0.58534393   -7.9005737    318.91353  0.015772183   0.01465779            8 
 1686000   0.58870413   -7.8912624    318.49059  0.015741923  0.014646004            7 
 1687000   0.56847455   -7.8978912    318.29629  0.015722994  0.014634211            9 
 1688000   0.57887279   -7.9147563    318.42618  0.015720092   0.01462247            5 
 1689000   0.58741041   -7.9071182    319.04586  0.015741359  0.014610752            8 
 1690000   0.59499549   -7.9031313    319.47435  0.015753173  0.014599031           21 
 1691000   0.57960093    -7.880298    318.10849  0.015676547  0.014587299           23 
 1692000   0.58016299   -7.9059179    318.55075  0.015689064  0.014575578           20 
 1693000   0.57378845   -7.9128491     318.4264  0.015673676  0.014563865           20 
 1694000   0.57669453   -7.9047267    318.18277  0.015652438  0.014552155           22 
 1695000   0.57122306   -7.8997512    318.06914  0.015637618   0.01454047           19 
 1696000   0.57134091   -7.8999691    318.32576  0.015641006  0.014528789           15 
 1697000   0.58560505   -7.9160864    318.42159  0.015636495  0.014517103            8 
 1698000   0.57766259   -7.9060946    318.40285  0.015626367  0.014505445           14 
 1699000   0.58049279    -7.907727     318.6301  0.015628316  0.014493774           12 
 1700000   0.59255937   -7.9141641      318.094  0.015592843  0.014482138           19 
 1701000   0.58166253   -7.9121425    318.22735  0.015590209  0.014470519           27 
 1702000   0.58266664   -7.9052402     318.5894  0.015598776  0.014458894           28 
 1703000   0.56282351   -7.9306795    318.96404  0.015607949  0.014447274           26 
 1704000   0.55777981   -7.9164124     318.3911   0.01557077  0.014435681           23 
 1705000    0.5738767   -7.9229412     318.6183  0.015572742    0.0144241           20 
 1706000   0.58212027     -7.90809     318.6343  0.015564395   0.01441253           15 
 1707000   0.56666553   -7.9084237    318.87292  0.015566926  0.014400982           19 
 1708000   0.56805073   -7.9081568    318.62452  0.015545693  0.014389446           22 
 1709000   0.57113222   -7.9134191    319.50793  0.015579673  0.014377919           21 
 1710000   0.56359687   -7.9161593     318.4917  0.015521038  0.014366407           10 
 1711000   0.55763046   -7.9368805    318.49393  0.015512075    0.0143549           26 
 1712000   0.55693461   -7.9354501    318.69173  0.015512642  0.014343395           26 
 1713000   0.58338242   -7.9237645    319.16696  0.015526706  0.014331907           25 
 1714000   0.57027547    -7.927052    317.79761   0.01545107   0.01432041           20 
 1715000   0.56896662   -7.9277054    318.72999  0.015487366  0.014308942           18 
 1716000   0.57810936   -7.9359585    318.18018  0.015451641  0.014297475           16 
 1717000    0.5777346   -7.9170517    318.52082  0.015459174  0.014286029           26 
 1718000   0.55633074   -7.9492953    318.50005  0.015449168    0.0142746           19 
 1719000   0.57961439   -7.9416201    318.26816  0.015428939  0.014263174           23 
 1720000   0.56472986    -7.942395    318.74325  0.015442987  0.014251758           11 
 1721000   0.55558055   -7.9364852    318.42679   0.01541869  0.014240343           24 
 1722000   0.56541714   -7.9306846    318.31516  0.015404334  0.014228959           20 
 1723000   0.57934452   -7.9314748    318.71611  0.015414786  0.014217597           17 
 1724000   0.58165869   -7.9082612    318.96989  0.015418111  0.014206241           10 
 1725000   0.57887903   -7.9252397    318.50409  0.015386671  0.014194896           11 
 1726000   0.56678915   -7.9211334    318.88907  0.015396344  0.014183557           20 
 1727000   0.55373299   -7.9176426    318.24174  0.015356193  0.014172232           19 
 1728000   0.55349842   -7.9308571    318.51422  0.015360447  0.014160917           15 
 1729000    0.5515685   -7.9218958    318.87674  0.015369035  0.014149627            9 
 1730000   0.56037229   -7.9281874    318.18066  0.015326621   0.01413831           16 
 1731000   0.57682304   -7.9440428    318.38804  0.015327751  0.014127029           18 
 1732000   0.56690117   -7.9160806    318.40117  0.015319533  0.014115759           20 
 1733000   0.56878019   -7.9301937     318.7812  0.015328967  0.014104484           24 
 1734000   0.57075015   -7.9209323    318.97716  0.015329544  0.014093236           26 
 1735000   0.56127323   -7.9547377    318.89617  0.015316819  0.014082001           29 
 1736000    0.5677163   -7.9541908    318.71661  0.015299376  0.014070769           20 
 1737000   0.55941136    -7.942459    318.89313  0.015299037   0.01405956           21 
 1738000   0.56372794    -7.941649    318.74945  0.015283346  0.014048346           19 
 1739000    0.5578329   -7.9466192     318.4625  0.015260806  0.014037159           22 
 1740000   0.55011874   -7.9519991     318.7737   0.01526694  0.014025973           12 
 1741000   0.56050374   -7.9438693    319.19725  0.015278444  0.014014802           20 
 1742000   0.56346223   -7.9614783    319.30992  0.015275063  0.014003654           23 
 1743000   0.56699582   -7.9384969    318.97473  0.015250274  0.013992509           26 
 1744000   0.56325642   -7.9395317    318.64516  0.015225782  0.013981366           23 
 1745000   0.56010011   -7.9384868    318.84127  0.015226422   0.01397023           24 
 1746000   0.56777213    -7.946253    318.69596  0.015210766  0.013959108           14 
 1747000   0.55709074   -7.9489851     318.7313  0.015203744  0.013947972           21 
 1748000   0.55944282   -7.9501276    318.40764  0.015179617  0.013936838           25 
 1749000   0.55144515   -7.9488912     318.1409  0.015158229  0.013925734           19 
 1750000   0.54956653   -7.9413679    318.78977  0.015180465  0.013914631           15 
 1751000   0.54723813   -7.9656079    318.14013  0.015140878  0.013903546           18 
 1752000   0.56150731   -7.9638851    318.64546  0.015156272  0.013892438           20 
 1753000   0.56183213   -7.9502332    318.77814  0.015153933  0.013881355           13 
 1754000   0.56582001   -7.9645384    318.02877  0.015109691   0.01387028           19 
 1755000   0.55180801   -7.9386508    318.22892  0.015110585   0.01385921           24 
 1756000   0.55400828   -7.9559571    318.53732  0.015116616  0.013848148           18 
 1757000   0.55806078   -7.9768461     318.3391   0.01509861  0.013837091           18 
 1758000   0.55622407    -7.955272    317.90274  0.015069337   0.01382603           14 
 1759000   0.55500934   -7.9631683    318.05495  0.015067981  0.013814976           11 
 1760000    0.5581321    -7.958318      318.021  0.015057812  0.013803932           18 
 1761000   0.55172546   -7.9661729    317.86054  0.015041669  0.013792891           16 
 1762000   0.55223065   -7.9625077    318.04814  0.015042004  0.013781864           13 
 1763000   0.55199196    -7.930417    318.36808  0.015048595  0.013770843           21 
 1764000   0.55316415   -7.9603394     318.4431  0.015043608  0.013759857           12 
 1765000   0.54911562   -7.9566607    317.71159  0.015000547  0.013748863           14 
 1766000   0.55694791   -7.9551214    318.08807  0.015009818  0.013737856           22 
 1767000    0.5432042   -7.9448003    318.17131   0.01500525  0.013726874           21 
 1768000   0.54588275   -7.9796863    318.29675  0.015002675    0.0137159           20 
 1769000   0.55063478   -7.9830906    318.45302  0.015001556  0.013704921           17 
 1770000   0.54741454   -7.9878551    318.24786  0.014983421  0.013693956           20 
 1771000   0.53339883   -7.9602926    318.37145  0.014980776  0.013683006           13 
 1772000   0.54902528   -7.9642114    318.37205   0.01497235  0.013672063            9 
 1773000   0.54821792   -7.9796099    317.66337  0.014930596  0.013661126           25 
 1774000    0.5590414   -7.9795487    318.17537  0.014946231   0.01365019           12 
 1775000   0.53805686   -7.9653288    318.04284  0.014931588  0.013639271           16 
 1776000   0.54806098   -7.9664712    317.94707  0.014918688  0.013628357           12 
 1777000   0.54809029   -7.9649705    317.56294  0.014892278  0.013617449           17 
 1778000   0.55909618   -7.9767216     317.3476   0.01487381   0.01360655           21 
 1779000   0.54898166   -7.9711802    317.97119  0.014894659  0.013595656            8 
 1780000   0.54231343   -7.9661975    317.24699  0.014852387  0.013584767           15 
 1781000   0.54246245   -7.9893672    318.05078  0.014881658  0.013573886           10 
 1782000   0.53121778   -7.9737515     317.6094  0.014852665  0.013563001           18 
 1783000   0.54038173   -7.9712161     318.2305  0.014873364  0.013552134           14 
 1784000   0.54329727   -7.9826266    318.04522  0.014856372  0.013541287           14 
 1785000   0.54696491   -7.9790189     317.9819  0.014845093  0.013530451           13 
 1786000   0.54741565   -7.9912932    317.88098  0.014832073  0.013519628           16 
 1787000   0.52907838   -7.9810354    317.52077  0.014806975  0.013508804           23 
 1788000   0.53027388   -7.9679404    317.52285   0.01479879  0.013497979            9 
 1789000   0.52692337   -7.9796282    317.51216   0.01479002  0.013487171           10 
 1790000   0.55342495    -7.971523     317.4936  0.014780894  0.013476381           10 
 1791000   0.54278968   -7.9817193     317.7969  0.014786753  0.013465589            9 
 1792000   0.53661727   -7.9882972    317.30633  0.014755689  0.013454801           11 
 1793000   0.54556574   -7.9888165    317.79086  0.014769979  0.013444022           13 
 1794000   0.53282948   -7.9905763    317.30441   0.01473915   0.01343326           13 
 1795000   0.54145193   -7.9954133    317.37991  0.014734443  0.013422492            7 
 1796000   0.54423831   -8.0023645     317.5438  0.014733844  0.013411754           10 
 1797000   0.53567655   -7.9868466    318.10276  0.014751565  0.013401021           16 
 1798000   0.54507641   -7.9840331    317.89261  0.014733621  0.013390305           13 
 1799000   0.52782139   -8.0002639    317.63765  0.014713621  0.013379587           13 
 1800000   0.53996579   -7.9948325    317.55694   0.01470171  0.013368885           10 
 1801000   0.53848528   -7.9936532    317.58034   0.01469463  0.013358199           10 
 1802000   0.53747623   -7.9980855     317.5109  0.014683264  0.013347509           12 
 1803000   0.52318059   -7.9889585    317.48809  0.014674066  0.013336825           17 
 1804000   0.52812399   -7.9953446    317.63974  0.014672937  0.013326161           18 
 1805000   0.52487587   -7.9985749    317.79306  0.014671887  0.013315509            6 
 1806000   0.54043034   -8.0219278    317.40638   0.01464592  0.013304866           14 
 1807000   0.52507555   -7.9949673    318.02723  0.014666447  0.013294232           12 
 1808000   0.52013724    -7.999734    317.24093  0.014622093  0.013283597            9 
 1809000   0.53638188   -8.0089062    317.75191  0.014637549  0.013272986           13 
 1810000   0.53681738   -7.9977885    317.67445  0.014625895  0.013262388            6 
 1811000   0.52872358   -8.0100235    317.35224  0.014602993  0.013251794            8 
 1812000   0.52260583   -8.0062468    317.42534  0.014598296  0.013241201           10 
 1813000     0.533685   -7.9958508    317.61063   0.01459876  0.013230628            6 
 1814000   0.52256839   -7.9994407    317.25457  0.014574355  0.013220064           13 
 1815000   0.52985988    -8.005268    317.38936  0.014572514  0.013209491           13 
 1816000   0.52122424    -7.999812    317.38984  0.014564512   0.01319894           10 
 1817000   0.51276236   -8.0013178    317.47675  0.014560482  0.013188396           12 
 1818000   0.52922025   -7.9961287    317.35863  0.014547059  0.013177866           15 
 1819000   0.51713688   -8.0204636    317.62425   0.01455123  0.013167339            8 
 1820000   0.52169444    -7.990187    318.04272  0.014562396  0.013156818           11 
 1821000   0.52382783   -8.0145621    317.28744  0.014519835  0.013146312           14 
 1822000   0.52483693   -8.0006324    317.33397  0.014513994  0.013135814           11 
 1823000   0.53735199   -8.0215307     317.8002  0.014527345  0.013125332            9 
 1824000   0.52950261   -8.0262196    317.43943  0.014502898  0.013114857            7 
 1825000   0.52932192   -8.0095212     317.5125  0.014498288  0.013104386           12 
 1826000   0.52496054   -8.0191279    317.78948  0.014502988  0.013093916            9 
 1827000   0.53378312   -8.0051038    318.09492  0.014508982  0.013083473           12 
 1828000   0.52397537   -8.0105916    317.00571  0.014451391  0.013073032            7 
 1829000   0.52265811   -8.0264037    317.18258  0.014451548  0.013062604            9 
 1830000   0.53196856   -8.0029408    317.38707  0.014452963  0.013052185           11 
 1831000   0.52198707   -8.0128934     317.4719  0.014448931  0.013041777           12 
 1832000   0.51718354    -8.016137    317.54548   0.01444439   0.01303139            8 
 1833000   0.51259868   -8.0082409    317.67484  0.014442391     0.013021           12 
 1834000   0.52313895   -8.0282745    317.06767  0.014406928  0.013010614           14 
 1835000   0.51273906   -8.0133753    317.56066  0.014421465  0.013000245           10 
 1836000   0.51455949   -8.0320622    317.19752  0.014397128  0.012989875            8 
 1837000   0.52849011   -8.0201764    317.07309  0.014383646  0.012979519           27 
 1838000   0.52868073    -8.010399    317.36187  0.014388913   0.01296917           11 
 1839000   0.52769975   -8.0283184    317.06324  0.014367557  0.012958825           16 
 1840000   0.51771124   -8.0079486    317.51092  0.014380023  0.012948492           14 
 1841000   0.51888933   -8.0274592    317.40041   0.01436721  0.012938182           13 
 1842000   0.51012571   -8.0209167     317.1797  0.014349425  0.012927865           16 
 1843000   0.51707804   -8.0162924    317.37433   0.01435044   0.01291755           12 
 1844000   0.51903436   -8.0318931    317.11793  0.014331071  0.012907249           14 
 1845000   0.52605421   -8.0199618    317.28756  0.014330965  0.012896963            7 
 1846000   0.51137775   -8.0167989    317.45189   0.01433062   0.01288668           11 
 1847000   0.50441026   -8.0181454     317.6042  0.014329733  0.012876421           10 
 1848000   0.50937362    -8.034031     317.2041  0.014303937  0.012866143           14 
 1849000   0.51746445   -8.0198632    317.69644   0.01431839   0.01285589            9 
 1850000   0.51445214   -8.0231732    316.96103  0.014277524  0.012845643           16 
 1851000    0.5047995   -8.0342623    317.23993  0.014282367  0.012835405           12 
 1852000   0.51687463   -8.0209886    317.07415  0.014267195  0.012825166            7 
 1853000   0.50871561   -8.0306149    317.36675  0.014272655   0.01281495           21 
 1854000   0.51079512   -8.0349352    316.82084  0.014240419  0.012804742           17 
 1855000   0.50936248   -8.0360232    316.20158  0.014204923  0.012794529           23 
 1856000   0.50437112   -8.0474935    316.58467   0.01421447  0.012784335           13 
 1857000   0.51476169   -8.0285475    317.21593  0.014235143  0.012774163           19 
 1858000   0.51749072   -8.0297297    316.84475  0.014210834  0.012763995           12 
 1859000   0.50648889   -8.0485585    317.01444  0.014210796   0.01275383           16 
 1860000   0.51909924   -8.0412354    317.13798  0.014208691  0.012743667            8 
 1861000   0.50743605   -8.0381712    317.40145  0.014212854  0.012733521           11 
 1862000   0.50559035   -8.0233093       317.23  0.014197548  0.012723376           15 
 1863000   0.51905806   -8.0421947    317.28934  0.014192581  0.012713241           12 
 1864000   0.50245713   -8.0507352     316.4651  0.014148118   0.01270312           10 
 1865000   0.51618096   -8.0501753    316.99047  0.014164007   0.01269299           11 
 1866000   0.50410538   -8.0402481    316.85438  0.014150339  0.012682874           13 
 1867000    0.5050732   -8.0460736    317.35121  0.014164935  0.012672768           16 
 1868000   0.51881537   -8.0379523    316.82786  0.014134005  0.012662677           13 
 1869000   0.51649314   -8.0375157    317.16779  0.014141599   0.01265259           10 
 1870000   0.50692812   -8.0318827    316.89215  0.014121754  0.012642523           10 
 1871000   0.51882944   -8.0405601     317.0316  0.014120417   0.01263246           13 
 1872000   0.50279347   -8.0371052    316.93933  0.014108767  0.012622391            8 
 1873000    0.5111823   -8.0549637     317.2681  0.014115861  0.012612349           16 
 1874000     0.509098     -8.05491    316.48341  0.014073435  0.012602305           18 
 1875000   0.49844994   -8.0533305    316.56906  0.014069736  0.012592272           16 
 1876000   0.49536756   -8.0537959    316.91949  0.014077802  0.012582251           12 
 1877000   0.49105902    -8.050553    316.83049  0.014066351  0.012572241            9 
 1878000   0.50364041    -8.037968    316.77725  0.014056499  0.012562245           13 
 1879000   0.49186234   -8.0537773    316.78421  0.014049326  0.012552257           14 
 1880000   0.49986373   -8.0418061    317.21692  0.014061033   0.01254227           24 
 1881000   0.50577837   -8.0579538    316.53884  0.014023517  0.012532304           18 
 1882000   0.50876456   -8.0406852    316.83819  0.014029321  0.012522343           16 
 1883000   0.50288004    -8.052781    316.81386  0.014020794    0.0125124           14 
 1884000    0.4965449   -8.0498765    316.69024  0.014007884  0.012502457           23 
 1885000   0.50018449   -8.0697499     316.2484   0.01398092  0.012492531            9 
 1886000   0.49536522   -8.0644362    316.96732  0.014005272  0.012482613           14 
 1887000   0.50550124   -8.0471443    317.42588  0.014018101  0.012472707           11 
 1888000   0.49027755    -8.069855    317.05454  0.013994286  0.012462815           13 
 1889000   0.50873916   -8.0436669    316.53256   0.01396385  0.012452921           14 
 1890000   0.50464055    -8.065542    317.26785  0.013988882  0.012443033           20 
 1891000   0.49286156   -8.0527852      317.286  0.013982285  0.012433155           12 
 1892000   0.49361997    -8.056119    316.35688  0.013933971  0.012423292           10 
 1893000   0.50802514   -8.0413913    316.60122  0.013937366   0.01241344            8 
 1894000   0.50156811   -8.0481548    316.65695   0.01393246  0.012403598           15 
 1895000    0.4956034   -8.0590477    317.06014  0.013942838  0.012393765           12 
 1896000     0.496468   -8.0494221    316.42215  0.013907443  0.012383931           10 
 1897000   0.49481341   -8.0528676     316.4603  0.013901788  0.012374123            9 
 1898000   0.49471004    -8.056538    316.79687  0.013909241  0.012364314           13 
 1899000   0.50028675   -8.0671536    316.80814  0.013902411  0.012354523           14 
 1900000   0.50269611   -8.0555594      316.985  0.013902851  0.012344741           14 
 1901000   0.48800148   -8.0615688    316.53608  0.013875858  0.012334963            8 
 1902000    0.4969912   -8.0471276    316.39679   0.01386246  0.012325201           14 
 1903000   0.49373848   -8.0451796    316.90378  0.013877377  0.012315449            9 
 1904000   0.49639859   -8.0585974    316.70432  0.013861358  0.012305699            9 
 1905000   0.48835031   -8.0543451    316.26301  0.013834778   0.01229596            8 
 1906000   0.49180625   -8.0718396    316.18854  0.013824263  0.012286224            8 
 1907000    0.4856911   -8.0762211    316.94782  0.013850193    0.0122765           10 
 1908000   0.49698001    -8.069509     316.5431  0.013825258  0.012266778            8 
 1909000    0.4920013   -8.0700953    316.26442   0.01380585  0.012257064           11 
 1910000   0.48655679   -8.0531201    316.33907  0.013801879  0.012247365           16 
 1911000   0.48797801   -8.0628285    316.55559  0.013804099  0.012237678            8 
 1912000   0.49242452   -8.0749091    316.60621  0.013799085  0.012227999            7 
 1913000   0.50621074   -8.0726029    316.84676  0.013802351  0.012218334           10 
 1914000   0.48749356   -8.0565517    316.68962  0.013788298  0.012208673           15 
 1915000    0.4810892   -8.0706391    316.58763  0.013776659  0.012199015           10 
 1916000   0.48951855   -8.0657029    316.54141  0.013767459  0.012189362           14 
 1917000   0.48882759   -8.0894943    316.97326   0.01377905  0.012179718           15 
 1918000   0.48992965   -8.0629807    316.52955  0.013752587  0.012170087           11 
 1919000    0.4893422   -8.0940875    316.68513  0.013752177  0.012160461            9 
 1920000   0.47374514   -8.0562914    316.66388  0.013744092  0.012150847           15 
 1921000   0.48078716   -8.0603759     316.3007  0.013721183  0.012141239           11 
 1922000    0.4849019   -8.0589688    316.36236  0.013716717  0.012131647           21 
 1923000    0.4812898     -8.07579     316.9465  0.013734898  0.012122068           17 
 1924000   0.47972659   -8.0854624    316.79545  0.013721216  0.012112502           15 
 1925000   0.49025919   -8.0551403    316.58314  0.013704898  0.012102939            9 
 1926000   0.48766974   -8.0757448    316.75041   0.01370502  0.012093379            8 
 1927000   0.47867494    -8.083847    316.76984  0.013698748  0.012083822           11 
 1928000   0.48865129   -8.0882671    316.47523  0.013678909  0.012074279           12 
 1929000   0.49511476   -8.0866801    316.56065  0.013675508  0.012064745            9 
 1930000   0.48312555   -8.0809413    316.12363  0.013649552  0.012055229            6 
 1931000   0.49237114   -8.0665638    316.08195  0.013640685  0.012045718           19 
 1932000   0.47233393   -8.0810165    315.97143  0.013628857  0.012036216           12 
 1933000   0.47190112   -8.0836982     316.1561  0.013629768  0.012026717            7 
 1934000   0.48975853   -8.0859823     316.1687  0.013623263  0.012017227            9 
 1935000    0.4892312   -8.1001669    316.39072  0.013625785  0.012007748           13 
 1936000   0.47360837   -8.0983697    316.19292  0.013610232   0.01199828           19 
 1937000   0.48923525    -8.079403    316.61743  0.013621469  0.011988818            8 
 1938000   0.47360016   -8.0963677    316.04444  0.013589802  0.011979366           21 
 1939000   0.48114452   -8.0758065    316.39325  0.013597784  0.011969918           13 
 1940000    0.4911487   -8.0624561    316.14955  0.013580307  0.011960483           10 
 1941000   0.48384569   -8.0695558    315.90989  0.013563021  0.011951042           19 
 1942000   0.47854262   -8.0975579    316.24433  0.013570388  0.011941611           23 
 1943000    0.4683745   -8.0872553    315.82099  0.013545247  0.011932192            9 
 1944000   0.46948547   -8.0836116    316.58154  0.013570882  0.011922776           20 
 1945000   0.47936588    -8.103121    316.39931  0.013556097  0.011913374           21 
 1946000   0.47173933   -8.1024597     316.3987  0.013549105   0.01190398           21 
 1947000   0.47604871   -8.0927338    315.92318  0.013521793  0.011894593           16 
 1948000   0.47829886   -8.0938225    316.18252  0.013525946  0.011885233           20 
 1949000   0.47280968   -8.0950999    316.38818    0.0135278   0.01187587           11 
 1950000   0.46803726   -8.1040616    315.90962  0.013500411  0.011866513           13 
 1951000   0.48045693   -8.0868638    316.10652  0.013501901  0.011857168           10 
 1952000   0.46843856   -8.0977968    316.03337  0.013491862  0.011847843            8 
 1953000   0.46747268    -8.090469    316.80679  0.013517955  0.011838512           11 
 1954000   0.47126925   -8.0903333    315.54631  0.013457281  0.011829193           18 
 1955000   0.47404089    -8.102736    316.02649  0.013470865  0.011819871           16 
 1956000   0.47447407   -8.0970098    315.82926  0.013455575   0.01181056            8 
 1957000   0.46634952   -8.0951389    316.00297  0.013456096  0.011801266           20 
 1958000   0.47370372    -8.096642    315.88677  0.013444278  0.011791972           11 
 1959000   0.47695643   -8.0971738    315.78797  0.013433213  0.011782692           14 
 1960000   0.47195294    -8.102749    316.63458  0.013462355  0.011773417           11 
 1961000   0.45551303   -8.1178658    316.08256  0.013432031  0.011764155           11 
 1962000   0.47706679   -8.0984176    316.38283  0.013437939  0.011754892           15 
 1963000   0.47637504   -8.1133635    316.24409  0.013425203   0.01174564           19 
 1964000   0.47887848   -8.1139594    316.05278   0.01341025  0.011736396           15 
 1965000   0.46577835   -8.0849616    315.29996    0.0133715  0.011727163           19 
 1966000   0.47751572   -8.1028005    315.60683  0.013377706  0.011717937           16 
 1967000   0.46509048   -8.1100577    316.05985  0.013390097  0.011708717           15 
 1968000   0.47120322   -8.1106768    315.44774  0.013357374    0.0116995           19 
 1969000   0.47188054   -8.1067263    315.58526   0.01335641  0.011690298           12 
 1970000   0.47531587   -8.1111078     316.0646  0.013369907  0.011681106           18 
 1971000   0.45965246   -8.1095956    315.71142  0.013348191  0.011671918           15 
 1972000   0.47187811   -8.1097622    315.56472  0.013335223  0.011662743           18 
 1973000   0.47453358   -8.1168517     315.4659   0.01332429  0.011653576           11 
 1974000   0.48170413   -8.1061825    315.62303  0.013324174  0.011644423           11 
 1975000   0.46368244   -8.1162099    316.02933  0.013334571  0.011635278           17 
 1976000    0.4618608   -8.1119379    316.08431  0.013330141   0.01162614           18 
 1977000   0.47162219   -8.1253782    315.32513  0.013291398  0.011616999           19 
 1978000    0.4575825   -8.1147768    315.90554  0.013309131  0.011607876           18 
 1979000   0.46973264    -8.107799    315.55782  0.013287764   0.01159876           11 
 1980000   0.45307643   -8.1270006    315.85468  0.013293547  0.011589648           21 
 1981000    0.4670932   -8.1122811    315.59979  0.013276114  0.011580545           15 
 1982000   0.46108595   -8.1194242    316.12236  0.013291388  0.011571461           24 
 1983000   0.47073584   -8.1181162    315.14853  0.013243761  0.011562379           14 
 1984000   0.46553593    -8.126233    315.79285  0.013264149  0.011553313           15 
 1985000   0.44887783   -8.1221305    315.67091  0.013252347  0.011544246           15 
 1986000   0.45340149   -8.1206092    315.76748  0.013249726  0.011535186           10 
 1987000   0.45964557   -8.1254158    315.71143  0.013240708  0.011526137           11 
 1988000   0.46962415   -8.1209985    315.89448   0.01324172  0.011517101           16 
 1989000   0.46452016    -8.107623    315.79125  0.013230738  0.011508077           23 
 1990000   0.45782974   -8.1131102    315.47878  0.013211004  0.011499062           14 
 1991000   0.46431425   -8.1032189    315.77778  0.013216883  0.011490052           11 
 1992000   0.45568136   -8.1033716    315.54998  0.013200719  0.011481046           11 
 1993000   0.45415345   -8.1328121    315.74964  0.013202443  0.011472058           16 
 1994000   0.45033119   -8.1244832    315.52629  0.013186488  0.011463072           10 
 1995000   0.45484106    -8.115535    315.49929  0.013178751  0.011454097            8 
 1996000   0.45325931   -8.1040146    316.03888  0.013194676   0.01144513            7 
 1997000   0.45070099   -8.1235321    315.23649  0.013154586  0.011436167           25 
 1998000   0.45084937   -8.1102599    314.82627  0.013130892  0.011427219            9 
 1999000   0.45378569    -8.107483    315.69284  0.013160448  0.011418283           14 
 2000000   0.45690603   -8.1174492    315.30321  0.013137634  0.011409354           15 
 2001000   0.43604779   -8.1263948    315.88523  0.013155307  0.011400432           11 
 2002000   0.45164931   -8.1309987    315.81451  0.013145792   0.01139152           17 
 2003000   0.46168833   -8.1167576    315.36024  0.013120329  0.011382612           14 
 2004000   0.45721645   -8.1206995    315.23507  0.013108577   0.01137372           11 
 2005000   0.44397429   -8.1277926    315.79203  0.013125188  0.011364826           15 
 2006000   0.45760158   -8.1112395    315.51161  0.013106996  0.011355941           19 
 2007000   0.44818052   -8.1320518    315.40726  0.013096133   0.01134706           13 
 2008000   0.45187503   -8.1075383     315.1437  0.013078673  0.011338181           13 
 2009000   0.45119556   -8.1242046    315.77279  0.013098258  0.011329319           17 
 2010000   0.46557639   -8.1348192    315.24609  0.013069904  0.011320472           12 
 2011000   0.45313304   -8.1427426    315.53982  0.013075577  0.011311623            9 
 2012000   0.45064373   -8.1435196    315.35484  0.013061417   0.01130279           13 
Loop time of 4532.33 on 48 procs for 2000000 steps with 4000 atoms

Performance: 76252.186 tau/day, 441.274 timesteps/s
99.4% CPU use with 48 MPI tasks x no OpenMP threads

MPI task timing breakdown:
Section |  min time  |  avg time  |  max time  |%varavg| %total
---------------------------------------------------------------
Pair    | 286.96     | 307.55     | 329.02     |  46.8 |  6.79
Neigh   | 29.153     | 29.949     | 31.075     |   8.8 |  0.66
Comm    | 269.06     | 290.15     | 311.78     |  54.5 |  6.40
Output  | 3.9499     | 3.9515     | 3.9821     |   0.2 |  0.09
Modify  | 3844.1     | 3856.8     | 3867.2     |   8.3 | 85.10
Other   |            | 43.94      |            |       |  0.97

Nlocal:        83.3333 ave          92 max          73 min
Histogram: 1 2 2 6 6 14 7 4 4 2
Nghost:        1903.27 ave        1929 max        1882 min
Histogram: 2 2 3 11 12 11 3 2 1 1
Neighs:        11983.7 ave       13792 max       10552 min
Histogram: 2 8 5 6 8 6 5 5 1 2
FullNghs:      23966.5 ave       27157 max       20731 min
Histogram: 1 4 4 4 10 9 8 5 2 1

Total # of neighbors = 1150393
Ave neighs/atom = 287.59825
Neighbor list builds = 107559
Dangerous builds = 0

#clear
#
#next RN
#
#jump SELF
Total wall time: 1:15:35
