
units lj                  # Use reduced LJ style units
atom_style atomic         # Uncharged point particles
atom_modify map hash      # Needed for indexing of clusters etc
                          # Used to be able to find where atoms are in relation to each other.

lattice fcc 1.0 spacing 1 1 1
Lattice spacing in x,y,z = 1.5874011 1.5874011 1.5874011
region box block 0 10 0 10 0 10 units lattice
create_box 2 box
Created orthogonal box = (0.0000000 0.0000000 0.0000000) to (15.874011 15.874011 15.874011)
  3 by 4 by 4 MPI processor grid
create_atoms 1 box
Created 4000 atoms
  using lattice units in orthogonal box = (0.0000000 0.0000000 0.0000000) to (15.874011 15.874011 15.874011)
  create_atoms CPU = 0.003 seconds
set type 1 type/fraction 2 0.32 78393
Setting atom values ...
  1310 settings made for type/fraction
mass 1 1.0
mass 2 1.0
pair_style lj/cut  3.5
pair_modify tail  yes
pair_coeff 1  1  1.0  1.0   # Intearaction between 1 and 1 set with epsilon = 1 and sigma = 1
pair_coeff 1  2  1.5  0.8
pair_coeff 2  2  0.5  0.88

write_data data.0
System init for write_data ...
Neighbor list info ...
  update every 1 steps, delay 10 steps, check yes
  max neighbors/atom: 2000, page size: 100000
  master list distance cutoff = 3.8
  ghost atom cutoff = 3.8
  binsize = 1.9, bins = 9 9 9
  1 neighbor lists, perpetual/occasional/extra = 1 0 0
  (1) pair lj/cut, perpetual
      attributes: half, newton on
      pair build: half/bin/atomonly/newton
      stencil: half/bin/3d
      bin: standard
WARNING: Not all mixed pair coeffs generated from mixing. Use write_data with 'pair ij' option to store all pair coeffs. (../write_data.cpp:312)


#############################
#   M E L T   S Y S T E M   #
#############################

velocity all create 2.4 3143649 mom yes dist gaussian # Assign velocities
                                                    # Temperature 2.4, random number seed, zero linear momentum
                                                                                # Gaussian distribution

timestep 0.002   # simulation timestep
thermo 1000       # output thermodynamic data every 1000 steps bf 100

# Define a fix  in this case with index 1 applied to all
# particles in the simulation. This fix is for simulations
# in the anisotropic NPT ensemble. Note that we use the MTK
# correction.
fix 1 all npt temp 2.4 2.4 0.1 iso 5.68 5.68 0.5 mtk yes tchain 5 pchain 5 # Use NPT ensemble
                                                                         # Set temperature and pressure and damping
                                                                         # Numbers of thermostats in chain and in barostat
run 10000          # run for 10000 steps
Per MPI rank memory allocation (min/avg/max) = 3.642 | 3.644 | 3.648 Mbytes
Step Temp E_pair E_mol TotEng Press Volume 
       0          2.4   -6.3097323            0   -2.7106323   -4.0355096         4000 
    1000    2.3542252   -5.0266182            0   -1.4961633    5.6764129    4081.1308 
    2000    2.4153691   -4.9954922            0   -1.3733442    5.6757782    4090.9472 
    3000    2.4696163   -5.0290344            0   -1.3255361    5.4891445    4103.3486 
    4000    2.3666408   -4.9885843            0   -1.4395106    5.6351609    4099.2011 
    5000    2.4014434   -5.0223794            0   -1.4211148    5.5715312    4103.6976 
    6000    2.3957772    -5.012217            0   -1.4194496    5.4742715    4106.4425 
    7000    2.4160785   -5.0132235            0   -1.3900118    5.3821281    4112.8671 
    8000    2.3388065   -5.0107203            0   -1.5033876    5.5482335    4103.2758 
    9000    2.4355264   -4.9813779            0   -1.3290017    5.6677112    4102.9994 
   10000    2.4780077   -5.0072682            0   -1.2911859    5.4317896    4116.8084 
Loop time of 2.4783 on 48 procs for 10000 steps with 4000 atoms

Performance: 697251.168 tau/day, 4035.018 timesteps/s
99.6% CPU use with 48 MPI tasks x no OpenMP threads

MPI task timing breakdown:
Section |  min time  |  avg time  |  max time  |%varavg| %total
---------------------------------------------------------------
Pair    | 1.0658     | 1.1342     | 1.2456     |   3.8 | 45.76
Neigh   | 0.20275    | 0.21212    | 0.2327     |   1.2 |  8.56
Comm    | 0.75422    | 0.8613     | 0.93472    |   4.5 | 34.75
Output  | 0.00024403 | 0.0002484  | 0.00032339 |   0.0 |  0.01
Modify  | 0.23002    | 0.25536    | 0.29075    |   3.1 | 10.30
Other   |            | 0.01508    |            |       |  0.61

Nlocal:        83.3333 ave          97 max          76 min
Histogram: 6 5 15 7 5 3 4 2 0 1
Nghost:        1615.12 ave        1645 max        1582 min
Histogram: 2 2 5 8 6 7 5 3 6 4
Neighs:        9285.08 ave       11439 max        8084 min
Histogram: 2 6 15 8 4 8 4 0 0 1

Total # of neighbors = 445684
Ave neighs/atom = 111.42100
Neighbor list builds = 903
Dangerous builds = 202

# Equilibrate just above the melting temperature to avoid step fn in T

fix 1 all npt temp 1.25 1.25 0.1 iso 5.68 5.68 0.5 mtk yes tchain 5 pchain 5
run 2000
Per MPI rank memory allocation (min/avg/max) = 3.643 | 3.645 | 3.649 Mbytes
Step Temp E_pair E_mol TotEng Press Volume 
   10000    2.4780077   -5.0072682            0   -1.2911859    5.4317896    4116.8084 
   11000    1.2420212   -6.8891015            0   -5.0265355    5.6591322    3291.8055 
   12000    1.2170442   -6.9441587            0   -5.1190487    5.4036136    3281.2998 
Loop time of 0.592053 on 48 procs for 2000 steps with 4000 atoms

Performance: 583731.585 tau/day, 3378.076 timesteps/s
99.7% CPU use with 48 MPI tasks x no OpenMP threads

MPI task timing breakdown:
Section |  min time  |  avg time  |  max time  |%varavg| %total
---------------------------------------------------------------
Pair    | 0.24789    | 0.27892    | 0.33343    |   2.8 | 47.11
Neigh   | 0.037745   | 0.040062   | 0.047423   |   0.8 |  6.77
Comm    | 0.16291    | 0.2236     | 0.25435    |   3.5 | 37.77
Output  | 5.0274e-05 | 5.1518e-05 | 6.7609e-05 |   0.0 |  0.01
Modify  | 0.039941   | 0.044694   | 0.049528   |   1.2 |  7.55
Other   |            | 0.004729   |            |       |  0.80

Nlocal:        83.3333 ave          92 max          77 min
Histogram: 3 1 10 8 9 5 8 1 2 1
Nghost:        1878.67 ave        1898 max        1856 min
Histogram: 4 1 2 5 3 9 13 6 3 2
Neighs:        11673.8 ave       13771 max       10001 min
Histogram: 1 4 5 9 12 8 5 3 0 1

Total # of neighbors = 560344
Ave neighs/atom = 140.08600
Neighbor list builds = 142
Dangerous builds = 10

#############################
# L I N E A R  Q U E N C H  #
#############################

# Define solid atoms. This closely follows ten Wolde  Ruiz-Montero and Frenkel  Faraday Discuss  1996  104  93-110
# Compute components of the per-atom q6 vector
compute q6 all orientorder/atom degrees 1 6 components 6 nnn NULL cutoff 1.3 # compute the Q6 parameter.
                                                                             # Use all neighbours within 1.3 unit cell.

# get number of connections
compute coord_number all coord/atom orientorder q6 0.5

# An atom is solid if it has 8 or more connections (of a possible 14)
variable is_solid atom c_coord_number>=8
group solid dynamic all var is_solid    # Must be dynamic to update
dynamic group solid defined

# do clustering
compute cluster solid cluster/atom 1.3 # Create a cluster where all atoms within are solid and max 1.3 units from another member

# define chunks one chunk per cluster
compute clus_chunks solid chunk/atom c_cluster nchunk every compress yes  # Says which atoms are in which chunk

# count the size of each chunk
compute size_chunks solid property/chunk clus_chunks count


# Find the maximum entry in the vector of chunk sizes
variable max_n equal max(c_size_chunks)


# Thermo style which includes this variable
# thermo_style custom step temp pe vol v_max_n

thermo ${N}  # Print the thermo information every 100 steps
thermo 1000  

# Reset the npt fix at a lower temperature (below freezing)
fix 1  all npt temp  ${temp} ${temp}  0.1  iso  5.68  5.68  0.5  mtk yes tchain  5  pchain  5
fix 1  all npt temp  0.45 ${temp}  0.1  iso  5.68  5.68  0.5  mtk yes tchain  5  pchain  5
fix 1  all npt temp  0.45 0.45  0.1  iso  5.68  5.68  0.5  mtk yes tchain  5  pchain  5

dump dmp2 all dcd ${N} traj.dcd
dump dmp2 all dcd 1000 traj.dcd


compute msd all msd com yes
variable twopoint equal c_msd[4]/6/(step*dt+1.0e-6)
fix 9 all vector 10 c_msd[4]
variable fit equal slope(f_9)/6/(10*dt)
thermo_style custom step temp pe c_msd[4] v_twopoint v_fit v_max_n

fix 1 all npt temp 1.25 ${temp} 0.1 iso 5.68 5.68 0.5 mtk yes tchain 5 pchain 5
fix 1 all npt temp 1.25 0.45 0.1 iso 5.68 5.68 0.5 mtk yes tchain 5 pchain 5
run 500000 # 5000000  # Run for this many steps
Neighbor list info ...
  update every 1 steps, delay 10 steps, check yes
  max neighbors/atom: 2000, page size: 100000
  master list distance cutoff = 3.8
  ghost atom cutoff = 3.8
  binsize = 1.9, bins = 8 8 8
  4 neighbor lists, perpetual/occasional/extra = 1 3 0
  (1) pair lj/cut, perpetual
      attributes: half, newton on
      pair build: half/bin/atomonly/newton
      stencil: half/bin/3d
      bin: standard
  (2) compute orientorder/atom, occasional
      attributes: full, newton on
      pair build: full/bin/atomonly
      stencil: full/bin/3d
      bin: standard
  (3) compute coord/atom, occasional
      attributes: full, newton on
      pair build: full/bin/atomonly
      stencil: full/bin/3d
      bin: standard
  (4) compute cluster/atom, occasional
      attributes: full, newton on
      pair build: full/bin/atomonly
      stencil: full/bin/3d
      bin: standard
Per MPI rank memory allocation (min/avg/max) = 9.813 | 9.818 | 9.823 Mbytes
Step Temp PotEng c_msd[4] v_twopoint v_fit v_max_n 
   12000    1.2170442   -6.9441587 8.4920876e-31 5.8972828e-33 8.3333333e+20            2 
   13000    1.2438099   -6.9366282    0.5108082 0.0032744114  0.042345194            1 
   14000    1.2563463   -6.9371915   0.93812477 0.0055840758  0.038536736            2 
   15000    1.2721811   -6.9195927    1.3917998 0.0077322209  0.037823989            1 
   16000    1.2786735   -6.9103873    1.8479252 0.0096246101   0.03757607            1 
   17000    1.2445461   -6.9615237    2.2451908  0.011005837  0.037211449            1 
   18000    1.2524176   -6.9757369    2.6591783   0.01231101  0.036568061            4 
   19000    1.2576371   -6.9387488    3.0537007  0.013393424   0.03590878            1 
   20000    1.2453494   -6.9782532    3.4844006  0.014518335  0.035636551            2 
   21000    1.2348667   -6.9771263    3.9022086  0.015484955  0.035479668            2 
   22000    1.2166178   -6.9631731    4.4096544  0.016703236  0.035463742            2 
   23000     1.215507   -6.9949076    4.8143954  0.017443461  0.035547346            1 
   24000    1.2462842   -6.9592714    5.3200808  0.018472502  0.035722025            1 
   25000     1.237118   -6.9838225    5.8853031  0.019617676  0.036154298            2 
   26000    1.2273367   -6.9934459    6.2920747  0.020166906  0.036563619            2 
   27000     1.247939   -7.0040052    6.7012575  0.020682893  0.036803722            1 
   28000    1.2045184   -7.0475564    7.0373768  0.020944573  0.036779947            1 
   29000    1.2169164   -7.0499372    7.3943755  0.021248205  0.036622032            2 
   30000    1.1895638   -6.9941898    7.9509462  0.022085961  0.036580815            1 
   31000    1.2073497   -6.9675042    8.3163668  0.022355824  0.036540813            1 
   32000    1.1882996   -6.9989629    8.7742637  0.022849645  0.036468661            2 
   33000    1.2151679   -7.0258867    9.1546861  0.023117894  0.036404392            2 
   34000    1.2127717   -7.0366652     9.541211  0.023385321  0.036320091            1 
   35000    1.2029145   -7.0125413    10.045111   0.02391693  0.036250617            4 
   36000      1.22307   -7.0321484    10.439557   0.02416564  0.036210331            2 
   37000    1.1927693   -7.0036641    10.863664  0.024467711  0.036153449            2 
   38000    1.2230208   -7.0583589    11.247688  0.024665982  0.036102648            1 
   39000    1.2068923   -7.0733738    11.667045  0.024929584  0.036034366            1 
   40000    1.2126629   -7.0158157    12.185123  0.025385672  0.036014384            2 
   41000    1.2149768   -7.0448987    12.638881  0.025688783  0.036031991            2 
   42000    1.2006419   -7.0205439    13.129428  0.026050453   0.03605379            2 
   43000    1.2084465   -7.0137827    13.601063  0.026358649  0.036091105            1 
   44000    1.1921177   -7.0635204    13.932658  0.026387609  0.036111182            2 
   45000     1.196726   -7.0539109    14.304773   0.02649032  0.036093956            2 
   46000    1.1849416   -7.0526363    14.575847   0.02640552  0.036035198            4 
   47000    1.1653866   -7.0211348      14.9332  0.026477304  0.035937797            1 
   48000    1.1929296   -7.0294147    15.323856  0.026603916  0.035837085            1 
   49000    1.1953272   -7.0668361    15.675479  0.026658978  0.035720548            2 
   50000    1.1916601   -7.0360639    16.129612  0.026882686  0.035632555            1 
   51000    1.1754438   -7.0609564    16.520775  0.026994731  0.035549278            1 
   52000    1.1545519    -7.043649    16.877616  0.027047461  0.035459788            3 
   53000    1.2044041   -7.1117823    17.149654  0.026964864  0.035357452            1 
   54000    1.1504847   -7.0674603    17.532016   0.02705558  0.035234946            1 
   55000    1.1593148   -7.0494759    17.894609  0.027113044  0.035104206            1 
   56000    1.1950236   -7.0650102    18.131586  0.026981527   0.03496323            3 
   57000    1.1884674   -7.0922173    18.501259  0.027048624  0.034819391            1 
   58000    1.1608179   -7.1277939    18.908112  0.027166828  0.034687226            2 
   59000    1.1748424   -7.0844294    19.250299  0.027189688  0.034566378            2 
   60000     1.161067   -7.0651491    19.579672  0.027193989  0.034435948            1 
   61000    1.1659603   -7.1048325    19.822636  0.027080104  0.034291274            2 
   62000     1.158826   -7.1115831    20.122035  0.027045746  0.034145461            1 
   63000    1.1792175   -7.0832382    20.618647  0.027273343  0.034015003            2 
   64000    1.1624061   -7.1293544    21.029086  0.027381622  0.033909206            1 
   65000    1.1692097   -7.1361738    21.289667  0.027294445  0.033797141            1 
   66000    1.1751212     -7.11076     21.70146  0.027400834  0.033684788            1 
   67000    1.1928846   -7.1237943    22.006086  0.027370754  0.033577688            1 
   68000    1.1534459   -7.1185109    22.418745  0.027473952   0.03347264            1 
   69000    1.1787984    -7.141801    22.936816  0.027701469  0.033387449            1 
   70000    1.1595816   -7.1573663    23.229029  0.027653606  0.033309387            2 
   71000    1.1469776   -7.1344696    23.427225  0.027496743  0.033219366            1 
   72000     1.159499   -7.1397036    23.847001  0.027600695  0.033127357            1 
   73000    1.1351274   -7.1527963    24.322819  0.027765775  0.033043051            1 
   74000    1.1355387   -7.1181613    24.715969  0.027833298  0.032975499            3 
   75000    1.1595053    -7.136608    25.310215   0.02812246  0.032922111            2 
   76000     1.154406   -7.1163439    25.522563  0.027985266  0.032874473            1 
   77000    1.1337507   -7.1828555    25.948459  0.028082748  0.032829626            1 
   78000    1.1317375   -7.1412006    26.320962  0.028120686  0.032785268            2 
   79000    1.1445449   -7.1684016    26.601134  0.028060268  0.032737208            1 
   80000    1.1396474   -7.1610501    26.901679  0.028022582  0.032683452            2 
   81000    1.1500452   -7.1822037    27.288032  0.028074107  0.032634024            2 
   82000    1.1466593   -7.1692273    27.743402  0.028194514  0.032584954            2 
   83000    1.1408198   -7.1271694    27.986124  0.028098518  0.032533467            2 
   84000    1.1441131   -7.1560873    28.357565  0.028132505  0.032484359            1 
   85000    1.1307157   -7.1836791    28.593288  0.028032635  0.032427652            3 
   86000    1.1327346   -7.1655033    28.814374  0.027920905  0.032359657            3 
   87000    1.1527533   -7.1962396    29.226857  0.027995073  0.032289402            2 
   88000    1.1379597   -7.2108121    29.454697  0.027892706  0.032221318            2 
   89000    1.1309844   -7.1920041    29.640871  0.027753624  0.032148452            1 
   90000     1.141935   -7.2441783    29.859192    0.0276474  0.032057565            2 
   91000    1.1047535   -7.1749735    30.211838  0.027666519  0.031967192            2 
   92000    1.1045474   -7.2154407    30.452482   0.02758377  0.031881006            1 
   93000    1.1399681   -7.2079568    30.875879  0.027666558   0.03179778            3 
   94000    1.1453478   -7.2372958    31.128624  0.027596298  0.031718896            2 
   95000    1.1128316   -7.2153805    31.386008  0.027531586  0.031632744            1 
   96000    1.1283997   -7.2297248    31.540347  0.027378773  0.031539588            1 
   97000     1.140833   -7.2469636    31.853074  0.027365184  0.031443082            1 
   98000    1.1278659   -7.2248889    32.279139  0.027448248  0.031353142            1 
   99000    1.1073959   -7.2157439    32.398721   0.02727165  0.031261679            1 
  100000    1.1129659   -7.2101804     32.75169  0.027293075  0.031165351            4 
  101000    1.0960576   -7.2341221    33.051558  0.027270262  0.031075278            1 
  102000    1.1110043   -7.2079449    33.368529   0.02726187  0.030985633            3 
  103000    1.0974109   -7.2785105    33.550479    0.0271444  0.030894669            2 
  104000    1.0714751   -7.2965097     33.74683  0.027040729  0.030802665            2 
  105000    1.1006889   -7.2760133    34.075554  0.027044091  0.030709375            2 
  106000    1.0941968   -7.2518382    34.255753  0.026930623  0.030617142            1 
  107000    1.0935407   -7.2955348    34.625697  0.026967054  0.030524706            2 
  108000    1.0999513   -7.2745061    34.866016   0.02690279  0.030434436            1 
  109000    1.0897905   -7.3142391    35.010804   0.02676667  0.030341935            2 
  110000     1.097733   -7.3024147    35.360935  0.026788587  0.030248687            1 
  111000    1.0913811   -7.2630302    35.884804  0.026940543  0.030160217            1 
  112000    1.0998959   -7.3317925    36.016319  0.026797857  0.030077902            3 
  113000    1.1096211    -7.313448    36.528742    0.0269386  0.030000174            2 
  114000    1.1079576   -7.3110564    36.930074  0.026995668  0.029932594            2 
  115000    1.0757037   -7.2912687    37.441344  0.027131409  0.029872344            2 
  116000    1.0738826    -7.332777    37.700197  0.027083474  0.029814926            2 
  117000    1.0483524   -7.3079135    37.800276  0.026923273  0.029753983            1 
  118000    1.0712977   -7.3621545    37.903418   0.02676795  0.029686779            1 
  119000    1.0820679   -7.3589981    38.384765  0.026880087  0.029617695            3 
  120000     1.090236    -7.298555    38.826233  0.026962662  0.029557867            2 
  121000    1.0663919   -7.2955332    39.252428  0.027033353  0.029500105            1 
  122000    1.0841827   -7.3049772    39.350198   0.02687855  0.029443458            2 
  123000    1.0593384   -7.2862669    39.561243   0.02680301  0.029380807            2 
  124000    1.0518146   -7.3029469       39.602  0.026614247  0.029315746            1 
  125000    1.0820259   -7.3437342    39.828774  0.026552516    0.0292495            2 
  126000    1.0697028   -7.2858156    40.177003  0.026572092  0.029179532            1 
  127000    1.0429068   -7.3334713    40.456987   0.02654658   0.02911048            3 
  128000    1.0493028   -7.3251026     40.65487  0.026468014  0.029043246            3 
  129000    1.0821455   -7.2928654    40.957388  0.026458261  0.028974827            4 
  130000    1.0589158   -7.3373255    41.226118  0.026426999  0.028909448            1 
  131000    1.0734617   -7.3534829     41.59328  0.026458829  0.028843269            1 
  132000    1.0510673   -7.3059156    42.000948   0.02651575  0.028784614            1 
  133000    1.0460167   -7.3581337     42.33363  0.026524831  0.028729553            1 
  134000     1.044919   -7.3586467    42.514709  0.026439496  0.028671637            2 
  135000    1.0389165   -7.3986571    42.695789  0.026355425  0.028611101            2 
  136000    1.0433845   -7.3856983    42.820294  0.026237925  0.028550418            2 
  137000    1.0544082   -7.3803042    43.217988  0.026288314   0.02848785            2 
  138000    1.0652164    -7.385169    43.341624  0.026172478  0.028426587            1 
  139000    1.0443099   -7.3764614    43.649501  0.026168765  0.028363231            2 
  140000     1.051287    -7.401065    43.878721  0.026118286  0.028298464            3 
  141000    1.0531214    -7.385241    44.009853  0.026010551  0.028235014            1 
  142000    1.0448791   -7.4092815    44.343136  0.026022967  0.028169499            1 
  143000    1.0522602   -7.3807418     44.54168   0.02595669  0.028106626            3 
  144000    1.0323005   -7.4356304    44.827534   0.02594186  0.028043885            2 
  145000    1.0409415   -7.4043596    45.116271  0.025928891  0.027982256            1 
  146000    1.0335534   -7.4020055    45.337332  0.025877473   0.02792297            3 
  147000    1.0150747    -7.439308    45.486164  0.025785807   0.02786266            2 
  148000    1.0318584   -7.4545733    45.732007  0.025750004  0.027802129            5 
  149000    1.0422624   -7.3906336    45.999946  0.025727039  0.027741943            2 
  150000    1.0166975   -7.4126437    46.150292  0.025639051  0.027679141            2 
  151000    1.0252797   -7.4021993    46.445452  0.025632148  0.027614734            3 
  152000     1.022998   -7.4132859    46.598042  0.025547172  0.027550049            3 
  153000    1.0023999    -7.387573    47.016769  0.025608262  0.027486023            1 
  154000    1.0259653   -7.4193083    47.035428  0.025452071  0.027421568            2 
  155000    1.0444631   -7.4344409     47.40918  0.025488806  0.027357273            1 
  156000    1.0351281   -7.4722741    47.393606  0.025317097  0.027293041            1 
  157000   0.98452729    -7.480493    47.775694  0.025358649  0.027228879            3 
  158000   0.98543315   -7.4608532    47.859345   0.02524227   0.02716387            4 
  159000     1.013461    -7.465059    48.005255  0.025159987  0.027097864            1 
  160000   0.99168849   -7.4594804    48.210905  0.025109846  0.027032002            3 
  161000    1.0345932   -7.4516424    48.338642  0.025020001  0.026965052            7 
  162000   0.99329043   -7.4406181    48.620911  0.025010757   0.02689587            1 
  163000    1.0098713   -7.4411513    48.876019   0.02498774   0.02682742            1 
  164000    1.0216139   -7.4573216    49.080419  0.024939237  0.026761617            3 
  165000     1.023264   -7.4905803    49.161763  0.024829173  0.026694251            2 
  166000   0.98240304   -7.5188562    49.345077  0.024771625  0.026626592            2 
  167000   0.98291394   -7.4863551    49.528282  0.024714712  0.026557771            2 
  168000    1.0175428   -7.4528487    49.867238  0.024735733  0.026489748            3 
  169000    1.0099605   -7.4714695    49.964339  0.024637248  0.026422305            2 
  170000    1.0022211   -7.5172262    50.061072  0.024539741  0.026354788            2 
  171000   0.96781621   -7.5111417    50.384792  0.024553992  0.026285845            2 
  172000   0.97609403   -7.5164793    50.478202  0.024456493  0.026217694            2 
  173000   0.98519243   -7.5145909    50.666216  0.024405692   0.02614887            3 
  174000   0.99033872   -7.5438838    50.727649  0.024294851  0.026080154            3 
  175000   0.98753274   -7.5105947    50.889217  0.024232961  0.026010498            2 
  176000   0.97992775    -7.523117    51.207734  0.024246086   0.02594162            1 
  177000    1.0164173   -7.5198875    51.352419  0.024177222  0.025874362            3 
  178000   0.99632148   -7.5235148    51.715566  0.024211407  0.025807829            1 
  179000   0.97274657   -7.5615951    51.940498  0.024180865  0.025741932            3 
  180000   0.97388861   -7.5518988    52.159107  0.024147735  0.025677604            2 
  181000   0.96733743   -7.5454983    52.289014  0.024074131   0.02561314            1 
  182000   0.98438513   -7.5701535    52.350957  0.023970218  0.025548677            2 
  183000   0.99774513   -7.5472824    52.746392  0.024019304  0.025484937            3 
  184000   0.99848518   -7.5152556    53.000984  0.024004069  0.025423334            3 
  185000   0.97706262   -7.5437281    53.376977  0.024043683  0.025364278            2 
  186000   0.95574879   -7.5795875    53.370331  0.023911438  0.025304614            2 
  187000   0.96062388   -7.5673253    53.403985  0.023798567  0.025243899            1 
  188000   0.97808228   -7.5675381    53.743588  0.023822512  0.025182552            1 
  189000   0.95575514   -7.5582271    53.923375  0.023775738  0.025120907            2 
  190000    0.9670208   -7.5410913    54.196309  0.023770311  0.025060548            2 
  191000   0.97562545   -7.5791198    54.383532  0.023727545  0.025001505            1 
  192000   0.96681266   -7.5817618    54.346027  0.023587685  0.024942065            1 
  193000   0.95494694   -7.5778534    54.763769  0.023645841  0.024881836            1 
  194000   0.96767399   -7.6073395    54.769039   0.02352622  0.024820873            2 
  195000   0.95653913   -7.5649579    55.113902  0.023552949  0.024760597            2 
  196000   0.96468643   -7.5995071     55.36706  0.023540417  0.024702995            2 
  197000   0.97331516   -7.6007715    55.511289  0.023481933  0.024646266            2 
  198000   0.94816838   -7.5749555    55.786828  0.023479304  0.024588725            1 
  199000   0.95337276     -7.59366    55.875754  0.023398557  0.024531415            1 
  200000   0.95202543   -7.5951157    55.982343  0.023325976  0.024472847            2 
  201000   0.96816714   -7.6010186     55.94897   0.02319609   0.02441314            2 
  202000   0.95963825   -7.5960666    56.215855  0.023191359  0.024353445            3 
  203000   0.95145363   -7.5992218    56.454632  0.023175136  0.024293333            3 
  204000   0.96723807   -7.6069051    56.392129     0.023036  0.024234049            5 
  205000   0.91657739   -7.5886398    56.624135  0.023017941  0.024174047            3 
  206000   0.95292411   -7.6428283    56.729755   0.02294893  0.024114912            2 
  207000   0.92142244   -7.6099345    56.914058  0.022912262  0.024054787            1 
  208000   0.94172578   -7.6494398    57.052228  0.022857463  0.023995135            1 
  209000   0.93991785    -7.670982    57.290094   0.02284294  0.023935718            2 
  210000   0.93798502   -7.6471188    57.324076  0.022747649  0.023875799            1 
  211000   0.91999336   -7.6495254    57.564072  0.022734626  0.023817338            2 
  212000   0.92188315   -7.6622781    57.800813  0.022720445  0.023759542            2 
  213000   0.93868461   -7.6766541    57.796539  0.022612104  0.023701015            1 
  214000   0.91917924   -7.6615028    58.311521  0.022706978  0.023643229            1 
  215000   0.93374749   -7.6739779    58.340405   0.02261256  0.023586859            2 
  216000   0.94254536   -7.6505719    58.573933  0.022597968   0.02353064            3 
  217000   0.93813649   -7.6744015    58.519471  0.022472915   0.02347312            3 
  218000   0.90843063   -7.6872328      58.4469  0.022342087  0.023414116            3 
  219000   0.89285207    -7.679559    58.766909  0.022361837  0.023354526            2 
  220000   0.92775654   -7.7342829    58.785994  0.022267422  0.023295691            2 
  221000   0.91603374   -7.7109759    58.985535  0.022241906  0.023236904            1 
  222000   0.93097973   -7.6995944     58.79028  0.022068424  0.023177505            5 
  223000   0.91167644   -7.7019589    59.194495  0.022120514  0.023117215            3 
  224000   0.90705463   -7.6987078    59.138476  0.022000921  0.023057048            1 
  225000   0.91791332   -7.6975919    59.369185  0.021988587  0.022996086            2 
  226000   0.88327932   -7.7251607    59.391009   0.02189934  0.022935835            2 
  227000    0.8797411   -7.7273252    59.546389  0.021859908  0.022875749            2 
  228000   0.91221759   -7.7376572     59.65926  0.021805285  0.022815256            2 
  229000   0.89529618   -7.6993854    59.890564  0.021794237  0.022754641            1 
  230000   0.91211958   -7.7044222    60.102072  0.021776113  0.022695467            2 
  231000   0.89725542   -7.6841108    60.467179  0.021813556  0.022637956            4 
  232000    0.8892617   -7.7240297    60.230032  0.021634351  0.022579787            1 
  233000   0.92204904   -7.7133503    60.462769  0.021624739  0.022520605            1 
  234000   0.88639073   -7.7508189    60.674672  0.021607789   0.02246231            4 
  235000   0.89138768    -7.712162    60.685125  0.021519548  0.022403049            2 
  236000   0.88695499   -7.7922661    60.565278  0.021386044  0.022343275            2 
  237000   0.89906389   -7.7203889    60.696716  0.021342024  0.022282929            2 
  238000    0.8653514   -7.7495501    60.898185  0.021322894  0.022222511            3 
  239000   0.86792359   -7.7834148     60.97679  0.021261084   0.02216261            2 
  240000   0.89139095   -7.7783289    61.073491  0.021206073  0.022101721            1 
  241000   0.87046898   -7.7779008    61.105233  0.021129057   0.02204081            3 
  242000   0.88379727   -7.7584596    61.394936  0.021141507  0.021980441            1 
  243000   0.87163761   -7.7688957     61.40134  0.021056701  0.021920515            4 
  244000   0.90755015   -7.7907343    61.413463  0.020974543  0.021860712            2 
  245000   0.87323059    -7.752823    61.642773   0.02096693  0.021801425            2 
  246000   0.85872098   -7.7549139    61.662188  0.020888275  0.021741533            2 
  247000   0.87686464   -7.7722582    61.726309   0.02082534  0.021681167            2 
  248000   0.87107675   -7.8364791    61.525483  0.020673885   0.02161969            1 
  249000   0.87425713   -7.7970892    61.859508  0.020702647  0.021558551            2 
  250000   0.85356976   -7.8236458    61.848701  0.020616234  0.021498465            2 
  251000   0.87287142   -7.7966142    62.196024   0.02064941  0.021438311            1 
  252000   0.87842071   -7.8294253    62.139428  0.020548753  0.021378439            2 
  253000   0.87513265    -7.833349    62.403928  0.020554654   0.02131918            3 
  254000   0.86127549   -7.7980516    62.539539  0.020518222  0.021260387            1 
  255000   0.84049425    -7.849381    62.481851  0.020418906  0.021201636            3 
  256000    0.8702039   -7.8491046    62.644621  0.020392129   0.02114251            2 
  257000   0.86706893   -7.8311224    62.837277  0.020375252  0.021083912            1 
  258000   0.86985334   -7.8360841    62.967536  0.020338351  0.021025229            1 
  259000    0.8424824   -7.8775937    62.877365  0.020230812  0.020965971            2 
  260000   0.86716501   -7.8467033    63.083872   0.02021919  0.020907471            2 
  261000   0.84473854    -7.849621    63.066454   0.02013616   0.02084913            1 
  262000   0.85946931   -7.8491648    63.279434  0.020127046  0.020790937            1 
  263000   0.86644137   -7.8459059    63.353023  0.020073835  0.020733202            3 
  264000   0.83469691   -7.8678969    63.415874  0.020017637  0.020675998            1 
  265000   0.85083206   -7.8725507    63.356222   0.01992334  0.020618515            2 
  266000   0.84194208   -7.8533623    63.615485  0.019929663  0.020560558            3 
  267000   0.85766711   -7.8712978    63.626416  0.019858432  0.020502569            4 
  268000   0.84564616   -7.8753991    63.555012   0.01976213  0.020444398            1 
  269000    0.8276663   -7.8654149    63.653483  0.019719171  0.020385594            4 
  270000   0.82942025   -7.8539404    63.815003  0.019695989   0.02032741            3 
  271000   0.84753907   -7.8861841    63.682177  0.019582465  0.020268502            3 
  272000   0.83256701   -7.9063501    63.841484  0.019559278  0.020209543            2 
  273000   0.84517257    -7.894053    63.828766   0.01948375  0.020150347            2 
  274000   0.83860241   -7.8823318     63.83049  0.019413166  0.020091242            1 
  275000    0.8362424   -7.9095051    63.830824  0.019342674  0.020031729            2 
  276000   0.83305033   -7.9160756    64.022188  0.019330371  0.019972354            2 
  277000   0.82068972   -7.9360963     64.06666  0.019273965  0.019913556            3 
  278000   0.82032129   -7.9153012    64.071167  0.019205985  0.019854879            2 
  279000   0.83638297   -7.9260207    64.227548  0.019183856  0.019796456            1 
  280000   0.83038872   -7.9246591    64.224655  0.019114481  0.019737591            1 
  281000   0.81170205   -7.9089951    64.206518  0.019041079  0.019678401            1 
  282000   0.81542452   -7.9292469    64.278873  0.018994939  0.019618939            2 
  283000    0.8265678   -7.9280188    64.279835  0.018928102   0.01955951            1 
  284000   0.81817465   -7.9859532    64.127999  0.018816901  0.019500161            2 
  285000   0.80734741   -7.9078418    64.207755  0.018774197  0.019440019            1 
  286000   0.81873139   -7.9452287    64.366464  0.018754797  0.019379929            2 
  287000   0.80669423   -7.9465873    64.231053  0.018650132  0.019319445            2 
  288000   0.81027093   -7.9728206    64.294766  0.018603809  0.019259688            3 
  289000   0.80305402   -7.9661531    64.374954  0.018562559  0.019200084            2 
  290000   0.81344951   -8.0016887    64.538448  0.018545531  0.019140339            1 
  291000   0.79435337   -8.0063151    64.414062   0.01844618  0.019080312            4 
  292000    0.7945947   -8.0110323    64.441892  0.018390951  0.019020272            2 
  293000   0.78190714   -7.9653514    64.646024  0.018386241  0.018960933            2 
  294000    0.8202331   -8.0080144    64.553101  0.018297364  0.018901758            2 
  295000   0.80455128   -7.9841667    64.711601  0.018280113  0.018842657            3 
  296000    0.7912221   -7.9841329    64.815672  0.018247655  0.018784216            3 
  297000   0.78132167   -8.0115066    64.935703  0.018219894  0.018725418            1 
  298000   0.79084342   -7.9969983    64.808735  0.018123248   0.01866723            3 
  299000     0.792751   -8.0077211    64.857423  0.018076205  0.018609135            2 
  300000   0.78035099   -8.0012576    64.911193  0.018030887  0.018550977            2 
  301000   0.79831918   -7.9826603    65.061715  0.018012656  0.018493312            2 
  302000   0.76474922   -8.0015191    64.990001  0.017933223  0.018435298            2 
  303000   0.79303995   -8.0241813    65.076529  0.017897835  0.018377362            4 
  304000   0.78067487   -8.0399617    65.113155  0.017849001  0.018319608            4 
  305000   0.77337796   -8.0419664    65.296879  0.017840677  0.018261876            3 
  306000   0.78757156    -8.012855    65.264549   0.01777357  0.018204399            5 
  307000   0.78898139   -8.0584498    65.142234  0.017682474  0.018147204            2 
  308000   0.77313675   -8.0391017    65.471913  0.017714262    0.0180902            2 
  309000   0.78076473   -8.0326296    65.299972  0.017610564  0.018033417            1 
  310000   0.77698323   -8.0510471    65.287058  0.017550284  0.017976515            2 
  311000    0.7796886   -8.0869719    65.318127  0.017502178  0.017919562            1 
  312000   0.78006893   -8.0779683    65.426974  0.017475153  0.017862834            3 
  313000    0.7770786   -8.0761244    65.340856  0.017396394  0.017806179            2 
  314000   0.78937517   -8.0750104    65.450653  0.017370131  0.017749306            1 
  315000   0.74812906   -8.0636273    65.502881  0.017328805  0.017692557            2 
  316000   0.74536678    -8.098217    65.420927  0.017252354  0.017636171            2 
  317000   0.76063144   -8.0761504    65.622005   0.01725079  0.017579629            2 
  318000    0.7542151   -8.1131797    65.533903  0.017173455  0.017523385            3 
  319000   0.77075339   -8.0817147    65.611559  0.017139906  0.017467041            2 
  320000    0.7481045   -8.0739312    65.544799  0.017068958  0.017410917            2 
  321000   0.75095659   -8.0734587    65.564838  0.017020986  0.017354688            7 
  322000   0.75422076   -8.1395376    65.454953  0.016939688  0.017298333            2 
  323000   0.76015096   -8.1400299    65.489239  0.016896088  0.017241836            2 
  324000    0.7398246   -8.1257916    65.431885  0.016829189  0.017185369            1 
  325000   0.76104631   -8.1250548    65.510944  0.016797678  0.017128806            1 
  326000      0.75773   -8.0950319    65.650747  0.016781888  0.017072769            2 
  327000   0.75939045   -8.1008575    65.483238  0.016687879  0.017016935            1 
  328000   0.75619657   -8.1195568    65.463386  0.016631958  0.016961097            2 
  329000   0.75488069   -8.1416353    65.590246  0.016613537   0.01690557            3 
  330000   0.75652168   -8.1187232    65.613228  0.016568997  0.016850194            1 
  331000   0.72823276   -8.1201076    65.796351  0.016565043  0.016795244            2 
  332000   0.74458386   -8.1358257    65.776524  0.016510172  0.016740268            2 
  333000   0.73082556   -8.1436899    65.625944  0.016422909  0.016685268            1 
  334000   0.73394771   -8.1504698    65.853784  0.016430585  0.016630581            1 
  335000   0.72916261   -8.1510338    65.813713   0.01637157  0.016576355            2 
  336000   0.73451522   -8.1339481    65.862092  0.016334844  0.016522073            3 
  337000   0.73783101   -8.1655191    65.798837  0.016270731  0.016467806            2 
  338000   0.73023838   -8.2027079    65.719839  0.016203116  0.016413669            2 
  339000   0.73564756    -8.161628    66.094728  0.016247475  0.016359638            2 
  340000   0.73202477   -8.1950163    65.983223  0.016172358   0.01630608            3 
  341000   0.72089171   -8.1942323    66.063689  0.016144596  0.016252771            2 
  342000   0.71583741   -8.1883599    65.999171  0.016081669  0.016199751            2 
  343000    0.7150009   -8.2051653    65.889882  0.016008232  0.016146628            1 
  344000   0.72102529   -8.1864428    66.086827  0.016009406   0.01609373            4 
  345000   0.71696594   -8.2072486    66.026037  0.015948318  0.016040841            1 
  346000   0.70281743   -8.1926779    65.922429  0.015877271  0.015987783            3 
  347000   0.71547684   -8.2163724    65.892993  0.015824446  0.015934967            3 
  348000   0.69764901   -8.1887989    65.888912  0.015777996  0.015882274            3 
  349000   0.70339355    -8.207623    66.008165  0.015761262  0.015829585            2 
  350000   0.71559623   -8.1991627    65.916214  0.015694337  0.015777207            2 
  351000   0.72081344   -8.2170993    66.077248  0.015687856   0.01572497            1 
  352000    0.6899271   -8.2400402    65.939591  0.015610699  0.015672828            2 
  353000    0.7084519   -8.2246129    65.961861  0.015571733  0.015620736            2 
  354000   0.69945963   -8.2349487     66.01733  0.015540803  0.015568898            3 
  355000   0.68662838    -8.238202    66.020154  0.015497689  0.015517338            3 
  356000   0.70015385   -8.2412297    65.960831   0.01544027  0.015465788            2 
  357000   0.70558571   -8.2521502    66.012824  0.015409156  0.015414481            1 
  358000   0.69563045   -8.2291503    66.062266  0.015377622  0.015363048            2 
  359000   0.71181212   -8.2650888    65.955105  0.015309913  0.015311819            3 
  360000   0.68409333    -8.248346    66.068789  0.015293701  0.015260794            5 
  361000   0.69130196   -8.2496728    66.040351  0.015244772  0.015210037            2 
  362000   0.69650559   -8.2928548    66.054003  0.015205802  0.015159281            4 
  363000   0.69023616   -8.2849915    66.041197  0.015160973  0.015108485            2 
  364000   0.69219376   -8.2768682    66.034376   0.01511776  0.015058094            1 
  365000   0.68299868   -8.3085733      66.0639  0.015083082  0.015007583            2 
  366000   0.68312276   -8.2873174    65.988181  0.015024631  0.014957314            1 
  367000   0.68392239   -8.2823903    66.101652  0.015009458  0.014907255            1 
  368000   0.67792088   -8.2965613    66.040797  0.014954891  0.014857302            2 
  369000   0.66307262   -8.2892801    66.032172  0.014912415   0.01480737            4 
  370000   0.66909079   -8.2920224     66.10438  0.014888374  0.014757534            1 
  371000   0.65741677   -8.3030069    66.084331   0.01484374  0.014708021            2 
  372000   0.67413828   -8.3022317    66.128343  0.014813697  0.014658757            1 
  373000    0.6758257   -8.3225705    66.049306  0.014756324   0.01460961            1 
  374000   0.67139787   -8.3217983    66.120106  0.014732644  0.014560338            2 
  375000   0.67321653   -8.3022838    65.986214  0.014663603  0.014511235            1 
  376000   0.66200341    -8.326292    65.973222  0.014621725  0.014462241            2 
  377000   0.66378478   -8.3363688     66.07479  0.014605391  0.014413292            3 
  378000   0.66128106   -8.3284546    66.084465  0.014568886  0.014364487            1 
  379000   0.66743344   -8.3510513    65.920372  0.014494365  0.014315858            4 
  380000   0.64298088   -8.3749153    65.895205  0.014450703  0.014267269            1 
  381000   0.65950036   -8.3547291    66.054601  0.014447638  0.014218904            1 
  382000   0.67825292   -8.3598907    66.158448  0.014432471  0.014170922            2 
  383000   0.66736605   -8.3467569    65.964647  0.014352621  0.014123143            1 
  384000   0.65390799   -8.3765414    65.945727  0.014311139  0.014075458            2 
  385000   0.65473726   -8.3755282    65.986983  0.014282897  0.014027764            2 
  386000   0.65800293   -8.3593309    66.040631  0.014257477  0.013980311            3 
  387000   0.64560883   -8.3751297    66.048249  0.014222276  0.013933232            1 
  388000    0.6410376   -8.3619434    65.941507  0.014162695  0.013886221            3 
  389000   0.63478368    -8.407443    66.058598  0.014151371  0.013839393            1 
  390000    0.6432994   -8.3873598    66.037696  0.014110619  0.013792622            1 
  391000    0.6239973   -8.3873995    65.971115   0.01406034  0.013745911            3 
  392000   0.66817163   -8.3954441    66.071188  0.014045746  0.013699401            1 
  393000   0.63975745   -8.3932889    66.032698  0.014001844  0.013653037            1 
  394000    0.6399167   -8.3950444    65.984423  0.013956096  0.013606699            1 
  395000   0.64089017   -8.3993336    66.034827  0.013931398  0.013560676            1 
  396000   0.62705051   -8.4227389    65.922605  0.013872602  0.013514839            1 
  397000   0.62639505   -8.3945589    65.959554  0.013845414  0.013469135            2 
  398000   0.63511696   -8.4005563    65.953207  0.013809298  0.013423618            1 
  399000   0.63817718   -8.4219182     66.07154  0.013799403  0.013378213            3 
  400000   0.64122986    -8.422126    66.061683  0.013762851  0.013332958            3 
  401000   0.63420375   -8.4105049     66.03951  0.013723921  0.013287806            3 
  402000   0.63095805   -8.4035949    65.936424  0.013668413   0.01324292            3 
  403000    0.6280047   -8.4049496    65.870012  0.013620763  0.013198094            4 
  404000   0.61683159   -8.4318139    65.919042  0.013597162  0.013153534            3 
  405000   0.62263681   -8.4527489    65.887875  0.013557176  0.013108985            4 
  406000   0.61134988   -8.4427064    65.866721  0.013519442  0.013064616            1 
  407000   0.61261365   -8.4657594    65.898469  0.013492725  0.013020383            1 
  408000   0.62113389   -8.4564813    65.959585  0.013472137  0.012976313            5 
  409000   0.60750847   -8.4245769    65.967608  0.013440833  0.012932409            3 
  410000   0.61621966   -8.4493441     65.97403  0.013409356  0.012888775            3 
  411000   0.60740403   -8.4598329    65.860314  0.013353673  0.012845163            2 
  412000   0.61648608   -8.4564598    65.822134  0.013313538  0.012801618            2 
  413000   0.61767462   -8.4470372    65.899112  0.013296835  0.012758186            1 
  414000   0.61760173   -8.4453409     65.90554   0.01326601  0.012715103            6 
  415000   0.59804545   -8.4824864    65.770317  0.013206891  0.012671949            2 
  416000   0.60204796   -8.4478867    65.870172  0.013195147   0.01262913            2 
  417000   0.61459317   -8.4415778    65.819268  0.013153331  0.012586412            4 
  418000   0.60060088    -8.475296    65.858694  0.013129724  0.012543881            4 
  419000   0.59747926   -8.4739881    65.885604   0.01310374  0.012501461            1 
  420000   0.59721184   -8.4780319    65.775468  0.013050688  0.012459147            2 
  421000   0.59546849   -8.4748488    65.823646  0.013029225  0.012417052            3 
  422000   0.60989479   -8.4832805    65.922948   0.01301796  0.012375086            2 
  423000   0.59209341   -8.4840836    65.720585  0.012947318   0.01233332            1 
  424000   0.59672821   -8.4916798    65.815366   0.01293541  0.012291569            1 
  425000   0.60622316    -8.496265    65.819597  0.012905803  0.012250047            1 
  426000   0.58848761   -8.5114668    65.751799  0.012862245  0.012208626            1 
  427000   0.58032937   -8.5297526      65.7532  0.012832397  0.012167242            3 
  428000   0.59785243   -8.5291358    65.772102  0.012806095    0.0121262            1 
  429000    0.5822025   -8.5098901    65.710756  0.012764327  0.012085306            2 
  430000   0.58383637    -8.503255     65.80067  0.012752068  0.012044526            3 
  431000   0.57870106   -8.5459956    65.704584  0.012703902  0.012003827            2 
  432000    0.5807492    -8.520355    65.824677  0.012697661  0.011963337            1 
  433000   0.58499195   -8.5193284    65.728996  0.012649922  0.011923001            2 
  434000   0.57184247   -8.5001924    65.741842  0.012623242  0.011882838            1 
  435000   0.57259346   -8.5280849    65.735404  0.012592989  0.011842871            3 
  436000   0.56605926   -8.5431049    65.635231   0.01254496  0.011803013            3 
  437000   0.57643222   -8.5366529    65.673709  0.012523591  0.011763225            2 
  438000    0.5663992   -8.5560361    65.753519  0.012510182  0.011723645            2 
  439000   0.56174019   -8.5454492    65.760293  0.012482971  0.011684228            2 
  440000   0.56148628   -8.5586067    65.680401   0.01243947  0.011644965            2 
  441000   0.55785199    -8.541936    65.651308  0.012405765  0.011605866            2 
  442000   0.56748845   -8.5546278    65.662435  0.012379795  0.011566971            1 
  443000   0.55358258   -8.5483269    65.637706  0.012347198  0.011528174            1 
  444000    0.5504269   -8.5464651    65.797894  0.012349455  0.011489582            3 
  445000   0.56127388   -8.5637306    65.712567  0.012305724  0.011451162            2 
  446000   0.55069769   -8.5609952    65.633254  0.012263313  0.011412845            2 
  447000   0.54855136   -8.5518259    65.796963  0.012266399  0.011374661            2 
  448000   0.54408938   -8.5540186     65.59266  0.012201016  0.011336575            2 
  449000   0.54409398   -8.5691641    65.622168  0.012179318  0.011298743            3 
  450000    0.5490957   -8.5724484    65.687023  0.012164263  0.011261048            2 
  451000   0.54664382   -8.5748395    65.598996  0.012121027  0.011223509            1 
  452000   0.54945869   -8.5682101    65.664774  0.012106337  0.011186098            2 
  453000   0.54915684   -8.5645357    65.614533   0.01207037   0.01114882            2 
  454000   0.55817489    -8.580796    65.598299  0.012040804  0.011111701            1 
  455000   0.53893726   -8.5919437     65.58821  0.012012493   0.01107476            3 
  456000   0.53541039   -8.6052852    65.700199  0.012006615  0.011037961            1 
  457000    0.5318901   -8.5893679    65.670688  0.011974961  0.011001207            2 
  458000   0.53058508   -8.6007169    65.582036  0.011932685  0.010964564            2 
  459000   0.53500762   -8.5856188    65.581452  0.011906582  0.010928088            3 
  460000   0.53512661   -8.6061342    65.506056  0.011867039  0.010891788            1 
  461000   0.53498912   -8.6067916    65.575077  0.011853774  0.010855606            4 
  462000   0.53790999   -8.5911705     65.52995  0.011819977  0.010819609            2 
  463000    0.5254212   -8.5949502    65.472527  0.011784112  0.010783745            2 
  464000   0.52667196   -8.6152146    65.546048   0.01177192  0.010747922            1 
  465000   0.54157568   -8.6115082    65.580194  0.011752723  0.010712307            3 
  466000   0.53102066   -8.6110926      65.6379  0.011737822  0.010676864            4 
  467000   0.51724014    -8.605756    65.508934  0.011689674  0.010641611            4 
  468000    0.5207527   -8.6102453    65.558928  0.011673598  0.010606472            2 
  469000   0.52069753   -8.6146905    65.558894  0.011648702  0.010571482            2 
  470000   0.53845472   -8.6232652    65.502807  0.011613973  0.010536597            2 
  471000   0.52289626   -8.6207633     65.51007    0.0115906  0.010501778            3 
  472000   0.51408498   -8.6109965    65.559004  0.011574683  0.010467137            2 
  473000   0.50970648   -8.6229182    65.519965  0.011543334  0.010432661            4 
  474000   0.51739971   -8.6307764       65.471  0.011510373  0.010398288            3 
  475000     0.508178    -8.642149    65.471086  0.011486155  0.010364004            2 
  476000   0.49931856   -8.6233554    65.503252  0.011467656  0.010329927            6 
  477000   0.50098013   -8.6546396    65.420703  0.011429193  0.010295894            2 
  478000   0.50390908   -8.6332848    65.449982  0.011410387  0.010262002            2 
  479000   0.50439137   -8.6385824    65.456903   0.01138777  0.010228258            2 
  480000   0.50485547    -8.639737    65.451224   0.01136306  0.010194685            2 
  481000   0.50719404   -8.6616596    65.515595  0.011350588  0.010161245            2 
  482000   0.49957156    -8.649577    65.384345  0.011304347  0.010127973            4 
  483000   0.49376455   -8.6835006    65.400826  0.011283786  0.010094775            3 
  484000   0.50828182   -8.6543469    65.318941  0.011246374   0.01006171            2 
  485000   0.49646945   -8.6615432    65.330624  0.011225193  0.010028714            2 
  486000   0.48721056   -8.6728632    65.315851  0.011199563 0.0099958855            4 
  487000   0.48046789   -8.6622135    65.313768  0.011176209 0.0099631999            2 
  488000   0.47885294   -8.6589311    65.243358  0.011141284 0.0099306807            4 
  489000   0.49263577   -8.6648983     65.40584   0.01114619 0.0098983148            1 
  490000   0.49237825   -8.6719522    65.285068  0.011102903 0.0098660585            2 
  491000   0.47537705   -8.6747123    65.307329  0.011084068 0.0098338745            3 
  492000   0.47659068   -8.6717309    65.293801  0.011059248 0.0098018142            6 
  493000   0.47573866   -8.6749458    65.309277  0.011039431 0.0097699176            2 
  494000   0.48320862   -8.6931925    65.329186  0.011020443 0.0097381067            3 
  495000   0.48212288   -8.6832985      65.1931  0.010975269 0.0097064302            2 
  496000   0.47572636   -8.6779536    65.311629  0.010973056  0.009674889            1 
  497000   0.47492441   -8.6900687    65.289039   0.01094719  0.009643439            1 
  498000   0.46911196   -8.7149577    65.241666   0.01091728 0.0096121323            2 
  499000   0.46663176   -8.6961691    65.259323   0.01089835 0.0095809687            1 
  500000   0.47547938   -8.6950452    65.231574  0.010871929 0.0095499189            1 
  501000   0.46576744   -8.7064853    65.272284     0.010857 0.0095190644            2 
  502000   0.46141237   -8.6962405    65.304917   0.01084079 0.0094882789            2 
  503000   0.46098258   -8.7020349    65.236257  0.010807862 0.0094576255            1 
  504000   0.46402612   -8.7064356    65.157229  0.010773351 0.0094270763            2 
  505000   0.47234987   -8.7240548    65.153726   0.01075144 0.0093966944            1 
  506000   0.46918193   -8.7107012    65.223608  0.010741701 0.0093664099            2 
  507000   0.46744431   -8.7226284    65.249344  0.010724744  0.009336282            3 
  508000   0.45251792   -8.7150652    65.202726  0.010695985 0.0093062119            3 
  509000    0.4524136   -8.6896118    65.152082   0.01066668 0.0092762142            1 
  510000   0.44432035   -8.7261694    65.203263  0.010654128 0.0092464065            2 
  511000   0.45112063   -8.7138581     65.08655  0.010614245 0.0092166752            1 
  512000   0.44876785   -8.7154747    65.116578  0.010598401 0.0091870885            1 
Loop time of 1203.16 on 48 procs for 500000 steps with 4000 atoms

Performance: 71810.756 tau/day, 415.572 timesteps/s
99.4% CPU use with 48 MPI tasks x no OpenMP threads

MPI task timing breakdown:
Section |  min time  |  avg time  |  max time  |%varavg| %total
---------------------------------------------------------------
Pair    | 75.241     | 81.121     | 86.916     |  30.1 |  6.74
Neigh   | 7.8016     | 8.2602     | 8.6646     |   6.3 |  0.69
Comm    | 76.675     | 83.291     | 91.164     |  35.9 |  6.92
Output  | 0.85442    | 0.85492    | 0.86335    |   0.1 |  0.07
Modify  | 1015.9     | 1018.5     | 1021.4     |   4.9 | 84.65
Other   |            | 11.18      |            |       |  0.93

Nlocal:        83.3333 ave          92 max          76 min
Histogram: 2 1 5 13 4 11 9 1 1 1
Nghost:        2089.50 ave        2108 max        2067 min
Histogram: 2 0 2 7 10 11 4 6 1 5
Neighs:        13621.2 ave       14933 max       12134 min
Histogram: 2 3 3 7 7 6 6 7 3 4
FullNghs:      27242.4 ave       30370 max       24528 min
Histogram: 2 1 5 10 10 8 8 2 1 1

Total # of neighbors = 1307636
Ave neighs/atom = 326.90900
Neighbor list builds = 26779
Dangerous builds = 0

#clear
#
#next RN
#
#jump SELF
Total wall time: 0:20:06
